    1C
    1U meshsolid_t.inp                                                  
    1UUSER                                                              
    1UDATE              05.july.2016                                    
    1UTIME              09:22:38                                        
    1UHOST                                                              
    1UPGM               CalculiX                                        
    1UVERSION           Version 2.10                             
    1UCOMPILETIME       Sa 5. MÃ¤r 12:23:33 CET 2016                    
    1UDIR                                                               
    1UDBN                                                               
    1UMAT    1PDMS                                                      
    2C                          3737                                     1
 -1         1 2.32070E+00-4.61617E-01 5.00000E-01
 -1         2 2.32070E+00-4.61617E-01 2.25000E+00
 -1         3-5.06195E+00 1.58259E+00 2.25000E+00
 -1         4-3.55164E+00-7.33319E+00 2.25000E+00
 -1         5-2.89912E+00 4.51663E+00 2.25000E+00
 -1         6-3.99049E+00 7.15142E+00 2.25000E+00
 -1         7-5.41583E+00 6.08758E+00 2.25000E+00
 -1         8-3.06338E+00 4.40688E+00 2.25000E+00
 -1         9-4.07100E+00 3.39925E+00 2.25000E+00
 -1        10-4.40688E+00 3.06338E+00 2.25000E+00
 -1        11-5.28227E+00 4.74999E-01 2.25000E+00
 -1        12-5.28227E+00-4.74999E-01 2.25000E+00
 -1        13-2.32070E+00-4.61617E-01 2.25000E+00
 -1        14-2.38798E+00 4.74999E-01 2.25000E+00
 -1        15-2.38798E+00-4.74999E-01 2.25000E+00
 -1        16-1.14375E+00-5.24373E+00 2.25000E+00
 -1        17-2.02443E+00 1.35268E+00 2.25000E+00
 -1        18-4.69840E+00 2.46028E+00 2.25000E+00
 -1        19-1.14375E+00 5.24373E+00 2.25000E+00
 -1        20 4.68498E+00 1.00693E+01 2.25000E+00
 -1        21 2.67396E+00 7.69674E+00 2.25000E+00
 -1        22 1.58259E+00 5.06195E+00 2.25000E+00
 -1        23 1.31457E+00 1.96740E+00 2.25000E+00
 -1        24 4.74999E-01 2.38798E+00 2.25000E+00
 -1        25 4.07100E+00 3.39925E+00 2.25000E+00
 -1        26 1.35268E+00 2.02443E+00 2.25000E+00
 -1        27 2.38798E+00 4.74999E-01 2.25000E+00
 -1        28 2.32070E+00 4.61617E-01 2.25000E+00
 -1        29 2.38798E+00-4.74999E-01 2.25000E+00
 -1        30 8.13414E+00 9.50000E-01 2.25000E+00
 -1        31 5.28227E+00 4.74999E-01 2.25000E+00
 -1        32 8.13414E+00-9.50000E-01 2.25000E+00
 -1        33 1.10957E+01-4.74999E-01 2.25000E+00
 -1        34 8.13414E+00 4.74999E-01 2.25000E+00
 -1        35 3.55164E+00-7.33319E+00 2.25000E+00
 -1        36 6.08758E+00 5.41583E+00 2.25000E+00
 -1        37 5.41583E+00 6.08758E+00 2.25000E+00
 -1        38 5.06195E+00 1.58259E+00 2.25000E+00
 -1        39 4.40688E+00 3.06338E+00 2.25000E+00
 -1        40 3.39925E+00 4.07100E+00 2.25000E+00
 -1        41 2.46028E+00-4.69840E+00 2.25000E+00
 -1        42 1.58259E+00-5.06195E+00 2.25000E+00
 -1        43 4.74999E-01-2.38798E+00 2.25000E+00
 -1        44-4.74999E-01-2.38798E+00 2.25000E+00
 -1        45-4.74999E-01-5.28227E+00 2.25000E+00
 -1        46 4.69840E+00-2.46028E+00 2.25000E+00
 -1        47 1.96740E+00-1.31457E+00 2.25000E+00
 -1        48 7.69674E+00-2.67396E+00 2.25000E+00
 -1        49 5.06195E+00-1.58259E+00 2.25000E+00
 -1        50 3.39925E+00-4.07100E+00 2.25000E+00
 -1        51 1.35268E+00-2.02443E+00 2.25000E+00
 -1        52 4.07100E+00-3.39925E+00 2.25000E+00
 -1        53 5.41583E+00-6.08758E+00 2.25000E+00
 -1        54 3.06338E+00-4.40688E+00 2.25000E+00
 -1        55 6.08758E+00-5.41583E+00 2.25000E+00
 -1        56 7.50997E+00-8.18172E+00 2.25000E+00
 -1        57 1.14375E+00-5.24373E+00 2.25000E+00
 -1        58-9.50000E-01-5.28227E+00 2.25000E+00
 -1        59-1.35268E+00-2.02443E+00 2.25000E+00
 -1        60 4.74999E-01 1.10957E+01 2.25000E+00
 -1        61-4.74999E-01 8.13414E+00 2.25000E+00
 -1        62 4.61617E-01 2.32070E+00 2.25000E+00
 -1        63-1.58259E+00 5.06195E+00 2.25000E+00
 -1        64-3.55164E+00 7.33319E+00 2.25000E+00
 -1        65-4.68498E+00 1.00693E+01 2.25000E+00
 -1        66 4.74999E-01 8.13414E+00 2.25000E+00
 -1        67 4.74999E-01 5.28227E+00 2.25000E+00
 -1        68 9.50000E-01-8.13414E+00 2.25000E+00
 -1        69-1.96740E+00-1.31457E+00 2.25000E+00
 -1        70-3.39925E+00-4.07100E+00 2.25000E+00
 -1        71-1.35268E+00 2.02443E+00 2.25000E+00
 -1        72-1.96740E+00 1.31457E+00 2.25000E+00
 -1        73-1.31457E+00 1.96740E+00 2.25000E+00
 -1        74-3.39925E+00 4.07100E+00 2.25000E+00
 -1        75-5.07995E+00-6.42346E+00 2.25000E+00
 -1        76-6.08758E+00-5.41583E+00 2.25000E+00
 -1        77-4.40688E+00-3.06338E+00 2.25000E+00
 -1        78-4.69840E+00-2.46028E+00 2.25000E+00
 -1        79-5.06195E+00-1.58259E+00 2.25000E+00
 -1        80-5.24373E+00-1.14375E+00 2.25000E+00
 -1        81-7.33319E+00-3.55164E+00 2.25000E+00
 -1        82-7.15142E+00-3.99049E+00 2.25000E+00
 -1        83-7.69674E+00-2.67396E+00 2.25000E+00
 -1        84-1.00693E+01 4.68498E+00 2.25000E+00
 -1        85-7.69674E+00 2.67396E+00 2.25000E+00
 -1        86-1.04329E+01 3.80730E+00 2.25000E+00
 -1        87-7.50997E+00 8.18172E+00 2.25000E+00
 -1        88-5.28227E+00 9.50000E-01 2.25000E+00
 -1        89-8.13414E+00 4.74999E-01 2.25000E+00
 -1        90-1.00693E+01-4.68498E+00 2.25000E+00
 -1        91 1.10957E+01 4.74999E-01 2.25000E+00
 -1        92 5.28227E+00-4.74999E-01 2.25000E+00
 -1        93 5.28227E+00 4.74999E-01 5.00000E-01
 -1        94 2.38798E+00 4.74999E-01 5.00000E-01
 -1        95 8.13414E+00-4.74999E-01 2.25000E+00
 -1        96 5.28227E+00 9.50000E-01 2.25000E+00
 -1        97 5.28227E+00-9.50000E-01 2.25000E+00
 -1        98 1.96740E+00 1.31457E+00 2.25000E+00
 -1        99 1.96740E+00 1.31457E+00 5.00000E-01
 -1       100 1.04329E+01 3.80730E+00 2.25000E+00
 -1       101 1.00693E+01 4.68498E+00 2.25000E+00
 -1       102 7.69674E+00 2.67396E+00 5.00000E-01
 -1       103 7.69674E+00 2.67396E+00 2.25000E+00
 -1       104 1.00693E+01 4.68498E+00 5.00000E-01
 -1       105 4.69840E+00 2.46028E+00 2.25000E+00
 -1       106 5.24373E+00 1.14375E+00 2.25000E+00
 -1       107 4.51663E+00 2.89912E+00 2.25000E+00
 -1       108 4.51663E+00 2.89912E+00 5.00000E-01
 -1       109 7.87852E+00 2.23512E+00 5.00000E-01
 -1       110 7.15142E+00 3.99049E+00 2.25000E+00
 -1       111 7.33319E+00 3.55164E+00 2.25000E+00
 -1       112 7.33319E+00 3.55164E+00 5.00000E-01
 -1       113 7.87852E+00 2.23512E+00 2.25000E+00
 -1       114 2.02443E+00 1.35268E+00 2.25000E+00
 -1       115 4.07100E+00 3.39925E+00 5.00000E-01
 -1       116 8.18172E+00 7.50997E+00 2.25000E+00
 -1       117 7.50997E+00 8.18172E+00 2.25000E+00
 -1       118 3.39925E+00 4.07100E+00 5.00000E-01
 -1       119 1.35268E+00 2.02443E+00 5.00000E-01
 -1       120 3.06338E+00 4.40688E+00 5.00000E-01
 -1       121 6.08758E+00 5.41583E+00 5.00000E-01
 -1       122 5.07995E+00 6.42346E+00 2.25000E+00
 -1       123 3.06338E+00 4.40688E+00 2.25000E+00
 -1       124 6.42346E+00 5.07995E+00 2.25000E+00
 -1       125 4.61617E-01 2.32070E+00 5.00000E-01
 -1       126 4.68498E+00 1.00693E+01 5.00000E-01
 -1       127 3.80730E+00 1.04329E+01 2.25000E+00
 -1       128 3.55164E+00 7.33319E+00 5.00000E-01
 -1       129 2.67396E+00 7.69674E+00 5.00000E-01
 -1       130 3.80730E+00 1.04329E+01 5.00000E-01
 -1       131 2.89912E+00 4.51663E+00 2.25000E+00
 -1       132 2.46028E+00 4.69840E+00 2.25000E+00
 -1       133 3.55164E+00 7.33319E+00 2.25000E+00
 -1       134 3.99049E+00 7.15142E+00 2.25000E+00
 -1       135 2.23512E+00 7.87852E+00 2.25000E+00
 -1       136 1.14375E+00 5.24373E+00 2.25000E+00
 -1       137 4.74999E-01 1.10957E+01 5.00000E-01
 -1       138-4.74999E-01 1.10957E+01 2.25000E+00
 -1       139-4.74999E-01 1.10957E+01 5.00000E-01
 -1       140-4.74999E-01 5.28227E+00 2.25000E+00
 -1       141 9.50000E-01 5.28227E+00 2.25000E+00
 -1       142 9.50000E-01 8.13414E+00 2.25000E+00
 -1       143-9.50000E-01 8.13414E+00 2.25000E+00
 -1       144-4.74999E-01 8.13414E+00 5.00000E-01
 -1       145-9.50000E-01 5.28227E+00 2.25000E+00
 -1       146 9.50000E-01 5.28227E+00 5.00000E-01
 -1       147-4.61617E-01 2.32070E+00 2.25000E+00
 -1       148-3.80730E+00 1.04329E+01 2.25000E+00
 -1       149-4.68498E+00 1.00693E+01 5.00000E-01
 -1       150-4.74999E-01 2.38798E+00 2.25000E+00
 -1       151-4.74999E-01 2.38798E+00 5.00000E-01
 -1       152-2.67396E+00 7.69674E+00 2.25000E+00
 -1       153-2.67396E+00 7.69674E+00 5.00000E-01
 -1       154-1.14375E+00 5.24373E+00 5.00000E-01
 -1       155-2.46028E+00 4.69840E+00 2.25000E+00
 -1       156-2.89912E+00 4.51663E+00 5.00000E-01
 -1       157-2.46028E+00 4.69840E+00 5.00000E-01
 -1       158-2.23512E+00 7.87852E+00 2.25000E+00
 -1       159-2.23512E+00 7.87852E+00 5.00000E-01
 -1       160-8.18172E+00 7.50997E+00 2.25000E+00
 -1       161-6.08758E+00 5.41583E+00 2.25000E+00
 -1       162-4.07100E+00 3.39925E+00 5.00000E-01
 -1       163-3.06338E+00 4.40688E+00 5.00000E-01
 -1       164-6.42346E+00 5.07995E+00 2.25000E+00
 -1       165-4.40688E+00 3.06338E+00 5.00000E-01
 -1       166-6.42346E+00 5.07995E+00 5.00000E-01
 -1       167-5.07995E+00 6.42346E+00 2.25000E+00
 -1       168-5.07995E+00 6.42346E+00 5.00000E-01
 -1       169-1.96740E+00 1.31457E+00 5.00000E-01
 -1       170-2.32070E+00 4.61617E-01 2.25000E+00
 -1       171-2.32070E+00 4.61617E-01 5.00000E-01
 -1       172-1.00693E+01 4.68498E+00 5.00000E-01
 -1       173-2.02443E+00 1.35268E+00 5.00000E-01
 -1       174-7.33319E+00 3.55164E+00 5.00000E-01
 -1       175-7.69674E+00 2.67396E+00 5.00000E-01
 -1       176-4.51663E+00 2.89912E+00 2.25000E+00
 -1       177-5.24373E+00 1.14375E+00 2.25000E+00
 -1       178-5.24373E+00 1.14375E+00 5.00000E-01
 -1       179-7.15142E+00 3.99049E+00 5.00000E-01
 -1       180-7.15142E+00 3.99049E+00 2.25000E+00
 -1       181-7.33319E+00 3.55164E+00 2.25000E+00
 -1       182-7.87852E+00 2.23512E+00 2.25000E+00
 -1       183-4.51663E+00 2.89912E+00 5.00000E-01
 -1       184-1.10957E+01-4.74999E-01 2.25000E+00
 -1       185-2.38798E+00 4.74999E-01 5.00000E-01
 -1       186-1.10957E+01 4.74999E-01 2.25000E+00
 -1       187-1.10957E+01 4.74999E-01 5.00000E-01
 -1       188-5.28227E+00 9.50000E-01 5.00000E-01
 -1       189-5.28227E+00 4.74999E-01 5.00000E-01
 -1       190-5.28227E+00-9.50000E-01 2.25000E+00
 -1       191-8.13414E+00-4.74999E-01 2.25000E+00
 -1       192-8.13414E+00-9.50000E-01 2.25000E+00
 -1       193-8.13414E+00-9.50000E-01 5.00000E-01
 -1       194-5.28227E+00-9.50000E-01 5.00000E-01
 -1       195-8.13414E+00 9.50000E-01 2.25000E+00
 -1       196-2.32070E+00-4.61617E-01 5.00000E-01
 -1       197-1.04329E+01-3.80730E+00 2.25000E+00
 -1       198-7.69674E+00-2.67396E+00 5.00000E-01
 -1       199-1.04329E+01-3.80730E+00 5.00000E-01
 -1       200-5.24373E+00-1.14375E+00 5.00000E-01
 -1       201-4.69840E+00-2.46028E+00 5.00000E-01
 -1       202-7.33319E+00-3.55164E+00 5.00000E-01
 -1       203-4.51663E+00-2.89912E+00 2.25000E+00
 -1       204-7.87852E+00-2.23512E+00 2.25000E+00
 -1       205-8.18172E+00-7.50997E+00 2.25000E+00
 -1       206-2.02443E+00-1.35268E+00 2.25000E+00
 -1       207-7.50997E+00-8.18172E+00 2.25000E+00
 -1       208-3.39925E+00-4.07100E+00 5.00000E-01
 -1       209-4.07100E+00-3.39925E+00 2.25000E+00
 -1       210-4.07100E+00-3.39925E+00 5.00000E-01
 -1       211-6.42346E+00-5.07995E+00 2.25000E+00
 -1       212-6.08758E+00-5.41583E+00 5.00000E-01
 -1       213-5.07995E+00-6.42346E+00 5.00000E-01
 -1       214-5.41583E+00-6.08758E+00 2.25000E+00
 -1       215-3.06338E+00-4.40688E+00 2.25000E+00
 -1       216-6.42346E+00-5.07995E+00 5.00000E-01
 -1       217-4.61617E-01-2.32070E+00 2.25000E+00
 -1       218-1.31457E+00-1.96740E+00 2.25000E+00
 -1       219-3.55164E+00-7.33319E+00 5.00000E-01
 -1       220-4.68498E+00-1.00693E+01 5.00000E-01
 -1       221-4.68498E+00-1.00693E+01 2.25000E+00
 -1       222-3.80730E+00-1.04329E+01 2.25000E+00
 -1       223-2.67396E+00-7.69674E+00 5.00000E-01
 -1       224-2.67396E+00-7.69674E+00 2.25000E+00
 -1       225-3.80730E+00-1.04329E+01 5.00000E-01
 -1       226-4.74999E-01-2.38798E+00 5.00000E-01
 -1       227-2.46028E+00-4.69840E+00 5.00000E-01
 -1       228-2.46028E+00-4.69840E+00 2.25000E+00
 -1       229-1.58259E+00-5.06195E+00 2.25000E+00
 -1       230-3.99049E+00-7.15142E+00 2.25000E+00
 -1       231-2.23512E+00-7.87852E+00 2.25000E+00
 -1       232-2.23512E+00-7.87852E+00 5.00000E-01
 -1       233-2.89912E+00-4.51663E+00 2.25000E+00
 -1       234-3.99049E+00-7.15142E+00 5.00000E-01
 -1       235 4.74999E-01-1.10957E+01 2.25000E+00
 -1       236 4.74999E-01-1.10957E+01 5.00000E-01
 -1       237-4.74999E-01-5.28227E+00 5.00000E-01
 -1       238-4.74999E-01-1.10957E+01 5.00000E-01
 -1       239-4.74999E-01-8.13414E+00 2.25000E+00
 -1       240-4.74999E-01-1.10957E+01 2.25000E+00
 -1       241 4.74999E-01-5.28227E+00 2.25000E+00
 -1       242 4.74999E-01-5.28227E+00 5.00000E-01
 -1       243-4.74999E-01-8.13414E+00 5.00000E-01
 -1       244 4.74999E-01-8.13414E+00 2.25000E+00
 -1       245 4.74999E-01-8.13414E+00 5.00000E-01
 -1       246 9.50000E-01-5.28227E+00 2.25000E+00
 -1       247 9.50000E-01-5.28227E+00 5.00000E-01
 -1       248-9.50000E-01-5.28227E+00 5.00000E-01
 -1       249-9.50000E-01-8.13414E+00 2.25000E+00
 -1       250 4.61617E-01-2.32070E+00 2.25000E+00
 -1       251 4.68498E+00-1.00693E+01 2.25000E+00
 -1       252 3.80730E+00-1.04329E+01 2.25000E+00
 -1       253 3.80730E+00-1.04329E+01 5.00000E-01
 -1       254 2.67396E+00-7.69674E+00 5.00000E-01
 -1       255 2.67396E+00-7.69674E+00 2.25000E+00
 -1       256 2.89912E+00-4.51663E+00 2.25000E+00
 -1       257 2.46028E+00-4.69840E+00 5.00000E-01
 -1       258 2.23512E+00-7.87852E+00 2.25000E+00
 -1       259 2.23512E+00-7.87852E+00 5.00000E-01
 -1       260 3.55164E+00-7.33319E+00 5.00000E-01
 -1       261 3.99049E+00-7.15142E+00 2.25000E+00
 -1       262 3.99049E+00-7.15142E+00 5.00000E-01
 -1       263 2.89912E+00-4.51663E+00 5.00000E-01
 -1       264 1.31457E+00-1.96740E+00 5.00000E-01
 -1       265 1.31457E+00-1.96740E+00 2.25000E+00
 -1       266 8.18172E+00-7.50997E+00 2.25000E+00
 -1       267 6.08758E+00-5.41583E+00 5.00000E-01
 -1       268 2.02443E+00-1.35268E+00 2.25000E+00
 -1       269 3.06338E+00-4.40688E+00 5.00000E-01
 -1       270 4.07100E+00-3.39925E+00 5.00000E-01
 -1       271 4.40688E+00-3.06338E+00 2.25000E+00
 -1       272 5.41583E+00-6.08758E+00 5.00000E-01
 -1       273 6.42346E+00-5.07995E+00 2.25000E+00
 -1       274 5.07995E+00-6.42346E+00 2.25000E+00
 -1       275 5.07995E+00-6.42346E+00 5.00000E-01
 -1       276 1.96740E+00-1.31457E+00 5.00000E-01
 -1       277 1.04329E+01-3.80730E+00 5.00000E-01
 -1       278 1.00693E+01-4.68498E+00 2.25000E+00
 -1       279 2.02443E+00-1.35268E+00 5.00000E-01
 -1       280 4.69840E+00-2.46028E+00 5.00000E-01
 -1       281 7.33319E+00-3.55164E+00 2.25000E+00
 -1       282 1.04329E+01-3.80730E+00 2.25000E+00
 -1       283 4.51663E+00-2.89912E+00 2.25000E+00
 -1       284 5.24373E+00-1.14375E+00 2.25000E+00
 -1       285 5.06195E+00-1.58259E+00 5.00000E-01
 -1       286 7.15142E+00-3.99049E+00 2.25000E+00
 -1       287 7.87852E+00-2.23512E+00 2.25000E+00
 -1       288 7.87852E+00-2.23512E+00 5.00000E-01
 -1       289 1.50000E+01 0.00000E+00-5.00000E-01
 -1       290-2.92635E+00-1.47118E+01 5.00000E-01
 -1       291-5.74025E+00-1.38582E+01-5.00000E-01
 -1       292-2.92635E+00-1.47118E+01-5.00000E-01
 -1       293 1.24720E+01 8.33355E+00 5.00000E-01
 -1       294 1.06066E+01 1.06066E+01-5.00000E-01
 -1       295-1.24720E+01 8.33355E+00 5.00000E-01
 -1       296 1.24720E+01 8.33355E+00-5.00000E-01
 -1       297 2.92635E+00 1.47118E+01 5.00000E-01
 -1       298-1.50000E+01 0.00000E+00-5.00000E-01
 -1       299-8.33355E+00 1.24720E+01 5.00000E-01
 -1       300-5.74025E+00 1.38582E+01-5.00000E-01
 -1       301-2.92635E+00 1.47118E+01 5.00000E-01
 -1       302 1.47118E+01 2.92635E+00-5.00000E-01
 -1       303 2.92635E+00-1.47118E+01 5.00000E-01
 -1       304 5.74025E+00-1.38582E+01 5.00000E-01
 -1       305 5.74025E+00-1.38582E+01-5.00000E-01
 -1       306-1.38582E+01-5.74025E+00 5.00000E-01
 -1       307-1.24720E+01-8.33355E+00 5.00000E-01
 -1       308-1.50000E+01 0.00000E+00 5.00000E-01
 -1       309 1.47118E+01-2.92635E+00-5.00000E-01
 -1       310 8.33355E+00-1.24720E+01-5.00000E-01
 -1       311 8.33355E+00 1.24720E+01-5.00000E-01
 -1       312 2.92635E+00-1.47118E+01-5.00000E-01
 -1       313 2.92635E+00 1.47118E+01-5.00000E-01
 -1       314 0.00000E+00-1.50000E+01-5.00000E-01
 -1       315 0.00000E+00 1.50000E+01-5.00000E-01
 -1       316-2.92635E+00 1.47118E+01-5.00000E-01
 -1       317-1.06066E+01 1.06066E+01-5.00000E-01
 -1       318-8.33355E+00 1.24720E+01-5.00000E-01
 -1       319-1.24720E+01-8.33355E+00-5.00000E-01
 -1       320-1.24720E+01 8.33355E+00-5.00000E-01
 -1       321-1.38582E+01 5.74025E+00-5.00000E-01
 -1       322-1.38582E+01-5.74025E+00-5.00000E-01
 -1       323-1.47118E+01-2.92635E+00-5.00000E-01
 -1       324-1.06066E+01-1.06066E+01-5.00000E-01
 -1       325 1.38582E+01 5.74025E+00-5.00000E-01
 -1       326 1.38582E+01 5.74025E+00 5.00000E-01
 -1       327 5.74025E+00 1.38582E+01-5.00000E-01
 -1       328-5.06195E+00-1.58259E+00 5.00000E-01
 -1       329-2.38798E+00-4.74999E-01 5.00000E-01
 -1       330-5.28227E+00-4.74999E-01 5.00000E-01
 -1       331-7.87852E+00-2.23512E+00 5.00000E-01
 -1       332-2.02443E+00-1.35268E+00 5.00000E-01
 -1       333-4.40688E+00-3.06338E+00 5.00000E-01
 -1       334-4.51663E+00-2.89912E+00 5.00000E-01
 -1       335-1.35268E+00-2.02443E+00 5.00000E-01
 -1       336-2.89912E+00-4.51663E+00 5.00000E-01
 -1       337-3.06338E+00-4.40688E+00 5.00000E-01
 -1       338-3.55164E+00 7.33319E+00 5.00000E-01
 -1       339-3.99049E+00 7.15142E+00 5.00000E-01
 -1       340-1.35268E+00 2.02443E+00 5.00000E-01
 -1       341-3.39925E+00 4.07100E+00 5.00000E-01
 -1       342-1.14375E+00-5.24373E+00 5.00000E-01
 -1       343-1.58259E+00-5.06195E+00 5.00000E-01
 -1       344 1.14375E+00-5.24373E+00 5.00000E-01
 -1       345 1.58259E+00-5.06195E+00 5.00000E-01
 -1       346 4.74999E-01-2.38798E+00 5.00000E-01
 -1       347 1.35268E+00-2.02443E+00 5.00000E-01
 -1       348 3.39925E+00-4.07100E+00 5.00000E-01
 -1       349 4.51663E+00-2.89912E+00 5.00000E-01
 -1       350 4.40688E+00-3.06338E+00 5.00000E-01
 -1       351 4.68498E+00-1.00693E+01 5.00000E-01
 -1       352 5.28227E+00-4.74999E-01 5.00000E-01
 -1       353 2.38798E+00-4.74999E-01 5.00000E-01
 -1       354 5.28227E+00-9.50000E-01 5.00000E-01
 -1       355 8.13414E+00-9.50000E-01 5.00000E-01
 -1       356 5.24373E+00-1.14375E+00 5.00000E-01
 -1       357 8.13414E+00 9.50000E-01 5.00000E-01
 -1       358 8.33355E+00 1.24720E+01 5.00000E-01
 -1       359 5.74025E+00 1.38582E+01 5.00000E-01
 -1       360 5.41583E+00 6.08758E+00 5.00000E-01
 -1       361 2.23512E+00 7.87852E+00 5.00000E-01
 -1       362 0.00000E+00 1.50000E+01 5.00000E-01
 -1       363-9.50000E-01 8.13414E+00 5.00000E-01
 -1       364-3.80730E+00 1.04329E+01 5.00000E-01
 -1       365-5.74025E+00 1.38582E+01 5.00000E-01
 -1       366-7.50997E+00 8.18172E+00 5.00000E-01
 -1       367-5.41583E+00 6.08758E+00 5.00000E-01
 -1       368 1.04329E+01 3.80730E+00 5.00000E-01
 -1       369 7.50997E+00 8.18172E+00 5.00000E-01
 -1       370 8.18172E+00 7.50997E+00 5.00000E-01
 -1       371 6.42346E+00 5.07995E+00 5.00000E-01
 -1       372 7.15142E+00 3.99049E+00 5.00000E-01
 -1       373 1.50000E+01 0.00000E+00 5.00000E-01
 -1       374 1.47118E+01 2.92635E+00 5.00000E-01
 -1       375 1.10957E+01 4.74999E-01 5.00000E-01
 -1       376 1.10957E+01-4.74999E-01 5.00000E-01
 -1       377 1.06066E+01 1.06066E+01 5.00000E-01
 -1       378 8.13414E+00 4.74999E-01 5.00000E-01
 -1       379 1.47118E+01-2.92635E+00 5.00000E-01
 -1       380 8.13414E+00-4.74999E-01 5.00000E-01
 -1       381 7.69674E+00-2.67396E+00 5.00000E-01
 -1       382 1.24720E+01-8.33355E+00 5.00000E-01
 -1       383 7.50997E+00-8.18172E+00 5.00000E-01
 -1       384 7.15142E+00-3.99049E+00 5.00000E-01
 -1       385 7.33319E+00-3.55164E+00 5.00000E-01
 -1       386 1.00693E+01-4.68498E+00 5.00000E-01
 -1       387 8.18172E+00-7.50997E+00 5.00000E-01
 -1       388 6.42346E+00-5.07995E+00 5.00000E-01
 -1       389 8.33355E+00-1.24720E+01 5.00000E-01
 -1       390 9.50000E-01-8.13414E+00 5.00000E-01
 -1       391-9.50000E-01-8.13414E+00 5.00000E-01
 -1       392 0.00000E+00-1.50000E+01 5.00000E-01
 -1       393-5.74025E+00-1.38582E+01 5.00000E-01
 -1       394-5.41583E+00-6.08758E+00 5.00000E-01
 -1       395-7.50997E+00-8.18172E+00 5.00000E-01
 -1       396-8.18172E+00-7.50997E+00 5.00000E-01
 -1       397-8.33355E+00-1.24720E+01 5.00000E-01
 -1       398 5.28227E+00 9.50000E-01 5.00000E-01
 -1       399 5.24373E+00 1.14375E+00 5.00000E-01
 -1       400 5.06195E+00 1.58259E+00 5.00000E-01
 -1       401 3.99049E+00 7.15142E+00 5.00000E-01
 -1       402 5.07995E+00 6.42346E+00 5.00000E-01
 -1       403 2.02443E+00 1.35268E+00 5.00000E-01
 -1       404 4.40688E+00 3.06338E+00 5.00000E-01
 -1       405 4.69840E+00 2.46028E+00 5.00000E-01
 -1       406 2.89912E+00 4.51663E+00 5.00000E-01
 -1       407 2.46028E+00 4.69840E+00 5.00000E-01
 -1       408 4.74999E-01 2.38798E+00 5.00000E-01
 -1       409 4.74999E-01 5.28227E+00 5.00000E-01
 -1       410 1.14375E+00 5.24373E+00 5.00000E-01
 -1       411 1.58259E+00 5.06195E+00 5.00000E-01
 -1       412 9.50000E-01 8.13414E+00 5.00000E-01
 -1       413 4.74999E-01 8.13414E+00 5.00000E-01
 -1       414-4.74999E-01 5.28227E+00 5.00000E-01
 -1       415-9.50000E-01 5.28227E+00 5.00000E-01
 -1       416-1.58259E+00 5.06195E+00 5.00000E-01
 -1       417-7.15142E+00-3.99049E+00 5.00000E-01
 -1       418-1.00693E+01-4.68498E+00 5.00000E-01
 -1       419-6.08758E+00 5.41583E+00 5.00000E-01
 -1       420-8.18172E+00 7.50997E+00 5.00000E-01
 -1       421-1.06066E+01 1.06066E+01 5.00000E-01
 -1       422-4.69840E+00 2.46028E+00 5.00000E-01
 -1       423-1.04329E+01 3.80730E+00 5.00000E-01
 -1       424-8.13414E+00 9.50000E-01 5.00000E-01
 -1       425-8.13414E+00 4.74999E-01 5.00000E-01
 -1       426-7.87852E+00 2.23512E+00 5.00000E-01
 -1       427-5.06195E+00 1.58259E+00 5.00000E-01
 -1       428-8.13414E+00-4.74999E-01 5.00000E-01
 -1       429-1.10957E+01-4.74999E-01 5.00000E-01
 -1       430-1.06066E+01-1.06066E+01 5.00000E-01
 -1       431-1.47118E+01 2.92635E+00 5.00000E-01
 -1       432 2.32070E+00 4.61617E-01 5.00000E-01
 -1       433 1.31457E+00 1.96740E+00 5.00000E-01
 -1       434 4.61617E-01-2.32070E+00 5.00000E-01
 -1       435-4.61617E-01-2.32070E+00 5.00000E-01
 -1       436-4.61617E-01 2.32070E+00 5.00000E-01
 -1       437-1.31457E+00 1.96740E+00 5.00000E-01
 -1       438-1.31457E+00-1.96740E+00 5.00000E-01
 -1       439-1.96740E+00-1.31457E+00 5.00000E-01
 -1       440-1.38582E+01 5.74025E+00 5.00000E-01
 -1       441-1.47118E+01 2.92635E+00-5.00000E-01
 -1       442 1.06066E+01-1.06066E+01 5.00000E-01
 -1       443 1.06066E+01-1.06066E+01-5.00000E-01
 -1       444 1.38582E+01-5.74025E+00-5.00000E-01
 -1       445 1.38582E+01-5.74025E+00 5.00000E-01
 -1       446 1.24720E+01-8.33355E+00-5.00000E-01
 -1       447-8.33355E+00-1.24720E+01-5.00000E-01
 -1       448-1.47118E+01-2.92635E+00 5.00000E-01
 -1       449 2.32070E+00 4.61617E-01 1.37500E+00
 -1       450 2.32070E+00-4.61617E-01 1.37500E+00
 -1       451-5.83402E+00 3.44480E+00 2.25000E+00
 -1       452-6.56112E+00 1.68944E+00 2.25000E+00
 -1       453-3.44480E+00-5.83402E+00 2.25000E+00
 -1       454-3.44480E+00 5.83402E+00 2.25000E+00
 -1       455-4.07166E+00 5.41517E+00 2.25000E+00
 -1       456-5.41517E+00 4.07166E+00 2.25000E+00
 -1       457-3.83512E+00 4.74999E-01 2.25000E+00
 -1       458-3.83512E+00-4.74999E-01 2.25000E+00
 -1       459-3.36141E+00-1.90648E+00 2.25000E+00
 -1       460-3.72497E+00-1.02879E+00 2.25000E+00
 -1       461-1.68944E+00-6.56112E+00 2.25000E+00
 -1       462-3.36141E+00 1.90648E+00 2.25000E+00
 -1       463-3.72497E+00 1.02879E+00 2.25000E+00
 -1       464-1.68944E+00 6.56112E+00 2.25000E+00
 -1       465 1.68944E+00 6.56112E+00 2.25000E+00
 -1       466 4.11831E+00 8.70125E+00 2.25000E+00
 -1       467 3.24063E+00 9.06482E+00 2.25000E+00
 -1       468 1.90648E+00 3.36141E+00 2.25000E+00
 -1       469 1.02879E+00 3.72497E+00 2.25000E+00
 -1       470 3.44480E+00 5.83402E+00 2.25000E+00
 -1       471 3.04771E+00 2.37597E+00 2.25000E+00
 -1       472 2.37597E+00 3.04771E+00 2.25000E+00
 -1       473 3.72497E+00 1.02879E+00 2.25000E+00
 -1       474 3.36141E+00 1.90648E+00 2.25000E+00
 -1       475 3.83512E+00 4.74999E-01 2.25000E+00
 -1       476 3.83512E+00-4.74999E-01 2.25000E+00
 -1       477 6.70821E+00 9.50000E-01 2.25000E+00
 -1       478 6.70821E+00-9.50000E-01 2.25000E+00
 -1       479 9.61492E+00 4.74999E-01 2.25000E+00
 -1       480 9.61492E+00-4.74999E-01 2.25000E+00
 -1       481 3.44480E+00-5.83402E+00 2.25000E+00
 -1       482 7.13465E+00 6.46290E+00 2.25000E+00
 -1       483 6.46290E+00 7.13465E+00 2.25000E+00
 -1       484 9.06482E+00 3.24063E+00 2.25000E+00
 -1       485 8.70125E+00 4.11831E+00 2.25000E+00
 -1       486 6.56112E+00 1.68944E+00 2.25000E+00
 -1       487 5.83402E+00 3.44480E+00 2.25000E+00
 -1       488 5.41517E+00 4.07166E+00 2.25000E+00
 -1       489 4.07166E+00 5.41517E+00 2.25000E+00
 -1       490 4.11831E+00-8.70125E+00 2.25000E+00
 -1       491 3.24063E+00-9.06482E+00 2.25000E+00
 -1       492 1.90648E+00-3.36141E+00 2.25000E+00
 -1       493 1.02879E+00-3.72497E+00 2.25000E+00
 -1       494 4.74999E-01-3.83512E+00 2.25000E+00
 -1       495-4.74999E-01-3.83512E+00 2.25000E+00
 -1       496 4.74999E-01-9.61492E+00 2.25000E+00
 -1       497-4.74999E-01-9.61492E+00 2.25000E+00
 -1       498 3.72497E+00-1.02879E+00 2.25000E+00
 -1       499 3.36141E+00-1.90648E+00 2.25000E+00
 -1       500 6.56112E+00-1.68944E+00 2.25000E+00
 -1       501 5.83402E+00-3.44480E+00 2.25000E+00
 -1       502 9.06482E+00-3.24063E+00 2.25000E+00
 -1       503 8.70125E+00-4.11831E+00 2.25000E+00
 -1       504 3.04771E+00-2.37597E+00 2.25000E+00
 -1       505 2.37597E+00-3.04771E+00 2.25000E+00
 -1       506 5.41517E+00-4.07166E+00 2.25000E+00
 -1       507 4.07166E+00-5.41517E+00 2.25000E+00
 -1       508 7.13465E+00-6.46290E+00 2.25000E+00
 -1       509 6.46290E+00-7.13465E+00 2.25000E+00
 -1       510 1.68944E+00-6.56112E+00 2.25000E+00
 -1       511-9.50000E-01-6.70821E+00 2.25000E+00
 -1       512-1.02879E+00-3.72497E+00 2.25000E+00
 -1       513-1.90648E+00-3.36141E+00 2.25000E+00
 -1       514-3.24063E+00-9.06482E+00 2.25000E+00
 -1       515-4.11831E+00-8.70125E+00 2.25000E+00
 -1       516-9.50000E-01 6.70821E+00 2.25000E+00
 -1       517 4.74999E-01 9.61492E+00 2.25000E+00
 -1       518 4.74999E-01 3.83512E+00 2.25000E+00
 -1       519-4.74999E-01 3.83512E+00 2.25000E+00
 -1       520-4.74999E-01 9.61492E+00 2.25000E+00
 -1       521-1.02879E+00 3.72497E+00 2.25000E+00
 -1       522-1.90648E+00 3.36141E+00 2.25000E+00
 -1       523-3.24063E+00 9.06482E+00 2.25000E+00
 -1       524-4.11831E+00 8.70125E+00 2.25000E+00
 -1       525 9.50000E-01 6.70821E+00 2.25000E+00
 -1       526 9.50000E-01-6.70821E+00 2.25000E+00
 -1       527-2.37597E+00-3.04771E+00 2.25000E+00
 -1       528-3.04771E+00-2.37597E+00 2.25000E+00
 -1       529-2.37597E+00 3.04771E+00 2.25000E+00
 -1       530-3.04771E+00 2.37597E+00 2.25000E+00
 -1       531-4.07166E+00-5.41517E+00 2.25000E+00
 -1       532-5.41517E+00-4.07166E+00 2.25000E+00
 -1       533-5.83402E+00-3.44480E+00 2.25000E+00
 -1       534-6.56112E+00-1.68944E+00 2.25000E+00
 -1       535-9.61492E+00 4.74999E-01 2.25000E+00
 -1       536-9.61492E+00-4.74999E-01 2.25000E+00
 -1       537-8.70125E+00 4.11831E+00 2.25000E+00
 -1       538-9.06482E+00 3.24063E+00 2.25000E+00
 -1       539-6.46290E+00 7.13465E+00 2.25000E+00
 -1       540-7.13465E+00 6.46290E+00 2.25000E+00
 -1       541-6.70821E+00 9.50000E-01 2.25000E+00
 -1       542-6.70821E+00-9.50000E-01 2.25000E+00
 -1       543-6.46290E+00-7.13465E+00 2.25000E+00
 -1       544-7.13465E+00-6.46290E+00 2.25000E+00
 -1       545-8.70125E+00-4.11831E+00 2.25000E+00
 -1       546-9.06482E+00-3.24063E+00 2.25000E+00
 -1       547 1.10957E+01 4.74999E-01 1.37500E+00
 -1       548 1.10957E+01-4.74999E-01 1.37500E+00
 -1       549 2.38798E+00-4.74999E-01 1.37500E+00
 -1       550 3.83512E+00-4.74999E-01 5.00000E-01
 -1       551 5.28227E+00-4.74999E-01 1.37500E+00
 -1       552 8.13414E+00-4.74999E-01 1.37500E+00
 -1       553 9.61492E+00-4.74999E-01 5.00000E-01
 -1       554 9.61492E+00 4.74999E-01 5.00000E-01
 -1       555 8.13414E+00 4.74999E-01 1.37500E+00
 -1       556 5.28227E+00 4.74999E-01 1.37500E+00
 -1       557 3.83512E+00 4.74999E-01 5.00000E-01
 -1       558 2.38798E+00 4.74999E-01 1.37500E+00
 -1       559 5.28227E+00-9.50000E-01 1.37500E+00
 -1       560 5.28227E+00 9.50000E-01 1.37500E+00
 -1       561 8.13414E+00-9.50000E-01 1.37500E+00
 -1       562 8.13414E+00 9.50000E-01 1.37500E+00
 -1       563 6.70821E+00 9.50000E-01 5.00000E-01
 -1       564 6.70821E+00-9.50000E-01 5.00000E-01
 -1       565 1.96740E+00 1.31457E+00 1.37500E+00
 -1       566 1.00693E+01 4.68498E+00 1.37500E+00
 -1       567 1.04329E+01 3.80730E+00 1.37500E+00
 -1       568 3.72497E+00 1.02879E+00 5.00000E-01
 -1       569 5.06195E+00 1.58259E+00 1.37500E+00
 -1       570 7.69674E+00 2.67396E+00 1.37500E+00
 -1       571 9.06482E+00 3.24063E+00 5.00000E-01
 -1       572 8.70125E+00 4.11831E+00 5.00000E-01
 -1       573 7.33319E+00 3.55164E+00 1.37500E+00
 -1       574 4.69840E+00 2.46028E+00 1.37500E+00
 -1       575 3.36141E+00 1.90648E+00 5.00000E-01
 -1       576 2.02443E+00 1.35268E+00 1.37500E+00
 -1       577 5.24373E+00 1.14375E+00 1.37500E+00
 -1       578 4.51663E+00 2.89912E+00 1.37500E+00
 -1       579 7.87852E+00 2.23512E+00 1.37500E+00
 -1       580 7.15142E+00 3.99049E+00 1.37500E+00
 -1       581 5.83402E+00 3.44480E+00 5.00000E-01
 -1       582 6.56112E+00 1.68944E+00 5.00000E-01
 -1       583 1.31457E+00 1.96740E+00 1.37500E+00
 -1       584 7.50997E+00 8.18172E+00 1.37500E+00
 -1       585 8.18172E+00 7.50997E+00 1.37500E+00
 -1       586 4.07100E+00 3.39925E+00 1.37500E+00
 -1       587 3.04771E+00 2.37597E+00 5.00000E-01
 -1       588 6.08758E+00 5.41583E+00 1.37500E+00
 -1       589 7.13465E+00 6.46290E+00 5.00000E-01
 -1       590 6.46290E+00 7.13465E+00 5.00000E-01
 -1       591 5.41583E+00 6.08758E+00 1.37500E+00
 -1       592 3.39925E+00 4.07100E+00 1.37500E+00
 -1       593 2.37597E+00 3.04771E+00 5.00000E-01
 -1       594 1.35268E+00 2.02443E+00 1.37500E+00
 -1       595 4.40688E+00 3.06338E+00 1.37500E+00
 -1       596 3.06338E+00 4.40688E+00 1.37500E+00
 -1       597 6.42346E+00 5.07995E+00 1.37500E+00
 -1       598 5.07995E+00 6.42346E+00 1.37500E+00
 -1       599 4.07166E+00 5.41517E+00 5.00000E-01
 -1       600 5.41517E+00 4.07166E+00 5.00000E-01
 -1       601 4.61617E-01 2.32070E+00 1.37500E+00
 -1       602 4.68498E+00 1.00693E+01 1.37500E+00
 -1       603 3.80730E+00 1.04329E+01 1.37500E+00
 -1       604 2.46028E+00 4.69840E+00 1.37500E+00
 -1       605 1.90648E+00 3.36141E+00 5.00000E-01
 -1       606 3.55164E+00 7.33319E+00 1.37500E+00
 -1       607 4.11831E+00 8.70125E+00 5.00000E-01
 -1       608 3.24063E+00 9.06482E+00 5.00000E-01
 -1       609 2.67396E+00 7.69674E+00 1.37500E+00
 -1       610 1.58259E+00 5.06195E+00 1.37500E+00
 -1       611 1.02879E+00 3.72497E+00 5.00000E-01
 -1       612 4.74999E-01 2.38798E+00 1.37500E+00
 -1       613 2.89912E+00 4.51663E+00 1.37500E+00
 -1       614 1.14375E+00 5.24373E+00 1.37500E+00
 -1       615 3.99049E+00 7.15142E+00 1.37500E+00
 -1       616 2.23512E+00 7.87852E+00 1.37500E+00
 -1       617 1.68944E+00 6.56112E+00 5.00000E-01
 -1       618 3.44480E+00 5.83402E+00 5.00000E-01
 -1       619-4.61617E-01 2.32070E+00 1.37500E+00
 -1       620 4.74999E-01 1.10957E+01 1.37500E+00
 -1       621-4.74999E-01 1.10957E+01 1.37500E+00
 -1       622 4.74999E-01 5.28227E+00 1.37500E+00
 -1       623 4.74999E-01 3.83512E+00 5.00000E-01
 -1       624 4.74999E-01 8.13414E+00 1.37500E+00
 -1       625 4.74999E-01 9.61492E+00 5.00000E-01
 -1       626-4.74999E-01 9.61492E+00 5.00000E-01
 -1       627-4.74999E-01 8.13414E+00 1.37500E+00
 -1       628-4.74999E-01 5.28227E+00 1.37500E+00
 -1       629-4.74999E-01 3.83512E+00 5.00000E-01
 -1       630-4.74999E-01 2.38798E+00 1.37500E+00
 -1       631 9.50000E-01 5.28227E+00 1.37500E+00
 -1       632-9.50000E-01 5.28227E+00 1.37500E+00
 -1       633 9.50000E-01 8.13414E+00 1.37500E+00
 -1       634-9.50000E-01 8.13414E+00 1.37500E+00
 -1       635-9.50000E-01 6.70821E+00 5.00000E-01
 -1       636 9.50000E-01 6.70821E+00 5.00000E-01
 -1       637-1.31457E+00 1.96740E+00 1.37500E+00
 -1       638-3.80730E+00 1.04329E+01 1.37500E+00
 -1       639-4.68498E+00 1.00693E+01 1.37500E+00
 -1       640-1.58259E+00 5.06195E+00 1.37500E+00
 -1       641-1.02879E+00 3.72497E+00 5.00000E-01
 -1       642-2.67396E+00 7.69674E+00 1.37500E+00
 -1       643-3.24063E+00 9.06482E+00 5.00000E-01
 -1       644-4.11831E+00 8.70125E+00 5.00000E-01
 -1       645-3.55164E+00 7.33319E+00 1.37500E+00
 -1       646-2.46028E+00 4.69840E+00 1.37500E+00
 -1       647-1.90648E+00 3.36141E+00 5.00000E-01
 -1       648-1.35268E+00 2.02443E+00 1.37500E+00
 -1       649-1.14375E+00 5.24373E+00 1.37500E+00
 -1       650-2.89912E+00 4.51663E+00 1.37500E+00
 -1       651-2.23512E+00 7.87852E+00 1.37500E+00
 -1       652-3.99049E+00 7.15142E+00 1.37500E+00
 -1       653-3.44480E+00 5.83402E+00 5.00000E-01
 -1       654-1.68944E+00 6.56112E+00 5.00000E-01
 -1       655-1.96740E+00 1.31457E+00 1.37500E+00
 -1       656-7.50997E+00 8.18172E+00 1.37500E+00
 -1       657-8.18172E+00 7.50997E+00 1.37500E+00
 -1       658-3.39925E+00 4.07100E+00 1.37500E+00
 -1       659-2.37597E+00 3.04771E+00 5.00000E-01
 -1       660-5.41583E+00 6.08758E+00 1.37500E+00
 -1       661-6.46290E+00 7.13465E+00 5.00000E-01
 -1       662-7.13465E+00 6.46290E+00 5.00000E-01
 -1       663-6.08758E+00 5.41583E+00 1.37500E+00
 -1       664-4.07100E+00 3.39925E+00 1.37500E+00
 -1       665-3.04771E+00 2.37597E+00 5.00000E-01
 -1       666-2.02443E+00 1.35268E+00 1.37500E+00
 -1       667-3.06338E+00 4.40688E+00 1.37500E+00
 -1       668-4.40688E+00 3.06338E+00 1.37500E+00
 -1       669-5.07995E+00 6.42346E+00 1.37500E+00
 -1       670-6.42346E+00 5.07995E+00 1.37500E+00
 -1       671-5.41517E+00 4.07166E+00 5.00000E-01
 -1       672-4.07166E+00 5.41517E+00 5.00000E-01
 -1       673-2.32070E+00 4.61617E-01 1.37500E+00
 -1       674-1.00693E+01 4.68498E+00 1.37500E+00
 -1       675-1.04329E+01 3.80730E+00 1.37500E+00
 -1       676-3.36141E+00 1.90648E+00 5.00000E-01
 -1       677-4.69840E+00 2.46028E+00 1.37500E+00
 -1       678-7.33319E+00 3.55164E+00 1.37500E+00
 -1       679-8.70125E+00 4.11831E+00 5.00000E-01
 -1       680-9.06482E+00 3.24063E+00 5.00000E-01
 -1       681-7.69674E+00 2.67396E+00 1.37500E+00
 -1       682-5.06195E+00 1.58259E+00 1.37500E+00
 -1       683-3.72497E+00 1.02879E+00 5.00000E-01
 -1       684-2.38798E+00 4.74999E-01 1.37500E+00
 -1       685-4.51663E+00 2.89912E+00 1.37500E+00
 -1       686-5.24373E+00 1.14375E+00 1.37500E+00
 -1       687-7.15142E+00 3.99049E+00 1.37500E+00
 -1       688-7.87852E+00 2.23512E+00 1.37500E+00
 -1       689-6.56112E+00 1.68944E+00 5.00000E-01
 -1       690-5.83402E+00 3.44480E+00 5.00000E-01
 -1       691-2.32070E+00-4.61617E-01 1.37500E+00
 -1       692-1.10957E+01 4.74999E-01 1.37500E+00
 -1       693-1.10957E+01-4.74999E-01 1.37500E+00
 -1       694-3.83512E+00 4.74999E-01 5.00000E-01
 -1       695-5.28227E+00 4.74999E-01 1.37500E+00
 -1       696-8.13414E+00 4.74999E-01 1.37500E+00
 -1       697-9.61492E+00 4.74999E-01 5.00000E-01
 -1       698-9.61492E+00-4.74999E-01 5.00000E-01
 -1       699-8.13414E+00-4.74999E-01 1.37500E+00
 -1       700-5.28227E+00-4.74999E-01 1.37500E+00
 -1       701-3.83512E+00-4.74999E-01 5.00000E-01
 -1       702-2.38798E+00-4.74999E-01 1.37500E+00
 -1       703-5.28227E+00 9.50000E-01 1.37500E+00
 -1       704-5.28227E+00-9.50000E-01 1.37500E+00
 -1       705-8.13414E+00 9.50000E-01 1.37500E+00
 -1       706-8.13414E+00-9.50000E-01 1.37500E+00
 -1       707-6.70821E+00-9.50000E-01 5.00000E-01
 -1       708-6.70821E+00 9.50000E-01 5.00000E-01
 -1       709-1.96740E+00-1.31457E+00 1.37500E+00
 -1       710-1.04329E+01-3.80730E+00 1.37500E+00
 -1       711-1.00693E+01-4.68498E+00 1.37500E+00
 -1       712-3.72497E+00-1.02879E+00 5.00000E-01
 -1       713-5.06195E+00-1.58259E+00 1.37500E+00
 -1       714-7.69674E+00-2.67396E+00 1.37500E+00
 -1       715-9.06482E+00-3.24063E+00 5.00000E-01
 -1       716-8.70125E+00-4.11831E+00 5.00000E-01
 -1       717-7.33319E+00-3.55164E+00 1.37500E+00
 -1       718-4.69840E+00-2.46028E+00 1.37500E+00
 -1       719-3.36141E+00-1.90648E+00 5.00000E-01
 -1       720-2.02443E+00-1.35268E+00 1.37500E+00
 -1       721-5.24373E+00-1.14375E+00 1.37500E+00
 -1       722-4.51663E+00-2.89912E+00 1.37500E+00
 -1       723-7.87852E+00-2.23512E+00 1.37500E+00
 -1       724-7.15142E+00-3.99049E+00 1.37500E+00
 -1       725-5.83402E+00-3.44480E+00 5.00000E-01
 -1       726-6.56112E+00-1.68944E+00 5.00000E-01
 -1       727-1.31457E+00-1.96740E+00 1.37500E+00
 -1       728-8.18172E+00-7.50997E+00 1.37500E+00
 -1       729-7.50997E+00-8.18172E+00 1.37500E+00
 -1       730-3.04771E+00-2.37597E+00 5.00000E-01
 -1       731-4.07100E+00-3.39925E+00 1.37500E+00
 -1       732-6.08758E+00-5.41583E+00 1.37500E+00
 -1       733-7.13465E+00-6.46290E+00 5.00000E-01
 -1       734-5.41583E+00-6.08758E+00 1.37500E+00
 -1       735-6.46290E+00-7.13465E+00 5.00000E-01
 -1       736-1.35268E+00-2.02443E+00 1.37500E+00
 -1       737-3.39925E+00-4.07100E+00 1.37500E+00
 -1       738-2.37597E+00-3.04771E+00 5.00000E-01
 -1       739-4.40688E+00-3.06338E+00 1.37500E+00
 -1       740-3.06338E+00-4.40688E+00 1.37500E+00
 -1       741-6.42346E+00-5.07995E+00 1.37500E+00
 -1       742-5.07995E+00-6.42346E+00 1.37500E+00
 -1       743-4.07166E+00-5.41517E+00 5.00000E-01
 -1       744-5.41517E+00-4.07166E+00 5.00000E-01
 -1       745-4.61617E-01-2.32070E+00 1.37500E+00
 -1       746-4.68498E+00-1.00693E+01 1.37500E+00
 -1       747-3.80730E+00-1.04329E+01 1.37500E+00
 -1       748-1.90648E+00-3.36141E+00 5.00000E-01
 -1       749-2.46028E+00-4.69840E+00 1.37500E+00
 -1       750-3.55164E+00-7.33319E+00 1.37500E+00
 -1       751-4.11831E+00-8.70125E+00 5.00000E-01
 -1       752-2.67396E+00-7.69674E+00 1.37500E+00
 -1       753-3.24063E+00-9.06482E+00 5.00000E-01
 -1       754-4.74999E-01-2.38798E+00 1.37500E+00
 -1       755-1.58259E+00-5.06195E+00 1.37500E+00
 -1       756-1.02879E+00-3.72497E+00 5.00000E-01
 -1       757-2.89912E+00-4.51663E+00 1.37500E+00
 -1       758-1.14375E+00-5.24373E+00 1.37500E+00
 -1       759-3.99049E+00-7.15142E+00 1.37500E+00
 -1       760-2.23512E+00-7.87852E+00 1.37500E+00
 -1       761-1.68944E+00-6.56112E+00 5.00000E-01
 -1       762-3.44480E+00-5.83402E+00 5.00000E-01
 -1       763 4.61617E-01-2.32070E+00 1.37500E+00
 -1       764-4.74999E-01-1.10957E+01 1.37500E+00
 -1       765 4.74999E-01-1.10957E+01 1.37500E+00
 -1       766-4.74999E-01-3.83512E+00 5.00000E-01
 -1       767-4.74999E-01-5.28227E+00 1.37500E+00
 -1       768-4.74999E-01-8.13414E+00 1.37500E+00
 -1       769-4.74999E-01-9.61492E+00 5.00000E-01
 -1       770 4.74999E-01-8.13414E+00 1.37500E+00
 -1       771 4.74999E-01-9.61492E+00 5.00000E-01
 -1       772 4.74999E-01-2.38798E+00 1.37500E+00
 -1       773 4.74999E-01-5.28227E+00 1.37500E+00
 -1       774 4.74999E-01-3.83512E+00 5.00000E-01
 -1       775-9.50000E-01-5.28227E+00 1.37500E+00
 -1       776 9.50000E-01-5.28227E+00 1.37500E+00
 -1       777-9.50000E-01-8.13414E+00 1.37500E+00
 -1       778 9.50000E-01-8.13414E+00 1.37500E+00
 -1       779 9.50000E-01-6.70821E+00 5.00000E-01
 -1       780-9.50000E-01-6.70821E+00 5.00000E-01
 -1       781 1.31457E+00-1.96740E+00 1.37500E+00
 -1       782 3.80730E+00-1.04329E+01 1.37500E+00
 -1       783 4.68498E+00-1.00693E+01 1.37500E+00
 -1       784 1.02879E+00-3.72497E+00 5.00000E-01
 -1       785 1.58259E+00-5.06195E+00 1.37500E+00
 -1       786 2.67396E+00-7.69674E+00 1.37500E+00
 -1       787 3.24063E+00-9.06482E+00 5.00000E-01
 -1       788 3.55164E+00-7.33319E+00 1.37500E+00
 -1       789 4.11831E+00-8.70125E+00 5.00000E-01
 -1       790 1.35268E+00-2.02443E+00 1.37500E+00
 -1       791 2.46028E+00-4.69840E+00 1.37500E+00
 -1       792 1.90648E+00-3.36141E+00 5.00000E-01
 -1       793 1.14375E+00-5.24373E+00 1.37500E+00
 -1       794 2.89912E+00-4.51663E+00 1.37500E+00
 -1       795 2.23512E+00-7.87852E+00 1.37500E+00
 -1       796 3.99049E+00-7.15142E+00 1.37500E+00
 -1       797 3.44480E+00-5.83402E+00 5.00000E-01
 -1       798 1.68944E+00-6.56112E+00 5.00000E-01
 -1       799 1.96740E+00-1.31457E+00 1.37500E+00
 -1       800 8.18172E+00-7.50997E+00 1.37500E+00
 -1       801 7.50997E+00-8.18172E+00 1.37500E+00
 -1       802 2.37597E+00-3.04771E+00 5.00000E-01
 -1       803 3.39925E+00-4.07100E+00 1.37500E+00
 -1       804 5.41583E+00-6.08758E+00 1.37500E+00
 -1       805 6.46290E+00-7.13465E+00 5.00000E-01
 -1       806 6.08758E+00-5.41583E+00 1.37500E+00
 -1       807 7.13465E+00-6.46290E+00 5.00000E-01
 -1       808 2.02443E+00-1.35268E+00 1.37500E+00
 -1       809 4.07100E+00-3.39925E+00 1.37500E+00
 -1       810 3.04771E+00-2.37597E+00 5.00000E-01
 -1       811 3.06338E+00-4.40688E+00 1.37500E+00
 -1       812 4.40688E+00-3.06338E+00 1.37500E+00
 -1       813 5.07995E+00-6.42346E+00 1.37500E+00
 -1       814 6.42346E+00-5.07995E+00 1.37500E+00
 -1       815 5.41517E+00-4.07166E+00 5.00000E-01
 -1       816 4.07166E+00-5.41517E+00 5.00000E-01
 -1       817 1.04329E+01-3.80730E+00 1.37500E+00
 -1       818 1.00693E+01-4.68498E+00 1.37500E+00
 -1       819 3.36141E+00-1.90648E+00 5.00000E-01
 -1       820 4.69840E+00-2.46028E+00 1.37500E+00
 -1       821 7.33319E+00-3.55164E+00 1.37500E+00
 -1       822 8.70125E+00-4.11831E+00 5.00000E-01
 -1       823 9.06482E+00-3.24063E+00 5.00000E-01
 -1       824 7.69674E+00-2.67396E+00 1.37500E+00
 -1       825 5.06195E+00-1.58259E+00 1.37500E+00
 -1       826 3.72497E+00-1.02879E+00 5.00000E-01
 -1       827 4.51663E+00-2.89912E+00 1.37500E+00
 -1       828 5.24373E+00-1.14375E+00 1.37500E+00
 -1       829 7.15142E+00-3.99049E+00 1.37500E+00
 -1       830 7.87852E+00-2.23512E+00 1.37500E+00
 -1       831 6.56112E+00-1.68944E+00 5.00000E-01
 -1       832 5.83402E+00-3.44480E+00 5.00000E-01
 -1       833 9.47007E+00 1.15393E+01 5.00000E-01
 -1       834 9.47007E+00 1.15393E+01-5.00000E-01
 -1       835 1.48559E+01-1.46318E+00 5.00000E-01
 -1       836 1.48559E+01-1.46318E+00-5.00000E-01
 -1       837-4.33330E+00-1.42850E+01 5.00000E-01
 -1       838-4.33330E+00-1.42850E+01-5.00000E-01
 -1       839 1.15393E+01 9.47007E+00 5.00000E-01
 -1       840 1.15393E+01 9.47007E+00-5.00000E-01
 -1       841-4.33330E+00 1.42850E+01 5.00000E-01
 -1       842-4.33330E+00 1.42850E+01-5.00000E-01
 -1       843-1.31651E+01 7.03690E+00-5.00000E-01
 -1       844-1.31651E+01 7.03690E+00 5.00000E-01
 -1       845 1.31651E+01 7.03690E+00 5.00000E-01
 -1       846 1.31651E+01 7.03690E+00-5.00000E-01
 -1       847 7.03690E+00 1.31651E+01 5.00000E-01
 -1       848 7.03690E+00 1.31651E+01-5.00000E-01
 -1       849 1.46318E+00 1.48559E+01 5.00000E-01
 -1       850 1.46318E+00 1.48559E+01-5.00000E-01
 -1       851-1.48559E+01 1.46318E+00-5.00000E-01
 -1       852-1.48559E+01 1.46318E+00 5.00000E-01
 -1       853-1.15393E+01 9.47007E+00-5.00000E-01
 -1       854-1.15393E+01 9.47007E+00 5.00000E-01
 -1       855-7.03690E+00 1.31651E+01 5.00000E-01
 -1       856-7.03690E+00 1.31651E+01-5.00000E-01
 -1       857-1.46318E+00 1.48559E+01 5.00000E-01
 -1       858-1.46318E+00 1.48559E+01-5.00000E-01
 -1       859-9.47007E+00 1.15393E+01 5.00000E-01
 -1       860-9.47007E+00 1.15393E+01-5.00000E-01
 -1       861 1.48559E+01 1.46318E+00 5.00000E-01
 -1       862 1.48559E+01 1.46318E+00-5.00000E-01
 -1       863 1.46318E+00-1.48559E+01 5.00000E-01
 -1       864 1.46318E+00-1.48559E+01-5.00000E-01
 -1       865 1.42850E+01-4.33330E+00 5.00000E-01
 -1       866 1.42850E+01-4.33330E+00-5.00000E-01
 -1       867 4.33330E+00-1.42850E+01 5.00000E-01
 -1       868 4.33330E+00-1.42850E+01-5.00000E-01
 -1       869 7.03690E+00-1.31651E+01 5.00000E-01
 -1       870 7.03690E+00-1.31651E+01-5.00000E-01
 -1       871-1.46318E+00-1.48559E+01 5.00000E-01
 -1       872-1.46318E+00-1.48559E+01-5.00000E-01
 -1       873-9.47007E+00-1.15393E+01 5.00000E-01
 -1       874-9.47007E+00-1.15393E+01-5.00000E-01
 -1       875-1.31651E+01-7.03690E+00-5.00000E-01
 -1       876-1.31651E+01-7.03690E+00 5.00000E-01
 -1       877-1.48559E+01-1.46318E+00-5.00000E-01
 -1       878-1.48559E+01-1.46318E+00 5.00000E-01
 -1       879 1.42850E+01 4.33330E+00-5.00000E-01
 -1       880 1.31651E+01-7.03690E+00-5.00000E-01
 -1       881 1.15393E+01-9.47007E+00-5.00000E-01
 -1       882 9.47007E+00-1.15393E+01-5.00000E-01
 -1       883 4.33330E+00 1.42850E+01-5.00000E-01
 -1       884-7.03690E+00-1.31651E+01-5.00000E-01
 -1       885-1.15393E+01-9.47007E+00-5.00000E-01
 -1       886-1.42850E+01-4.33330E+00-5.00000E-01
 -1       887-1.42850E+01 4.33330E+00-5.00000E-01
 -1       888-1.15393E+01-9.47007E+00 5.00000E-01
 -1       889 1.42850E+01 4.33330E+00 5.00000E-01
 -1       890 4.33330E+00 1.42850E+01 5.00000E-01
 -1       891 1.31651E+01-7.03690E+00 5.00000E-01
 -1       892 1.15393E+01-9.47007E+00 5.00000E-01
 -1       893 9.47007E+00-1.15393E+01 5.00000E-01
 -1       894-7.03690E+00-1.31651E+01 5.00000E-01
 -1       895-1.42850E+01 4.33330E+00 5.00000E-01
 -1       896-1.42850E+01-4.33330E+00 5.00000E-01
 -1       897-3.71765E+00-6.49272E+00 2.25000E+00
 -1       898-4.57581E+00 5.91931E+00 2.25000E+00
 -1       899-4.55870E+00 4.74999E-01 2.25000E+00
 -1       900-3.11155E+00-4.74999E-01 2.25000E+00
 -1       901-4.39346E+00-1.30569E+00 2.25000E+00
 -1       902-1.41659E+00-5.90243E+00 2.25000E+00
 -1       903-1.96228E+00 7.21982E+00 2.25000E+00
 -1       904 2.95729E+00 8.38078E+00 2.25000E+00
 -1       905 3.71765E+00 6.49272E+00 2.25000E+00
 -1       906 3.55936E+00 2.88761E+00 2.25000E+00
 -1       907 1.86432E+00 2.53607E+00 2.25000E+00
 -1       908 2.69292E+00 1.62958E+00 2.25000E+00
 -1       909 4.55870E+00-4.74999E-01 2.25000E+00
 -1       910 5.99524E+00 9.50000E-01 2.25000E+00
 -1       911 8.87453E+00 4.74999E-01 2.25000E+00
 -1       912 1.03553E+01-4.74999E-01 2.25000E+00
 -1       913 3.17196E+00-5.17533E+00 2.25000E+00
 -1       914 9.74886E+00 3.52396E+00 2.25000E+00
 -1       915 6.49272E+00 3.71765E+00 2.25000E+00
 -1       916 5.17533E+00 3.17196E+00 2.25000E+00
 -1       917 3.56752E+00 4.91103E+00 2.25000E+00
 -1       918 1.30569E+00-4.39346E+00 2.25000E+00
 -1       919 4.74999E-01-3.11155E+00 2.25000E+00
 -1       920-4.74999E-01-1.03553E+01 2.25000E+00
 -1       921 4.02991E+00-2.18338E+00 2.25000E+00
 -1       922 8.38078E+00-2.95729E+00 2.25000E+00
 -1       923 9.38527E+00-4.40165E+00 2.25000E+00
 -1       924 2.53607E+00-1.86432E+00 2.25000E+00
 -1       925 2.88761E+00-3.55936E+00 2.25000E+00
 -1       926 6.61111E+00-5.93936E+00 2.25000E+00
 -1       927 6.98643E+00-7.65819E+00 2.25000E+00
 -1       928 1.41659E+00-5.90243E+00 2.25000E+00
 -1       929 1.96228E+00-7.21982E+00 2.25000E+00
 -1       930-9.50000E-01-7.42117E+00 2.25000E+00
 -1       931 4.74999E-01 4.55870E+00 2.25000E+00
 -1       932-4.74999E-01 3.11155E+00 2.25000E+00
 -1       933-5.91931E+00-4.57581E+00 2.25000E+00
 -1       934-8.38078E+00 2.95729E+00 2.25000E+00
 -1       935-6.98643E+00 7.65819E+00 2.25000E+00
 -1       936-7.42117E+00 9.50000E-01 2.25000E+00
 -1       937-5.93936E+00-6.61111E+00 2.25000E+00
 -1       938-7.65819E+00-6.98643E+00 2.25000E+00
 -1       939-9.74886E+00-3.52396E+00 2.25000E+00
 -1       940 4.55870E+00-4.74999E-01 5.00000E-01
 -1       941 8.87453E+00-4.74999E-01 5.00000E-01
 -1       942 1.03553E+01-4.74999E-01 5.00000E-01
 -1       943 8.87453E+00 4.74999E-01 5.00000E-01
 -1       944 3.11155E+00 4.74999E-01 5.00000E-01
 -1       945 7.42117E+00 9.50000E-01 5.00000E-01
 -1       946 5.99524E+00 9.50000E-01 5.00000E-01
 -1       947 5.99524E+00-9.50000E-01 5.00000E-01
 -1       948 7.42117E+00-9.50000E-01 5.00000E-01
 -1       949 8.38078E+00 2.95729E+00 5.00000E-01
 -1       950 9.74886E+00 3.52396E+00 5.00000E-01
 -1       951 8.01722E+00 3.83498E+00 5.00000E-01
 -1       952 2.69292E+00 1.62958E+00 5.00000E-01
 -1       953 6.49272E+00 3.71765E+00 5.00000E-01
 -1       954 5.17533E+00 3.17196E+00 5.00000E-01
 -1       955 5.90243E+00 1.41659E+00 5.00000E-01
 -1       956 7.21982E+00 1.96228E+00 5.00000E-01
 -1       957 3.55936E+00 2.88761E+00 5.00000E-01
 -1       958 6.61111E+00 5.93936E+00 5.00000E-01
 -1       959 7.65819E+00 6.98643E+00 5.00000E-01
 -1       960 5.93936E+00 6.61111E+00 5.00000E-01
 -1       961 1.86432E+00 2.53607E+00 5.00000E-01
 -1       962 4.57581E+00 5.91931E+00 5.00000E-01
 -1       963 3.56752E+00 4.91103E+00 5.00000E-01
 -1       964 4.91103E+00 3.56752E+00 5.00000E-01
 -1       965 5.91931E+00 4.57581E+00 5.00000E-01
 -1       966 2.18338E+00 4.02991E+00 5.00000E-01
 -1       967 4.40165E+00 9.38527E+00 5.00000E-01
 -1       968 2.95729E+00 8.38078E+00 5.00000E-01
 -1       969 7.51897E-01 3.05647E+00 5.00000E-01
 -1       970 1.96228E+00 7.21982E+00 5.00000E-01
 -1       971 1.41659E+00 5.90243E+00 5.00000E-01
 -1       972 3.17196E+00 5.17533E+00 5.00000E-01
 -1       973 3.71765E+00 6.49272E+00 5.00000E-01
 -1       974 4.74999E-01 4.55870E+00 5.00000E-01
 -1       975 4.74999E-01 1.03553E+01 5.00000E-01
 -1       976-4.74999E-01 8.87453E+00 5.00000E-01
 -1       977-4.74999E-01 3.11155E+00 5.00000E-01
 -1       978-9.50000E-01 7.42117E+00 5.00000E-01
 -1       979-9.50000E-01 5.99524E+00 5.00000E-01
 -1       980 9.50000E-01 5.99524E+00 5.00000E-01
 -1       981 9.50000E-01 7.42117E+00 5.00000E-01
 -1       982-1.30569E+00 4.39346E+00 5.00000E-01
 -1       983-2.95729E+00 8.38078E+00 5.00000E-01
 -1       984-3.52396E+00 9.74886E+00 5.00000E-01
 -1       985-3.83498E+00 8.01722E+00 5.00000E-01
 -1       986-1.62958E+00 2.69292E+00 5.00000E-01
 -1       987-3.71765E+00 6.49272E+00 5.00000E-01
 -1       988-3.17196E+00 5.17533E+00 5.00000E-01
 -1       989-1.41659E+00 5.90243E+00 5.00000E-01
 -1       990-1.96228E+00 7.21982E+00 5.00000E-01
 -1       991-2.88761E+00 3.55936E+00 5.00000E-01
 -1       992-6.98643E+00 7.65819E+00 5.00000E-01
 -1       993-6.61111E+00 5.93936E+00 5.00000E-01
 -1       994-2.53607E+00 1.86432E+00 5.00000E-01
 -1       995-5.91931E+00 4.57581E+00 5.00000E-01
 -1       996-4.91103E+00 3.56752E+00 5.00000E-01
 -1       997-3.56752E+00 4.91103E+00 5.00000E-01
 -1       998-4.57581E+00 5.91931E+00 5.00000E-01
 -1       999-4.02991E+00 2.18338E+00 5.00000E-01
 -1      1000-9.38527E+00 4.40165E+00 5.00000E-01
 -1      1001-8.38078E+00 2.95729E+00 5.00000E-01
 -1      1002-3.05647E+00 7.51897E-01 5.00000E-01
 -1      1003-7.21982E+00 1.96228E+00 5.00000E-01
 -1      1004-5.90243E+00 1.41659E+00 5.00000E-01
 -1      1005-5.17533E+00 3.17196E+00 5.00000E-01
 -1      1006-6.49272E+00 3.71765E+00 5.00000E-01
 -1      1007-4.55870E+00 4.74999E-01 5.00000E-01
 -1      1008-1.03553E+01 4.74999E-01 5.00000E-01
 -1      1009-8.87453E+00-4.74999E-01 5.00000E-01
 -1      1010-3.11155E+00-4.74999E-01 5.00000E-01
 -1      1011-7.42117E+00-9.50000E-01 5.00000E-01
 -1      1012-5.99524E+00-9.50000E-01 5.00000E-01
 -1      1013-5.99524E+00 9.50000E-01 5.00000E-01
 -1      1014-7.42117E+00 9.50000E-01 5.00000E-01
 -1      1015-4.39346E+00-1.30569E+00 5.00000E-01
 -1      1016-9.74886E+00-3.52396E+00 5.00000E-01
 -1      1017-8.01722E+00-3.83498E+00 5.00000E-01
 -1      1018-2.69292E+00-1.62958E+00 5.00000E-01
 -1      1019-6.49272E+00-3.71765E+00 5.00000E-01
 -1      1020-5.17533E+00-3.17196E+00 5.00000E-01
 -1      1021-5.90243E+00-1.41659E+00 5.00000E-01
 -1      1022-7.21982E+00-1.96228E+00 5.00000E-01
 -1      1023-3.55936E+00-2.88761E+00 5.00000E-01
 -1      1024-6.61111E+00-5.93936E+00 5.00000E-01
 -1      1025-7.65819E+00-6.98643E+00 5.00000E-01
 -1      1026-5.93936E+00-6.61111E+00 5.00000E-01
 -1      1027-1.86432E+00-2.53607E+00 5.00000E-01
 -1      1028-4.57581E+00-5.91931E+00 5.00000E-01
 -1      1029-3.56752E+00-4.91103E+00 5.00000E-01
 -1      1030-4.91103E+00-3.56752E+00 5.00000E-01
 -1      1031-5.91931E+00-4.57581E+00 5.00000E-01
 -1      1032-2.18338E+00-4.02991E+00 5.00000E-01
 -1      1033-4.40165E+00-9.38527E+00 5.00000E-01
 -1      1034-2.95729E+00-8.38078E+00 5.00000E-01
 -1      1035-7.51897E-01-3.05647E+00 5.00000E-01
 -1      1036-1.96228E+00-7.21982E+00 5.00000E-01
 -1      1037-1.41659E+00-5.90243E+00 5.00000E-01
 -1      1038-3.17196E+00-5.17533E+00 5.00000E-01
 -1      1039-3.71765E+00-6.49272E+00 5.00000E-01
 -1      1040-4.74999E-01-4.55870E+00 5.00000E-01
 -1      1041-4.74999E-01-8.87453E+00 5.00000E-01
 -1      1042-4.74999E-01-1.03553E+01 5.00000E-01
 -1      1043 4.74999E-01-8.87453E+00 5.00000E-01
 -1      1044 4.74999E-01-3.11155E+00 5.00000E-01
 -1      1045 9.50000E-01-7.42117E+00 5.00000E-01
 -1      1046 9.50000E-01-5.99524E+00 5.00000E-01
 -1      1047-9.50000E-01-5.99524E+00 5.00000E-01
 -1      1048-9.50000E-01-7.42117E+00 5.00000E-01
 -1      1049 1.30569E+00-4.39346E+00 5.00000E-01
 -1      1050 3.52396E+00-9.74886E+00 5.00000E-01
 -1      1051 3.83498E+00-8.01722E+00 5.00000E-01
 -1      1052 1.62958E+00-2.69292E+00 5.00000E-01
 -1      1053 3.71765E+00-6.49272E+00 5.00000E-01
 -1      1054 3.17196E+00-5.17533E+00 5.00000E-01
 -1      1055 1.41659E+00-5.90243E+00 5.00000E-01
 -1      1056 1.96228E+00-7.21982E+00 5.00000E-01
 -1      1057 5.93936E+00-6.61111E+00 5.00000E-01
 -1      1058 6.98643E+00-7.65819E+00 5.00000E-01
 -1      1059 6.61111E+00-5.93936E+00 5.00000E-01
 -1      1060 2.53607E+00-1.86432E+00 5.00000E-01
 -1      1061 5.91931E+00-4.57581E+00 5.00000E-01
 -1      1062 4.91103E+00-3.56752E+00 5.00000E-01
 -1      1063 3.56752E+00-4.91103E+00 5.00000E-01
 -1      1064 4.57581E+00-5.91931E+00 5.00000E-01
 -1      1065 8.01722E+00-3.83498E+00 5.00000E-01
 -1      1066 9.38527E+00-4.40165E+00 5.00000E-01
 -1      1067 8.38078E+00-2.95729E+00 5.00000E-01
 -1      1068 3.05647E+00-7.51897E-01 5.00000E-01
 -1      1069 7.21982E+00-1.96228E+00 5.00000E-01
 -1      1070 5.90243E+00-1.41659E+00 5.00000E-01
 -1      1071 5.17533E+00-3.17196E+00 5.00000E-01
 -1      1072 6.49272E+00-3.71765E+00 5.00000E-01
 -1      1073 1.00383E+01 1.10730E+01 5.00000E-01
 -1      1074 1.00383E+01 1.10730E+01-5.00000E-01
 -1      1075 8.90181E+00 1.20056E+01-5.00000E-01
 -1      1076-5.03678E+00-1.40716E+01 5.00000E-01
 -1      1077 1.20056E+01 8.90181E+00 5.00000E-01
 -1      1078-3.62983E+00 1.44984E+01 5.00000E-01
 -1      1079 1.35117E+01 6.38858E+00 5.00000E-01
 -1      1080 6.38858E+00 1.35117E+01 5.00000E-01
 -1      1081 7.68523E+00 1.28186E+01 5.00000E-01
 -1      1082 6.38858E+00 1.35117E+01-5.00000E-01
 -1      1083-1.20056E+01 8.90181E+00-5.00000E-01
 -1      1084-1.10730E+01 1.00383E+01 5.00000E-01
 -1      1085-7.68523E+00 1.28186E+01 5.00000E-01
 -1      1086-6.38858E+00 1.35117E+01 5.00000E-01
 -1      1087-7.68523E+00 1.28186E+01-5.00000E-01
 -1      1088-7.31588E-01 1.49279E+01 5.00000E-01
 -1      1089-2.19476E+00 1.47838E+01-5.00000E-01
 -1      1090-1.00383E+01 1.10730E+01 5.00000E-01
 -1      1091-8.90181E+00 1.20056E+01 5.00000E-01
 -1      1092-1.00383E+01 1.10730E+01-5.00000E-01
 -1      1093 1.49279E+01 7.31588E-01 5.00000E-01
 -1      1094 1.47838E+01 2.19476E+00-5.00000E-01
 -1      1095 7.31588E-01-1.49279E+01 5.00000E-01
 -1      1096 1.40716E+01-5.03678E+00 5.00000E-01
 -1      1097 5.03678E+00-1.40716E+01 5.00000E-01
 -1      1098 3.62983E+00-1.44984E+01 5.00000E-01
 -1      1099 5.03678E+00-1.40716E+01-5.00000E-01
 -1      1100 6.38858E+00-1.35117E+01 5.00000E-01
 -1      1101 7.68523E+00-1.28186E+01-5.00000E-01
 -1      1102-7.31588E-01-1.49279E+01 5.00000E-01
 -1      1103-2.19476E+00-1.47838E+01 5.00000E-01
 -1      1104-7.31588E-01-1.49279E+01-5.00000E-01
 -1      1105-1.00383E+01-1.10730E+01 5.00000E-01
 -1      1106-1.47838E+01-2.19476E+00-5.00000E-01
 -1      1107 1.40716E+01 5.03678E+00-5.00000E-01
 -1      1108 1.44984E+01 3.62983E+00-5.00000E-01
 -1      1109 1.35117E+01-6.38858E+00-5.00000E-01
 -1      1110 1.28186E+01-7.68523E+00-5.00000E-01
 -1      1111 1.10730E+01-1.00383E+01-5.00000E-01
 -1      1112 1.00383E+01-1.10730E+01-5.00000E-01
 -1      1113 8.90181E+00-1.20056E+01-5.00000E-01
 -1      1114 3.62983E+00 1.44984E+01-5.00000E-01
 -1      1115 5.03678E+00 1.40716E+01-5.00000E-01
 -1      1116-6.38858E+00-1.35117E+01-5.00000E-01
 -1      1117-7.68523E+00-1.28186E+01-5.00000E-01
 -1      1118-1.10730E+01-1.00383E+01-5.00000E-01
 -1      1119-1.20056E+01-8.90181E+00-5.00000E-01
 -1      1120-1.44984E+01-3.62983E+00-5.00000E-01
 -1      1121-1.40716E+01 5.03678E+00-5.00000E-01
 -1      1122-1.20056E+01-8.90181E+00 5.00000E-01
 -1      1123 1.44984E+01 3.62983E+00 5.00000E-01
 -1      1124 5.03678E+00 1.40716E+01 5.00000E-01
 -1      1125 1.35117E+01-6.38858E+00 5.00000E-01
 -1      1126 1.20056E+01-8.90181E+00 5.00000E-01
 -1      1127 1.00383E+01-1.10730E+01 5.00000E-01
 -1      1128-6.38858E+00-1.35117E+01 5.00000E-01
 -1      1129-1.44984E+01 3.62983E+00 5.00000E-01
 -1      1130-1.40716E+01-5.03678E+00 5.00000E-01
 -1      1131-6.49272E+00 3.71765E+00 2.25000E+00
 -1      1132-5.17533E+00 3.17196E+00 2.25000E+00
 -1      1133-5.90243E+00 1.41659E+00 2.25000E+00
 -1      1134-7.21982E+00 1.96228E+00 2.25000E+00
 -1      1135-3.17196E+00-5.17533E+00 2.25000E+00
 -1      1136-3.17196E+00 5.17533E+00 2.25000E+00
 -1      1137-3.71765E+00 6.49272E+00 2.25000E+00
 -1      1138-3.56752E+00 4.91103E+00 2.25000E+00
 -1      1139-4.91103E+00 3.56752E+00 2.25000E+00
 -1      1140-5.91931E+00 4.57581E+00 2.25000E+00
 -1      1141-3.11155E+00 4.74999E-01 2.25000E+00
 -1      1142-4.55870E+00-4.74999E-01 2.25000E+00
 -1      1143-2.69292E+00-1.62958E+00 2.25000E+00
 -1      1144-4.02991E+00-2.18338E+00 2.25000E+00
 -1      1145-3.05647E+00-7.51897E-01 2.25000E+00
 -1      1146-1.96228E+00-7.21982E+00 2.25000E+00
 -1      1147-3.05647E+00 7.51897E-01 2.25000E+00
 -1      1148-4.02991E+00 2.18338E+00 2.25000E+00
 -1      1149-2.69292E+00 1.62958E+00 2.25000E+00
 -1      1150-4.39346E+00 1.30569E+00 2.25000E+00
 -1      1151-1.41659E+00 5.90243E+00 2.25000E+00
 -1      1152 1.41659E+00 5.90243E+00 2.25000E+00
 -1      1153 1.96228E+00 7.21982E+00 2.25000E+00
 -1      1154 4.40165E+00 9.38527E+00 2.25000E+00
 -1      1155 3.83498E+00 8.01722E+00 2.25000E+00
 -1      1156 3.52396E+00 9.74886E+00 2.25000E+00
 -1      1157 7.51897E-01 3.05647E+00 2.25000E+00
 -1      1158 2.18338E+00 4.02991E+00 2.25000E+00
 -1      1159 1.62958E+00 2.69292E+00 2.25000E+00
 -1      1160 1.30569E+00 4.39346E+00 2.25000E+00
 -1      1161 3.17196E+00 5.17533E+00 2.25000E+00
 -1      1162 2.53607E+00 1.86432E+00 2.25000E+00
 -1      1163 2.88761E+00 3.55936E+00 2.25000E+00
 -1      1164 4.39346E+00 1.30569E+00 2.25000E+00
 -1      1165 3.05647E+00 7.51897E-01 2.25000E+00
 -1      1166 4.02991E+00 2.18338E+00 2.25000E+00
 -1      1167 3.11155E+00 4.74999E-01 2.25000E+00
 -1      1168 4.55870E+00 4.74999E-01 2.25000E+00
 -1      1169 3.11155E+00-4.74999E-01 2.25000E+00
 -1      1170 7.42117E+00 9.50000E-01 2.25000E+00
 -1      1171 7.42117E+00-9.50000E-01 2.25000E+00
 -1      1172 5.99524E+00-9.50000E-01 2.25000E+00
 -1      1173 1.03553E+01 4.74999E-01 2.25000E+00
 -1      1174 8.87453E+00-4.74999E-01 2.25000E+00
 -1      1175 3.71765E+00-6.49272E+00 2.25000E+00
 -1      1176 7.65819E+00 6.98643E+00 2.25000E+00
 -1      1177 6.61111E+00 5.93936E+00 2.25000E+00
 -1      1178 5.93936E+00 6.61111E+00 2.25000E+00
 -1      1179 6.98643E+00 7.65819E+00 2.25000E+00
 -1      1180 8.38078E+00 2.95729E+00 2.25000E+00
 -1      1181 8.01722E+00 3.83498E+00 2.25000E+00
 -1      1182 9.38527E+00 4.40165E+00 2.25000E+00
 -1      1183 7.21982E+00 1.96228E+00 2.25000E+00
 -1      1184 5.90243E+00 1.41659E+00 2.25000E+00
 -1      1185 4.57581E+00 5.91931E+00 2.25000E+00
 -1      1186 5.91931E+00 4.57581E+00 2.25000E+00
 -1      1187 4.91103E+00 3.56752E+00 2.25000E+00
 -1      1188 3.83498E+00-8.01722E+00 2.25000E+00
 -1      1189 4.40165E+00-9.38527E+00 2.25000E+00
 -1      1190 3.52396E+00-9.74886E+00 2.25000E+00
 -1      1191 2.95729E+00-8.38078E+00 2.25000E+00
 -1      1192 1.62958E+00-2.69292E+00 2.25000E+00
 -1      1193 2.18338E+00-4.02991E+00 2.25000E+00
 -1      1194 7.51897E-01-3.05647E+00 2.25000E+00
 -1      1195 4.74999E-01-4.55870E+00 2.25000E+00
 -1      1196 4.74999E-01-8.87453E+00 2.25000E+00
 -1      1197-4.74999E-01-4.55870E+00 2.25000E+00
 -1      1198-4.74999E-01-3.11155E+00 2.25000E+00
 -1      1199 4.74999E-01-1.03553E+01 2.25000E+00
 -1      1200-4.74999E-01-8.87453E+00 2.25000E+00
 -1      1201 3.05647E+00-7.51897E-01 2.25000E+00
 -1      1202 4.39346E+00-1.30569E+00 2.25000E+00
 -1      1203 2.69292E+00-1.62958E+00 2.25000E+00
 -1      1204 5.90243E+00-1.41659E+00 2.25000E+00
 -1      1205 7.21982E+00-1.96228E+00 2.25000E+00
 -1      1206 6.49272E+00-3.71765E+00 2.25000E+00
 -1      1207 5.17533E+00-3.17196E+00 2.25000E+00
 -1      1208 9.74886E+00-3.52396E+00 2.25000E+00
 -1      1209 8.01722E+00-3.83498E+00 2.25000E+00
 -1      1210 3.55936E+00-2.88761E+00 2.25000E+00
 -1      1211 1.86432E+00-2.53607E+00 2.25000E+00
 -1      1212 4.91103E+00-3.56752E+00 2.25000E+00
 -1      1213 5.91931E+00-4.57581E+00 2.25000E+00
 -1      1214 4.57581E+00-5.91931E+00 2.25000E+00
 -1      1215 3.56752E+00-4.91103E+00 2.25000E+00
 -1      1216 7.65819E+00-6.98643E+00 2.25000E+00
 -1      1217 5.93936E+00-6.61111E+00 2.25000E+00
 -1      1218-9.50000E-01-5.99524E+00 2.25000E+00
 -1      1219-2.18338E+00-4.02991E+00 2.25000E+00
 -1      1220-7.51897E-01-3.05647E+00 2.25000E+00
 -1      1221-1.30569E+00-4.39346E+00 2.25000E+00
 -1      1222-1.62958E+00-2.69292E+00 2.25000E+00
 -1      1223-4.40165E+00-9.38527E+00 2.25000E+00
 -1      1224-2.95729E+00-8.38078E+00 2.25000E+00
 -1      1225-3.52396E+00-9.74886E+00 2.25000E+00
 -1      1226-3.83498E+00-8.01722E+00 2.25000E+00
 -1      1227-9.50000E-01 5.99524E+00 2.25000E+00
 -1      1228-9.50000E-01 7.42117E+00 2.25000E+00
 -1      1229 4.74999E-01 1.03553E+01 2.25000E+00
 -1      1230 4.74999E-01 8.87453E+00 2.25000E+00
 -1      1231 4.74999E-01 3.11155E+00 2.25000E+00
 -1      1232-4.74999E-01 4.55870E+00 2.25000E+00
 -1      1233-4.74999E-01 8.87453E+00 2.25000E+00
 -1      1234-4.74999E-01 1.03553E+01 2.25000E+00
 -1      1235 9.50000E-01 7.42117E+00 2.25000E+00
 -1      1236-1.30569E+00 4.39346E+00 2.25000E+00
 -1      1237-7.51897E-01 3.05647E+00 2.25000E+00
 -1      1238-1.62958E+00 2.69292E+00 2.25000E+00
 -1      1239-2.18338E+00 4.02991E+00 2.25000E+00
 -1      1240-3.52396E+00 9.74886E+00 2.25000E+00
 -1      1241-2.95729E+00 8.38078E+00 2.25000E+00
 -1      1242-3.83498E+00 8.01722E+00 2.25000E+00
 -1      1243-4.40165E+00 9.38527E+00 2.25000E+00
 -1      1244 9.50000E-01 5.99524E+00 2.25000E+00
 -1      1245-4.91103E+00-3.56752E+00 2.25000E+00
 -1      1246 9.50000E-01-5.99524E+00 2.25000E+00
 -1      1247 9.50000E-01-7.42117E+00 2.25000E+00
 -1      1248-2.53607E+00 1.86432E+00 2.25000E+00
 -1      1249-3.55936E+00-2.88761E+00 2.25000E+00
 -1      1250-1.86432E+00-2.53607E+00 2.25000E+00
 -1      1251-2.88761E+00-3.55936E+00 2.25000E+00
 -1      1252-2.53607E+00-1.86432E+00 2.25000E+00
 -1      1253-2.88761E+00 3.55936E+00 2.25000E+00
 -1      1254-1.86432E+00 2.53607E+00 2.25000E+00
 -1      1255-3.55936E+00 2.88761E+00 2.25000E+00
 -1      1256-3.56752E+00-4.91103E+00 2.25000E+00
 -1      1257-4.57581E+00-5.91931E+00 2.25000E+00
 -1      1258-5.17533E+00-3.17196E+00 2.25000E+00
 -1      1259-6.49272E+00-3.71765E+00 2.25000E+00
 -1      1260-9.38527E+00 4.40165E+00 2.25000E+00
 -1      1261-7.21982E+00-1.96228E+00 2.25000E+00
 -1      1262-5.90243E+00-1.41659E+00 2.25000E+00
 -1      1263-1.03553E+01 4.74999E-01 2.25000E+00
 -1      1264-8.87453E+00 4.74999E-01 2.25000E+00
 -1      1265-8.87453E+00-4.74999E-01 2.25000E+00
 -1      1266-1.03553E+01-4.74999E-01 2.25000E+00
 -1      1267-8.01722E+00 3.83498E+00 2.25000E+00
 -1      1268-9.74886E+00 3.52396E+00 2.25000E+00
 -1      1269-5.93936E+00 6.61111E+00 2.25000E+00
 -1      1270-6.61111E+00 5.93936E+00 2.25000E+00
 -1      1271-7.65819E+00 6.98643E+00 2.25000E+00
 -1      1272-5.99524E+00 9.50000E-01 2.25000E+00
 -1      1273-5.99524E+00-9.50000E-01 2.25000E+00
 -1      1274-7.42117E+00-9.50000E-01 2.25000E+00
 -1      1275-6.98643E+00-7.65819E+00 2.25000E+00
 -1      1276-6.61111E+00-5.93936E+00 2.25000E+00
 -1      1277-8.01722E+00-3.83498E+00 2.25000E+00
 -1      1278-9.38527E+00-4.40165E+00 2.25000E+00
 -1      1279-8.38078E+00-2.95729E+00 2.25000E+00
 -1      1280 3.11155E+00-4.74999E-01 5.00000E-01
 -1      1281 1.03553E+01 4.74999E-01 5.00000E-01
 -1      1282 4.55870E+00 4.74999E-01 5.00000E-01
 -1      1283 4.39346E+00 1.30569E+00 5.00000E-01
 -1      1284 3.05647E+00 7.51897E-01 5.00000E-01
 -1      1285 9.38527E+00 4.40165E+00 5.00000E-01
 -1      1286 4.02991E+00 2.18338E+00 5.00000E-01
 -1      1287 2.53607E+00 1.86432E+00 5.00000E-01
 -1      1288 6.98643E+00 7.65819E+00 5.00000E-01
 -1      1289 2.88761E+00 3.55936E+00 5.00000E-01
 -1      1290 1.62958E+00 2.69292E+00 5.00000E-01
 -1      1291 3.83498E+00 8.01722E+00 5.00000E-01
 -1      1292 3.52396E+00 9.74886E+00 5.00000E-01
 -1      1293 1.30569E+00 4.39346E+00 5.00000E-01
 -1      1294 4.74999E-01 3.11155E+00 5.00000E-01
 -1      1295 4.74999E-01 8.87453E+00 5.00000E-01
 -1      1296-4.74999E-01 1.03553E+01 5.00000E-01
 -1      1297-4.74999E-01 4.55870E+00 5.00000E-01
 -1      1298-7.51897E-01 3.05647E+00 5.00000E-01
 -1      1299-4.40165E+00 9.38527E+00 5.00000E-01
 -1      1300-2.18338E+00 4.02991E+00 5.00000E-01
 -1      1301-1.86432E+00 2.53607E+00 5.00000E-01
 -1      1302-5.93936E+00 6.61111E+00 5.00000E-01
 -1      1303-7.65819E+00 6.98643E+00 5.00000E-01
 -1      1304-3.55936E+00 2.88761E+00 5.00000E-01
 -1      1305-2.69292E+00 1.62958E+00 5.00000E-01
 -1      1306-8.01722E+00 3.83498E+00 5.00000E-01
 -1      1307-9.74886E+00 3.52396E+00 5.00000E-01
 -1      1308-4.39346E+00 1.30569E+00 5.00000E-01
 -1      1309-3.11155E+00 4.74999E-01 5.00000E-01
 -1      1310-8.87453E+00 4.74999E-01 5.00000E-01
 -1      1311-1.03553E+01-4.74999E-01 5.00000E-01
 -1      1312-4.55870E+00-4.74999E-01 5.00000E-01
 -1      1313-3.05647E+00-7.51897E-01 5.00000E-01
 -1      1314-8.38078E+00-2.95729E+00 5.00000E-01
 -1      1315-9.38527E+00-4.40165E+00 5.00000E-01
 -1      1316-4.02991E+00-2.18338E+00 5.00000E-01
 -1      1317-2.53607E+00-1.86432E+00 5.00000E-01
 -1      1318-6.98643E+00-7.65819E+00 5.00000E-01
 -1      1319-2.88761E+00-3.55936E+00 5.00000E-01
 -1      1320-1.62958E+00-2.69292E+00 5.00000E-01
 -1      1321-3.83498E+00-8.01722E+00 5.00000E-01
 -1      1322-3.52396E+00-9.74886E+00 5.00000E-01
 -1      1323-1.30569E+00-4.39346E+00 5.00000E-01
 -1      1324-4.74999E-01-3.11155E+00 5.00000E-01
 -1      1325 4.74999E-01-1.03553E+01 5.00000E-01
 -1      1326 4.74999E-01-4.55870E+00 5.00000E-01
 -1      1327 7.51897E-01-3.05647E+00 5.00000E-01
 -1      1328 2.95729E+00-8.38078E+00 5.00000E-01
 -1      1329 4.40165E+00-9.38527E+00 5.00000E-01
 -1      1330 2.18338E+00-4.02991E+00 5.00000E-01
 -1      1331 2.88761E+00-3.55936E+00 5.00000E-01
 -1      1332 1.86432E+00-2.53607E+00 5.00000E-01
 -1      1333 7.65819E+00-6.98643E+00 5.00000E-01
 -1      1334 3.55936E+00-2.88761E+00 5.00000E-01
 -1      1335 4.02991E+00-2.18338E+00 5.00000E-01
 -1      1336 2.69292E+00-1.62958E+00 5.00000E-01
 -1      1337 9.74886E+00-3.52396E+00 5.00000E-01
 -1      1338 4.39346E+00-1.30569E+00 5.00000E-01
 -1      1339 8.90181E+00 1.20056E+01 5.00000E-01
 -1      1340 1.47838E+01-2.19476E+00 5.00000E-01
 -1      1341 1.49279E+01-7.31588E-01 5.00000E-01
 -1      1342 1.49279E+01-7.31588E-01-5.00000E-01
 -1      1343 1.47838E+01-2.19476E+00-5.00000E-01
 -1      1344-3.62983E+00-1.44984E+01 5.00000E-01
 -1      1345-3.62983E+00-1.44984E+01-5.00000E-01
 -1      1346-5.03678E+00-1.40716E+01-5.00000E-01
 -1      1347 1.10730E+01 1.00383E+01 5.00000E-01
 -1      1348 1.10730E+01 1.00383E+01-5.00000E-01
 -1      1349 1.20056E+01 8.90181E+00-5.00000E-01
 -1      1350-5.03678E+00 1.40716E+01 5.00000E-01
 -1      1351-5.03678E+00 1.40716E+01-5.00000E-01
 -1      1352-3.62983E+00 1.44984E+01-5.00000E-01
 -1      1353-1.35117E+01 6.38858E+00-5.00000E-01
 -1      1354-1.28186E+01 7.68523E+00-5.00000E-01
 -1      1355-1.28186E+01 7.68523E+00 5.00000E-01
 -1      1356-1.35117E+01 6.38858E+00 5.00000E-01
 -1      1357 1.28186E+01 7.68523E+00 5.00000E-01
 -1      1358 1.28186E+01 7.68523E+00-5.00000E-01
 -1      1359 1.35117E+01 6.38858E+00-5.00000E-01
 -1      1360 7.68523E+00 1.28186E+01-5.00000E-01
 -1      1361 2.19476E+00 1.47838E+01 5.00000E-01
 -1      1362 7.31588E-01 1.49279E+01 5.00000E-01
 -1      1363 7.31588E-01 1.49279E+01-5.00000E-01
 -1      1364 2.19476E+00 1.47838E+01-5.00000E-01
 -1      1365-1.49279E+01 7.31588E-01-5.00000E-01
 -1      1366-1.47838E+01 2.19476E+00-5.00000E-01
 -1      1367-1.47838E+01 2.19476E+00 5.00000E-01
 -1      1368-1.49279E+01 7.31588E-01 5.00000E-01
 -1      1369-1.10730E+01 1.00383E+01-5.00000E-01
 -1      1370-1.20056E+01 8.90181E+00 5.00000E-01
 -1      1371-6.38858E+00 1.35117E+01-5.00000E-01
 -1      1372-2.19476E+00 1.47838E+01 5.00000E-01
 -1      1373-7.31588E-01 1.49279E+01-5.00000E-01
 -1      1374-8.90181E+00 1.20056E+01-5.00000E-01
 -1      1375 1.47838E+01 2.19476E+00 5.00000E-01
 -1      1376 1.49279E+01 7.31588E-01-5.00000E-01
 -1      1377 2.19476E+00-1.47838E+01 5.00000E-01
 -1      1378 2.19476E+00-1.47838E+01-5.00000E-01
 -1      1379 7.31588E-01-1.49279E+01-5.00000E-01
 -1      1380 1.44984E+01-3.62983E+00 5.00000E-01
 -1      1381 1.44984E+01-3.62983E+00-5.00000E-01
 -1      1382 1.40716E+01-5.03678E+00-5.00000E-01
 -1      1383 3.62983E+00-1.44984E+01-5.00000E-01
 -1      1384 7.68523E+00-1.28186E+01 5.00000E-01
 -1      1385 6.38858E+00-1.35117E+01-5.00000E-01
 -1      1386-2.19476E+00-1.47838E+01-5.00000E-01
 -1      1387-8.90181E+00-1.20056E+01 5.00000E-01
 -1      1388-8.90181E+00-1.20056E+01-5.00000E-01
 -1      1389-1.00383E+01-1.10730E+01-5.00000E-01
 -1      1390-1.28186E+01-7.68523E+00-5.00000E-01
 -1      1391-1.35117E+01-6.38858E+00-5.00000E-01
 -1      1392-1.35117E+01-6.38858E+00 5.00000E-01
 -1      1393-1.28186E+01-7.68523E+00 5.00000E-01
 -1      1394-1.49279E+01-7.31588E-01-5.00000E-01
 -1      1395-1.49279E+01-7.31588E-01 5.00000E-01
 -1      1396-1.47838E+01-2.19476E+00 5.00000E-01
 -1      1397 1.20056E+01-8.90181E+00-5.00000E-01
 -1      1398-1.40716E+01-5.03678E+00-5.00000E-01
 -1      1399-1.44984E+01 3.62983E+00-5.00000E-01
 -1      1400-1.10730E+01-1.00383E+01 5.00000E-01
 -1      1401 1.40716E+01 5.03678E+00 5.00000E-01
 -1      1402 3.62983E+00 1.44984E+01 5.00000E-01
 -1      1403 1.28186E+01-7.68523E+00 5.00000E-01
 -1      1404 1.10730E+01-1.00383E+01 5.00000E-01
 -1      1405 8.90181E+00-1.20056E+01 5.00000E-01
 -1      1406-7.68523E+00-1.28186E+01 5.00000E-01
 -1      1407-1.40716E+01 5.03678E+00 5.00000E-01
 -1      1408-1.44984E+01-3.62983E+00 5.00000E-01
 -1      1409 1.64099E+00-1.64099E+00 2.25000E+00
 -1      1410-2.14405E+00 8.88093E-01 2.25000E+00
 -1      1411 0.00000E+00-2.32070E+00 2.25000E+00
 -1      1412 2.32070E+00 0.00000E+00 5.00000E-01
 -1      1413 2.14405E+00 8.88093E-01 5.00000E-01
 -1      1414 8.88093E-01 2.14405E+00 2.25000E+00
 -1      1415 0.00000E+00-2.32070E+00 5.00000E-01
 -1      1416 2.38798E+00-4.74999E-01 9.37500E-01
 -1      1417 2.32070E+00-4.61617E-01 9.37500E-01
 -1      1418-1.64099E+00-1.64099E+00 2.25000E+00
 -1      1419 1.64099E+00-1.64099E+00 5.00000E-01
 -1      1420-1.64099E+00 1.64099E+00 2.25000E+00
 -1      1421 2.02443E+00-1.35268E+00 9.37500E-01
 -1      1422 1.96740E+00-1.31457E+00 9.37500E-01
 -1      1423 0.00000E+00 2.32070E+00 5.00000E-01
 -1      1424 1.64099E+00 1.64099E+00 5.00000E-01
 -1      1425-8.88093E-01 2.14405E+00 5.00000E-01
 -1      1426 1.35268E+00 2.02443E+00 9.37500E-01
 -1      1427 1.31457E+00 1.96740E+00 9.37500E-01
 -1      1428 4.74999E-01-2.38798E+00 1.81250E+00
 -1      1429 4.61617E-01-2.32070E+00 1.81250E+00
 -1      1430 1.64099E+00 1.64099E+00 2.25000E+00
 -1      1431-2.32070E+00 0.00000E+00 2.25000E+00
 -1      1432 1.35268E+00-2.02443E+00 9.37500E-01
 -1      1433 1.31457E+00-1.96740E+00 9.37500E-01
 -1      1434 2.14405E+00-8.88093E-01 2.25000E+00
 -1      1435-8.88093E-01-2.14405E+00 5.00000E-01
 -1      1436 1.47778E+00 1.80419E+00 5.00000E-01
 -1      1437 2.32070E+00 0.00000E+00 2.25000E+00
 -1      1438-2.38798E+00 4.74999E-01 1.81250E+00
 -1      1439-2.32070E+00 4.61617E-01 1.81250E+00
 -1      1440 4.74999E-01-2.38798E+00 9.37500E-01
 -1      1441 4.61617E-01-2.32070E+00 9.37500E-01
 -1      1442 1.35268E+00 2.02443E+00 1.81250E+00
 -1      1443 1.31457E+00 1.96740E+00 1.81250E+00
 -1      1444 0.00000E+00 2.32070E+00 2.25000E+00
 -1      1445-1.64099E+00 1.64099E+00 5.00000E-01
 -1      1446-2.74977E+00 4.74999E-01 2.25000E+00
 -1      1447-1.64099E+00-1.64099E+00 5.00000E-01
 -1      1448 2.14405E+00-8.88093E-01 5.00000E-01
 -1      1449 2.02443E+00 1.35268E+00 9.37500E-01
 -1      1450 1.96740E+00 1.31457E+00 9.37500E-01
 -1      1451-2.14405E+00-8.88093E-01 2.25000E+00
 -1      1452-2.14405E+00-8.88093E-01 5.00000E-01
 -1      1453 8.88093E-01-2.14405E+00 2.25000E+00
 -1      1454-2.02443E+00-1.35268E+00 9.37500E-01
 -1      1455-1.96740E+00-1.31457E+00 9.37500E-01
 -1      1456-2.32070E+00 0.00000E+00 5.00000E-01
 -1      1457-2.02443E+00 1.35268E+00 1.81250E+00
 -1      1458-1.96740E+00 1.31457E+00 1.81250E+00
 -1      1459-2.14405E+00 8.88093E-01 5.00000E-01
 -1      1460 2.14405E+00 8.88093E-01 2.25000E+00
 -1      1461-2.35868E+00 1.49113E+00 2.25000E+00
 -1      1462-4.74999E-01-2.38798E+00 1.81250E+00
 -1      1463-4.61617E-01-2.32070E+00 1.81250E+00
 -1      1464-2.38798E+00-4.74999E-01 1.81250E+00
 -1      1465-2.32070E+00-4.61617E-01 1.81250E+00
 -1      1466-4.74999E-01-2.38798E+00 9.37500E-01
 -1      1467-4.61617E-01-2.32070E+00 9.37500E-01
 -1      1468-2.72223E+00-6.13448E-01 2.25000E+00
 -1      1469 1.35268E+00-2.02443E+00 1.81250E+00
 -1      1470 1.31457E+00-1.96740E+00 1.81250E+00
 -1      1471-1.35268E+00-2.02443E+00 9.37500E-01
 -1      1472-1.31457E+00-1.96740E+00 9.37500E-01
 -1      1473 6.13448E-01-2.72223E+00 2.25000E+00
 -1      1474-1.35268E+00 2.02443E+00 1.81250E+00
 -1      1475-1.31457E+00 1.96740E+00 1.81250E+00
 -1      1476 2.38798E+00 4.74999E-01 9.37500E-01
 -1      1477 2.32070E+00 4.61617E-01 9.37500E-01
 -1      1478 4.74999E-01-2.74977E+00 2.25000E+00
 -1      1479 2.02443E+00 1.35268E+00 1.81250E+00
 -1      1480 1.96740E+00 1.31457E+00 1.81250E+00
 -1      1481-1.96740E+00-1.31457E+00 1.81250E+00
 -1      1482-2.02443E+00-1.35268E+00 1.81250E+00
 -1      1483-4.74999E-01-2.38798E+00 1.59375E+00
 -1      1484-4.61617E-01-2.32070E+00 1.59375E+00
 -1      1485-1.35268E+00 2.02443E+00 1.59375E+00
 -1      1486-1.31457E+00 1.96740E+00 1.59375E+00
 -1      1487-2.02443E+00 1.35268E+00 1.59375E+00
 -1      1488-1.96740E+00 1.31457E+00 1.59375E+00
 -1      1489 2.38798E+00 4.74999E-01 1.15625E+00
 -1      1490 2.32070E+00 4.61617E-01 1.15625E+00
 -1      1491 2.02443E+00 1.35268E+00 1.59375E+00
 -1      1492 1.96740E+00 1.31457E+00 1.59375E+00
 -1      1493-1.96740E+00 1.31457E+00 9.37500E-01
 -1      1494-2.02443E+00 1.35268E+00 9.37500E-01
 -1      1495-1.31457E+00-1.96740E+00 1.81250E+00
 -1      1496-1.35268E+00-2.02443E+00 1.81250E+00
 -1      1497 2.38798E+00-4.74999E-01 1.81250E+00
 -1      1498 2.32070E+00-4.61617E-01 1.81250E+00
 -1      1499-8.88093E-01-2.14405E+00 2.25000E+00
 -1      1500-4.74999E-01 2.38798E+00 1.81250E+00
 -1      1501-4.61617E-01 2.32070E+00 1.81250E+00
 -1      1502 1.35268E+00 2.02443E+00 1.15625E+00
 -1      1503 1.31457E+00 1.96740E+00 1.15625E+00
 -1      1504 4.74999E-01 2.38798E+00 1.81250E+00
 -1      1505 4.61617E-01 2.32070E+00 1.81250E+00
 -1      1506-2.02443E+00-1.35268E+00 1.59375E+00
 -1      1507-1.96740E+00-1.31457E+00 1.59375E+00
 -1      1508 1.80419E+00-1.47778E+00 5.00000E-01
 -1      1509 1.35268E+00 2.02443E+00 7.18750E-01
 -1      1510 1.31457E+00 1.96740E+00 7.18750E-01
 -1      1511 2.05573E+00-1.10133E+00 5.00000E-01
 -1      1512-1.35268E+00 2.02443E+00 9.37500E-01
 -1      1513-1.31457E+00 1.96740E+00 9.37500E-01
 -1      1514 1.96740E+00-1.31457E+00 1.81250E+00
 -1      1515 2.02443E+00-1.35268E+00 1.81250E+00
 -1      1516 4.61617E-01 2.32070E+00 9.37500E-01
 -1      1517 4.74999E-01 2.38798E+00 9.37500E-01
 -1      1518-2.32070E+00 4.61617E-01 9.37500E-01
 -1      1519-2.38798E+00 4.74999E-01 9.37500E-01
 -1      1520 8.88093E-01 2.14405E+00 5.00000E-01
 -1      1521-1.35268E+00 2.02443E+00 1.15625E+00
 -1      1522-1.31457E+00 1.96740E+00 1.15625E+00
 -1      1523-2.05573E+00-1.10133E+00 5.00000E-01
 -1      1524 2.02443E+00 1.35268E+00 1.15625E+00
 -1      1525 1.96740E+00 1.31457E+00 1.15625E+00
 -1      1526-1.35268E+00-2.02443E+00 1.15625E+00
 -1      1527-1.31457E+00-1.96740E+00 1.15625E+00
 -1      1528 1.35268E+00-2.02443E+00 1.15625E+00
 -1      1529 1.31457E+00-1.96740E+00 1.15625E+00
 -1      1530-2.23237E+00 6.74855E-01 5.00000E-01
 -1      1531-8.88093E-01 2.14405E+00 2.25000E+00
 -1      1532 2.02443E+00 1.35268E+00 7.18750E-01
 -1      1533 1.96740E+00 1.31457E+00 7.18750E-01
 -1      1534-1.35268E+00 2.02443E+00 2.03125E+00
 -1      1535-1.31457E+00 1.96740E+00 2.03125E+00
 -1      1536 1.47778E+00-1.80419E+00 5.00000E-01
 -1      1537-1.35268E+00 2.02443E+00 1.26562E+00
 -1      1538-1.31457E+00 1.96740E+00 1.26562E+00
 -1      1539 1.31457E+00 1.96740E+00 1.59375E+00
 -1      1540 1.35268E+00 2.02443E+00 1.59375E+00
 -1      1541 4.74999E-01-2.38798E+00 1.59375E+00
 -1      1542 4.61617E-01-2.32070E+00 1.59375E+00
 -1      1543 8.88093E-01-2.14405E+00 5.00000E-01
 -1      1544-2.38798E+00 4.74999E-01 7.18750E-01
 -1      1545-2.32070E+00 4.61617E-01 7.18750E-01
 -1      1546 1.60850E+00-2.28025E+00 2.25000E+00
 -1      1547 2.02443E+00-1.35268E+00 1.15625E+00
 -1      1548 1.96740E+00-1.31457E+00 1.15625E+00
 -1      1549 2.38798E+00-4.74999E-01 7.18750E-01
 -1      1550 2.32070E+00-4.61617E-01 7.18750E-01
 -1      1551-1.35268E+00 2.02443E+00 1.48438E+00
 -1      1552-1.31457E+00 1.96740E+00 1.48438E+00
 -1      1553 4.74999E-01 2.38798E+00 2.03125E+00
 -1      1554 4.61617E-01 2.32070E+00 2.03125E+00
 -1      1555 1.35268E+00-2.02443E+00 1.59375E+00
 -1      1556 1.31457E+00-1.96740E+00 1.59375E+00
 -1      1557-4.74999E-01 2.38798E+00 9.37500E-01
 -1      1558-4.61617E-01 2.32070E+00 9.37500E-01
 -1      1559-4.74999E-01 2.38798E+00 1.59375E+00
 -1      1560-4.61617E-01 2.32070E+00 1.59375E+00
 -1      1561-1.49113E+00-2.35868E+00 2.25000E+00
 -1      1562-4.74999E-01 2.38798E+00 2.03125E+00
 -1      1563-4.61617E-01 2.32070E+00 2.03125E+00
 -1      1564-2.38798E+00-4.74999E-01 9.37500E-01
 -1      1565-2.32070E+00-4.61617E-01 9.37500E-01
 -1      1566-6.74855E-01 2.23237E+00 2.25000E+00
 -1      1567 2.05573E+00-1.10133E+00 2.25000E+00
 -1      1568 2.05573E+00 1.10133E+00 5.00000E-01
 -1      1569 1.80419E+00 1.47778E+00 5.00000E-01
 -1      1570 2.30808E-01 2.32070E+00 2.25000E+00
 -1      1571 6.74855E-01 2.23237E+00 2.25000E+00
 -1      1572-6.13448E-01 2.72223E+00 2.25000E+00
 -1      1573-4.74999E-01 2.38798E+00 1.15625E+00
 -1      1574-4.61617E-01 2.32070E+00 1.15625E+00
 -1      1575-1.47778E+00 1.80419E+00 2.25000E+00
 -1      1576 4.74999E-01-2.38798E+00 7.18750E-01
 -1      1577 4.61617E-01-2.32070E+00 7.18750E-01
 -1      1578-2.38798E+00 4.74999E-01 2.03125E+00
 -1      1579-2.32070E+00 4.61617E-01 2.03125E+00
 -1      1580 2.30808E-01-2.32070E+00 5.00000E-01
 -1      1581 4.74999E-01 2.38798E+00 1.15625E+00
 -1      1582 4.61617E-01 2.32070E+00 1.15625E+00
 -1      1583 2.38798E+00 4.74999E-01 1.04688E+00
 -1      1584 2.32070E+00 4.61617E-01 1.04688E+00
 -1      1585-2.30808E-01 2.32070E+00 2.25000E+00
 -1      1586-4.74999E-01 2.74977E+00 2.25000E+00
 -1      1587-3.46213E-01 2.32070E+00 2.25000E+00
 -1      1588 4.74999E-01 2.38798E+00 1.59375E+00
 -1      1589 4.61617E-01 2.32070E+00 1.59375E+00
 -1      1590-1.31457E+00-1.96740E+00 1.04688E+00
 -1      1591-1.35268E+00-2.02443E+00 1.04688E+00
 -1      1592-2.38798E+00-4.74999E-01 1.59375E+00
 -1      1593-2.32070E+00-4.61617E-01 1.59375E+00
 -1      1594 2.38798E+00 4.74999E-01 7.18750E-01
 -1      1595 2.32070E+00 4.61617E-01 7.18750E-01
 -1      1596-1.35268E+00-2.02443E+00 2.03125E+00
 -1      1597-1.31457E+00-1.96740E+00 2.03125E+00
 -1      1598-2.38798E+00-4.74999E-01 2.03125E+00
 -1      1599-2.32070E+00-4.61617E-01 2.03125E+00
 -1      1600 6.74855E-01 2.23237E+00 5.00000E-01
 -1      1601 2.02443E+00 1.35268E+00 2.03125E+00
 -1      1602 1.96740E+00 1.31457E+00 2.03125E+00
 -1      1603-1.35268E+00 2.02443E+00 7.18750E-01
 -1      1604-1.31457E+00 1.96740E+00 7.18750E-01
 -1      1605-2.32070E+00-2.30808E-01 2.25000E+00
 -1      1606 2.05573E+00 1.10133E+00 2.25000E+00
 -1      1607 1.39617E+00 1.88580E+00 5.00000E-01
 -1      1608-2.23237E+00 6.74855E-01 2.25000E+00
 -1      1609-2.23237E+00-6.74855E-01 2.25000E+00
 -1      1610-4.74999E-01 2.38798E+00 1.04688E+00
 -1      1611-4.61617E-01 2.32070E+00 1.04688E+00
 -1      1612 1.35268E+00 2.02443E+00 2.03125E+00
 -1      1613 1.31457E+00 1.96740E+00 2.03125E+00
 -1      1614-4.74999E-01 2.38798E+00 7.18750E-01
 -1      1615-4.61617E-01 2.32070E+00 7.18750E-01
 -1      1616-2.02443E+00-1.35268E+00 7.18750E-01
 -1      1617-1.96740E+00-1.31457E+00 7.18750E-01
 -1      1618-1.47778E+00-1.80419E+00 5.00000E-01
 -1      1619 1.35268E+00-2.02443E+00 2.03125E+00
 -1      1620 1.31457E+00-1.96740E+00 2.03125E+00
 -1      1621-1.35268E+00-2.02443E+00 1.59375E+00
 -1      1622-1.31457E+00-1.96740E+00 1.59375E+00
 -1      1623-4.74999E-01-2.38798E+00 1.15625E+00
 -1      1624-4.61617E-01-2.32070E+00 1.15625E+00
 -1      1625 2.38798E+00 4.74999E-01 1.81250E+00
 -1      1626 2.32070E+00 4.61617E-01 1.81250E+00
 -1      1627 4.74999E-01 2.38798E+00 7.18750E-01
 -1      1628 4.61617E-01 2.32070E+00 7.18750E-01
 -1      1629 1.47778E+00-1.80419E+00 2.25000E+00
 -1      1630-4.74999E-01-2.38798E+00 1.70312E+00
 -1      1631-4.61617E-01-2.32070E+00 1.70312E+00
 -1      1632 2.02443E+00-1.35268E+00 7.18750E-01
 -1      1633 1.96740E+00-1.31457E+00 7.18750E-01
 -1      1634-6.74855E-01-2.23237E+00 5.00000E-01
 -1      1635 2.02443E+00 1.35268E+00 1.48438E+00
 -1      1636 1.96740E+00 1.31457E+00 1.48438E+00
 -1      1637 2.72223E+00 6.13448E-01 2.25000E+00
 -1      1638 2.38798E+00 4.74999E-01 1.59375E+00
 -1      1639 2.32070E+00 4.61617E-01 1.59375E+00
 -1      1640-2.02443E+00-1.35268E+00 1.15625E+00
 -1      1641-1.96740E+00-1.31457E+00 1.15625E+00
 -1      1642-1.80419E+00-1.47778E+00 5.00000E-01
 -1      1643 4.74999E-01-2.38798E+00 1.48438E+00
 -1      1644 4.61617E-01-2.32070E+00 1.48438E+00
 -1      1645 1.60850E+00 2.28025E+00 2.25000E+00
 -1      1646 4.74999E-01-2.38798E+00 1.15625E+00
 -1      1647 4.61617E-01-2.32070E+00 1.15625E+00
 -1      1648-5.68236E-01 2.27654E+00 2.25000E+00
 -1      1649 2.35868E+00 1.49113E+00 2.25000E+00
 -1      1650-1.10133E+00 2.05573E+00 5.00000E-01
 -1      1651 2.30808E-01 2.32070E+00 5.00000E-01
 -1      1652-2.02443E+00-1.35268E+00 2.03125E+00
 -1      1653-1.96740E+00-1.31457E+00 2.03125E+00
 -1      1654-1.60850E+00 2.28025E+00 2.25000E+00
 -1      1655-1.35268E+00-2.02443E+00 7.18750E-01
 -1      1656-1.31457E+00-1.96740E+00 7.18750E-01
 -1      1657 1.49113E+00 2.35868E+00 2.25000E+00
 -1      1658 2.02443E+00 1.35268E+00 6.09375E-01
 -1      1659 1.96740E+00 1.31457E+00 6.09375E-01
 -1      1660 1.88580E+00 1.39617E+00 5.00000E-01
 -1      1661 1.10133E+00 2.05573E+00 2.25000E+00
 -1      1662 2.02443E+00 1.35268E+00 1.04688E+00
 -1      1663 1.96740E+00 1.31457E+00 1.04688E+00
 -1      1664 1.10133E+00-2.05573E+00 2.25000E+00
 -1      1665-2.30808E-01-2.32070E+00 5.00000E-01
 -1      1666-2.72223E+00 6.13448E-01 2.25000E+00
 -1      1667-2.05573E+00-1.10133E+00 2.25000E+00
 -1      1668 1.10133E+00 2.05573E+00 5.00000E-01
 -1      1669-4.74999E-01-2.38798E+00 2.03125E+00
 -1      1670-4.61617E-01-2.32070E+00 2.03125E+00
 -1      1671-6.74855E-01-2.23237E+00 2.25000E+00
 -1      1672 1.35268E+00 2.02443E+00 1.48438E+00
 -1      1673 1.31457E+00 1.96740E+00 1.48438E+00
 -1      1674-2.32070E+00 2.30808E-01 2.25000E+00
 -1      1675 6.74855E-01-2.23237E+00 5.00000E-01
 -1      1676 5.63875E+00-9.50000E-01 5.00000E-01
 -1      1677 5.51240E+00-1.25504E+00 5.00000E-01
 -1      1678-4.74999E-01-2.38798E+00 7.18750E-01
 -1      1679-4.61617E-01-2.32070E+00 7.18750E-01
 -1      1680-1.20795E+00 2.01156E+00 5.00000E-01
 -1      1681 6.74855E-01-2.23237E+00 2.25000E+00
 -1      1682 2.02443E+00-1.35268E+00 1.59375E+00
 -1      1683 1.96740E+00-1.31457E+00 1.59375E+00
 -1      1684-2.35868E+00-1.49113E+00 2.25000E+00
 -1      1685 2.02443E+00 1.35268E+00 1.70312E+00
 -1      1686 1.96740E+00 1.31457E+00 1.70312E+00
 -1      1687-4.74999E-01-2.38798E+00 1.04688E+00
 -1      1688-4.61617E-01-2.32070E+00 1.04688E+00
 -1      1689 2.32070E+00-2.30808E-01 5.00000E-01
 -1      1690-1.80419E+00-1.47778E+00 2.25000E+00
 -1      1691-2.30808E-01-2.32070E+00 2.25000E+00
 -1      1692-2.38798E+00-4.74999E-01 1.48438E+00
 -1      1693-2.32070E+00-4.61617E-01 1.48438E+00
 -1      1694 2.32070E+00 2.30808E-01 5.00000E-01
 -1      1695-1.10133E+00 2.05573E+00 2.25000E+00
 -1      1696 2.23237E+00 6.74855E-01 5.00000E-01
 -1      1697-2.32070E+00-2.30808E-01 5.00000E-01
 -1      1698-6.13448E-01-2.72223E+00 2.25000E+00
 -1      1699-1.10133E+00-2.05573E+00 2.25000E+00
 -1      1700-1.47778E+00-1.80419E+00 2.25000E+00
 -1      1701 2.38798E+00 4.74999E-01 2.03125E+00
 -1      1702 2.32070E+00 4.61617E-01 2.03125E+00
 -1      1703-2.05573E+00 1.10133E+00 5.00000E-01
 -1      1704 1.35268E+00-2.02443E+00 1.70312E+00
 -1      1705 1.31457E+00-1.96740E+00 1.70312E+00
 -1      1706-2.38798E+00-4.74999E-01 7.18750E-01
 -1      1707-2.32070E+00-4.61617E-01 7.18750E-01
 -1      1708-2.23237E+00-6.74855E-01 5.00000E-01
 -1      1709 2.28025E+00 1.60850E+00 2.25000E+00
 -1      1710 1.80419E+00 1.47778E+00 2.25000E+00
 -1      1711 1.47778E+00 1.80419E+00 2.25000E+00
 -1      1712-1.47778E+00 1.80419E+00 5.00000E-01
 -1      1713-4.61617E-01-2.32070E+00 1.48438E+00
 -1      1714-4.74999E-01-2.38798E+00 1.48438E+00
 -1      1715-2.74977E+00-4.74999E-01 2.25000E+00
 -1      1716-2.02443E+00-1.35268E+00 1.04688E+00
 -1      1717-1.96740E+00-1.31457E+00 1.04688E+00
 -1      1718 2.01156E+00 1.20795E+00 2.25000E+00
 -1      1719 1.35268E+00 2.02443E+00 1.26562E+00
 -1      1720 1.31457E+00 1.96740E+00 1.26562E+00
 -1      1721 2.02443E+00 1.35268E+00 1.26562E+00
 -1      1722 1.96740E+00 1.31457E+00 1.26562E+00
 -1      1723-4.65895E+00 3.31545E+00 5.00000E-01
 -1      1724-4.78531E+00 3.01041E+00 5.00000E-01
 -1      1725-1.35268E+00 2.02443E+00 1.04688E+00
 -1      1726-1.31457E+00 1.96740E+00 1.04688E+00
 -1      1727 1.35268E+00 2.02443E+00 1.70312E+00
 -1      1728 1.31457E+00 1.96740E+00 1.70312E+00
 -1      1729-2.28025E+00-1.60850E+00 2.25000E+00
 -1      1730-2.02443E+00 1.35268E+00 7.18750E-01
 -1      1731-1.96740E+00 1.31457E+00 7.18750E-01
 -1      1732-3.31545E+00 4.65895E+00 5.00000E-01
 -1      1733-3.01041E+00 4.78531E+00 5.00000E-01
 -1      1734-2.38798E+00-4.74999E-01 1.15625E+00
 -1      1735-2.32070E+00-4.61617E-01 1.15625E+00
 -1      1736-1.80419E+00 1.47778E+00 5.00000E-01
 -1      1737-1.49113E+00 2.35868E+00 2.25000E+00
 -1      1738-2.02443E+00-1.35268E+00 1.48438E+00
 -1      1739-1.96740E+00-1.31457E+00 1.48438E+00
 -1      1740-1.35268E+00 2.02443E+00 1.92188E+00
 -1      1741-1.31457E+00 1.96740E+00 1.92188E+00
 -1      1742 4.61617E-01-2.32070E+00 1.04688E+00
 -1      1743 4.74999E-01-2.38798E+00 1.04688E+00
 -1      1744-2.38798E+00-4.74999E-01 1.92188E+00
 -1      1745-2.32070E+00-4.61617E-01 1.92188E+00
 -1      1746-2.02443E+00 1.35268E+00 1.15625E+00
 -1      1747-1.96740E+00 1.31457E+00 1.15625E+00
 -1      1748-4.74999E-01 2.38798E+00 1.26562E+00
 -1      1749-4.61617E-01 2.32070E+00 1.26562E+00
 -1      1750-4.65895E+00-3.31545E+00 5.00000E-01
 -1      1751-4.78531E+00-3.01041E+00 5.00000E-01
 -1      1752 2.02443E+00-1.35268E+00 1.48438E+00
 -1      1753 1.96740E+00-1.31457E+00 1.48438E+00
 -1      1754 1.35268E+00-2.02443E+00 7.18750E-01
 -1      1755 1.31457E+00-1.96740E+00 7.18750E-01
 -1      1756-4.74999E-01-2.38798E+00 1.26562E+00
 -1      1757-4.61617E-01-2.32070E+00 1.26562E+00
 -1      1758-6.74855E-01 2.23237E+00 5.00000E-01
 -1      1759-1.35268E+00-2.02443E+00 1.92188E+00
 -1      1760-1.31457E+00-1.96740E+00 1.92188E+00
 -1      1761-2.02443E+00 1.35268E+00 1.26562E+00
 -1      1762-1.96740E+00 1.31457E+00 1.26562E+00
 -1      1763-2.02443E+00 1.35268E+00 1.04688E+00
 -1      1764-1.96740E+00 1.31457E+00 1.04688E+00
 -1      1765-2.32070E+00 2.30808E-01 5.00000E-01
 -1      1766 1.96740E+00 1.31457E+00 2.14062E+00
 -1      1767 2.02443E+00 1.35268E+00 2.14062E+00
 -1      1768 1.35268E+00-2.02443E+00 2.14062E+00
 -1      1769 1.31457E+00-1.96740E+00 2.14062E+00
 -1      1770-4.74999E-01 2.38798E+00 1.70312E+00
 -1      1771-4.61617E-01 2.32070E+00 1.70312E+00
 -1      1772-2.01156E+00-1.20795E+00 2.25000E+00
 -1      1773 2.01156E+00 1.20795E+00 5.00000E-01
 -1      1774 2.23237E+00 6.74855E-01 2.25000E+00
 -1      1775-4.74999E-01-2.74977E+00 2.25000E+00
 -1      1776-2.02443E+00-1.35268E+00 1.70312E+00
 -1      1777-1.96740E+00-1.31457E+00 1.70312E+00
 -1      1778 2.19155E+00 1.42191E+00 2.25000E+00
 -1      1779-2.32070E+00-3.46213E-01 5.00000E-01
 -1      1780 2.32070E+00 4.61617E-01 1.70312E+00
 -1      1781 2.38798E+00 4.74999E-01 1.70312E+00
 -1      1782-1.39617E+00-1.88580E+00 5.00000E-01
 -1      1783 4.74999E-01-2.38798E+00 1.26562E+00
 -1      1784 4.61617E-01-2.32070E+00 1.26562E+00
 -1      1785 5.68236E-01 2.27654E+00 5.00000E-01
 -1      1786 2.38798E+00 4.74999E-01 6.09375E-01
 -1      1787 2.32070E+00 4.61617E-01 6.09375E-01
 -1      1788 1.20795E+00-2.01156E+00 2.25000E+00
 -1      1789 2.38798E+00-4.74999E-01 1.59375E+00
 -1      1790 2.32070E+00-4.61617E-01 1.59375E+00
 -1      1791 2.74977E+00 4.74999E-01 2.25000E+00
 -1      1792 4.74999E-01-2.38798E+00 2.03125E+00
 -1      1793 4.61617E-01-2.32070E+00 2.03125E+00
 -1      1794 1.35268E+00 2.02443E+00 1.04688E+00
 -1      1795 1.31457E+00 1.96740E+00 1.04688E+00
 -1      1796 5.63875E+00 9.50000E-01 5.00000E-01
 -1      1797 5.51240E+00 1.25504E+00 5.00000E-01
 -1      1798-2.38798E+00-4.74999E-01 1.26562E+00
 -1      1799-2.32070E+00-4.61617E-01 1.26562E+00
 -1      1800 4.74999E-01 2.74977E+00 2.25000E+00
 -1      1801 2.32070E+00 2.30808E-01 2.25000E+00
 -1      1802 1.49113E+00-2.35868E+00 2.25000E+00
 -1      1803 4.74999E-01-2.38798E+00 1.92188E+00
 -1      1804 4.61617E-01-2.32070E+00 1.92188E+00
 -1      1805 1.39617E+00-1.88580E+00 2.25000E+00
 -1      1806 9.50000E-01-5.63875E+00 5.00000E-01
 -1      1807 1.25504E+00-5.51240E+00 5.00000E-01
 -1      1808-2.38798E+00-4.74999E-01 2.14062E+00
 -1      1809-2.32070E+00-4.61617E-01 2.14062E+00
 -1      1810-2.38798E+00 4.74999E-01 1.15625E+00
 -1      1811-2.32070E+00 4.61617E-01 1.15625E+00
 -1      1812 4.74999E-01 2.38798E+00 6.09375E-01
 -1      1813 4.61617E-01 2.32070E+00 6.09375E-01
 -1      1814 3.46213E-01 2.32070E+00 5.00000E-01
 -1      1815-2.27654E+00 5.68236E-01 2.25000E+00
 -1      1816-2.27654E+00-5.68236E-01 2.25000E+00
 -1      1817-1.60850E+00-2.28025E+00 2.25000E+00
 -1      1818 1.96740E+00-1.31457E+00 1.04688E+00
 -1      1819 2.02443E+00-1.35268E+00 1.04688E+00
 -1      1820-1.88580E+00-1.39617E+00 2.25000E+00
 -1      1821-2.02443E+00 1.35268E+00 6.09375E-01
 -1      1822-1.96740E+00 1.31457E+00 6.09375E-01
 -1      1823 1.80419E+00-1.47778E+00 2.25000E+00
 -1      1824-1.10133E+00-2.05573E+00 5.00000E-01
 -1      1825 2.30808E-01-2.32070E+00 2.25000E+00
 -1      1826 2.38798E+00-4.74999E-01 1.70312E+00
 -1      1827 2.32070E+00-4.61617E-01 1.70312E+00
 -1      1828-1.39617E+00-1.88580E+00 2.25000E+00
 -1      1829 1.10133E+00-2.05573E+00 5.00000E-01
 -1      1830-2.32070E+00 3.46213E-01 5.00000E-01
 -1      1831-2.32070E+00 3.46213E-01 2.25000E+00
 -1      1832-1.88580E+00 1.39617E+00 5.00000E-01
 -1      1833 2.02443E+00-1.35268E+00 1.70312E+00
 -1      1834 1.96740E+00-1.31457E+00 1.70312E+00
 -1      1835-2.30808E-01 2.32070E+00 5.00000E-01
 -1      1836-1.35268E+00 2.02443E+00 2.14062E+00
 -1      1837-1.31457E+00 1.96740E+00 2.14062E+00
 -1      1838-1.39617E+00 1.88580E+00 2.25000E+00
 -1      1839-3.46213E-01-2.32070E+00 2.25000E+00
 -1      1840 2.27654E+00 5.68236E-01 5.00000E-01
 -1      1841 1.35268E+00-2.02443E+00 6.09375E-01
 -1      1842 1.31457E+00-1.96740E+00 6.09375E-01
 -1      1843-2.56887E+00 4.74999E-01 2.25000E+00
 -1      1844-1.48059E+00 2.15234E+00 2.25000E+00
 -1      1845-2.02443E+00-1.35268E+00 6.09375E-01
 -1      1846-1.96740E+00-1.31457E+00 6.09375E-01
 -1      1847 2.38798E+00-4.74999E-01 1.15625E+00
 -1      1848 2.32070E+00-4.61617E-01 1.15625E+00
 -1      1849 2.32070E+00-2.30808E-01 2.25000E+00
 -1      1850-2.32070E+00-3.46213E-01 2.25000E+00
 -1      1851 2.38798E+00-4.74999E-01 2.03125E+00
 -1      1852 2.32070E+00-4.61617E-01 2.03125E+00
 -1      1853-1.20795E+00 2.01156E+00 2.25000E+00
 -1      1854 2.02443E+00-1.35268E+00 2.03125E+00
 -1      1855 1.96740E+00-1.31457E+00 2.03125E+00
 -1      1856-2.38798E+00 4.74999E-01 1.92188E+00
 -1      1857-2.32070E+00 4.61617E-01 1.92188E+00
 -1      1858 2.38798E+00-4.74999E-01 1.26562E+00
 -1      1859 2.32070E+00-4.61617E-01 1.26562E+00
 -1      1860 1.20795E+00 2.01156E+00 5.00000E-01
 -1      1861-1.88580E+00-1.39617E+00 5.00000E-01
 -1      1862 2.02443E+00 1.35268E+00 1.92188E+00
 -1      1863 1.96740E+00 1.31457E+00 1.92188E+00
 -1      1864 2.32070E+00-4.61617E-01 1.04688E+00
 -1      1865 2.38798E+00-4.74999E-01 1.04688E+00
 -1      1866 1.20795E+00-2.01156E+00 5.00000E-01
 -1      1867 2.23237E+00-6.74855E-01 5.00000E-01
 -1      1868-2.01156E+00 1.20795E+00 5.00000E-01
 -1      1869-2.56887E+00-4.74999E-01 2.25000E+00
 -1      1870 2.35868E+00-1.49113E+00 2.25000E+00
 -1      1871-4.61617E-01-2.32070E+00 2.14062E+00
 -1      1872-4.74999E-01-2.38798E+00 2.14062E+00
 -1      1873 2.38798E+00-4.74999E-01 1.48438E+00
 -1      1874 2.32070E+00-4.61617E-01 1.48438E+00
 -1      1875-2.27654E+00-5.68236E-01 5.00000E-01
 -1      1876 5.68236E-01 2.27654E+00 2.25000E+00
 -1      1877 6.13448E-01 2.72223E+00 2.25000E+00
 -1      1878-2.01156E+00-1.20795E+00 5.00000E-01
 -1      1879 1.31457E+00 1.96740E+00 2.14062E+00
 -1      1880 1.35268E+00 2.02443E+00 2.14062E+00
 -1      1881 2.02443E+00-1.35268E+00 1.26562E+00
 -1      1882 1.96740E+00-1.31457E+00 1.26562E+00
 -1      1883-1.35268E+00-2.02443E+00 2.14062E+00
 -1      1884-1.31457E+00-1.96740E+00 2.14062E+00
 -1      1885-2.02443E+00 1.35268E+00 1.48438E+00
 -1      1886-1.96740E+00 1.31457E+00 1.48438E+00
 -1      1887-2.02443E+00-1.35268E+00 2.14062E+00
 -1      1888-1.96740E+00-1.31457E+00 2.14062E+00
 -1      1889 5.68236E-01-2.27654E+00 5.00000E-01
 -1      1890 2.02443E+00-1.35268E+00 6.09375E-01
 -1      1891 1.96740E+00-1.31457E+00 6.09375E-01
 -1      1892 1.88580E+00-1.39617E+00 5.00000E-01
 -1      1893-2.19155E+00-1.42191E+00 2.25000E+00
 -1      1894-4.74999E-01-2.38798E+00 8.28125E-01
 -1      1895-4.61617E-01-2.32070E+00 8.28125E-01
 -1      1896-2.38798E+00 4.74999E-01 1.59375E+00
 -1      1897-2.32070E+00 4.61617E-01 1.59375E+00
 -1      1898 2.74977E+00-4.74999E-01 2.25000E+00
 -1      1899-4.74999E-01 2.38798E+00 1.48438E+00
 -1      1900-4.61617E-01 2.32070E+00 1.48438E+00
 -1      1901-2.32070E+00 4.61617E-01 1.70312E+00
 -1      1902-2.38798E+00 4.74999E-01 1.70312E+00
 -1      1903-5.68236E-01-2.27654E+00 2.25000E+00
 -1      1904-1.20795E+00-2.01156E+00 2.25000E+00
 -1      1905-5.68236E-01-2.27654E+00 5.00000E-01
 -1      1906 2.72223E+00-6.13448E-01 2.25000E+00
 -1      1907-2.38798E+00 4.74999E-01 1.26562E+00
 -1      1908-2.32070E+00 4.61617E-01 1.26562E+00
 -1      1909 2.23237E+00-6.74855E-01 2.25000E+00
 -1      1910 2.28025E+00-1.60850E+00 2.25000E+00
 -1      1911-5.63875E+00-9.50000E-01 5.00000E-01
 -1      1912-5.51240E+00-1.25504E+00 5.00000E-01
 -1      1913-1.80419E+00 1.47778E+00 2.25000E+00
 -1      1914-2.02443E+00 1.35268E+00 2.03125E+00
 -1      1915-1.96740E+00 1.31457E+00 2.03125E+00
 -1      1916-2.28025E+00 1.60850E+00 2.25000E+00
 -1      1917 2.38798E+00-4.74999E-01 1.92188E+00
 -1      1918 2.32070E+00-4.61617E-01 1.92188E+00
 -1      1919 1.88580E+00-1.39617E+00 2.25000E+00
 -1      1920-3.46213E-01 2.32070E+00 5.00000E-01
 -1      1921 4.65895E+00-3.31545E+00 5.00000E-01
 -1      1922 4.78531E+00-3.01041E+00 5.00000E-01
 -1      1923 9.50000E-01 5.63875E+00 5.00000E-01
 -1      1924 1.25504E+00 5.51240E+00 5.00000E-01
 -1      1925 4.74999E-01-2.38798E+00 2.14062E+00
 -1      1926 4.61617E-01-2.32070E+00 2.14062E+00
 -1      1927-2.05573E+00 1.10133E+00 2.25000E+00
 -1      1928 3.46213E-01-2.32070E+00 2.25000E+00
 -1      1929-3.31545E+00-4.65895E+00 5.00000E-01
 -1      1930-3.01041E+00-4.78531E+00 5.00000E-01
 -1      1931 5.68236E-01-2.27654E+00 2.25000E+00
 -1      1932-1.20795E+00-2.01156E+00 5.00000E-01
 -1      1933 1.48059E+00-2.15234E+00 2.25000E+00
 -1      1934 2.01156E+00-1.20795E+00 2.25000E+00
 -1      1935 2.32070E+00-3.46213E-01 2.25000E+00
 -1      1936-2.02443E+00-1.35268E+00 1.92188E+00
 -1      1937-1.96740E+00-1.31457E+00 1.92188E+00
 -1      1938-4.74999E-01-2.56887E+00 2.25000E+00
 -1      1939-2.38798E+00-4.74999E-01 8.28125E-01
 -1      1940-2.32070E+00-4.61617E-01 8.28125E-01
 -1      1941 2.38798E+00-4.74999E-01 2.14062E+00
 -1      1942 2.32070E+00-4.61617E-01 2.14062E+00
 -1      1943-5.63875E+00 9.50000E-01 5.00000E-01
 -1      1944-5.51240E+00 1.25504E+00 5.00000E-01
 -1      1945 1.20795E+00 2.01156E+00 2.25000E+00
 -1      1946 5.44223E-01-2.55510E+00 2.25000E+00
 -1      1947 3.46213E-01-2.32070E+00 5.00000E-01
 -1      1948 1.42191E+00-2.19155E+00 2.25000E+00
 -1      1949-3.46213E-01-2.32070E+00 5.00000E-01
 -1      1950-1.88580E+00 1.39617E+00 2.25000E+00
 -1      1951 3.31545E+00 4.65895E+00 5.00000E-01
 -1      1952 3.01041E+00 4.78531E+00 5.00000E-01
 -1      1953 4.65895E+00 3.31545E+00 5.00000E-01
 -1      1954 4.78531E+00 3.01041E+00 5.00000E-01
 -1      1955 3.31545E+00-4.65895E+00 5.00000E-01
 -1      1956 3.01041E+00-4.78531E+00 5.00000E-01
 -1      1957-9.50000E-01-5.63875E+00 5.00000E-01
 -1      1958-1.25504E+00-5.51240E+00 5.00000E-01
 -1      1959 4.74999E-01-2.56887E+00 2.25000E+00
 -1      1960 2.27654E+00-5.68236E-01 2.25000E+00
 -1      1961 2.56887E+00-4.74999E-01 2.25000E+00
 -1      1962-9.50000E-01 5.63875E+00 5.00000E-01
 -1      1963-1.25504E+00 5.51240E+00 5.00000E-01
 -1      1964-2.19155E+00 1.42191E+00 2.25000E+00
 -1      1965-4.30523E+00-1.03939E+01-5.00000E-01
 -1      1966 0.00000E+00 1.12497E+01-5.00000E-01
 -1      1967-7.95528E+00 7.95528E+00-5.00000E-01
 -1      1968 0.00000E+00-1.12497E+01-5.00000E-01
 -1      1969 4.90905E+00-4.90905E+00-5.00000E-01
 -1      1970-1.03939E+01-4.30523E+00-5.00000E-01
 -1      1971 9.35357E+00 6.24987E+00-5.00000E-01
 -1      1972 9.39032E+00-4.60238E+00-5.00000E-01
 -1      1973-1.04410E+01-6.83112E+00-5.00000E-01
 -1      1974-3.08926E+00 1.14502E+01-5.00000E-01
 -1      1975 9.20579E+00 9.20579E+00 5.00000E-01
 -1      1976 7.01632E+00 1.05007E+01 5.00000E-01
 -1      1977 4.98223E+00 1.20279E+01 5.00000E-01
 -1      1978 2.46379E+00 1.23864E+01 5.00000E-01
 -1      1979 0.00000E+00 1.30190E+01 5.00000E-01
 -1      1980-2.46379E+00 1.23864E+01 5.00000E-01
 -1      1981-4.98223E+00 1.20279E+01 5.00000E-01
 -1      1982-2.12850E+00 1.07255E+01 5.00000E-01
 -1      1983-7.01632E+00 1.05007E+01 5.00000E-01
 -1      1984 1.20279E+01 4.98223E+00 5.00000E-01
 -1      1985 1.05007E+01 7.01632E+00 5.00000E-01
 -1      1986 1.30190E+01 0.00000E+00 5.00000E-01
 -1      1987 1.23864E+01-2.46379E+00 5.00000E-01
 -1      1988 1.23864E+01 2.46379E+00 5.00000E-01
 -1      1989 1.20279E+01-4.98223E+00 5.00000E-01
 -1      1990 1.05007E+01-7.01632E+00 5.00000E-01
 -1      1991 9.20579E+00-9.20579E+00 5.00000E-01
 -1      1992-1.04717E+01-7.16744E+00 5.00000E-01
 -1      1993 7.01632E+00-1.05007E+01 5.00000E-01
 -1      1994 4.98223E+00-1.20279E+01 5.00000E-01
 -1      1995 2.51551E+00 1.20913E+01-5.00000E-01
 -1      1996 2.46379E+00-1.23864E+01 5.00000E-01
 -1      1997 5.61503E+00 8.79655E+00-5.00000E-01
 -1      1998 0.00000E+00-1.30190E+01 5.00000E-01
 -1      1999-2.46379E+00-1.23864E+01 5.00000E-01
 -1      2000-4.98223E+00-1.20279E+01 5.00000E-01
 -1      2001-7.01632E+00-1.05007E+01 5.00000E-01
 -1      2002-9.20579E+00-9.20579E+00 5.00000E-01
 -1      2003 7.88674E+00-9.47394E+00 5.00000E-01
 -1      2004-1.20279E+01-4.98223E+00 5.00000E-01
 -1      2005-9.20579E+00 9.20579E+00 5.00000E-01
 -1      2006 1.08102E+01 7.44525E+00-5.00000E-01
 -1      2007-1.05007E+01 7.01632E+00 5.00000E-01
 -1      2008-1.20279E+01 4.98223E+00 5.00000E-01
 -1      2009-1.23864E+01-2.46379E+00 5.00000E-01
 -1      2010-1.23864E+01 2.46379E+00 5.00000E-01
 -1      2011 1.10341E+01 2.19481E+00-5.00000E-01
 -1      2012-1.30190E+01 0.00000E+00 5.00000E-01
 -1      2013 0.00000E+00 0.00000E+00 5.00000E-01
 -1      2014 6.24987E+00-9.35357E+00-5.00000E-01
 -1      2015-4.84667E+00 1.21787E+01-5.00000E-01
 -1      2016 3.08926E+00-1.14502E+01-5.00000E-01
 -1      2017-1.18375E+01 6.42965E+00 5.00000E-01
 -1      2018 8.46496E+00 5.65611E+00 5.00000E-01
 -1      2019 5.65611E+00 8.46496E+00 5.00000E-01
 -1      2020-3.82402E+00 1.29168E+01 5.00000E-01
 -1      2021 9.98513E+00 1.98616E+00 5.00000E-01
 -1      2022 5.65612E+00-8.46497E+00 5.00000E-01
 -1      2023 5.58199E+00 1.12230E+01-5.00000E-01
 -1      2024-9.15036E+00 9.41152E+00-5.00000E-01
 -1      2025-1.03791E+01 8.04246E+00-5.00000E-01
 -1      2026-1.97225E+00 4.76000E+00-5.00000E-01
 -1      2027 1.18101E+01-3.96664E+00-5.00000E-01
 -1      2028 1.17710E+01-3.66092E+00 5.00000E-01
 -1      2029 1.29090E+01 2.37946E+00-5.00000E-01
 -1      2030-1.10341E+01 2.19481E+00-5.00000E-01
 -1      2031 1.35146E+01 1.70042E+00 5.00000E-01
 -1      2032-3.66092E+00-1.17710E+01 5.00000E-01
 -1      2033-1.21336E+01-2.30310E+00-5.00000E-01
 -1      2034 3.82402E+00-1.29168E+01 5.00000E-01
 -1      2035-1.10279E+01 5.47770E+00-5.00000E-01
 -1      2036-2.81280E+00 1.30713E+01-5.00000E-01
 -1      2037-9.22520E+00 6.38614E+00-5.00000E-01
 -1      2038 1.33969E+01-1.41013E+00 5.00000E-01
 -1      2039-6.51258E+00 1.14045E+01-5.00000E-01
 -1      2040-9.41407E+00-7.92290E+00 5.00000E-01
 -1      2041-1.23217E+01-4.22352E+00-5.00000E-01
 -1      2042-3.60439E+00-1.31330E+01 5.00000E-01
 -1      2043 4.84667E+00-1.21787E+01-5.00000E-01
 -1      2044-1.24945E+01 1.68471E-01-5.00000E-01
 -1      2045 9.08919E+00-6.07320E+00 5.00000E-01
 -1      2046-2.85986E+00-2.85986E+00-5.00000E-01
 -1      2047-2.13262E+00-1.07215E+01 5.00000E-01
 -1      2048-7.88674E+00 9.47394E+00 5.00000E-01
 -1      2049-9.47394E+00 7.88674E+00 5.00000E-01
 -1      2050-7.30325E+00 9.70888E+00-5.00000E-01
 -1      2051-9.14275E+00-6.10900E+00 5.00000E-01
 -1      2052 9.47394E+00-7.88674E+00 5.00000E-01
 -1      2053 5.95152E+00 9.73986E+00 5.00000E-01
 -1      2054-8.46497E+00 5.65612E+00 5.00000E-01
 -1      2055-9.98513E+00 1.98616E+00 5.00000E-01
 -1      2056 1.07539E+01-8.35581E+00 5.00000E-01
 -1      2057-1.17710E+01 3.66092E+00 5.00000E-01
 -1      2058-1.04369E+01 8.76929E+00 5.00000E-01
 -1      2059 2.24193E+00 8.72859E+00-5.00000E-01
 -1      2060 7.24487E+00 1.12150E+01-5.00000E-01
 -1      2061 2.15922E+00 4.17117E-01-5.00000E-01
 -1      2062 1.04716E+01-6.84751E+00-5.00000E-01
 -1      2063-2.31557E+00-1.22603E+01-5.00000E-01
 -1      2064-1.12232E+00 1.22759E+01 5.00000E-01
 -1      2065-1.22759E+01 1.12232E+00 5.00000E-01
 -1      2066 1.04702E+01 8.47592E+00 5.00000E-01
 -1      2067 1.07215E+01-2.13262E+00 5.00000E-01
 -1      2068-6.26065E+00 2.62073E+00-5.00000E-01
 -1      2069 5.73466E+00-1.09119E+01 5.00000E-01
 -1      2070-7.88674E+00-9.47394E+00 5.00000E-01
 -1      2071-1.11879E+01 1.70641E+00 5.00000E-01
 -1      2072 3.66092E+00 1.17710E+01 5.00000E-01
 -1      2073 2.13262E+00 1.07215E+01 5.00000E-01
 -1      2074-1.40182E+00-7.04522E+00-5.00000E-01
 -1      2075 2.12850E+00-1.07255E+01 5.00000E-01
 -1      2076 4.96905E+00 1.25821E+01-5.00000E-01
 -1      2077-1.29090E+01 2.37946E+00-5.00000E-01
 -1      2078-1.24614E+01 5.41043E+00-5.00000E-01
 -1      2079-7.00070E+00-1.63389E+00-5.00000E-01
 -1      2080 4.59814E+00-1.02942E+01-5.00000E-01
 -1      2081-3.52396E+00 1.16768E+01 5.00000E-01
 -1      2082 1.83484E+00 9.22438E+00 5.00000E-01
 -1      2083 1.22759E+01 1.12232E+00 5.00000E-01
 -1      2084-7.61809E+00-8.70319E+00-5.00000E-01
 -1      2085 6.12325E+00-1.10517E+01-5.00000E-01
 -1      2086-1.84671E-01-1.31249E+01-5.00000E-01
 -1      2087 7.88674E+00 9.47394E+00 5.00000E-01
 -1      2088 1.31330E+01-3.60439E+00 5.00000E-01
 -1      2089-6.49701E+00 9.17810E+00 5.00000E-01
 -1      2090-1.02848E+01 9.19378E+00-5.00000E-01
 -1      2091 1.27712E+01 1.49835E-01-5.00000E-01
 -1      2092 5.58611E+00 1.09344E+01 5.00000E-01
 -1      2093 2.81280E+00-1.30713E+01-5.00000E-01
 -1      2094-1.05206E+01 6.71381E+00-5.00000E-01
 -1      2095 1.12232E+00-1.22759E+01 5.00000E-01
 -1      2096-1.50157E+00 1.20135E+01-5.00000E-01
 -1      2097 1.12883E+01-7.83760E+00-5.00000E-01
 -1      2098-9.16051E+00 8.18470E+00-5.00000E-01
 -1      2099 1.30203E+01-4.33376E+00-5.00000E-01
 -1      2100-1.07486E+01 5.76486E+00 5.00000E-01
 -1      2101-1.18787E+01-5.93249E+00-5.00000E-01
 -1      2102 8.35581E+00 1.07539E+01 5.00000E-01
 -1      2103 3.52396E+00-1.16768E+01 5.00000E-01
 -1      2104 1.84671E-01 1.31249E+01-5.00000E-01
 -1      2105 4.01325E+00 4.55481E+00-5.00000E-01
 -1      2106 7.66660E+00-1.10799E+01-5.00000E-01
 -1      2107-9.06856E+00 3.83255E+00-5.00000E-01
 -1      2108-1.18001E+01-6.72402E+00 5.00000E-01
 -1      2109 1.28773E+01-2.37634E+00-5.00000E-01
 -1      2110-1.07215E+01-2.13262E+00 5.00000E-01
 -1      2111-1.34616E+01-9.56514E-01-5.00000E-01
 -1      2112-1.18727E+01 6.63056E+00-5.00000E-01
 -1      2113-1.16693E+01 3.83746E+00-5.00000E-01
 -1      2114 1.69567E+00-1.35126E+01 5.00000E-01
 -1      2115-3.56836E+00-1.30296E+01-5.00000E-01
 -1      2116-8.53953E+00 1.19934E+00-5.00000E-01
 -1      2117-1.33969E+01-1.41013E+00 5.00000E-01
 -1      2118 1.15731E+01 4.66295E+00-5.00000E-01
 -1      2119 1.31846E+00-1.33438E+01-5.00000E-01
 -1      2120-1.30411E+01 3.74786E+00-5.00000E-01
 -1      2121-1.31365E+01 3.60081E+00 5.00000E-01
 -1      2122-1.35146E+01 1.70042E+00 5.00000E-01
 -1      2123 1.16020E+01-7.50178E+00 5.00000E-01
 -1      2124-1.17710E+01-3.66092E+00 5.00000E-01
 -1      2125-7.88187E+00 1.10108E+01-5.00000E-01
 -1      2126-1.13191E+01-3.35230E+00-5.00000E-01
 -1      2127-6.42965E+00-1.18375E+01 5.00000E-01
 -1      2128-6.07320E+00-9.08919E+00 5.00000E-01
 -1      2129-1.41013E+00-1.33969E+01 5.00000E-01
 -1      2130 1.65990E+00 1.04684E+01-5.00000E-01
 -1      2131-1.63976E+00 9.88398E+00-5.00000E-01
 -1      2132-1.43786E+00 1.34341E+01-5.00000E-01
 -1      2133-4.43906E+00 8.74715E+00-5.00000E-01
 -1      2134-1.71473E+00 8.68379E-01-5.00000E-01
 -1      2135 6.86041E+00-5.28652E-01-5.00000E-01
 -1      2136-4.97527E+00-1.26026E+01-5.00000E-01
 -1      2137-8.35581E+00 1.07539E+01 5.00000E-01
 -1      2138 9.78439E-01 3.43043E+00-5.00000E-01
 -1      2139-1.20594E+01 1.39437E+00-5.00000E-01
 -1      2140 8.35386E+00-1.07586E+01 5.00000E-01
 -1      2141-3.62070E+00 2.69659E+00-5.00000E-01
 -1      2142-1.35067E+01 1.12305E+00-5.00000E-01
 -1      2143-1.66689E+00 2.82588E+00-5.00000E-01
 -1      2144 7.46491E+00-1.16267E+01 5.00000E-01
 -1      2145-5.02251E+00 5.50666E+00-5.00000E-01
 -1      2146 1.09119E+01-5.73466E+00 5.00000E-01
 -1      2147 1.37913E+01 1.72767E+00-5.00000E-01
 -1      2148-1.55701E+00-1.34489E+01-5.00000E-01
 -1      2149-1.00850E+00-1.20971E+01-5.00000E-01
 -1      2150 1.29168E+01 3.82402E+00 5.00000E-01
 -1      2151-9.21623E+00-9.49179E+00-5.00000E-01
 -1      2152-1.29984E+01-4.10788E+00 5.00000E-01
 -1      2153-4.37042E+00-3.55903E-01-5.00000E-01
 -1      2154 2.25466E+00-7.45736E+00-5.00000E-01
 -1      2155 1.18375E+01 6.42965E+00 5.00000E-01
 -1      2156 1.19080E+01 6.78172E+00-5.00000E-01
 -1      2157-6.42965E+00 1.18375E+01 5.00000E-01
 -1      2158 5.14906E-01 6.34071E+00-5.00000E-01
 -1      2159-9.33865E+00-1.85757E+00 5.00000E-01
 -1      2160 5.80050E-02 8.48963E+00-5.00000E-01
 -1      2161 3.14199E-01 1.43215E+00-5.00000E-01
 -1      2162-8.88450E-01 1.82752E+00-5.00000E-01
 -1      2163-1.85819E+00 9.34175E+00 5.00000E-01
 -1      2164 5.85789E+00-9.68320E+00 5.00000E-01
 -1      2165 1.21365E+01-1.21273E+00 5.00000E-01
 -1      2166 7.50178E+00 1.16020E+01 5.00000E-01
 -1      2167-1.15670E+01-7.43300E+00-5.00000E-01
 -1      2168-1.06223E+01-8.49640E+00 5.00000E-01
 -1      2169-1.01432E+01-7.50365E-01-5.00000E-01
 -1      2170 4.13121E+00-1.93770E+00-5.00000E-01
 -1      2171 1.32158E+01 3.62485E+00-5.00000E-01
 -1      2172-1.03681E+01 4.27417E+00-5.00000E-01
 -1      2173 1.25858E+01 5.47692E+00-5.00000E-01
 -1      2174 7.07924E-01-1.22661E+01-5.00000E-01
 -1      2175 1.65291E+00-4.17396E+00-5.00000E-01
 -1      2176 1.10955E+01 2.67876E+00 5.00000E-01
 -1      2177-9.56757E+00-2.57723E+00-5.00000E-01
 -1      2178 1.18651E+01 3.30625E+00-5.00000E-01
 -1      2179 3.60439E+00 1.31330E+01 5.00000E-01
 -1      2180-2.44735E+00 1.35984E+01 5.00000E-01
 -1      2181-1.06486E+01-5.56386E+00-5.00000E-01
 -1      2182 6.08920E+00-1.22997E+01-5.00000E-01
 -1      2183 1.35730E+01-9.67491E-01-5.00000E-01
 -1      2184-4.03690E+00 1.30970E+01-5.00000E-01
 -1      2185-8.59618E-03-1.33896E+00-5.00000E-01
 -1      2186 3.72804E+00-1.23932E+01-5.00000E-01
 -1      2187 8.43348E+00 1.08556E+01-5.00000E-01
 -1      2188-1.00657E+01 3.03100E+00-5.00000E-01
 -1      2189-2.09390E-01 4.73330E+00-5.00000E-01
 -1      2190-9.58422E+00 6.18446E+00 5.00000E-01
 -1      2191 3.60126E+00 1.30416E+01-5.00000E-01
 -1      2192 1.12232E+00 1.22759E+01 5.00000E-01
 -1      2193 1.90052E+00-1.23023E+01-5.00000E-01
 -1      2194 2.05643E+00-1.67208E+00-5.00000E-01
 -1      2195-7.49075E+00-5.54789E+00-5.00000E-01
 -1      2196-9.07133E+00-5.22799E+00-5.00000E-01
 -1      2197 6.90971E+00-1.02566E+01-5.00000E-01
 -1      2198-7.82006E+00-5.22520E+00 5.00000E-01
 -1      2199-1.48599E+00-1.17155E+01 5.00000E-01
 -1      2200-1.03732E+01-8.98856E+00-5.00000E-01
 -1      2201 2.08598E+00 5.09889E+00-5.00000E-01
 -1      2202 1.11868E+00 1.20862E+01-5.00000E-01
 -1      2203-9.83608E-01 1.37367E+01 5.00000E-01
 -1      2204 9.84101E-01 4.62850E+00-5.00000E-01
 -1      2205-3.29943E-01 3.06566E+00-5.00000E-01
 -1      2206-2.26395E+00 7.33620E+00-5.00000E-01
 -1      2207-5.97639E+00 1.24302E+01-5.00000E-01
 -1      2208-4.90432E+00 1.39354E+00-5.00000E-01
 -1      2209-8.39295E+00-5.55561E-01-5.00000E-01
 -1      2210 3.74539E+00 1.01988E+01-5.00000E-01
 -1      2211-8.82726E+00 2.51128E+00-5.00000E-01
 -1      2212 1.01680E+01 8.82018E+00-5.00000E-01
 -1      2213-5.76486E+00 1.07486E+01 5.00000E-01
 -1      2214-4.98593E+00-2.43484E+00-5.00000E-01
 -1      2215 9.87204E+00-1.51288E+00-5.00000E-01
 -1      2216-6.67784E+00 4.71266E-01-5.00000E-01
 -1      2217-3.93667E+00-1.17117E+01-5.00000E-01
 -1      2218-2.49479E+00-9.32006E-01-5.00000E-01
 -1      2219 4.73627E+00-7.38568E+00-5.00000E-01
 -1      2220 3.04765E+00 2.50326E+00-5.00000E-01
 -1      2221-2.02809E+00 1.09784E+01-5.00000E-01
 -1      2222 0.00000E+00 1.20626E+00 5.00000E-01
 -1      2223 9.73986E+00 5.95152E+00 5.00000E-01
 -1      2224-2.67329E+00-1.06479E+01-5.00000E-01
 -1      2225-9.36399E+00 5.09603E+00-5.00000E-01
 -1      2226 9.32296E+00 3.86144E+00-5.00000E-01
 -1      2227 1.01939E+01-8.84143E+00-5.00000E-01
 -1      2228 4.61620E-01-1.11444E+00 5.00000E-01
 -1      2229-9.49777E-01-9.23046E+00-5.00000E-01
 -1      2230 4.64028E+00 5.92748E-01-5.00000E-01
 -1      2231-1.09137E+01-5.72227E+00 5.00000E-01
 -1      2232 5.30144E+00-8.56693E-01-5.00000E-01
 -1      2233-3.16660E+00-8.44808E+00-5.00000E-01
 -1      2234-7.92769E+00-3.64207E+00-5.00000E-01
 -1      2235-1.07994E+01-1.96125E+00-5.00000E-01
 -1      2236 7.91689E+00-5.28990E+00 5.00000E-01
 -1      2237 8.58348E+00 1.39053E+00-5.00000E-01
 -1      2238 5.03657E+00-7.53776E+00 5.00000E-01
 -1      2239 1.16750E+01 3.79122E+00 5.00000E-01
 -1      2240-1.10675E+01 3.52203E-01-5.00000E-01
 -1      2241 8.22119E-01-2.75648E+00-5.00000E-01
 -1      2242-4.94229E+00 2.71471E+00-5.00000E-01
 -1      2243-3.34539E+00 9.13109E-01-5.00000E-01
 -1      2244-6.44447E+00-1.12771E+01-5.00000E-01
 -1      2245 6.40770E+00 1.00208E+01-5.00000E-01
 -1      2246 7.17473E-01-1.91830E-02-5.00000E-01
 -1      2247-1.13950E+00-4.50040E-01-5.00000E-01
 -1      2248 8.58687E+00-3.45606E-01-5.00000E-01
 -1      2249 6.50411E+00 1.52433E+00-5.00000E-01
 -1      2250-1.38011E+00-1.91998E+00-5.00000E-01
 -1      2251 1.02246E+01 5.25668E-01-5.00000E-01
 -1      2252-9.36817E+00 2.46557E-01-5.00000E-01
 -1      2253-7.15956E+00 4.94520E+00-5.00000E-01
 -1      2254 7.61322E+00-6.84123E+00-5.00000E-01
 -1      2255 5.91868E+00 3.65317E-01-5.00000E-01
 -1      2256-1.33378E+01-3.66187E+00-5.00000E-01
 -1      2257 2.09616E+00-2.96197E+00-5.00000E-01
 -1      2258 3.03202E+00-2.28758E+00-5.00000E-01
 -1      2259-7.46609E-01 7.19552E+00-5.00000E-01
 -1      2260-1.34601E+01-2.28317E+00-5.00000E-01
 -1      2261 3.37674E+00-4.11735E+00-5.00000E-01
 -1      2262-5.93099E+00-9.48842E+00-5.00000E-01
 -1      2263-1.85757E+00-9.33865E+00 5.00000E-01
 -1      2264-9.19954E+00-7.87189E+00-5.00000E-01
 -1      2265-7.79294E+00-7.11591E+00-5.00000E-01
 -1      2266-9.82342E+00 1.60529E+00-5.00000E-01
 -1      2267 1.03055E+01-3.16277E+00-5.00000E-01
 -1      2268 7.62210E+00 5.20578E-01-5.00000E-01
 -1      2269 6.78306E+00 5.08840E+00-5.00000E-01
 -1      2270-4.26194E+00 4.13138E+00-5.00000E-01
 -1      2271-7.56763E+00 3.45135E+00-5.00000E-01
 -1      2272-3.35293E+00-9.64508E+00-5.00000E-01
 -1      2273-7.79087E-01-4.64716E+00-5.00000E-01
 -1      2274-1.14928E+01-7.79732E+00 5.00000E-01
 -1      2275 3.62108E+00 6.85114E+00-5.00000E-01
 -1      2276-7.53776E+00 5.03657E+00 5.00000E-01
 -1      2277-1.28939E+00-1.07389E+01-5.00000E-01
 -1      2278-4.02709E+00 7.00021E+00-5.00000E-01
 -1      2279-3.10775E+00 9.97924E+00-5.00000E-01
 -1      2280 3.67579E-01 9.87680E+00-5.00000E-01
 -1      2281-6.04286E+00 7.26520E+00-5.00000E-01
 -1      2282 3.35478E+00 1.14021E+00-5.00000E-01
 -1      2283 1.65386E+00-9.66659E+00-5.00000E-01
 -1      2284 7.79417E+00-2.77120E+00-5.00000E-01
 -1      2285 1.73485E+00 1.83010E+00-5.00000E-01
 -1      2286 8.09232E+00 8.80810E+00-5.00000E-01
 -1      2287 1.21512E+01-1.14153E+00-5.00000E-01
 -1      2288 1.20626E+00 0.00000E+00 5.00000E-01
 -1      2289 6.41771E+00 1.21129E+01-5.00000E-01
 -1      2290 1.99808E+00 2.93344E+00-5.00000E-01
 -1      2291 1.89773E+00 4.02202E+00-5.00000E-01
 -1      2292-2.55007E+00 1.61131E-01-5.00000E-01
 -1      2293 9.33865E+00-1.85757E+00 5.00000E-01
 -1      2294 9.43936E+00 7.72426E+00 5.00000E-01
 -1      2295 1.18890E+01-5.93799E+00-5.00000E-01
 -1      2296 9.43228E+00 7.63911E+00-5.00000E-01
 -1      2297-6.35126E+00 3.92174E+00-5.00000E-01
 -1      2298-9.00004E+00-6.55650E+00-5.00000E-01
 -1      2299-8.35581E+00-1.07539E+01 5.00000E-01
 -1      2300-4.60918E+00-9.02732E+00-5.00000E-01
 -1      2301 1.85819E+00-9.34175E+00 5.00000E-01
 -1      2302 1.36741E+00-1.10228E+01-5.00000E-01
 -1      2303 2.63730E+00 9.82812E+00-5.00000E-01
 -1      2304-8.34708E+00-1.93428E+00-5.00000E-01
 -1      2305-5.15522E+00-1.13420E+01-5.00000E-01
 -1      2306 6.86138E+00 7.15110E+00-5.00000E-01
 -1      2307 5.09362E+00 1.00029E+01-5.00000E-01
 -1      2308-8.26421E+00-1.06493E+01-5.00000E-01
 -1      2309-5.87395E+00-7.52678E+00-5.00000E-01
 -1      2310-1.21365E+01-1.21273E+00 5.00000E-01
 -1      2311 7.62677E+00 9.93783E+00-5.00000E-01
 -1      2312-2.70284E+00 3.65349E+00-5.00000E-01
 -1      2313 1.35556E+01 2.85792E+00 5.00000E-01
 -1      2314 3.20564E+00-9.31471E-01-5.00000E-01
 -1      2315 6.27142E+00-1.21234E+01 5.00000E-01
 -1      2316-7.25034E+00-5.18271E-01-5.00000E-01
 -1      2317-7.26996E+00 1.70141E+00-5.00000E-01
 -1      2318 8.33973E+00 5.06845E+00-5.00000E-01
 -1      2319-6.14834E+00 1.48372E+00-5.00000E-01
 -1      2320-6.28163E+00 5.95137E+00-5.00000E-01
 -1      2321 1.25800E+00 7.62174E+00-5.00000E-01
 -1      2322-8.52957E-01-8.52957E-01 5.00000E-01
 -1      2323-5.04020E+00 1.04157E+01-5.00000E-01
 -1      2324-6.37903E-01 9.37306E+00-5.00000E-01
 -1      2325 1.20928E+01-6.29175E+00 5.00000E-01
 -1      2326-5.23672E+00 7.83730E+00 5.00000E-01
 -1      2327-7.28687E+00 6.81266E+00-5.00000E-01
 -1      2328 1.06243E+01-4.37613E+00-5.00000E-01
 -1      2329-5.28990E+00-7.91689E+00 5.00000E-01
 -1      2330-8.92268E+00 1.05336E+01-5.00000E-01
 -1      2331-6.66203E+00-6.52073E+00-5.00000E-01
 -1      2332 9.04394E+00-6.15216E+00-5.00000E-01
 -1      2333 2.82861E+00-1.34603E+01 5.00000E-01
 -1      2334-1.14904E+01 7.72205E+00-5.00000E-01
 -1      2335 2.56598E+00-5.70346E+00-5.00000E-01
 -1      2336-1.22121E+01-1.05243E+00-5.00000E-01
 -1      2337-5.10015E+00 6.63690E+00-5.00000E-01
 -1      2338 1.34437E+01-3.31889E+00-5.00000E-01
 -1      2339-5.93656E+00 4.92352E+00-5.00000E-01
 -1      2340 5.18341E+00 5.93631E+00-5.00000E-01
 -1      2341 8.84991E+00-1.02042E+01-5.00000E-01
 -1      2342-1.49432E+00-3.37497E+00-5.00000E-01
 -1      2343-3.40712E+00 5.50207E+00-5.00000E-01
 -1      2344 1.20675E+01 1.31239E+00-5.00000E-01
 -1      2345 1.36149E+01-2.54935E+00 5.00000E-01
 -1      2346 1.30586E+01-4.67683E+00 5.00000E-01
 -1      2347 1.08998E+01-6.40860E-01-5.00000E-01
 -1      2348-7.48558E+00-2.62811E+00-5.00000E-01
 -1      2349 6.29565E+00-7.75232E+00-5.00000E-01
 -1      2350-8.08458E+00 5.82021E+00-5.00000E-01
 -1      2351-6.93614E+00 7.78465E+00-5.00000E-01
 -1      2352-1.28127E+01-5.26273E+00-5.00000E-01
 -1      2353-1.37188E+01-2.45922E+00 5.00000E-01
 -1      2354 1.01692E+01 5.04500E+00-5.00000E-01
 -1      2355 3.53757E-01-3.98319E+00-5.00000E-01
 -1      2356 5.43235E+00 1.33832E+00-5.00000E-01
 -1      2357-5.76486E+00-1.07486E+01 5.00000E-01
 -1      2358-2.54935E+00-1.36149E+01 5.00000E-01
 -1      2359 7.32719E+00-4.78948E+00-5.00000E-01
 -1      2360-6.22696E+00 1.02392E+01-5.00000E-01
 -1      2361-4.40516E+00-5.05980E+00-5.00000E-01
 -1      2362 4.24813E+00 8.92158E+00-5.00000E-01
 -1      2363 7.54005E+00 3.41306E+00-5.00000E-01
 -1      2364 5.17503E-01-1.01349E+01-5.00000E-01
 -1      2365-5.62755E+00-1.11429E+00-5.00000E-01
 -1      2366-7.56552E+00 1.16029E+01 5.00000E-01
 -1      2367-3.50578E-01-3.01151E+00-5.00000E-01
 -1      2368 6.28882E+00 1.20919E+01 5.00000E-01
 -1      2369 7.58617E-01-5.74512E+00-5.00000E-01
 -1      2370 4.74612E+00 2.95686E+00-5.00000E-01
 -1      2371 9.17507E+00 5.23615E-01-5.00000E-01
 -1      2372 5.29121E+00-8.52488E+00-5.00000E-01
 -1      2373 1.69567E+00 1.35126E+01 5.00000E-01
 -1      2374-4.21550E+00 1.12173E+01-5.00000E-01
 -1      2375 3.62358E-01-7.81965E+00-5.00000E-01
 -1      2376 2.44206E+00 1.35446E+01-5.00000E-01
 -1      2377 1.16677E+00-6.89819E+00-5.00000E-01
 -1      2378 9.70171E+00-4.33659E-01-5.00000E-01
 -1      2379 7.85433E+00-8.59816E+00-5.00000E-01
 -1      2380-9.16593E+00-3.95446E+00-5.00000E-01
 -1      2381-5.98013E+00-5.10045E+00-5.00000E-01
 -1      2382 1.05577E+01 3.41740E+00-5.00000E-01
 -1      2383 3.70551E+00 3.44664E+00-5.00000E-01
 -1      2384-5.02445E+00 7.77186E+00-5.00000E-01
 -1      2385-7.20903E-01 1.04480E+01-5.00000E-01
 -1      2386-1.10274E+00 3.95970E+00-5.00000E-01
 -1      2387 5.42320E-01 2.46586E+00-5.00000E-01
 -1      2388-3.74799E+00-1.67077E+00-5.00000E-01
 -1      2389 9.82223E+00 1.75165E+00-5.00000E-01
 -1      2390-5.44745E+00 2.71600E-01-5.00000E-01
 -1      2391 6.31539E+00 6.13899E+00-5.00000E-01
 -1      2392-8.16888E+00-9.60064E+00-5.00000E-01
 -1      2393 9.37940E+00 9.90491E+00-5.00000E-01
 -1      2394 3.88854E+00 1.16311E+01-5.00000E-01
 -1      2395-3.32095E+00 8.08878E+00-5.00000E-01
 -1      2396-2.40044E+00-1.94836E+00-5.00000E-01
 -1      2397 3.31735E+00 8.07330E+00-5.00000E-01
 -1      2398-1.86063E+00-8.27950E+00-5.00000E-01
 -1      2399-6.99961E+00-4.43229E+00-5.00000E-01
 -1      2400-6.49278E+00-8.49044E+00-5.00000E-01
 -1      2401 9.18103E+00-7.68403E+00-5.00000E-01
 -1      2402-6.11310E+00-1.23868E+01-5.00000E-01
 -1      2403 2.96543E+00 4.24898E+00-5.00000E-01
 -1      2404 8.89140E+00 1.76861E+00 5.00000E-01
 -1      2405-4.36838E+00-7.54106E+00-5.00000E-01
 -1      2406-2.50328E+00 1.86698E+00-5.00000E-01
 -1      2407-3.72119E-01 4.59750E-01-5.00000E-01
 -1      2408-1.72879E-01-6.64231E+00-5.00000E-01
 -1      2409 2.32862E+00 7.66077E+00-5.00000E-01
 -1      2410 4.81813E+00 7.61878E+00-5.00000E-01
 -1      2411 1.15518E+01-2.64009E+00-5.00000E-01
 -1      2412-1.61288E+00 6.10531E+00-5.00000E-01
 -1      2413 6.85536E+00 8.44129E+00-5.00000E-01
 -1      2414 7.86558E+00-9.70280E+00-5.00000E-01
 -1      2415 4.73504E+00-3.36712E+00-5.00000E-01
 -1      2416 6.07596E+00-3.99658E+00-5.00000E-01
 -1      2417 6.18508E+00 2.92778E+00-5.00000E-01
 -1      2418-7.35844E-01-8.11384E+00-5.00000E-01
 -1      2419-2.13210E+00-9.54939E+00-5.00000E-01
 -1      2420 8.66406E+00 2.71252E+00-5.00000E-01
 -1      2421 3.27060E+00 5.60963E+00-5.00000E-01
 -1      2422 6.13943E+00-5.28013E+00-5.00000E-01
 -1      2423 6.16805E+00-2.30839E+00-5.00000E-01
 -1      2424 8.99193E+00-3.33841E+00-5.00000E-01
 -1      2425 7.58609E+00 2.11478E+00-5.00000E-01
 -1      2426 8.55101E+00-1.67621E+00-5.00000E-01
 -1      2427 3.13350E+00-9.94521E+00-5.00000E-01
 -1      2428 8.00120E+00-3.88226E+00-5.00000E-01
 -1      2429-1.08330E+00 5.24319E+00-5.00000E-01
 -1      2430 1.21759E+01-4.93926E+00-5.00000E-01
 -1      2431-5.27864E+00 3.74794E+00-5.00000E-01
 -1      2432 7.07831E+00-5.86999E+00-5.00000E-01
 -1      2433-7.56552E+00-1.16029E+01 5.00000E-01
 -1      2434 9.00998E+00-8.85558E+00-5.00000E-01
 -1      2435 1.01978E+01-5.59645E+00-5.00000E-01
 -1      2436-7.57001E+00-1.15884E+01-5.00000E-01
 -1      2437 8.21975E+00 7.01096E+00-5.00000E-01
 -1      2438-5.75934E+00-1.05057E+01-5.00000E-01
 -1      2439-9.35261E+00-1.50539E+00-5.00000E-01
 -1      2440 4.23827E+00-4.66141E-01-5.00000E-01
 -1      2441 2.19939E+00-6.31984E-01-5.00000E-01
 -1      2442-5.22402E+00-3.86424E+00-5.00000E-01
 -1      2443-7.76364E+00 4.39080E-01-5.00000E-01
 -1      2444-1.69081E+00 8.54614E+00-5.00000E-01
 -1      2445 1.45955E+00-8.42744E+00-5.00000E-01
 -1      2446-2.52144E+00-5.47459E+00-5.00000E-01
 -1      2447 5.45651E+00 4.51866E+00-5.00000E-01
 -1      2448-7.23378E+00-1.06137E+01-5.00000E-01
 -1      2449-1.12066E+01-7.03145E-01-5.00000E-01
 -1      2450-2.65320E+00-7.28247E+00-5.00000E-01
 -1      2451-1.12984E+01 7.92296E+00 5.00000E-01
 -1      2452 3.47664E+00-6.76969E+00-5.00000E-01
 -1      2453 3.73578E+00-5.30115E+00-5.00000E-01
 -1      2454 2.53257E+00-4.68612E+00-5.00000E-01
 -1      2455 8.12833E+00-5.54292E+00-5.00000E-01
 -1      2456 1.06324E+01-2.19500E+00-5.00000E-01
 -1      2457 1.13647E+01 4.06883E-01-5.00000E-01
 -1      2458 4.35016E+00 1.69449E+00-5.00000E-01
 -1      2459-2.64653E+00-1.36414E+01-5.00000E-01
 -1      2460-6.24287E+00 8.91405E+00-5.00000E-01
 -1      2461 6.45837E+00 4.01520E+00-5.00000E-01
 -1      2462 7.01200E+00-3.49176E+00-5.00000E-01
 -1      2463 1.24996E+00 1.36757E+01-5.00000E-01
 -1      2464 2.09155E-01-8.99275E+00-5.00000E-01
 -1      2465-1.30361E+00-5.79083E+00-5.00000E-01
 -1      2466-5.32797E+00-6.28740E+00-5.00000E-01
 -1      2467-3.68854E+00-6.29008E+00-5.00000E-01
 -1      2468 4.11271E+00-9.08366E+00-5.00000E-01
 -1      2469-6.88423E+00-7.55854E+00-5.00000E-01
 -1      2470 2.23735E+00 6.37698E+00-5.00000E-01
 -1      2471-3.94176E+00-2.74171E+00-5.00000E-01
 -1      2472 9.31815E+00 1.02749E+01 5.00000E-01
 -1      2473 2.56640E+00-8.88869E+00-5.00000E-01
 -1      2474 4.86496E+00 7.75536E+00 5.00000E-01
 -1      2475 3.70561E+00-3.10804E+00-5.00000E-01
 -1      2476 7.22188E+00-1.69382E+00-5.00000E-01
 -1      2477 2.26233E+00-1.05035E+01-5.00000E-01
 -1      2478-1.93553E+00-4.46017E+00-5.00000E-01
 -1      2479-3.53487E+00-4.02842E+00-5.00000E-01
 -1      2480 5.19882E+00-6.17361E+00-5.00000E-01
 -1      2481 7.51158E+00 6.04208E+00-5.00000E-01
 -1      2482-6.20209E+00-2.96679E+00-5.00000E-01
 -1      2483 1.64041E+00-5.20694E+00-5.00000E-01
 -1      2484 3.67522E+00-7.95951E+00-5.00000E-01
 -1      2485 1.38727E+00 5.82965E+00-5.00000E-01
 -1      2486 6.23577E+00-6.62354E+00-5.00000E-01
 -1      2487-2.30691E-01 2.27585E+00-5.00000E-01
 -1      2488-3.30106E+00 4.48403E+00-5.00000E-01
 -1      2489-8.88093E-01 2.14405E+00 1.05926E+00
 -1      2490-1.64099E+00 1.64099E+00 1.69073E+00
 -1      2491 1.09180E+00-1.08472E+00-5.00000E-01
 -1      2492 1.64099E+00 1.64099E+00 1.69073E+00
 -1      2493-8.88093E-01-2.14405E+00 1.05926E+00
 -1      2494-8.88093E-01-2.14405E+00 1.55458E+00
 -1      2495 1.64099E+00 1.64099E+00 1.15625E+00
 -1      2496 1.53068E+00 1.75129E+00 1.42349E+00
 -1      2497-4.04032E+00 2.69966E+00 5.00000E-01
 -1      2498-4.65966E+00-1.29758E+00-5.00000E-01
 -1      2499 2.14405E+00 8.88093E-01 1.05926E+00
 -1      2500 6.20864E+00-1.29964E+00-5.00000E-01
 -1      2501-1.01988E+00 6.03130E-01 5.00000E-01
 -1      2502 1.22512E+00 9.03566E-01-5.00000E-01
 -1      2503-2.69966E+00 4.04032E+00 5.00000E-01
 -1      2504 7.92880E-01-4.80977E+00-5.00000E-01
 -1      2505 8.88093E-01 2.14405E+00 1.15625E+00
 -1      2506-8.88093E-01 2.14405E+00 1.55458E+00
 -1      2507-2.72727E+00 5.05835E+00-5.00000E-01
 -1      2508 1.64099E+00-1.64099E+00 1.15625E+00
 -1      2509-1.64099E+00 1.64099E+00 1.05927E+00
 -1      2510-3.21101E+00 8.15910E-01 1.37500E+00
 -1      2511-4.90036E-01-2.11176E+00-5.00000E-01
 -1      2512 2.79189E+00 2.12014E+00 1.37500E+00
 -1      2513-1.04459E+00 2.07923E+00 1.30692E+00
 -1      2514 1.02907E+00 1.61490E+00-5.00000E-01
 -1      2515 8.88093E-01-2.14405E+00 1.15625E+00
 -1      2516-7.84157E+00 2.50447E+00-5.00000E-01
 -1      2517 2.14405E+00-8.88093E-01 1.69074E+00
 -1      2518 0.00000E+00 2.32070E+00 1.69073E+00
 -1      2519 1.73089E+00-1.55108E+00 8.28125E-01
 -1      2520-1.93636E+00-3.55798E-01-5.00000E-01
 -1      2521-1.76339E+00 1.51858E+00 1.97037E+00
 -1      2522 1.93090E+00 1.11876E+00-5.00000E-01
 -1      2523-7.99083E-01 2.18092E+00 1.30692E+00
 -1      2524-8.15910E-01-3.21101E+00 1.37500E+00
 -1      2525 5.41582E+00-1.77293E+00-5.00000E-01
 -1      2526-7.31595E-01-2.20887E+00 1.30692E+00
 -1      2527 1.78074E+00 1.50123E+00 1.48438E+00
 -1      2528-2.14405E+00-8.88093E-01 1.59375E+00
 -1      2529 0.00000E+00-2.32070E+00 1.48438E+00
 -1      2530 9.57675E-01-2.11523E+00 1.59375E+00
 -1      2531 8.90346E-01-3.39072E+00 1.37500E+00
 -1      2532-1.07451E+00-2.66303E+00-5.00000E-01
 -1      2533 2.14878E+00 8.76680E-01 1.53652E+00
 -1      2534-1.72784E+00 1.55413E+00 1.37500E+00
 -1      2535-1.64099E+00-1.64099E+00 9.62285E-01
 -1      2536-2.54197E+00 1.56705E+00 1.70312E+00
 -1      2537 2.32070E+00 0.00000E+00 9.62282E-01
 -1      2538 2.32070E+00 1.44098E-01 1.26562E+00
 -1      2539 1.21088E+00 2.28358E+00-5.00000E-01
 -1      2540-1.79555E+00-2.46730E+00 1.15625E+00
 -1      2541 1.50689E+00-1.77508E+00 7.62186E-01
 -1      2542 0.00000E+00-2.32070E+00 9.62282E-01
 -1      2543-4.65101E+00-3.22516E+00-5.00000E-01
 -1      2544-1.76803E+00 3.02717E+00 1.37500E+00
 -1      2545 9.47994E-01 4.76589E+00 5.00000E-01
 -1      2546 4.51604E+00 3.81837E+00-5.00000E-01
 -1      2547 2.64534E+00 9.63275E-01-5.00000E-01
 -1      2548-4.27382E+00 3.26539E+00-5.00000E-01
 -1      2549-2.14405E+00 8.88093E-01 1.48438E+00
 -1      2550 1.73089E+00 1.55108E+00 8.28125E-01
 -1      2551-1.10455E+00 2.05439E+00 1.53307E+00
 -1      2552-4.76589E+00 9.47992E-01 5.00000E-01
 -1      2553 7.53174E-02-2.32070E+00 1.86719E+00
 -1      2554-6.76480E-01-2.87440E+00 1.75884E+00
 -1      2555 3.93559E+00 2.58512E+00-5.00000E-01
 -1      2556-3.27883E+00 4.74999E-01 1.37500E+00
 -1      2557-1.79716E+00 1.48481E+00 1.59490E+00
 -1      2558-4.87103E+00 3.30927E+00-5.00000E-01
 -1      2559-2.12014E+00 2.79189E+00 1.37500E+00
 -1      2560-1.54248E+00 1.73949E+00 1.97037E+00
 -1      2561-2.05573E+00-1.10133E+00 1.70312E+00
 -1      2562 2.84746E+00 1.69359E+00 1.37500E+00
 -1      2563 1.25647E+00-8.39541E-01 5.00000E-01
 -1      2564 2.21241E+00 7.23067E-01 1.29343E+00
 -1      2565 9.57675E-01 2.11523E+00 1.59375E+00
 -1      2566 1.76803E+00 3.02717E+00 1.37500E+00
 -1      2567 7.37836E-01-2.20629E+00 1.40948E+00
 -1      2568 7.07557E-01-2.21883E+00 1.69757E+00
 -1      2569 2.43592E+00 1.76417E+00 1.67914E+00
 -1      2570 9.46809E-01 9.46809E-01 5.00000E-01
 -1      2571-1.84762E+00 1.43435E+00 1.43129E+00
 -1      2572-1.16887E+00 2.02775E+00 1.39070E+00
 -1      2573-1.56035E+00 2.52580E+00 1.15625E+00
 -1      2574 6.95611E-01-1.87844E+00-5.00000E-01
 -1      2575 4.56124E+00-1.22931E+00-5.00000E-01
 -1      2576 2.14405E+00-8.88093E-01 9.62278E-01
 -1      2577-2.09989E+00-9.94713E-01 8.40514E-01
 -1      2578-1.43565E+00-5.03816E+00-5.00000E-01
 -1      2579 1.80419E+00 1.47778E+00 1.05699E+00
 -1      2580-2.32070E+00 0.00000E+00 1.59375E+00
 -1      2581 1.76339E+00 1.51858E+00 1.97037E+00
 -1      2582 6.95475E-01-2.92026E+00 1.67675E+00
 -1      2583 1.54248E+00 1.73949E+00 1.97037E+00
 -1      2584-9.26209E-01 2.58959E+00-5.00000E-01
 -1      2585 5.70520E-01 5.43556E+00-5.00000E-01
 -1      2586-1.50186E+00-7.47007E-01 5.00000E-01
 -1      2587-9.77104E-01-2.10718E+00 1.30692E+00
 -1      2588-2.56083E+00-1.88908E+00 1.48438E+00
 -1      2589-2.17287E+00 8.18512E-01 1.86719E+00
 -1      2590-2.07486E+00 1.05515E+00 1.71876E+00
 -1      2591 4.79450E+00 1.22243E+00-5.00000E-01
 -1      2592 2.23614E+00 6.65760E-01 1.06090E+00
 -1      2593 2.32070E+00 2.35449E-01 1.03633E+00
 -1      2594 2.79189E+00-2.12014E+00 1.37500E+00
 -1      2595 1.73106E-01 2.32070E+00 1.97037E+00
 -1      2596 2.11623E+00 9.55261E-01 1.29993E+00
 -1      2597 1.06504E+00-2.07076E+00 1.34851E+00
 -1      2598-9.47994E-01-4.76589E+00 5.00000E-01
 -1      2599-5.55689E+00 1.01701E+00-5.00000E-01
 -1      2600 1.44329E+00-2.21885E+00-5.00000E-01
 -1      2601 6.03741E+00 1.03270E+00-5.00000E-01
 -1      2602-1.64099E+00-1.64099E+00 1.48438E+00
 -1      2603 1.58186E+00-6.10249E+00-5.00000E-01
 -1      2604 2.69966E+00 4.04032E+00 5.00000E-01
 -1      2605 3.35063E+00 4.87713E+00-5.00000E-01
 -1      2606 2.22788E+00-6.85704E-01 7.31139E-01
 -1      2607-6.71634E-01-2.23371E+00 1.53307E+00
 -1      2608-5.60277E-01 6.15819E+00-5.00000E-01
 -1      2609-8.73963E-01 4.59813E+00-5.00000E-01
 -1      2610 1.41814E+00-1.25494E+00 5.00000E-01
 -1      2611-2.08052E+00 1.04147E+00 1.15625E+00
 -1      2612-3.40843E+00-5.01798E+00-5.00000E-01
 -1      2613 3.22877E+00-4.80858E+00-5.00000E-01
 -1      2614 2.52885E+00-3.76975E+00-5.00000E-01
 -1      2615-2.76895E-01-5.56960E+00-5.00000E-01
 -1      2616-4.04032E+00-2.69966E+00 5.00000E-01
 -1      2617 3.68520E+00-2.43806E+00-5.00000E-01
 -1      2618-2.61068E+00-3.78303E+00-5.00000E-01
 -1      2619 1.00556E+00-2.09539E+00 8.28125E-01
 -1      2620 2.07781E+00-1.04802E+00 1.97037E+00
 -1      2621 1.64099E+00-1.64099E+00 1.64673E+00
 -1      2622 3.34019E-01 2.32070E+00 1.92188E+00
 -1      2623 3.02717E+00-1.76803E+00 1.37500E+00
 -1      2624 2.26267E+00 6.01705E-01 1.20393E+00
 -1      2625 2.19065E-01-2.32070E+00 7.31141E-01
 -1      2626 8.89393E-01 1.54405E+00 5.00000E-01
 -1      2627 2.32070E+00 3.21695E-01 1.26562E+00
 -1      2628 2.19083E+00 7.75166E-01 7.79632E-01
 -1      2629-1.39304E-01 2.32070E+00 1.97037E+00
 -1      2630-7.14679E-01 2.96662E+00 1.59375E+00
 -1      2631 1.17870E+00-2.02368E+00 1.48438E+00
 -1      2632 3.27883E+00-4.74999E-01 1.37500E+00
 -1      2633-1.80818E-01-2.32070E+00 1.71877E+00
 -1      2634-2.65435E+00 1.98260E+00 1.37500E+00
 -1      2635 1.52330E+00-1.75867E+00 1.40149E+00
 -1      2636-1.58773E+00-1.69424E+00 1.86719E+00
 -1      2637 1.88908E+00 2.56083E+00 1.26562E+00
 -1      2638 1.06504E+00 2.07076E+00 1.34851E+00
 -1      2639 1.80419E+00-1.47778E+00 1.05699E+00
 -1      2640-6.38695E-01 2.78318E+00 1.15625E+00
 -1      2641 1.98260E+00-2.65435E+00 1.37500E+00
 -1      2642-1.51858E+00 1.76339E+00 7.79634E-01
 -1      2643-2.32070E+00 7.53174E-02 1.15625E+00
 -1      2644-4.74999E-01-3.27883E+00 1.37500E+00
 -1      2645-2.10280E+00-9.87691E-01 1.22481E+00
 -1      2646 2.07647E+00 1.05126E+00 8.15534E-01
 -1      2647 2.05685E+00 1.09862E+00 1.12174E+00
 -1      2648 2.03429E+00 1.15308E+00 6.72042E-01
 -1      2649-2.60051E+00 4.35791E+00-5.00000E-01
 -1      2650-2.32070E+00 1.27148E-01 1.92188E+00
 -1      2651-1.46460E+00 2.18094E+00-5.00000E-01
 -1      2652-1.04802E+00-2.07781E+00 7.79632E-01
 -1      2653 5.63881E-01-2.27834E+00 1.70312E+00
 -1      2654-4.74999E-01-2.83340E+00 1.15625E+00
 -1      2655 8.15910E-01 3.21101E+00 1.37500E+00
 -1      2656 2.51085E+00 1.55416E+00 9.91163E-01
 -1      2657 2.43592E+00-1.76417E+00 1.07086E+00
 -1      2658-7.28165E-01 2.21029E+00 7.79632E-01
 -1      2659-1.41798E+00 1.86399E+00 1.92188E+00
 -1      2660 1.64298E+00-2.72527E+00 1.48438E+00
 -1      2661 1.08523E+00-5.28878E+00-5.00000E-01
 -1      2662 1.81914E-01-2.32070E+00 1.22333E+00
 -1      2663-1.01679E+00 2.09074E+00 7.79632E-01
 -1      2664-1.47035E+00 1.81162E+00 1.69221E+00
 -1      2665 4.74999E-01 3.47334E+00 1.37500E+00
 -1      2666 1.83034E+00 1.45163E+00 6.92120E-01
 -1      2667-2.84746E+00-1.69359E+00 1.37500E+00
 -1      2668 1.01565E+00-2.09121E+00 1.93340E+00
 -1      2669-2.19065E-01-2.32070E+00 7.31141E-01
 -1      2670-1.76417E+00 2.43592E+00 1.67914E+00
 -1      2671-1.79589E+00-1.48608E+00 7.31143E-01
 -1      2672 2.32070E+00-1.74844E-01 1.23124E+00
 -1      2673-2.52601E+00 1.03839E+00-5.00000E-01
 -1      2674-7.87776E-01-2.18560E+00 1.90229E+00
 -1      2675 1.13612E+00 2.04131E+00 1.53512E+00
 -1      2676-2.32070E+00 3.12266E-01 1.92188E+00
 -1      2677-2.32070E+00-1.89644E-01 1.98782E+00
 -1      2678-7.59393E-01-2.19736E+00 7.79632E-01
 -1      2679-1.11864E+00 2.60788E+00 2.25000E+00
 -1      2680-2.93795E-01 2.56887E+00 2.25000E+00
 -1      2681-1.59236E+00-2.60307E+00 1.59375E+00
 -1      2682-2.96662E+00-7.14679E-01 1.15625E+00
 -1      2683-1.55467E+00 1.72730E+00 1.46148E+00
 -1      2684-6.71836E-01 2.23363E+00 1.01077E+00
 -1      2685 1.01565E+00 2.09121E+00 1.93340E+00
 -1      2686 1.82562E-01-2.40050E+00-5.00000E-01
 -1      2687 1.57538E+00 2.56207E+00 1.07086E+00
 -1      2688-1.10043E+00-2.05610E+00 1.11243E+00
 -1      2689 5.20276E+00 7.88711E-01-5.00000E-01
 -1      2690-4.76589E+00-9.47992E-01 5.00000E-01
 -1      2691-1.56395E+00 2.53448E+00 1.71653E+00
 -1      2692-1.15374E+00-2.03402E+00 1.29508E+00
 -1      2693 1.84712E+00 1.43485E+00 8.91588E-01
 -1      2694-2.14947E+00-8.74999E-01 1.92188E+00
 -1      2695-2.32070E+00-2.30808E-01 1.48438E+00
 -1      2696-9.88411E-01 2.10250E+00 1.90229E+00
 -1      2697 1.44024E+00-1.59826E+00-5.00000E-01
 -1      2698-1.57412E+00-2.24587E+00 1.10156E+00
 -1      2699-1.48608E+00-1.79589E+00 7.31143E-01
 -1      2700 0.00000E+00-2.93066E+00 2.25000E+00
 -1      2701-2.21885E+00-7.07519E-01 7.56053E-01
 -1      2702 2.97088E-01 2.32070E+00 2.09055E+00
 -1      2703 1.57538E+00 2.56207E+00 1.67914E+00
 -1      2704 1.80650E+00 1.47547E+00 1.73922E+00
 -1      2705-2.32070E+00-1.10980E-01 8.45184E-01
 -1      2706-1.52652E+00-1.75545E+00 1.22333E+00
 -1      2707 4.74999E-01 2.93066E+00 1.26562E+00
 -1      2708 4.74999E-01-3.27883E+00 1.37500E+00
 -1      2709 1.47742E+00-1.80455E+00 1.62462E+00
 -1      2710 1.73641E+00-2.40816E+00 1.76193E+00
 -1      2711 2.05468E+00 1.10386E+00 1.49134E+00
 -1      2712-1.10691E+00 2.05342E+00 1.07903E+00
 -1      2713 1.47778E+00 1.80419E+00 1.20067E+00
 -1      2714 1.52001E+00 1.76196E+00 7.94161E-01
 -1      2715 1.43394E+00 1.84803E+00 6.65731E-01
 -1      2716 1.97952E-01 2.32070E+00 1.76159E+00
 -1      2717 6.00179E-01-2.69019E+00 1.91033E+00
 -1      2718-1.73949E+00 1.54248E+00 7.79634E-01
 -1      2719-2.09007E+00 1.01842E+00 8.13438E-01
 -1      2720 2.51085E+00 1.55416E+00 1.75884E+00
 -1      2721-1.76803E+00-3.02717E+00 1.08337E+00
 -1      2722-2.87440E+00 6.76480E-01 1.75884E+00
 -1      2723-1.49475E+00 1.78722E+00 1.21614E+00
 -1      2724-1.47709E+00-1.80488E+00 9.99268E-01
 -1      2725-1.74418E+00-2.41593E+00 1.71391E+00
 -1      2726-1.75994E+00 2.43169E+00 1.10053E+00
 -1      2727-2.06465E+00-1.07977E+00 1.45415E+00
 -1      2728-3.01430E+00-4.74999E-01 1.15625E+00
 -1      2729-2.32051E+00-1.64876E+00 1.15625E+00
 -1      2730 6.95475E-01-2.92026E+00 1.07325E+00
 -1      2731 6.30502E-01-2.25075E+00 1.54217E+00
 -1      2732-2.32070E+00-2.27968E-01 1.18016E+00
 -1      2733 3.14656E+00 4.74999E-01 1.26562E+00
 -1      2734-2.01859E+00 1.43908E+00-5.00000E-01
 -1      2735 1.42836E+00 1.85361E+00 1.34810E+00
 -1      2736-9.63440E-02-2.32070E+00 1.22333E+00
 -1      2737 1.48742E+00-1.79455E+00 1.01810E+00
 -1      2738 1.50939E+00-1.77258E+00 1.20904E+00
 -1      2739 1.42403E+00-1.85794E+00 8.79018E-01
 -1      2740 5.86005E-01-2.65597E+00 1.62132E+00
 -1      2741 1.53806E+00-1.74391E+00 1.94837E+00
 -1      2742-1.17946E+00 2.02336E+00 8.28125E-01
 -1      2743 6.47880E-03 2.32070E+00 1.04688E+00
 -1      2744 1.00556E+00 2.09539E+00 8.28125E-01
 -1      2745-2.89950E+00-6.86876E-01 1.71391E+00
 -1      2746-1.78980E+00-1.49217E+00 2.00978E+00
 -1      2747-1.76651E+00-1.51546E+00 1.71812E+00
 -1      2748-2.20716E+00-7.35726E-01 1.34534E+00
 -1      2749 2.43592E+00 1.76417E+00 1.07086E+00
 -1      2750-1.80448E+00 1.47749E+00 9.99938E-01
 -1      2751-2.28620E-01-2.32070E+00 1.42045E+00
 -1      2752-1.90541E+00-1.38985E+00-5.00000E-01
 -1      2753 1.63761E+00 2.30936E+00 1.48438E+00
 -1      2754 1.47749E+00 1.80448E+00 1.75006E+00
 -1      2755-2.31218E-01 2.32070E+00 1.75006E+00
 -1      2756-1.00992E+00 2.09359E+00 1.70421E+00
 -1      2757-2.34783E-01-2.32070E+00 1.02393E+00
 -1      2758-1.60831E+00 2.28006E+00 1.39209E+00
 -1      2759-2.63505E+00 1.05305E+00 2.25000E+00
 -1      2760 1.70991E+00-1.57206E+00 1.40149E+00
 -1      2761-1.73259E+00-1.54938E+00 1.22333E+00
 -1      2762 1.53579E+00 1.74618E+00 1.00508E+00
 -1      2763-1.55399E+00 2.22574E+00 1.67923E+00
 -1      2764 2.25240E+00 6.26506E-01 8.77449E-01
 -1      2765-1.48417E+00 2.34187E+00 1.43981E+00
 -1      2766 5.65773E+00-1.27747E+00-5.00000E-01
 -1      2767 1.85648E+00 1.42549E+00 1.59909E+00
 -1      2768-5.67549E-01 2.61142E+00 9.92188E-01
 -1      2769-2.88625E-01-2.32070E+00 1.58305E+00
 -1      2770-6.45454E-01-2.79950E+00 1.31704E+00
 -1      2771-7.94107E-01 2.18298E+00 1.77716E+00
 -1      2772 2.62887E-01-3.00869E+00-5.00000E-01
 -1      2773 2.33161E-01-2.32070E+00 9.93708E-01
 -1      2774-4.74999E-01 3.27883E+00 1.37500E+00
 -1      2775-1.44162E+00 1.84035E+00 1.37940E+00
 -1      2776 2.03473E+00 1.15201E+00 9.54674E-01
 -1      2777-1.18147E+00-1.19783E+00-5.00000E-01
 -1      2778-6.39700E-01 2.24694E+00 1.20705E+00
 -1      2779-1.42780E+00-1.85417E+00 1.14395E+00
 -1      2780 1.30515E+00 1.28264E+00 5.00000E-01
 -1      2781 2.96662E+00-7.14679E-01 1.15625E+00
 -1      2782-8.70526E-01-1.49850E+00 5.00000E-01
 -1      2783 2.06275E-01-2.32070E+00 1.64261E+00
 -1      2784 4.74999E-01-2.90980E+00 1.74932E+00
 -1      2785 1.09658E+00 2.05769E+00 1.74159E+00
 -1      2786 1.72497E+00-2.39672E+00 9.91163E-01
 -1      2787-1.49512E+00-1.78684E+00 1.64260E+00
 -1      2788 7.44954E-01-2.20334E+00 1.99403E+00
 -1      2789-2.86042E-01 2.32070E+00 2.07714E+00
 -1      2790 4.74999E-01-2.91448E+00 9.91163E-01
 -1      2791 2.32070E+00 0.00000E+00 1.71490E+00
 -1      2792 2.02064E+00 1.18603E+00 8.13506E-01
 -1      2793 3.45989E-01 2.32070E+00 1.70312E+00
 -1      2794 4.74999E-01 3.11739E+00 1.74012E+00
 -1      2795-1.45497E+00 2.27138E+00 1.71419E+00
 -1      2796 2.95135E+00 7.08352E-01 1.10156E+00
 -1      2797 2.32070E+00 1.84560E-01 1.98245E+00
 -1      2798-7.11633E-01 2.48576E+00 2.25000E+00
 -1      2799-6.54584E-01-2.24077E+00 1.74536E+00
 -1      2800-2.04933E+00-1.11677E+00 1.03535E+00
 -1      2801 1.55612E+00-2.51558E+00 9.99637E-01
 -1      2802 1.53198E+00-2.45729E+00 1.85472E+00
 -1      2803 1.50157E+00-2.38388E+00 1.36188E+00
 -1      2804 2.47190E-01 2.32070E+00 1.04688E+00
 -1      2805 1.82865E+00 1.45332E+00 1.27465E+00
 -1      2806 2.26616E+00 1.59441E+00 1.42969E+00
 -1      2807 1.10133E+00 2.05573E+00 1.05699E+00
 -1      2808-1.14355E+00-2.03824E+00 9.33240E-01
 -1      2809-1.49606E+00-1.78591E+00 1.43076E+00
 -1      2810 7.37277E-01 2.20652E+00 9.04298E-01
 -1      2811 7.37836E-01 2.20629E+00 1.40948E+00
 -1      2812 7.50198E-01 2.20117E+00 1.81086E+00
 -1      2813-1.49202E+00 1.78995E+00 9.96286E-01
 -1      2814-1.40704E+00 1.87493E+00 1.79011E+00
 -1      2815 1.18200E+00 2.02231E+00 1.92188E+00
 -1      2816 2.32070E+00-2.33592E-01 1.00174E+00
 -1      2817-2.02146E+00 2.02146E+00 2.25000E+00
 -1      2818-1.71699E+00 1.99448E+00 2.25000E+00
 -1      2819-3.51432E-01-1.75312E+00 5.00000E-01
 -1      2820-2.39672E+00 1.72497E+00 9.91163E-01
 -1      2821-2.04376E+00 1.13021E+00 9.76945E-01
 -1      2822 1.40414E+00 1.87783E+00 8.28125E-01
 -1      2823 2.26090E+00 1.25450E+00 2.25000E+00
 -1      2824 2.10643E+00 9.78919E-01 1.89145E+00
 -1      2825-1.13319E+00 2.04253E+00 6.66072E-01
 -1      2826-2.22404E+00-6.94979E-01 1.74909E+00
 -1      2827-1.80643E+00-1.47554E+00 1.00884E+00
 -1      2828 1.12151E+00 2.70757E+00 2.25000E+00
 -1      2829 1.19393E-01 2.32070E+00 1.36997E+00
 -1      2830-1.23709E+00-1.16551E+00 5.00000E-01
 -1      2831-2.51085E+00-1.55416E+00 1.75884E+00
 -1      2832-1.47353E+00-2.14528E+00 9.92188E-01
 -1      2833 4.74999E-01-2.78711E+00 1.36947E+00
 -1      2834 1.44169E+00-1.84028E+00 2.07271E+00
 -1      2835 2.03688E-01-2.32070E+00 1.43241E+00
 -1      2836 5.99382E-01-2.26364E+00 1.39548E+00
 -1      2837 3.20753E-01-2.32070E+00 8.57344E-01
 -1      2838 7.37277E-01-2.20652E+00 7.51952E-01
 -1      2839-5.98805E-01 2.26388E+00 8.66309E-01
 -1      2840-2.02575E+00-1.17370E+00 1.57020E+00
 -1      2841 1.52589E-01-1.85791E+00-5.00000E-01
 -1      2842-2.33939E+00 1.66764E+00 1.43296E+00
 -1      2843 1.38897E+00 1.89300E+00 1.23141E+00
 -1      2844 1.76044E+00-1.52153E+00 1.23110E+00
 -1      2845 1.86221E+00-1.41976E+00 1.18420E+00
 -1      2846 3.12733E-01 1.72261E+00 5.00000E-01
 -1      2847 6.63201E-01 2.23720E+00 1.61309E+00
 -1      2848-2.23451E+00 6.69700E-01 2.02475E+00
 -1      2849 1.58085E+00 7.79725E-01 5.00000E-01
 -1      2850-2.43595E+00-1.52314E+00 1.31704E+00
 -1      2851 2.20973E+00 7.29527E-01 1.78089E+00
 -1      2852-2.19644E+00 5.90390E-01-5.00000E-01
 -1      2853-1.04247E+00-2.08011E+00 1.79757E+00
 -1      2854 1.19970E+00 2.01498E+00 1.79820E+00
 -1      2855-1.75935E-01-2.32070E+00 2.00556E+00
 -1      2856 1.86240E+00 1.41957E+00 1.88369E+00
 -1      2857 1.53288E+00-2.20463E+00 1.04688E+00
 -1      2858 1.18601E+00 2.02065E+00 1.40370E+00
 -1      2859 1.68397E+00 2.35572E+00 8.95275E-01
 -1      2860 3.35039E-01-2.32070E+00 6.21164E-01
 -1      2861-2.93066E+00 4.74999E-01 1.76193E+00
 -1      2862 6.66010E-01 2.84912E+00 1.70312E+00
 -1      2863 6.74855E-01 2.23237E+00 1.18686E+00
 -1      2864 6.06214E-01 2.26081E+00 1.33136E+00
 -1      2865 6.47234E-01 2.80379E+00 1.24669E+00
 -1      2866-2.32070E+00 2.19707E-01 2.07307E+00
 -1      2867 2.27612E+00 5.69234E-01 9.88452E-01
 -1      2868 2.32070E+00 3.29742E-01 1.13173E+00
 -1      2869-3.35039E-01-2.32070E+00 6.21164E-01
 -1      2870-3.41310E-01-2.32070E+00 7.43915E-01
 -1      2871 2.32070E+00 1.73106E-01 7.31141E-01
 -1      2872-1.05305E+00-2.63505E+00 2.25000E+00
 -1      2873-1.56046E+00-2.52605E+00 1.05714E+00
 -1      2874-5.83472E-01-2.27023E+00 1.63173E+00
 -1      2875-1.19971E+00-2.01498E+00 1.17892E+00
 -1      2876-2.09989E+00-9.94713E-01 2.08065E+00
 -1      2877 2.15458E+00 1.48283E+00 1.53906E+00
 -1      2878 0.00000E+00 2.96857E+00 2.25000E+00
 -1      2879 8.33906E-01-2.16649E+00 9.44826E-01
 -1      2880-1.07631E+00-2.06609E+00 1.49126E+00
 -1      2881-7.81474E-01 2.18821E+00 2.02746E+00
 -1      2882 2.36722E+00-1.69547E+00 1.59375E+00
 -1      2883-1.48902E+00-2.35358E+00 1.36092E+00
 -1      2884 2.32070E+00-1.59167E-01 7.31141E-01
 -1      2885 1.49444E+00 2.36668E+00 1.37500E+00
 -1      2886 1.41395E+00 1.86802E+00 1.04781E+00
 -1      2887 1.87156E+00 1.41041E+00 1.15343E+00
 -1      2888-6.75627E-01 2.23206E+00 1.58401E+00
 -1      2889 2.04837E+00 1.11909E+00 2.03914E+00
 -1      2890-2.23499E+00-6.68546E-01 1.97762E+00
 -1      2891-6.07312E-01-2.26035E+00 1.39070E+00
 -1      2892 1.87407E+00 1.40790E+00 1.46850E+00
 -1      2893 2.04468E+00 1.12800E+00 1.30610E+00
 -1      2894-2.07460E+00-1.05577E+00 1.89445E+00
 -1      2895-1.84634E+00-1.43563E+00 1.85306E+00
 -1      2896 2.25651E+00-1.58476E+00 1.29418E+00
 -1      2897-2.02146E+00-2.02146E+00 2.25000E+00
 -1      2898-1.14307E+00 2.03844E+00 1.82156E+00
 -1      2899 2.91448E+00-4.74999E-01 9.91163E-01
 -1      2900-2.32070E+00-2.08715E-01 1.73597E+00
 -1      2901-2.87797E-01-2.32070E+00 1.23780E+00
 -1      2902 2.32070E+00 1.98384E-01 1.53078E+00
 -1      2903-1.45629E+00 1.82568E+00 1.53575E+00
 -1      2904-1.41627E+00-1.86570E+00 8.60823E-01
 -1      2905-2.94164E+00-4.74999E-01 1.71391E+00
 -1      2906-1.86301E+00-1.41896E+00 8.65294E-01
 -1      2907-1.45229E+00-1.82968E+00 1.82840E+00
 -1      2908-7.97128E-01-2.49648E+00 2.25000E+00
 -1      2909 2.80320E-01 2.32070E+00 1.24680E+00
 -1      2910-2.56850E+00 1.57804E+00 1.09437E+00
 -1      2911-1.12485E+00 2.04598E+00 2.04572E+00
 -1      2912 2.54197E+00-1.56705E+00 1.04688E+00
 -1      2913 6.57209E-01 2.23968E+00 7.10987E-01
 -1      2914-2.32070E+00-3.06189E-01 1.87000E+00
 -1      2915-2.32070E+00-3.26148E-01 2.00629E+00
 -1      2916-2.21970E+00-7.05454E-01 1.54604E+00
 -1      2917 6.05677E-01 2.26103E+00 1.76404E+00
 -1      2918 1.41329E+00-1.86868E+00 1.47724E+00
 -1      2919 1.44808E+00-1.83389E+00 1.80884E+00
 -1      2920-2.26466E+00-5.96906E-01 6.42117E-01
 -1      2921-2.27220E+00-5.78703E-01 7.82694E-01
 -1      2922 6.74855E-01-2.23237E+00 1.10643E+00
 -1      2923-1.15355E+00-2.03410E+00 1.65660E+00
 -1      2924 2.32070E+00 3.48633E-01 1.48438E+00
 -1      2925 4.74999E-01 2.76516E+00 1.60474E+00
 -1      2926 1.49514E+00 2.16689E+00 1.42969E+00
 -1      2927 1.74123E+00 2.22834E-01 5.00000E-01
 -1      2928 1.42119E+00 1.86078E+00 1.91261E+00
 -1      2929 1.15404E-01 2.32070E+00 7.72109E-01
 -1      2930 2.78546E-01 2.32070E+00 6.80772E-01
 -1      2931 1.53849E+00-1.31974E-01-5.00000E-01
 -1      2932-1.41984E+00 1.86213E+00 8.67005E-01
 -1      2933-1.42920E+00-1.85277E+00 1.30293E+00
 -1      2934-1.41764E+00 1.86433E+00 1.10809E+00
 -1      2935-2.32070E+00 1.66960E-01 7.44112E-01
 -1      2936-2.32070E+00-2.57729E-01 7.02736E-01
 -1      2937-2.26527E+00-5.95449E-01 1.64123E+00
 -1      2938-2.26144E+00-6.04679E-01 1.42521E+00
 -1      2939-6.36804E-01 2.24814E+00 1.89338E+00
 -1      2940 2.23275E+00 1.56100E+00 1.13835E+00
 -1      2941 2.83340E+00-4.74999E-01 1.59375E+00
 -1      2942 2.23479E+00 6.69029E-01 1.56412E+00
 -1      2943-6.74123E-01-2.23268E+00 1.08261E+00
 -1      2944-1.19827E+00-2.01557E+00 1.04434E+00
 -1      2945 2.01546E+00 1.19855E+00 1.19800E+00
 -1      2946-2.70757E+00-1.12151E+00 2.25000E+00
 -1      2947 2.91960E+00 4.74999E-01 1.75036E+00
 -1      2948-1.80544E+00-1.47653E+00 1.43713E+00
 -1      2949-2.03350E+00-1.15499E+00 1.21210E+00
 -1      2950-1.41597E+00-1.86600E+00 1.53598E+00
 -1      2951-1.55520E+00 2.22695E+00 1.11221E+00
 -1      2952-1.49094E+00 2.16269E+00 1.28661E+00
 -1      2953 1.11259E+00-2.05106E+00 1.73839E+00
 -1      2954 2.77705E+00 4.74999E-01 1.38812E+00
 -1      2955-4.74999E-01-2.63755E+00 9.92188E-01
 -1      2956 2.05311E+00 1.10764E+00 1.71563E+00
 -1      2957-1.17140E+00 2.02670E+00 1.22362E+00
 -1      2958-1.18770E+00 2.01995E+00 9.68656E-01
 -1      2959-1.45623E+00-2.27442E+00 1.09902E+00
 -1      2960 1.73641E+00 2.40816E+00 1.87581E+00
 -1      2961 1.42660E+00-1.85537E+00 1.31825E+00
 -1      2962 1.68098E+00-2.35273E+00 1.37802E+00
 -1      2963 2.67646E+00 5.94491E-01 9.92188E-01
 -1      2964 1.54261E+00-2.21436E+00 1.75781E+00
 -1      2965 2.91155E+00-7.93915E-02-5.00000E-01
 -1      2966-2.64129E+00 4.74999E-01 1.59375E+00
 -1      2967 1.14194E+00-2.03890E+00 2.06524E+00
 -1      2968-2.03816E+00 1.14374E+00 6.82708E-01
 -1      2969 2.49236E+00 1.54651E+00 1.37500E+00
 -1      2970 6.07758E-01-2.26017E+00 6.54510E-01
 -1      2971-1.57404E+00 7.76901E-01 5.00000E-01
 -1      2972 2.28022E+00 1.45863E+00 1.21094E+00
 -1      2973-2.19512E+00 7.64793E-01 1.00573E+00
 -1      2974-5.88152E-01-2.66116E+00 1.57285E+00
 -1      2975 1.56547E+00 2.23722E+00 1.14546E+00
 -1      2976 2.32070E+00-3.07338E-01 6.50393E-01
 -1      2977 2.10974E+00-9.70929E-01 1.32651E+00
 -1      2978 2.01428E+00 1.20138E+00 1.06669E+00
 -1      2979-2.70114E+00-4.74999E-01 1.04688E+00
 -1      2980-2.49648E+00 7.97128E-01 2.25000E+00
 -1      2981-2.26090E+00-1.25450E+00 2.25000E+00
 -1      2982 1.80217E+00-1.47980E+00 1.59534E+00
 -1      2983-2.68880E+00-1.62787E+00 9.54343E-01
 -1      2984 1.11864E+00-2.60788E+00 2.25000E+00
 -1      2985-2.19503E+00-7.65015E-01 1.04826E+00
 -1      2986-2.32070E+00-2.99737E-01 1.33161E+00
 -1      2987 1.09180E+00-2.05967E+00 1.59497E+00
 -1      2988 1.83809E+00-1.44388E+00 1.37733E+00
 -1      2989-2.32070E+00-2.62949E-01 9.80027E-01
 -1      2990-1.84804E+00-1.43393E+00 1.59482E+00
 -1      2991-1.55521E+00 2.22696E+00 1.96959E+00
 -1      2992-2.32070E+00-3.08809E-01 1.61799E+00
 -1      2993 3.16991E-01-2.32070E+00 1.53613E+00
 -1      2994 4.74999E-01-2.66505E+00 1.11778E+00
 -1      2995-2.34191E+00-1.67016E+00 1.80956E+00
 -1      2996 1.46213E+00-2.28867E+00 1.63132E+00
 -1      2997-1.45686E+00 2.27594E+00 1.98956E+00
 -1      2998 2.85650E+00 4.74999E-01 8.95275E-01
 -1      2999 2.25828E+00 6.12309E-01 1.40919E+00
 -1      3000-2.63385E+00-5.76843E-01 1.70312E+00
 -1      3001 2.02124E+00 1.18458E+00 1.60193E+00
 -1      3002-1.72001E-01 2.32070E+00 7.33474E-01
 -1      3003 1.44135E+00-2.23850E+00 1.86194E+00
 -1      3004-1.55776E+00 1.40086E-02 5.00000E-01
 -1      3005-1.82244E+00 1.45953E+00 1.21047E+00
 -1      3006-1.65827E-01 2.32070E+00 1.28837E+00
 -1      3007 1.39488E+00-1.88709E+00 1.00402E+00
 -1      3008-2.97572E-01 2.32070E+00 1.90707E+00
 -1      3009-2.22284E+00 6.97883E-01 7.57439E-01
 -1      3010-2.70791E+00-4.74999E-01 1.93264E+00
 -1      3011-2.25344E+00 6.23990E-01 9.15478E-01
 -1      3012 1.76806E+00-1.51391E+00 1.97734E+00
 -1      3013 1.46064E+00 2.28506E+00 1.64844E+00
 -1      3014 1.44595E+00 1.83602E+00 1.56784E+00
 -1      3015-4.74999E-01-2.87183E+00 1.64087E+00
 -1      3016-6.22049E-01 2.25425E+00 2.07917E+00
 -1      3017-1.41654E+00 2.17861E+00 1.85372E+00
 -1      3018-2.79816E+00 0.00000E+00 2.25000E+00
 -1      3019 2.32070E+00-3.09754E-01 8.35255E-01
 -1      3020 1.15741E+00 2.03250E+00 8.91586E-01
 -1      3021-2.22301E-01 2.32070E+00 9.69641E-01
 -1      3022-1.40700E+00 1.87497E+00 1.25795E+00
 -1      3023 1.87262E+00-1.40935E+00 1.50364E+00
 -1      3024-6.44507E-01 2.24495E+00 1.39700E+00
 -1      3025-6.54379E-01 2.24086E+00 1.73842E+00
 -1      3026-2.77691E+00-6.36100E-01 1.41306E+00
 -1      3027 9.94713E-01 2.09989E+00 6.43979E-01
 -1      3028-1.39395E+00-1.88802E+00 1.69873E+00
 -1      3029-2.04438E+00-1.12872E+00 6.99860E-01
 -1      3030-7.70729E-01 1.34568E+00 5.00000E-01
 -1      3031-2.87440E+00 6.76480E-01 9.91164E-01
 -1      3032 3.37546E-01 2.32070E+00 1.13461E+00
 -1      3033-2.35615E+00-1.49008E+00 9.67258E-01
 -1      3034-1.87824E+00 1.40373E+00 1.09415E+00
 -1      3035-4.74999E-01-2.68260E+00 1.41204E+00
 -1      3036 1.20297E+00-2.01363E+00 1.64956E+00
 -1      3037 1.16965E+00-2.02743E+00 1.89736E+00
 -1      3038-2.24760E+00-6.38099E-01 1.18383E+00
 -1      3039 2.70287E+00 4.22646E-01-5.00000E-01
 -1      3040-5.63778E-01-2.60231E+00 1.21094E+00
 -1      3041 2.15064E+00 1.47889E+00 9.92188E-01
 -1      3042-1.86399E+00 1.41798E+00 8.28125E-01
 -1      3043 2.02697E-01 2.32070E+00 1.55695E+00
 -1      3044 1.46535E+00 2.29644E+00 1.95286E+00
 -1      3045-4.49454E+00-2.69273E+00-5.00000E-01
 -1      3046-6.04706E-01-2.26143E+00 1.22423E+00
 -1      3047 2.55042E+00-1.57055E+00 1.61658E+00
 -1      3048 2.29596E+00 1.46515E+00 1.57852E+00
 -1      3049-1.14315E+00 2.03841E+00 1.67429E+00
 -1      3050 6.40932E-01-2.24643E+00 1.85841E+00
 -1      3051-2.23469E+00-6.69277E-01 9.17601E-01
 -1      3052-2.19267E+00-1.52092E+00 9.92188E-01
 -1      3053-2.67730E+00-5.94839E-01 1.04688E+00
 -1      3054 2.19582E+00-1.52407E+00 1.70312E+00
 -1      3055 2.06317E+00-1.08335E+00 1.54961E+00
 -1      3056 2.32070E+00 2.24279E-01 1.75762E+00
 -1      3057 1.97860E+00 1.97860E+00 2.25000E+00
 -1      3058-3.35087E-01-2.32070E+00 1.11257E+00
 -1      3059-1.83532E+00-3.88939E-01 5.00000E-01
 -1      3060-2.02300E+00-1.18033E+00 1.35604E+00
 -1      3061-2.40486E+00 6.48648E-01 2.25000E+00
 -1      3062-2.66508E+00-4.74999E-01 1.65261E+00
 -1      3063 2.01529E+00 1.19895E+00 1.41139E+00
 -1      3064-5.94839E-01 2.67730E+00 1.64844E+00
 -1      3065-1.41682E+00 2.17927E+00 1.42969E+00
 -1      3066-5.73293E-01 2.62528E+00 1.92188E+00
 -1      3067-1.85998E+00-1.42199E+00 1.26823E+00
 -1      3068 2.00198E+00 1.68968E+00 2.25000E+00
 -1      3069 2.21018E+00 1.42962E+00 1.39864E+00
 -1      3070 2.92645E+00 6.98041E-01 1.68409E+00
 -1      3071-2.64305E+00-5.80652E-01 1.98319E+00
 -1      3072 5.93004E-01 2.26628E+00 8.58225E-01
 -1      3073 2.25100E+00 6.29893E-01 6.79791E-01
 -1      3074 1.83034E+00-1.45163E+00 6.92120E-01
 -1      3075-4.74999E-01 2.83340E+00 1.48438E+00
 -1      3076-1.17561E+00-2.02496E+00 1.86719E+00
 -1      3077 2.32070E+00 3.18634E-01 1.89021E+00
 -1      3078 1.21565E+00 1.60161E+00 5.00000E-01
 -1      3079-2.23351E+00 1.56176E+00 1.17715E+00
 -1      3080-1.57443E+00-2.24618E+00 1.48438E+00
 -1      3081 2.22015E+00-7.04377E-01 1.20438E+00
 -1      3082 6.02947E-01-2.26216E+00 1.24050E+00
 -1      3083 1.25450E+00 2.26090E+00 2.25000E+00
 -1      3084 1.10761E+00 2.05313E+00 2.07613E+00
 -1      3085-2.32070E+00 3.07315E-01 6.50417E-01
 -1      3086-2.26502E+00-1.45233E+00 1.75781E+00
 -1      3087 1.43219E+00-1.84978E+00 1.12881E+00
 -1      3088 6.63046E-01-2.23727E+00 9.20317E-01
 -1      3089 2.15992E+00 1.48817E+00 1.30456E+00
 -1      3090-2.68506E+00 4.74999E-01 1.94846E+00
 -1      3091-1.93872E+00-2.06466E-02 5.00000E-01
 -1      3092-2.88369E-01-2.32070E+00 1.86404E+00
 -1      3093 2.06991E+00-1.06709E+00 7.70251E-01
 -1      3094-4.74999E-01 2.77011E+00 1.86484E+00
 -1      3095 2.02572E+00-1.17376E+00 6.48421E-01
 -1      3096-4.74999E-01 2.94691E+00 9.84963E-01
 -1      3097 2.32070E+00-1.01647E-01 1.98245E+00
 -1      3098-6.30462E-01-2.25076E+00 9.02669E-01
 -1      3099 2.32070E+00-1.93280E-01 1.51134E+00
 -1      3100 1.85303E+00-1.42894E+00 8.66020E-01
 -1      3101 1.01381E+00 1.79225E+00 5.00000E-01
 -1      3102-5.79120E-01 2.63935E+00 1.37944E+00
 -1      3103-3.47145E-01 2.32070E+00 9.92188E-01
 -1      3104-5.56389E-01-2.58447E+00 9.92188E-01
 -1      3105 2.35755E+00-1.00608E-01-5.00000E-01
 -1      3106-2.24668E+00-6.40318E-01 1.04888E+00
 -1      3107-1.18897E+00-2.01943E+00 7.88546E-01
 -1      3108-5.41266E-01 2.54796E+00 1.76213E+00
 -1      3109-2.20126E+00-1.52951E+00 1.64844E+00
 -1      3110 2.32070E+00-2.34892E-01 1.74439E+00
 -1      3111 1.85073E+00 1.43124E+00 2.09065E+00
 -1      3112 2.23006E+00 6.80445E-01 2.01248E+00
 -1      3113-6.51340E-01-2.24212E+00 2.04572E+00
 -1      3114-2.05956E+00-2.53236E-01 5.00000E-01
 -1      3115 1.15751E+00 2.03245E+00 6.66979E-01
 -1      3116-1.81377E+00-1.46820E+00 1.14656E+00
 -1      3117 1.39664E+00-1.88533E+00 1.93844E+00
 -1      3118-1.87789E+00-1.40408E+00 6.21166E-01
 -1      3119 1.52237E+00-2.19412E+00 1.50276E+00
 -1      3120-2.36441E+00 1.49350E+00 1.38900E+00
 -1      3121 9.47994E-01-4.76589E+00 5.00000E-01
 -1      3122-2.18724E+00-1.42012E+00 9.92188E-01
 -1      3123 1.45783E+00 2.12958E+00 1.10156E+00
 -1      3124 1.46349E+00 2.29194E+00 1.09315E+00
 -1      3125 2.27368E+00 1.45592E+00 1.84980E+00
 -1      3126-1.18204E+00-2.35412E+00 2.25000E+00
 -1      3127-1.02008E+00-2.08938E+00 2.03168E+00
 -1      3128-2.32070E+00 2.27048E-01 9.73731E-01
 -1      3129 1.16355E+00 2.02995E+00 1.21447E+00
 -1      3130-2.56887E+00-2.93795E-01 2.25000E+00
 -1      3131-2.23575E+00 6.66719E-01 1.63605E+00
 -1      3132 6.25999E-01 2.25261E+00 1.02485E+00
 -1      3133 2.74446E-01 2.32070E+00 8.64815E-01
 -1      3134 2.88511E-01 2.02395E+00 5.00000E-01
 -1      3135 7.81474E-01 2.18821E+00 2.04429E+00
 -1      3136-2.05929E+00 1.09273E+00 1.39038E+00
 -1      3137-2.24636E+00 6.41092E-01 1.83198E+00
 -1      3138 2.06278E+00-1.08429E+00 1.10315E+00
 -1      3139-1.88116E+00 1.40081E+00 1.31035E+00
 -1      3140-2.02421E+00-1.60872E+00 2.25000E+00
 -1      3141 3.32485E-01 2.32070E+00 1.57304E+00
 -1      3142-2.93795E-01-2.56887E+00 2.25000E+00
 -1      3143-2.50454E+00-8.61414E-01 2.25000E+00
 -1      3144 2.72338E-01-2.32070E+00 1.86719E+00
 -1      3145-2.69046E+00-4.74999E-01 1.35018E+00
 -1      3146-1.45340E+00 1.82857E+00 2.08393E+00
 -1      3147-1.82857E+00 1.45340E+00 6.66073E-01
 -1      3148 3.32934E-01-2.32070E+00 1.40497E+00
 -1      3149 1.80665E+00-1.96986E+00 2.25000E+00
 -1      3150-2.27339E+00-5.75834E-01 1.77017E+00
 -1      3151 4.74999E-01-2.66462E+00 1.61877E+00
 -1      3152-2.02396E+00 1.17802E+00 1.12004E+00
 -1      3153 2.03959E+00-1.14028E+00 1.37127E+00
 -1      3154 2.56887E+00 2.93795E-01 2.25000E+00
 -1      3155 6.15315E-01-2.25704E+00 7.92309E-01
 -1      3156-4.74999E-01-2.62715E+00 1.65055E+00
 -1      3157-1.16732E+00-2.02839E+00 2.02639E+00
 -1      3158 6.33437E-01 2.24953E+00 1.94836E+00
 -1      3159-5.92501E-01-2.26649E+00 1.89478E+00
 -1      3160 2.27215E+00 5.78840E-01 2.12851E+00
 -1      3161 1.68968E+00 2.00198E+00 2.25000E+00
 -1      3162 3.34356E-01-2.32070E+00 1.72694E+00
 -1      3163-2.32070E+00 3.22437E-01 8.26097E-01
 -1      3164 1.19560E+00 2.01668E+00 1.65614E+00
 -1      3165 5.86426E-01-2.65699E+00 9.92188E-01
 -1      3166-2.32070E+00-3.47165E-01 1.21641E+00
 -1      3167 1.88433E+00 1.39764E+00 1.00475E+00
 -1      3168 1.82585E+00-1.45613E+00 1.79362E+00
 -1      3169 2.65915E+00 5.87322E-01 1.75781E+00
 -1      3170-2.29419E+00 1.46442E+00 1.10189E+00
 -1      3171 2.35041E+00-1.48771E+00 1.33513E+00
 -1      3172 5.94639E-01-2.67682E+00 1.30679E+00
 -1      3173 7.11633E-01-2.48576E+00 2.25000E+00
 -1      3174-2.91448E+00 4.74999E-01 9.91163E-01
 -1      3175 2.28718E+00-1.46151E+00 1.61176E+00
 -1      3176 3.18967E-01-2.32070E+00 1.26298E+00
 -1      3177-1.20125E+00-2.01434E+00 1.52669E+00
 -1      3178-2.32070E+00-3.38124E-01 1.74431E+00
 -1      3179-6.23826E-01-2.25351E+00 6.72861E-01
 -1      3180 2.28062E+00 5.58375E-01 1.52195E+00
 -1      3181-2.02402E+00-1.17788E+00 1.82650E+00
 -1      3182 2.22717E+00 1.43666E+00 9.92188E-01
 -1      3183-1.84499E+00-1.43698E+00 2.12414E+00
 -1      3184 4.74999E-01 2.69239E+00 1.04688E+00
 -1      3185-2.17362E+00 1.41448E+00 9.92188E-01
 -1      3186-2.57696E+00-4.74999E-01 1.19435E+00
 -1      3187 2.72934E+00 6.16395E-01 1.38233E+00
 -1      3188-2.60527E+00-5.65004E-01 1.26880E+00
 -1      3189 6.57496E-01 1.81558E+00 5.00000E-01
 -1      3190-2.25446E+00 6.21546E-01 2.13873E+00
 -1      3191-6.48648E-01-2.40486E+00 2.25000E+00
 -1      3192 2.26210E+00 6.03093E-01 1.87138E+00
 -1      3193-2.16630E+00 1.49455E+00 9.92188E-01
 -1      3194 5.65919E-01 2.60748E+00 1.70312E+00
 -1      3195 2.58995E+00 5.58658E-01 1.54723E+00
 -1      3196-1.43698E+00-1.84499E+00 6.18802E-01
 -1      3197 1.75223E+00 1.03808E+00 5.00000E-01
 -1      3198-1.60872E+00-2.02421E+00 2.25000E+00
 -1      3199-1.49308E+00-1.78889E+00 2.03581E+00
 -1      3200-2.42151E+00-6.90740E-01 2.25000E+00
 -1      3201-1.62692E+00-1.11914E+00 5.00000E-01
 -1      3202-2.26401E+00-1.45192E+00 1.49814E+00
 -1      3203 1.42130E+00-1.86067E+00 6.46866E-01
 -1      3204 7.81476E-01-1.58508E+00 5.00000E-01
 -1      3205 1.13550E+00-2.04157E+00 6.92120E-01
 -1      3206-2.58904E+00-5.58282E-01 1.49087E+00
 -1      3207 1.88287E+00-1.39910E+00 9.89258E-01
 -1      3208 1.42908E+00 2.20887E+00 1.27149E+00
 -1      3209-2.25144E+00-6.28820E-01 1.30573E+00
 -1      3210-1.43698E+00-1.84499E+00 2.13598E+00
 -1      3211-1.40403E+00-1.87794E+00 2.01756E+00
 -1      3212 6.18504E-01 2.25572E+00 1.47606E+00
 -1      3213 2.04442E+00 1.12864E+00 1.87675E+00
 -1      3214 2.32070E+00-2.87469E-01 1.36448E+00
 -1      3215 2.32070E+00 2.95318E-01 8.65140E-01
 -1      3216 3.28475E-01-2.32070E+00 1.10156E+00
 -1      3217-1.09255E+00-1.73295E+00 5.00000E-01
 -1      3218 2.23192E+00-1.56017E+00 9.98889E-01
 -1      3219-1.89812E+00 4.03915E-01 5.00000E-01
 -1      3220 2.03743E+00-1.14549E+00 9.32474E-01
 -1      3221-1.49445E+00-2.36669E+00 1.86719E+00
 -1      3222 1.59397E+00 1.27970E+00 5.00000E-01
 -1      3223-4.74999E-01-2.76096E+00 1.93545E+00
 -1      3224-2.32070E+00-3.19566E-01 1.09305E+00
 -1      3225 1.69958E+00-3.99948E-01 5.00000E-01
 -1      3226 2.52780E+00 5.32912E-01 9.92188E-01
 -1      3227-5.70843E-01 2.27546E+00 1.64604E+00
 -1      3228-2.03556E+00-1.15001E+00 8.68743E-01
 -1      3229 2.24587E+00 1.57412E+00 1.92188E+00
 -1      3230 2.66254E+00 4.74999E-01 1.64235E+00
 -1      3231 1.69825E+00-8.41736E-01 5.00000E-01
 -1      3232-2.03472E+00-1.15205E+00 2.03626E+00
 -1      3233-1.66051E-01 2.32070E+00 1.52382E+00
 -1      3234 1.51850E+00 1.97297E+00 2.25000E+00
 -1      3235-1.88123E+00-1.40074E+00 1.97699E+00
 -1      3236 2.19703E+00-7.60193E-01 1.46351E+00
 -1      3237 2.32070E+00 3.12154E-01 1.63269E+00
 -1      3238 2.70403E-01-2.32070E+00 2.06064E+00
 -1      3239 2.01791E+00-1.19262E+00 1.49066E+00
 -1      3240-3.12673E-01 2.32070E+00 6.44763E-01
 -1      3241-3.36697E-01-2.32070E+00 1.35455E+00
 -1      3242-2.88511E-01-2.32070E+00 2.10867E+00
 -1      3243 2.26011E-01-1.74319E+00 5.00000E-01
 -1      3244 1.16514E+00-2.02930E+00 8.66019E-01
 -1      3245 1.04739E+00-2.07807E+00 1.03436E+00
 -1      3246-1.24228E+00-1.81351E+00 5.00000E-01
 -1      3247-2.32070E+00 2.68467E-01 1.16249E+00
 -1      3248-1.20162E+00 2.32893E+00 2.25000E+00
 -1      3249-1.46642E+00 2.13817E+00 2.08240E+00
 -1      3250-2.27467E+00 5.72754E-01 7.88153E-01
 -1      3251 1.87476E+00-1.40721E+00 1.67997E+00
 -1      3252 2.63755E+00-4.74999E-01 1.75781E+00
 -1      3253-4.74999E-01 2.63725E+00 1.64724E+00
 -1      3254-2.04123E+00 1.13632E+00 1.25556E+00
 -1      3255 6.21546E-01 2.25446E+00 6.01134E-01
 -1      3256 2.04906E+00-1.11742E+00 1.76508E+00
 -1      3257 2.23259E+00-6.74334E-01 1.67591E+00
 -1      3258 1.40424E+00-1.87773E+00 1.69809E+00
 -1      3259-6.12332E-01 2.25827E+00 6.59734E-01
 -1      3260-2.32070E+00-2.49989E-01 8.41577E-01
 -1      3261 1.87699E+00-1.40498E+00 1.93582E+00
 -1      3262 1.03158E+00-2.08462E+00 1.19306E+00
 -1      3263 1.19155E+00-2.01836E+00 1.02008E+00
 -1      3264-6.50791E-01-2.24234E+00 7.86965E-01
 -1      3265 2.32070E+00-3.21456E-01 1.22153E+00
 -1      3266-2.03678E+00 1.14707E+00 1.56438E+00
 -1      3267 1.40284E+00 1.87913E+00 1.67933E+00
 -1      3268 2.01715E+00-1.19447E+00 1.05124E+00
 -1      3269-1.57337E+00 1.16535E+00 5.00000E-01
 -1      3270-2.10085E+00 4.95465E-01 5.00000E-01
 -1      3271 1.53813E+00 2.20988E+00 1.92188E+00
 -1      3272-1.42992E+00 1.85205E+00 6.59735E-01
 -1      3273-1.40607E+00 1.87590E+00 9.87317E-01
 -1      3274 2.32070E+00-2.41509E-01 1.12603E+00
 -1      3275-2.97038E-01-2.32070E+00 1.98635E+00
 -1      3276 2.32070E+00 3.05154E-01 6.41332E-01
 -1      3277 2.32070E+00-3.09552E-01 1.61082E+00
 -1      3278 2.25493E+00-1.44816E+00 1.10156E+00
 -1      3279-1.49568E+00-2.36965E+00 1.61377E+00
 -1      3280-3.36631E+00-4.28113E-01-5.00000E-01
 -1      3281-2.27207E+00 5.79022E-01 1.94164E+00
 -1      3282 4.74999E-01-2.68818E+00 1.95440E+00
 -1      3283-2.26541E+00-5.95095E-01 2.10376E+00
 -1      3284 1.21121E+00 1.79908E+00 5.00000E-01
 -1      3285-5.69262E-01 2.27611E+00 1.50820E+00
 -1      3286 2.67400E+00 4.74999E-01 1.11868E+00
 -1      3287-1.85840E+00-1.42357E+00 1.72408E+00
 -1      3288 2.72641E+00-4.74999E-01 1.27261E+00
 -1      3289-1.41041E+00-2.16380E+00 9.92188E-01
 -1      3290-1.46803E+00 2.13978E+00 9.92188E-01
 -1      3291 5.81777E-01-2.27093E+00 1.01985E+00
 -1      3292-2.57135E+00-4.74999E-01 1.81024E+00
 -1      3293 2.25274E+00-6.25684E-01 1.36084E+00
 -1      3294-5.81052E-01-2.64402E+00 1.92188E+00
 -1      3295-5.49460E-01-2.56774E+00 1.40408E+00
 -1      3296-4.74999E-01 2.66482E+00 9.92188E-01
 -1      3297-2.03361E+00 1.15473E+00 8.30783E-01
 -1      3298-2.91965E-01 2.32070E+00 1.40597E+00
 -1      3299-2.16934E+00 8.27037E-01 1.24488E+00
 -1      3300-2.54632E+00-4.74999E-01 1.97555E+00
 -1      3301 2.01998E+00-1.18764E+00 1.64118E+00
 -1      3302-1.19500E+00 2.01693E+00 1.93945E+00
 -1      3303 1.03888E+00-1.75416E+00 5.00000E-01
 -1      3304-3.02414E-01 2.32070E+00 1.60705E+00
 -1      3305-2.21164E+00-1.53989E+00 2.00194E+00
 -1      3306 2.27050E+00-5.82818E-01 1.23417E+00
 -1      3307 2.01623E+00-1.19669E+00 1.92188E+00
 -1      3308 6.50215E-01 2.24258E+00 2.09981E+00
 -1      3309 2.32070E+00 3.06843E-01 2.09909E+00
 -1      3310-1.57891E+00-2.25066E+00 1.93264E+00
 -1      3311 1.26152E+00-1.75115E+00 5.00000E-01
 -1      3312 1.53432E+00-2.20607E+00 2.01495E+00
 -1      3313 2.26090E+00-1.25450E+00 2.25000E+00
 -1      3314-2.25514E+00 6.19891E-01 1.09677E+00
 -1      3315 2.69495E+00-6.02148E-01 9.92188E-01
 -1      3316-3.12244E-01 2.32070E+00 1.25777E+00
 -1      3317 2.90607E+00-6.89598E-01 1.71328E+00
 -1      3318 2.72311E+00-6.13816E-01 1.40761E+00
 -1      3319 2.18517E+00 1.41926E+00 1.70457E+00
 -1      3320-2.66420E+00 5.89413E-01 1.95574E+00
 -1      3321 5.42233E-01-2.55030E+00 1.42969E+00
 -1      3322 2.55236E+00-5.43087E-01 1.42969E+00
 -1      3323 2.26124E+00 6.05169E-01 1.70328E+00
 -1      3324-1.46495E+00 2.29548E+00 9.92188E-01
 -1      3325 2.16216E+00 1.49041E+00 1.75781E+00
 -1      3326 2.01471E+00-1.20035E+00 7.98102E-01
 -1      3327 1.52640E+00 2.19815E+00 1.67517E+00
 -1      3328 4.74999E-01-2.58069E+00 1.79330E+00
 -1      3329 2.55373E+00 4.74999E-01 9.92188E-01
 -1      3330 2.02431E+00-1.17718E+00 1.22133E+00
 -1      3331 2.96857E+00 0.00000E+00 2.25000E+00
 -1      3332-4.74999E-01-2.62521E+00 1.20585E+00
 -1      3333-4.74999E-01 2.63755E+00 1.32031E+00
 -1      3334-2.60351E-01 2.32070E+00 1.11587E+00
 -1      3335-2.22529E+00 6.91953E-01 1.41409E+00
 -1      3336 2.01455E+00 1.20074E+00 2.12619E+00
 -1      3337 5.48556E-01-2.56556E+00 1.15697E+00
 -1      3338-1.87295E+00-2.55704E+00-5.00000E-01
 -1      3339-1.43754E+00 2.22929E+00 1.20842E+00
 -1      3340-2.58199E+00 4.74999E-01 1.78112E+00
 -1      3341 2.59600E+00-4.74999E-01 1.10156E+00
 -1      3342 2.32070E+00 3.47699E-01 1.75107E+00
 -1      3343-1.79385E+00-1.22262E+00 5.00000E-01
 -1      3344 1.44846E+00 1.83351E+00 2.08165E+00
 -1      3345 2.23288E+00-6.73643E-01 9.74339E-01
 -1      3346 6.02690E-01-2.26227E+00 2.00732E+00
 -1      3347-3.15264E-01-2.32070E+00 8.94278E-01
 -1      3348 2.32070E+00-3.15546E-01 1.48612E+00
 -1      3349 1.20162E+00-2.32893E+00 2.25000E+00
 -1      3350 2.32070E+00-2.91710E-01 1.93251E+00
 -1      3351 2.19528E+00-7.64423E-01 1.96700E+00
 -1      3352-1.80479E+00 1.05985E+00 5.00000E-01
 -1      3353-5.75069E-01-2.27371E+00 1.01459E+00
 -1      3354-3.12522E-01 2.32070E+00 8.26985E-01
 -1      3355-2.53358E+00 5.35310E-01 1.86719E+00
 -1      3356 2.61302E+00-4.74999E-01 1.52959E+00
 -1      3357 2.41403E+00-1.51406E+00 1.91892E+00
 -1      3358-2.32070E+00 1.64222E-01 1.39679E+00
 -1      3359 1.20989E+00 2.01076E+00 1.09988E+00
 -1      3360-2.26053E+00 6.06878E-01 6.37050E-01
 -1      3361-2.27839E+00 5.63773E-01 1.48438E+00
 -1      3362-2.32070E+00 2.30808E-01 1.68675E+00
 -1      3363-2.80819E-01 1.72922E+00 5.00000E-01
 -1      3364-2.01496E+00 1.19975E+00 1.44816E+00
 -1      3365 4.74999E-01 2.66442E+00 1.34564E+00
 -1      3366 2.78497E-01 2.32070E+00 1.41113E+00
 -1      3367 8.61414E-01 2.50454E+00 2.25000E+00
 -1      3368-2.32070E+00 2.19707E-01 1.82227E+00
 -1      3369-4.74999E-01 2.58002E+00 1.83154E+00
 -1      3370-1.32040E+00-1.48886E+00 5.00000E-01
 -1      3371 2.25162E+00-6.28395E-01 1.85444E+00
 -1      3372 4.74999E-01-2.58830E+00 1.42653E+00
 -1      3373-2.06359E+00 2.05517E-01 5.00000E-01
 -1      3374-2.27210E+00 5.78947E-01 1.72253E+00
 -1      3375-2.68679E+00 5.98768E-01 1.48438E+00
 -1      3376 2.27428E+00-5.73680E-01 1.74176E+00
 -1      3377-5.41826E-01 2.54932E+00 1.53195E+00
 -1      3378-2.32070E+00 3.49512E-01 1.64844E+00
 -1      3379-2.32070E+00 3.42490E-01 9.43687E-01
 -1      3380 2.64620E+00-5.81955E-01 1.75781E+00
 -1      3381 5.65750E-01-1.88198E+00 5.00000E-01
 -1      3382 2.21428E+00 1.43132E+00 2.04549E+00
 -1      3383-3.22091E-01-2.32070E+00 1.72662E+00
 -1      3384 2.15967E+00-1.48792E+00 1.16062E+00
 -1      3385-2.32070E+00 2.88511E-01 2.15757E+00
 -1      3386-2.64282E+00 4.74999E-01 1.04688E+00
 -1      3387 2.32070E+00-2.30268E-01 2.08531E+00
 -1      3388-1.21305E+00 1.43801E+00 5.00000E-01
 -1      3389 5.49023E-01-2.07937E+00 5.00000E-01
 -1      3390-2.17955E+00 1.50780E+00 1.42969E+00
 -1      3391-2.21471E+00-1.54296E+00 1.37997E+00
 -1      3392-8.46014E-01-5.28151E+00-5.00000E-01
 -1      3393 1.89134E+00 1.39063E+00 7.83007E-01
 -1      3394 2.27011E+00-5.83758E-01 8.47166E-01
 -1      3395 2.48576E+00-7.11633E-01 2.25000E+00
 -1      3396 1.19099E+00-2.01859E+00 1.34870E+00
 -1      3397 2.25622E+00-6.17297E-01 2.02274E+00
 -1      3398 2.65455E+00-1.43248E-01 2.25000E+00
 -1      3399-5.04120E+00-6.65131E-01-5.00000E-01
 -1      3400-1.76090E+00 1.52107E+00 1.77915E+00
 -1      3401-1.42930E+00-2.20941E+00 1.73830E+00
 -1      3402-2.82214E-01 1.64477E+00-5.00000E-01
 -1      3403 4.76589E+00 9.47994E-01 5.00000E-01
 -1      3404 2.02421E+00-1.60872E+00 2.25000E+00
 -1      3405-1.88213E+00 1.39984E+00 1.54994E+00
 -1      3406-2.65628E+00 4.74999E-01 1.32035E+00
 -1      3407 1.62600E-01-2.64354E+00 2.25000E+00
 -1      3408-2.66362E+00 5.89170E-01 1.18564E+00
 -1      3409-1.87717E+00 1.40480E+00 1.92188E+00
 -1      3410-4.95342E+00 7.24878E-01-5.00000E-01
 -1      3411 1.17127E+00 5.23392E+00-5.00000E-01
 -1      3412 4.04032E+00 2.69966E+00 5.00000E-01
 -1      3413-5.09860E-02 1.98250E+00 5.00000E-01
 -1      3414-7.02733E-01 1.76349E+00 5.00000E-01
 -1      3415 2.62555E+00-5.73401E-01 2.01452E+00
 -1      3416-2.73240E+00-4.57954E+00-5.00000E-01
 -1      3417-1.86590E+00 1.41607E+00 1.77416E+00
 -1      3418-2.23235E+00 6.74914E-01 1.25038E+00
 -1      3419-5.76230E-01 2.27323E+00 1.09365E+00
 -1      3420 2.68481E+00 4.74999E-01 1.94924E+00
 -1      3421-4.72389E-01 1.98506E+00 5.00000E-01
 -1      3422-2.32473E+00 1.16350E+00 2.25000E+00
 -1      3423 1.21172E+00 2.01000E+00 7.79310E-01
 -1      3424-9.47994E-01 4.76589E+00 5.00000E-01
 -1      3425 4.34219E+00-2.75335E+00-5.00000E-01
 -1      3426-2.26998E+00 5.84056E-01 1.34435E+00
 -1      3427-1.07211E+00 5.84378E+00-5.00000E-01
 -1      3428 1.84499E+00-1.43698E+00 2.09807E+00
 -1      3429-2.31408E+00 1.64233E+00 1.84210E+00
 -1      3430 2.69966E+00-4.04032E+00 5.00000E-01
 -1      3431-2.61056E-01 2.08771E+00 5.00000E-01
 -1      3432-2.32070E+00 3.19554E-01 1.47646E+00
 -1      3433 4.18402E+00 3.11295E+00-5.00000E-01
 -1      3434-2.57156E+00 5.51038E-01 1.64844E+00
 -1      3435 2.64480E+00-4.74999E-01 2.01504E+00
 -1      3436-1.44159E+00-2.23907E+00 2.05556E+00
 -1      3437 2.75340E+00-6.10768E-01-5.00000E-01
 -1      3438-1.49199E+00 2.16374E+00 1.50192E+00
 -1      3439 1.88040E+00 5.64453E-01 5.00000E-01
 -1      3440 2.22890E+00-1.43738E+00 1.82422E+00
 -1      3441-1.03601E+00 1.72323E+00 5.00000E-01
 -1      3442-2.59865E+00 1.96533E-01 2.25000E+00
 -1      3443-2.32070E+00-2.88511E-01 5.95493E-01
 -1      3444 2.59965E+00-5.62677E-01 1.20177E+00
 -1      3445 5.46754E-01-2.56121E+00 1.78135E+00
 -1      3446-2.24249E+00-6.50431E-01 1.85911E+00
 -1      3447 2.06159E+00 3.46213E-01 5.00000E-01
 -1      3448-2.08058E+00 1.04132E+00 1.98814E+00
 -1      3449-2.20911E+00 1.42918E+00 1.27988E+00
 -1      3450 1.12814E+00-2.04462E+00 1.25065E+00
 -1      3451-2.03317E+00 1.15578E+00 1.85992E+00
 -1      3452-2.01490E+00 1.19989E+00 1.71048E+00
 -1      3453 2.03364E+00-1.15464E+00 2.09232E+00
 -1      3454 2.53717E+00-5.36794E-01 1.87687E+00
 -1      3455 5.31208E-01 2.03636E+00 5.00000E-01
 -1      3456-1.42632E+00-2.20222E+00 1.49921E+00
 -1      3457-2.58276E+00-4.74999E-01 8.82812E-01
 -1      3458 2.55614E+00-4.74999E-01 1.32031E+00
 -1      3459 2.26733E+00-5.90459E-01 1.08879E+00
 -1      3460 2.27226E+00-5.78558E-01 6.21163E-01
 -1      3461-2.02866E+00 1.16666E+00 2.09347E+00
 -1      3462-4.74999E-01 2.56626E+00 1.48371E+00
 -1      3463-9.32145E-01 1.02968E+00-5.00000E-01
 -1      3464-1.93088E+00-6.74886E-01 5.00000E-01
 -1      3465 2.32070E+00-3.36906E-01 1.81622E+00
 -1      3466-1.09295E+00 1.88471E+00 5.00000E-01
 -1      3467-6.59579E-01-1.89393E+00 5.00000E-01
 -1      3468-3.46213E-01-2.04862E+00 5.00000E-01
 -1      3469-2.58581E+00 4.74999E-01 8.28125E-01
 -1      3470-2.32070E+00 3.09703E-01 1.05452E+00
 -1      3471 2.26357E+00-5.99549E-01 1.53906E+00
 -1      3472-2.32070E+00 3.20734E-01 1.76233E+00
 -1      3473 1.95568E+00-1.15404E-01 5.00000E-01
 -1      3474 1.45775E+00-2.27809E+00 1.10765E+00
 -1      3475 2.22012E+00-1.54837E+00 1.98210E+00
 -1      3476-2.02421E+00 1.60872E+00 2.25000E+00
 -1      3477 2.94419E+00-4.38621E+00-5.00000E-01
 -1      3478-1.84499E+00 1.43698E+00 2.09232E+00
 -1      3479 4.76589E+00-9.47994E-01 5.00000E-01
 -1      3480-2.27717E+00 5.66713E-01 1.20744E+00
 -1      3481-2.69966E+00-4.04032E+00 5.00000E-01
 -1      3482 4.04032E+00-2.69966E+00 5.00000E-01
 -1      3483-2.18796E+00 1.51621E+00 1.67429E+00
 -1      3484-1.12567E+00-2.04564E+00 6.51205E-01
 -1      3485 2.07868E+00 5.44730E-01 5.00000E-01
 -1      3486 1.70553E+00-1.14821E+00 5.00000E-01
 -1      3487-2.22430E+00-1.43547E+00 1.97656E+00
 -1      3488-2.15810E+00-1.48635E+00 1.82803E+00
 -1      3489-2.56793E+00-5.49538E-01 8.82812E-01
 -1      3490 1.12896E+00-2.04428E+00 1.12542E+00
 -1      3491 1.61839E+00-1.35385E+00 5.00000E-01
 -1      3492 1.41427E+00-2.17312E+00 1.26562E+00
 -1      3493-2.31280E+00 1.47213E+00 1.92188E+00
 -1      3494 2.74259E+00-1.13602E+00 2.25000E+00
 -1      3495-2.03577E+00 1.14951E+00 1.97734E+00
 -1      3496 1.92258E+00-6.21515E-01 5.00000E-01
 -1      3497-5.50844E-01-2.06840E+00 5.00000E-01
 -1      3498 5.49439E-01-2.56769E+00 2.05456E+00
 -1      3499 2.62226E-01-2.03166E+00 5.00000E-01
 -1      3500 1.59752E+00-7.40741E-01-5.00000E-01
 -1      3501 1.86137E+00-1.53496E+00 1.48310E-03
 -1      3502-5.63875E+00-1.12162E+00 7.81772E-02
 -1      3503-1.53496E+00-1.86137E+00 1.61991E-02
 -1      3504-2.30710E+00-7.05808E-01-1.32898E-02
 -1      3505 2.06508E+00-1.23012E+00 1.32641E-01
 -1      3506 7.05808E-01 2.30710E+00 3.94070E-03
 -1      3507 2.05405E+00-1.89084E+00 3.20222E-01
 -1      3508 4.78031E+00-3.19409E+00 6.22717E-02
 -1      3509 2.30808E-01 2.40158E+00 7.58462E-02
 -1      3510 1.12162E+00 5.63875E+00 2.47605E-02
 -1      3511 1.86137E+00 1.53496E+00-2.16509E-02
 -1      3512 2.05405E+00 1.89084E+00 3.05574E-01
 -1      3513 1.92675E+00 1.43713E+00 2.41885E-01
 -1      3514 2.44709E+00 1.27768E+00 1.54159E-01
 -1      3515-2.40158E+00-2.30808E-01 7.31432E-02
 -1      3516 1.13229E+00-2.13046E+00-2.23607E-02
 -1      3517 1.34712E+00 1.83674E+00-6.61216E-02
 -1      3518-3.19409E+00 4.78031E+00 2.86538E-02
 -1      3519 7.05808E-01-2.30710E+00 9.21073E-02
 -1      3520-7.05808E-01-2.30710E+00-1.24514E-02
 -1      3521 2.84581E+00 4.25904E+00 2.73926E-02
 -1      3522-1.86137E+00-1.53496E+00 9.96867E-02
 -1      3523-1.86137E+00 1.53496E+00 1.29519E-02
 -1      3524-4.58868E+00 3.06606E+00-5.29062E-02
 -1      3525 1.38821E+00 1.95944E+00 2.06998E-01
 -1      3526-4.78031E+00-3.19409E+00 6.94251E-02
 -1      3527 2.03276E+00 1.79378E+00 1.61850E+00
 -1      3528 5.63875E+00-1.12162E+00 6.59414E-02
 -1      3529 9.97292E-01-5.01373E+00-4.51804E-03
 -1      3530 1.12162E+00-5.63875E+00 1.63641E-02
 -1      3531-1.90747E+00-2.01249E+00 1.34971E+00
 -1      3532-9.60858E-01-2.62129E+00 3.11378E-01
 -1      3533-1.07222E+00 2.58420E+00 1.69780E+00
 -1      3534-1.19347E+00 1.97661E+00-5.02579E-02
 -1      3535 2.43457E+00 1.15932E+00 9.97609E-01
 -1      3536-2.62129E+00 9.60858E-01 1.08981E-01
 -1      3537-1.81415E+00-1.97829E+00 9.79695E-01
 -1      3538 1.15404E-01 2.78946E+00 3.69596E-01
 -1      3539 3.46213E-01 2.37862E+00 2.91257E-01
 -1      3540-2.88522E+00 4.31804E+00-2.15112E-02
 -1      3541 4.98343E+00 9.91265E-01 9.36812E-04
 -1      3542-1.11944E+00 2.72579E+00 8.20484E-01
 -1      3543-1.70804E+00 1.98874E+00 1.84135E+00
 -1      3544 1.15404E-01-2.71877E+00 3.29844E-02
 -1      3545 1.15404E-01-2.17847E+00-1.01293E-02
 -1      3546 1.37435E+00-1.53756E+00 9.48709E-02
 -1      3547-2.13046E+00 1.13229E+00 7.70931E-02
 -1      3548 2.06508E+00 1.23012E+00 2.83163E-01
 -1      3549 9.60858E-01 2.62129E+00 3.21808E-01
 -1      3550-4.25904E+00 2.84581E+00 1.43986E-01
 -1      3551 1.06779E+00-2.63141E+00 7.99335E-01
 -1      3552 2.21868E+00 7.94094E-01-6.56208E-02
 -1      3553 1.10112E+00 2.54083E+00 1.77498E+00
 -1      3554-2.78946E+00-1.15404E-01 3.67727E-01
 -1      3555 1.98638E+00 1.94523E+00 9.78826E-01
 -1      3556-2.37862E+00-3.46213E-01 2.89885E-01
 -1      3557 1.63040E+00-2.03653E+00 6.68449E-02
 -1      3558 1.82334E+00-2.00170E+00 1.74510E+00
 -1      3559-2.50157E+00-1.10455E+00 1.76193E+00
 -1      3560-1.98391E+00 1.35160E+00 2.08233E-01
 -1      3561-2.05405E+00 1.89084E+00 3.27593E-01
 -1      3562-1.43713E+00-1.92675E+00 2.61022E-01
 -1      3563-2.33006E+00-5.90404E-01 2.87109E-01
 -1      3564-2.80068E+00-3.19778E-02 1.36301E+00
 -1      3565-7.83271E-01-2.46918E+00 1.64115E+00
 -1      3566 1.88194E+00-2.00113E+00 1.21359E+00
 -1      3567 2.89683E-01-2.52159E+00 1.10156E+00
 -1      3568 8.95829E-01-2.48925E+00 1.55968E+00
 -1      3569-1.20332E+00 2.40290E+00 1.18974E+00
 -1      3570-1.87300E+00 1.97927E+00 1.24892E+00
 -1      3571 1.33584E+00-1.99444E+00 1.82583E-01
 -1      3572-3.09535E-01-2.53074E+00 1.42969E+00
 -1      3573 2.03250E+00 1.15404E-01-5.35514E-03
 -1      3574-2.06508E+00-1.23012E+00 1.52770E-01
 -1      3575 2.62129E+00 9.60858E-01 4.75019E-01
 -1      3576-2.37282E+00 3.75401E-01-3.35907E-02
 -1      3577-1.25696E+00 2.28067E+00 2.05185E-01
 -1      3578 5.54802E+00 1.10357E+00 1.28599E-02
 -1      3579-7.90484E-01 2.58703E+00 6.03627E-02
 -1      3580-6.94030E-01 2.44822E+00 1.10156E+00
 -1      3581 2.00891E+00-1.71131E+00 1.47634E+00
 -1      3582-4.25904E+00-2.84581E+00-4.84896E-03
 -1      3583 1.38821E+00 1.95944E+00 3.62862E-01
 -1      3584-2.65775E-01-2.53340E+00 8.75451E-01
 -1      3585-2.45951E+00-7.12558E-01 1.86719E+00
 -1      3586-1.92675E+00-1.43713E+00 3.03375E-01
 -1      3587-5.90404E-01-2.33006E+00 2.46534E-01
 -1      3588 2.67195E+00 1.15404E-01 2.06716E-02
 -1      3589 9.15090E-02 2.75619E+00 1.85479E+00
 -1      3590 1.20985E+00 2.28727E+00 1.84683E+00
 -1      3591 1.18095E+00-2.35141E+00 1.47478E+00
 -1      3592 2.78946E+00-1.15404E-01 4.33466E-01
 -1      3593-1.15404E-01-2.78946E+00 4.53619E-01
 -1      3594-2.37862E+00 3.46213E-01 2.47999E-01
 -1      3595-1.90225E+00-1.73086E+00 1.08660E+00
 -1      3596-1.80209E+00-2.01961E+00 1.76248E+00
 -1      3597-2.55329E+00 8.82862E-01 8.79187E-01
 -1      3598-2.00267E+00 1.67806E+00 1.33693E+00
 -1      3599-1.89286E+00 6.59137E-01 9.36974E-02
 -1      3600 1.98784E+00 1.34571E+00 3.50213E-01
 -1      3601-1.87577E+00-2.01035E-01 4.44025E-03
 -1      3602-2.33330E+00-1.63048E+00 1.29928E-01
 -1      3603-2.06508E+00 1.23012E+00 3.46110E-01
 -1      3604 1.73554E+00-1.98438E+00 8.93097E-01
 -1      3605 5.90404E-01-2.33006E+00 2.99521E-01
 -1      3606 1.97410E+00 1.67549E+00 1.17169E+00
 -1      3607 8.33264E-01 2.51798E+00 1.29726E+00
 -1      3608 2.30698E+00-3.46213E-01-2.46863E-02
 -1      3609 1.57814E+00-2.01252E+00 1.64844E+00
 -1      3610 2.30710E+00-7.05808E-01 1.71432E-01
 -1      3611-5.90404E-01 2.33006E+00 1.78510E-01
 -1      3612-2.97814E-01-2.52536E+00 1.75781E+00
 -1      3613-2.36715E+00 4.03915E-01 3.78018E-01
 -1      3614 1.20749E+00 2.31636E+00 1.44217E+00
 -1      3615-1.23012E+00-2.06508E+00 2.85702E-01
 -1      3616 1.23012E+00-2.06508E+00 3.42089E-01
 -1      3617-1.43713E+00 1.92675E+00 1.83817E-01
 -1      3618 9.51986E-01 2.47627E+00 6.72828E-01
 -1      3619-6.77501E-01 2.45236E+00 1.32031E+00
 -1      3620-2.54200E+00 8.87581E-01 1.74827E+00
 -1      3621 5.57444E-01 2.77185E+00 8.01515E-02
 -1      3622 2.28454E+00-1.24331E+00 1.44371E+00
 -1      3623-1.98258E+00 1.35358E+00 3.57109E-01
 -1      3624 2.43819E+00 6.82746E-01 1.64844E+00
 -1      3625 2.48469E+00 8.47233E-01 9.26016E-01
 -1      3626 1.23012E+00 2.06508E+00 3.60407E-01
 -1      3627 2.46671E+00-1.16755E+00 9.04440E-01
 -1      3628 1.71591E+00 1.91562E+00 2.84930E-01
 -1      3629 5.32702E-01 2.34153E+00 3.22172E-01
 -1      3630 1.43713E+00-1.92675E+00 3.44177E-01
 -1      3631-2.06508E+00-1.23012E+00 3.50395E-01
 -1      3632-2.80899E+00-5.49605E-01 8.68558E-02
 -1      3633 3.46213E-01-2.37862E+00 2.86744E-01
 -1      3634-1.97570E+00-2.03664E+00 2.96205E-01
 -1      3635 1.14487E+00-2.46241E+00 4.27860E-01
 -1      3636 2.66714E+00 1.46118E-01 9.09028E-01
 -1      3637-1.21043E+00-2.28220E+00 1.20809E+00
 -1      3638 1.52662E+00 1.06295E+00-3.23973E-02
 -1      3639 1.14450E+00-2.43342E+00 1.10965E+00
 -1      3640-2.76915E-01 2.54260E+00 1.10156E+00
 -1      3641 2.64722E+00-1.40925E-01 1.37413E+00
 -1      3642-2.58599E+00-2.14952E-01 1.07476E+00
 -1      3643-1.18266E+00 2.27907E+00 1.92037E+00
 -1      3644-2.62129E+00-9.60858E-01 4.19385E-01
 -1      3645-2.35418E+00-4.69094E-01 3.60390E-01
 -1      3646 2.56954E+00 2.32897E-01 1.19310E+00
 -1      3647-1.94875E+00-1.75505E+00 1.56464E+00
 -1      3648 2.49013E+00 7.10317E-01 2.04022E-01
 -1      3649-1.27904E+00 2.03239E+00 2.93413E-01
 -1      3650 2.37862E+00 3.46213E-01 1.35218E-01
 -1      3651-2.48280E+00-8.11508E-01 1.11759E+00
 -1      3652-1.13441E+00 2.29687E+00 9.35516E-01
 -1      3653-1.62625E+00-1.99588E+00 1.95237E+00
 -1      3654 2.59251E+00-1.05136E-01 1.07232E+00
 -1      3655-8.29798E-02-2.94027E+00 1.39161E+00
 -1      3656 2.34153E+00 5.32702E-01 2.75574E-01
 -1      3657 2.46015E+00 1.11918E+00 1.71695E+00
 -1      3658-2.33006E+00 5.90404E-01 3.59159E-01
 -1      3659-2.54472E+00-3.00448E-01 1.42969E+00
 -1      3660-2.06932E+00-4.10802E-01 2.16664E-01
 -1      3661 5.97198E-01-2.78815E+00 1.15523E-01
 -1      3662 1.76574E+00 1.17093E+00 2.18004E-01
 -1      3663 1.29205E+00 2.41394E+00-1.05487E-02
 -1      3664 2.35966E+00-4.41563E-01 2.28178E-01
 -1      3665-1.57895E+00-2.40479E+00 3.93563E-02
 -1      3666-5.90404E-01 2.33006E+00 3.65187E-01
 -1      3667-2.46697E+00-7.61604E-01 1.37712E+00
 -1      3668-2.38298E+00 1.14530E+00 1.01710E+00
 -1      3669-8.23059E-01-2.49231E+00 8.58984E-01
 -1      3670 2.41887E+00-6.98784E-01 1.53906E+00
 -1      3671-2.30226E+00 1.22458E+00 1.47757E+00
 -1      3672-3.46213E-01 2.37862E+00 2.68779E-01
 -1      3673 2.32941E-01 2.58509E+00 1.15194E+00
 -1      3674-2.20715E-01-2.56325E+00 1.14092E+00
 -1      3675-2.35536E+00-1.18133E+00 1.32539E+00
 -1      3676-1.34033E+00-1.99143E+00 3.54751E-01
 -1      3677-2.53282E+00 3.19843E-01 1.97656E+00
 -1      3678-2.53066E+00 2.45963E-01 1.53064E+00
 -1      3679 2.62129E+00-9.60858E-01 4.41154E-01
 -1      3680 2.00971E+00 1.58884E+00 1.97656E+00
 -1      3681-1.71225E+00 1.30423E+00 2.99286E-01
 -1      3682 7.52328E-02-2.74875E+00 1.79757E+00
 -1      3683-3.46213E-01-2.37862E+00 2.83877E-01
 -1      3684-5.63875E+00 1.12162E+00 6.94453E-02
 -1      3685-1.43713E+00 1.92675E+00 3.68274E-01
 -1      3686 4.89660E+00-9.73992E-01-1.41680E-02
 -1      3687 4.05573E-01 2.00216E+00 8.16771E-02
 -1      3688 3.16918E+00 4.74302E+00 3.66347E-02
 -1      3689-4.50824E-01 2.35782E+00 3.63020E-01
 -1      3690 4.78031E+00 3.19409E+00 4.95422E-02
 -1      3691-2.53674E+00 7.43489E-02 1.74214E+00
 -1      3692-9.26383E-01 2.53806E+00 4.34674E-01
 -1      3693 2.06508E+00-1.23012E+00 3.39014E-01
 -1      3694-2.78252E+00-4.16433E+00-1.86027E-02
 -1      3695-2.48535E+00 2.86650E-01 1.32031E+00
 -1      3696-3.19409E+00-4.78031E+00 2.70499E-02
 -1      3697 3.19409E+00-4.78031E+00 7.72649E-02
 -1      3698-1.12162E+00-5.63875E+00 5.01419E-02
 -1      3699 4.32565E+00 2.89031E+00-1.65375E-02
 -1      3700-4.19936E-01 2.09570E+00 2.31955E-01
 -1      3701 3.03684E-01-2.53392E+00 1.97656E+00
 -1      3702-2.49258E+00 7.68182E-01 1.33478E+00
 -1      3703 2.57026E+00 2.88417E-01 1.80004E+00
 -1      3704-9.99311E-01 5.02388E+00 7.02276E-03
 -1      3705 8.48811E-01-2.47304E+00 1.23589E+00
 -1      3706 4.64849E-01-2.35503E+00 3.61855E-01
 -1      3707 2.72690E-01 2.58959E+00 1.52387E+00
 -1      3708 2.53074E+00-3.15122E-01 1.86719E+00
 -1      3709 4.18194E-01-2.08176E+00 2.14742E-01
 -1      3710-2.22409E+00-1.25591E+00 1.64844E+00
 -1      3711-1.23861E+00-1.64090E+00 1.89460E-01
 -1      3712 1.95944E+00-1.38821E+00 3.24258E-01
 -1      3713 1.98482E+00-1.63932E+00 9.53897E-01
 -1      3714 2.43469E+00-7.01791E-01 1.10156E+00
 -1      3715-3.47168E-01-1.93625E+00 1.68290E-02
 -1      3716-2.37381E-01-2.56788E+00 2.00159E+00
 -1      3717-2.61341E+00-1.78527E-01 7.67957E-01
 -1      3718 2.33006E+00-5.90404E-01 3.52397E-01
 -1      3719 2.37862E+00-3.46213E-01 3.77373E-01
 -1      3720-5.32702E-01-2.34153E+00 3.77263E-01
 -1      3721 2.37862E+00 3.46213E-01 3.44386E-01
 -1      3722-2.57545E+00 2.10804E-01 1.07303E+00
 -1      3723-9.99311E-01-5.02388E+00-1.03387E-02
 -1      3724-5.26012E-01-2.83542E+00 1.68290E-02
 -1      3725-5.02388E+00-9.99311E-01-2.13908E-02
 -1      3726-5.02388E+00 9.99311E-01-5.54194E-03
 -1      3727 9.99311E-01 5.02388E+00-2.24367E-03
 -1      3728 4.34634E+00-2.90413E+00 3.13594E-03
 -1      3729-1.12162E+00 5.63875E+00 5.60237E-02
 -1      3730-1.19340E-01 2.69973E+00 1.52294E+00
 -1      3731-1.30542E+00 9.70663E-01-1.65569E-02
 -1      3732-8.84365E-01 1.86748E+00 1.67035E-01
 -1      3733 2.84581E+00-4.25904E+00 2.16716E-02
 -1      3734-1.09868E+00-2.40875E+00 6.35666E-01
 -1      3735 1.97378E+00 4.96683E-01 1.13249E-01
 -1      3736 2.52623E+00-9.04275E-01 1.88823E+00
 -1      3737-2.30972E+00 1.19876E+00 1.97429E+00
 -3
    3C                         12252                                     1
 -1         1    3    0    1
 -2        56      1216       266       800
 -1         2    3    0    1
 -2       429      1311      2110      2235
 -1         3    3    0    1
 -2      2011      2021      2176      2382
 -1         4    3    0    1
 -2      1330       784       792      2175
 -1         5    3    0    1
 -2       451       677       689       690
 -1         6    3    0    1
 -2       645       454       903      1137
 -1         7    3    0    1
 -2       285      1335      1338      2170
 -1         8    3    0    1
 -2      1232      1297      2665      2774
 -1         9    3    0    1
 -2      1990      2332      2435      2062
 -1        10    3    0    1
 -2      2041      2004      2101      2181
 -1        11    3    0    1
 -2      1575      1420      2818      3146
 -1        12    3    0    1
 -2      1646      1743      3291      3337
 -1        13    3    0    1
 -2      2035      2094      2190      2225
 -1        14    3    0    1
 -2      1015      1312      2153      2690
 -1        15    3    0    1
 -2      1579      1578      3190      3281
 -1        16    3    0    1
 -2      1984       104      2118      2239
 -1        17    3    0    1
 -2       800       383       801      1058
 -1        18    3    0    1
 -2      3054      3168      1833      3251
 -1        19    3    0    1
 -2       660      1140       663       455
 -1        20    3    0    1
 -2      2175      1049      2504      3529
 -1        21    3    0    1
 -2      2135      2232      2500      3528
 -1        22    3    0    1
 -2      2185      2228      2322      2819
 -1        23    3    0    1
 -2      1065       503       922      1209
 -1        24    3    0    1
 -2       400      1283      3541      3403
 -1        25    3    0    1
 -2       507       803      1063      1215
 -1        26    3    0    1
 -2       604       617       618       972
 -1        27    3    0    1
 -2       310      1405      1113      2144
 -1        28    3    0    1
 -2      2261       270      2415      2475
 -1        29    3    0    1
 -2       276       279      1511      3095
 -1        30    3    0    1
 -2      3363      2846      3402      3687
 -1        31    3    0    1
 -2       253       351      1994      2080
 -1        32    3    0    1
 -2      1023       527      1249      1251
 -1        33    3    0    1
 -2       511       767       779       780
 -1        34    3    0    1
 -2        60      1234       138       621
 -1        35    3    0    1
 -2       285       280       825      1335
 -1        36    3    0    1
 -2       755      1032      1221      1323
 -1        37    3    0    1
 -2      3684      1004      1943      1944
 -1        38    3    0    1
 -2      1991      2052      2227      2434
 -1        39    3    0    1
 -2       281        48       821      1205
 -1        40    3    0    1
 -2       824       821       831      1069
 -1        41    3    0    1
 -2      1914      3409      3429      3476
 -1        42    3    0    1
 -2       102       112       573       951
 -1        43    3    0    1
 -2      2655      2566      2828      3553
 -1        44    3    0    1
 -2      1847      1848      1859      3265
 -1        45    3    0    1
 -2       782       251       783      1190
 -1        46    3    0    1
 -2       533       534       718       726
 -1        47    3    0    1
 -2       681       688      1003      1134
 -1        48    3    0    1
 -2      2836      1783      1784      3082
 -1        49    3    0    1
 -2       157       640       646      1300
 -1        50    3    0    1
 -2      2045      1972      2332      2455
 -1        51    3    0    1
 -2       309       379      1340      2345
 -1        52    3    0    1
 -2      1375      1094      2147      2313
 -1        53    3    0    1
 -2      1969      1064      2453      2480
 -1        54    3    0    1
 -2       320       295      1354      2334
 -1        55    3    0    1
 -2       663       670       995      1140
 -1        56    3    0    1
 -2      1089      2036      2132      2180
 -1        57    3    0    1
 -2       144       976      1295      2160
 -1        58    3    0    1
 -2       768      1247       239       770
 -1        59    3    0    1
 -2       357       943      2237      2404
 -1        60    3    0    1
 -2       535      1266      1008      1311
 -1        61    3    0    1
 -2       595       115       586      1953
 -1        62    3    0    1
 -2       942      2067      2215      2347
 -1        63    3    0    1
 -2       324       430      2151      2200
 -1        64    3    0    1
 -2       464       640       989      1151
 -1        65    3    0    1
 -2      1469      2919      3117      3609
 -1        66    3    0    1
 -2      3113      1669      3191      3294
 -1        67    3    0    1
 -2      1080       327      1082      2076
 -1        68    3    0    1
 -2       559        92        97      1172
 -1        69    3    0    1
 -2      1442      1612      1613      2928
 -1        70    3    0    1
 -2      2739      1754      1755      3203
 -1        71    3    0    1
 -2      2433      2244      2436      2448
 -1        72    3    0    1
 -2       367       660       995       998
 -1        73    3    0    1
 -2      2145       998      2278      2337
 -1        74    3    0    1
 -2      2015      1981      2039      2213
 -1        75    3    0    1
 -2       482       483       590       960
 -1        76    3    0    1
 -2       932      2774      2878      3094
 -1        77    3    0    1
 -2       798      2154      2377      2603
 -1        78    3    0    1
 -2       625       517       626       976
 -1        79    3    0    1
 -2       534       713       726      1021
 -1        80    3    0    1
 -2       372       112       953      2461
 -1        81    3    0    1
 -2       552       478       564       948
 -1        82    3    0    1
 -2       552       555       911       943
 -1        83    3    0    1
 -2       622       631       980      1244
 -1        84    3    0    1
 -2       963       972      3688      1951
 -1        85    3    0    1
 -2       821       281      1205      1206
 -1        86    3    0    1
 -2      2105       599      2340      2421
 -1        87    3    0    1
 -2       599       600      2105      2447
 -1        88    3    0    1
 -2       225       220      1965      2305
 -1        89    3    0    1
 -2      2176      1988      2178      2239
 -1        90    3    0    1
 -2      2251       554      2371      2378
 -1        91    3    0    1
 -2       851      1367       852      2122
 -1        92    3    0    1
 -2      2275       618       962       973
 -1        93    3    0    1
 -2      2055       426      2116      2211
 -1        94    3    0    1
 -2      1307       680      2055      2188
 -1        95    3    0    1
 -2      1524      1662      1663      2887
 -1        96    3    0    1
 -2       409       414       628       979
 -1        97    3    0    1
 -2      2257      2194      2600      3557
 -1        98    3    0    1
 -2       744      1030      2361      2442
 -1        99    3    0    1
 -2       487       486       574       581
 -1       100    3    0    1
 -2       821        48       824      1205
 -1       101    3    0    1
 -2       337       208      3694      3696
 -1       102    3    0    1
 -2       805      1333       807       508
 -1       103    3    0    1
 -2      1432      1433      3244      3263
 -1       104    3    0    1
 -2      1393      1390      2167      2274
 -1       105    3    0    1
 -2       500       821       824      1205
 -1       106    3    0    1
 -2       197        90       710       939
 -1       107    3    0    1
 -2      1050       783      1189      1190
 -1       108    3    0    1
 -2       585       584       959      1176
 -1       109    3    0    1
 -2       202       417      1017      2234
 -1       110    3    0    1
 -2      1399      2121       895      1129
 -1       111    3    0    1
 -2       363       144       978      2259
 -1       112    3    0    1
 -2      1337      2067      2267      2293
 -1       113    3    0    1
 -2      1385       304      1100      2182
 -1       114    3    0    1
 -2       664       658      1255      1304
 -1       115    3    0    1
 -2      1024       216      2195      2198
 -1       116    3    0    1
 -2      3503      2752      3522      2777
 -1       117    3    0    1
 -2      1350       841      2020      2184
 -1       118    3    0    1
 -2       999      1308       683      2510
 -1       119    3    0    1
 -2       604       407       610       971
 -1       120    3    0    1
 -2       750       453       761       762
 -1       121    3    0    1
 -2       644      1299      2133      2326
 -1       122    3    0    1
 -2        46        49       825       921
 -1       123    3    0    1
 -2       488       588      1185      1186
 -1       124    3    0    1
 -2      1401       879       889      2150
 -1       125    3    0    1
 -2       125      3539      3455      1814
 -1       126    3    0    1
 -2       422       183      3524      1724
 -1       127    3    0    1
 -2       201       718      1020      1751
 -1       128    3    0    1
 -2      1988      2029      2171      2313
 -1       129    3    0    1
 -2      3683       435      3468      3720
 -1       130    3    0    1
 -2       678       451      1006      1131
 -1       131    3    0    1
 -2       433       119      3583      3626
 -1       132    3    0    1
 -2      1995      2192      2373      2202
 -1       133    3    0    1
 -2       366      2089      2351      2460
 -1       134    3    0    1
 -2       647      1298       641      3542
 -1       135    3    0    1
 -2      1315       716      2196      2380
 -1       136    3    0    1
 -2       767       779       780      1047
 -1       137    3    0    1
 -2      2682      2745      3559      3026
 -1       138    3    0    1
 -2       378       943      2248      2371
 -1       139    3    0    1
 -2       477       552       555      1170
 -1       140    3    0    1
 -2       330      3502      3399      3725
 -1       141    3    0    1
 -2       721        79        80      1262
 -1       142    3    0    1
 -2      1973      1992      2108      2167
 -1       143    3    0    1
 -2       345      1049      1330      2175
 -1       144    3    0    1
 -2      2228      2185      2246      2491
 -1       145    3    0    1
 -2       166       995      2297      2339
 -1       146    3    0    1
 -2       660      1140         7       663
 -1       147    3    0    1
 -2      1362      1979      2104      2463
 -1       148    3    0    1
 -2       837      1345       838      2042
 -1       149    3    0    1
 -2       965       371      2269      2447
 -1       150    3    0    1
 -2      1989      2027      2099      2430
 -1       151    3    0    1
 -2       534       713       718       726
 -1       152    3    0    1
 -2      1318      2309      2329      2400
 -1       153    3    0    1
 -2        56       800       801       927
 -1       154    3    0    1
 -2        18         3       677      1148
 -1       155    3    0    1
 -2      2783      2835      2993      3372
 -1       156    3    0    1
 -2       552       378       555       943
 -1       157    3    0    1
 -2      1329       787       789      2468
 -1       158    3    0    1
 -2       732       531       743       744
 -1       159    3    0    1
 -2      1571      1414      3135      3367
 -1       160    3    0    1
 -2       527       528      1023      1249
 -1       161    3    0    1
 -2      1540      1672      2926      3014
 -1       162    3    0    1
 -2       454       646       653       654
 -1       163    3    0    1
 -2      2560      2659      3543      3146
 -1       164    3    0    1
 -2      2326      2133      2384      2460
 -1       165    3    0    1
 -2       749       757      1038      1135
 -1       166    3    0    1
 -2      1768        51      1769      1788
 -1       167    3    0    1
 -2      1998      2095      2119      2174
 -1       168    3    0    1
 -2       658       664       671       996
 -1       169    3    0    1
 -2      1043       771      2283      2301
 -1       170    3    0    1
 -2      1736       173      3623      1832
 -1       171    3    0    1
 -2       383      2014      2349      2379
 -1       172    3    0    1
 -2       805      1333       508      1058
 -1       173    3    0    1
 -2       804       506       815       816
 -1       174    3    0    1
 -2      1057       805      2349      2486
 -1       175    3    0    1
 -2       726      1021      2365      3502
 -1       176    3    0    1
 -2       366       992      1303      1967
 -1       177    3    0    1
 -2       365       300      1350      2015
 -1       178    3    0    1
 -2        36       597       124      1186
 -1       179    3    0    1
 -2       563       945      2135      2268
 -1       180    3    0    1
 -2      1003      2068      2317      2516
 -1       181    3    0    1
 -2       518       519      2794      2878
 -1       182    3    0    1
 -2      2592      2564      2624      3625
 -1       183    3    0    1
 -2      2997      2679      3248      3643
 -1       184    3    0    1
 -2       175      1001      1306      2271
 -1       185    3    0    1
 -2      2208       427      3684      3726
 -1       186    3    0    1
 -2       975      1966      2280      2385
 -1       187    3    0    1
 -2      2077      2065      2122      2139
 -1       188    3    0    1
 -2      2235      2159      2169      2110
 -1       189    3    0    1
 -2      1995      1978      2072      2191
 -1       190    3    0    1
 -2      2050       366      2351      2460
 -1       191    3    0    1
 -2       532       531       732       744
 -1       192    3    0    1
 -2        61        66       624      1230
 -1       193    3    0    1
 -2       454       464       646       654
 -1       194    3    0    1
 -2       857      1372      2132      2180
 -1       195    3    0    1
 -2      2118      2155      2156      2354
 -1       196    3    0    1
 -2       383      1058      1333      2254
 -1       197    3    0    1
 -2       696      1265        89      1264
 -1       198    3    0    1
 -2      1684      2831      3559      3487
 -1       199    3    0    1
 -2       642       464       645       654
 -1       200    3    0    1
 -2        14      1578      1666      3061
 -1       201    3    0    1
 -2       574       486       916      1184
 -1       202    3    0    1
 -2      2069      1993      2085      2197
 -1       203    3    0    1
 -2       942       553      2215      2293
 -1       204    3    0    1
 -2      1149      1147      2510      2536
 -1       205    3    0    1
 -2       209        70       731      1249
 -1       206    3    0    1
 -2       678       451       689       690
 -1       207    3    0    1
 -2      1981      2015      2039      2207
 -1       208    3    0    1
 -2      2725      2588      2897      3596
 -1       209    3    0    1
 -2      1041      2229      2418      2464
 -1       210    3    0    1
 -2      1101      2144      2182      2315
 -1       211    3    0    1
 -2       490      1329       787       789
 -1       212    3    0    1
 -2       779      1046      1055      2603
 -1       213    3    0    1
 -2      3706       434      3709      1947
 -1       214    3    0    1
 -2       695       189      1012      1013
 -1       215    3    0    1
 -2      1097      1099      2034      2043
 -1       216    3    0    1
 -2       804       267       806      1059
 -1       217    3    0    1
 -2       783       251      1189      1190
 -1       218    3    0    1
 -2       543      1026      1024       937
 -1       219    3    0    1
 -2       696       705       936      1014
 -1       220    3    0    1
 -2      1987      2028      2067      2411
 -1       221    3    0    1
 -2        35       255       786      1188
 -1       222    3    0    1
 -2       310      1113      2106      2144
 -1       223    3    0    1
 -2       947       352      3528      1676
 -1       224    3    0    1
 -2      2001      2070      2128      2262
 -1       225    3    0    1
 -2       959      2306      2437      2481
 -1       226    3    0    1
 -2       404      3690      1953      1954
 -1       227    3    0    1
 -2      2085      2069      2182      2315
 -1       228    3    0    1
 -2       516       622       635       636
 -1       229    3    0    1
 -2       755       758       902      1037
 -1       230    3    0    1
 -2       541       695       708      1013
 -1       231    3    0    1
 -2      2206       987      2278      2343
 -1       232    3    0    1
 -2       467      1292      1156       967
 -1       233    3    0    1
 -2      2108      1393      2167      2274
 -1       234    3    0    1
 -2      2037      2007      2094      2190
 -1       235    3    0    1
 -2      2729      2588      3531      3391
 -1       236    3    0    1
 -2      1513      1512      1604      2932
 -1       237    3    0    1
 -2      2238      1057      2349      2486
 -1       238    3    0    1
 -2       601      1581      1582      2909
 -1       239    3    0    1
 -2      1336       819      2258      2314
 -1       240    3    0    1
 -2       647       641      1300      2544
 -1       241    3    0    1
 -2      2639      2845      1819      3207
 -1       242    3    0    1
 -2       686       682      1004      1133
 -1       243    3    0    1
 -2      1349       293      1077      2006
 -1       244    3    0    1
 -2       544      1025       733       543
 -1       245    3    0    1
 -2       586       488       917      1187
 -1       246    3    0    1
 -2      2024      1967      2048      2098
 -1       247    3    0    1
 -2       904      1291       968       466
 -1       248    3    0    1
 -2       539      1270       540       993
 -1       249    3    0    1
 -2       161       670       663      1140
 -1       250    3    0    1
 -2       627       624       635       978
 -1       251    3    0    1
 -2       734        75       742      1257
 -1       252    3    0    1
 -2       485       949      1180      1181
 -1       253    3    0    1
 -2      1655      2699      3537      2904
 -1       254    3    0    1
 -2       487       954       574       916
 -1       255    3    0    1
 -2       604        22       610      1158
 -1       256    3    0    1
 -2       591       588        36      1185
 -1       257    3    0    1
 -2       477       478       551       564
 -1       258    3    0    1
 -2       403      1569      3512      3513
 -1       259    3    0    1
 -2       465       604       610       617
 -1       260    3    0    1
 -2      2501      2247      3004      3731
 -1       261    3    0    1
 -2      2009      2110      2124      2126
 -1       262    3    0    1
 -2      2016      2043      2103      2186
 -1       263    3    0    1
 -2      2027      1987      2028      2088
 -1       264    3    0    1
 -2       477       946       556       910
 -1       265    3    0    1
 -2       576       565      2805      1721
 -1       266    3    0    1
 -2      1599      1598      2915      1745
 -1       267    3    0    1
 -2        93       352       551       940
 -1       268    3    0    1
 -2       577        38       106      1184
 -1       269    3    0    1
 -2      1050      2080      2427      2468
 -1       270    3    0    1
 -2      1211       924      3558      3149
 -1       271    3    0    1
 -2       766      1324      2367      3724
 -1       272    3    0    1
 -2      2499      2646      3535      3625
 -1       273    3    0    1
 -2       541       695      1013      1272
 -1       274    3    0    1
 -2      2194      1060      3505      3507
 -1       275    3    0    1
 -2      1525      1524      2887      1722
 -1       276    3    0    1
 -2       604       610       617       971
 -1       277    3    0    1
 -2        64       152       642      1242
 -1       278    3    0    1
 -2       101       566       914      1182
 -1       279    3    0    1
 -2       517      1234      1229       975
 -1       280    3    0    1
 -2       670       161       164      1140
 -1       281    3    0    1
 -2       534       533       717       726
 -1       282    3    0    1
 -2      1126      1397      2056      2097
 -1       283    3    0    1
 -2       418      1315      2051      2196
 -1       284    3    0    1
 -2      1547      1548      2845      1882
 -1       285    3    0    1
 -2       556       551      1168      1282
 -1       286    3    0    1
 -2       606       465       609       617
 -1       287    3    0    1
 -2      1541      2783      3151      3162
 -1       288    3    0    1
 -2       198      1017      1314      2234
 -1       289    3    0    1
 -2       731       739      1030      1245
 -1       290    3    0    1
 -2       803       270      1331      1334
 -1       291    3    0    1
 -2      1574      1573      2778      1749
 -1       292    3    0    1
 -2       104      1984      2118      2354
 -1       293    3    0    1
 -2       573       570       582       956
 -1       294    3    0    1
 -2       470       973       606       905
 -1       295    3    0    1
 -2      1558      1557      1611      3103
 -1       296    3    0    1
 -2      3054      3581      3168      3251
 -1       297    3    0    1
 -2      2356       405      2370      2458
 -1       298    3    0    1
 -2      1992      2167      2168      2274
 -1       299    3    0    1
 -2      3501      1419      3546      3557
 -1       300    3    0    1
 -2      3109      1738      3647      3391
 -1       301    3    0    1
 -2       588        36      1185      1186
 -1       302    3    0    1
 -2      2254      1333      2332      2455
 -1       303    3    0    1
 -2       139      1982      2064      2096
 -1       304    3    0    1
 -2       707      1011      1014      2316
 -1       305    3    0    1
 -2       695       189       700      1012
 -1       306    3    0    1
 -2      2015      1981      2323      2374
 -1       307    3    0    1
 -2       291       393      1076      2136
 -1       308    3    0    1
 -2       629      1297      2189      2609
 -1       309    3    0    1
 -2       554      1281      2251      2389
 -1       310    3    0    1
 -2       574       569      1166      1286
 -1       311    3    0    1
 -2       624       525       636       981
 -1       312    3    0    1
 -2      1970      2041      2124      2126
 -1       313    3    0    1
 -2      1397       881      2056      2097
 -1       314    3    0    1
 -2       690      1005      2068      2242
 -1       315    3    0    1
 -2       103       570       573      1181
 -1       316    3    0    1
 -2       315      1088      1373      2203
 -1       317    3    0    1
 -2        25       586       917      1187
 -1       318    3    0    1
 -2      2559      1248      2634      2670
 -1       319    3    0    1
 -2      1988      2011      2029      2344
 -1       320    3    0    1
 -2      2556      2861      2905      3564
 -1       321    3    0    1
 -2       712      1316       719      2667
 -1       322    3    0    1
 -2       516       525       622       636
 -1       323    3    0    1
 -2      3572      2529      3612      3682
 -1       324    3    0    1
 -2       212      2331      2381      2466
 -1       325    3    0    1
 -2      1544      3085      3163      3469
 -1       326    3    0    1
 -2       425       428       699      1009
 -1       327    3    0    1
 -2       714       198       717      1017
 -1       328    3    0    1
 -2      3138      2977      3622      3627
 -1       329    3    0    1
 -2       162       341       991      2141
 -1       330    3    0    1
 -2       363       976      2160      2324
 -1       331    3    0    1
 -2       807      2254      2432      2455
 -1       332    3    0    1
 -2       378       552       555       945
 -1       333    3    0    1
 -2      3004      2971      3599      3219
 -1       334    3    0    1
 -2       487       953       915       573
 -1       335    3    0    1
 -2      3012      1409      3149      3404
 -1       336    3    0    1
 -2       174      1006      2068      2271
 -1       337    3    0    1
 -2      2250      2396      3503      2752
 -1       338    3    0    1
 -2      2700      2708      3655      3682
 -1       339    3    0    1
 -2       100       101       566       914
 -1       340    3    0    1
 -2        74         9       658      1253
 -1       341    3    0    1
 -2        45      1246       773       241
 -1       342    3    0    1
 -2       405      2356      2370      2417
 -1       343    3    0    1
 -2        25      1163        40       592
 -1       344    3    0    1
 -2       400       399      3578      1797
 -1       345    3    0    1
 -2      2214       328      2365      3502
 -1       346    3    0    1
 -2       510       481       788       798
 -1       347    3    0    1
 -2       923      1337      1066       502
 -1       348    3    0    1
 -2       997      2270      2343      2488
 -1       349    3    0    1
 -2      2898      1474      3017      3049
 -1       350    3    0    1
 -2       270      1062      1063      1969
 -1       351    3    0    1
 -2       324       430      1105      2151
 -1       352    3    0    1
 -2       506       803       815       816
 -1       353    3    0    1
 -2      1119      1122      2168      2274
 -1       354    3    0    1
 -2       486       487       573       581
 -1       355    3    0    1
 -2       491      1329       787       490
 -1       356    3    0    1
 -2       749       755       761      1037
 -1       357    3    0    1
 -2      2141       999      2208      2243
 -1       358    3    0    1
 -2       811        50        54      1215
 -1       359    3    0    1
 -2       786        35       788       929
 -1       360    3    0    1
 -2       115       118       592       963
 -1       361    3    0    1
 -2       786       510       788       798
 -1       362    3    0    1
 -2       116       584       585      1176
 -1       363    3    0    1
 -2      1399       441      2120      2121
 -1       364    3    0    1
 -2      1407       321       440      2078
 -1       365    3    0    1
 -2       852       851      2122      2142
 -1       366    3    0    1
 -2       571       950      2021      2389
 -1       367    3    0    1
 -2      1691      3142      1839      3242
 -1       368    3    0    1
 -2      3504      3574      3660      3464
 -1       369    3    0    1
 -2       707       708      2216      2316
 -1       370    3    0    1
 -2       281       829       286      1206
 -1       371    3    0    1
 -2        53       804       926      1217
 -1       372    3    0    1
 -2       797       798      1054      2335
 -1       373    3    0    1
 -2       486       487       574       916
 -1       374    3    0    1
 -2      2120       895      1399      2121
 -1       375    3    0    1
 -2      1025       396      2051      2298
 -1       376    3    0    1
 -2       488       588       591      1185
 -1       377    3    0    1
 -2      2212      1975      2286      2296
 -1       378    3    0    1
 -2       732      1257       933        76
 -1       379    3    0    1
 -2      2907      1759      1760      3211
 -1       380    3    0    1
 -2       782       783      1050      1190
 -1       381    3    0    1
 -2      1119      2167      2168      2200
 -1       382    3    0    1
 -2       510       481       791       913
 -1       383    3    0    1
 -2      2185      2322      2777      2782
 -1       384    3    0    1
 -2       863      1379      1095      2119
 -1       385    3    0    1
 -2       749       755      1032      1219
 -1       386    3    0    1
 -2      3603      3623      3352      3681
 -1       387    3    0    1
 -2       144       363       976      2160
 -1       388    3    0    1
 -2      2713      2843      2926      3123
 -1       389    3    0    1
 -2      1566      2798      1648      3016
 -1       390    3    0    1
 -2       226      1665      3683      1949
 -1       391    3    0    1
 -2      2051      2181      2196      2298
 -1       392    3    0    1
 -2       776       241       773      1246
 -1       393    3    0    1
 -2      3568      2730      3172      3705
 -1       394    3    0    1
 -2      2537      3636      3646      3654
 -1       395    3    0    1
 -2      2065      2012      2122      2142
 -1       396    3    0    1
 -2       298      1368       308      2142
 -1       397    3    0    1
 -2       467       466       608       967
 -1       398    3    0    1
 -2        22       610      1158      1160
 -1       399    3    0    1
 -2       999       422      2497      3550
 -1       400    3    0    1
 -2       532       731      1030      1245
 -1       401    3    0    1
 -2       804       507       816      1064
 -1       402    3    0    1
 -2       773       526       779      1046
 -1       403    3    0    1
 -2      1299      2133      2326      2460
 -1       404    3    0    1
 -2      1395       877      1394      2111
 -1       405    3    0    1
 -2      1343      2038      2183      2345
 -1       406    3    0    1
 -2       477       551       556       563
 -1       407    3    0    1
 -2      1298       641      2205      2386
 -1       408    3    0    1
 -2      1110      2097      2123      2295
 -1       409    3    0    1
 -2       841      1351       842      2184
 -1       410    3    0    1
 -2        92        31       551       909
 -1       411    3    0    1
 -2      1298      2143      2386      2584
 -1       412    3    0    1
 -2      1254      1248      2559      2817
 -1       413    3    0    1
 -2      3305      3596      3647      3488
 -1       414    3    0    1
 -2        34      1174       552       911
 -1       415    3    0    1
 -2      1981      2323       149      2213
 -1       416    3    0    1
 -2      2110      1311      2159      2169
 -1       417    3    0    1
 -2       990       654      2206      2259
 -1       418    3    0    1
 -2      1996      2016      2075      2103
 -1       419    3    0    1
 -2       481       791       797       798
 -1       420    3    0    1
 -2       561       552       948      1171
 -1       421    3    0    1
 -2       465       609       970      1153
 -1       422    3    0    1
 -2       715      1016      2159      2177
 -1       423    3    0    1
 -2        92       559       551      1172
 -1       424    3    0    1
 -2       421      1090      2005      2024
 -1       425    3    0    1
 -2      1520      1668      3101      3626
 -1       426    3    0    1
 -2      1423      1835      3672      3431
 -1       427    3    0    1
 -2        93       551       556      1282
 -1       428    3    0    1
 -2       525       516       624       636
 -1       429    3    0    1
 -2      2195      2196      2198      2234
 -1       430    3    0    1
 -2       115       118       963      2105
 -1       431    3    0    1
 -2      1101       310      2106      2144
 -1       432    3    0    1
 -2       157       416      2026      2507
 -1       433    3    0    1
 -2       486       570       573      1183
 -1       434    3    0    1
 -2       508      1059      1057       926
 -1       435    3    0    1
 -2       718       534      1258      1262
 -1       436    3    0    1
 -2       579       570       956      1183
 -1       437    3    0    1
 -2       477       551       563       564
 -1       438    3    0    1
 -2       219      2233      2405      2450
 -1       439    3    0    1
 -2      2540      2698      3531      3080
 -1       440    3    0    1
 -2       733      2265      2331      2469
 -1       441    3    0    1
 -2      2520      2247      2586      2777
 -1       442    3    0    1
 -2       375       376       942      2347
 -1       443    3    0    1
 -2      1002      2910      3031      3597
 -1       444    3    0    1
 -2       968       608      2059      2082
 -1       445    3    0    1
 -2       567       104       368       950
 -1       446    3    0    1
 -2      2588      1252      2897      2995
 -1       447    3    0    1
 -2       411       971      3510      1924
 -1       448    3    0    1
 -2      1339       311      1075      2166
 -1       449    3    0    1
 -2      1007       694      1312      2153
 -1       450    3    0    1
 -2      1854       268      3404      3475
 -1       451    3    0    1
 -2      2058      2025      2090      2098
 -1       452    3    0    1
 -2       660       993      1269      1302
 -1       453    3    0    1
 -2       108       404      3690      3699
 -1       454    3    0    1
 -2       480       942       479       912
 -1       455    3    0    1
 -2       144       363      2160      2259
 -1       456    3    0    1
 -2      2023      1977      2076      2394
 -1       457    3    0    1
 -2      1986      1341      2038      2183
 -1       458    3    0    1
 -2      2934      2723      2951      3570
 -1       459    3    0    1
 -2       732      1257       531       933
 -1       460    3    0    1
 -2      1015      2153      2498      3725
 -1       461    3    0    1
 -2       998      2145      2278      2343
 -1       462    3    0    1
 -2       556       560       910       946
 -1       463    3    0    1
 -2       586       595       964      1187
 -1       464    3    0    1
 -2       223      1034      1321      2233
 -1       465    3    0    1
 -2       451       452       677      1132
 -1       466    3    0    1
 -2       128       129       609      1291
 -1       467    3    0    1
 -2       532       731       744      1030
 -1       468    3    0    1
 -2       588       488       600       965
 -1       469    3    0    1
 -2       743      1028      2361      2467
 -1       470    3    0    1
 -2       985       338      2278      2395
 -1       471    3    0    1
 -2        32        95       552      1171
 -1       472    3    0    1
 -2      2030      2010      2077      2139
 -1       473    3    0    1
 -2      1347       377      2393      2472
 -1       474    3    0    1
 -2      1562       147      1563      1587
 -1       475    3    0    1
 -2      3246       438      3676      1932
 -1       476    3    0    1
 -2       455       658       671       672
 -1       477    3    0    1
 -2       465       606       609      1153
 -1       478    3    0    1
 -2      3559      2682      3026      3675
 -1       479    3    0    1
 -2       219       750      1036      1039
 -1       480    3    0    1
 -2      1975      2212      2294      2296
 -1       481    3    0    1
 -2       510      1056       798       786
 -1       482    3    0    1
 -2        53       804       806       926
 -1       483    3    0    1
 -2       323      2256      2260      2353
 -1       484    3    0    1
 -2       730      2046      2388      2396
 -1       485    3    0    1
 -2      1353      2017      2078      2112
 -1       486    3    0    1
 -2      1064       816      1969      2453
 -1       487    3    0    1
 -2       403      1287      3512      1658
 -1       488    3    0    1
 -2      1456      1697      3556      3114
 -1       489    3    0    1
 -2       628       516       635       979
 -1       490    3    0    1
 -2       992      1303      1967      2351
 -1       491    3    0    1
 -2       817       818      1208      1337
 -1       492    3    0    1
 -2      1194      1192      2660      2984
 -1       493    3    0    1
 -2       310      1384       389      2144
 -1       494    3    0    1
 -2       654       646       988       989
 -1       495    3    0    1
 -2       623      2138      2189      2204
 -1       496    3    0    1
 -2        76       732       937      1276
 -1       497    3    0    1
 -2      2016       253      2075      2103
 -1       498    3    0    1
 -2      1980      1974      2036      2096
 -1       499    3    0    1
 -2      2096      2064      2104      2132
 -1       500    3    0    1
 -2      1306      1001      2107      2271
 -1       501    3    0    1
 -2        31       551       556       910
 -1       502    3    0    1
 -2      2290      1289      2403      3521
 -1       503    3    0    1
 -2      2063      2129      2149      2199
 -1       504    3    0    1
 -2      1532      1533      2666      1659
 -1       505    3    0    1
 -2       587       957      1289      2512
 -1       506    3    0    1
 -2        34      1174        95       552
 -1       507    3    0    1
 -2       825       820       921      1335
 -1       508    3    0    1
 -2       130      1977      2092      2394
 -1       509    3    0    1
 -2       449       558      1489      2624
 -1       510    3    0    1
 -2       257       345      1330      2175
 -1       511    3    0    1
 -2       713       534       718      1262
 -1       512    3    0    1
 -2      2442      1030      2543      3526
 -1       513    3    0    1
 -2       582       574       954       955
 -1       514    3    0    1
 -2       488       489       591       599
 -1       515    3    0    1
 -2      1337       923       818      1208
 -1       516    3    0    1
 -2       477       555       563       945
 -1       517    3    0    1
 -2       555       562       945      1170
 -1       518    3    0    1
 -2       479      1174       941       480
 -1       519    3    0    1
 -2      1299       984      2133      2279
 -1       520    3    0    1
 -2        31       551       909      1168
 -1       521    3    0    1
 -2      1368       298      1365      2142
 -1       522    3    0    1
 -2      2798      1562      3016      3066
 -1       523    3    0    1
 -2       426      2116      2211      2516
 -1       524    3    0    1
 -2       996      1005      2431      2558
 -1       525    3    0    1
 -2       900       458      2556      2905
 -1       526    3    0    1
 -2       984       643      2133      2279
 -1       527    3    0    1
 -2      1438      1856      1857      3281
 -1       528    3    0    1
 -2         1      3664      3718      3496
 -1       529    3    0    1
 -2       364      1981      2081      2374
 -1       530    3    0    1
 -2      2262       220      2357      2438
 -1       531    3    0    1
 -2      2858      1719      3129      3208
 -1       532    3    0    1
 -2       843      1356      1353      2017
 -1       533    3    0    1
 -2       105       574       916      1184
 -1       534    3    0    1
 -2      1065       385      2284      2428
 -1       535    3    0    1
 -2       162       996       997      2270
 -1       536    3    0    1
 -2      3231      3505      3486      3500
 -1       537    3    0    1
 -2       588       488       591       599
 -1       538    3    0    1
 -2      1095      1379      1998      2119
 -1       539    3    0    1
 -2      3506      2514      3517      3687
 -1       540    3    0    1
 -2      2209       193      2304      2316
 -1       541    3    0    1
 -2       565      1635      1636      3063
 -1       542    3    0    1
 -2       718       725       726      1020
 -1       543    3    0    1
 -2      1080      2289      2076      1082
 -1       544    3    0    1
 -2       610       465       971      1152
 -1       545    3    0    1
 -2       762      2446      2467      2612
 -1       546    3    0    1
 -2      1334       802      1331      2594
 -1       547    3    0    1
 -2      2068       690      2242      2431
 -1       548    3    0    1
 -2       680      2055      2188      2211
 -1       549    3    0    1
 -2       658       991      1255      1304
 -1       550    3    0    1
 -2      1028       212      1031      2361
 -1       551    3    0    1
 -2       588       121       591       960
 -1       552    3    0    1
 -2       500       501       820       832
 -1       553    3    0    1
 -2      3558      3012      3149      3404
 -1       554    3    0    1
 -2      2065      2122      2139      2142
 -1       555    3    0    1
 -2       548       375       376       942
 -1       556    3    0    1
 -2       487       953       573       581
 -1       557    3    0    1
 -2        66       633       142      1235
 -1       558    3    0    1
 -2       972       407      3688      1952
 -1       559    3    0    1
 -2      1049      1326      2355      2504
 -1       560    3    0    1
 -2       385       381      2284      2462
 -1       561    3    0    1
 -2       245       243       770      1045
 -1       562    3    0    1
 -2      1407      1121      2078      2120
 -1       563    3    0    1
 -2       966      1293       611      2566
 -1       564    3    0    1
 -2       788       786      1051      1188
 -1       565    3    0    1
 -2       316      1352      2036      2180
 -1       566    3    0    1
 -2       646       653       654       988
 -1       567    3    0    1
 -2      2033      2009      2110      2310
 -1       568    3    0    1
 -2       168       339      2278      2337
 -1       569    3    0    1
 -2       677       689       690      1005
 -1       570    3    0    1
 -2        21       133       606      1155
 -1       571    3    0    1
 -2       486       569       582       955
 -1       572    3    0    1
 -2       885      1119      2168      2200
 -1       573    3    0    1
 -2       624       525       981      1235
 -1       574    3    0    1
 -2      1573      3640      3316      3334
 -1       575    3    0    1
 -2      1482      1481      3181      1936
 -1       576    3    0    1
 -2       293      1349       296      2006
 -1       577    3    0    1
 -2       617      2321      2470      2485
 -1       578    3    0    1
 -2       983       524       985      1242
 -1       579    3    0    1
 -2      1378       863      1377      2114
 -1       580    3    0    1
 -2      2006      1985      2294      2296
 -1       581    3    0    1
 -2      3574      3586      3201      3343
 -1       582    3    0    1
 -2       570       486       582       956
 -1       583    3    0    1
 -2      1023       730      2046      2471
 -1       584    3    0    1
 -2       481      1054       797       791
 -1       585    3    0    1
 -2       569       400       574       955
 -1       586    3    0    1
 -2       981      2158      2259      2321
 -1       587    3    0    1
 -2      2881      2798      2939      3066
 -1       588    3    0    1
 -2       593      1289      2220      2290
 -1       589    3    0    1
 -2       362       315      2104      2203
 -1       590    3    0    1
 -2      2118      2178      2239      2382
 -1       591    3    0    1
 -2       514      1322      1225      1033
 -1       592    3    0    1
 -2       591        36        37      1185
 -1       593    3    0    1
 -2       229       228       755       902
 -1       594    3    0    1
 -2       477       946       563       556
 -1       595    3    0    1
 -2       414       409       628      1297
 -1       596    3    0    1
 -2      1066      1972      2045      2236
 -1       597    3    0    1
 -2       735      1318      2309      2329
 -1       598    3    0    1
 -2       707       708      1013      2216
 -1       599    3    0    1
 -2      2017       843      1355      2112
 -1       600    3    0    1
 -2      1442      1612      3044      3590
 -1       601    3    0    1
 -2       574       578       916       954
 -1       602    3    0    1
 -2       624       516       635       636
 -1       603    3    0    1
 -2       395       396       728      1025
 -1       604    3    0    1
 -2      2061      2522      3638      3735
 -1       605    3    0    1
 -2       270       350      3508      3728
 -1       606    3    0    1
 -2       770        68       778      1247
 -1       607    3    0    1
 -2      1305      2910      3597      3668
 -1       608    3    0    1
 -2       755       343      1032      1323
 -1       609    3    0    1
 -2        11      1273       700        12
 -1       610    3    0    1
 -2      1440      1576      1577      3155
 -1       611    3    0    1
 -2       345       257       785      1055
 -1       612    3    0    1
 -2      1323      1032       756      2342
 -1       613    3    0    1
 -2       690      1003      1006      2068
 -1       614    3    0    1
 -2      1052      1332      2257      3557
 -1       615    3    0    1
 -2       552       911       941       943
 -1       616    3    0    1
 -2       551        93       940      1282
 -1       617    3    0    1
 -2       682       999      1148      1150
 -1       618    3    0    1
 -2       321      1356       440      2078
 -1       619    3    0    1
 -2       198       202       717      1017
 -1       620    3    0    1
 -2       220      2305      2357      2438
 -1       621    3    0    1
 -2      2621      2741      3558      3012
 -1       622    3    0    1
 -2       875      1393      1390      2108
 -1       623    3    0    1
 -2       586       115       963       964
 -1       624    3    0    1
 -2      2264       396      2265      2298
 -1       625    3    0    1
 -2      1428      2653      3050      3445
 -1       626    3    0    1
 -2       950       368      2176      2382
 -1       627    3    0    1
 -2      2131       626      2324      2385
 -1       628    3    0    1
 -2       423      2030      2057      2113
 -1       629    3    0    1
 -2       453      1039       750       897
 -1       630    3    0    1
 -2      2964      3558      3119      3609
 -1       631    3    0    1
 -2      2511      2777      3711      3715
 -1       632    3    0    1
 -2       427       999      1308      2208
 -1       633    3    0    1
 -2      3668      3299      3671      3702
 -1       634    3    0    1
 -2      3328      2783      3682      3701
 -1       635    3    0    1
 -2      2011      1281      2021      2389
 -1       636    3    0    1
 -2       736      1526      2692      3637
 -1       637    3    0    1
 -2       737       731      1251      1319
 -1       638    3    0    1
 -2       791       510       913       928
 -1       639    3    0    1
 -2      2118      1984      2155      2354
 -1       640    3    0    1
 -2       453       749       761       762
 -1       641    3    0    1
 -2      2030      2071      2240      2266
 -1       642    3    0    1
 -2       719       712      1313      2388
 -1       643    3    0    1
 -2       770       768      1043      1196
 -1       644    3    0    1
 -2      2031      1986      2083      2091
 -1       645    3    0    1
 -2      1395       308      2012      2111
 -1       646    3    0    1
 -2      2765      2573      3533      3569
 -1       647    3    0    1
 -2         2      1935      1941      1942
 -1       648    3    0    1
 -2      1056       798      2154      2377
 -1       649    3    0    1
 -2       551        31       556      1168
 -1       650    3    0    1
 -2       402       960      2410      2474
 -1       651    3    0    1
 -2      2109      1987      2165      2287
 -1       652    3    0    1
 -2      3571      3516      3616      3303
 -1       653    3    0    1
 -2      1311      1008      2169      2240
 -1       654    3    0    1
 -2       225      1965      2217      2305
 -1       655    3    0    1
 -2      2377      1046      2603      3530
 -1       656    3    0    1
 -2      1512      1513      1726      3273
 -1       657    3    0    1
 -2      3255       408      1813      1812
 -1       658    3    0    1
 -2       130      2073      2210      2303
 -1       659    3    0    1
 -2       144       624       627       978
 -1       660    3    0    1
 -2       407       406      3688      1952
 -1       661    3    0    1
 -2         9        74       658      1138
 -1       662    3    0    1
 -2      2422       272      2480      2486
 -1       663    3    0    1
 -2       557       568      2230      2282
 -1       664    3    0    1
 -2      1298       986      2143      3579
 -1       665    3    0    1
 -2      2794      1231      2878      3589
 -1       666    3    0    1
 -2      2044      2012      2111      2336
 -1       667    3    0    1
 -2        62        24      1554      2702
 -1       668    3    0    1
 -2      1392      2004      2101      2352
 -1       669    3    0    1
 -2       382      1397      1126      2097
 -1       670    3    0    1
 -2      1115      2076      2179      2191
 -1       671    3    0    1
 -2       531       731       743       744
 -1       672    3    0    1
 -2       569       486       574      1184
 -1       673    3    0    1
 -2       277       386      1972      2328
 -1       674    3    0    1
 -2      1211      2594      2641      2710
 -1       675    3    0    1
 -2       239       768       770      1196
 -1       676    3    0    1
 -2       454       464       645       903
 -1       677    3    0    1
 -2       589       482       959      1288
 -1       678    3    0    1
 -2      1305      2243      2406      3536
 -1       679    3    0    1
 -2       750       762      1036      1039
 -1       680    3    0    1
 -2      1248       530      2559      2634
 -1       681    3    0    1
 -2      1998      1379       392      2086
 -1       682    3    0    1
 -2       553      1281       554       479
 -1       683    3    0    1
 -2       352      2232      3528      3686
 -1       684    3    0    1
 -2       737       531       743      1029
 -1       685    3    0    1
 -2        81       714       717      1277
 -1       686    3    0    1
 -2        78        79       713      1262
 -1       687    3    0    1
 -2       984       643      1299      2133
 -1       688    3    0    1
 -2       115       586       592      1289
 -1       689    3    0    1
 -2       587       575      2220      2555
 -1       690    3    0    1
 -2      2033      2009      2117      2260
 -1       691    3    0    1
 -2       515       514      1034      1224
 -1       692    3    0    1
 -2      2471      1316      3045      3582
 -1       693    3    0    1
 -2       304      1385       305      2182
 -1       694    3    0    1
 -2      1000       538      1260      1268
 -1       695    3    0    1
 -2      2219      1057      2238      2486
 -1       696    3    0    1
 -2      2700       919      2708      2784
 -1       697    3    0    1
 -2      2027      1987      2088      2109
 -1       698    3    0    1
 -2       660       671       995       998
 -1       699    3    0    1
 -2       958      1178       482       960
 -1       700    3    0    1
 -2      1988      2011      2083      2176
 -1       701    3    0    1
 -2      2062      1990      2097      2123
 -1       702    3    0    1
 -2       531       532       731       744
 -1       703    3    0    1
 -2       975      2073      2082      2130
 -1       704    3    0    1
 -2       645       454       653       654
 -1       705    3    0    1
 -2      3447      3656      3721      3735
 -1       706    3    0    1
 -2       241       776       246      1246
 -1       707    3    0    1
 -2       869      1385      1100      2182
 -1       708    3    0    1
 -2      1704      1469      2953      3003
 -1       709    3    0    1
 -2       576       565      1721      3063
 -1       710    3    0    1
 -2       359      1977      2076      2368
 -1       711    3    0    1
 -2       734       742      1028      1257
 -1       712    3    0    1
 -2       516       624       627      1228
 -1       713    3    0    1
 -2      2065      2010      2071      2139
 -1       714    3    0    1
 -2       960       360      2340      2391
 -1       715    3    0    1
 -2       626       625       976      2324
 -1       716    3    0    1
 -2       402       962       973      2275
 -1       717    3    0    1
 -2       146       622       631      1923
 -1       718    3    0    1
 -2      1619      1768      3349      1948
 -1       719    3    0    1
 -2      1696      1413      3552      3735
 -1       720    3    0    1
 -2      3543      1740      2991      3249
 -1       721    3    0    1
 -2      3544      1415      3545      3683
 -1       722    3    0    1
 -2       512       513      2524      2721
 -1       723    3    0    1
 -2      2010      2030      2077      2113
 -1       724    3    0    1
 -2      2891      2526      3046      3295
 -1       725    3    0    1
 -2       132        22       604      1158
 -1       726    3    0    1
 -2       573       486       581       582
 -1       727    3    0    1
 -2      1452      1708      3563      3644
 -1       728    3    0    1
 -2      1021       328      3502      1912
 -1       729    3    0    1
 -2      3554      3515      3556      3632
 -1       730    3    0    1
 -2      2041      2004      2152      2352
 -1       731    3    0    1
 -2      1222      1220      2524      2681
 -1       732    3    0    1
 -2       533       718       725       726
 -1       733    3    0    1
 -2       488       586       964      1187
 -1       734    3    0    1
 -2      2034      1994      2043      2186
 -1       735    3    0    1
 -2       677       685      1005      1132
 -1       736    3    0    1
 -2      2002       396      2084      2264
 -1       737    3    0    1
 -2       643      2133      2279      2395
 -1       738    3    0    1
 -2      1012       707      2365      3502
 -1       739    3    0    1
 -2       867      1099       868      2034
 -1       740    3    0    1
 -2       464       640       654       989
 -1       741    3    0    1
 -2       488       586       592       599
 -1       742    3    0    1
 -2       643       523       644       983
 -1       743    3    0    1
 -2      2003      1991      2414      2434
 -1       744    3    0    1
 -2       297      1114      1402      2376
 -1       745    3    0    1
 -2        90       711       939      1278
 -1       746    3    0    1
 -2       722       718      1020      1258
 -1       747    3    0    1
 -2      3173      1473      1946      3498
 -1       748    3    0    1
 -2      2016      1996      2093      2186
 -1       749    3    0    1
 -2       610       966      1160      1293
 -1       750    3    0    1
 -2        79        78       713      1144
 -1       751    3    0    1
 -2       976      2163      2324      2444
 -1       752    3    0    1
 -2      2195       216      2381      2399
 -1       753    3    0    1
 -2       453      1039       762       750
 -1       754    3    0    1
 -2      1287       403      3512      3514
 -1       755    3    0    1
 -2      2922      1646      3082      3291
 -1       756    3    0    1
 -2      1598      1808      3200      3283
 -1       757    3    0    1
 -2       732      1257        76       734
 -1       758    3    0    1
 -2       696       541       707       708
 -1       759    3    0    1
 -2      1343      1340      2038      2345
 -1       760    3    0    1
 -2      1976      2053      2092      2245
 -1       761    3    0    1
 -2       660       455       671       672
 -1       762    3    0    1
 -2      1481      1482      1776      3287
 -1       763    3    0    1
 -2       792       784      2241      2257
 -1       764    3    0    1
 -2       658         9       664      1255
 -1       765    3    0    1
 -2      2116       426      2317      2516
 -1       766    3    0    1
 -2       317       421      1084      2090
 -1       767    3    0    1
 -2      1101       869      1384      2315
 -1       768    3    0    1
 -2       531       734      1028      1257
 -1       769    3    0    1
 -2      2009      2033      2256      2260
 -1       770    3    0    1
 -2      1449      1450      2693      3393
 -1       771    3    0    1
 -2       882      1127      1112      2341
 -1       772    3    0    1
 -2       876       875      2101      2108
 -1       773    3    0    1
 -2       856       855      2157      2207
 -1       774    3    0    1
 -2        42        41       785      1193
 -1       775    3    0    1
 -2      2578       343      3698      3723
 -1       776    3    0    1
 -2       189      1007      1312      2390
 -1       777    3    0    1
 -2       604       610       966      1158
 -1       778    3    0    1
 -2       524       644       983       985
 -1       779    3    0    1
 -2       199      1016      1970      2177
 -1       780    3    0    1
 -2       635       622       979       980
 -1       781    3    0    1
 -2      2770      2681      3565      3637
 -1       782    3    0    1
 -2       609       616       970      1153
 -1       783    3    0    1
 -2       658       667       997      1138
 -1       784    3    0    1
 -2      3387      1849      1935      1961
 -1       785    3    0    1
 -2       523       524       983      1241
 -1       786    3    0    1
 -2       622       628       635       979
 -1       787    3    0    1
 -2       696      1274       699       541
 -1       788    3    0    1
 -2      1658      1532      3535      3182
 -1       789    3    0    1
 -2      2236      2359      2428      2455
 -1       790    3    0    1
 -2       896      1408      2152      2256
 -1       791    3    0    1
 -2       546      1314       545       715
 -1       792    3    0    1
 -2       112       953      2363      2417
 -1       793    3    0    1
 -2       392      2086      1379       314
 -1       794    3    0    1
 -2      3515      3504      3563      3632
 -1       795    3    0    1
 -2       803       348      1063      1955
 -1       796    3    0    1
 -2       414      2429      3704      3729
 -1       797    3    0    1
 -2       479       943       941       911
 -1       798    3    0    1
 -2        73        71      1837      1838
 -1       799    3    0    1
 -2       464       640       646       654
 -1       800    3    0    1
 -2       678       451       690      1006
 -1       801    3    0    1
 -2      1247       768       239       930
 -1       802    3    0    1
 -2       641      1298      2143      2386
 -1       803    3    0    1
 -2      2073      2082      2130      2303
 -1       804    3    0    1
 -2      1325      2283      2302      2364
 -1       805    3    0    1
 -2       624       144       627       976
 -1       806    3    0    1
 -2       718       533      1020      1258
 -1       807    3    0    1
 -2       642       651       903       990
 -1       808    3    0    1
 -2      2733      3636      3641      3646
 -1       809    3    0    1
 -2      2144      2085      2182      2315
 -1       810    3    0    1
 -2       105        38       574      1184
 -1       811    3    0    1
 -2      2954      2733      3641      3646
 -1       812    3    0    1
 -2       514      1322      1033       753
 -1       813    3    0    1
 -2       524       983      1241      1242
 -1       814    3    0    1
 -2       572       949       951      2420
 -1       815    3    0    1
 -2      1748      2778      3024      3619
 -1       816    3    0    1
 -2       321      1407      1121      2078
 -1       817    3    0    1
 -2      3152      3170      3185      3668
 -1       818    3    0    1
 -2       539      1302       993       661
 -1       819    3    0    1
 -2      2733      2632      2947      3641
 -1       820    3    0    1
 -2         3       677       682      1133
 -1       821    3    0    1
 -2       907      2569      3057      2960
 -1       822    3    0    1
 -2       388       384      2359      2416
 -1       823    3    0    1
 -2      2034      1996      2103      2186
 -1       824    3    0    1
 -2       537      1306      1001       679
 -1       825    3    0    1
 -2       879      1123       889      2171
 -1       826    3    0    1
 -2      1981      2039      2157      2207
 -1       827    3    0    1
 -2       570       102       573       951
 -1       828    3    0    1
 -2       489       963       599       592
 -1       829    3    0    1
 -2       431      2077      2121      2122
 -1       830    3    0    1
 -2        64         6       645      1137
 -1       831    3    0    1
 -2        32       552       561      1171
 -1       832    3    0    1
 -2      2008      1356      2017      2078
 -1       833    3    0    1
 -2       695      1273       541       700
 -1       834    3    0    1
 -2      1967       420      2037      2327
 -1       835    3    0    1
 -2       751       753      1033      2272
 -1       836    3    0    1
 -2       623       611      1294      2138
 -1       837    3    0    1
 -2       704       700      1012      1273
 -1       838    3    0    1
 -2      1439      1438      2676      1857
 -1       839    3    0    1
 -2      2507       988      3518      1733
 -1       840    3    0    1
 -2      1494      1493      1730      3042
 -1       841    3    0    1
 -2      2033      2110      2126      2235
 -1       842    3    0    1
 -2       731       208      1023      1319
 -1       843    3    0    1
 -2       695      1142       899        11
 -1       844    3    0    1
 -2      2029      2031      2083      2344
 -1       845    3    0    1
 -2      1178       958       588       960
 -1       846    3    0    1
 -2       243       768      1045      1048
 -1       847    3    0    1
 -2       892      1404      2056      2227
 -1       848    3    0    1
 -2       700       542      1012      1273
 -1       849    3    0    1
 -2       115       957      1289      2383
 -1       850    3    0    1
 -2      1885      3266      1488      1487
 -1       851    3    0    1
 -2       690       689      1003      2068
 -1       852    3    0    1
 -2       343       227       755      1032
 -1       853    3    0    1
 -2       419       367       663       995
 -1       854    3    0    1
 -2       201       713       718      1316
 -1       855    3    0    1
 -2       740       737      1029      1256
 -1       856    3    0    1
 -2       718       533       725      1020
 -1       857    3    0    1
 -2       466      1291       968       607
 -1       858    3    0    1
 -2       606       465       617       618
 -1       859    3    0    1
 -2       599       600       964      2105
 -1       860    3    0    1
 -2       984       523      1243      1299
 -1       861    3    0    1
 -2       485       572       949       951
 -1       862    3    0    1
 -2      2412      2429      3427      3729
 -1       863    3    0    1
 -2       516       627       635       978
 -1       864    3    0    1
 -2      1994       253      2080      2103
 -1       865    3    0    1
 -2       606        21       609      1153
 -1       866    3    0    1
 -2       714       534       717       726
 -1       867    3    0    1
 -2      3564      2580      3659      3358
 -1       868    3    0    1
 -2      2889      1601      1862      1863
 -1       869    3    0    1
 -2      1556      1555      1705      3036
 -1       870    3    0    1
 -2      2539      3506      3517      3663
 -1       871    3    0    1
 -2      2014      2022      2349      2372
 -1       872    3    0    1
 -2      1291       968       607      2397
 -1       873    3    0    1
 -2      1994       304      2043      2182
 -1       874    3    0    1
 -2        83        81       714      1261
 -1       875    3    0    1
 -2        70       209       731      1245
 -1       876    3    0    1
 -2       386      1066      1972      2045
 -1       877    3    0    1
 -2       385       381      1065      2284
 -1       878    3    0    1
 -2       723       714      1022      1261
 -1       879    3    0    1
 -2      1330       257      2175      2454
 -1       880    3    0    1
 -2      2044      2012      2065      2142
 -1       881    3    0    1
 -2      2019      1997      2053      2413
 -1       882    3    0    1
 -2      1041       391      2229      2263
 -1       883    3    0    1
 -2       228       757       749      1135
 -1       884    3    0    1
 -2      1316      2388      2471      3045
 -1       885    3    0    1
 -2       542       541       700       707
 -1       886    3    0    1
 -2       427      1004      3684      1944
 -1       887    3    0    1
 -2      2109      1343      2183      2345
 -1       888    3    0    1
 -2       481       510       788       929
 -1       889    3    0    1
 -2       514       515       751      1033
 -1       890    3    0    1
 -2        34      1171       552        95
 -1       891    3    0    1
 -2      1971       370      2018      2223
 -1       892    3    0    1
 -2       586      1163       906        25
 -1       893    3    0    1
 -2       121       360       591       960
 -1       894    3    0    1
 -2      2673      2852      3536      3576
 -1       895    3    0    1
 -2       611       969      1294      2138
 -1       896    3    0    1
 -2       588       488       599       600
 -1       897    3    0    1
 -2      2002      1400      2168      2200
 -1       898    3    0    1
 -2       464       454       645       654
 -1       899    3    0    1
 -2       140        67       628      1227
 -1       900    3    0    1
 -2      1291       904       609      1155
 -1       901    3    0    1
 -2      2827      1454      1716      1717
 -1       902    3    0    1
 -2       595       586       964      1953
 -1       903    3    0    1
 -2       515      1321      1034       751
 -1       904    3    0    1
 -2       645         6       652      1137
 -1       905    3    0    1
 -2      1485      1474      2763      2814
 -1       906    3    0    1
 -2       696      1265      1009       699
 -1       907    3    0    1
 -2       711       418      1016      1315
 -1       908    3    0    1
 -2       626      2280      2324      2385
 -1       909    3    0    1
 -2      2104      2192      2202      2463
 -1       910    3    0    1
 -2       453       461       749      1135
 -1       911    3    0    1
 -2       205      1275       207       729
 -1       912    3    0    1
 -2       732       734       937      1026
 -1       913    3    0    1
 -2       939      1315       711      1016
 -1       914    3    0    1
 -2       487       954       581       574
 -1       915    3    0    1
 -2       540      1303       539       662
 -1       916    3    0    1
 -2       695       700       707      1012
 -1       917    3    0    1
 -2       617       604       971       972
 -1       918    3    0    1
 -2       872      2129      1103       871
 -1       919    3    0    1
 -2       440      1356      2008      2078
 -1       920    3    0    1
 -2      2088      2028      2099      2346
 -1       921    3    0    1
 -2      2870      1678      3584      1894
 -1       922    3    0    1
 -2       392       314      1102      2086
 -1       923    3    0    1
 -2      1315       939       711      1278
 -1       924    3    0    1
 -2       228       749       755       902
 -1       925    3    0    1
 -2      2082       625      2130      2280
 -1       926    3    0    1
 -2       861      1376      1093      2147
 -1       927    3    0    1
 -2       992       661      2281      2326
 -1       928    3    0    1
 -2       168       998      2145      2337
 -1       929    3    0    1
 -2       383      2003      2014      2379
 -1       930    3    0    1
 -2       581       600      2447      3690
 -1       931    3    0    1
 -2      1785      1813       408       125
 -1       932    3    0    1
 -2       677       452       682      1133
 -1       933    3    0    1
 -2       551       477       556       910
 -1       934    3    0    1
 -2       635       636       980      2158
 -1       935    3    0    1
 -2      1083      2025      2058      2451
 -1       936    3    0    1
 -2      2027       277      2028      2267
 -1       937    3    0    1
 -2       172      1000      2172      2225
 -1       938    3    0    1
 -2      1475      1474      2898      3049
 -1       939    3    0    1
 -2      1973      2040      2264      2298
 -1       940    3    0    1
 -2      2447       600      2546      3690
 -1       941    3    0    1
 -2       408      1813      1814       125
 -1       942    3    0    1
 -2       558       449      2627      2924
 -1       943    3    0    1
 -2      1974       364      1982      2081
 -1       944    3    0    1
 -2       228       229       755      1219
 -1       945    3    0    1
 -2       547       548       912       942
 -1       946    3    0    1
 -2      2592      1489      1583      3226
 -1       947    3    0    1
 -2      1355      2017      2112      2334
 -1       948    3    0    1
 -2       682       452      1004      1133
 -1       949    3    0    1
 -2        46       820      1204      1207
 -1       950    3    0    1
 -2       366      2050      2089      2460
 -1       951    3    0    1
 -2       465       470       606      1153
 -1       952    3    0    1
 -2       768       511       779       780
 -1       953    3    0    1
 -2       568       473      2562      2796
 -1       954    3    0    1
 -2      1282       909       551      1168
 -1       955    3    0    1
 -2      2110      2159      2177      2235
 -1       956    3    0    1
 -2       132       604      1152      1161
 -1       957    3    0    1
 -2       478       551       947      1172
 -1       958    3    0    1
 -2       600       599       965      2447
 -1       959    3    0    1
 -2       566       104       950      1285
 -1       960    3    0    1
 -2      2479      2612      3416      3696
 -1       961    3    0    1
 -2       489       591       599       962
 -1       962    3    0    1
 -2        40        25       592       917
 -1       963    3    0    1
 -2       586       592       599       963
 -1       964    3    0    1
 -2      1974       364      2081      2374
 -1       965    3    0    1
 -2      1361       297      2373      2376
 -1       966    3    0    1
 -2      1284        94      3575      3648
 -1       967    3    0    1
 -2       584       959      1179      1288
 -1       968    3    0    1
 -2      3282      3682      3407      3701
 -1       969    3    0    1
 -2       971       617      2470      2485
 -1       970    3    0    1
 -2      1521      1537      2957      3339
 -1       971    3    0    1
 -2      2104      1373      2132      2203
 -1       972    3    0    1
 -2      1977      2072      2076      2394
 -1       973    3    0    1
 -2       116      1179       584      1176
 -1       974    3    0    1
 -2       708       707      1014      2316
 -1       975    3    0    1
 -2      2032      2063      2115      2217
 -1       976    3    0    1
 -2      1012       707      2216      2316
 -1       977    3    0    1
 -2       592       596       917       963
 -1       978    3    0    1
 -2      1360       847       848      2289
 -1       979    3    0    1
 -2      2989      2705      3260      3642
 -1       980    3    0    1
 -2      3293      3236      3670      3471
 -1       981    3    0    1
 -2       631        67       141      1244
 -1       982    3    0    1
 -2      1091      1374      2125      2137
 -1       983    3    0    1
 -2       633       624       981      1235
 -1       984    3    0    1
 -2      1987      2165      2287      2411
 -1       985    3    0    1
 -2       244        68       770      1247
 -1       986    3    0    1
 -2       606       615       905       973
 -1       987    3    0    1
 -2       212      1031      2361      2381
 -1       988    3    0    1
 -2       452       681      1003      1134
 -1       989    3    0    1
 -2      2047      2063      2224      2277
 -1       990    3    0    1
 -2      1281       912       547      1173
 -1       991    3    0    1
 -2       257      1054      1055      2335
 -1       992    3    0    1
 -2      1495      1496      2923      3076
 -1       993    3    0    1
 -2       551       563       564       947
 -1       994    3    0    1
 -2      2086      1104      2129      2148
 -1       995    3    0    1
 -2      1983      2039      2125      2366
 -1       996    3    0    1
 -2      2196       716      2198      2234
 -1       997    3    0    1
 -2       624       144       976      1295
 -1       998    3    0    1
 -2      2036      1980      2096      2132
 -1       999    3    0    1
 -2       532      1031       744       732
 -1      1000    3    0    1
 -2      2284       288      2426      2476
 -1      1001    3    0    1
 -2       441      2077      2120      2121
 -1      1002    3    0    1
 -2       465       470       604       618
 -1      1003    3    0    1
 -2      2087      1976      2102      2311
 -1      1004    3    0    1
 -2       620      1234       975      1229
 -1      1005    3    0    1
 -2       816      1063      1969      2453
 -1      1006    3    0    1
 -2      2070      2001      2299      2448
 -1      1007    3    0    1
 -2       213       394      1028      2466
 -1      1008    3    0    1
 -2      1780      1638      1781      3237
 -1      1009    3    0    1
 -2      2853      2923      3565      3401
 -1      1010    3    0    1
 -2       813        53       804      1214
 -1      1011    3    0    1
 -2       345      2175      2454      2483
 -1      1012    3    0    1
 -2      1124       359      1977      2076
 -1      1013    3    0    1
 -2      1081       847      2289      2368
 -1      1014    3    0    1
 -2       486       574       581       582
 -1      1015    3    0    1
 -2       573       570       951      1181
 -1      1016    3    0    1
 -2        67       622      1227      1244
 -1      1017    3    0    1
 -2       570       486       573       582
 -1      1018    3    0    1
 -2      2399      1019      2442      2482
 -1      1019    3    0    1
 -2      2004      2041      2101      2352
 -1      1020    3    0    1
 -2      1395       298       308      2111
 -1      1021    3    0    1
 -2       825       828      1070      1677
 -1      1022    3    0    1
 -2       439       332      3586      1861
 -1      1023    3    0    1
 -2      1360      2060      2166      2289
 -1      1024    3    0    1
 -2       489       591       962      1185
 -1      1025    3    0    1
 -2       486       569       574       582
 -1      1026    3    0    1
 -2       482      1179       959      1288
 -1      1027    3    0    1
 -2       302      1375       374      2313
 -1      1028    3    0    1
 -2       820       280      1070      1071
 -1      1029    3    0    1
 -2       411       407       610       966
 -1      1030    3    0    1
 -2      2929      3538      3002      3640
 -1      1031    3    0    1
 -2      2527      3527      2877      3606
 -1      1032    3    0    1
 -2       488       586       599       600
 -1      1033    3    0    1
 -2      2660      2730      3568      3639
 -1      1034    3    0    1
 -2       680       679      1001      2107
 -1      1035    3    0    1
 -2      3664      3610      3679      3718
 -1      1036    3    0    1
 -2       506       804       806      1213
 -1      1037    3    0    1
 -2       384       385      1065      2428
 -1      1038    3    0    1
 -2       470       973       618       606
 -1      1039    3    0    1
 -2       551       556       563       946
 -1      1040    3    0    1
 -2       747       746      1225      1322
 -1      1041    3    0    1
 -2       883      1115      2179      2191
 -1      1042    3    0    1
 -2       610       411       966      1293
 -1      1043    3    0    1
 -2      2122      2077      2139      2142
 -1      1044    3    0    1
 -2      2623       498      2781      3317
 -1      1045    3    0    1
 -2       293      1077      2006      2066
 -1      1046    3    0    1
 -2      1519      1810      3314      3408
 -1      1047    3    0    1
 -2      1012       707      2316      2365
 -1      1048    3    0    1
 -2      2687      2703      3553      3614
 -1      1049    3    0    1
 -2      2106      1405      2140      2144
 -1      1050    3    0    1
 -2      2127      1117      2433      2436
 -1      1051    3    0    1
 -2       675       674      1268      1307
 -1      1052    3    0    1
 -2       587       593       961      2512
 -1      1053    3    0    1
 -2      1290       969       605      2138
 -1      1054    3    0    1
 -2      1250      2897      1817      3310
 -1      1055    3    0    1
 -2      1295      2059      2160      2280
 -1      1056    3    0    1
 -2       587       593      1289      2220
 -1      1057    3    0    1
 -2      1307      1000       680      2107
 -1      1058    3    0    1
 -2       624        61       627      1228
 -1      1059    3    0    1
 -2        38       569       574      1184
 -1      1060    3    0    1
 -2       597       588       965      1186
 -1      1061    3    0    1
 -2       407       604       610       966
 -1      1062    3    0    1
 -2      2290      2285      3512      3628
 -1      1063    3    0    1
 -2       671       995      2339      2431
 -1      1064    3    0    1
 -2       277      1337      2267      2328
 -1      1065    3    0    1
 -2      1610      3103      3640      3334
 -1      1066    3    0    1
 -2       953       581       965      2461
 -1      1067    3    0    1
 -2      1061       267      1064      1969
 -1      1068    3    0    1
 -2       128       606       970       973
 -1      1069    3    0    1
 -2      1828      3198      3210      1883
 -1      1070    3    0    1
 -2       820        46       825       921
 -1      1071    3    0    1
 -2      1496      2923      3076      3401
 -1      1072    3    0    1
 -2      1543      3519      1675      3389
 -1      1073    3    0    1
 -2      2713      2926      2975      3123
 -1      1074    3    0    1
 -2       172       675       423      1307
 -1      1075    3    0    1
 -2       588      1178        36      1177
 -1      1076    3    0    1
 -2       118       115       592      1289
 -1      1077    3    0    1
 -2       639       984      1243      1299
 -1      1078    3    0    1
 -2      3670      3317      3380      3736
 -1      1079    3    0    1
 -2       109       357       956      2425
 -1      1080    3    0    1
 -2      1005       422      2068      2242
 -1      1081    3    0    1
 -2       988       653      2412      2507
 -1      1082    3    0    1
 -2       870       869      1101      2315
 -1      1083    3    0    1
 -2      2067       376      2165      2347
 -1      1084    3    0    1
 -2       646       650       988      1733
 -1      1085    3    0    1
 -2       329       196      2920      1875
 -1      1086    3    0    1
 -2       381       824      1065      1067
 -1      1087    3    0    1
 -2       672       671       998      2145
 -1      1088    3    0    1
 -2       465       604       617       618
 -1      1089    3    0    1
 -2       786      1051      1191      1328
 -1      1090    3    0    1
 -2       786      1051      1188      1191
 -1      1091    3    0    1
 -2      1402       883       890      2179
 -1      1092    3    0    1
 -2       608      1292      2210      2303
 -1      1093    3    0    1
 -2      1378       312      2093      2333
 -1      1094    3    0    1
 -2       551        93       556       946
 -1      1095    3    0    1
 -2      1420      2521      1913      3476
 -1      1096    3    0    1
 -2      2080      2069      2085      2164
 -1      1097    3    0    1
 -2      2664      1485      2903      3438
 -1      1098    3    0    1
 -2       488       489       592       917
 -1      1099    3    0    1
 -2       646       454       988      1136
 -1      1100    3    0    1
 -2       480       942       553       479
 -1      1101    3    0    1
 -2      2014      2003      2197      2414
 -1      1102    3    0    1
 -2       267       272       804      1064
 -1      1103    3    0    1
 -2      2253       166      2297      2339
 -1      1104    3    0    1
 -2       954       581      2417      3690
 -1      1105    3    0    1
 -2      1603       340      1604      3272
 -1      1106    3    0    1
 -2       866       865      2099      2346
 -1      1107    3    0    1
 -2      1362       315      1363      2104
 -1      1108    3    0    1
 -2       610       465       617       971
 -1      1109    3    0    1
 -2       506       507       803       816
 -1      1110    3    0    1
 -2      1530      1459      3536      3597
 -1      1111    3    0    1
 -2      2908      2674      3126      3127
 -1      1112    3    0    1
 -2       586       488       592       917
 -1      1113    3    0    1
 -2       570       486       956      1183
 -1      1114    3    0    1
 -2      2007      2025      2049      2094
 -1      1115    3    0    1
 -2       552       477       555       563
 -1      1116    3    0    1
 -2      1071      3508      1921      1922
 -1      1117    3    0    1
 -2       539      1302      1269       993
 -1      1118    3    0    1
 -2       809       506      1062      1212
 -1      1119    3    0    1
 -2       881      1404       892      2227
 -1      1120    3    0    1
 -2       198       714       717      1022
 -1      1121    3    0    1
 -2       497       496       769      1041
 -1      1122    3    0    1
 -2      1012       707      1013      2216
 -1      1123    3    0    1
 -2       714      1017      1279      1314
 -1      1124    3    0    1
 -2       821       501      1072      1206
 -1      1125    3    0    1
 -2      1289       957      2220      2383
 -1      1126    3    0    1
 -2       623       629      2189      2205
 -1      1127    3    0    1
 -2      1987      2038      2109      2165
 -1      1128    3    0    1
 -2       912      1281       942       479
 -1      1129    3    0    1
 -2      2254       387      2379      2401
 -1      1130    3    0    1
 -2       785       510       791       928
 -1      1131    3    0    1
 -2       912      1281       547       942
 -1      1132    3    0    1
 -2       227       336      3696      1930
 -1      1133    3    0    1
 -2       257       785       791      1330
 -1      1134    3    0    1
 -2       255        35       786       929
 -1      1135    3    0    1
 -2      1087       855      1085      2157
 -1      1136    3    0    1
 -2       749       227       755      1037
 -1      1137    3    0    1
 -2       100       566       567       914
 -1      1138    3    0    1
 -2       509      1058       805       508
 -1      1139    3    0    1
 -2       644       985      2133      2395
 -1      1140    3    0    1
 -2       340      1301      1712      3272
 -1      1141    3    0    1
 -2       731      1023      1251      1319
 -1      1142    3    0    1
 -2      2075      1996      2095      2193
 -1      1143    3    0    1
 -2       115       963       964      2105
 -1      1144    3    0    1
 -2       193      2079      2304      2316
 -1      1145    3    0    1
 -2      3287      3109      3647      3488
 -1      1146    3    0    1
 -2      3515      3091      3373      1456
 -1      1147    3    0    1
 -2      2821      1493      1763      1764
 -1      1148    3    0    1
 -2      2084       395      2128      2400
 -1      1149    3    0    1
 -2       489       488       592       599
 -1      1150    3    0    1
 -2       769      1325       771       496
 -1      1151    3    0    1
 -2      2159      1314      2177      2304
 -1      1152    3    0    1
 -2      1979       362      2104      2203
 -1      1153    3    0    1
 -2       370      2286      2294      2296
 -1      1154    3    0    1
 -2       961       593      2220      2290
 -1      1155    3    0    1
 -2      3622      3278      1881      3330
 -1      1156    3    0    1
 -2       516      1235       525       624
 -1      1157    3    0    1
 -2        41        42       785       928
 -1      1158    3    0    1
 -2       509      1058       508       927
 -1      1159    3    0    1
 -2      1374       299      1091      2366
 -1      1160    3    0    1
 -2      1975      1347      2066      2212
 -1      1161    3    0    1
 -2       586       115       592       963
 -1      1162    3    0    1
 -2      1810      1907      1908      3480
 -1      1163    3    0    1
 -2      1407       895      2120      2121
 -1      1164    3    0    1
 -2      1998      2086      2129      2149
 -1      1165    3    0    1
 -2       508      1217      1057       509
 -1      1166    3    0    1
 -2      2237       378      2268      2371
 -1      1167    3    0    1
 -2      2107       680      2188      2211
 -1      1168    3    0    1
 -2       370       369      1975      2286
 -1      1169    3    0    1
 -2       732       212       734      1026
 -1      1170    3    0    1
 -2       957       587      2220      2555
 -1      1171    3    0    1
 -2       481      1054       791       913
 -1      1172    3    0    1
 -2      2072       130      2073      2394
 -1      1173    3    0    1
 -2       791       794       913      1054
 -1      1174    3    0    1
 -2      2138       623      2189      2205
 -1      1175    3    0    1
 -2       381       821       824      1069
 -1      1176    3    0    1
 -2      2205      1298      2386      2584
 -1      1177    3    0    1
 -2      3232      1652      1936      1937
 -1      1178    3    0    1
 -2       695      1273       700        11
 -1      1179    3    0    1
 -2      1405       882      1113      2140
 -1      1180    3    0    1
 -2       687       678      1006      1131
 -1      1181    3    0    1
 -2       489       488       591      1185
 -1      1182    3    0    1
 -2       943       553       941      2371
 -1      1183    3    0    1
 -2       658       162       664       996
 -1      1184    3    0    1
 -2      1748       630      3316      3333
 -1      1185    3    0    1
 -2       774      1044       766      2708
 -1      1186    3    0    1
 -2      2883      3279      3637      3456
 -1      1187    3    0    1
 -2      1669      3242      1871      1872
 -1      1188    3    0    1
 -2       877      2111      2117      2260
 -1      1189    3    0    1
 -2      1302       993       661      2320
 -1      1190    3    0    1
 -2      1026       735      2309      2329
 -1      1191    3    0    1
 -2      1048       391      2398      2418
 -1      1192    3    0    1
 -2      2775      2952      3570      3438
 -1      1193    3    0    1
 -2      2500      2232      2766      3528
 -1      1194    3    0    1
 -2      2240      1008      2252      2266
 -1      1195    3    0    1
 -2      1643       763      1644      2836
 -1      1196    3    0    1
 -2      1978      1995      2072      2073
 -1      1197    3    0    1
 -2       510       785       791       798
 -1      1198    3    0    1
 -2      2052      2062      2227      2401
 -1      1199    3    0    1
 -2      1692       702      3145      3659
 -1      1200    3    0    1
 -2       320       295      2334      2451
 -1      1201    3    0    1
 -2       238      2149      2199      2277
 -1      1202    3    0    1
 -2       500       820       831       832
 -1      1203    3    0    1
 -2      1375       302      1094      2313
 -1      1204    3    0    1
 -2      2901      2736      3572      3674
 -1      1205    3    0    1
 -2       481       510       791       798
 -1      1206    3    0    1
 -2      1989      2146      2295      2325
 -1      1207    3    0    1
 -2       254       260       788      1051
 -1      1208    3    0    1
 -2       937       732      1024      1276
 -1      1209    3    0    1
 -2       452       451       678      1134
 -1      1210    3    0    1
 -2       361       970      2321      2409
 -1      1211    3    0    1
 -2      2031      1986      2091      2147
 -1      1212    3    0    1
 -2        93       352      2230      2689
 -1      1213    3    0    1
 -2      2373      1364      2376      2463
 -1      1214    3    0    1
 -2      1998      2095      2114      2119
 -1      1215    3    0    1
 -2       455       998       672       660
 -1      1216    3    0    1
 -2       461      1037       755       902
 -1      1217    3    0    1
 -2      2293      2215      2424      2426
 -1      1218    3    0    1
 -2       717       714      1017      1277
 -1      1219    3    0    1
 -2       187       429      2012      2044
 -1      1220    3    0    1
 -2       162       991      1304      2141
 -1      1221    3    0    1
 -2       692       184       693      1266
 -1      1222    3    0    1
 -2       953       112       956      2417
 -1      1223    3    0    1
 -2       191       706       699      1274
 -1      1224    3    0    1
 -2      2228      2491      2563      3546
 -1      1225    3    0    1
 -2       151       436      3666      3689
 -1      1226    3    0    1
 -2        50       803      1212      1215
 -1      1227    3    0    1
 -2      1015       712      2388      2498
 -1      1228    3    0    1
 -2       764       236      1042      1325
 -1      1229    3    0    1
 -2      2925      2707      3707      3730
 -1      1230    3    0    1
 -2      2777      2830      3201      3711
 -1      1231    3    0    1
 -2       387      1333      2045      2332
 -1      1232    3    0    1
 -2      1397       382       446      2097
 -1      1233    3    0    1
 -2       365      1350      1981      2015
 -1      1234    3    0    1
 -2       118       115      1289      2383
 -1      1235    3    0    1
 -2      1640      2800      1716      3122
 -1      1236    3    0    1
 -2       839       840      2066      2212
 -1      1237    3    0    1
 -2       466       607       608       967
 -1      1238    3    0    1
 -2      2949       720      1641      3060
 -1      1239    3    0    1
 -2      1625      1626      3192      3323
 -1      1240    3    0    1
 -2       510      1055       928       785
 -1      1241    3    0    1
 -2       378       552       941       943
 -1      1242    3    0    1
 -2       464       454       646      1136
 -1      1243    3    0    1
 -2      2755      3253      3369      3730
 -1      1244    3    0    1
 -2      1087      2039      2157      2366
 -1      1245    3    0    1
 -2      1637      1701      3112      3169
 -1      1246    3    0    1
 -2        72        17      1915      3461
 -1      1247    3    0    1
 -2       325      1079      1359      2173
 -1      1248    3    0    1
 -2       380       378       941      2248
 -1      1249    3    0    1
 -2       220      1033      1965      2300
 -1      1250    3    0    1
 -2      1350       300      1351      2015
 -1      1251    3    0    1
 -2       622      1232       931        67
 -1      1252    3    0    1
 -2       591       598       962      1185
 -1      1253    3    0    1
 -2       531       731      1245      1256
 -1      1254    3    0    1
 -2       696      1274        89       699
 -1      1255    3    0    1
 -2      1460      2823      2824      2889
 -1      1256    3    0    1
 -2      2538      2537      2593      3646
 -1      1257    3    0    1
 -2       998       168      2278      2337
 -1      1258    3    0    1
 -2      2031      2029      2147      2344
 -1      1259    3    0    1
 -2      2048       366      2050      2089
 -1      1260    3    0    1
 -2      1971       370      2294      2437
 -1      1261    3    0    1
 -2      2028       277      2067      2411
 -1      1262    3    0    1
 -2       767        45       773      1195
 -1      1263    3    0    1
 -2      1974      1980      2036      2081
 -1      1264    3    0    1
 -2       640        63       646      1239
 -1      1265    3    0    1
 -2       400       955      2356      2417
 -1      1266    3    0    1
 -2      1606      2823      2889      3336
 -1      1267    3    0    1
 -2       541      1014       708       696
 -1      1268    3    0    1
 -2      1086       365      1981      2207
 -1      1269    3    0    1
 -2      1056      2154      2335      2452
 -1      1270    3    0    1
 -2      1370       853       854      2058
 -1      1271    3    0    1
 -2      1081      1360      2166      2289
 -1      1272    3    0    1
 -2      1008       187      2071      2240
 -1      1273    3    0    1
 -2      1076      2000      2042      2136
 -1      1274    3    0    1
 -2      2287      2067      2347      2456
 -1      1275    3    0    1
 -2      1623      2943      3040      3046
 -1      1276    3    0    1
 -2       535      1265       536      1009
 -1      1277    3    0    1
 -2       589       590      1288      2306
 -1      1278    3    0    1
 -2       954       405      2370      2417
 -1      1279    3    0    1
 -2       481       788      1053      1175
 -1      1280    3    0    1
 -2       832       815      2415      2416
 -1      1281    3    0    1
 -2      2269      2018      2318      2481
 -1      1282    3    0    1
 -2       829       821      1072      1206
 -1      1283    3    0    1
 -2       441       431      2077      2121
 -1      1284    3    0    1
 -2      1317      2396      3602      3634
 -1      1285    3    0    1
 -2       803       811      1063      1215
 -1      1286    3    0    1
 -2        65       639      1240      1243
 -1      1287    3    0    1
 -2       517      1295      1230       976
 -1      1288    3    0    1
 -2       700       704      1012      1911
 -1      1289    3    0    1
 -2      2767      1491      2877      1685
 -1      1290    3    0    1
 -2       726       718      1020      1021
 -1      1291    3    0    1
 -2      2023      1976      2060      2092
 -1      1292    3    0    1
 -2       137       975      1296      1966
 -1      1293    3    0    1
 -2       804        53      1213      1214
 -1      1294    3    0    1
 -2        93       940      1282      2230
 -1      1295    3    0    1
 -2      2226       951      2318      2363
 -1      1296    3    0    1
 -2       482      1178       483       960
 -1      1297    3    0    1
 -2       517      1234       975      1296
 -1      1298    3    0    1
 -2      1986      2038      2165      2183
 -1      1299    3    0    1
 -2       429      1311      2235      2449
 -1      1300    3    0    1
 -2       571       484       572       949
 -1      1301    3    0    1
 -2      2010      2030      2057      2071
 -1      1302    3    0    1
 -2      1386      1103      2148      2358
 -1      1303    3    0    1
 -2      2771      2506      3533      2888
 -1      1304    3    0    1
 -2       786       795       929      1056
 -1      1305    3    0    1
 -2      1440      1441      1577      2837
 -1      1306    3    0    1
 -2       413       412       981      2321
 -1      1307    3    0    1
 -2      2185      2013      2228      2246
 -1      1308    3    0    1
 -2      2131      1982      2221      2279
 -1      1309    3    0    1
 -2       815       832      1061      2416
 -1      1310    3    0    1
 -2       693       692      1266      1311
 -1      1311    3    0    1
 -2      1298       986       647      2143
 -1      1312    3    0    1
 -2       582       581       956      2417
 -1      1313    3    0    1
 -2       967       467      1154      1156
 -1      1314    3    0    1
 -2      2003      2014      2379      2414
 -1      1315    3    0    1
 -2      2888      3024      3619      3285
 -1      1316    3    0    1
 -2        64       645       903      1137
 -1      1317    3    0    1
 -2      1999      2042      2115      2358
 -1      1318    3    0    1
 -2       803       270       809      1062
 -1      1319    3    0    1
 -2        53       813       274      1214
 -1      1320    3    0    1
 -2      1973      1992      2167      2168
 -1      1321    3    0    1
 -2       949       485       951      1181
 -1      1322    3    0    1
 -2      2091      2083      2344      2457
 -1      1323    3    0    1
 -2      2035      2017      2100      2112
 -1      1324    3    0    1
 -2       255       786      1188      1191
 -1      1325    3    0    1
 -2      2335      1054      2453      3697
 -1      1326    3    0    1
 -2      3608      3664      3719      3473
 -1      1327    3    0    1
 -2      2361       743      2467      2612
 -1      1328    3    0    1
 -2       574       581       582       954
 -1      1329    3    0    1
 -2      1981      2015      2081      2374
 -1      1330    3    0    1
 -2      3542      2658      3652      3692
 -1      1331    3    0    1
 -2      1378      2093      2114      2333
 -1      1332    3    0    1
 -2       660      1270       663         7
 -1      1333    3    0    1
 -2      1564      1734      1735      3224
 -1      1334    3    0    1
 -2      1317       730      2540      2588
 -1      1335    3    0    1
 -2      1001      2211      2271      2516
 -1      1336    3    0    1
 -2        22       132       604      1152
 -1      1337    3    0    1
 -2       614       610       971      1152
 -1      1338    3    0    1
 -2      2030      2071      2139      2240
 -1      1339    3    0    1
 -2       423      1307      2055      2188
 -1      1340    3    0    1
 -2      1436      3525      3583      3628
 -1      1341    3    0    1
 -2      1512      1603      1604      2932
 -1      1342    3    0    1
 -2       717       533       725       726
 -1      1343    3    0    1
 -2      2569      2512      2637      2960
 -1      1344    3    0    1
 -2      2713      2496      3555      2975
 -1      1345    3    0    1
 -2      1049       784      2175      2355
 -1      1346    3    0    1
 -2       214        76       734       937
 -1      1347    3    0    1
 -2       733      1026      1024       543
 -1      1348    3    0    1
 -2      2269       121      2391      2447
 -1      1349    3    0    1
 -2       989       416      3729      1963
 -1      1350    3    0    1
 -2       732       743      1028      1031
 -1      1351    3    0    1
 -2       527      1319      1251      1023
 -1      1352    3    0    1
 -2       555       552       563       945
 -1      1353    3    0    1
 -2      1353       843      2017      2112
 -1      1354    3    0    1
 -2       278       282       817      1208
 -1      1355    3    0    1
 -2      1056      1045      2154      2445
 -1      1356    3    0    1
 -2      3516      3571      3616      3635
 -1      1357    3    0    1
 -2       714       198      1017      1314
 -1      1358    3    0    1
 -2       671       995       998      2145
 -1      1359    3    0    1
 -2       226       435      3683      3720
 -1      1360    3    0    1
 -2      2673      2406      3536      3547
 -1      1361    3    0    1
 -2      1274       696        89       936
 -1      1362    3    0    1
 -2      1497      1498      1918      3465
 -1      1363    3    0    1
 -2      2801      1754      3639      3474
 -1      1364    3    0    1
 -2       187      2065      2139      2240
 -1      1365    3    0    1
 -2       588      1178       960       591
 -1      1366    3    0    1
 -2       678       174       681      1306
 -1      1367    3    0    1
 -2       375       942      1281      2347
 -1      1368    3    0    1
 -2        76       732       734       937
 -1      1369    3    0    1
 -2       174       678      1003      1006
 -1      1370    3    0    1
 -2      1140       660         7       898
 -1      1371    3    0    1
 -2      2011      1988      2083      2344
 -1      1372    3    0    1
 -2       456       663       995      1140
 -1      1373    3    0    1
 -2      1489       449      1490      2627
 -1      1374    3    0    1
 -2      2035      2008      2078      2113
 -1      1375    3    0    1
 -2      2009      2124      2152      2256
 -1      1376    3    0    1
 -2       982      1297      2386      2609
 -1      1377    3    0    1
 -2        21       606       609      1155
 -1      1378    3    0    1
 -2      1738      2727      3060      3710
 -1      1379    3    0    1
 -2      3564      2966      3678      3406
 -1      1380    3    0    1
 -2      2192      1995      2373      1978
 -1      1381    3    0    1
 -2       418       199      1970      2004
 -1      1382    3    0    1
 -2        85       181       678      1267
 -1      1383    3    0    1
 -2       540      1303      1271       539
 -1      1384    3    0    1
 -2      1975      1347      2212      2393
 -1      1385    3    0    1
 -2      1993      2003      2014      2164
 -1      1386    3    0    1
 -2       737       740      1029      1929
 -1      1387    3    0    1
 -2      1399       431       441      2121
 -1      1388    3    0    1
 -2      2698      2540      3531      3537
 -1      1389    3    0    1
 -2      2005       421      2024      2090
 -1      1390    3    0    1
 -2       328      2214      2365      2498
 -1      1391    3    0    1
 -2       717       724      1019      1259
 -1      1392    3    0    1
 -2       375      1281      2011      2251
 -1      1393    3    0    1
 -2       767      1246        45      1218
 -1      1394    3    0    1
 -2      2454       345      2335       257
 -1      1395    3    0    1
 -2      2030       423      2057      2071
 -1      1396    3    0    1
 -2       533       717      1019      1259
 -1      1397    3    0    1
 -2       584       369       959      1288
 -1      1398    3    0    1
 -2      2229      2263      2398      2419
 -1      1399    3    0    1
 -2       507       506       804       816
 -1      1400    3    0    1
 -2      1334       802       810      2258
 -1      1401    3    0    1
 -2      1049      1326      2504      3121
 -1      1402    3    0    1
 -2      3587      3520      3683      3724
 -1      1403    3    0    1
 -2       267       804      1061      1064
 -1      1404    3    0    1
 -2       768      1247       770       511
 -1      1405    3    0    1
 -2       788       481       797       798
 -1      1406    3    0    1
 -2       819       826      1335      2170
 -1      1407    3    0    1
 -2       552       478       948      1171
 -1      1408    3    0    1
 -2       237       242       773      1046
 -1      1409    3    0    1
 -2      2253       179      2271      2297
 -1      1410    3    0    1
 -2      2490      2664      2683      3543
 -1      1411    3    0    1
 -2      1001       426      2055      2211
 -1      1412    3    0    1
 -2       238      1968      1998      2149
 -1      1413    3    0    1
 -2       926       804      1057      1217
 -1      1414    3    0    1
 -2       510       786       788       929
 -1      1415    3    0    1
 -2      1991      2052      2056      2227
 -1      1416    3    0    1
 -2       691       702      2986      1798
 -1      1417    3    0    1
 -2        34       552       555       911
 -1      1418    3    0    1
 -2       628       516       979      1227
 -1      1419    3    0    1
 -2        33       547       548       912
 -1      1420    3    0    1
 -2       405       400       574      1286
 -1      1421    3    0    1
 -2       477      1172       910       551
 -1      1422    3    0    1
 -2       262      1051      2219      2238
 -1      1423    3    0    1
 -2      2033      2009      2041      2124
 -1      1424    3    0    1
 -2      1062       815      1969      2415
 -1      1425    3    0    1
 -2      2836      2567      3568      3705
 -1      1426    3    0    1
 -2       470       465       606       618
 -1      1427    3    0    1
 -2       963       599       964      2105
 -1      1428    3    0    1
 -2      1337      1972      2267      2328
 -1      1429    3    0    1
 -2       478       477       552       564
 -1      1430    3    0    1
 -2       552       477       563       564
 -1      1431    3    0    1
 -2       682       999      1150      1308
 -1      1432    3    0    1
 -2      2175      1049      2355      2504
 -1      1433    3    0    1
 -2      1041       496      1043      1196
 -1      1434    3    0    1
 -2      1289       118      2383      3521
 -1      1435    3    0    1
 -2       804       507      1064      1214
 -1      1436    3    0    1
 -2       424      1310      2055      2116
 -1      1437    3    0    1
 -2      1104       872      2129      2148
 -1      1438    3    0    1
 -2       237       767       773      1326
 -1      1439    3    0    1
 -2       451       677      1005      1132
 -1      1440    3    0    1
 -2      3560      1736      3623      3681
 -1      1441    3    0    1
 -2       659       991      1304      2559
 -1      1442    3    0    1
 -2      1374      2125      2137      2330
 -1      1443    3    0    1
 -2       728      1275       938       205
 -1      1444    3    0    1
 -2      2069      1994      2085      2182
 -1      1445    3    0    1
 -2      1404       881      1111      2227
 -1      1446    3    0    1
 -2       938      1318      1025       543
 -1      1447    3    0    1
 -2      1396       877       878      2117
 -1      1448    3    0    1
 -2        67       631       622      1244
 -1      1449    3    0    1
 -2      1999      2032      2063      2115
 -1      1450    3    0    1
 -2       664       456       996      1139
 -1      1451    3    0    1
 -2      2009      2033      2117      2310
 -1      1452    3    0    1
 -2      1994       351      2069      2080
 -1      1453    3    0    1
 -2        64       642       645      1242
 -1      1454    3    0    1
 -2      1123       302       374      2313
 -1      1455    3    0    1
 -2      2019       590      2306      2413
 -1      1456    3    0    1
 -2       773       526      1046      1246
 -1      1457    3    0    1
 -2       620      1234      1229        60
 -1      1458    3    0    1
 -2      3407      1478      3701      1959
 -1      1459    3    0    1
 -2      2037       420      2049      2190
 -1      1460    3    0    1
 -2      1295       412      2059      2082
 -1      1461    3    0    1
 -2      2101      1973      2181      2231
 -1      1462    3    0    1
 -2       380       378       552       941
 -1      1463    3    0    1
 -2       569       577       955      1184
 -1      1464    3    0    1
 -2      1307      1000      2107      2172
 -1      1465    3    0    1
 -2       360       121       591       962
 -1      1466    3    0    1
 -2      1590      1471      1591      2724
 -1      1467    3    0    1
 -2      1380       379      2338      2345
 -1      1468    3    0    1
 -2       489       963       592       917
 -1      1469    3    0    1
 -2       384       385      2428      2462
 -1      1470    3    0    1
 -2      3125      1479      3213      1862
 -1      1471    3    0    1
 -2       148        65       638      1240
 -1      1472    3    0    1
 -2      3563      3556      3632      3645
 -1      1473    3    0    1
 -2       627       624       976      1233
 -1      1474    3    0    1
 -2       516       627       978      1228
 -1      1475    3    0    1
 -2        61      1235      1228       624
 -1      1476    3    0    1
 -2       678        85       681      1134
 -1      1477    3    0    1
 -2       780      1048      2074      2408
 -1      1478    3    0    1
 -2      3533      2798      2881      3066
 -1      1479    3    0    1
 -2       467       968       608       466
 -1      1480    3    0    1
 -2       645       642       985      1242
 -1      1481    3    0    1
 -2      1989      2027      2028      2346
 -1      1482    3    0    1
 -2      3587      3720      3468      3497
 -1      1483    3    0    1
 -2       766      1040      2273      2355
 -1      1484    3    0    1
 -2      2490      3543      3570      3598
 -1      1485    3    0    1
 -2       604       465       610      1152
 -1      1486    3    0    1
 -2      1079       326      1984      2173
 -1      1487    3    0    1
 -2      1441      1440      2773      2837
 -1      1488    3    0    1
 -2        51      1768      1769      1805
 -1      1489    3    0    1
 -2       531       532       732       933
 -1      1490    3    0    1
 -2      1471      1591      2724      2832
 -1      1491    3    0    1
 -2      1521      1522      2712      2957
 -1      1492    3    0    1
 -2       653      2343      2412      2507
 -1      1493    3    0    1
 -2      1325       769       771      2364
 -1      1494    3    0    1
 -2       157       988       989      2507
 -1      1495    3    0    1
 -2       516       622       628       635
 -1      1496    3    0    1
 -2       989       988      2412      2507
 -1      1497    3    0    1
 -2      2048      1983      2050      2137
 -1      1498    3    0    1
 -2       624       516       627       635
 -1      1499    3    0    1
 -2      2026       416      2412      2507
 -1      1500    3    0    1
 -2       416       157       989      2507
 -1      1501    3    0    1
 -2      2569       907      3057      1162
 -1      1502    3    0    1
 -2      1985      1971      2294      2296
 -1      1503    3    0    1
 -2       622       409       628       979
 -1      1504    3    0    1
 -2      1345       837      1344      2042
 -1      1505    3    0    1
 -2       622       635       636       980
 -1      1506    3    0    1
 -2       410       411      3510      1924
 -1      1507    3    0    1
 -2       600       964      2546      3690
 -1      1508    3    0    1
 -2       525       622       636       980
 -1      1509    3    0    1
 -2       418      2051      2181      2196
 -1      1510    3    0    1
 -2       626      1296      2280      2385
 -1      1511    3    0    1
 -2      3416       227      3694      3696
 -1      1512    3    0    1
 -2       151      3579      3666      3692
 -1      1513    3    0    1
 -2      2244      2001      2357      2438
 -1      1514    3    0    1
 -2       311       358      1081      2166
 -1      1515    3    0    1
 -2      2581      3068      3111      3680
 -1      1516    3    0    1
 -2      3644      3053      3651      3489
 -1      1517    3    0    1
 -2       942       376      2067      2347
 -1      1518    3    0    1
 -2      2040      1973      2168      1992
 -1      1519    3    0    1
 -2       225      2032      2217      2224
 -1      1520    3    0    1
 -2       642       153       645       985
 -1      1521    3    0    1
 -2      2019      1997      2410      2474
 -1      1522    3    0    1
 -2       153       338       645       985
 -1      1523    3    0    1
 -2       617       618       972      2470
 -1      1524    3    0    1
 -2       162       996      2270      1723
 -1      1525    3    0    1
 -2      1094       861      1375      2147
 -1      1526    3    0    1
 -2       455       658       997      1138
 -1      1527    3    0    1
 -2       416       157       640       989
 -1      1528    3    0    1
 -2      2117      2111      2310      2336
 -1      1529    3    0    1
 -2      3554      1765      3594      3613
 -1      1530    3    0    1
 -2      1758       151      3666      3692
 -1      1531    3    0    1
 -2       422      1004      1005      2068
 -1      1532    3    0    1
 -2      1463      1462      1631      3383
 -1      1533    3    0    1
 -2       194       330      3502      1911
 -1      1534    3    0    1
 -2       220      1965      2305      2438
 -1      1535    3    0    1
 -2       646       454       653       988
 -1      1536    3    0    1
 -2        11      1142        12       700
 -1      1537    3    0    1
 -2       608      2303      2362      2397
 -1      1538    3    0    1
 -2      1526      1590      1591      2779
 -1      1539    3    0    1
 -2       957      2220      2383      2555
 -1      1540    3    0    1
 -2      2531      2660      2801      3551
 -1      1541    3    0    1
 -2      1293      2138      2204      2291
 -1      1542    3    0    1
 -2       658      1139       455       664
 -1      1543    3    0    1
 -2       162       658       664      1304
 -1      1544    3    0    1
 -2       452       677      1132      1133
 -1      1545    3    0    1
 -2      2052      1990      2056      2062
 -1      1546    3    0    1
 -2      1731      1730      3147      1822
 -1      1547    3    0    1
 -2      2012      1395      2111      2117
 -1      1548    3    0    1
 -2      1099       304       305      2043
 -1      1549    3    0    1
 -2       447       397      1117      2433
 -1      1550    3    0    1
 -2       645       652       987      1137
 -1      1551    3    0    1
 -2      1337       277      1972      2328
 -1      1552    3    0    1
 -2       153       642       645       990
 -1      1553    3    0    1
 -2       645       642       654       990
 -1      1554    3    0    1
 -2       338       153       645       990
 -1      1555    3    0    1
 -2       277      2028      2267      2411
 -1      1556    3    0    1
 -2      2281      1302      2320      2337
 -1      1557    3    0    1
 -2       351      2069      2080      2164
 -1      1558    3    0    1
 -2       569       574       582       955
 -1      1559    3    0    1
 -2      3553      2685      3590      3135
 -1      1560    3    0    1
 -2      1421      3220      3627      3326
 -1      1561    3    0    1
 -2       868      1383      2034      2093
 -1      1562    3    0    1
 -2      1296       975      2280      2385
 -1      1563    3    0    1
 -2       682       427       999      1308
 -1      1564    3    0    1
 -2      1422      1421      3220      3268
 -1      1565    3    0    1
 -2      1346      2042      2115      2136
 -1      1566    3    0    1
 -2      1973      2168      2200      2264
 -1      1567    3    0    1
 -2       238      1968      2149      2277
 -1      1568    3    0    1
 -2       367       419       663       993
 -1      1569    3    0    1
 -2       660       367       663       993
 -1      1570    3    0    1
 -2       446       382      1110      2123
 -1      1571    3    0    1
 -2       396       395      2084      2265
 -1      1572    3    0    1
 -2       213      1026      2309      2329
 -1      1573    3    0    1
 -2       656      1271        87       657
 -1      1574    3    0    1
 -2       539      1270       993      1269
 -1      1575    3    0    1
 -2       120       118      3688      1951
 -1      1576    3    0    1
 -2       589       958       960      2391
 -1      1577    3    0    1
 -2       668         9       664      1139
 -1      1578    3    0    1
 -2       259      2301      2445      2473
 -1      1579    3    0    1
 -2       953      2363      2417      2461
 -1      1580    3    0    1
 -2         3        18       677      1133
 -1      1581    3    0    1
 -2      1532      3512      2666      3555
 -1      1582    3    0    1
 -2      1509      1426      2822      2859
 -1      1583    3    0    1
 -2       944      1284      2282      3039
 -1      1584    3    0    1
 -2      2037      2054      2225      2350
 -1      1585    3    0    1
 -2      1635       565      1636      2892
 -1      1586    3    0    1
 -2       668       664       996      1139
 -1      1587    3    0    1
 -2      2128      1033      2262      2300
 -1      1588    3    0    1
 -2       454       645       987      1137
 -1      1589    3    0    1
 -2       455       658       672       997
 -1      1590    3    0    1
 -2       456       455       664       671
 -1      1591    3    0    1
 -2       455       456       663       671
 -1      1592    3    0    1
 -2      2359       388      2422      2432
 -1      1593    3    0    1
 -2      2215      2067      2293      2456
 -1      1594    3    0    1
 -2      2854      2785      3590      3164
 -1      1595    3    0    1
 -2       455       658       664       671
 -1      1596    3    0    1
 -2       563       551       946       947
 -1      1597    3    0    1
 -2       660       455       663       671
 -1      1598    3    0    1
 -2       199       711       418      1016
 -1      1599    3    0    1
 -2       664       456       671       996
 -1      1600    3    0    1
 -2       671       660       672       998
 -1      1601    3    0    1
 -2       658       671       672       997
 -1      1602    3    0    1
 -2       671       658       996       997
 -1      1603    3    0    1
 -2       541       542       699       707
 -1      1604    3    0    1
 -2       696      1265       699        89
 -1      1605    3    0    1
 -2       870      1101      2182      2315
 -1      1606    3    0    1
 -2       456       663       671       995
 -1      1607    3    0    1
 -2       714      1017      1277      1279
 -1      1608    3    0    1
 -2       157       416      1300      2026
 -1      1609    3    0    1
 -2      1486      1485      2664      2814
 -1      1610    3    0    1
 -2       711       710       939      1016
 -1      1611    3    0    1
 -2       965       600      2447      2461
 -1      1612    3    0    1
 -2       538       537       680      1000
 -1      1613    3    0    1
 -2       254       259      1056      2154
 -1      1614    3    0    1
 -2       677         3       682      1148
 -1      1615    3    0    1
 -2      2022      2014      2164      2372
 -1      1616    3    0    1
 -2      1195      1040      1197      2644
 -1      1617    3    0    1
 -2       208       210      1023      2479
 -1      1618    3    0    1
 -2       757       228       233      1135
 -1      1619    3    0    1
 -2       413       981      2259      2321
 -1      1620    3    0    1
 -2       656      1271       935        87
 -1      1621    3    0    1
 -2       362      1362      1979      2104
 -1      1622    3    0    1
 -2      1488      1487      3266      3452
 -1      1623    3    0    1
 -2       452       678       681      1134
 -1      1624    3    0    1
 -2       678       451      1131      1134
 -1      1625    3    0    1
 -2       537       679       680      1000
 -1      1626    3    0    1
 -2       736       727      1526      2933
 -1      1627    3    0    1
 -2       678       452       681       689
 -1      1628    3    0    1
 -2       704        12       700      1273
 -1      1629    3    0    1
 -2      3536      1305      1703      3603
 -1      1630    3    0    1
 -2       766      1044      2644      2708
 -1      1631    3    0    1
 -2       695      1273        11      1272
 -1      1632    3    0    1
 -2       677       682       999      1148
 -1      1633    3    0    1
 -2      1265       696      1009      1264
 -1      1634    3    0    1
 -2      2309       213      2329      2405
 -1      1635    3    0    1
 -2       163      3518      1732      1733
 -1      1636    3    0    1
 -2      2588      2995      3596      3647
 -1      1637    3    0    1
 -2      1048      1045      2375      2408
 -1      1638    3    0    1
 -2       452       677       682       689
 -1      1639    3    0    1
 -2       677       422      1004      1005
 -1      1640    3    0    1
 -2       451       452       678       689
 -1      1641    3    0    1
 -2       452       451       677       689
 -1      1642    3    0    1
 -2       677       422       682      1004
 -1      1643    3    0    1
 -2       677       682       689      1004
 -1      1644    3    0    1
 -2      2212      2066      2294      2296
 -1      1645    3    0    1
 -2        78       718      1258      1262
 -1      1646    3    0    1
 -2      1030       210      2479      2543
 -1      1647    3    0    1
 -2       999      2141      2242      3550
 -1      1648    3    0    1
 -2      2043      1994      2069      2080
 -1      1649    3    0    1
 -2       341       162       658       997
 -1      1650    3    0    1
 -2         4       224       752      1146
 -1      1651    3    0    1
 -2       172      1000      1307      2172
 -1      1652    3    0    1
 -2        12       704       190      1273
 -1      1653    3    0    1
 -2       566       567       914       950
 -1      1654    3    0    1
 -2       941      2248      2371      2378
 -1      1655    3    0    1
 -2       706       191       192      1274
 -1      1656    3    0    1
 -2       730      1319       738       527
 -1      1657    3    0    1
 -2       671       690      2297      2431
 -1      1658    3    0    1
 -2       938      1318       728      1025
 -1      1659    3    0    1
 -2       718       713      1144      1316
 -1      1660    3    0    1
 -2       541       695       707       708
 -1      1661    3    0    1
 -2      1109      1125      2346      2430
 -1      1662    3    0    1
 -2      1502      1503      1720      3129
 -1      1663    3    0    1
 -2      1051       789      2219      2238
 -1      1664    3    0    1
 -2      1318       938       728      1275
 -1      1665    3    0    1
 -2       236       238      1968      1998
 -1      1666    3    0    1
 -2       695      1142       700      1312
 -1      1667    3    0    1
 -2       372      2269      2363      2461
 -1      1668    3    0    1
 -2       361       412      2059      2321
 -1      1669    3    0    1
 -2      1515      1514      3168      3261
 -1      1670    3    0    1
 -2       728      1275       205       729
 -1      1671    3    0    1
 -2       535      1265      1009      1264
 -1      1672    3    0    1
 -2       835      1342       836      2183
 -1      1673    3    0    1
 -2       553       941      2215      2293
 -1      1674    3    0    1
 -2      2954       558      3286      3646
 -1      1675    3    0    1
 -2       888       885      2168      2200
 -1      1676    3    0    1
 -2       951       572      2226      2318
 -1      1677    3    0    1
 -2       527       528       730      1023
 -1      1678    3    0    1
 -2       542       699       707      1011
 -1      1679    3    0    1
 -2      1999      2063      2129      2148
 -1      1680    3    0    1
 -2       713       721      1021      1262
 -1      1681    3    0    1
 -2       189       330       700      1012
 -1      1682    3    0    1
 -2       461      1037       761       755
 -1      1683    3    0    1
 -2       934      1306      1001       537
 -1      1684    3    0    1
 -2      2709      1555      2918      3609
 -1      1685    3    0    1
 -2       784      1330       792      2531
 -1      1686    3    0    1
 -2      1553      3194      1877      3367
 -1      1687    3    0    1
 -2      1211       924      2710      3558
 -1      1688    3    0    1
 -2      1587      1562      2680      2789
 -1      1689    3    0    1
 -2       541       695       700       707
 -1      1690    3    0    1
 -2       219       223      1321      2233
 -1      1691    3    0    1
 -2       187       429      2044      2240
 -1      1692    3    0    1
 -2       696       541       699       707
 -1      1693    3    0    1
 -2       564       831      1070      2500
 -1      1694    3    0    1
 -2       276       279      1892      3712
 -1      1695    3    0    1
 -2      3040      2770      3637      3669
 -1      1696    3    0    1
 -2       425       696      1011      1014
 -1      1697    3    0    1
 -2       695       707       708      1013
 -1      1698    3    0    1
 -2       707       695      1012      1013
 -1      1699    3    0    1
 -2      1094       302      2147      2313
 -1      1700    3    0    1
 -2       423      2030      2113      2188
 -1      1701    3    0    1
 -2      2919      2621      3558      3609
 -1      1702    3    0    1
 -2        70       731      1249      1251
 -1      1703    3    0    1
 -2      1306       934       681      1267
 -1      1704    3    0    1
 -2      2040      2002      2200      2264
 -1      1705    3    0    1
 -2       749       461       755       902
 -1      1706    3    0    1
 -2      3599      3594      3270      3658
 -1      1707    3    0    1
 -2      3556      1779      3645      3660
 -1      1708    3    0    1
 -2       594       583      2858      1719
 -1      1709    3    0    1
 -2      2000      2032      2042      2136
 -1      1710    3    0    1
 -2      2146      2062      2295      2325
 -1      1711    3    0    1
 -2       429      2044      2240      2449
 -1      1712    3    0    1
 -2      2101      1973      2108      2167
 -1      1713    3    0    1
 -2      1995      2072      2073      2394
 -1      1714    3    0    1
 -2      1983      2048      2050      2089
 -1      1715    3    0    1
 -2       175      1001      2271      2516
 -1      1716    3    0    1
 -2       713        78       718      1144
 -1      1717    3    0    1
 -2        78       713       718      1262
 -1      1718    3    0    1
 -2       714       534       726      1022
 -1      1719    3    0    1
 -2       700       542       707      1012
 -1      1720    3    0    1
 -2       328       201       713      1021
 -1      1721    3    0    1
 -2       538       537      1000      1260
 -1      1722    3    0    1
 -2      2145       419      2320      2339
 -1      1723    3    0    1
 -2      1457      1458      1488      3417
 -1      1724    3    0    1
 -2       428       425       699      1011
 -1      1725    3    0    1
 -2       983       153       985      2395
 -1      1726    3    0    1
 -2       756       748      1035      2342
 -1      1727    3    0    1
 -2       883      1124       890      2179
 -1      1728    3    0    1
 -2      2966       684      3678      3406
 -1      1729    3    0    1
 -2       208       210       731      1023
 -1      1730    3    0    1
 -2       214        75       734      1257
 -1      1731    3    0    1
 -2      1095      1998      2114      2119
 -1      1732    3    0    1
 -2      2032      1999      2063      2224
 -1      1733    3    0    1
 -2       991      1300      2312      2503
 -1      1734    3    0    1
 -2       776       773      1046      1246
 -1      1735    3    0    1
 -2      3588      3592      3608      3437
 -1      1736    3    0    1
 -2       732       741       933      1031
 -1      1737    3    0    1
 -2       427       682      1004      1944
 -1      1738    3    0    1
 -2      1304      2141      2497      3550
 -1      1739    3    0    1
 -2       564      2135      2476      2500
 -1      1740    3    0    1
 -2      2673      2134      2734      3547
 -1      1741    3    0    1
 -2       564       947      2135      2500
 -1      1742    3    0    1
 -2      1280      1068      3664      3437
 -1      1743    3    0    1
 -2       632       628       979      1227
 -1      1744    3    0    1
 -2       957       906      1289      2512
 -1      1745    3    0    1
 -2      2423       831      2476      2500
 -1      1746    3    0    1
 -2       534       533       718      1258
 -1      1747    3    0    1
 -2       237       242      2408      2615
 -1      1748    3    0    1
 -2      2062      1990      2123      2325
 -1      1749    3    0    1
 -2       212       732      1028      1031
 -1      1750    3    0    1
 -2       713       328      1021      1912
 -1      1751    3    0    1
 -2      2063      2047      2199      2277
 -1      1752    3    0    1
 -2       288      1067      2284      2426
 -1      1753    3    0    1
 -2       717       714       726      1022
 -1      1754    3    0    1
 -2      2155      2006      2354      1985
 -1      1755    3    0    1
 -2       543      1276      1024       544
 -1      1756    3    0    1
 -2      1294       623      2138      2205
 -1      1757    3    0    1
 -2       421      1090      2024      2330
 -1      1758    3    0    1
 -2        83       714      1277      1279
 -1      1759    3    0    1
 -2       731        70       737      1251
 -1      1760    3    0    1
 -2       538      1001       680       537
 -1      1761    3    0    1
 -2      2070      2002      2084      2392
 -1      1762    3    0    1
 -2       733      1318       735       543
 -1      1763    3    0    1
 -2      2012       187      2044      2065
 -1      1764    3    0    1
 -2       536      1311      1266       535
 -1      1765    3    0    1
 -2       538      1307      1268      1000
 -1      1766    3    0    1
 -2      1539      1540      2675      3164
 -1      1767    3    0    1
 -2       732       937      1024      1026
 -1      1768    3    0    1
 -2       212       394       734      1026
 -1      1769    3    0    1
 -2      2179      1978      2373      2376
 -1      1770    3    0    1
 -2       762      1036      1039      2450
 -1      1771    3    0    1
 -2      3509      3506      3539      3687
 -1      1772    3    0    1
 -2       229       755      1219      1221
 -1      1773    3    0    1
 -2       946       563       947      2255
 -1      1774    3    0    1
 -2      2496      2713      2926      2975
 -1      1775    3    0    1
 -2       345      1049      2175      3529
 -1      1776    3    0    1
 -2       841      1078      2020      2184
 -1      1777    3    0    1
 -2      1996      2016      2093      2193
 -1      1778    3    0    1
 -2       531       734       743      1028
 -1      1779    3    0    1
 -2      3511      3512      3513      3514
 -1      1780    3    0    1
 -2       223       232      2233      2398
 -1      1781    3    0    1
 -2       546      1315       545      1278
 -1      1782    3    0    1
 -2      2809       736      2933      2950
 -1      1783    3    0    1
 -2      3406      3386      3695      3722
 -1      1784    3    0    1
 -2      2362       607      2410      2474
 -1      1785    3    0    1
 -2       855      1086      2157      2207
 -1      1786    3    0    1
 -2      1988      2029      2083      2344
 -1      1787    3    0    1
 -2       731       737       743      1029
 -1      1788    3    0    1
 -2      1104      1102      2086      2129
 -1      1789    3    0    1
 -2       568       944      1284      2282
 -1      1790    3    0    1
 -2       531       731       737       743
 -1      1791    3    0    1
 -2      2008      2078      2113      2120
 -1      1792    3    0    1
 -2      1483      1630      3612      3383
 -1      1793    3    0    1
 -2       732       531       734       743
 -1      1794    3    0    1
 -2      2858      1719      1720      3129
 -1      1795    3    0    1
 -2      3513      3511      3514      3548
 -1      1796    3    0    1
 -2      2194      1336      2258      2314
 -1      1797    3    0    1
 -2       731       208       737      1029
 -1      1798    3    0    1
 -2       985      2278      2384      2395
 -1      1799    3    0    1
 -2       731       743       744      1030
 -1      1800    3    0    1
 -2       743       731      1029      1030
 -1      1801    3    0    1
 -2      1385       869       870      2182
 -1      1802    3    0    1
 -2       186       184       692      1263
 -1      1803    3    0    1
 -2      1400       885       888      2200
 -1      1804    3    0    1
 -2       642        64       645       903
 -1      1805    3    0    1
 -2       955      3578      1796      1797
 -1      1806    3    0    1
 -2      1122       885      1119      2168
 -1      1807    3    0    1
 -2      1867       353      3679      3718
 -1      1808    3    0    1
 -2       464       642       645       903
 -1      1809    3    0    1
 -2       785        41       791      1193
 -1      1810    3    0    1
 -2        67       622       628      1227
 -1      1811    3    0    1
 -2      1294      1627      3538      1812
 -1      1812    3    0    1
 -2       387      1991      2379      2434
 -1      1813    3    0    1
 -2       243       245       770      1043
 -1      1814    3    0    1
 -2       751       514       753      1034
 -1      1815    3    0    1
 -2      1970       418      2004      2231
 -1      1816    3    0    1
 -2       826      1338      2170      2575
 -1      1817    3    0    1
 -2      1632      1633      3074      3100
 -1      1818    3    0    1
 -2      1325       920       764      1199
 -1      1819    3    0    1
 -2       747       221       222      1225
 -1      1820    3    0    1
 -2      2249       945      2268      2425
 -1      1821    3    0    1
 -2      1033       514      1223      1225
 -1      1822    3    0    1
 -2       568       557       944      2282
 -1      1823    3    0    1
 -2      2038      2109      2183      2345
 -1      1824    3    0    1
 -2       240       235       764       920
 -1      1825    3    0    1
 -2       630      1748      3024      3619
 -1      1826    3    0    1
 -2       755      1032      1219      1221
 -1      1827    3    0    1
 -2      1358       293       296      2156
 -1      1828    3    0    1
 -2       514       515      1033      1223
 -1      1829    3    0    1
 -2       388      1059      2422      2432
 -1      1830    3    0    1
 -2       464       990       654       642
 -1      1831    3    0    1
 -2      1664      1453      2967      3349
 -1      1832    3    0    1
 -2         4       750       752      1226
 -1      1833    3    0    1
 -2       514       751       753      1033
 -1      1834    3    0    1
 -2       755       758      1037      1958
 -1      1835    3    0    1
 -2       152        64       642       903
 -1      1836    3    0    1
 -2      1109      2295      2325      2430
 -1      1837    3    0    1
 -2       395       396      1025      2265
 -1      1838    3    0    1
 -2      2065      2044      2139      2240
 -1      1839    3    0    1
 -2       750       461       752       761
 -1      1840    3    0    1
 -2       650       646       988      1136
 -1      1841    3    0    1
 -2       446      1110      2097      2123
 -1      1842    3    0    1
 -2       461       749       755       761
 -1      1843    3    0    1
 -2       453       461       750       761
 -1      1844    3    0    1
 -2       461       453       749       761
 -1      1845    3    0    1
 -2       839      1349      1077      2066
 -1      1846    3    0    1
 -2      2674      1499      2908      3113
 -1      1847    3    0    1
 -2      3553      2703      3044      3590
 -1      1848    3    0    1
 -2       858       857      1089      2132
 -1      1849    3    0    1
 -2       749       227      1037      1038
 -1      1850    3    0    1
 -2      1573      1610      3296      3640
 -1      1851    3    0    1
 -2       407       411       610       971
 -1      1852    3    0    1
 -2       355      2248      2426      2476
 -1      1853    3    0    1
 -2       749       227      1038      1930
 -1      1854    3    0    1
 -2      3504      3574      3601      3660
 -1      1855    3    0    1
 -2       421      2005      2058      2090
 -1      1856    3    0    1
 -2      1583      1489      2868      3646
 -1      1857    3    0    1
 -2      2013      2185      2247      2407
 -1      1858    3    0    1
 -2      1323       756      2273      2342
 -1      1859    3    0    1
 -2       879      1401      1107      2150
 -1      1860    3    0    1
 -2        67      1232       140       628
 -1      1861    3    0    1
 -2      1383       867       868      2034
 -1      1862    3    0    1
 -2      1998      1379      2086      2119
 -1      1863    3    0    1
 -2      2153      1312      3399      3725
 -1      1864    3    0    1
 -2      1329       491      1050      1189
 -1      1865    3    0    1
 -2       157       156       646      1733
 -1      1866    3    0    1
 -2       697      2116      2252      2266
 -1      1867    3    0    1
 -2      1040       767      1195      1197
 -1      1868    3    0    1
 -2      2800      1454      1716      3122
 -1      1869    3    0    1
 -2       491      1328      1191       490
 -1      1870    3    0    1
 -2       511      1048       780       768
 -1      1871    3    0    1
 -2       496      1200      1196      1041
 -1      1872    3    0    1
 -2       749       228       755      1219
 -1      1873    3    0    1
 -2       497      1042       769       496
 -1      1874    3    0    1
 -2      2030      2055      2071      2266
 -1      1875    3    0    1
 -2       767       773       779      1046
 -1      1876    3    0    1
 -2       659       665      1304      2141
 -1      1877    3    0    1
 -2      2733      2899      3641      3654
 -1      1878    3    0    1
 -2       526       770       779      1045
 -1      1879    3    0    1
 -2      2006      1985      2066      2294
 -1      1880    3    0    1
 -2       149      2089      2213      2360
 -1      1881    3    0    1
 -2       770       778      1045      1247
 -1      1882    3    0    1
 -2      2035       172      2172      2225
 -1      1883    3    0    1
 -2      1389      2151      2299      2308
 -1      1884    3    0    1
 -2       526       511       773       779
 -1      1885    3    0    1
 -2       511       526       770       779
 -1      1886    3    0    1
 -2       311      1339       358      2166
 -1      1887    3    0    1
 -2       511       767       773       779
 -1      1888    3    0    1
 -2       768       511       770       779
 -1      1889    3    0    1
 -2      3191      1698      3294      1872
 -1      1890    3    0    1
 -2      2246      2288      2563      2931
 -1      1891    3    0    1
 -2      2023       126      2092      2394
 -1      1892    3    0    1
 -2       779       767      1046      1047
 -1      1893    3    0    1
 -2       767       237      1046      1047
 -1      1894    3    0    1
 -2      2003      1993      2014      2197
 -1      1895    3    0    1
 -2       767       237       773      1046
 -1      1896    3    0    1
 -2       511       767       780      1047
 -1      1897    3    0    1
 -2      2004      1970      2041      2124
 -1      1898    3    0    1
 -2      2091      1986      2165      2287
 -1      1899    3    0    1
 -2       623       974      1293      2204
 -1      1900    3    0    1
 -2       252       251       782      1190
 -1      1901    3    0    1
 -2       339       338       987      2278
 -1      1902    3    0    1
 -2      1468      3071      1808      3200
 -1      1903    3    0    1
 -2       183       422      3524      3550
 -1      1904    3    0    1
 -2       385       381       821      1065
 -1      1905    3    0    1
 -2       482      1179      1176       959
 -1      1906    3    0    1
 -2      1356      1353      2017      2078
 -1      1907    3    0    1
 -2       786       254       788      1051
 -1      1908    3    0    1
 -2      3619      3285      1899      3377
 -1      1909    3    0    1
 -2       927      1333      1058       508
 -1      1910    3    0    1
 -2      3511      2522      3548      3662
 -1      1911    3    0    1
 -2      1316       712       719      2388
 -1      1912    3    0    1
 -2      1320      1035       748      2342
 -1      1913    3    0    1
 -2       671       995      2145      2339
 -1      1914    3    0    1
 -2      1333       927       800      1216
 -1      1915    3    0    1
 -2       962      2275      2340      2421
 -1      1916    3    0    1
 -2       927      1333       800      1058
 -1      1917    3    0    1
 -2       803      1210       925        50
 -1      1918    3    0    1
 -2       441      1366      2077      2122
 -1      1919    3    0    1
 -2       326      1401      1984      2173
 -1      1920    3    0    1
 -2       428       193      1009      2209
 -1      1921    3    0    1
 -2       390       245      1045      2375
 -1      1922    3    0    1
 -2       510      1055       785       798
 -1      1923    3    0    1
 -2       227       343       755      1037
 -1      1924    3    0    1
 -2      1375       861      2031      2147
 -1      1925    3    0    1
 -2       804        53       806      1213
 -1      1926    3    0    1
 -2       800       383      1058      1333
 -1      1927    3    0    1
 -2       636       981      2158      2259
 -1      1928    3    0    1
 -2       767       775      1047      1218
 -1      1929    3    0    1
 -2       369       370      2306      2437
 -1      1930    3    0    1
 -2       506       806      1061      1213
 -1      1931    3    0    1
 -2       506      1214       804      1213
 -1      1932    3    0    1
 -2      1970       418      2181      2196
 -1      1933    3    0    1
 -2       635       654      2259      2412
 -1      1934    3    0    1
 -2       798       791      1054      1055
 -1      1935    3    0    1
 -2       785       791       798      1055
 -1      1936    3    0    1
 -2       791       797       798      1054
 -1      1937    3    0    1
 -2       254       786       788      1056
 -1      1938    3    0    1
 -2       788       786       798      1056
 -1      1939    3    0    1
 -2       260       254       788      1056
 -1      1940    3    0    1
 -2        55        53       806       926
 -1      1941    3    0    1
 -2       821       501       832      1072
 -1      1942    3    0    1
 -2      1967       366      2005      2098
 -1      1943    3    0    1
 -2      1334       270      2475      3728
 -1      1944    3    0    1
 -2       187      2065      2071      2139
 -1      1945    3    0    1
 -2       785       345      1055      1807
 -1      1946    3    0    1
 -2      3564      2643      3642      3722
 -1      1947    3    0    1
 -2      2073       137      2192      2202
 -1      1948    3    0    1
 -2       804       926      1057      1059
 -1      1949    3    0    1
 -2       396      2084      2264      2265
 -1      1950    3    0    1
 -2      1376       289      1986      2091
 -1      1951    3    0    1
 -2       804       806       926      1059
 -1      1952    3    0    1
 -2      1114       883      2179      2191
 -1      1953    3    0    1
 -2      2013      2222      2407      2501
 -1      1954    3    0    1
 -2       267       804      1057      1059
 -1      1955    3    0    1
 -2       260       788      1053      1056
 -1      1956    3    0    1
 -2        49       825       921      1202
 -1      1957    3    0    1
 -2      1440      1742      1743      3291
 -1      1958    3    0    1
 -2       629       623      1297      2665
 -1      1959    3    0    1
 -2       800       801       927      1058
 -1      1960    3    0    1
 -2      2415      3508      3425      3728
 -1      1961    3    0    1
 -2       311      1081      1360      2166
 -1      1962    3    0    1
 -2        46       820       825      1204
 -1      1963    3    0    1
 -2        50      1210        52       809
 -1      1964    3    0    1
 -2      2282       575      2458      2555
 -1      1965    3    0    1
 -2      1485      1551      1552      2903
 -1      1966    3    0    1
 -2      2273      2578      3392      3723
 -1      1967    3    0    1
 -2       353      1689      3592      3719
 -1      1968    3    0    1
 -2       166       419       995      2339
 -1      1969    3    0    1
 -2       267       804       806      1061
 -1      1970    3    0    1
 -2      1988      2150      2171      2178
 -1      1971    3    0    1
 -2       806       814      1061      1213
 -1      1972    3    0    1
 -2       835      1343      1340      2038
 -1      1973    3    0    1
 -2       803      1210       809      1334
 -1      1974    3    0    1
 -2       507       803       816      1063
 -1      1975    3    0    1
 -2      1345       838      2042      2115
 -1      1976    3    0    1
 -2       270       803       809      1334
 -1      1977    3    0    1
 -2       506       803       809       815
 -1      1978    3    0    1
 -2       625       626      2280      2324
 -1      1979    3    0    1
 -2       804       506       806       815
 -1      1980    3    0    1
 -2       500       824       831      1069
 -1      1981    3    0    1
 -2       289      1093      1376      1986
 -1      1982    3    0    1
 -2        48       821       824      1209
 -1      1983    3    0    1
 -2       803       815       816      1063
 -1      1984    3    0    1
 -2       815       803      1062      1063
 -1      1985    3    0    1
 -2       809       506       815      1062
 -1      1986    3    0    1
 -2      2019       607      2362      2474
 -1      1987    3    0    1
 -2       501       820      1071      1207
 -1      1988    3    0    1
 -2      1102      1998      2086      2129
 -1      1989    3    0    1
 -2       425      1009      1310      2209
 -1      1990    3    0    1
 -2       820       827      1071      1207
 -1      1991    3    0    1
 -2       821       500       831       832
 -1      1992    3    0    1
 -2       501       500       821       832
 -1      1993    3    0    1
 -2       824       922      1065      1067
 -1      1994    3    0    1
 -2       503      1066       822       502
 -1      1995    3    0    1
 -2      1393       875       876      2108
 -1      1996    3    0    1
 -2       733      1025      2195      2265
 -1      1997    3    0    1
 -2      1971       370      2223      2294
 -1      1998    3    0    1
 -2      1093      1376      1986      2147
 -1      1999    3    0    1
 -2       422       427      1004      2068
 -1      2000    3    0    1
 -2      2574      2686      3519      3545
 -1      2001    3    0    1
 -2       501       821      1205      1206
 -1      2002    3    0    1
 -2       500       824      1069      1205
 -1      2003    3    0    1
 -2       503      1067       922       502
 -1      2004    3    0    1
 -2       502      1067       823       822
 -1      2005    3    0    1
 -2      1054       798      1055      2335
 -1      2006    3    0    1
 -2      2107      1001      2211      2271
 -1      2007    3    0    1
 -2       179       174      1306      2271
 -1      2008    3    0    1
 -2       887      1407       895      2120
 -1      2009    3    0    1
 -2      2323      1981       149      2374
 -1      2010    3    0    1
 -2      1100       869      2182      2315
 -1      2011    3    0    1
 -2      2064      1979      2104      2132
 -1      2012    3    0    1
 -2       824       830      1069      1205
 -1      2013    3    0    1
 -2      1111       442      1404      2227
 -1      2014    3    0    1
 -2       825       500       831      1070
 -1      2015    3    0    1
 -2      2206       653      2343      2412
 -1      2016    3    0    1
 -2      1395       878      2111      2117
 -1      2017    3    0    1
 -2       821       500       824       831
 -1      2018    3    0    1
 -2       866       865      2088      2099
 -1      2019    3    0    1
 -2       500       820       825       831
 -1      2020    3    0    1
 -2      2041      2004      2124      2152
 -1      2021    3    0    1
 -2       238      1042      1968      2277
 -1      2022    3    0    1
 -2       280       285       825      1070
 -1      2023    3    0    1
 -2      1306       179      2253      2276
 -1      2024    3    0    1
 -2       625       975      2082      2130
 -1      2025    3    0    1
 -2      1854      1855      3261      3428
 -1      2026    3    0    1
 -2       696       425       699      1009
 -1      2027    3    0    1
 -2      2247      2586      3004      3601
 -1      2028    3    0    1
 -2       338       645       987       990
 -1      2029    3    0    1
 -2      2306       589      2391      2481
 -1      2030    3    0    1
 -2       351      1050      1329      2080
 -1      2031    3    0    1
 -2      1973      2040      2168      2264
 -1      2032    3    0    1
 -2       520      1296       517       626
 -1      2033    3    0    1
 -2       653       987       990      2206
 -1      2034    3    0    1
 -2       422       427       682      1004
 -1      2035    3    0    1
 -2       660       367       993      1302
 -1      2036    3    0    1
 -2      1339       833      2102      2187
 -1      2037    3    0    1
 -2      2128      1318      2329      2400
 -1      2038    3    0    1
 -2       640       646       654       989
 -1      2039    3    0    1
 -2       882      1113      2140      2341
 -1      2040    3    0    1
 -2      1541      2731      1643      1644
 -1      2041    3    0    1
 -2       622       409       979       980
 -1      2042    3    0    1
 -2      2055      2030      2188      2266
 -1      2043    3    0    1
 -2      1016       199      2110      2177
 -1      2044    3    0    1
 -2      2230       557      2282      2440
 -1      2045    3    0    1
 -2       237      3392      3698      3723
 -1      2046    3    0    1
 -2       855      1371      1086      2207
 -1      2047    3    0    1
 -2       588      1178       591        36
 -1      2048    3    0    1
 -2       689      1003      2068      2317
 -1      2049    3    0    1
 -2       179       166      2253      2276
 -1      2050    3    0    1
 -2      2176       368      2239      2382
 -1      2051    3    0    1
 -2      1987      2067      2165      2411
 -1      2052    3    0    1
 -2       453       749       762      1038
 -1      2053    3    0    1
 -2      2267      2067      2411      2456
 -1      2054    3    0    1
 -2       944        94      3592      3636
 -1      2055    3    0    1
 -2      3517      2626      3078      3101
 -1      2056    3    0    1
 -2      2045      1333      2236      2455
 -1      2057    3    0    1
 -2       208      1029      2361      2479
 -1      2058    3    0    1
 -2       656      1271       657      1303
 -1      2059    3    0    1
 -2      1333       805       807      2254
 -1      2060    3    0    1
 -2       995       367       998      2145
 -1      2061    3    0    1
 -2      2888      3533      3064      3377
 -1      2062    3    0    1
 -2      2110       199      2124      2126
 -1      2063    3    0    1
 -2       980      2158      2485      3510
 -1      2064    3    0    1
 -2      1333       807      2236      2455
 -1      2065    3    0    1
 -2       588       488       965      1186
 -1      2066    3    0    1
 -2      2011      2021      2382      2389
 -1      2067    3    0    1
 -2       488       586       600       964
 -1      2068    3    0    1
 -2       102       570       573       956
 -1      2069    3    0    1
 -2       627       634       978      1228
 -1      2070    3    0    1
 -2      1047      2408      2465      3698
 -1      2071    3    0    1
 -2       220      1965      2262      2300
 -1      2072    3    0    1
 -2       301      1089      1372      2180
 -1      2073    3    0    1
 -2       502      1337      1066       823
 -1      2074    3    0    1
 -2       126       967      2210      2307
 -1      2075    3    0    1
 -2      1102       314      1104      2086
 -1      2076    3    0    1
 -2         9       668        10      1139
 -1      2077    3    0    1
 -2       416       154      3424      3704
 -1      2078    3    0    1
 -2      1550      1549      2976      3019
 -1      2079    3    0    1
 -2       367       419       993      2320
 -1      2080    3    0    1
 -2      1398       886      2152      2256
 -1      2081    3    0    1
 -2       364       149      1981      2374
 -1      2082    3    0    1
 -2      1067       823       822      2424
 -1      2083    3    0    1
 -2        35       786       788      1188
 -1      2084    3    0    1
 -2       126       130      2092      2394
 -1      2085    3    0    1
 -2      1424      1569      3512      2666
 -1      2086    3    0    1
 -2       470       604       618       972
 -1      2087    3    0    1
 -2       330       189      1312      2390
 -1      2088    3    0    1
 -2       676       683       999      2243
 -1      2089    3    0    1
 -2       139       137      1966      1979
 -1      2090    3    0    1
 -2       995       419      2145      2339
 -1      2091    3    0    1
 -2       682       452       689      1004
 -1      2092    3    0    1
 -2       606       609      1155      1291
 -1      2093    3    0    1
 -2       259      1056      2154      2445
 -1      2094    3    0    1
 -2       407       411       971      2201
 -1      2095    3    0    1
 -2      2085      2106      2144      2182
 -1      2096    3    0    1
 -2       536      1311       535       698
 -1      2097    3    0    1
 -2       451       677       690      1005
 -1      2098    3    0    1
 -2      2057      2008      2120      2121
 -1      2099    3    0    1
 -2       689       677      1004      1005
 -1      2100    3    0    1
 -2       542       699      1011      1274
 -1      2101    3    0    1
 -2      2210       126      2307      2394
 -1      2102    3    0    1
 -2      2508      3566      3604      3713
 -1      2103    3    0    1
 -2      2047      1999      2063      2199
 -1      2104    3    0    1
 -2       886      1130      1398      2152
 -1      2105    3    0    1
 -2       356       285      3528      1677
 -1      2106    3    0    1
 -2      2042      2115      2136      2217
 -1      2107    3    0    1
 -2       658       162       996       997
 -1      2108    3    0    1
 -2      2185      2013      2247      2322
 -1      2109    3    0    1
 -2       366      1967      2050      2351
 -1      2110    3    0    1
 -2       662       661       993      2320
 -1      2111    3    0    1
 -2       296       293      2006      2156
 -1      2112    3    0    1
 -2       478       551       564       947
 -1      2113    3    0    1
 -2      2110      1311      2169      2235
 -1      2114    3    0    1
 -2      1356       843       844      2017
 -1      2115    3    0    1
 -2        22       604       610      1152
 -1      2116    3    0    1
 -2      1035      2873      3669      3734
 -1      2117    3    0    1
 -2      2178      2176      2239      2382
 -1      2118    3    0    1
 -2       185      1530      3597      3360
 -1      2119    3    0    1
 -2      2104      1979      2192      2463
 -1      2120    3    0    1
 -2      1029       743      1030      2361
 -1      2121    3    0    1
 -2       793       785       928      1055
 -1      2122    3    0    1
 -2       821       381       824      1065
 -1      2123    3    0    1
 -2      2008      1407      2120      2121
 -1      2124    3    0    1
 -2       940      1282      2230      2440
 -1      2125    3    0    1
 -2      2174      2095      2193      2302
 -1      2126    3    0    1
 -2       225      1322      2047      2224
 -1      2127    3    0    1
 -2       786       254      1051      1328
 -1      2128    3    0    1
 -2       367      2145      2320      2337
 -1      2129    3    0    1
 -2       694       701      1010      2556
 -1      2130    3    0    1
 -2       925      1334       803      1331
 -1      2131    3    0    1
 -2      2002      2084      2151      2264
 -1      2132    3    0    1
 -2      1466      1687      3584      3347
 -1      2133    3    0    1
 -2      1351      1350      2015      2184
 -1      2134    3    0    1
 -2       564       563       948      2135
 -1      2135    3    0    1
 -2      2069      2085      2164      2197
 -1      2136    3    0    1
 -2       665       676       999      2141
 -1      2137    3    0    1
 -2       629       623       977      2205
 -1      2138    3    0    1
 -2        53        55       806      1213
 -1      2139    3    0    1
 -2       364      1974      1982      2279
 -1      2140    3    0    1
 -2       975      1296      1966      2385
 -1      2141    3    0    1
 -2       803       809       815      1062
 -1      2142    3    0    1
 -2       253      2075      2427      2477
 -1      2143    3    0    1
 -2      1295       625      2280      2324
 -1      2144    3    0    1
 -2      2014      2080      2085      2164
 -1      2145    3    0    1
 -2       418       199      1016      1970
 -1      2146    3    0    1
 -2       348       270       803      1063
 -1      2147    3    0    1
 -2       975      1966      2130      2280
 -1      2148    3    0    1
 -2      1065      2236      2359      2428
 -1      2149    3    0    1
 -2      1966       139      2064      2096
 -1      2150    3    0    1
 -2      2043      1994      2103      2186
 -1      2151    3    0    1
 -2       711       199       710      1016
 -1      2152    3    0    1
 -2       643       644      1299      2133
 -1      2153    3    0    1
 -2       228       749       902      1135
 -1      2154    3    0    1
 -2      2846      3134      3687      3413
 -1      2155    3    0    1
 -2       802      1331      2257      2258
 -1      2156    3    0    1
 -2      2063      1999      2129      2199
 -1      2157    3    0    1
 -2       604       407       971       972
 -1      2158    3    0    1
 -2       746      1033      1225      1322
 -1      2159    3    0    1
 -2      3298      3333      3462      3730
 -1      2160    3    0    1
 -2      1373       857       858      2203
 -1      2161    3    0    1
 -2       713       718       726      1021
 -1      2162    3    0    1
 -2      1970      1315      2196      2380
 -1      2163    3    0    1
 -2       999      2141      2208      2242
 -1      2164    3    0    1
 -2      2016      2043      2080      2103
 -1      2165    3    0    1
 -2       623       611      2138      2204
 -1      2166    3    0    1
 -2      2118       368      2354      2382
 -1      2167    3    0    1
 -2       641       977      1298      2205
 -1      2168    3    0    1
 -2      1440      1743      3165      3291
 -1      2169    3    0    1
 -2       946       563      2255      2601
 -1      2170    3    0    1
 -2      1348       839      1347      2212
 -1      2171    3    0    1
 -2       418      1970      2181      2231
 -1      2172    3    0    1
 -2       995      2297      2339      2431
 -1      2173    3    0    1
 -2      2511      2250      3520      3711
 -1      2174    3    0    1
 -2       139       137      1296      1966
 -1      2175    3    0    1
 -2      2095      1996      2114      2193
 -1      2176    3    0    1
 -2       368      2226      2354      2382
 -1      2177    3    0    1
 -2      1976      2087      2245      2311
 -1      2178    3    0    1
 -2      1972      2045      2236      2455
 -1      2179    3    0    1
 -2      1090      2005      2024      2330
 -1      2180    3    0    1
 -2       367       168       998      2145
 -1      2181    3    0    1
 -2      2036      1974      2081      2184
 -1      2182    3    0    1
 -2      1355       843      1354      2112
 -1      2183    3    0    1
 -2       803       270      1062      1063
 -1      2184    3    0    1
 -2      1070       831      2423      2500
 -1      2185    3    0    1
 -2      2097      2062      2123      2295
 -1      2186    3    0    1
 -2       780      1047      2408      2465
 -1      2187    3    0    1
 -2      2072      1995      2191      2394
 -1      2188    3    0    1
 -2      1008       697      2252      2266
 -1      2189    3    0    1
 -2       413       144      2160      2259
 -1      2190    3    0    1
 -2      1105      1389      2151      2299
 -1      2191    3    0    1
 -2      1979      2104      2132      2203
 -1      2192    3    0    1
 -2      1321      1034       751      2233
 -1      2193    3    0    1
 -2       641       629       977      2205
 -1      2194    3    0    1
 -2      1285      2226      2318      2354
 -1      2195    3    0    1
 -2      1998       238      2149      2199
 -1      2196    3    0    1
 -2      1965       225      2224      2272
 -1      2197    3    0    1
 -2      1783      3082      3321      3705
 -1      2198    3    0    1
 -2      3544      3519      3633      3661
 -1      2199    3    0    1
 -2      2187      2102      2393      2472
 -1      2200    3    0    1
 -2      2655      2687      3553      3607
 -1      2201    3    0    1
 -2      2893       576      1721      3063
 -1      2202    3    0    1
 -2         3       682      1148      1150
 -1      2203    3    0    1
 -2         4       759       230       897
 -1      2204    3    0    1
 -2       759         4       750       897
 -1      2205    3    0    1
 -2         7      1140       161       663
 -1      2206    3    0    1
 -2         7       669       167       898
 -1      2207    3    0    1
 -2       669         7       660       898
 -1      2208    3    0    1
 -2      3570      3079      2842      2820
 -1      2209    3    0    1
 -2      2703      2828      3044      1159
 -1      2210    3    0    1
 -2      1310       697      2116      2252
 -1      2211    3    0    1
 -2       695      1142        11       700
 -1      2212    3    0    1
 -2       343       342      3698      3723
 -1      2213    3    0    1
 -2      1521      1537      1538      2957
 -1      2214    3    0    1
 -2      2167      1119      2168      2274
 -1      2215    3    0    1
 -2        16       755       758       902
 -1      2216    3    0    1
 -2        16       229       755       902
 -1      2217    3    0    1
 -2       152       651       158       903
 -1      2218    3    0    1
 -2       651       152       642       903
 -1      2219    3    0    1
 -2       603        20       127      1156
 -1      2220    3    0    1
 -2       467       968       466       904
 -1      2221    3    0    1
 -2       467       466       967      1154
 -1      2222    3    0    1
 -2       133       615       134       905
 -1      2223    3    0    1
 -2       615       133       606       905
 -1      2224    3    0    1
 -2       505      1211      2594      2641
 -1      2225    3    0    1
 -2      2816      2537      3274      3654
 -1      2226    3    0    1
 -2      2232       352      2255      2689
 -1      2227    3    0    1
 -2       586      1163        25       592
 -1      2228    3    0    1
 -2      1292       967       608      2362
 -1      2229    3    0    1
 -2      2072      1978      2179      2191
 -1      2230    3    0    1
 -2       348      1331      2261      3733
 -1      2231    3    0    1
 -2       569        38       574      1166
 -1      2232    3    0    1
 -2       279      1336      3627      1890
 -1      2233    3    0    1
 -2      2106      1101      2144      2182
 -1      2234    3    0    1
 -2      1079      1984      2155      2173
 -1      2235    3    0    1
 -2        31      1172       551       910
 -1      2236    3    0    1
 -2        31      1172        92       551
 -1      2237    3    0    1
 -2        31       560        96       910
 -1      2238    3    0    1
 -2       560        31       556       910
 -1      2239    3    0    1
 -2      1089       857      1372      2132
 -1      2240    3    0    1
 -2       911       552       941      1174
 -1      2241    3    0    1
 -2        33      1173        91       547
 -1      2242    3    0    1
 -2      2219      2238      2349      2486
 -1      2243    3    0    1
 -2      1976      2023      2060      2245
 -1      2244    3    0    1
 -2        41       794       256       913
 -1      2245    3    0    1
 -2       794        41       791       913
 -1      2246    3    0    1
 -2       570       103       573      1183
 -1      2247    3    0    1
 -2       486       569       955      1184
 -1      2248    3    0    1
 -2       573       110       580       915
 -1      2249    3    0    1
 -2       111       110       573       915
 -1      2250    3    0    1
 -2       105       578       107       916
 -1      2251    3    0    1
 -2       578       105       574       916
 -1      2252    3    0    1
 -2        25       586       592       917
 -1      2253    3    0    1
 -2        40       596       123       917
 -1      2254    3    0    1
 -2       596        40       592       917
 -1      2255    3    0    1
 -2       346      1675      3551      3635
 -1      2256    3    0    1
 -2      3018      2677      3130      3691
 -1      2257    3    0    1
 -2       235       764       920      1199
 -1      2258    3    0    1
 -2       920      1325      1042       496
 -1      2259    3    0    1
 -2       767      1040      1195      1326
 -1      2260    3    0    1
 -2       768      1041      1196      1200
 -1      2261    3    0    1
 -2       497      1042       496       920
 -1      2262    3    0    1
 -2      2961      2738      3566      3087
 -1      2263    3    0    1
 -2      2369      2661      3529      3530
 -1      2264    3    0    1
 -2      2369      1046      3530      1806
 -1      2265    3    0    1
 -2       371       953       965      2461
 -1      2266    3    0    1
 -2       803      1210        50       809
 -1      2267    3    0    1
 -2      1998      2086      2149      2174
 -1      2268    3    0    1
 -2       922       824      1065      1209
 -1      2269    3    0    1
 -2       824       821      1065      1209
 -1      2270    3    0    1
 -2       503      1066       502       923
 -1      2271    3    0    1
 -2        52        50       809      1212
 -1      2272    3    0    1
 -2       812       809      1062      1212
 -1      2273    3    0    1
 -2       511       767      1047      1218
 -1      2274    3    0    1
 -2       270       348       803      1331
 -1      2275    3    0    1
 -2        41       791       913       928
 -1      2276    3    0    1
 -2        41       785       791       928
 -1      2277    3    0    1
 -2       793        42        57       928
 -1      2278    3    0    1
 -2        42       793       785       928
 -1      2279    3    0    1
 -2       255       795       258       929
 -1      2280    3    0    1
 -2       795       255       786       929
 -1      2281    3    0    1
 -2       239      1247       244       770
 -1      2282    3    0    1
 -2       239       777       249       930
 -1      2283    3    0    1
 -2       777       239       768       930
 -1      2284    3    0    1
 -2       624        61      1230      1233
 -1      2285    3    0    1
 -2        61       624       627      1233
 -1      2286    3    0    1
 -2       622      1232        67       628
 -1      2287    3    0    1
 -2      1087       318      2125      2366
 -1      2288    3    0    1
 -2      1257       732       531       734
 -1      2289    3    0    1
 -2        76      1257       214       734
 -1      2290    3    0    1
 -2        76       741       211       933
 -1      2291    3    0    1
 -2       741        76       732       933
 -1      2292    3    0    1
 -2       675        84        86      1268
 -1      2293    3    0    1
 -2       538      1001       537       934
 -1      2294    3    0    1
 -2       695       703      1013      1272
 -1      2295    3    0    1
 -2        87      1271       160       657
 -1      2296    3    0    1
 -2        89      1274       191       699
 -1      2297    3    0    1
 -2        89       705       195       936
 -1      2298    3    0    1
 -2       705        89       696       936
 -1      2299    3    0    1
 -2       201       328       713      1316
 -1      2300    3    0    1
 -2       544      1025       543       938
 -1      2301    3    0    1
 -2       710        90       711       939
 -1      2302    3    0    1
 -2       546      1314      1279       545
 -1      2303    3    0    1
 -2       293      1358      1357      2156
 -1      2304    3    0    1
 -2      1011       726      1022      2079
 -1      2305    3    0    1
 -2      1292       608      2210      2362
 -1      2306    3    0    1
 -2      1371       855       856      2207
 -1      2307    3    0    1
 -2      2009      2033      2110      2126
 -1      2308    3    0    1
 -2      1532      1287      3512      3041
 -1      2309    3    0    1
 -2      1966       139      1979      2064
 -1      2310    3    0    1
 -2      2052       387      2401      2434
 -1      2311    3    0    1
 -2      2055      2188      2211      2266
 -1      2312    3    0    1
 -2      1557      1614      1615      2839
 -1      2313    3    0    1
 -2      3544      3519      3545      3633
 -1      2314    3    0    1
 -2      1067       503      1065       822
 -1      2315    3    0    1
 -2      2828      3044      3083      3590
 -1      2316    3    0    1
 -2       553       943       941       479
 -1      2317    3    0    1
 -2       480       479       553       941
 -1      2318    3    0    1
 -2      2000      2032      2136      2217
 -1      2319    3    0    1
 -2       479      1174       911       941
 -1      2320    3    0    1
 -2       375       548       547       942
 -1      2321    3    0    1
 -2       878       877      2111      2117
 -1      2322    3    0    1
 -2        33      1173       547       912
 -1      2323    3    0    1
 -2       553       943       479       554
 -1      2324    3    0    1
 -2      2664      2683      3543      2903
 -1      2325    3    0    1
 -2       275       272      1057      2480
 -1      2326    3    0    1
 -2      2693      2666      3041      3393
 -1      2327    3    0    1
 -2      2018      1971      2223      2318
 -1      2328    3    0    1
 -2       802      1334       810      2594
 -1      2329    3    0    1
 -2       372      2269      2318      2363
 -1      2330    3    0    1
 -2      1338       826      2440      2575
 -1      2331    3    0    1
 -2       563       564       947      2255
 -1      2332    3    0    1
 -2      2020      1980      2036      2180
 -1      2333    3    0    1
 -2       111       103       573      1181
 -1      2334    3    0    1
 -2       357       555       562       945
 -1      2335    3    0    1
 -2       357       378       555       945
 -1      2336    3    0    1
 -2       955       400      3578      1797
 -1      2337    3    0    1
 -2       577       569       955      1797
 -1      2338    3    0    1
 -2      2017      2035      2078      2112
 -1      2339    3    0    1
 -2       501       820       832      1071
 -1      2340    3    0    1
 -2      2018       959      2437      2481
 -1      2341    3    0    1
 -2       352        93       551       947
 -1      2342    3    0    1
 -2       551        93       946       947
 -1      2343    3    0    1
 -2       354       356      3528      1677
 -1      2344    3    0    1
 -2       354      3528      1676      1677
 -1      2345    3    0    1
 -2      3528      1070      1676      1677
 -1      2346    3    0    1
 -2       820       831       832      1071
 -1      2347    3    0    1
 -2       831       820      1070      1071
 -1      2348    3    0    1
 -2      2012      1368      2122      2142
 -1      2349    3    0    1
 -2       552       563       945       948
 -1      2350    3    0    1
 -2       563       552       564       948
 -1      2351    3    0    1
 -2       378       552       945       948
 -1      2352    3    0    1
 -2       378       380       552       948
 -1      2353    3    0    1
 -2       552       355       561       948
 -1      2354    3    0    1
 -2       380       355       552       948
 -1      2355    3    0    1
 -2       484       485       572       949
 -1      2356    3    0    1
 -2      2067      2165      2287      2347
 -1      2357    3    0    1
 -2      1980      2020      2036      2081
 -1      2358    3    0    1
 -2        38       105       574      1166
 -1      2359    3    0    1
 -2       104       567       566       950
 -1      2360    3    0    1
 -2       780       761      1037      2465
 -1      2361    3    0    1
 -2      1004       689      1005      2068
 -1      2362    3    0    1
 -2       102       570       949       951
 -1      2363    3    0    1
 -2       308       298      2012      2111
 -1      2364    3    0    1
 -2       580       573       915       953
 -1      2365    3    0    1
 -2      1296       626      2131      2385
 -1      2366    3    0    1
 -2       851      1366      2122      2142
 -1      2367    3    0    1
 -2      1967      2024      2048      2050
 -1      2368    3    0    1
 -2       112       580       372       953
 -1      2369    3    0    1
 -2       580       112       573       953
 -1      2370    3    0    1
 -2      1810      1811      3314      3480
 -1      2371    3    0    1
 -2       811       803      1063      1955
 -1      2372    3    0    1
 -2       605      1290      2138      2290
 -1      2373    3    0    1
 -2       121       588       962       965
 -1      2374    3    0    1
 -2      2267      2215      2293      2456
 -1      2375    3    0    1
 -2      2485      2158      2585      3510
 -1      2376    3    0    1
 -2       980      2585      3510      1923
 -1      2377    3    0    1
 -2       386      1066      1337      1972
 -1      2378    3    0    1
 -2       400       405       574       955
 -1      2379    3    0    1
 -2       574       405       954       955
 -1      2380    3    0    1
 -2      2650      3677      3691      3442
 -1      2381    3    0    1
 -2      3229      3527      3325      3680
 -1      2382    3    0    1
 -2       112       102       573       956
 -1      2383    3    0    1
 -2       112       573       953       956
 -1      2384    3    0    1
 -2       953       573       581       956
 -1      2385    3    0    1
 -2       581       573       582       956
 -1      2386    3    0    1
 -2       579       102       109       956
 -1      2387    3    0    1
 -2       102       579       570       956
 -1      2388    3    0    1
 -2       659       647      1301      2143
 -1      2389    3    0    1
 -2      2012      2044      2111      2142
 -1      2390    3    0    1
 -2      2482      2442      2543      3526
 -1      2391    3    0    1
 -2       219       223      2233      2450
 -1      2392    3    0    1
 -2      2165       376      2287      2347
 -1      2393    3    0    1
 -2      1471      1472      1590      2944
 -1      2394    3    0    1
 -2      1302       661      2281      2320
 -1      2395    3    0    1
 -2       585       369       370       959
 -1      2396    3    0    1
 -2       369       585       584       959
 -1      2397    3    0    1
 -2       679      1306      2253      2276
 -1      2398    3    0    1
 -2       483      1288      1179       482
 -1      2399    3    0    1
 -2      1998       236      2095      2174
 -1      2400    3    0    1
 -2      2015      1981      2213      2323
 -1      2401    3    0    1
 -2       589       482       590       960
 -1      2402    3    0    1
 -2       861      1093      2031      2147
 -1      2403    3    0    1
 -2       121       588       958       960
 -1      2404    3    0    1
 -2       482       589       958       960
 -1      2405    3    0    1
 -2      2160       413      2259      2321
 -1      2406    3    0    1
 -2       121       588       591       962
 -1      2407    3    0    1
 -2       591       588       599       962
 -1      2408    3    0    1
 -2       599       963      2421      2605
 -1      2409    3    0    1
 -2       360       598       402       962
 -1      2410    3    0    1
 -2       598       360       591       962
 -1      2411    3    0    1
 -2      1330      1049       784      2175
 -1      2412    3    0    1
 -2       606       618       970       973
 -1      2413    3    0    1
 -2      3573      2931      3105      3608
 -1      2414    3    0    1
 -2       599       586       963       964
 -1      2415    3    0    1
 -2       586       599       600       964
 -1      2416    3    0    1
 -2       405       954      3690      1954
 -1      2417    3    0    1
 -2      3690       954      1953      1954
 -1      2418    3    0    1
 -2       405       574       954      1954
 -1      2419    3    0    1
 -2      2028      2027      2099      2346
 -1      2420    3    0    1
 -2       426       424      2055      2116
 -1      2421    3    0    1
 -2       588       599       962       965
 -1      2422    3    0    1
 -2       599       588       600       965
 -1      2423    3    0    1
 -2       597       121       371       965
 -1      2424    3    0    1
 -2       121       597       588       965
 -1      2425    3    0    1
 -2       323      1396       448      2353
 -1      2426    3    0    1
 -2       257      1054      2335      3697
 -1      2427    3    0    1
 -2      2201      1293      2204      2291
 -1      2428    3    0    1
 -2      1978      1995      2373      2376
 -1      2429    3    0    1
 -2       467      1292       967       608
 -1      2430    3    0    1
 -2      1996      2093      2114      2193
 -1      2431    3    0    1
 -2       408      1600      1785      3629
 -1      2432    3    0    1
 -2      2051       418      2181      2231
 -1      2433    3    0    1
 -2      2780      3517      3222      3638
 -1      2434    3    0    1
 -2       607       466       608       968
 -1      2435    3    0    1
 -2       149      2213      2323      2360
 -1      2436    3    0    1
 -2      1836      2997      3248      3643
 -1      2437    3    0    1
 -2      3666      3611      3689      3700
 -1      2438    3    0    1
 -2      1990      2056      2062      2097
 -1      2439    3    0    1
 -2       606       128       609      1291
 -1      2440    3    0    1
 -2       413       144       624      1295
 -1      2441    3    0    1
 -2       129       128       609       970
 -1      2442    3    0    1
 -2       465       609       617       970
 -1      2443    3    0    1
 -2      1054      1063      2453      3697
 -1      2444    3    0    1
 -2       945       357      2237      2425
 -1      2445    3    0    1
 -2       128       606       609       970
 -1      2446    3    0    1
 -2       609       606       617       970
 -1      2447    3    0    1
 -2      2325      1989      2346      2430
 -1      2448    3    0    1
 -2       617       606       618       970
 -1      2449    3    0    1
 -2       129       616       361       970
 -1      2450    3    0    1
 -2       616       129       609       970
 -1      2451    3    0    1
 -2      1286      2555      3412      3699
 -1      2452    3    0    1
 -2      2383       957      2555      3699
 -1      2453    3    0    1
 -2       423      2113      2172      2188
 -1      2454    3    0    1
 -2       178       188      3684      3726
 -1      2455    3    0    1
 -2      1007      1308      3410      3726
 -1      2456    3    0    1
 -2       189      1007      3410      3726
 -1      2457    3    0    1
 -2       615       128       401       973
 -1      2458    3    0    1
 -2       128       615       606       973
 -1      2459    3    0    1
 -2      1530       185      3597      3658
 -1      2460    3    0    1
 -2      1326       242      2504      3529
 -1      2461    3    0    1
 -2       159      2206      2395      2444
 -1      2462    3    0    1
 -2      2496      3527      2926      3014
 -1      2463    3    0    1
 -2      2037      2054      2190      2225
 -1      2464    3    0    1
 -2      2101      2004      2108      2231
 -1      2465    3    0    1
 -2       679      1000      2054      2225
 -1      2466    3    0    1
 -2       647       641      2143      2386
 -1      2467    3    0    1
 -2      1035      1320      2873      3734
 -1      2468    3    0    1
 -2       622      1232       628      1297
 -1      2469    3    0    1
 -2       520      1296      1234       517
 -1      2470    3    0    1
 -2      1234       620       975      1296
 -1      2471    3    0    1
 -2       689       690      1005      2068
 -1      2472    3    0    1
 -2      1354      1355      2112      2334
 -1      2473    3    0    1
 -2      2487      2387      3509      3687
 -1      2474    3    0    1
 -2      3622      2977      3670      3714
 -1      2475    3    0    1
 -2       517       520       626       976
 -1      2476    3    0    1
 -2       979       635       980      2158
 -1      2477    3    0    1
 -2       620      1234       621      1296
 -1      2478    3    0    1
 -2      2731      1643      1644      2836
 -1      2479    3    0    1
 -2       624       976      1230      1295
 -1      2480    3    0    1
 -2      1296      1982      2131      2163
 -1      2481    3    0    1
 -2      1077      1349      2006      2066
 -1      2482    3    0    1
 -2      1999      2148      2358      2459
 -1      2483    3    0    1
 -2       280      2525      3508      3425
 -1      2484    3    0    1
 -2       874      1389      2299      2308
 -1      2485    3    0    1
 -2      2129       872      1103      2148
 -1      2486    3    0    1
 -2       144       634       363       978
 -1      2487    3    0    1
 -2       634       144       627       978
 -1      2488    3    0    1
 -2       416       154      3729      1963
 -1      2489    3    0    1
 -2       324      1105      1389      2151
 -1      2490    3    0    1
 -2       977      1294       623      2665
 -1      2491    3    0    1
 -2      3510       971      1923      1924
 -1      2492    3    0    1
 -2       831       832      1071      2423
 -1      2493    3    0    1
 -2       624       635       978       981
 -1      2494    3    0    1
 -2       635       624       636       981
 -1      2495    3    0    1
 -2       144       624       978       981
 -1      2496    3    0    1
 -2       144       413       624       981
 -1      2497    3    0    1
 -2      2145       672      2270      2343
 -1      2498    3    0    1
 -2      2138       605      2290      2291
 -1      2499    3    0    1
 -2       413       412       624       981
 -1      2500    3    0    1
 -2       624       412       633       981
 -1      2501    3    0    1
 -2       137      1966      2192      2202
 -1      2502    3    0    1
 -2       523       643       644      1299
 -1      2503    3    0    1
 -2       639       149       984      1299
 -1      2504    3    0    1
 -2      1281       942      2251      2347
 -1      2505    3    0    1
 -2      3060      2727      3675      3710
 -1      2506    3    0    1
 -2       494      1195      2644      2708
 -1      2507    3    0    1
 -2       523       524       644       983
 -1      2508    3    0    1
 -2       298      1395      1394      2111
 -1      2509    3    0    1
 -2      1066       822      1972      2236
 -1      2510    3    0    1
 -2      3422        17      1927      3461
 -1      2511    3    0    1
 -2       149       364       638       984
 -1      2512    3    0    1
 -2       149       638       639       984
 -1      2513    3    0    1
 -2       525       622       980      1244
 -1      2514    3    0    1
 -2      1105       430      2002      2151
 -1      2515    3    0    1
 -2      2077      2010      2113      2120
 -1      2516    3    0    1
 -2      2095      2119      2174      2193
 -1      2517    3    0    1
 -2      2015      1981      2020      2184
 -1      2518    3    0    1
 -2      2094      2035      2100      2112
 -1      2519    3    0    1
 -2       153       642       983       985
 -1      2520    3    0    1
 -2      1329       789      2022      2372
 -1      2521    3    0    1
 -2       661       992      2281      2351
 -1      2522    3    0    1
 -2       464       990       642       903
 -1      2523    3    0    1
 -2       426      1003      2317      2516
 -1      2524    3    0    1
 -2       454       645       653       987
 -1      2525    3    0    1
 -2      1405      1113      2106      2140
 -1      2526    3    0    1
 -2       366       992      1967      2351
 -1      2527    3    0    1
 -2      3261      1854      3428      3475
 -1      2528    3    0    1
 -2       162       341       658       991
 -1      2529    3    0    1
 -2       338       652       339       987
 -1      2530    3    0    1
 -2       652       338       645       987
 -1      2531    3    0    1
 -2       347      3616      3635      1866
 -1      2532    3    0    1
 -2      3203       347      3604      1841
 -1      2533    3    0    1
 -2       572      1285      2226      2318
 -1      2534    3    0    1
 -2      2123      1110      2295      2325
 -1      2535    3    0    1
 -2       102      2363      2420      2425
 -1      2536    3    0    1
 -2      2040      2002      2168      2200
 -1      2537    3    0    1
 -2       259       254      1328      2154
 -1      2538    3    0    1
 -2      2335       797      2452      2453
 -1      2539    3    0    1
 -2       640       157       646       989
 -1      2540    3    0    1
 -2       646       157       988       989
 -1      2541    3    0    1
 -2      1634      1435      3532      3734
 -1      2542    3    0    1
 -2      1634      3532      3669      3734
 -1      2543    3    0    1
 -2      2652      2678      3669      3734
 -1      2544    3    0    1
 -2       645       653       987       990
 -1      2545    3    0    1
 -2       653       645       654       990
 -1      2546    3    0    1
 -2       651       153       159       990
 -1      2547    3    0    1
 -2       153       651       642       990
 -1      2548    3    0    1
 -2      3013      1727      3590      3164
 -1      2549    3    0    1
 -2      2521      1420      2560      2818
 -1      2550    3    0    1
 -2       617       636      2321      2485
 -1      2551    3    0    1
 -2       232      1034      2233      2398
 -1      2552    3    0    1
 -2       589       590      2306      2391
 -1      2553    3    0    1
 -2      2036      1980      2132      2180
 -1      2554    3    0    1
 -2      2005      2024      2048      2098
 -1      2555    3    0    1
 -2      3511      2522      3514      3548
 -1      2556    3    0    1
 -2       539       540       662       993
 -1      2557    3    0    1
 -2       660      1270         7      1269
 -1      2558    3    0    1
 -2       661       539       662       993
 -1      2559    3    0    1
 -2      2029       302      2171      2313
 -1      2560    3    0    1
 -2      1113      1405      2106      2144
 -1      2561    3    0    1
 -2       838      1346      2042      2115
 -1      2562    3    0    1
 -2       455       998       660       898
 -1      2563    3    0    1
 -2      1103      2129      2148      2358
 -1      2564    3    0    1
 -2       367       660       663       995
 -1      2565    3    0    1
 -2       663       660       671       995
 -1      2566    3    0    1
 -2       953       112      2363      2461
 -1      2567    3    0    1
 -2       422       677       682       999
 -1      2568    3    0    1
 -2       166       663       670       995
 -1      2569    3    0    1
 -2       166       419       663       995
 -1      2570    3    0    1
 -2       660       669       898       998
 -1      2571    3    0    1
 -2      1005      3524      1723      1724
 -1      2572    3    0    1
 -2       183       165      3524      1724
 -1      2573    3    0    1
 -2       677       422      1005      1724
 -1      2574    3    0    1
 -2       678       690      1003      1006
 -1      2575    3    0    1
 -2      2301      2283      2427      2477
 -1      2576    3    0    1
 -2      1025       733      2195      2198
 -1      2577    3    0    1
 -2      2043      1994      2080      2103
 -1      2578    3    0    1
 -2      3518       988      1732      1733
 -1      2579    3    0    1
 -2       172      2035      2100      2225
 -1      2580    3    0    1
 -2       367       168       660       998
 -1      2581    3    0    1
 -2       660       168       669       998
 -1      2582    3    0    1
 -2       427       422       682       999
 -1      2583    3    0    1
 -2      1414      2685      3083      3084
 -1      2584    3    0    1
 -2      1338       285      2170      2575
 -1      2585    3    0    1
 -2       352       940      2230      2440
 -1      2586    3    0    1
 -2      1432      2739      1754      1755
 -1      2587    3    0    1
 -2       714       534      1022      1261
 -1      2588    3    0    1
 -2       538      1307      1000       680
 -1      2589    3    0    1
 -2      1669      3113      3191      1872
 -1      2590    3    0    1
 -2      1350      1981      2015      2184
 -1      2591    3    0    1
 -2       679       537       680      1001
 -1      2592    3    0    1
 -2      2018       372      2269      2318
 -1      2593    3    0    1
 -2       535      1310      1009       697
 -1      2594    3    0    1
 -2       696       425      1009      1310
 -1      2595    3    0    1
 -2       674      1000      1268      1307
 -1      2596    3    0    1
 -2      2039      1981      2157      2213
 -1      2597    3    0    1
 -2       696      1009      1264      1310
 -1      2598    3    0    1
 -2       175       174       681      1003
 -1      2599    3    0    1
 -2       452       681       689      1003
 -1      2600    3    0    1
 -2      2706      2809      3531      2933
 -1      2601    3    0    1
 -2       174       678       681      1003
 -1      2602    3    0    1
 -2       681       678       689      1003
 -1      2603    3    0    1
 -2       689       678       690      1003
 -1      2604    3    0    1
 -2       175       688       426      1003
 -1      2605    3    0    1
 -2      1980      2064      2132      2180
 -1      2606    3    0    1
 -2       688       175       681      1003
 -1      2607    3    0    1
 -2       630      3298      3333      3462
 -1      2608    3    0    1
 -2      2037      2007      2049      2094
 -1      2609    3    0    1
 -2      2028      2027      2267      2411
 -1      2610    3    0    1
 -2      2076      2072      2179      2191
 -1      2611    3    0    1
 -2      1833      1834      3256      3301
 -1      2612    3    0    1
 -2      1497      1498      3371      1918
 -1      2613    3    0    1
 -2       687       174       179      1006
 -1      2614    3    0    1
 -2       174       687       678      1006
 -1      2615    3    0    1
 -2      1367       851      1366      2122
 -1      2616    3    0    1
 -2      1725      1512      1726      3273
 -1      2617    3    0    1
 -2       976      1295      2160      2324
 -1      2618    3    0    1
 -2       991      1255      1304      2559
 -1      2619    3    0    1
 -2      1995      2073      2192      2202
 -1      2620    3    0    1
 -2       193       428      1011      2316
 -1      2621    3    0    1
 -2       189       695       700      1312
 -1      2622    3    0    1
 -2       971       980      2485      3510
 -1      2623    3    0    1
 -2       535       536       698      1009
 -1      2624    3    0    1
 -2       697       535       698      1009
 -1      2625    3    0    1
 -2      2560      2521      3543      3400
 -1      2626    3    0    1
 -2       692      1008      1266      1311
 -1      2627    3    0    1
 -2       727       736      1621      2950
 -1      2628    3    0    1
 -2      2214      2482      2543      3526
 -1      2629    3    0    1
 -2       237      1046      1047      2408
 -1      2630    3    0    1
 -2      2029      1988      2031      2313
 -1      2631    3    0    1
 -2      1997       967      2019      2053
 -1      2632    3    0    1
 -2       425       696       699      1011
 -1      2633    3    0    1
 -2       699       696       707      1011
 -1      2634    3    0    1
 -2       541      1014       696       936
 -1      2635    3    0    1
 -2       225      1322      2224      2272
 -1      2636    3    0    1
 -2       193       699       706      1011
 -1      2637    3    0    1
 -2       193       428       699      1011
 -1      2638    3    0    1
 -2      2032      2063      2217      2224
 -1      2639    3    0    1
 -2      1021      3502      1911      1912
 -1      2640    3    0    1
 -2       395      2070      2084      2128
 -1      2641    3    0    1
 -2       178       427      3684      1944
 -1      2642    3    0    1
 -2      1982      1974      2221      2279
 -1      2643    3    0    1
 -2       696       707      1011      1014
 -1      2644    3    0    1
 -2       707       696       708      1014
 -1      2645    3    0    1
 -2       426       424      2116      2317
 -1      2646    3    0    1
 -2       425       424       696      1014
 -1      2647    3    0    1
 -2       696       424       705      1014
 -1      2648    3    0    1
 -2       972       407      2201      3688
 -1      2649    3    0    1
 -2      1983      2125      2137      2366
 -1      2650    3    0    1
 -2       694      1007      1312      2556
 -1      2651    3    0    1
 -2      1768      2834      1769      1805
 -1      2652    3    0    1
 -2      3179       226      1679      1678
 -1      2653    3    0    1
 -2       728      1275       729      1318
 -1      2654    3    0    1
 -2       992       661      2327      2351
 -1      2655    3    0    1
 -2      1335      1334      2617      3482
 -1      2656    3    0    1
 -2      2564      2999      3187      3624
 -1      2657    3    0    1
 -2      1639      1638      3180      3323
 -1      2658    3    0    1
 -2      2888      3227      3285      3377
 -1      2659    3    0    1
 -2       752       760      1036      1146
 -1      2660    3    0    1
 -2      2053      1976      2087      2245
 -1      2661    3    0    1
 -2       660      1270       993       663
 -1      2662    3    0    1
 -2       533       717       725      1019
 -1      2663    3    0    1
 -2       822      1065      2424      2428
 -1      2664    3    0    1
 -2      1594      1595      2764      3073
 -1      2665    3    0    1
 -2      1010      1309      2556      2728
 -1      2666    3    0    1
 -2      1099       868      2034      2186
 -1      2667    3    0    1
 -2       202       724       417      1019
 -1      2668    3    0    1
 -2       724       202       717      1019
 -1      2669    3    0    1
 -2       159       990      2206      2444
 -1      2670    3    0    1
 -2      1410      3422      3448      3737
 -1      2671    3    0    1
 -2      3109      2990      3287      3647
 -1      2672    3    0    1
 -2      1415      3544      3545      3633
 -1      2673    3    0    1
 -2      1076       393      2000      2136
 -1      2674    3    0    1
 -2       608       607       968      2397
 -1      2675    3    0    1
 -2       713       201       718      1021
 -1      2676    3    0    1
 -2       718       201      1020      1021
 -1      2677    3    0    1
 -2      2390       330      3502      3399
 -1      2678    3    0    1
 -2       202       198       717      1022
 -1      2679    3    0    1
 -2       202       717      1019      1022
 -1      2680    3    0    1
 -2       717       725      1019      1022
 -1      2681    3    0    1
 -2       725       717       726      1022
 -1      2682    3    0    1
 -2       723       198       331      1022
 -1      2683    3    0    1
 -2       198       723       714      1022
 -1      2684    3    0    1
 -2      2054       679      2225      2350
 -1      2685    3    0    1
 -2      3538      1423      3002      1835
 -1      2686    3    0    1
 -2       553       943       554      2371
 -1      2687    3    0    1
 -2      1289      2290      2291      3521
 -1      2688    3    0    1
 -2      3559      3000      3585      3667
 -1      2689    3    0    1
 -2       728       395      1025      1318
 -1      2690    3    0    1
 -2      2024      2048      2050      2330
 -1      2691    3    0    1
 -2      1328       787      2473      2484
 -1      2692    3    0    1
 -2       544       543       733      1024
 -1      2693    3    0    1
 -2       104       368      2226      2354
 -1      2694    3    0    1
 -2      1103      2148       872      1386
 -1      2695    3    0    1
 -2      1069      2284      2423      2476
 -1      2696    3    0    1
 -2      1312       330      2390      3399
 -1      2697    3    0    1
 -2       543      1276       937      1024
 -1      2698    3    0    1
 -2       208       731       737      1319
 -1      2699    3    0    1
 -2      1376       861       862      2147
 -1      2700    3    0    1
 -2      2308      2433      2436      2448
 -1      2701    3    0    1
 -2       733      1026       543       735
 -1      2702    3    0    1
 -2       212       732      1024      1026
 -1      2703    3    0    1
 -2      1031      2381      2399      2442
 -1      2704    3    0    1
 -2       750       219       752      1321
 -1      2705    3    0    1
 -2       394       212       734      1028
 -1      2706    3    0    1
 -2      2429       414      2608      3729
 -1      2707    3    0    1
 -2       719      1018      1313      2983
 -1      2708    3    0    1
 -2       212       732       734      1028
 -1      2709    3    0    1
 -2       734       732       743      1028
 -1      2710    3    0    1
 -2      2901      1623      1756      1757
 -1      2711    3    0    1
 -2       532      1031       732       933
 -1      2712    3    0    1
 -2       227       749       755      1032
 -1      2713    3    0    1
 -2       213       734       742      1028
 -1      2714    3    0    1
 -2       213       394       734      1028
 -1      2715    3    0    1
 -2       126       967      1292      2210
 -1      2716    3    0    1
 -2       941      2248      2378      2426
 -1      2717    3    0    1
 -2       757       749      1038      1930
 -1      2718    3    0    1
 -2       243      1048      2375      2418
 -1      2719    3    0    1
 -2       750       759       897      1039
 -1      2720    3    0    1
 -2      2152      1398      2256      2352
 -1      2721    3    0    1
 -2       210       208       731      1030
 -1      2722    3    0    1
 -2       731       208      1029      1030
 -1      2723    3    0    1
 -2      3526      1020      1750      1751
 -1      2724    3    0    1
 -2       334       201      3526      1751
 -1      2725    3    0    1
 -2       743       732       744      1031
 -1      2726    3    0    1
 -2       741       212       216      1031
 -1      2727    3    0    1
 -2       212       741       732      1031
 -1      2728    3    0    1
 -2       408      1651      3538      3539
 -1      2729    3    0    1
 -2       643       644      2133      2395
 -1      2730    3    0    1
 -2       893       882      2140      2341
 -1      2731    3    0    1
 -2       304      1099      1097      2043
 -1      2732    3    0    1
 -2      2843      1502      1719      3123
 -1      2733    3    0    1
 -2       611       623      1293      2204
 -1      2734    3    0    1
 -2       418      1016      1315      1970
 -1      2735    3    0    1
 -2      1297       629      2386      2609
 -1      2736    3    0    1
 -2       515       514       751      1034
 -1      2737    3    0    1
 -2      1002      3536      3597      3658
 -1      2738    3    0    1
 -2      2013      2228      2246      2288
 -1      2739    3    0    1
 -2      2150      1107      2171      2173
 -1      2740    3    0    1
 -2       223       219       752      1036
 -1      2741    3    0    1
 -2       461       752       761      1036
 -1      2742    3    0    1
 -2       219       750       752      1036
 -1      2743    3    0    1
 -2       752       750       761      1036
 -1      2744    3    0    1
 -2      1120      1408      2256      2353
 -1      2745    3    0    1
 -2       761       750       762      1036
 -1      2746    3    0    1
 -2       223       760       232      1036
 -1      2747    3    0    1
 -2       760       223       752      1036
 -1      2748    3    0    1
 -2      1925        43      1928      1959
 -1      2749    3    0    1
 -2      1046       779      1047      2408
 -1      2750    3    0    1
 -2      1058       805      2254      2349
 -1      2751    3    0    1
 -2       761       749      1037      1038
 -1      2752    3    0    1
 -2       749       761       762      1038
 -1      2753    3    0    1
 -2       250        43      1926      1931
 -1      2754    3    0    1
 -2       759       219       234      1039
 -1      2755    3    0    1
 -2       219       759       750      1039
 -1      2756    3    0    1
 -2      1021       328      2214      3502
 -1      2757    3    0    1
 -2       944      1280      2733      2899
 -1      2758    3    0    1
 -2      3556      3515      3563      3632
 -1      2759    3    0    1
 -2       130       126      1292      2210
 -1      2760    3    0    1
 -2      1537      2572      1538      2957
 -1      2761    3    0    1
 -2       151       977      3672      3689
 -1      2762    3    0    1
 -2      2499      2628      2646      3625
 -1      2763    3    0    1
 -2      1075       833      1339      2187
 -1      2764    3    0    1
 -2      1993      2085      2144      2315
 -1      2765    3    0    1
 -2       875      2101      2108      2167
 -1      2766    3    0    1
 -2       244       239       770      1196
 -1      2767    3    0    1
 -2      1532      1449      1533      2792
 -1      2768    3    0    1
 -2      2002      2151      2200      2264
 -1      2769    3    0    1
 -2       907       472      2512      2960
 -1      2770    3    0    1
 -2      1968       236      2302      2364
 -1      2771    3    0    1
 -2      1054      1063      3697      1955
 -1      2772    3    0    1
 -2      2009      2117      2260      2353
 -1      2773    3    0    1
 -2       766      2273      2342      2367
 -1      2774    3    0    1
 -2      1734      1798      1799      3166
 -1      2775    3    0    1
 -2       236       238       764      1042
 -1      2776    3    0    1
 -2       242       237       773      1326
 -1      2777    3    0    1
 -2       773       767      1195      1326
 -1      2778    3    0    1
 -2       239       768      1196      1200
 -1      2779    3    0    1
 -2       768       243       770      1043
 -1      2780    3    0    1
 -2       496       769      1041      1043
 -1      2781    3    0    1
 -2       769       496       771      1043
 -1      2782    3    0    1
 -2       767        45      1195      1197
 -1      2783    3    0    1
 -2       424       425      1310      2116
 -1      2784    3    0    1
 -2      1992      1973      2108      2231
 -1      2785    3    0    1
 -2       243       768      1041      1043
 -1      2786    3    0    1
 -2      2075      2283      2301      2477
 -1      2787    3    0    1
 -2      1086      1981      2157      2207
 -1      2788    3    0    1
 -2       242       773      1046      1806
 -1      2789    3    0    1
 -2       243       768       770      1045
 -1      2790    3    0    1
 -2       770       768       779      1045
 -1      2791    3    0    1
 -2      1977       130      2072      2394
 -1      2792    3    0    1
 -2       511      1048       768       930
 -1      2793    3    0    1
 -2       865       866      2088      2338
 -1      2794    3    0    1
 -2       245       778       390      1045
 -1      2795    3    0    1
 -2       778       245       770      1045
 -1      2796    3    0    1
 -2      1055      3530      1806      1807
 -1      2797    3    0    1
 -2      2125      1091      2137      2366
 -1      2798    3    0    1
 -2       839      1348       840      2212
 -1      2799    3    0    1
 -2       342       343      3698      1958
 -1      2800    3    0    1
 -2       768       777       930      1048
 -1      2801    3    0    1
 -2      1356       321      1353      2078
 -1      2802    3    0    1
 -2       236      1042      1325      1968
 -1      2803    3    0    1
 -2       768       779      1045      1048
 -1      2804    3    0    1
 -2       779       768       780      1048
 -1      2805    3    0    1
 -2       777       243       391      1048
 -1      2806    3    0    1
 -2       243       777       768      1048
 -1      2807    3    0    1
 -2      1012      2365      2390      3502
 -1      2808    3    0    1
 -2      1497      3371      1917      1918
 -1      2809    3    0    1
 -2      2100      2035      2190      2225
 -1      2810    3    0    1
 -2      1996      2034      2093      2186
 -1      2811    3    0    1
 -2      2067      2287      2411      2456
 -1      2812    3    0    1
 -2       236      2075      2095      2302
 -1      2813    3    0    1
 -2       427       422      2208      2242
 -1      2814    3    0    1
 -2      3545      3243      3715      3499
 -1      2815    3    0    1
 -2       253       783       351      1050
 -1      2816    3    0    1
 -2       783       253       782      1050
 -1      2817    3    0    1
 -2       791       785      1193      1330
 -1      2818    3    0    1
 -2       491      1050      1189      1190
 -1      2819    3    0    1
 -2      2490      2560      3543      3400
 -1      2820    3    0    1
 -2       698       697      1009      2252
 -1      2821    3    0    1
 -2      1392       876      2101      2108
 -1      2822    3    0    1
 -2      1326      2273      2355      2504
 -1      2823    3    0    1
 -2      2631       790      3591      3396
 -1      2824    3    0    1
 -2       307      1390      1393      2274
 -1      2825    3    0    1
 -2       137      1966      1979      2192
 -1      2826    3    0    1
 -2       510      1056       786       929
 -1      2827    3    0    1
 -2       272       267       804      1057
 -1      2828    3    0    1
 -2       481       788       797      1053
 -1      2829    3    0    1
 -2      1662      1663      2887      3167
 -1      2830    3    0    1
 -2       845      1359      1079      2155
 -1      2831    3    0    1
 -2      3040      1756      3046      3295
 -1      2832    3    0    1
 -2      1400       888      2168      2200
 -1      2833    3    0    1
 -2       260       796       262      1053
 -1      2834    3    0    1
 -2       796       260       788      1053
 -1      2835    3    0    1
 -2      2251       375      2347      2457
 -1      2836    3    0    1
 -2      1811      1810      1908      3480
 -1      2837    3    0    1
 -2      2133      1299      2323      2460
 -1      2838    3    0    1
 -2      2312       991      2503      3540
 -1      2839    3    0    1
 -2      1401       325      1107      2173
 -1      2840    3    0    1
 -2      2091      2083      2147      2344
 -1      2841    3    0    1
 -2       785       257       791      1055
 -1      2842    3    0    1
 -2       791       257      1054      1055
 -1      2843    3    0    1
 -2      1601      1602      2856      1863
 -1      2844    3    0    1
 -2       788       797      1053      1056
 -1      2845    3    0    1
 -2       797       788       798      1056
 -1      2846    3    0    1
 -2       795       254       259      1056
 -1      2847    3    0    1
 -2       254       795       786      1056
 -1      2848    3    0    1
 -2       805      1059      1057       508
 -1      2849    3    0    1
 -2       509       508       805      1057
 -1      2850    3    0    1
 -2       508      1217       926      1057
 -1      2851    3    0    1
 -2        56      1216       800       927
 -1      2852    3    0    1
 -2       430      1400      2002      2200
 -1      2853    3    0    1
 -2       805      1059       508       807
 -1      2854    3    0    1
 -2        13      1808      1809      1816
 -1      2855    3    0    1
 -2       957       587      1289      2220
 -1      2856    3    0    1
 -2       806       804       815      1061
 -1      2857    3    0    1
 -2       813       804      1064      1214
 -1      2858    3    0    1
 -2       506       806       815      1061
 -1      2859    3    0    1
 -2      2106      2140      2341      2414
 -1      2860    3    0    1
 -2       769      1325      1042      2364
 -1      2861    3    0    1
 -2      1413      1568      3514      3548
 -1      2862    3    0    1
 -2       289       373      1986      2183
 -1      2863    3    0    1
 -2       280       820       825      1335
 -1      2864    3    0    1
 -2       684      1896      3361      3434
 -1      2865    3    0    1
 -2       267       814       388      1061
 -1      2866    3    0    1
 -2       814       267       806      1061
 -1      2867    3    0    1
 -2      2241      1052      2600      3635
 -1      2868    3    0    1
 -2      1071       280      3508      1922
 -1      2869    3    0    1
 -2       349       350      3508      1922
 -1      2870    3    0    1
 -2      2796      2562      3535      2969
 -1      2871    3    0    1
 -2      2024      2005      2048      2330
 -1      2872    3    0    1
 -2       172      2008      2035      2172
 -1      2873    3    0    1
 -2      1993      2069      2164      2197
 -1      2874    3    0    1
 -2       263       257      3697      1956
 -1      2875    3    0    1
 -2      3697      1054      1955      1956
 -1      2876    3    0    1
 -2       269      3697      1955      1956
 -1      2877    3    0    1
 -2       862       861      1094      2147
 -1      2878    3    0    1
 -2       126      2023      2092      2307
 -1      2879    3    0    1
 -2       402       960      2340      2410
 -1      2880    3    0    1
 -2       804       815      1061      1064
 -1      2881    3    0    1
 -2       815       804       816      1064
 -1      2882    3    0    1
 -2       813       272       275      1064
 -1      2883    3    0    1
 -2       272       813       804      1064
 -1      2884    3    0    1
 -2       503      1067      1065       922
 -1      2885    3    0    1
 -2       502       822       823      1066
 -1      2886    3    0    1
 -2        48       281       821      1209
 -1      2887    3    0    1
 -2       659       991      1300      2312
 -1      2888    3    0    1
 -2       779      2369      2377      2408
 -1      2889    3    0    1
 -2       503      1067       502       822
 -1      2890    3    0    1
 -2      2566       469      2655      2828
 -1      2891    3    0    1
 -2       835       836      2038      2183
 -1      2892    3    0    1
 -2       550      1282       940      2440
 -1      2893    3    0    1
 -2       949       102       951      2363
 -1      2894    3    0    1
 -2      2230      1282      3541      3403
 -1      2895    3    0    1
 -2       381       385       821      1069
 -1      2896    3    0    1
 -2      1995      2073      2210      2394
 -1      2897    3    0    1
 -2      2617      1335      3482      3728
 -1      2898    3    0    1
 -2       831       821       832      1069
 -1      2899    3    0    1
 -2      2017      2008      2035      2100
 -1      2900    3    0    1
 -2       665       999      1304      2141
 -1      2901    3    0    1
 -2       417       202      1019      2399
 -1      2902    3    0    1
 -2       288       381       824      1069
 -1      2903    3    0    1
 -2       288       824       830      1069
 -1      2904    3    0    1
 -2       385       821      1069      1072
 -1      2905    3    0    1
 -2       820       825       831      1070
 -1      2906    3    0    1
 -2       820       280       825      1070
 -1      2907    3    0    1
 -2       821       832      1069      1072
 -1      2908    3    0    1
 -2      1476      1477      1584      2867
 -1      2909    3    0    1
 -2       268      1854      3404      3428
 -1      2910    3    0    1
 -2       885      1400      1118      2200
 -1      2911    3    0    1
 -2       385       384       821      1072
 -1      2912    3    0    1
 -2       821       384       829      1072
 -1      2913    3    0    1
 -2      2007      2017      2094      2100
 -1      2914    3    0    1
 -2       586      1163       592      1289
 -1      2915    3    0    1
 -2       680      1307      2107      2188
 -1      2916    3    0    1
 -2      1384       310      1101      2144
 -1      2917    3    0    1
 -2       877      1395       878      2111
 -1      2918    3    0    1
 -2      1312      1007      2153      2390
 -1      2919    3    0    1
 -2      3545      3520      3683      3715
 -1      2920    3    0    1
 -2      1966       137      2130      2202
 -1      2921    3    0    1
 -2       563       945       948      2135
 -1      2922    3    0    1
 -2      1358       845      1357      2156
 -1      2923    3    0    1
 -2      3010      2677      3292      3691
 -1      2924    3    0    1
 -2      1978      2179      2191      2376
 -1      2925    3    0    1
 -2       982       641      1300      2386
 -1      2926    3    0    1
 -2      1973      1992      2040      2298
 -1      2927    3    0    1
 -2       193      2209      2304      2439
 -1      2928    3    0    1
 -2       175       426      1001      2516
 -1      2929    3    0    1
 -2      2389      2237      2404      2420
 -1      2930    3    0    1
 -2      2919      3558      3117      3609
 -1      2931    3    0    1
 -2      2733      2954      3286      3646
 -1      2932    3    0    1
 -2      2000       220      2305      2357
 -1      2933    3    0    1
 -2      2032      1999      2042      2115
 -1      2934    3    0    1
 -2       822      1972      2236      2455
 -1      2935    3    0    1
 -2      1379       863       864      2119
 -1      2936    3    0    1
 -2        93       946       947      2255
 -1      2937    3    0    1
 -2      2032       225      2047      2224
 -1      2938    3    0    1
 -2      2109      2088      2338      2345
 -1      2939    3    0    1
 -2       391      1041      2229      2418
 -1      2940    3    0    1
 -2       130      1292      2073      2303
 -1      2941    3    0    1
 -2      1351       841      1350      2184
 -1      2942    3    0    1
 -2      1989      2099      2346      2430
 -1      2943    3    0    1
 -2       339       985      2278      2384
 -1      2944    3    0    1
 -2      1392       875      1391      2101
 -1      2945    3    0    1
 -2      2107      1307      2172      2188
 -1      2946    3    0    1
 -2      1294       977       623      2205
 -1      2947    3    0    1
 -2       881       892      2056      2227
 -1      2948    3    0    1
 -2      2073      1995      2130      2202
 -1      2949    3    0    1
 -2       237       242      1046      2408
 -1      2950    3    0    1
 -2      2253       679      2276      2350
 -1      2951    3    0    1
 -2      1298       986      3579      3692
 -1      2952    3    0    1
 -2       658       162       991      1304
 -1      2953    3    0    1
 -2      1366       431      1367      2122
 -1      2954    3    0    1
 -2      2086      1998      2119      2174
 -1      2955    3    0    1
 -2      2010      2057      2120      2121
 -1      2956    3    0    1
 -2      1601      1766      1767      3111
 -1      2957    3    0    1
 -2      1016      1315      1970      2380
 -1      2958    3    0    1
 -2      2060       311      2166      2187
 -1      2959    3    0    1
 -2      1063       348      3697      1955
 -1      2960    3    0    1
 -2       761       762      1038      2446
 -1      2961    3    0    1
 -2      1291       401      2410      2474
 -1      2962    3    0    1
 -2      2003      1991      2341      2414
 -1      2963    3    0    1
 -2      3636      2593      3646      3329
 -1      2964    3    0    1
 -2      2011       375      2083      2176
 -1      2965    3    0    1
 -2       201      1020      1021      2214
 -1      2966    3    0    1
 -2       771       769      1043      2464
 -1      2967    3    0    1
 -2       995       671      2297      2431
 -1      2968    3    0    1
 -2       153       159       990      2206
 -1      2969    3    0    1
 -2      2047      2263      2277      2419
 -1      2970    3    0    1
 -2       375      1281      2251      2347
 -1      2971    3    0    1
 -2      2056      2052      2062      2227
 -1      2972    3    0    1
 -2       994      3560      3561      3623
 -1      2973    3    0    1
 -2      1326       766       774      2355
 -1      2974    3    0    1
 -2      1000       172      2190      2225
 -1      2975    3    0    1
 -2       978       363      2259      2444
 -1      2976    3    0    1
 -2      1372      1089      2132      2180
 -1      2977    3    0    1
 -2       262       260      1053      2452
 -1      2978    3    0    1
 -2      2003       383      2014      2164
 -1      2979    3    0    1
 -2       423      2030      2055      2071
 -1      2980    3    0    1
 -2      1341       289      1342      2183
 -1      2981    3    0    1
 -2       299      1374       318      2366
 -1      2982    3    0    1
 -2       789      1051      2219      2484
 -1      2983    3    0    1
 -2      1408       323       448      2353
 -1      2984    3    0    1
 -2      1379      1998       392      1095
 -1      2985    3    0    1
 -2      2870      3584      3347      1894
 -1      2986    3    0    1
 -2       424      2116      2317      2443
 -1      2987    3    0    1
 -2       680      1001      2055      2211
 -1      2988    3    0    1
 -2       373      1341      1986      2183
 -1      2989    3    0    1
 -2       958      2269      2391      2481
 -1      2990    3    0    1
 -2      1008       697      1311      2252
 -1      2991    3    0    1
 -2       137      2073      2130      2202
 -1      2992    3    0    1
 -2      3223      3015      3612      3682
 -1      2993    3    0    1
 -2       991       659      1304      2141
 -1      2994    3    0    1
 -2      1302       367      2320      2337
 -1      2995    3    0    1
 -2      1310       697      2055      2266
 -1      2996    3    0    1
 -2      1295       976       625      2324
 -1      2997    3    0    1
 -2       708      1014      2216      2316
 -1      2998    3    0    1
 -2      1029      2361      2479      3696
 -1      2999    3    0    1
 -2       227       336      3694      3696
 -1      3000    3    0    1
 -2       277       386      1337      1972
 -1      3001    3    0    1
 -2       975       625      1296      2280
 -1      3002    3    0    1
 -2      1033       220      2128      2262
 -1      3003    3    0    1
 -2      1829      3205      1841      1866
 -1      3004    3    0    1
 -2       744       743      1031      2361
 -1      3005    3    0    1
 -2      2008       423      2057      2113
 -1      3006    3    0    1
 -2      1364       297      1361      2376
 -1      3007    3    0    1
 -2      2057      2008      2113      2120
 -1      3008    3    0    1
 -2       384      1065      2359      2428
 -1      3009    3    0    1
 -2      2044       429      2310      2336
 -1      3010    3    0    1
 -2       994      1301       659      2559
 -1      3011    3    0    1
 -2       819      2170      2258      2314
 -1      3012    3    0    1
 -2      1084       853      1369      2090
 -1      3013    3    0    1
 -2       370       369      2286      2437
 -1      3014    3    0    1
 -2       253      1050      2080      2427
 -1      3015    3    0    1
 -2       293      1985      2006      2155
 -1      3016    3    0    1
 -2      1971      2018      2437      2481
 -1      3017    3    0    1
 -2      2076      2072      2191      2394
 -1      3018    3    0    1
 -2      2235      2033      2310      2336
 -1      3019    3    0    1
 -2      2185      2013      2246      2407
 -1      3020    3    0    1
 -2       676       999      2141      2243
 -1      3021    3    0    1
 -2      1336      1068       819      2314
 -1      3022    3    0    1
 -2      2016      1996      2075      2193
 -1      3023    3    0    1
 -2       330       189       700      1312
 -1      3024    3    0    1
 -2      1974      1980      1982      2221
 -1      3025    3    0    1
 -2      2022      2238      2349      2372
 -1      3026    3    0    1
 -2       119      1436      2715      1607
 -1      3027    3    0    1
 -2       807      1059      2432      2486
 -1      3028    3    0    1
 -2      2899      3288      3654      3341
 -1      3029    3    0    1
 -2       864       863      2114      2119
 -1      3030    3    0    1
 -2       407       971       972      2201
 -1      3031    3    0    1
 -2       566       914      1182      1285
 -1      3032    3    0    1
 -2       232      1036      2398      2450
 -1      3033    3    0    1
 -2       121       360      2340      2447
 -1      3034    3    0    1
 -2      1634      3532      3587      3720
 -1      3035    3    0    1
 -2      2573      2544      3533      3542
 -1      3036    3    0    1
 -2      1060      1336      2194      3505
 -1      3037    3    0    1
 -2      1993      2003      2140      2414
 -1      3038    3    0    1
 -2      2027      1987      2109      2411
 -1      3039    3    0    1
 -2      1407       440      2008      2078
 -1      3040    3    0    1
 -2      2685      2812      3553      3590
 -1      3041    3    0    1
 -2      2007      2025      2094      2334
 -1      3042    3    0    1
 -2       420      2037      2054      2190
 -1      3043    3    0    1
 -2       419       367      2145      2320
 -1      3044    3    0    1
 -2      2084      2070      2392      2448
 -1      3045    3    0    1
 -2      1990      2062      2146      2325
 -1      3046    3    0    1
 -2      2195       733      2265      2331
 -1      3047    3    0    1
 -2       149       364       984      2279
 -1      3048    3    0    1
 -2       302      2029      2147      2313
 -1      3049    3    0    1
 -2      1759      1495      1760      3076
 -1      3050    3    0    1
 -2       311      1360      2060      2166
 -1      3051    3    0    1
 -2      1977      1124      2076      2179
 -1      3052    3    0    1
 -2      1352      1078      2036      2180
 -1      3053    3    0    1
 -2       414       628       979      1962
 -1      3054    3    0    1
 -2      2049      2025      2058      2098
 -1      3055    3    0    1
 -2       761       780      1048      2074
 -1      3056    3    0    1
 -2       344       247      3529      3530
 -1      3057    3    0    1
 -2       396       395      2002      2084
 -1      3058    3    0    1
 -2      1280       944      3588      3592
 -1      3059    3    0    1
 -2      2915      1598      3130      3300
 -1      3060    3    0    1
 -2      2094      2037      2190      2225
 -1      3061    3    0    1
 -2       413       144      1295      2160
 -1      3062    3    0    1
 -2      1003       174      1006      2068
 -1      3063    3    0    1
 -2       298       308      2012      2142
 -1      3064    3    0    1
 -2       730      1319      1023      2046
 -1      3065    3    0    1
 -2      2111      2012      2117      2310
 -1      3066    3    0    1
 -2       387      2379      2401      2434
 -1      3067    3    0    1
 -2      2140      2003      2341      2414
 -1      3068    3    0    1
 -2       727      1621      1622      2950
 -1      3069    3    0    1
 -2       157       988      2507      1733
 -1      3070    3    0    1
 -2      1971      1985      2006      2296
 -1      3071    3    0    1
 -2       149       364      2279      2323
 -1      3072    3    0    1
 -2      2189       414      2429      3704
 -1      3073    3    0    1
 -2      1968       236      1998      2174
 -1      3074    3    0    1
 -2       391       243      1041      2418
 -1      3075    3    0    1
 -2      1147      2510      2536      2722
 -1      3076    3    0    1
 -2      2021       950      2382      2389
 -1      3077    3    0    1
 -2       517      1295       976       625
 -1      3078    3    0    1
 -2      2159      2177      2235      2439
 -1      3079    3    0    1
 -2      1045       779      2377      2408
 -1      3080    3    0    1
 -2       149       364      2323      2374
 -1      3081    3    0    1
 -2      1404      1991      2056      2227
 -1      3082    3    0    1
 -2      1359      1079      2155      2173
 -1      3083    3    0    1
 -2       404       108      3690      1954
 -1      3084    3    0    1
 -2      1984      1401      2150      2173
 -1      3085    3    0    1
 -2      1971      2223      2318      2354
 -1      3086    3    0    1
 -2      1979      1966      2104      2202
 -1      3087    3    0    1
 -2      1281       554      2021      2389
 -1      3088    3    0    1
 -2      2242      2548      3524      3550
 -1      3089    3    0    1
 -2      2637      2859      3555      2975
 -1      3090    3    0    1
 -2      2136      2000      2217      2305
 -1      3091    3    0    1
 -2      1042      2047      2263      2277
 -1      3092    3    0    1
 -2       877      1396      1106      2117
 -1      3093    3    0    1
 -2       388      1061      1072      2416
 -1      3094    3    0    1
 -2      1065       822      2236      2428
 -1      3095    3    0    1
 -2      2916      2528      3559      3667
 -1      3096    3    0    1
 -2      2085      1993      2106      2197
 -1      3097    3    0    1
 -2      1977      2023      2289      2368
 -1      3098    3    0    1
 -2      1099       867      1097      2034
 -1      3099    3    0    1
 -2      1316      1015       712      2388
 -1      3100    3    0    1
 -2       166      2253      2320      2339
 -1      3101    3    0    1
 -2      1975       369      2087      2286
 -1      3102    3    0    1
 -2      2034      1996      2093      2333
 -1      3103    3    0    1
 -2       947       564      1070      2500
 -1      3104    3    0    1
 -2       967      1292      2210      2362
 -1      3105    3    0    1
 -2      2309      2300      2329      2400
 -1      3106    3    0    1
 -2      1308       999       683      2243
 -1      3107    3    0    1
 -2      1052       792      1327      2241
 -1      3108    3    0    1
 -2      1045      2375      2377      2445
 -1      3109    3    0    1
 -2       499       498      2623      3494
 -1      3110    3    0    1
 -2       304      1100      2182      2315
 -1      3111    3    0    1
 -2       179      1306      2253      2271
 -1      3112    3    0    1
 -2       978       144       981      2259
 -1      3113    3    0    1
 -2      2059      1295      2082      2280
 -1      3114    3    0    1
 -2      1301       659      2143      2406
 -1      3115    3    0    1
 -2      2111      2117      2260      2336
 -1      3116    3    0    1
 -2      2635      2709      2918      3609
 -1      3117    3    0    1
 -2       799      1752      1753      3023
 -1      3118    3    0    1
 -2      1978      1995      2073      2192
 -1      3119    3    0    1
 -2       845      1358       846      2156
 -1      3120    3    0    1
 -2       753       751      2233      2272
 -1      3121    3    0    1
 -2      2070      2084      2128      2262
 -1      3122    3    0    1
 -2      1065      1067       822      2424
 -1      3123    3    0    1
 -2      2005       420      2049      2098
 -1      3124    3    0    1
 -2      1292       130      2210      2303
 -1      3125    3    0    1
 -2      2007      2094      2112      2334
 -1      3126    3    0    1
 -2      2128      2001      2262      2357
 -1      3127    3    0    1
 -2      1966      1979      2192      2202
 -1      3128    3    0    1
 -2       857      1373      1088      2203
 -1      3129    3    0    1
 -2       641       629      2205      2386
 -1      3130    3    0    1
 -2      1117      1406      2127      2433
 -1      3131    3    0    1
 -2      1968      1998      2149      2174
 -1      3132    3    0    1
 -2       362       315      1362      2104
 -1      3133    3    0    1
 -2      2008      2017      2035      2078
 -1      3134    3    0    1
 -2       749       461       902      1135
 -1      3135    3    0    1
 -2       453       749      1038      1135
 -1      3136    3    0    1
 -2       180       678       687      1131
 -1      3137    3    0    1
 -2       180       181       678      1131
 -1      3138    3    0    1
 -2       685        18       176      1132
 -1      3139    3    0    1
 -2        18       685       677      1132
 -1      3140    3    0    1
 -2       677        18      1132      1133
 -1      3141    3    0    1
 -2         3       686       177      1133
 -1      3142    3    0    1
 -2       686         3       682      1133
 -1      3143    3    0    1
 -2       181        85       678      1134
 -1      3144    3    0    1
 -2       181       678      1131      1134
 -1      3145    3    0    1
 -2       688        85       182      1134
 -1      3146    3    0    1
 -2        85       688       681      1134
 -1      3147    3    0    1
 -2         5       646       650      1136
 -1      3148    3    0    1
 -2         5       155       646      1136
 -1      3149    3    0    1
 -2       658      1139      1138       455
 -1      3150    3    0    1
 -2       658      1139         9      1138
 -1      3151    3    0    1
 -2      1139       658         9       664
 -1      3152    3    0    1
 -2       455      1139       456       664
 -1      3153    3    0    1
 -2       658         8       667      1138
 -1      3154    3    0    1
 -2        74         8       658      1138
 -1      3155    3    0    1
 -2       660      1140       455       898
 -1      3156    3    0    1
 -2       455      1140       663       456
 -1      3157    3    0    1
 -2      2479      3416      3694      3696
 -1      3158    3    0    1
 -2      1110       382      1403      2123
 -1      3159    3    0    1
 -2       461       752      1036      1146
 -1      3160    3    0    1
 -2       461       750       752      1146
 -1      3161    3    0    1
 -2      1316       901       713      1144
 -1      3162    3    0    1
 -2      2624      2564      3187      3625
 -1      3163    3    0    1
 -2       901      1316       713      1015
 -1      3164    3    0    1
 -2        79       713       901      1144
 -1      3165    3    0    1
 -2      1689      3573      3608      3473
 -1      3166    3    0    1
 -2       461       453       750      1146
 -1      3167    3    0    1
 -2       750       453       897      1146
 -1      3168    3    0    1
 -2         4       750       897      1146
 -1      3169    3    0    1
 -2       750         4       752      1146
 -1      3170    3    0    1
 -2       760       224       231      1146
 -1      3171    3    0    1
 -2       224       760       752      1146
 -1      3172    3    0    1
 -2       640       649       989      1151
 -1      3173    3    0    1
 -2       640       464       646      1151
 -1      3174    3    0    1
 -2       646       464      1136      1151
 -1      3175    3    0    1
 -2        63       640       646      1151
 -1      3176    3    0    1
 -2       155        63       646      1151
 -1      3177    3    0    1
 -2       155       646      1136      1151
 -1      3178    3    0    1
 -2       640        19       649      1151
 -1      3179    3    0    1
 -2        63        19       640      1151
 -1      3180    3    0    1
 -2        22       614       136      1152
 -1      3181    3    0    1
 -2       614        22       610      1152
 -1      3182    3    0    1
 -2       606       470       905      1153
 -1      3183    3    0    1
 -2       133        21       606      1153
 -1      3184    3    0    1
 -2       133       606       905      1153
 -1      3185    3    0    1
 -2       616        21       135      1153
 -1      3186    3    0    1
 -2        21       616       609      1153
 -1      3187    3    0    1
 -2       904      1291       609       968
 -1      3188    3    0    1
 -2        21       609       904      1155
 -1      3189    3    0    1
 -2        20       603       602      1156
 -1      3190    3    0    1
 -2       602       967      1154      1156
 -1      3191    3    0    1
 -2        20       602      1154      1156
 -1      3192    3    0    1
 -2      2840      2727      1738      3710
 -1      3193    3    0    1
 -2       610       966      1158      1160
 -1      3194    3    0    1
 -2      2658      1614      2768      2839
 -1      3195    3    0    1
 -2       470       604       972      1161
 -1      3196    3    0    1
 -2       604       613       972      1161
 -1      3197    3    0    1
 -2      2963      1284      3575      3625
 -1      3198    3    0    1
 -2      1030       210      2543      3526
 -1      3199    3    0    1
 -2      1700      3198      3199      3210
 -1      3200    3    0    1
 -2       125       408      3539      1814
 -1      3201    3    0    1
 -2       470       465       604      1161
 -1      3202    3    0    1
 -2       604       465      1152      1161
 -1      3203    3    0    1
 -2       604       131       613      1161
 -1      3204    3    0    1
 -2       132       131       604      1161
 -1      3205    3    0    1
 -2      1555      2709      2918      3258
 -1      3206    3    0    1
 -2       575       568      2562      2796
 -1      3207    3    0    1
 -2       552        34       555      1170
 -1      3208    3    0    1
 -2       477       555       945      1170
 -1      3209    3    0    1
 -2      3386      1519      3470      3722
 -1      3210    3    0    1
 -2      3586      1642      3201      3343
 -1      3211    3    0    1
 -2      2454      2335      2613      3697
 -1      3212    3    0    1
 -2       187      1008      1311      2240
 -1      3213    3    0    1
 -2        38       569      1164      1166
 -1      3214    3    0    1
 -2       909      1282       551       940
 -1      3215    3    0    1
 -2      1255      1304      2559      2634
 -1      3216    3    0    1
 -2       551       559       947      1172
 -1      3217    3    0    1
 -2       477      1171       478       552
 -1      3218    3    0    1
 -2        34      1171      1170       552
 -1      3219    3    0    1
 -2       477      1171       552      1170
 -1      3220    3    0    1
 -2       555        30       562      1170
 -1      3221    3    0    1
 -2        34        30       555      1170
 -1      3222    3    0    1
 -2       477      1172       551       478
 -1      3223    3    0    1
 -2       788       796      1053      1175
 -1      3224    3    0    1
 -2       788       481       929      1175
 -1      3225    3    0    1
 -2        35       788       929      1175
 -1      3226    3    0    1
 -2       796        35       261      1175
 -1      3227    3    0    1
 -2        35       796       788      1175
 -1      3228    3    0    1
 -2       484       485       949      1180
 -1      3229    3    0    1
 -2       116      1179       117       584
 -1      3230    3    0    1
 -2       958      1178      1177       482
 -1      3231    3    0    1
 -2       958      1178       588      1177
 -1      3232    3    0    1
 -2       584       959      1176      1179
 -1      3233    3    0    1
 -2        36      1178       591        37
 -1      3234    3    0    1
 -2       483      1288       482       590
 -1      3235    3    0    1
 -2       869       870      2182      2315
 -1      3236    3    0    1
 -2       485      1285      1182       484
 -1      3237    3    0    1
 -2       443       442      1111      2227
 -1      3238    3    0    1
 -2       343      1037      2446      3698
 -1      3239    3    0    1
 -2       570       949       951      1181
 -1      3240    3    0    1
 -2       570       103      1180      1181
 -1      3241    3    0    1
 -2       949       570      1180      1181
 -1      3242    3    0    1
 -2       485      1285       484       572
 -1      3243    3    0    1
 -2       103       111       573      1183
 -1      3244    3    0    1
 -2       573       111       915      1183
 -1      3245    3    0    1
 -2       487       486       573      1183
 -1      3246    3    0    1
 -2       915       487       573      1183
 -1      3247    3    0    1
 -2       103       579       113      1183
 -1      3248    3    0    1
 -2       579       103       570      1183
 -1      3249    3    0    1
 -2        38       577       569      1184
 -1      3250    3    0    1
 -2       598        37       122      1185
 -1      3251    3    0    1
 -2        37       598       591      1185
 -1      3252    3    0    1
 -2       597        36       588      1186
 -1      3253    3    0    1
 -2       595        25        39      1187
 -1      3254    3    0    1
 -2        25       595       586      1187
 -1      3255    3    0    1
 -2      3038      1734      3106      3651
 -1      3256    3    0    1
 -2        45       241       773      1195
 -1      3257    3    0    1
 -2       783      1050      1189      1329
 -1      3258    3    0    1
 -2       491      1329      1050       787
 -1      3259    3    0    1
 -2       491      1328       490       787
 -1      3260    3    0    1
 -2      1051       490      1188      1191
 -1      3261    3    0    1
 -2       586       115       964      1953
 -1      3262    3    0    1
 -2      1426      1427      2886      1795
 -1      3263    3    0    1
 -2      1330       918       785      1193
 -1      3264    3    0    1
 -2        43      1925      1926      1931
 -1      3265    3    0    1
 -2      2700      3015      3223      3682
 -1      3266    3    0    1
 -2       918      1330       785      1049
 -1      3267    3    0    1
 -2      3114      3601      3515      3091
 -1      3268    3    0    1
 -2        42       785       918      1193
 -1      3269    3    0    1
 -2      2553      2783      3144      3701
 -1      3270    3    0    1
 -2      1338      1335       826      2170
 -1      3271    3    0    1
 -2      1078      2020      2036      2180
 -1      3272    3    0    1
 -2      1628      1627      2930      3133
 -1      3273    3    0    1
 -2       768      1041      1043      1196
 -1      3274    3    0    1
 -2      2802      2660      3568      3591
 -1      3275    3    0    1
 -2       825       500      1070      1204
 -1      3276    3    0    1
 -2       496      1200      1041       497
 -1      3277    3    0    1
 -2      1786      1694      1787        94
 -1      3278    3    0    1
 -2      2509      2534      3570      3598
 -1      3279    3    0    1
 -2      3362      3358      3678      3432
 -1      3280    3    0    1
 -2      2010      2065      2077      2139
 -1      3281    3    0    1
 -2       764       235       765      1199
 -1      3282    3    0    1
 -2       920      1325       764      1042
 -1      3283    3    0    1
 -2       439      3631      1878      3343
 -1      3284    3    0    1
 -2       828       825      1070      1204
 -1      3285    3    0    1
 -2        49        46       825      1204
 -1      3286    3    0    1
 -2       820       500       825      1204
 -1      3287    3    0    1
 -2      1896      1902      3374      3434
 -1      3288    3    0    1
 -2      1349       839       840      2066
 -1      3289    3    0    1
 -2       352       559       354      1676
 -1      3290    3    0    1
 -2      1689      3608      3719      3473
 -1      3291    3    0    1
 -2       826      2170      2314      2575
 -1      3292    3    0    1
 -2        49       828       284      1204
 -1      3293    3    0    1
 -2       828        49       825      1204
 -1      3294    3    0    1
 -2       500       501       821      1205
 -1      3295    3    0    1
 -2       830        48       287      1205
 -1      3296    3    0    1
 -2        48       830       824      1205
 -1      3297    3    0    1
 -2       829       281       821      1206
 -1      3298    3    0    1
 -2       501       500       820      1207
 -1      3299    3    0    1
 -2       820       500      1204      1207
 -1      3300    3    0    1
 -2       827        46       283      1207
 -1      3301    3    0    1
 -2        46       827       820      1207
 -1      3302    3    0    1
 -2       278       817       818      1208
 -1      3303    3    0    1
 -2       923      1337       818      1066
 -1      3304    3    0    1
 -2       278       818       923      1208
 -1      3305    3    0    1
 -2        48       824       922      1209
 -1      3306    3    0    1
 -2       803       506       809      1212
 -1      3307    3    0    1
 -2        50       803       809      1212
 -1      3308    3    0    1
 -2       506      1215      1212       803
 -1      3309    3    0    1
 -2       506      1215       803       507
 -1      3310    3    0    1
 -2        52       812       271      1212
 -1      3311    3    0    1
 -2       812        52       809      1212
 -1      3312    3    0    1
 -2       506      1214       507       804
 -1      3313    3    0    1
 -2       814        55       273      1213
 -1      3314    3    0    1
 -2        55       814       806      1213
 -1      3315    3    0    1
 -2        50       811       803      1215
 -1      3316    3    0    1
 -2       767      1246       511       773
 -1      3317    3    0    1
 -2       767      1246       773        45
 -1      3318    3    0    1
 -2       526       770      1045      1247
 -1      3319    3    0    1
 -2       511      1246       526       773
 -1      3320    3    0    1
 -2      1246       767       511      1218
 -1      3321    3    0    1
 -2       775        45        58      1218
 -1      3322    3    0    1
 -2        45       775       767      1218
 -1      3323    3    0    1
 -2      1851      3350      1917      1918
 -1      3324    3    0    1
 -2      1034       515      1224      1226
 -1      3325    3    0    1
 -2       988       997      2343      3518
 -1      3326    3    0    1
 -2      1534      3146      1836      3249
 -1      3327    3    0    1
 -2       974       623      2189      2204
 -1      3328    3    0    1
 -2      1393      1390      2108      2167
 -1      3329    3    0    1
 -2       515      1321      1226      1034
 -1      3330    3    0    1
 -2       622       516       628      1227
 -1      3331    3    0    1
 -2       221       747       746      1225
 -1      3332    3    0    1
 -2       746      1033      1223      1225
 -1      3333    3    0    1
 -2       221       746      1223      1225
 -1      3334    3    0    1
 -2       224         4       752      1226
 -1      3335    3    0    1
 -2       752      1034      1224      1226
 -1      3336    3    0    1
 -2       224       752      1224      1226
 -1      3337    3    0    1
 -2       516      1244      1227       622
 -1      3338    3    0    1
 -2       516      1244       622       525
 -1      3339    3    0    1
 -2       140       632       145      1227
 -1      3340    3    0    1
 -2       632       140       628      1227
 -1      3341    3    0    1
 -2       516      1235       624      1228
 -1      3342    3    0    1
 -2       634        61       143      1228
 -1      3343    3    0    1
 -2        61       634       627      1228
 -1      3344    3    0    1
 -2       517      1233       976      1230
 -1      3345    3    0    1
 -2       517      1233       520       976
 -1      3346    3    0    1
 -2       620      1234        60       621
 -1      3347    3    0    1
 -2      1999      2032      2047      2224
 -1      3348    3    0    1
 -2       976       624      1230      1233
 -1      3349    3    0    1
 -2       280      2170      2525      3425
 -1      3350    3    0    1
 -2      1108      1123      2171      2313
 -1      3351    3    0    1
 -2       633        66       624      1235
 -1      3352    3    0    1
 -2        61      1235       624        66
 -1      3353    3    0    1
 -2       638        65       639      1240
 -1      3354    3    0    1
 -2       638       639       984      1240
 -1      3355    3    0    1
 -2      2194      1336      2314      3505
 -1      3356    3    0    1
 -2      2993      1541      3151      3372
 -1      3357    3    0    1
 -2        63       155       646      1239
 -1      3358    3    0    1
 -2       396      2040      2051      2298
 -1      3359    3    0    1
 -2       640       982      1236      1239
 -1      3360    3    0    1
 -2        63       640      1236      1239
 -1      3361    3    0    1
 -2       524      1299      1243       523
 -1      3362    3    0    1
 -2       639       984      1240      1243
 -1      3363    3    0    1
 -2       642       983       985      1242
 -1      3364    3    0    1
 -2       642       152      1241      1242
 -1      3365    3    0    1
 -2       983       642      1241      1242
 -1      3366    3    0    1
 -2       984       523      1240      1243
 -1      3367    3    0    1
 -2       524      1299       523       644
 -1      3368    3    0    1
 -2       532       531       731      1245
 -1      3369    3    0    1
 -2       731        77       739      1245
 -1      3370    3    0    1
 -2       209        77       731      1245
 -1      3371    3    0    1
 -2       768      1247       511       930
 -1      3372    3    0    1
 -2       511      1247       770       526
 -1      3373    3    0    1
 -2      1471      1472      1656      2904
 -1      3374    3    0    1
 -2         9       658      1253      1255
 -1      3375    3    0    1
 -2       630      3619      3285      1899
 -1      3376    3    0    1
 -2       433       119      1510      1607
 -1      3377    3    0    1
 -2       731      1023      1249      1251
 -1      3378    3    0    1
 -2       737       531      1029      1256
 -1      3379    3    0    1
 -2      3520      3587      3683      3715
 -1      3380    3    0    1
 -2        70       731       737      1256
 -1      3381    3    0    1
 -2       731        70      1245      1256
 -1      3382    3    0    1
 -2       945      2237      2268      2425
 -1      3383    3    0    1
 -2       658       991      1253      1255
 -1      3384    3    0    1
 -2       731       531       737      1256
 -1      3385    3    0    1
 -2        70       740       215      1256
 -1      3386    3    0    1
 -2       740        70       737      1256
 -1      3387    3    0    1
 -2       535      1266      1263      1008
 -1      3388    3    0    1
 -2        78       722       203      1258
 -1      3389    3    0    1
 -2       722        78       718      1258
 -1      3390    3    0    1
 -2       534       713      1021      1262
 -1      3391    3    0    1
 -2       724        81        82      1259
 -1      3392    3    0    1
 -2        81       724       717      1259
 -1      3393    3    0    1
 -2      1270       660       993      1269
 -1      3394    3    0    1
 -2       534       714       717      1261
 -1      3395    3    0    1
 -2       533       534       717      1261
 -1      3396    3    0    1
 -2       533       717      1259      1261
 -1      3397    3    0    1
 -2       714        81       717      1261
 -1      3398    3    0    1
 -2       717        81      1259      1261
 -1      3399    3    0    1
 -2        83       723       204      1261
 -1      3400    3    0    1
 -2       723        83       714      1261
 -1      3401    3    0    1
 -2        79       721       713      1262
 -1      3402    3    0    1
 -2       535      1310      1264      1009
 -1      3403    3    0    1
 -2      1298       647       641      2143
 -1      3404    3    0    1
 -2       184       692      1263      1266
 -1      3405    3    0    1
 -2        89      1265       699       191
 -1      3406    3    0    1
 -2       692      1008      1263      1266
 -1      3407    3    0    1
 -2       744      2361      2381      2442
 -1      3408    3    0    1
 -2        85       678       681      1267
 -1      3409    3    0    1
 -2       934      1306       681      1001
 -1      3410    3    0    1
 -2        85       681       934      1267
 -1      3411    3    0    1
 -2        84       675       674      1268
 -1      3412    3    0    1
 -2       674      1000      1260      1268
 -1      3413    3    0    1
 -2        84       674      1260      1268
 -1      3414    3    0    1
 -2      2665       519      2774      2794
 -1      3415    3    0    1
 -2         7      1270       663       161
 -1      3416    3    0    1
 -2       699       706      1011      1274
 -1      3417    3    0    1
 -2       541      1273       542       700
 -1      3418    3    0    1
 -2      1273       695       541      1272
 -1      3419    3    0    1
 -2       703        11        88      1272
 -1      3420    3    0    1
 -2        11       703       695      1272
 -1      3421    3    0    1
 -2       696      1274       541       936
 -1      3422    3    0    1
 -2       541      1274       699       542
 -1      3423    3    0    1
 -2        81        83       714      1277
 -1      3424    3    0    1
 -2       198       331      1022      2348
 -1      3425    3    0    1
 -2       545      1315       715       716
 -1      3426    3    0    1
 -2       546      1315       715       545
 -1      3427    3    0    1
 -2       939      1315      1016       546
 -1      3428    3    0    1
 -2       546      1315      1016       715
 -1      3429    3    0    1
 -2      1017       545      1277      1279
 -1      3430    3    0    1
 -2      2255       563      2268      2601
 -1      3431    3    0    1
 -2       871      1104       872      2129
 -1      3432    3    0    1
 -2      2712      1521      1725      1726
 -1      3433    3    0    1
 -2      3221      3076      3401      3436
 -1      3434    3    0    1
 -2       530      1255      2559      2634
 -1      3435    3    0    1
 -2      1167      2947      3331      3420
 -1      3436    3    0    1
 -2       547       375       942      1281
 -1      3437    3    0    1
 -2      3198      3211      3653      3210
 -1      3438    3    0    1
 -2      1123       879      1108      2171
 -1      3439    3    0    1
 -2      2035      2008      2113      2172
 -1      3440    3    0    1
 -2       366      1967      2005      2048
 -1      3441    3    0    1
 -2       109       102      2420      2425
 -1      3442    3    0    1
 -2       553      1281       479       942
 -1      3443    3    0    1
 -2       912      1281       479      1173
 -1      3444    3    0    1
 -2       779      1045      1048      2408
 -1      3445    3    0    1
 -2      1645      2960      3161      3271
 -1      3446    3    0    1
 -2       361       968      2059      2082
 -1      3447    3    0    1
 -2      2767      1491      1685      1686
 -1      3448    3    0    1
 -2      2093      1996      2114      2333
 -1      3449    3    0    1
 -2      2218      2520      3504      2752
 -1      3450    3    0    1
 -2      2129      2086      2148      2149
 -1      3451    3    0    1
 -2       943       378      2237      2371
 -1      3452    3    0    1
 -2      1429      1428      3144      3162
 -1      3453    3    0    1
 -2      2375      1045      2377      2408
 -1      3454    3    0    1
 -2      1999      2047      2063      2224
 -1      3455    3    0    1
 -2       482       589       590      1288
 -1      3456    3    0    1
 -2       882      1405       893      2140
 -1      3457    3    0    1
 -2       291      1076      1346      2136
 -1      3458    3    0    1
 -2       914       566       950      1285
 -1      3459    3    0    1
 -2       484       571       572      1285
 -1      3460    3    0    1
 -2       484       950       571      1285
 -1      3461    3    0    1
 -2       914       484      1182      1285
 -1      3462    3    0    1
 -2       950       484       914      1285
 -1      3463    3    0    1
 -2       400       569       574      1286
 -1      3464    3    0    1
 -2       569      1164      1166      1286
 -1      3465    3    0    1
 -2       569       400      1283      1286
 -1      3466    3    0    1
 -2      1164       569      1283      1286
 -1      3467    3    0    1
 -2      2246      2228      2491      2563
 -1      3468    3    0    1
 -2      2228      2246      2288      2563
 -1      3469    3    0    1
 -2       963       599      2105      2605
 -1      3470    3    0    1
 -2      2105       599      2421      2605
 -1      3471    3    0    1
 -2      1992      1973      2051      2298
 -1      3472    3    0    1
 -2      1163       586       906      1289
 -1      3473    3    0    1
 -2       264      3571      3616      3311
 -1      3474    3    0    1
 -2       586       115       957      1289
 -1      3475    3    0    1
 -2      3545      1580      3709      3499
 -1      3476    3    0    1
 -2      3291      2922      3337      3705
 -1      3477    3    0    1
 -2       906       586       957      1289
 -1      3478    3    0    1
 -2      3539      3506      3629      3687
 -1      3479    3    0    1
 -2       609       129       968      1291
 -1      3480    3    0    1
 -2       904      1291       466      1155
 -1      3481    3    0    1
 -2       429      2012      2044      2310
 -1      3482    3    0    1
 -2       602       967      1156      1292
 -1      3483    3    0    1
 -2       603       602      1156      1292
 -1      3484    3    0    1
 -2       126       603       130      1292
 -1      3485    3    0    1
 -2       602       126       967      1292
 -1      3486    3    0    1
 -2       603       126       602      1292
 -1      3487    3    0    1
 -2       654      2206      2259      2412
 -1      3488    3    0    1
 -2      1406       884      1117      2127
 -1      3489    3    0    1
 -2      1988      2029      2031      2083
 -1      3490    3    0    1
 -2      1988      2011      2176      2178
 -1      3491    3    0    1
 -2      1981       365      2015      2207
 -1      3492    3    0    1
 -2       359       327      1080      2076
 -1      3493    3    0    1
 -2      1997       967      2053      2307
 -1      3494    3    0    1
 -2      2118      2150      2171      2173
 -1      3495    3    0    1
 -2      1319      1023      2046      2479
 -1      3496    3    0    1
 -2       517       625       626      1296
 -1      3497    3    0    1
 -2       137       621       139      1296
 -1      3498    3    0    1
 -2       620       137       975      1296
 -1      3499    3    0    1
 -2       621       137       620      1296
 -1      3500    3    0    1
 -2       625       517       975      1296
 -1      3501    3    0    1
 -2       409       622       628      1297
 -1      3502    3    0    1
 -2      2071      1008      2240      2266
 -1      3503    3    0    1
 -2      1232       622       931      1297
 -1      3504    3    0    1
 -2      1034       753      2233      2419
 -1      3505    3    0    1
 -2      1533      1532      2648      1659
 -1      3506    3    0    1
 -2       622       409       974      1297
 -1      3507    3    0    1
 -2      3322      3318      3670      3444
 -1      3508    3    0    1
 -2       931       622       974      1297
 -1      3509    3    0    1
 -2      1298      2143      2584      3579
 -1      3510    3    0    1
 -2       643       523       984      1299
 -1      3511    3    0    1
 -2       378      2248      2268      2371
 -1      3512    3    0    1
 -2       157       416       640      1300
 -1      3513    3    0    1
 -2       640       982      1239      1300
 -1      3514    3    0    1
 -2       646       640      1239      1300
 -1      3515    3    0    1
 -2      3263      3639      3474      3490
 -1      3516    3    0    1
 -2       672       671      2145      2270
 -1      3517    3    0    1
 -2       640       416       982      1300
 -1      3518    3    0    1
 -2      2246      2288      2502      2570
 -1      3519    3    0    1
 -2      1083       320      2334      2451
 -1      3520    3    0    1
 -2      1973      1992      2051      2231
 -1      3521    3    0    1
 -2       367       168      2145      2337
 -1      3522    3    0    1
 -2       539       661       662      1303
 -1      3523    3    0    1
 -2      1271       656       935      1303
 -1      3524    3    0    1
 -2       366       657       420      1303
 -1      3525    3    0    1
 -2       656       366       992      1303
 -1      3526    3    0    1
 -2       657       366       656      1303
 -1      3527    3    0    1
 -2       992       539       935      1303
 -1      3528    3    0    1
 -2       539      1271       935      1303
 -1      3529    3    0    1
 -2       539       992       661      1303
 -1      3530    3    0    1
 -2       935       656       992      1303
 -1      3531    3    0    1
 -2      2089      1983      2213      2360
 -1      3532    3    0    1
 -2      1297       629      2665      2774
 -1      3533    3    0    1
 -2      1296       139      1966      2385
 -1      3534    3    0    1
 -2       678       681      1267      1306
 -1      3535    3    0    1
 -2       174       175       681      1306
 -1      3536    3    0    1
 -2      2175       784      2241      2355
 -1      3537    3    0    1
 -2       934      1306       537      1267
 -1      3538    3    0    1
 -2       681       175      1001      1306
 -1      3539    3    0    1
 -2       674       172      1000      1307
 -1      3540    3    0    1
 -2       675       172       674      1307
 -1      3541    3    0    1
 -2      1390       875      2108      2167
 -1      3542    3    0    1
 -2      1994      2043      2085      2182
 -1      3543    3    0    1
 -2       442       443      1991      2227
 -1      3544    3    0    1
 -2      2037      2025      2049      2098
 -1      3545    3    0    1
 -2       707       726      1011      2079
 -1      3546    3    0    1
 -2       884      1406       894      2127
 -1      3547    3    0    1
 -2      2106      1993      2140      2414
 -1      3548    3    0    1
 -2      1970      2004      2041      2181
 -1      3549    3    0    1
 -2       647       659      1300      2312
 -1      3550    3    0    1
 -2       679       680      1000      2107
 -1      3551    3    0    1
 -2       535       697       698      1311
 -1      3552    3    0    1
 -2       187       693       429      1311
 -1      3553    3    0    1
 -2       692       187      1008      1311
 -1      3554    3    0    1
 -2       693       187       692      1311
 -1      3555    3    0    1
 -2       697       535      1008      1311
 -1      3556    3    0    1
 -2       429      2310      2336      2449
 -1      3557    3    0    1
 -2      1142       695       899      1312
 -1      3558    3    0    1
 -2      2063      2129      2148      2149
 -1      3559    3    0    1
 -2      1504      1553      3158      3194
 -1      3560    3    0    1
 -2       695       189      1007      1312
 -1      3561    3    0    1
 -2       899       695      1007      1312
 -1      3562    3    0    1
 -2       715       545       716      1314
 -1      3563    3    0    1
 -2      1017       545      1279      1314
 -1      3564    3    0    1
 -2      2056      2062      2097      2227
 -1      3565    3    0    1
 -2      1031       744      2361      2381
 -1      3566    3    0    1
 -2       716       545      1017      1314
 -1      3567    3    0    1
 -2       939      1315       546      1278
 -1      3568    3    0    1
 -2       175       174      1003      2068
 -1      3569    3    0    1
 -2       713       328      1015      1316
 -1      3570    3    0    1
 -2      2228      2185      3204      3243
 -1      3571    3    0    1
 -2      2629      1585      2680      2789
 -1      3572    3    0    1
 -2      1025      2195      2265      2298
 -1      3573    3    0    1
 -2       199      1970      2004      2124
 -1      3574    3    0    1
 -2      2417       581      2447      3690
 -1      3575    3    0    1
 -2      2064      1966      2096      2104
 -1      3576    3    0    1
 -2       395       728       729      1318
 -1      3577    3    0    1
 -2       733      1318       543      1025
 -1      3578    3    0    1
 -2       938      1318       543      1275
 -1      3579    3    0    1
 -2       730      1319       527      1023
 -1      3580    3    0    1
 -2      2698      2706      2779      3537
 -1      3581    3    0    1
 -2      2041      2033      2124      2126
 -1      3582    3    0    1
 -2       219       223       752      1321
 -1      3583    3    0    1
 -2       752      1034      1226      1321
 -1      3584    3    0    1
 -2       750       752      1226      1321
 -1      3585    3    0    1
 -2       752       223      1034      1321
 -1      3586    3    0    1
 -2      3548      1773      3600      3662
 -1      3587    3    0    1
 -2      1303       420      2037      2054
 -1      3588    3    0    1
 -2       220       747       225      1322
 -1      3589    3    0    1
 -2       746       220      1033      1322
 -1      3590    3    0    1
 -2       747       220       746      1322
 -1      3591    3    0    1
 -2      1310      2209      2252      2443
 -1      3592    3    0    1
 -2       739       731      1030      1750
 -1      3593    3    0    1
 -2      2622      1504      2716      3589
 -1      3594    3    0    1
 -2       772       763      1643      2836
 -1      3595    3    0    1
 -2      1979      1966      2064      2104
 -1      3596    3    0    1
 -2       765       764      1199      1325
 -1      3597    3    0    1
 -2       236       764       765      1325
 -1      3598    3    0    1
 -2       769      1325       496      1042
 -1      3599    3    0    1
 -2       920      1325       496      1199
 -1      3600    3    0    1
 -2       104       368      2118      2239
 -1      3601    3    0    1
 -2       659       665       994      2559
 -1      3602    3    0    1
 -2       767       237      1040      1326
 -1      3603    3    0    1
 -2      1457      1914      3493      3737
 -1      3604    3    0    1
 -2      2075      2016      2193      2302
 -1      3605    3    0    1
 -2       412       361      2059      2082
 -1      3606    3    0    1
 -2      1051       490      1191      1328
 -1      3607    3    0    1
 -2       787       490       789      1328
 -1      3608    3    0    1
 -2       783       351      1050      1329
 -1      3609    3    0    1
 -2       789       490      1051      1328
 -1      3610    3    0    1
 -2       819       826      2170      2314
 -1      3611    3    0    1
 -2      2011      1988      2029      2178
 -1      3612    3    0    1
 -2       491      1329       490      1189
 -1      3613    3    0    1
 -2      1658       952      3535      3575
 -1      3614    3    0    1
 -2       257       345       785      1330
 -1      3615    3    0    1
 -2       826      1068      2623      2781
 -1      3616    3    0    1
 -2      1336      1060      2194      2258
 -1      3617    3    0    1
 -2      2085      2014      2164      2197
 -1      3618    3    0    1
 -2       387       383       800      1333
 -1      3619    3    0    1
 -2      1479      1480      2704      1686
 -1      3620    3    0    1
 -2       785       345      1049      1330
 -1      3621    3    0    1
 -2      1675       346      3605      3635
 -1      3622    3    0    1
 -2      2229       769      2364      2464
 -1      3623    3    0    1
 -2      1986      1376      2091      2147
 -1      3624    3    0    1
 -2      1334       925       803      1210
 -1      3625    3    0    1
 -2       927      1333       508      1216
 -1      3626    3    0    1
 -2      1325      2075      2283      2301
 -1      3627    3    0    1
 -2       637       648      2572      1537
 -1      3628    3    0    1
 -2      1475      1474      2659      1741
 -1      3629    3    0    1
 -2      1994      2034      2103      2186
 -1      3630    3    0    1
 -2       819       826      1068      2623
 -1      3631    3    0    1
 -2       863      1378       864      2114
 -1      3632    3    0    1
 -2       921      1338       825      1335
 -1      3633    3    0    1
 -2      2033      2009      2124      2126
 -1      3634    3    0    1
 -2      1338       921       825      1202
 -1      3635    3    0    1
 -2      2941      3252      3641      3356
 -1      3636    3    0    1
 -2       277       818       817      1337
 -1      3637    3    0    1
 -2       923      1337       502      1208
 -1      3638    3    0    1
 -2       818       386      1066      1337
 -1      3639    3    0    1
 -2       818       277       386      1337
 -1      3640    3    0    1
 -2       825       285      1335      1338
 -1      3641    3    0    1
 -2      2198      2195      2234      2399
 -1      3642    3    0    1
 -2       753       751      1034      2233
 -1      3643    3    0    1
 -2      1976      2060      2102      2311
 -1      3644    3    0    1
 -2      1980      1974      1982      2081
 -1      3645    3    0    1
 -2      1990      2056      2097      2123
 -1      3646    3    0    1
 -2      1126       382      2097      2123
 -1      3647    3    0    1
 -2      2062      2123      2295      2325
 -1      3648    3    0    1
 -2       425      1310      2116      2443
 -1      3649    3    0    1
 -2       253      2016      2075      2477
 -1      3650    3    0    1
 -2      2630      3533      3064      3066
 -1      3651    3    0    1
 -2       420      2037      2049      2098
 -1      3652    3    0    1
 -2      1419      3501      1508      3507
 -1      3653    3    0    1
 -2      2433      2308      1388      2299
 -1      3654    3    0    1
 -2       958      2018      2269      2481
 -1      3655    3    0    1
 -2      2038      2109      2165      2287
 -1      3656    3    0    1
 -2       837      1346      1076      2042
 -1      3657    3    0    1
 -2      1124       883      1115      2179
 -1      3658    3    0    1
 -2       623       629      1297      2189
 -1      3659    3    0    1
 -2       156       157      3518      1733
 -1      3660    3    0    1
 -2      1359      2155      2156      2173
 -1      3661    3    0    1
 -2      2065      2010      2077      2122
 -1      3662    3    0    1
 -2      2041      2152      2256      2352
 -1      3663    3    0    1
 -2       987       338       990      2206
 -1      3664    3    0    1
 -2       843      2017      1355       844
 -1      3665    3    0    1
 -2      1329      2022      2164      2372
 -1      3666    3    0    1
 -2      3535      2647      2972      3182
 -1      3667    3    0    1
 -2       697      1008      2055      2266
 -1      3668    3    0    1
 -2      1374       859       860      2137
 -1      3669    3    0    1
 -2       694       701      1312      2153
 -1      3670    3    0    1
 -2       865      2088      2099      2346
 -1      3671    3    0    1
 -2      1993      2106      2140      2144
 -1      3672    3    0    1
 -2      2320       662      2327      2350
 -1      3673    3    0    1
 -2       301       316      1089      2180
 -1      3674    3    0    1
 -2      1314      2234      2304      2348
 -1      3675    3    0    1
 -2      1400       324      1118      2200
 -1      3676    3    0    1
 -2       398        93      3578      1796
 -1      3677    3    0    1
 -2       431       441      2077      2122
 -1      3678    3    0    1
 -2      1037       761      2446      2465
 -1      3679    3    0    1
 -2      2218      1018      2388      3602
 -1      3680    3    0    1
 -2      1311       698      2159      2169
 -1      3681    3    0    1
 -2       581      2417      2447      2461
 -1      3682    3    0    1
 -2       885      1122       888      2168
 -1      3683    3    0    1
 -2      2012      2044      2310      2336
 -1      3684    3    0    1
 -2       301      1352       316      2180
 -1      3685    3    0    1
 -2       756       766      2273      2342
 -1      3686    3    0    1
 -2      1033       220      2262      2300
 -1      3687    3    0    1
 -2      1983      2039      2213      2360
 -1      3688    3    0    1
 -2       302      1123      1108      2313
 -1      3689    3    0    1
 -2      1995      2073      2130      2303
 -1      3690    3    0    1
 -2      2283      2075      2302      2477
 -1      3691    3    0    1
 -2       751      2233      2272      2300
 -1      3692    3    0    1
 -2      2196       716      2234      2380
 -1      3693    3    0    1
 -2       420       366      1303      1967
 -1      3694    3    0    1
 -2       121       958      2269      2391
 -1      3695    3    0    1
 -2       581       582       954      2417
 -1      3696    3    0    1
 -2       983       159      2395      2444
 -1      3697    3    0    1
 -2       629      2189      2205      2386
 -1      3698    3    0    1
 -2      2233       753      2272      2419
 -1      3699    3    0    1
 -2      2031      1375      2147      2313
 -1      3700    3    0    1
 -2      2059       412      2160      2321
 -1      3701    3    0    1
 -2       978       990      2206      2259
 -1      3702    3    0    1
 -2      2129      1999      2148      2358
 -1      3703    3    0    1
 -2      2095      2114      2119      2193
 -1      3704    3    0    1
 -2      2118      1984      2150      2173
 -1      3705    3    0    1
 -2      1063       348      1969      2261
 -1      3706    3    0    1
 -2       607       967      2019      2362
 -1      3707    3    0    1
 -2      2023      2060      2289      2368
 -1      3708    3    0    1
 -2      2047      1322      2263      2419
 -1      3709    3    0    1
 -2      1281       375      2011      2021
 -1      3710    3    0    1
 -2      1405       310       389      2144
 -1      3711    3    0    1
 -2       563      2135      2255      2268
 -1      3712    3    0    1
 -2       405       954       955      2417
 -1      3713    3    0    1
 -2      2763      2664      3543      3438
 -1      3714    3    0    1
 -2       175       174      2068      2271
 -1      3715    3    0    1
 -2       193      1011      2079      2316
 -1      3716    3    0    1
 -2      1306      2107      2253      2271
 -1      3717    3    0    1
 -2       605       611       966      2291
 -1      3718    3    0    1
 -2      2379      2003      2414      2434
 -1      3719    3    0    1
 -2       166       993      2253      2276
 -1      3720    3    0    1
 -2       317      1084      1369      2090
 -1      3721    3    0    1
 -2      2655       969      2687      3618
 -1      3722    3    0    1
 -2       299      1087      1085      2366
 -1      3723    3    0    1
 -2       430      2002      2151      2200
 -1      3724    3    0    1
 -2      1985       293      2006      2066
 -1      3725    3    0    1
 -2       285       280      1335      2170
 -1      3726    3    0    1
 -2       130       126      2210      2394
 -1      3727    3    0    1
 -2      1346       837       838      2042
 -1      3728    3    0    1
 -2      1061       832      1072      2416
 -1      3729    3    0    1
 -2       325      1401       326      2173
 -1      3730    3    0    1
 -2       172       423      2008      2172
 -1      3731    3    0    1
 -2      3690       108      3699      1954
 -1      3732    3    0    1
 -2      1352       301      1078      2180
 -1      3733    3    0    1
 -2       860      1374      2137      2330
 -1      3734    3    0    1
 -2      1366      2077      2122      2142
 -1      3735    3    0    1
 -2       599       962       965      2447
 -1      3736    3    0    1
 -2       387      2254      2332      2401
 -1      3737    3    0    1
 -2       789      2219      2238      2372
 -1      3738    3    0    1
 -2      2064      2132      2180      2203
 -1      3739    3    0    1
 -2      1306      1001       679      2107
 -1      3740    3    0    1
 -2      1307       423      2172      2188
 -1      3741    3    0    1
 -2      1983      2050      2125      2360
 -1      3742    3    0    1
 -2      1314       715      2159      2177
 -1      3743    3    0    1
 -2       856      1087      2039      2157
 -1      3744    3    0    1
 -2      1982      2131      2163      2279
 -1      3745    3    0    1
 -2      1974      2081      2184      2374
 -1      3746    3    0    1
 -2      1315      2051      2196      2198
 -1      3747    3    0    1
 -2       962       599      2340      2447
 -1      3748    3    0    1
 -2       690      2068      2297      2431
 -1      3749    3    0    1
 -2       647       986      1301      2143
 -1      3750    3    0    1
 -2      1123      2150      2171      2313
 -1      3751    3    0    1
 -2      1972       822      2428      2455
 -1      3752    3    0    1
 -2      2133      1299      2279      2323
 -1      3753    3    0    1
 -2      2099       444      2346      2430
 -1      3754    3    0    1
 -2      1125       880       891      2325
 -1      3755    3    0    1
 -2      2025      2037      2049      2094
 -1      3756    3    0    1
 -2       300      1086      1371      2207
 -1      3757    3    0    1
 -2       315      1373      2104      2203
 -1      3758    3    0    1
 -2      1293       611      2138      2291
 -1      3759    3    0    1
 -2      1965       225      2217      2224
 -1      3760    3    0    1
 -2      1683      1682      1753      3239
 -1      3761    3    0    1
 -2       319      1119      2167      2274
 -1      3762    3    0    1
 -2      1975      1347      2393      2472
 -1      3763    3    0    1
 -2      2143       659      2312      2406
 -1      3764    3    0    1
 -2      1018       719      1313      2388
 -1      3765    3    0    1
 -2      2246      2222      2161      2407
 -1      3766    3    0    1
 -2       881      1126      1397      2056
 -1      3767    3    0    1
 -2      1971      2294      2296      2437
 -1      3768    3    0    1
 -2       889      1123      2150      2171
 -1      3769    3    0    1
 -2       679      1306      2107      2253
 -1      3770    3    0    1
 -2      2299      2001      2433      2448
 -1      3771    3    0    1
 -2       881      2056      2097      2227
 -1      3772    3    0    1
 -2      1994      1097      2034      2043
 -1      3773    3    0    1
 -2       851      1368      1365      2142
 -1      3774    3    0    1
 -2      1388       874      2299      2308
 -1      3775    3    0    1
 -2      1002      1305       676      2510
 -1      3776    3    0    1
 -2      1569      1424      3513      3222
 -1      3777    3    0    1
 -2      2146      2295      2328      2430
 -1      3778    3    0    1
 -2       360       121       962      2447
 -1      3779    3    0    1
 -2       881       892      1126      2056
 -1      3780    3    0    1
 -2       797      1053      1056      2452
 -1      3781    3    0    1
 -2       574       578       954      1954
 -1      3782    3    0    1
 -2      2017      2007      2112      2334
 -1      3783    3    0    1
 -2      2167      1973      2168      2200
 -1      3784    3    0    1
 -2      1089       316      2036      2180
 -1      3785    3    0    1
 -2      2059      2082      2130      2280
 -1      3786    3    0    1
 -2       422       427      2068      2242
 -1      3787    3    0    1
 -2       223       232      2398      2450
 -1      3788    3    0    1
 -2      1075      1339      2166      2187
 -1      3789    3    0    1
 -2      1982      1980      2064      2096
 -1      3790    3    0    1
 -2      1036       761      1048      2074
 -1      3791    3    0    1
 -2      3594      3599      3219      3373
 -1      3792    3    0    1
 -2      1325       236      1968      2364
 -1      3793    3    0    1
 -2       600       581      2447      2461
 -1      3794    3    0    1
 -2       836      1343      2038      2183
 -1      3795    3    0    1
 -2      1368       852      2122      2142
 -1      3796    3    0    1
 -2      1064       275      2219      2480
 -1      3797    3    0    1
 -2      2114      2093      2119      2193
 -1      3798    3    0    1
 -2      2046      1023      2471      2479
 -1      3799    3    0    1
 -2      2051      2195      2196      2198
 -1      3800    3    0    1
 -2      1339      2102      2166      2187
 -1      3801    3    0    1
 -2      2117      1106      2260      2353
 -1      3802    3    0    1
 -2      1343       835       836      2038
 -1      3803    3    0    1
 -2       845       846      2155      2156
 -1      3804    3    0    1
 -2       373       289      1341      2183
 -1      3805    3    0    1
 -2      2256      2009      2260      2353
 -1      3806    3    0    1
 -2      2006      2066      2212      2296
 -1      3807    3    0    1
 -2       875      1392       876      2101
 -1      3808    3    0    1
 -2      2241      1052      2257      2600
 -1      3809    3    0    1
 -2       189       330      1012      2390
 -1      3810    3    0    1
 -2      1396      1106      2117      2353
 -1      3811    3    0    1
 -2       999      1308      2208      2243
 -1      3812    3    0    1
 -2       716      1017      2198      2234
 -1      3813    3    0    1
 -2      2034       868      2093      2186
 -1      3814    3    0    1
 -2      1408      2152      2256      2353
 -1      3815    3    0    1
 -2      2202      2192      2373      2463
 -1      3816    3    0    1
 -2      2010      2057      2113      2120
 -1      3817    3    0    1
 -2       387       383      1333      2254
 -1      3818    3    0    1
 -2       351       253      1050      2080
 -1      3819    3    0    1
 -2       102       112      2363      2417
 -1      3820    3    0    1
 -2      1000      2107      2172      2225
 -1      3821    3    0    1
 -2       351      1329      2164      2372
 -1      3822    3    0    1
 -2      2002      1105      2151      2299
 -1      3823    3    0    1
 -2      3545      3520      3724      3683
 -1      3824    3    0    1
 -2       854      1084      2058      2090
 -1      3825    3    0    1
 -2      1996      2016      2103      2186
 -1      3826    3    0    1
 -2      1407       887      1121      2120
 -1      3827    3    0    1
 -2       304      1097      1994      2043
 -1      3828    3    0    1
 -2       365       300      2015      2207
 -1      3829    3    0    1
 -2      1067      2284      2424      2428
 -1      3830    3    0    1
 -2       654       653       990      2206
 -1      3831    3    0    1
 -2      1087       299       318      2366
 -1      3832    3    0    1
 -2       648      2572      1537      3065
 -1      3833    3    0    1
 -2      2301      2283      2445      2473
 -1      3834    3    0    1
 -2      1310      2055      2116      2266
 -1      3835    3    0    1
 -2      2023      1976      2092      2245
 -1      3836    3    0    1
 -2      1130      1398      2152      2352
 -1      3837    3    0    1
 -2      2109      2038      2183      2287
 -1      3838    3    0    1
 -2       212       394      1026      2466
 -1      3839    3    0    1
 -2      1488      1885      3405      1886
 -1      3840    3    0    1
 -2      2093      1378      2114      2119
 -1      3841    3    0    1
 -2       855      1087       856      2157
 -1      3842    3    0    1
 -2      2370       954      2417      3690
 -1      3843    3    0    1
 -2      1373       858      2132      2203
 -1      3844    3    0    1
 -2       816       815      1064      1969
 -1      3845    3    0    1
 -2      1068      1336       819      2623
 -1      3846    3    0    1
 -2      2004      2101      2181      2231
 -1      3847    3    0    1
 -2      1023       210      2471      2479
 -1      3848    3    0    1
 -2      1359       845       846      2155
 -1      3849    3    0    1
 -2      2060      2166      2289      2368
 -1      3850    3    0    1
 -2       327      1124      1115      2076
 -1      3851    3    0    1
 -2      1107       879      2150      2171
 -1      3852    3    0    1
 -2       769      1042      2229      2364
 -1      3853    3    0    1
 -2       272      1057      2480      2486
 -1      3854    3    0    1
 -2      2150      1988      2171      2313
 -1      3855    3    0    1
 -2       375      2011      2021      2176
 -1      3856    3    0    1
 -2       735       733      2331      2469
 -1      3857    3    0    1
 -2       364      2279      2323      2374
 -1      3858    3    0    1
 -2      1323       343      2478      2578
 -1      3859    3    0    1
 -2      1438      1439      3137      3281
 -1      3860    3    0    1
 -2       854       853      1084      2090
 -1      3861    3    0    1
 -2      1731      1730      2968      3297
 -1      3862    3    0    1
 -2      2740      1541      3568      3321
 -1      3863    3    0    1
 -2      2592      1489      2867      1583
 -1      3864    3    0    1
 -2       308      1368      2012      2142
 -1      3865    3    0    1
 -2      2025      2007      2049      2058
 -1      3866    3    0    1
 -2       841      1352      1078      2184
 -1      3867    3    0    1
 -2      2084       395      2400      2469
 -1      3868    3    0    1
 -2       289      1986      2091      2183
 -1      3869    3    0    1
 -2       428       425      1011      2316
 -1      3870    3    0    1
 -2       593       587      1289      2512
 -1      3871    3    0    1
 -2      1080       359      2076      2368
 -1      3872    3    0    1
 -2       993       166      2253      2320
 -1      3873    3    0    1
 -2      1977      2023      2076      2289
 -1      3874    3    0    1
 -2      2242      2141      2548      3550
 -1      3875    3    0    1
 -2      2072      1977      2076      2179
 -1      3876    3    0    1
 -2      2017      2094      2100      2112
 -1      3877    3    0    1
 -2       558       449      1489      2627
 -1      3878    3    0    1
 -2      3018      2861      3677      3691
 -1      3879    3    0    1
 -2      1980      2064      2096      2132
 -1      3880    3    0    1
 -2      1914      1915      3409      3478
 -1      3881    3    0    1
 -2       311      1075      2166      2187
 -1      3882    3    0    1
 -2       832      1069      1072      2423
 -1      3883    3    0    1
 -2       815      1061      1064      1969
 -1      3884    3    0    1
 -2       429       187      1311      2240
 -1      3885    3    0    1
 -2       987       338      2206      2278
 -1      3886    3    0    1
 -2       315       362      1088      2203
 -1      3887    3    0    1
 -2       581       600       965      2461
 -1      3888    3    0    1
 -2       309      1343      2338      2345
 -1      3889    3    0    1
 -2       293      1357      2155      2156
 -1      3890    3    0    1
 -2      1042       238      2047      2277
 -1      3891    3    0    1
 -2      2008       423      2113      2172
 -1      3892    3    0    1
 -2      1101      1384      2144      2315
 -1      3893    3    0    1
 -2       697       698      1311      2252
 -1      3894    3    0    1
 -2      1059       805      1057      2486
 -1      3895    3    0    1
 -2       431      1399      1129      2121
 -1      3896    3    0    1
 -2      1124      1115      2076      2179
 -1      3897    3    0    1
 -2       967       126      2053      2307
 -1      3898    3    0    1
 -2      2094      2007      2100      2190
 -1      3899    3    0    1
 -2      1124       327       359      2076
 -1      3900    3    0    1
 -2      1011       425      1014      2316
 -1      3901    3    0    1
 -2      2132       857      2180      2203
 -1      3902    3    0    1
 -2       701       694      1312      2556
 -1      3903    3    0    1
 -2       779       798      1045      2377
 -1      3904    3    0    1
 -2       319       307      1119      2274
 -1      3905    3    0    1
 -2      1315       418      1970      2196
 -1      3906    3    0    1
 -2       590      1288      2306      2413
 -1      3907    3    0    1
 -2       865      1381       866      2338
 -1      3908    3    0    1
 -2       366      1967      2048      2050
 -1      3909    3    0    1
 -2       385      2284      2428      2462
 -1      3910    3    0    1
 -2      2141       676      2243      2406
 -1      3911    3    0    1
 -2       428       193      2209      2316
 -1      3912    3    0    1
 -2      1808      1816      3200      3283
 -1      3913    3    0    1
 -2      1074       834      2393      2472
 -1      3914    3    0    1
 -2       883      1402      1114      2179
 -1      3915    3    0    1
 -2      1986       376      2091      2165
 -1      3916    3    0    1
 -2       605       593       961      2290
 -1      3917    3    0    1
 -2       347      1536      3604      3630
 -1      3918    3    0    1
 -2       295      1355      2334      2451
 -1      3919    3    0    1
 -2      2362      1291      2397      2410
 -1      3920    3    0    1
 -2       863      1095      2114      2119
 -1      3921    3    0    1
 -2       363       976      2324      2444
 -1      3922    3    0    1
 -2      2004      1392      2101      2108
 -1      3923    3    0    1
 -2      1057      2219      2480      2486
 -1      3924    3    0    1
 -2       712      2153      2388      2498
 -1      3925    3    0    1
 -2      2013      2222      2246      2407
 -1      3926    3    0    1
 -2      2661      2483      3529      3530
 -1      3927    3    0    1
 -2       352      2230      2232      2440
 -1      3928    3    0    1
 -2      1288       590      2019      2413
 -1      3929    3    0    1
 -2       442       443      1112      2341
 -1      3930    3    0    1
 -2       382       446      2097      2123
 -1      3931    3    0    1
 -2      1988      2150      2178      2239
 -1      3932    3    0    1
 -2       149       984      1299      2279
 -1      3933    3    0    1
 -2      2039      1983      2125      2360
 -1      3934    3    0    1
 -2       253      2016      2080      2103
 -1      3935    3    0    1
 -2       797      1053      2452      2453
 -1      3936    3    0    1
 -2       599      2105      2340      2447
 -1      3937    3    0    1
 -2      1424      3517      3525      3628
 -1      3938    3    0    1
 -2      1106       877      2117      2260
 -1      3939    3    0    1
 -2      1281      2011      2251      2389
 -1      3940    3    0    1
 -2      2061      3039      3588      3105
 -1      3941    3    0    1
 -2      1442      1443      2815      2854
 -1      3942    3    0    1
 -2       553       942      2215      2378
 -1      3943    3    0    1
 -2      2009      2041      2124      2256
 -1      3944    3    0    1
 -2      2110       199      2126      2177
 -1      3945    3    0    1
 -2      2275       402      2340      2410
 -1      3946    3    0    1
 -2       733      1024      2195      2198
 -1      3947    3    0    1
 -2      2146      1989      2295      2430
 -1      3948    3    0    1
 -2      2102      2060      2166      2187
 -1      3949    3    0    1
 -2      2044      2065      2139      2142
 -1      3950    3    0    1
 -2      2029      1988      2171      2178
 -1      3951    3    0    1
 -2       384       388      1072      2416
 -1      3952    3    0    1
 -2       370      2286      2296      2437
 -1      3953    3    0    1
 -2       590       960      2306      2391
 -1      3954    3    0    1
 -2      2009      2033      2041      2256
 -1      3955    3    0    1
 -2      1979      2104      2192      2202
 -1      3956    3    0    1
 -2       199      1970      2124      2126
 -1      3957    3    0    1
 -2       414       409      1297      2189
 -1      3958    3    0    1
 -2       396      1025      2265      2298
 -1      3959    3    0    1
 -2       853      1083      2025      2058
 -1      3960    3    0    1
 -2      2017      2007      2094      2112
 -1      3961    3    0    1
 -2       412      1295      2059      2160
 -1      3962    3    0    1
 -2      2050      1983      2125      2137
 -1      3963    3    0    1
 -2      2073       130      2210      2394
 -1      3964    3    0    1
 -2       625       626      1296      2280
 -1      3965    3    0    1
 -2       302      1108      2171      2313
 -1      3966    3    0    1
 -2       441       431      1366      2122
 -1      3967    3    0    1
 -2      2038      1987      2109      2345
 -1      3968    3    0    1
 -2       779      1046      2369      2408
 -1      3969    3    0    1
 -2      2053      2092      2245      2307
 -1      3970    3    0    1
 -2      1532      1449      3041      3393
 -1      3971    3    0    1
 -2      2152      2009      2256      2353
 -1      3972    3    0    1
 -2      1982      1980      2096      2221
 -1      3973    3    0    1
 -2      1346      1076      2042      2136
 -1      3974    3    0    1
 -2      2064      1979      2132      2203
 -1      3975    3    0    1
 -2       392      1102      1998      2086
 -1      3976    3    0    1
 -2      1084       421      2058      2090
 -1      3977    3    0    1
 -2      2077      2010      2121      2122
 -1      3978    3    0    1
 -2       701      1015      1312      2153
 -1      3979    3    0    1
 -2      2226       951      2363      2420
 -1      3980    3    0    1
 -2      2305      2244      2357      2438
 -1      3981    3    0    1
 -2       712      1015      2153      2498
 -1      3982    3    0    1
 -2      2783      2835      3151      3682
 -1      3983    3    0    1
 -2      2071       187      2139      2240
 -1      3984    3    0    1
 -2      1061       267      1969      2422
 -1      3985    3    0    1
 -2       395      1025      1318      2265
 -1      3986    3    0    1
 -2      1965       220      2262      2438
 -1      3987    3    0    1
 -2      2007      2037      2049      2190
 -1      3988    3    0    1
 -2       425       428      1009      2209
 -1      3989    3    0    1
 -2       420      1967      2037      2098
 -1      3990    3    0    1
 -2      2081      2015      2184      2374
 -1      3991    3    0    1
 -2      2267       823      2293      2424
 -1      3992    3    0    1
 -2       364      1974      2279      2374
 -1      3993    3    0    1
 -2      1333       387      2254      2332
 -1      3994    3    0    1
 -2      2002       395      2070      2084
 -1      3995    3    0    1
 -2      1031       744      2381      2442
 -1      3996    3    0    1
 -2      2005      2049      2058      2098
 -1      3997    3    0    1
 -2      1033      1322      1965      2272
 -1      3998    3    0    1
 -2       391      2229      2263      2398
 -1      3999    3    0    1
 -2      2039       856      2157      2207
 -1      4000    3    0    1
 -2       886       896      1130      2152
 -1      4001    3    0    1
 -2      3558      2621      3012      3168
 -1      4002    3    0    1
 -2       949       102      2363      2420
 -1      4003    3    0    1
 -2       946       955      2249      2601
 -1      4004    3    0    1
 -2       716       715      1314      2234
 -1      4005    3    0    1
 -2       367       993      1302      2320
 -1      4006    3    0    1
 -2       216      2195      2198      2399
 -1      4007    3    0    1
 -2       784      2175      2241      2257
 -1      4008    3    0    1
 -2      1417      1416      3345      3394
 -1      4009    3    0    1
 -2       267       272      1064      1969
 -1      4010    3    0    1
 -2      1984      2118      2150      2239
 -1      4011    3    0    1
 -2       832       831      1069      2423
 -1      4012    3    0    1
 -2      2030       423      2055      2188
 -1      4013    3    0    1
 -2      1323      1032      2342      2478
 -1      4014    3    0    1
 -2      1016      2110      2159      2177
 -1      4015    3    0    1
 -2       748       756      1032      2342
 -1      4016    3    0    1
 -2       947       564      2135      2255
 -1      4017    3    0    1
 -2      1061      1969      2416      2422
 -1      4018    3    0    1
 -2      1368       851       852      2142
 -1      4019    3    0    1
 -2      1981      1350      2020      2184
 -1      4020    3    0    1
 -2      1402      1114      2179      2376
 -1      4021    3    0    1
 -2      1977      2023      2092      2394
 -1      4022    3    0    1
 -2      2129      1998      2149      2199
 -1      4023    3    0    1
 -2       779       780      1047      2408
 -1      4024    3    0    1
 -2       366       420      2005      2098
 -1      4025    3    0    1
 -2       564       563      2135      2255
 -1      4026    3    0    1
 -2      2005      2058      2090      2098
 -1      4027    3    0    1
 -2      1017       716      1314      2234
 -1      4028    3    0    1
 -2       129       968      1291      2397
 -1      4029    3    0    1
 -2       118      2105      2383      2403
 -1      4030    3    0    1
 -2      1349      2006      2066      2212
 -1      4031    3    0    1
 -2       635       978       981      2259
 -1      4032    3    0    1
 -2       416       982      1300      2026
 -1      4033    3    0    1
 -2      1050      1329      2080      2468
 -1      4034    3    0    1
 -2      1310       425      2209      2443
 -1      4035    3    0    1
 -2       300       365      1086      2207
 -1      4036    3    0    1
 -2      1000       679      2107      2225
 -1      4037    3    0    1
 -2       422       999      2208      2242
 -1      4038    3    0    1
 -2      1682      1752      3239      3622
 -1      4039    3    0    1
 -2       981       636      2158      2321
 -1      4040    3    0    1
 -2      1303      2037      2327      2350
 -1      4041    3    0    1
 -2      2014       383      2022      2164
 -1      4042    3    0    1
 -2       267       272      1969      2422
 -1      4043    3    0    1
 -2      2025       853      2058      2090
 -1      4044    3    0    1
 -2      2014      1993      2164      2197
 -1      4045    3    0    1
 -2      2024      2005      2090      2098
 -1      4046    3    0    1
 -2       593      1289      2290      2291
 -1      4047    3    0    1
 -2       419       166      2320      2339
 -1      4048    3    0    1
 -2      1001       426      2211      2516
 -1      4049    3    0    1
 -2       951       372      2318      2363
 -1      4050    3    0    1
 -2       951       949      2363      2420
 -1      4051    3    0    1
 -2       895      2120      1399       887
 -1      4052    3    0    1
 -2       369      2087      2286      2413
 -1      4053    3    0    1
 -2      2029      2031      2147      2313
 -1      4054    3    0    1
 -2      1313      2218      3632      3644
 -1      4055    3    0    1
 -2       787       789      2468      2484
 -1      4056    3    0    1
 -2      2776      1662      2978      3182
 -1      4057    3    0    1
 -2       611       605       969      2138
 -1      4058    3    0    1
 -2      2047       238      2199      2277
 -1      4059    3    0    1
 -2      1980      1974      2096      2221
 -1      4060    3    0    1
 -2       625       975      2130      2280
 -1      4061    3    0    1
 -2      2060      1976      2245      2311
 -1      4062    3    0    1
 -2      2032       225      2217      2305
 -1      4063    3    0    1
 -2      2165      1986      2183      2287
 -1      4064    3    0    1
 -2       853       854      2058      2090
 -1      4065    3    0    1
 -2      1099      2034      2043      2186
 -1      4066    3    0    1
 -2       626      1296      2131      2163
 -1      4067    3    0    1
 -2       187      2044      2065      2240
 -1      4068    3    0    1
 -2       303      1378      1377      2333
 -1      4069    3    0    1
 -2      2109      1987      2287      2411
 -1      4070    3    0    1
 -2      1363      1362      2104      2463
 -1      4071    3    0    1
 -2      2056      1126      2097      2123
 -1      4072    3    0    1
 -2      1401      1107      2150      2173
 -1      4073    3    0    1
 -2      1708       329      2920      1875
 -1      4074    3    0    1
 -2      1042      2229      2263       769
 -1      4075    3    0    1
 -2      2019      1997      2306      2410
 -1      4076    3    0    1
 -2       636      2158      2321      2485
 -1      4077    3    0    1
 -2       611      1293      2138      2204
 -1      4078    3    0    1
 -2      2015      2020      2081      2184
 -1      4079    3    0    1
 -2      1343      2109      2338      2345
 -1      4080    3    0    1
 -2       607       608       967      2362
 -1      4081    3    0    1
 -2      1377      1378      2114      2333
 -1      4082    3    0    1
 -2      2016       253      2080      2427
 -1      4083    3    0    1
 -2       372       371      2269      2461
 -1      4084    3    0    1
 -2       822      2236      2428      2455
 -1      4085    3    0    1
 -2      2083      2031      2091      2147
 -1      4086    3    0    1
 -2      1970      2004      2181      2231
 -1      4087    3    0    1
 -2       698      1009      2209      2252
 -1      4088    3    0    1
 -2       858       857      2132      2203
 -1      4089    3    0    1
 -2      2363       102      2417      2425
 -1      4090    3    0    1
 -2      2013      2185      2228      2322
 -1      4091    3    0    1
 -2      1004       689      2068      2319
 -1      4092    3    0    1
 -2      1001       680      2107      2211
 -1      4093    3    0    1
 -2       716       715      2234      2380
 -1      4094    3    0    1
 -2      2216      1012      2365      2390
 -1      4095    3    0    1
 -2      2030      2010      2057      2113
 -1      4096    3    0    1
 -2       236       238      1042      1968
 -1      4097    3    0    1
 -2       419       367       995      2145
 -1      4098    3    0    1
 -2       815      1061      1969      2416
 -1      4099    3    0    1
 -2       304       305      2043      2182
 -1      4100    3    0    1
 -2      3105      2965      3608      3437
 -1      4101    3    0    1
 -2       348       270      1063      1969
 -1      4102    3    0    1
 -2      2155      2118      2156      2173
 -1      4103    3    0    1
 -2       225       220      1322      1965
 -1      4104    3    0    1
 -2      2077      2010      2120      2121
 -1      4105    3    0    1
 -2      1322       225      1965      2272
 -1      4106    3    0    1
 -2      3135      3553      3158      3367
 -1      4107    3    0    1
 -2      1342       835      1341      2183
 -1      4108    3    0    1
 -2      1981      2015      2020      2081
 -1      4109    3    0    1
 -2      1036       761      2074      2450
 -1      4110    3    0    1
 -2      1016      1970      2177      2380
 -1      4111    3    0    1
 -2      1041       243      1043      2464
 -1      4112    3    0    1
 -2       369      2053      2087      2413
 -1      4113    3    0    1
 -2      1053      1064      2452      2453
 -1      4114    3    0    1
 -2       375      2011      2083      2344
 -1      4115    3    0    1
 -2      2028      2027      2088      2099
 -1      4116    3    0    1
 -2       298      2012      2111      2142
 -1      4117    3    0    1
 -2       991       659      2141      2312
 -1      4118    3    0    1
 -2      2263      1034      2398      2419
 -1      4119    3    0    1
 -2      1357       845      2155      2156
 -1      4120    3    0    1
 -2       329      3563      3632      3645
 -1      4121    3    0    1
 -2       409       974      1297      2189
 -1      4122    3    0    1
 -2       636       980      2158      2485
 -1      4123    3    0    1
 -2      2201       972      2421      2470
 -1      4124    3    0    1
 -2       220      1033      1322      1965
 -1      4125    3    0    1
 -2      1033       751      2272      2300
 -1      4126    3    0    1
 -2       128       401       973      2275
 -1      4127    3    0    1
 -2      2270       996      2431      2558
 -1      4128    3    0    1
 -2      1986      2091      2183      2287
 -1      4129    3    0    1
 -2       289       373      1093      1986
 -1      4130    3    0    1
 -2      2075      2301      2427      2477
 -1      4131    3    0    1
 -2       834       833      1075      2187
 -1      4132    3    0    1
 -2      3567      2736      2529      2662
 -1      4133    3    0    1
 -2       338      2206      2278      2395
 -1      4134    3    0    1
 -2      2154      1045      2377      2445
 -1      4135    3    0    1
 -2      2288      2246      2502      2931
 -1      4136    3    0    1
 -2       815       816      1063      1969
 -1      4137    3    0    1
 -2      2073      1995      2210      2303
 -1      4138    3    0    1
 -2       198       202      1017      2234
 -1      4139    3    0    1
 -2       421       317      2024      2090
 -1      4140    3    0    1
 -2      2088      1380      2338      2345
 -1      4141    3    0    1
 -2      1352       841       842      2184
 -1      4142    3    0    1
 -2      2010      2030      2071      2139
 -1      4143    3    0    1
 -2      1404       442      1991      2227
 -1      4144    3    0    1
 -2       236      1325      2075      2302
 -1      4145    3    0    1
 -2      1062       815      1063      1969
 -1      4146    3    0    1
 -2       427       422       999      2208
 -1      4147    3    0    1
 -2      1390       319      2167      2274
 -1      4148    3    0    1
 -2      2160      1295      2280      2324
 -1      4149    3    0    1
 -2      2021       950      2176      2382
 -1      4150    3    0    1
 -2      2003      1993      2197      2414
 -1      4151    3    0    1
 -2      1997      2019      2306      2413
 -1      4152    3    0    1
 -2      2844      2845      3581      3384
 -1      4153    3    0    1
 -2       338       153       990      2206
 -1      4154    3    0    1
 -2      2126      2110      2177      2235
 -1      4155    3    0    1
 -2      1289      2220      2290      2403
 -1      4156    3    0    1
 -2       112       372       951      2363
 -1      4157    3    0    1
 -2      1993      2085      2106      2144
 -1      4158    3    0    1
 -2      1036       219      1039      2450
 -1      4159    3    0    1
 -2       941       355      2248      2426
 -1      4160    3    0    1
 -2       859      1374      1091      2137
 -1      4161    3    0    1
 -2      1892       276      3712      3486
 -1      4162    3    0    1
 -2      2220      1289      2383      2403
 -1      4163    3    0    1
 -2       701       712      1015      2153
 -1      4164    3    0    1
 -2      1104       871      1102      2129
 -1      4165    3    0    1
 -2      1059      2422      2432      2486
 -1      4166    3    0    1
 -2      2039      1087      2125      2366
 -1      4167    3    0    1
 -2       352        93       947      2255
 -1      4168    3    0    1
 -2      2273      1323      2342      2478
 -1      4169    3    0    1
 -2      2051      1025      2195      2198
 -1      4170    3    0    1
 -2      1992      2108      2167      2274
 -1      4171    3    0    1
 -2       394       212      2381      2466
 -1      4172    3    0    1
 -2      1011       707      2079      2316
 -1      4173    3    0    1
 -2      2150      2118      2171      2178
 -1      4174    3    0    1
 -2       368       104      2118      2354
 -1      4175    3    0    1
 -2       307       319      1390      2274
 -1      4176    3    0    1
 -2      2145       671      2339      2431
 -1      4177    3    0    1
 -2      2168      2040      2200      2264
 -1      4178    3    0    1
 -2       294       377      1073      2472
 -1      4179    3    0    1
 -2      2210       608      2303      2362
 -1      4180    3    0    1
 -2       975       137      2073      2130
 -1      4181    3    0    1
 -2      1403      1110      2123      2325
 -1      4182    3    0    1
 -2       412       413      1295      2160
 -1      4183    3    0    1
 -2       174       175      1306      2271
 -1      4184    3    0    1
 -2       420       366      1967      2098
 -1      4185    3    0    1
 -2       369      2019      2053      2413
 -1      4186    3    0    1
 -2      1967      2005      2048      2098
 -1      4187    3    0    1
 -2       662      1303      2327      2350
 -1      4188    3    0    1
 -2      2008       172      2035      2100
 -1      4189    3    0    1
 -2       716      1315      2196      2198
 -1      4190    3    0    1
 -2       139      1982      2096      2221
 -1      4191    3    0    1
 -2      2008      1407      2078      2120
 -1      4192    3    0    1
 -2      2069      1994      2182      2315
 -1      4193    3    0    1
 -2      2262      2128      2329      2400
 -1      4194    3    0    1
 -2      2066      2006      2294      2296
 -1      4195    3    0    1
 -2       644       983       985      2395
 -1      4196    3    0    1
 -2       575      1286      2458      2555
 -1      4197    3    0    1
 -2       853      1370      1083      2058
 -1      4198    3    0    1
 -2      2042      2032      2115      2217
 -1      4199    3    0    1
 -2      2006       293      2155      2156
 -1      4200    3    0    1
 -2       126      2023      2307      2394
 -1      4201    3    0    1
 -2       974       623      1297      2189
 -1      4202    3    0    1
 -2      1285       104      2226      2354
 -1      4203    3    0    1
 -2       867      1383      1098      2034
 -1      4204    3    0    1
 -2      2035      2094      2100      2190
 -1      4205    3    0    1
 -2      1014       708      2216      2317
 -1      4206    3    0    1
 -2       199      1970      2126      2177
 -1      4207    3    0    1
 -2       644       643       983      2395
 -1      4208    3    0    1
 -2      2223      1285      2318      2354
 -1      4209    3    0    1
 -2      1032      2342      2478      2618
 -1      4210    3    0    1
 -2       212       216      1031      2381
 -1      4211    3    0    1
 -2      1341       835      2038      2183
 -1      4212    3    0    1
 -2      1378       864      2114      2119
 -1      4213    3    0    1
 -2       840      1349      2066      2212
 -1      4214    3    0    1
 -2      1983      2039      2157      2213
 -1      4215    3    0    1
 -2      1319       730       738      2046
 -1      4216    3    0    1
 -2       661      1302      2281      2326
 -1      4217    3    0    1
 -2       846      1359      2155      2156
 -1      4218    3    0    1
 -2      1997      2053      2245      2307
 -1      4219    3    0    1
 -2      2060      1976      2102      2166
 -1      4220    3    0    1
 -2       309      1340      1343      2345
 -1      4221    3    0    1
 -2      1965      1033      2272      2300
 -1      4222    3    0    1
 -2       659       647      2143      2312
 -1      4223    3    0    1
 -2       168      1302      2326      2337
 -1      4224    3    0    1
 -2      1994      2043      2069      2085
 -1      4225    3    0    1
 -2       137       975      1966      2130
 -1      4226    3    0    1
 -2       423       172      1307      2172
 -1      4227    3    0    1
 -2      1093      1986      2031      2147
 -1      4228    3    0    1
 -2       325       326      1079      2173
 -1      4229    3    0    1
 -2       879       889      2150      2171
 -1      4230    3    0    1
 -2      1064      1053      2452      2480
 -1      4231    3    0    1
 -2       371       121      2269      2447
 -1      4232    3    0    1
 -2      1022       331      2079      2348
 -1      4233    3    0    1
 -2       324      1400       430      2200
 -1      4234    3    0    1
 -2      2069      2043      2080      2085
 -1      4235    3    0    1
 -2      1984      2118      2155      2173
 -1      4236    3    0    1
 -2      2032      2042      2136      2217
 -1      4237    3    0    1
 -2      2054      1000      2190      2225
 -1      4238    3    0    1
 -2      2074      1048      2398      2418
 -1      4239    3    0    1
 -2       771      1325      2283      2301
 -1      4240    3    0    1
 -2      1993      2106      2197      2414
 -1      4241    3    0    1
 -2      2020      1078      2036      2184
 -1      4242    3    0    1
 -2      1989      2146      2328      2430
 -1      4243    3    0    1
 -2      2020      2036      2081      2184
 -1      4244    3    0    1
 -2      1391      1392      2101      2352
 -1      4245    3    0    1
 -2      1078      1352      2036      2184
 -1      4246    3    0    1
 -2      2131      2163      2279      2444
 -1      4247    3    0    1
 -2      2116      2055      2211      2266
 -1      4248    3    0    1
 -2      2146       386      2328      2435
 -1      4249    3    0    1
 -2      2286      1975      2294      2296
 -1      4250    3    0    1
 -2      1997       967      2307      2362
 -1      4251    3    0    1
 -2       780       779      1048      2408
 -1      4252    3    0    1
 -2       967      2210      2307      2362
 -1      4253    3    0    1
 -2      2080      1329      2372      2468
 -1      4254    3    0    1
 -2      1347       839      2066      2212
 -1      4255    3    0    1
 -2       654       653      2206      2412
 -1      4256    3    0    1
 -2       328       201      1021      2214
 -1      4257    3    0    1
 -2      2361      1028      2466      2467
 -1      4258    3    0    1
 -2      3547      3523      3681      3731
 -1      4259    3    0    1
 -2      1012      1021      3502      1911
 -1      4260    3    0    1
 -2      2522      2061      3552      3735
 -1      4261    3    0    1
 -2      2039      1983      2157      2366
 -1      4262    3    0    1
 -2       458       701      2556      2728
 -1      4263    3    0    1
 -2      1412      3588      3608      3650
 -1      4264    3    0    1
 -2       318      1374      2125      2366
 -1      4265    3    0    1
 -2      1085      1087      2157      2366
 -1      4266    3    0    1
 -2      1374      1091      2125      2366
 -1      4267    3    0    1
 -2      2247      2013      2407      2501
 -1      4268    3    0    1
 -2      2405       219      2450      2467
 -1      4269    3    0    1
 -2      2216      1014      2317      2443
 -1      4270    3    0    1
 -2      2102      2087      2393      2472
 -1      4271    3    0    1
 -2       377       294      2393      2472
 -1      4272    3    0    1
 -2       945       563      2249      2268
 -1      4273    3    0    1
 -2      2079       331      2304      2348
 -1      4274    3    0    1
 -2      1975       370      2286      2294
 -1      4275    3    0    1
 -2      2939      1500      3025      3108
 -1      4276    3    0    1
 -2      2237       109      2420      2425
 -1      4277    3    0    1
 -2      2067       942      2215      2293
 -1      4278    3    0    1
 -2      1314       198      2234      2348
 -1      4279    3    0    1
 -2      2026       982      2386      2609
 -1      4280    3    0    1
 -2      1987      2088      2109      2345
 -1      4281    3    0    1
 -2      2080       351      2164      2372
 -1      4282    3    0    1
 -2      2163      2131      2324      2444
 -1      4283    3    0    1
 -2       331      1314      2304      2348
 -1      4284    3    0    1
 -2       462      1149      2510      2536
 -1      4285    3    0    1
 -2       264      1536      3630      3311
 -1      4286    3    0    1
 -2       608      2059      2303      2397
 -1      4287    3    0    1
 -2      1972       822      2424      2428
 -1      4288    3    0    1
 -2       886      1408       896      2256
 -1      4289    3    0    1
 -2       784       792      2175      2257
 -1      4290    3    0    1
 -2      2974      1630      3565      3294
 -1      4291    3    0    1
 -2       275       262      1053      2219
 -1      4292    3    0    1
 -2      2150      2118      2178      2239
 -1      4293    3    0    1
 -2       275      1053      1064      2219
 -1      4294    3    0    1
 -2       554      2251      2371      2389
 -1      4295    3    0    1
 -2       112       372      2363      2461
 -1      4296    3    0    1
 -2       611       605      2138      2291
 -1      4297    3    0    1
 -2       822      1066      1972      2424
 -1      4298    3    0    1
 -2       168       367      1302      2337
 -1      4299    3    0    1
 -2       955      2249      2356      2417
 -1      4300    3    0    1
 -2      1017      2198      2234      2399
 -1      4301    3    0    1
 -2       339      2278      2337      2384
 -1      4302    3    0    1
 -2       371       372       953      2461
 -1      4303    3    0    1
 -2      2326       339      2337      2384
 -1      4304    3    0    1
 -2       220      2128      2262      2357
 -1      4305    3    0    1
 -2      2953      2668      3003      3037
 -1      4306    3    0    1
 -2       587       575      1287      2220
 -1      4307    3    0    1
 -2       575       952      1287      2220
 -1      4308    3    0    1
 -2      1010      1309       694      2556
 -1      4309    3    0    1
 -2       554      2021      2389      2404
 -1      4310    3    0    1
 -2      1058       383      2349      2379
 -1      4311    3    0    1
 -2       605       593      2290      2291
 -1      4312    3    0    1
 -2      2332      1990      2435      2045
 -1      4313    3    0    1
 -2      3668      3120      3671      3449
 -1      4314    3    0    1
 -2      1383      1098      2034      2333
 -1      4315    3    0    1
 -2       805      1333      1058      2254
 -1      4316    3    0    1
 -2       172      2100      2190      2225
 -1      4317    3    0    1
 -2      1383      2034      2093      2333
 -1      4318    3    0    1
 -2       384      2359      2416      2462
 -1      4319    3    0    1
 -2      1288       369      2306      2413
 -1      4320    3    0    1
 -2      1040      1326      2273      2355
 -1      4321    3    0    1
 -2       104       950      1285      2226
 -1      4322    3    0    1
 -2       950       571      1285      2226
 -1      4323    3    0    1
 -2       766      1326      1040      2355
 -1      4324    3    0    1
 -2       104       368       950      2226
 -1      4325    3    0    1
 -2       198       202      2234      2348
 -1      4326    3    0    1
 -2       571       572      1285      2226
 -1      4327    3    0    1
 -2       414       409      2189      2585
 -1      4328    3    0    1
 -2      1973      2051      2181      2231
 -1      4329    3    0    1
 -2      1973      2101      2108      2231
 -1      4330    3    0    1
 -2      2068       689      2317      2319
 -1      4331    3    0    1
 -2      2195      2051      2196      2298
 -1      4332    3    0    1
 -2      1529      1528      3396      3450
 -1      4333    3    0    1
 -2      2037      1303      2054      2350
 -1      4334    3    0    1
 -2      1646      2922      3082      3337
 -1      4335    3    0    1
 -2      2999      3180      3195      3624
 -1      4336    3    0    1
 -2      2356       400      2458      2591
 -1      4337    3    0    1
 -2       671       672       997      2270
 -1      4338    3    0    1
 -2       725      1020      2442      2482
 -1      4339    3    0    1
 -2        93       352       940      2230
 -1      4340    3    0    1
 -2       335      1655      1656      3196
 -1      4341    3    0    1
 -2       275       262      2219      2238
 -1      4342    3    0    1
 -2      1057       275      2219      2238
 -1      4343    3    0    1
 -2       831       564      2476      2500
 -1      4344    3    0    1
 -2      2060      2023      2092      2368
 -1      4345    3    0    1
 -2       128       129      1291      2397
 -1      4346    3    0    1
 -2       129       128      2275      2397
 -1      4347    3    0    1
 -2       672       997      2270      2343
 -1      4348    3    0    1
 -2      2889      1601      3336      3382
 -1      4349    3    0    1
 -2      2082      2059      2130      2303
 -1      4350    3    0    1
 -2      2001      2127      2244      2357
 -1      4351    3    0    1
 -2      3012      1823      3404      3428
 -1      4352    3    0    1
 -2      1282       557      1283      2230
 -1      4353    3    0    1
 -2      1508      3074      1890      1892
 -1      4354    3    0    1
 -2      1515      1854      3261      3475
 -1      4355    3    0    1
 -2       557       568      1283      2230
 -1      4356    3    0    1
 -2       608      2059      2082      2303
 -1      4357    3    0    1
 -2       590      2019      2306      2410
 -1      4358    3    0    1
 -2       551       352       947      1676
 -1      4359    3    0    1
 -2      2644      1198      2700      3655
 -1      4360    3    0    1
 -2      2127      2000      2305      2357
 -1      4361    3    0    1
 -2      2641      2657      2786      3566
 -1      4362    3    0    1
 -2       401       402       973      2275
 -1      4363    3    0    1
 -2      2102      2060      2187      2311
 -1      4364    3    0    1
 -2       769      1041      2229      2263
 -1      4365    3    0    1
 -2       223       232      1034      2233
 -1      4366    3    0    1
 -2       417      1017      2234      2399
 -1      4367    3    0    1
 -2       996       671       997      2270
 -1      4368    3    0    1
 -2      1067      2293      2424      2426
 -1      4369    3    0    1
 -2      2229      1042      2277      2364
 -1      4370    3    0    1
 -2      2053      1997      2245      2413
 -1      4371    3    0    1
 -2       607       608      2362      2397
 -1      4372    3    0    1
 -2      2995      2897      3596      3305
 -1      4373    3    0    1
 -2       987       998      2278      2343
 -1      4374    3    0    1
 -2      2359       388      2416      2422
 -1      4375    3    0    1
 -2      1291       607      2362      2397
 -1      4376    3    0    1
 -2      2289      1080      2076      2368
 -1      4377    3    0    1
 -2      2803      2660      2996      3591
 -1      4378    3    0    1
 -2       941      2215      2293      2426
 -1      4379    3    0    1
 -2      2300      2309      2329      2405
 -1      4380    3    0    1
 -2       378       357       943      2237
 -1      4381    3    0    1
 -2       962       121       965      2447
 -1      4382    3    0    1
 -2       769       771      2364      2464
 -1      4383    3    0    1
 -2      1338       285      3686      3479
 -1      4384    3    0    1
 -2      1322      2047      2224      2419
 -1      4385    3    0    1
 -2      2166      1081      2289      2368
 -1      4386    3    0    1
 -2       823      1067      2293      2424
 -1      4387    3    0    1
 -2       792       784      1327      2241
 -1      4388    3    0    1
 -2      3347      2870      1894      1895
 -1      4389    3    0    1
 -2      1885       666      3671      3449
 -1      4390    3    0    1
 -2       802      1334      1331      2258
 -1      4391    3    0    1
 -2      2018      1971      2318      2481
 -1      4392    3    0    1
 -2      1370      1083      2058      2451
 -1      4393    3    0    1
 -2      1119       307      1122      2274
 -1      4394    3    0    1
 -2      1329       351      2080      2372
 -1      4395    3    0    1
 -2       954       582       955      2417
 -1      4396    3    0    1
 -2      3137      2848      3620      3281
 -1      4397    3    0    1
 -2       683      1002      1309      2243
 -1      4398    3    0    1
 -2      2011       375      2251      2457
 -1      4399    3    0    1
 -2      2546       115      3690      1953
 -1      4400    3    0    1
 -2       694       683      1309      2243
 -1      4401    3    0    1
 -2       115       595       404      1953
 -1      4402    3    0    1
 -2      2039      2015      2213      2323
 -1      4403    3    0    1
 -2       743      1028      1031      2361
 -1      4404    3    0    1
 -2      1299       149      2279      2323
 -1      4405    3    0    1
 -2       941       378       943      2248
 -1      4406    3    0    1
 -2       849      1363       850      2463
 -1      4407    3    0    1
 -2       380       355       948      2248
 -1      4408    3    0    1
 -2       380       948      2135      2248
 -1      4409    3    0    1
 -2       833      1074      1073      2472
 -1      4410    3    0    1
 -2      2014      2080      2164      2372
 -1      4411    3    0    1
 -2      1008      2169      2240      2252
 -1      4412    3    0    1
 -2      1985      1971      2223      2294
 -1      4413    3    0    1
 -2      1008      1311      2169      2252
 -1      4414    3    0    1
 -2      1311       698      2169      2252
 -1      4415    3    0    1
 -2       954       964      3690      1953
 -1      4416    3    0    1
 -2       355       380       941      2248
 -1      4417    3    0    1
 -2       341       162       997      2270
 -1      4418    3    0    1
 -2      1042      1325      1968      2364
 -1      4419    3    0    1
 -2       427      2068      2242      2319
 -1      4420    3    0    1
 -2      1325       771      2283      2364
 -1      4421    3    0    1
 -2      2074       780      2408      2465
 -1      4422    3    0    1
 -2      2284      1067      2424      2426
 -1      4423    3    0    1
 -2       149      2089      2360      2460
 -1      4424    3    0    1
 -2      1408       886      1120      2256
 -1      4425    3    0    1
 -2      2177      2159      2304      2439
 -1      4426    3    0    1
 -2      2244      2127      2305      2357
 -1      4427    3    0    1
 -2       348       270      1969      2261
 -1      4428    3    0    1
 -2       945       582       956      2249
 -1      4429    3    0    1
 -2       582       563       955      2249
 -1      4430    3    0    1
 -2       563       582       945      2249
 -1      4431    3    0    1
 -2       563       946       955      2249
 -1      4432    3    0    1
 -2       886       896      2152      2256
 -1      4433    3    0    1
 -2      2124      2041      2152      2256
 -1      4434    3    0    1
 -2      1009      1310      2209      2252
 -1      4435    3    0    1
 -2      1310      1009       697      2252
 -1      4436    3    0    1
 -2       102       109       956      2425
 -1      4437    3    0    1
 -2       572       951      2226      2420
 -1      4438    3    0    1
 -2      1025      2051      2195      2298
 -1      4439    3    0    1
 -2      2051      1973      2181      2298
 -1      4440    3    0    1
 -2      2040       396      2264      2298
 -1      4441    3    0    1
 -2      1284       575       568      2282
 -1      4442    3    0    1
 -2       341       991      2141      2312
 -1      4443    3    0    1
 -2      1284       952       575      2282
 -1      4444    3    0    1
 -2       575       952      2220      2282
 -1      4445    3    0    1
 -2      2281      2326      2384      2460
 -1      4446    3    0    1
 -2      2149      2063      2199      2277
 -1      4447    3    0    1
 -2       412       413      2160      2321
 -1      4448    3    0    1
 -2      2237       109      2404      2420
 -1      4449    3    0    1
 -2      1322      1033       753      2272
 -1      4450    3    0    1
 -2      2067      2215      2347      2456
 -1      4451    3    0    1
 -2       581       953      2417      2461
 -1      4452    3    0    1
 -2      2050      1983      2089      2360
 -1      4453    3    0    1
 -2       563       946      2249      2601
 -1      4454    3    0    1
 -2      1052       792      2241      2257
 -1      4455    3    0    1
 -2       563      2249      2268      2601
 -1      4456    3    0    1
 -2       593       961      2512      2637
 -1      4457    3    0    1
 -2       802       792      1332      2257
 -1      4458    3    0    1
 -2       792      1052      1332      2257
 -1      4459    3    0    1
 -2      1993      2069      2085      2315
 -1      4460    3    0    1
 -2      1994       304      2182      2315
 -1      4461    3    0    1
 -2      2046      1319      2479      2618
 -1      4462    3    0    1
 -2       819       810      1060      2258
 -1      4463    3    0    1
 -2       819      1060      1336      2258
 -1      4464    3    0    1
 -2       635       636      2158      2259
 -1      4465    3    0    1
 -2       636       635       981      2259
 -1      4466    3    0    1
 -2       144       413       981      2259
 -1      4467    3    0    1
 -2       201      1020      2214      3526
 -1      4468    3    0    1
 -2       635       654       978      2259
 -1      4469    3    0    1
 -2      2286      2087      2311      2413
 -1      4470    3    0    1
 -2      2087      2245      2311      2413
 -1      4471    3    0    1
 -2       978       654       990      2259
 -1      4472    3    0    1
 -2       807      1333      2254      2455
 -1      4473    3    0    1
 -2      3583      3525      3078      3284
 -1      4474    3    0    1
 -2      2215      2267      2293      2424
 -1      4475    3    0    1
 -2       815      1969      2415      2416
 -1      4476    3    0    1
 -2       849       850      2373      2463
 -1      4477    3    0    1
 -2      1789      1873      3348      3356
 -1      4478    3    0    1
 -2       789      2372      2468      2484
 -1      4479    3    0    1
 -2      2033      2117      2310      2336
 -1      4480    3    0    1
 -2      2117      2033      2260      2336
 -1      4481    3    0    1
 -2       339       168      2326      2337
 -1      4482    3    0    1
 -2      1038      2446      2612      3696
 -1      4483    3    0    1
 -2      2359      2236      2432      2455
 -1      4484    3    0    1
 -2       223       219      1036      2450
 -1      4485    3    0    1
 -2      2236       807      2432      2455
 -1      4486    3    0    1
 -2      2111      2012      2310      2336
 -1      4487    3    0    1
 -2       396      2002      2040      2264
 -1      4488    3    0    1
 -2       697      1310      2116      2266
 -1      4489    3    0    1
 -2      1065      1067      2424      2428
 -1      4490    3    0    1
 -2      1519      3011      3597      3314
 -1      4491    3    0    1
 -2      1302      2281      2326      2337
 -1      4492    3    0    1
 -2      1975      2212      2286      2393
 -1      4493    3    0    1
 -2      2055      1008      2071      2266
 -1      4494    3    0    1
 -2       671      2145      2270      2431
 -1      4495    3    0    1
 -2       277      1337      2067      2267
 -1      4496    3    0    1
 -2       558      1638      2924      3230
 -1      4497    3    0    1
 -2       357       945      2237      2268
 -1      4498    3    0    1
 -2       378       357      2237      2268
 -1      4499    3    0    1
 -2       357       378       945      2268
 -1      4500    3    0    1
 -2       945       378       948      2268
 -1      4501    3    0    1
 -2       945       948      2135      2268
 -1      4502    3    0    1
 -2       380       378      2248      2268
 -1      4503    3    0    1
 -2      2135       380      2248      2268
 -1      4504    3    0    1
 -2       378       380       948      2268
 -1      4505    3    0    1
 -2       948       380      2135      2268
 -1      4506    3    0    1
 -2      2234       715      2177      2380
 -1      4507    3    0    1
 -2      1113      2106      2140      2341
 -1      4508    3    0    1
 -2      2092      2023      2245      2307
 -1      4509    3    0    1
 -2      2038      2165      2183      2287
 -1      4510    3    0    1
 -2       707      2079      2316      2365
 -1      4511    3    0    1
 -2       236      1325      2302      2364
 -1      4512    3    0    1
 -2      2216      1012      2316      2365
 -1      4513    3    0    1
 -2      1347      1348      2212      2393
 -1      4514    3    0    1
 -2      1991      2227      2341      2434
 -1      4515    3    0    1
 -2       243       391      1048      2418
 -1      4516    3    0    1
 -2      2229      1042      2263      2277
 -1      4517    3    0    1
 -2      2201       966      3521       407
 -1      4518    3    0    1
 -2      2083      2031      2147      2344
 -1      4519    3    0    1
 -2       943       941      2248      2371
 -1      4520    3    0    1
 -2      1315       715       716      2380
 -1      4521    3    0    1
 -2      2053       126      2092      2307
 -1      4522    3    0    1
 -2       376      2091      2165      2287
 -1      4523    3    0    1
 -2       371       958      2018      2269
 -1      4524    3    0    1
 -2       372       371      2018      2269
 -1      4525    3    0    1
 -2       371       121       958      2269
 -1      4526    3    0    1
 -2       427      1004      2068      2319
 -1      4527    3    0    1
 -2       708      1013      2216      2319
 -1      4528    3    0    1
 -2       121       360       960      2391
 -1      4529    3    0    1
 -2       102       112       951      2363
 -1      4530    3    0    1
 -2       436      1758      3666      3421
 -1      4531    3    0    1
 -2       391      2229      2398      2418
 -1      4532    3    0    1
 -2      1511      1448      3679      3693
 -1      4533    3    0    1
 -2      2115      2358      1345      2459
 -1      4534    3    0    1
 -2       387       383      2254      2379
 -1      4535    3    0    1
 -2      2115      1999      2358      2459
 -1      4536    3    0    1
 -2      1640      1641      3067      3116
 -1      4537    3    0    1
 -2       653       987      2206      2343
 -1      4538    3    0    1
 -2        17      1914      1916      3476
 -1      4539    3    0    1
 -2      2087      2053      2245      2413
 -1      4540    3    0    1
 -2       966      1160      1293      2566
 -1      4541    3    0    1
 -2       998       672      2145      2343
 -1      4542    3    0    1
 -2       771      1043      2283      2464
 -1      4543    3    0    1
 -2      3576      2852      3599      3601
 -1      4544    3    0    1
 -2      1999      2063      2148      2459
 -1      4545    3    0    1
 -2      2375      1048      2408      2418
 -1      4546    3    0    1
 -2       290      1386       292      2459
 -1      4547    3    0    1
 -2       766      1040      1323      2273
 -1      4548    3    0    1
 -2      1060       279      3507      1890
 -1      4549    3    0    1
 -2       756       766      1323      2273
 -1      4550    3    0    1
 -2      1465      1464      2914      3178
 -1      4551    3    0    1
 -2      2255       946      3578      1796
 -1      4552    3    0    1
 -2       369      1288      2019      2413
 -1      4553    3    0    1
 -2      2361       394      2381      2466
 -1      4554    3    0    1
 -2      1028       394      2361      2466
 -1      4555    3    0    1
 -2       370      1971      2018      2437
 -1      4556    3    0    1
 -2       338       339       985      2278
 -1      4557    3    0    1
 -2       168       339       987      2278
 -1      4558    3    0    1
 -2       168       987       998      2278
 -1      4559    3    0    1
 -2       379       309      2338      2345
 -1      4560    3    0    1
 -2       761      2074      2446      2465
 -1      4561    3    0    1
 -2      2131       626      2163      2324
 -1      4562    3    0    1
 -2       643       984      2163      2279
 -1      4563    3    0    1
 -2       984       364      1982      2279
 -1      4564    3    0    1
 -2       984      1982      2163      2279
 -1      4565    3    0    1
 -2      1295       625      2082      2280
 -1      4566    3    0    1
 -2      2308      2433      1388      2436
 -1      4567    3    0    1
 -2       960      2306      2391      2410
 -1      4568    3    0    1
 -2      1392       306      2004      2352
 -1      4569    3    0    1
 -2       661      2281      2320      2327
 -1      4570    3    0    1
 -2      1303       992      2327      2351
 -1      4571    3    0    1
 -2      1303       420      1967      2327
 -1      4572    3    0    1
 -2       662       661      2320      2327
 -1      4573    3    0    1
 -2       992       661      1303      2327
 -1      4574    3    0    1
 -2       661       662      1303      2327
 -1      4575    3    0    1
 -2       420      1303      2037      2327
 -1      4576    3    0    1
 -2       661      2281      2327      2351
 -1      4577    3    0    1
 -2      1006      2068      2271      2297
 -1      4578    3    0    1
 -2       297      1364       313      2376
 -1      4579    3    0    1
 -2       297      2179      2373      2376
 -1      4580    3    0    1
 -2      2075      1325      2283      2302
 -1      4581    3    0    1
 -2       236      2095      2174      2302
 -1      4582    3    0    1
 -2      2095      2075      2193      2302
 -1      4583    3    0    1
 -2      1968       236      2174      2302
 -1      4584    3    0    1
 -2      1067      1065      2284      2428
 -1      4585    3    0    1
 -2      2179      1114      2191      2376
 -1      4586    3    0    1
 -2       850      1364      2373      2463
 -1      4587    3    0    1
 -2       288       381      1069      2284
 -1      4588    3    0    1
 -2      1065       381      1067      2284
 -1      4589    3    0    1
 -2       112       102       956      2417
 -1      4590    3    0    1
 -2       955       582      2249      2417
 -1      4591    3    0    1
 -2      2922      3082      3337      3705
 -1      4592    3    0    1
 -2      1318      2309      2400      2469
 -1      4593    3    0    1
 -2      1066      1337      1972      2424
 -1      4594    3    0    1
 -2       401       402      2410      2474
 -1      4595    3    0    1
 -2      2066      1975      2212      2294
 -1      4596    3    0    1
 -2       956      2249      2417      2425
 -1      4597    3    0    1
 -2       102       956      2417      2425
 -1      4598    3    0    1
 -2      2783      2553      3682      3701
 -1      4599    3    0    1
 -2      2201       971      2485      3510
 -1      4600    3    0    1
 -2       357       109      2237      2425
 -1      4601    3    0    1
 -2       956       945      2249      2425
 -1      4602    3    0    1
 -2      2213      2039      2323      2360
 -1      4603    3    0    1
 -2       607      1291      2410      2474
 -1      4604    3    0    1
 -2       381       288      1067      2284
 -1      4605    3    0    1
 -2      1995      1978      2191      2376
 -1      4606    3    0    1
 -2      1995      2202      2373      2376
 -1      4607    3    0    1
 -2       847      1360      1081      2289
 -1      4608    3    0    1
 -2       847      1082       848      2289
 -1      4609    3    0    1
 -2      1082       847      1080      2289
 -1      4610    3    0    1
 -2      1541      1542      2731      1644
 -1      4611    3    0    1
 -2       605       961      1290      2290
 -1      4612    3    0    1
 -2      1293       966       611      2291
 -1      4613    3    0    1
 -2      2201      1293       966       411
 -1      4614    3    0    1
 -2      1293      2201       966      2291
 -1      4615    3    0    1
 -2       371       965      2269      2461
 -1      4616    3    0    1
 -2      2371       554      2389      2404
 -1      4617    3    0    1
 -2       966      2201       411       407
 -1      4618    3    0    1
 -2       593       966      1289      2291
 -1      4619    3    0    1
 -2       593       605       966      2291
 -1      4620    3    0    1
 -2       109       357      2237      2404
 -1      4621    3    0    1
 -2       719      1316      2388      2471
 -1      4622    3    0    1
 -2      2281      2326      2337      2384
 -1      4623    3    0    1
 -2       823      1337      2267      2293
 -1      4624    3    0    1
 -2      1025      1318      2265      2469
 -1      4625    3    0    1
 -2      1318       733       735      2469
 -1      4626    3    0    1
 -2      1293       611      2566      2655
 -1      4627    3    0    1
 -2      2088      2027      2109      2338
 -1      4628    3    0    1
 -2       996       671      2270      2431
 -1      4629    3    0    1
 -2      1007       899      1312      2556
 -1      4630    3    0    1
 -2      1006       690      2068      2297
 -1      4631    3    0    1
 -2      2271      1006       179       174
 -1      4632    3    0    1
 -2      1006      2271       179      2297
 -1      4633    3    0    1
 -2       166       179      2253      2297
 -1      4634    3    0    1
 -2       671       690       995      2297
 -1      4635    3    0    1
 -2       166       995      1006      2297
 -1      4636    3    0    1
 -2       995       690      1006      2297
 -1      4637    3    0    1
 -2       179       166      1006      2297
 -1      4638    3    0    1
 -2      2040      1992      2051      2298
 -1      4639    3    0    1
 -2       873      1388       874      2299
 -1      4640    3    0    1
 -2      2062      2146      2295      2435
 -1      4641    3    0    1
 -2      1389       873       874      2299
 -1      4642    3    0    1
 -2      1388       873      1387      2299
 -1      4643    3    0    1
 -2      1987      2027      2028      2411
 -1      4644    3    0    1
 -2       873      1389      1105      2299
 -1      4645    3    0    1
 -2      1991      2341      2414      2434
 -1      4646    3    0    1
 -2      1991      2003      2379      2434
 -1      4647    3    0    1
 -2       756       766      2342      2367
 -1      4648    3    0    1
 -2      2227      2052      2401      2434
 -1      4649    3    0    1
 -2      2033      2110      2235      2310
 -1      4650    3    0    1
 -2      2141       341      2548       162
 -1      4651    3    0    1
 -2      2073      1292      2082      2303
 -1      4652    3    0    1
 -2      1292       608      2082      2303
 -1      4653    3    0    1
 -2      2177      1314      2234      2304
 -1      4654    3    0    1
 -2      2415       832      2416      2423
 -1      4655    3    0    1
 -2      2079       193       331      1011
 -1      4656    3    0    1
 -2      2795      2551      3533      3049
 -1      4657    3    0    1
 -2       193       331      2159      2304
 -1      4658    3    0    1
 -2       331      1314      2159      2304
 -1      4659    3    0    1
 -2       331      2079      1011      1022
 -1      4660    3    0    1
 -2       193      2079       331      2304
 -1      4661    3    0    1
 -2      2000      2032      2217      2305
 -1      4662    3    0    1
 -2       220       225      2000      2305
 -1      4663    3    0    1
 -2      2089      2050      2360      2460
 -1      4664    3    0    1
 -2      2000       225      2032      2305
 -1      4665    3    0    1
 -2       582       956      2249      2417
 -1      4666    3    0    1
 -2       369       959      1288      2306
 -1      4667    3    0    1
 -2      2299      2070      2308      2392
 -1      4668    3    0    1
 -2      2235       429      2310      2110
 -1      4669    3    0    1
 -2       443      1991      2227      2341
 -1      4670    3    0    1
 -2       959       589      1288      2306
 -1      4671    3    0    1
 -2      2159       193      2304      2439
 -1      4672    3    0    1
 -2      2159      2235      2169      2439
 -1      4673    3    0    1
 -2      1009       698      2209      2439
 -1      4674    3    0    1
 -2      2208       427      2242      2319
 -1      4675    3    0    1
 -2       958       121       960      2391
 -1      4676    3    0    1
 -2      1315      1016       715      2380
 -1      4677    3    0    1
 -2       715      1016      2177      2380
 -1      4678    3    0    1
 -2       443       442      1991      2341
 -1      4679    3    0    1
 -2       369       370       959      2306
 -1      4680    3    0    1
 -2      2295      2146      2328      2435
 -1      4681    3    0    1
 -2       385       384      1072      2462
 -1      4682    3    0    1
 -2      1311       429      2240      2449
 -1      4683    3    0    1
 -2      1383       303      1098      2333
 -1      4684    3    0    1
 -2      2273       766      2355      2367
 -1      4685    3    0    1
 -2      2067      2267      2293      2456
 -1      4686    3    0    1
 -2      2125      2050      2137      2330
 -1      4687    3    0    1
 -2      2433       447      1388      2436
 -1      4688    3    0    1
 -2      1117       447      2433      2436
 -1      4689    3    0    1
 -2       370       959      2306      2437
 -1      4690    3    0    1
 -2       859       860      2137      2330
 -1      4691    3    0    1
 -2      2238      2219      2349      2372
 -1      4692    3    0    1
 -2      2001      2262      2357      2438
 -1      4693    3    0    1
 -2       386      1972      2328      2435
 -1      4694    3    0    1
 -2      3282      1803      3328      3701
 -1      4695    3    0    1
 -2      2215       941      2378      2426
 -1      4696    3    0    1
 -2       859      1092       860      2330
 -1      4697    3    0    1
 -2       317       421      2024      2330
 -1      4698    3    0    1
 -2      2050      2048      2137      2330
 -1      4699    3    0    1
 -2       360       121      2340      2391
 -1      4700    3    0    1
 -2      2048      2005      2137      2330
 -1      4701    3    0    1
 -2       826       819      1068      2314
 -1      4702    3    0    1
 -2       834      2187      2393      2472
 -1      4703    3    0    1
 -2      1074       833       834      2472
 -1      4704    3    0    1
 -2      2698      2779      2832      3537
 -1      4705    3    0    1
 -2       157      2507      3518      1733
 -1      4706    3    0    1
 -2      2994      1646      3567      1783
 -1      4707    3    0    1
 -2      2013      2247      2322      2501
 -1      4708    3    0    1
 -2       646       156       650      1733
 -1      4709    3    0    1
 -2       163       156      3518      1733
 -1      4710    3    0    1
 -2       330       194       700      1911
 -1      4711    3    0    1
 -2      3238      1825      3701      1928
 -1      4712    3    0    1
 -2      2687      3124      3607      3618
 -1      4713    3    0    1
 -2       826      1068      1280      2314
 -1      4714    3    0    1
 -2       550       826      1280      2314
 -1      4715    3    0    1
 -2      1579      1578      2676      2866
 -1      4716    3    0    1
 -2      1003       689      1014      2317
 -1      4717    3    0    1
 -2       424      1003      1014      2317
 -1      4718    3    0    1
 -2       689       708      1014      2317
 -1      4719    3    0    1
 -2       424       426      1003      2317
 -1      4720    3    0    1
 -2      2044       429      2336      2449
 -1      4721    3    0    1
 -2      1042      1968      2277      2364
 -1      4722    3    0    1
 -2       572       951      2018      2318
 -1      4723    3    0    1
 -2      1285       572      2018      2318
 -1      4724    3    0    1
 -2      1285      2018      2223      2318
 -1      4725    3    0    1
 -2       951       372      2018      2318
 -1      4726    3    0    1
 -2       422       183      2497      3550
 -1      4727    3    0    1
 -2       708      2216      2317      2319
 -1      4728    3    0    1
 -2       689       708      2317      2319
 -1      4729    3    0    1
 -2       708      1004      1013      2319
 -1      4730    3    0    1
 -2       708       689      1004      2319
 -1      4731    3    0    1
 -2      1500      2939      3066      3108
 -1      4732    3    0    1
 -2      2169      1311      2240      2449
 -1      4733    3    0    1
 -2      2244      2127      2433      2436
 -1      4734    3    0    1
 -2      2088       866      2099      2338
 -1      4735    3    0    1
 -2      1380       309      1381      2338
 -1      4736    3    0    1
 -2      2070      2084      2262      2448
 -1      4737    3    0    1
 -2       402       360       962      2340
 -1      4738    3    0    1
 -2       402       962      2275      2340
 -1      4739    3    0    1
 -2      2027       277      2267      2328
 -1      4740    3    0    1
 -2      2027      1989      2028      2328
 -1      4741    3    0    1
 -2       419       166       993      2320
 -1      4742    3    0    1
 -2       412       970       981      2321
 -1      4743    3    0    1
 -2       970       617       981      2321
 -1      4744    3    0    1
 -2       412       361       970      2321
 -1      4745    3    0    1
 -2       617       636       981      2321
 -1      4746    3    0    1
 -2      2269       965      2447      2461
 -1      4747    3    0    1
 -2       202       417      2234      2399
 -1      4748    3    0    1
 -2      2224      2047      2277      2419
 -1      4749    3    0    1
 -2       245       243      1045      2375
 -1      4750    3    0    1
 -2      2209       428      2316      2443
 -1      4751    3    0    1
 -2      1014       424      2317      2443
 -1      4752    3    0    1
 -2       329       196      1706      2920
 -1      4753    3    0    1
 -2       129       968      2397      2409
 -1      4754    3    0    1
 -2      2283      1043      2301      2445
 -1      4755    3    0    1
 -2       590      2019      2410      2474
 -1      4756    3    0    1
 -2       626       976      2163      2324
 -1      4757    3    0    1
 -2      1045       390      2375      2445
 -1      4758    3    0    1
 -2       880      1403       891      2325
 -1      4759    3    0    1
 -2      1110       880      2295      2325
 -1      4760    3    0    1
 -2       880      1109      2295      2325
 -1      4761    3    0    1
 -2       880      1125      1109      2325
 -1      4762    3    0    1
 -2      1403       880      1110      2325
 -1      4763    3    0    1
 -2      2027      2088      2099      2338
 -1      4764    3    0    1
 -2       277      2027      2028      2328
 -1      4765    3    0    1
 -2       386      1989      2146      2328
 -1      4766    3    0    1
 -2       386       277      1989      2328
 -1      4767    3    0    1
 -2      1989       277      2028      2328
 -1      4768    3    0    1
 -2       659      2141      2312      2406
 -1      4769    3    0    1
 -2      1033       751      2300      2329
 -1      4770    3    0    1
 -2      2128      1033      2300      2329
 -1      4771    3    0    1
 -2      2262      2128      2300      2329
 -1      4772    3    0    1
 -2      2005      1090      2137      2330
 -1      4773    3    0    1
 -2      1090       859      2137      2330
 -1      4774    3    0    1
 -2      1092       859      1090      2330
 -1      4775    3    0    1
 -2      1090       317      1092      2330
 -1      4776    3    0    1
 -2       421       317      1090      2330
 -1      4777    3    0    1
 -2       599       962      2340      2421
 -1      4778    3    0    1
 -2       753      1322      2272      2419
 -1      4779    3    0    1
 -2      1024       733      2195      2331
 -1      4780    3    0    1
 -2      2011      2176      2178      2382
 -1      4781    3    0    1
 -2      1026       733      1024      2331
 -1      4782    3    0    1
 -2       733      1026       735      2331
 -1      4783    3    0    1
 -2       735      1026      2309      2331
 -1      4784    3    0    1
 -2       618      2275      2421      2470
 -1      4785    3    0    1
 -2       805      1059       807      2486
 -1      4786    3    0    1
 -2       805       807      2254      2486
 -1      4787    3    0    1
 -2      1378       303       312      2333
 -1      4788    3    0    1
 -2       312      1383      2093      2333
 -1      4789    3    0    1
 -2       303      1383       312      2333
 -1      4790    3    0    1
 -2      1318       735      2309      2469
 -1      4791    3    0    1
 -2       262      1053      2219      2452
 -1      4792    3    0    1
 -2      1354       295      1355      2334
 -1      4793    3    0    1
 -2      1053       260      1056      2452
 -1      4794    3    0    1
 -2      2201       971      2470      2485
 -1      4795    3    0    1
 -2      3672      1835      1920      3431
 -1      4796    3    0    1
 -2      1333      2045      2332      2455
 -1      4797    3    0    1
 -2       345       257      1055      2335
 -1      4798    3    0    1
 -2      2446       227      3416      3696
 -1      4799    3    0    1
 -2      1969      1063      2261      2453
 -1      4800    3    0    1
 -2       798      1056      2154      2335
 -1      4801    3    0    1
 -2      2900      2580      3659      3691
 -1      4802    3    0    1
 -2      1462      1630      1631      3383
 -1      4803    3    0    1
 -2       816       797      1063      2453
 -1      4804    3    0    1
 -2      1034      2233      2398      2419
 -1      4805    3    0    1
 -2      1054       797      2335      2453
 -1      4806    3    0    1
 -2       985       644      2133      2384
 -1      4807    3    0    1
 -2      2369       242      2504      2615
 -1      4808    3    0    1
 -2      2358      1386       290      2459
 -1      4809    3    0    1
 -2      2063      1999      2115      2459
 -1      4810    3    0    1
 -2      2052      2332      2045      1990
 -1      4811    3    0    1
 -2       753      1034      2263      2419
 -1      4812    3    0    1
 -2       379       309      1380      2338
 -1      4813    3    0    1
 -2      1381       865      1380      2338
 -1      4814    3    0    1
 -2      2027      1989      2099      2346
 -1      4815    3    0    1
 -2      1380       865      2088      2338
 -1      4816    3    0    1
 -2      2001      2262      2438      2448
 -1      4817    3    0    1
 -2      2027      1989      2328      2430
 -1      4818    3    0    1
 -2      2070      2308      2392      2448
 -1      4819    3    0    1
 -2      2151      2299      2308      2392
 -1      4820    3    0    1
 -2      1311      2169      2235      2449
 -1      4821    3    0    1
 -2      2308      2299      2433      2448
 -1      4822    3    0    1
 -2      2084      2002      2151      2392
 -1      4823    3    0    1
 -2      2151      2002      2299      2392
 -1      4824    3    0    1
 -2      2067       277      2267      2411
 -1      4825    3    0    1
 -2       988       654       989      2412
 -1      4826    3    0    1
 -2      2001      2244      2433      2448
 -1      4827    3    0    1
 -2      2070      2299      2308      2448
 -1      4828    3    0    1
 -2       360       402       960      2340
 -1      4829    3    0    1
 -2       715      2234      2177      1314
 -1      4830    3    0    1
 -2      2003      1991      2140      2341
 -1      4831    3    0    1
 -2      1991      1127      2140      2341
 -1      4832    3    0    1
 -2       442      1112      1127      2341
 -1      4833    3    0    1
 -2      1127       882       893      2341
 -1      4834    3    0    1
 -2       442      1127      1991      2341
 -1      4835    3    0    1
 -2      1127       893      2140      2341
 -1      4836    3    0    1
 -2       375      2011      2344      2457
 -1      4837    3    0    1
 -2       967      1997      2019      2362
 -1      4838    3    0    1
 -2      3515      3556      3563      3660
 -1      4839    3    0    1
 -2      2023      1977      2092      2368
 -1      4840    3    0    1
 -2      1072       384      2416      2462
 -1      4841    3    0    1
 -2      3059      3114      3601      3660
 -1      4842    3    0    1
 -2       847      1080      2289      2368
 -1      4843    3    0    1
 -2      2060      1976      2166      2368
 -1      4844    3    0    1
 -2       653       672       998      2343
 -1      4845    3    0    1
 -2       987       653       998      2343
 -1      4846    3    0    1
 -2       672       653       997      2343
 -1      4847    3    0    1
 -2       653       988       997      2343
 -1      4848    3    0    1
 -2       865      1382      1096      2346
 -1      4849    3    0    1
 -2       444       445      1096      2346
 -1      4850    3    0    1
 -2      1382       866      2099      2346
 -1      4851    3    0    1
 -2      1382       865       866      2346
 -1      4852    3    0    1
 -2       444      1382      2099      2346
 -1      4853    3    0    1
 -2       444      1096      1382      2346
 -1      4854    3    0    1
 -2       986      1298       647      3542
 -1      4855    3    0    1
 -2       444      1125       445      2346
 -1      4856    3    0    1
 -2      1125       444      1109      2346
 -1      4857    3    0    1
 -2      2929      3133      3184      3673
 -1      4858    3    0    1
 -2        24      1553      1554      2702
 -1      4859    3    0    1
 -2      1055      2483      2603      3530
 -1      4860    3    0    1
 -2       331       198      1314      2348
 -1      4861    3    0    1
 -2       383      2014      2022      2349
 -1      4862    3    0    1
 -2      1057       805      2238      2349
 -1      4863    3    0    1
 -2       805      1058      2022      2349
 -1      4864    3    0    1
 -2       805      2022      2238      2349
 -1      4865    3    0    1
 -2      1058       383      2022      2349
 -1      4866    3    0    1
 -2       993      2253      2276      2350
 -1      4867    3    0    1
 -2       993       662      2320      2350
 -1      4868    3    0    1
 -2      2253       993      2320      2350
 -1      4869    3    0    1
 -2      2107       679      2253      2350
 -1      4870    3    0    1
 -2       679      2107      2225      2350
 -1      4871    3    0    1
 -2      1303       662      2054      2350
 -1      4872    3    0    1
 -2      2054       662      2276      2350
 -1      4873    3    0    1
 -2       679      2054      2276      2350
 -1      4874    3    0    1
 -2       662       993      2276      2350
 -1      4875    3    0    1
 -2      1967      1303      2327      2351
 -1      4876    3    0    1
 -2       992       366      2089      2351
 -1      4877    3    0    1
 -2       322       306      1391      2352
 -1      4878    3    0    1
 -2      2004       306      2152      2352
 -1      4879    3    0    1
 -2      1398       306       322      2352
 -1      4880    3    0    1
 -2      1391       306      1392      2352
 -1      4881    3    0    1
 -2       306      1398      1130      2352
 -1      4882    3    0    1
 -2       306      1130      2152      2352
 -1      4883    3    0    1
 -2      1106       323      2260      2353
 -1      4884    3    0    1
 -2      1396       323      1106      2353
 -1      4885    3    0    1
 -2       323      1408      1120      2353
 -1      4886    3    0    1
 -2       323      1120      2256      2353
 -1      4887    3    0    1
 -2      1971      1985      2223      2354
 -1      4888    3    0    1
 -2      2006      2155      2354      2156
 -1      4889    3    0    1
 -2      1985      1971      2006      2354
 -1      4890    3    0    1
 -2      2155       104      2223      2354
 -1      4891    3    0    1
 -2       104      1285      2223      2354
 -1      4892    3    0    1
 -2      1984       104      2155      2354
 -1      4893    3    0    1
 -2      1985      2155      2223      2354
 -1      4894    3    0    1
 -2      3074      1632      1890      1891
 -1      4895    3    0    1
 -2      2076      1977      2289      2368
 -1      4896    3    0    1
 -2      1976      2060      2092      2368
 -1      4897    3    0    1
 -2      1048      2074      2408      2418
 -1      4898    3    0    1
 -2      2358      2115      1345      2042
 -1      4899    3    0    1
 -2       774      1049      1326      2355
 -1      4900    3    0    1
 -2       774       784      1049      2355
 -1      4901    3    0    1
 -2      1322       753      2263      2419
 -1      4902    3    0    1
 -2      2148      1386      2358      2459
 -1      4903    3    0    1
 -2      3503      2250      2777      3711
 -1      4904    3    0    1
 -2      1692      2695      1693      2986
 -1      4905    3    0    1
 -2      2557      2490      3598      3400
 -1      4906    3    0    1
 -2      2294       370      2296      2437
 -1      4907    3    0    1
 -2      3390      1487      3405      3483
 -1      4908    3    0    1
 -2      3125      3213      3657      3382
 -1      4909    3    0    1
 -2      2141       162      2548      3550
 -1      4910    3    0    1
 -2       388       384      2236      2359
 -1      4911    3    0    1
 -2      2001      2070      2262      2448
 -1      4912    3    0    1
 -2      2127      2001      2244      2433
 -1      4913    3    0    1
 -2       384      1065      2236      2359
 -1      4914    3    0    1
 -2      1412      1689      3573      3608
 -1      4915    3    0    1
 -2       743       744      1030      2361
 -1      4916    3    0    1
 -2       425       424      1014      2443
 -1      4917    3    0    1
 -2      2074       761      2446      2450
 -1      4918    3    0    1
 -2      2237       943      2371      2404
 -1      4919    3    0    1
 -2       368      2118      2239      2382
 -1      4920    3    0    1
 -2      2743      2929      3640      3673
 -1      4921    3    0    1
 -2       368       950      2226      2382
 -1      4922    3    0    1
 -2       394       212      1028      2361
 -1      4923    3    0    1
 -2       676      1305      2243      2406
 -1      4924    3    0    1
 -2       208      1029      1030      2361
 -1      4925    3    0    1
 -2       272      1064      1969      2480
 -1      4926    3    0    1
 -2       834       833      2187      2472
 -1      4927    3    0    1
 -2       425       428      2209      2443
 -1      4928    3    0    1
 -2       360       962      2340      2447
 -1      4929    3    0    1
 -2       121      2340      2391      2447
 -1      4930    3    0    1
 -2      3533      2771      3025      3108
 -1      4931    3    0    1
 -2       125       408      1785      3629
 -1      4932    3    0    1
 -2       210       208      1030      2361
 -1      4933    3    0    1
 -2      2359       384      2428      2462
 -1      4934    3    0    1
 -2       121       371       965      2447
 -1      4935    3    0    1
 -2      1329       789      2372      2468
 -1      4936    3    0    1
 -2      3368      2650      3677      3691
 -1      4937    3    0    1
 -2      1557      1558      1615      3354
 -1      4938    3    0    1
 -2      3531      2698      2933      3080
 -1      4939    3    0    1
 -2       200       194      2690      3725
 -1      4940    3    0    1
 -2      1051       789      1328      2484
 -1      4941    3    0    1
 -2       787      2468      2473      2484
 -1      4942    3    0    1
 -2       275      1057      2219      2480
 -1      4943    3    0    1
 -2       361       129       970      2409
 -1      4944    3    0    1
 -2      1364      1361      2373      2376
 -1      4945    3    0    1
 -2      2283      1043      2445      2464
 -1      4946    3    0    1
 -2       297       313      1114      2376
 -1      4947    3    0    1
 -2       789      2219      2372      2484
 -1      4948    3    0    1
 -2      2154      1328      2473      2484
 -1      4949    3    0    1
 -2       554       553      2371      2378
 -1      4950    3    0    1
 -2      1699      1499      3126      3127
 -1      4951    3    0    1
 -2      1046       779      2377      2603
 -1      4952    3    0    1
 -2      1290      2138      2290      3663
 -1      4953    3    0    1
 -2      2022       789      2238      2372
 -1      4954    3    0    1
 -2      1364       849       850      2373
 -1      4955    3    0    1
 -2       849      1364      1361      2373
 -1      4956    3    0    1
 -2       771      2283      2364      2464
 -1      4957    3    0    1
 -2      2275       129      2397      2409
 -1      4958    3    0    1
 -2      1477      1476      2593      3215
 -1      4959    3    0    1
 -2      2046       730      2388      2471
 -1      4960    3    0    1
 -2      1045      1056      2154      2377
 -1      4961    3    0    1
 -2       295       320      1083      2451
 -1      4962    3    0    1
 -2       659       665      2406      3561
 -1      4963    3    0    1
 -2      1046       779      2369      2377
 -1      4964    3    0    1
 -2      1322      2224      2272      2419
 -1      4965    3    0    1
 -2       761       780      2074      2465
 -1      4966    3    0    1
 -2      1045       243      1048      2375
 -1      4967    3    0    1
 -2       553       941      2371      2378
 -1      4968    3    0    1
 -2       942      2251      2347      2378
 -1      4969    3    0    1
 -2      1053      2219      2452      2480
 -1      4970    3    0    1
 -2       968      2059      2397      2409
 -1      4971    3    0    1
 -2       941       553      2215      2378
 -1      4972    3    0    1
 -2      2059       361      2321      2409
 -1      4973    3    0    1
 -2       227      1037      1038      2446
 -1      4974    3    0    1
 -2       297      1402      2179      2376
 -1      4975    3    0    1
 -2      1045       798      1056      2377
 -1      4976    3    0    1
 -2      2215       942      2347      2378
 -1      4977    3    0    1
 -2      1281       554      2251      2378
 -1      4978    3    0    1
 -2      1281       553       554      2378
 -1      4979    3    0    1
 -2       553      1281       942      2378
 -1      4980    3    0    1
 -2       942      1281      2251      2378
 -1      4981    3    0    1
 -2       383      1058      2254      2379
 -1      4982    3    0    1
 -2      2254      1058      2349      2379
 -1      4983    3    0    1
 -2      2000      2127      2305      2402
 -1      4984    3    0    1
 -2      2136      2000      2305      2402
 -1      4985    3    0    1
 -2       291       393      2136      2402
 -1      4986    3    0    1
 -2       884      1117      2127      2402
 -1      4987    3    0    1
 -2      2127      2244      2305      2402
 -1      4988    3    0    1
 -2       383      1991      2003      2379
 -1      4989    3    0    1
 -2       383       387      1991      2379
 -1      4990    3    0    1
 -2       972       618      2421      2470
 -1      4991    3    0    1
 -2       216      1024      2195      2381
 -1      4992    3    0    1
 -2      1024       212      2331      2381
 -1      4993    3    0    1
 -2      2195      1024      2331      2381
 -1      4994    3    0    1
 -2       394       212      2361      2381
 -1      4995    3    0    1
 -2       395      1318      2128      2400
 -1      4996    3    0    1
 -2       762      2446      2450      2467
 -1      4997    3    0    1
 -2       805      2254      2349      2486
 -1      4998    3    0    1
 -2      1039       762      2450      2467
 -1      4999    3    0    1
 -2       219      1039      2450      2467
 -1      5000    3    0    1
 -2       213      2405      2466      2467
 -1      5001    3    0    1
 -2      2084      2128      2262      2400
 -1      5002    3    0    1
 -2       216       212      1024      2381
 -1      5003    3    0    1
 -2      2300      2262      2329      2400
 -1      5004    3    0    1
 -2      2237      2371      2389      2404
 -1      5005    3    0    1
 -2       943       554      2371      2404
 -1      5006    3    0    1
 -2       781       790      1555      2631
 -1      5007    3    0    1
 -2      2133       644      2326      2384
 -1      5008    3    0    1
 -2       985       339      2326      2384
 -1      5009    3    0    1
 -2       644       985      2326      2384
 -1      5010    3    0    1
 -2      1982      2131      2221      2385
 -1      5011    3    0    1
 -2      1982      1296      2131      2385
 -1      5012    3    0    1
 -2       139      1982      2221      2385
 -1      5013    3    0    1
 -2      1966       139      2096      2385
 -1      5014    3    0    1
 -2      2096       139      2221      2385
 -1      5015    3    0    1
 -2       139      1296      1982      2385
 -1      5016    3    0    1
 -2       982      1300      2026      2386
 -1      5017    3    0    1
 -2       647      2143      2312      2386
 -1      5018    3    0    1
 -2       340       437      1604      3272
 -1      5019    3    0    1
 -2       641       647      1300      2386
 -1      5020    3    0    1
 -2      1300       647      2312      2386
 -1      5021    3    0    1
 -2      3217      3615      3246      3711
 -1      5022    3    0    1
 -2       629       641       982      2386
 -1      5023    3    0    1
 -2       629       982      1297      2386
 -1      5024    3    0    1
 -2       247       344      3529      3121
 -1      5025    3    0    1
 -2       994      2559      2634      2726
 -1      5026    3    0    1
 -2      2230       352      2232      2689
 -1      5027    3    0    1
 -2      3504      3563      3632      3644
 -1      5028    3    0    1
 -2      1793      1792      1804      3346
 -1      5029    3    0    1
 -2       730      1027      1317      2540
 -1      5030    3    0    1
 -2       343      2446      2478      2578
 -1      5031    3    0    1
 -2       833      2102      2187      2472
 -1      5032    3    0    1
 -2      2087      1975      2393      2472
 -1      5033    3    0    1
 -2       608       968      2059      2397
 -1      5034    3    0    1
 -2      2165      2067      2287      2411
 -1      5035    3    0    1
 -2      2532      2342      3532      3665
 -1      5036    3    0    1
 -2       189      1012      1013      2390
 -1      5037    3    0    1
 -2      1013      1012      2216      2390
 -1      5038    3    0    1
 -2       590       589       960      2391
 -1      5039    3    0    1
 -2      2310      2235      2336      2449
 -1      5040    3    0    1
 -2      2233       223      2398      2450
 -1      5041    3    0    1
 -2       429      2235      2310      2449
 -1      5042    3    0    1
 -2      2002      2070      2299      2392
 -1      5043    3    0    1
 -2      2087      2286      2311      2393
 -1      5044    3    0    1
 -2      2087      1975      2286      2393
 -1      5045    3    0    1
 -2      2187      2102      2311      2393
 -1      5046    3    0    1
 -2      2102      2087      2311      2393
 -1      5047    3    0    1
 -2       636       617       971      2485
 -1      5048    3    0    1
 -2      2699      2724      3537      2904
 -1      5049    3    0    1
 -2      2154       259      2445      2473
 -1      5050    3    0    1
 -2      1347       294      1348      2393
 -1      5051    3    0    1
 -2      2427       787      2468      2473
 -1      5052    3    0    1
 -2       377       294      1347      2393
 -1      5053    3    0    1
 -2      1328       259      2154      2473
 -1      5054    3    0    1
 -2      2899      2733      3636      3654
 -1      5055    3    0    1
 -2      2133       985      2384      2395
 -1      5056    3    0    1
 -2       338       153      2206      2395
 -1      5057    3    0    1
 -2       153       338       985      2395
 -1      5058    3    0    1
 -2       153       159      2206      2395
 -1      5059    3    0    1
 -2       159       153       983      2395
 -1      5060    3    0    1
 -2      3516      1052      3557      3635
 -1      5061    3    0    1
 -2      1018       719      2388      2396
 -1      5062    3    0    1
 -2       719       730      2388      2396
 -1      5063    3    0    1
 -2       719      1018      1317      2396
 -1      5064    3    0    1
 -2       730       719      1317      2396
 -1      5065    3    0    1
 -2      2340       960      2391      2410
 -1      5066    3    0    1
 -2       960       590      2306      2410
 -1      5067    3    0    1
 -2       401       402      2275      2410
 -1      5068    3    0    1
 -2       128       401      2275      2397
 -1      5069    3    0    1
 -2       401       128      1291      2397
 -1      5070    3    0    1
 -2      1048      1036      2074      2398
 -1      5071    3    0    1
 -2      2263      2229      2277      2419
 -1      5072    3    0    1
 -2      1034       232      2263      2398
 -1      5073    3    0    1
 -2       232       391      2263      2398
 -1      5074    3    0    1
 -2       391       232      1036      2398
 -1      5075    3    0    1
 -2       391      1036      1048      2398
 -1      5076    3    0    1
 -2       216      1031      2381      2399
 -1      5077    3    0    1
 -2       424       425      2116      2443
 -1      5078    3    0    1
 -2       428       425      2316      2443
 -1      5079    3    0    1
 -2       425      1014      2316      2443
 -1      5080    3    0    1
 -2       216       417      1019      2399
 -1      5081    3    0    1
 -2       417       216      2198      2399
 -1      5082    3    0    1
 -2      1017       417      2198      2399
 -1      5083    3    0    1
 -2       216      1019      1031      2399
 -1      5084    3    0    1
 -2      1014      2216      2316      2443
 -1      5085    3    0    1
 -2      2062      2052      2332      2401
 -1      5086    3    0    1
 -2      2052      2062      2332      1990
 -1      5087    3    0    1
 -2      2052      2332       387      2045
 -1      5088    3    0    1
 -2      2332      2052       387      2401
 -1      5089    3    0    1
 -2       894       884      2127      2402
 -1      5090    3    0    1
 -2       393      2000      2136      2402
 -1      5091    3    0    1
 -2       884      1128      1116      2402
 -1      5092    3    0    1
 -2      1128       291      1116      2402
 -1      5093    3    0    1
 -2      2000      1128      2127      2402
 -1      5094    3    0    1
 -2      1128       884       894      2402
 -1      5095    3    0    1
 -2       291      1128       393      2402
 -1      5096    3    0    1
 -2      1128       894      2127      2402
 -1      5097    3    0    1
 -2       393      1128      2000      2402
 -1      5098    3    0    1
 -2      2889      3213      1862      3382
 -1      5099    3    0    1
 -2      2642      1603      2932      3272
 -1      5100    3    0    1
 -2      3611      3579      3666      3689
 -1      5101    3    0    1
 -2      3678      3564      3406      3695
 -1      5102    3    0    1
 -2       173      1305      1703      1821
 -1      5103    3    0    1
 -2      1321       219      2233      2405
 -1      5104    3    0    1
 -2       751      2233      2300      2405
 -1      5105    3    0    1
 -2       751      1321      2233      2405
 -1      5106    3    0    1
 -2       751      2300      2329      2405
 -1      5107    3    0    1
 -2        26      3083      1880      1945
 -1      5108    3    0    1
 -2       213       234      2329      2405
 -1      5109    3    0    1
 -2       234       219      1321      2405
 -1      5110    3    0    1
 -2       234      1321      2329      2405
 -1      5111    3    0    1
 -2      1321       751      2329      2405
 -1      5112    3    0    1
 -2       659       665      2141      2406
 -1      5113    3    0    1
 -2      1694      1412      3592      3636
 -1      5114    3    0    1
 -2       665       676      2141      2406
 -1      5115    3    0    1
 -2      3282      3328      3682      3701
 -1      5116    3    0    1
 -2      1568       403      1658      3575
 -1      5117    3    0    1
 -2      1568      1413      3514      3575
 -1      5118    3    0    1
 -2      2158       635      2259      2608
 -1      5119    3    0    1
 -2      2697      2574      3516      3546
 -1      5120    3    0    1
 -2       676       994      1305      2406
 -1      5121    3    0    1
 -2       676       665       994      2406
 -1      5122    3    0    1
 -2       968       361      2059      2409
 -1      5123    3    0    1
 -2       129       361       968      2409
 -1      5124    3    0    1
 -2       401      2275      2397      2410
 -1      5125    3    0    1
 -2      1291       401      2397      2410
 -1      5126    3    0    1
 -2       607      1291      2362      2410
 -1      5127    3    0    1
 -2      1334      1331      2258      2475
 -1      5128    3    0    1
 -2      1793      1792      3346      1926
 -1      5129    3    0    1
 -2      1032       748      2342      2618
 -1      5130    3    0    1
 -2       270      1331      1334      2475
 -1      5131    3    0    1
 -2      1449      2693      3041      3393
 -1      5132    3    0    1
 -2      1125      1109      2325      2430
 -1      5133    3    0    1
 -2       653       654       988      2412
 -1      5134    3    0    1
 -2      1125      2325      2346      2430
 -1      5135    3    0    1
 -2       444      1109      2346      2430
 -1      5136    3    0    1
 -2       640       416       989      1963
 -1      5137    3    0    1
 -2       654       635       989      2412
 -1      5138    3    0    1
 -2       635       979       989      2412
 -1      5139    3    0    1
 -2      2295      1989      2325      2430
 -1      5140    3    0    1
 -2       270      1969      2261      2415
 -1      5141    3    0    1
 -2       270      1062      1969      2415
 -1      5142    3    0    1
 -2       822       823      1066      2424
 -1      5143    3    0    1
 -2      2525      2415      3508      3425
 -1      5144    3    0    1
 -2      2642      2813      2932      3290
 -1      5145    3    0    1
 -2      2559      1248      2670      2817
 -1      5146    3    0    1
 -2      1337      1066       823      2424
 -1      5147    3    0    1
 -2      1972      1337      2267      2424
 -1      5148    3    0    1
 -2      1036      2074      2398      2450
 -1      5149    3    0    1
 -2       831      1069      2423      2476
 -1      5150    3    0    1
 -2      1901      1902      3378      3472
 -1      5151    3    0    1
 -2       948       564      2135      2476
 -1      5152    3    0    1
 -2       288       355      2426      2476
 -1      5153    3    0    1
 -2      3047      3622      3317      3318
 -1      5154    3    0    1
 -2      1337       823      2267      2424
 -1      5155    3    0    1
 -2      1069       288      2284      2476
 -1      5156    3    0    1
 -2       581       953       956      2417
 -1      5157    3    0    1
 -2      1574      1573      1749      3316
 -1      5158    3    0    1
 -2      1803      3050      1804      3346
 -1      5159    3    0    1
 -2       208       737      1029      1929
 -1      5160    3    0    1
 -2       405       400      2356      2417
 -1      5161    3    0    1
 -2       400       405       955      2417
 -1      5162    3    0    1
 -2      2244      2001      2438      2448
 -1      5163    3    0    1
 -2       571       572      2226      2420
 -1      5164    3    0    1
 -2       572       571       949      2420
 -1      5165    3    0    1
 -2       571       950      2389      2420
 -1      5166    3    0    1
 -2       950       571      2226      2420
 -1      5167    3    0    1
 -2       950      2382      2389      2420
 -1      5168    3    0    1
 -2       950      2226      2382      2420
 -1      5169    3    0    1
 -2      2021      2389      2404      2420
 -1      5170    3    0    1
 -2      2021       571      2389      2420
 -1      5171    3    0    1
 -2       109       102       949      2420
 -1      5172    3    0    1
 -2       109       949      2404      2420
 -1      5173    3    0    1
 -2       949       571      2404      2420
 -1      5174    3    0    1
 -2       571      2021      2404      2420
 -1      5175    3    0    1
 -2      3539      3455      3687      3629
 -1      5176    3    0    1
 -2       599       618       962      2421
 -1      5177    3    0    1
 -2       618       599       963      2421
 -1      5178    3    0    1
 -2       618       963       972      2421
 -1      5179    3    0    1
 -2       618      2275       962      2421
 -1      5180    3    0    1
 -2       388       267      1061      2422
 -1      5181    3    0    1
 -2       388      1061      2416      2422
 -1      5182    3    0    1
 -2       959       589      2306      2481
 -1      5183    3    0    1
 -2       589       958      2391      2481
 -1      5184    3    0    1
 -2       267       388      1059      2422
 -1      5185    3    0    1
 -2      1070       831      1071      2423
 -1      5186    3    0    1
 -2      2202      2373      2376      2463
 -1      5187    3    0    1
 -2       280      1070      1071      2423
 -1      5188    3    0    1
 -2       280       285      1070      2423
 -1      5189    3    0    1
 -2       357       945       956      2425
 -1      5190    3    0    1
 -2      2016       253      2427      2477
 -1      5191    3    0    1
 -2      2370       405      3690      3699
 -1      5192    3    0    1
 -2       355       941      2293      2426
 -1      5193    3    0    1
 -2       288       355      2293      2426
 -1      5194    3    0    1
 -2      1067       288      2293      2426
 -1      5195    3    0    1
 -2      2075      2016      2302      2477
 -1      5196    3    0    1
 -2       395      2084      2265      2469
 -1      5197    3    0    1
 -2       733      1025      2265      2469
 -1      5198    3    0    1
 -2      1318       395      2265      2469
 -1      5199    3    0    1
 -2      2309       735      2331      2469
 -1      5200    3    0    1
 -2       395      1318      2400      2469
 -1      5201    3    0    1
 -2       787      1050      2301      2427
 -1      5202    3    0    1
 -2      1050      2075      2301      2427
 -1      5203    3    0    1
 -2      1050       253      2075      2427
 -1      5204    3    0    1
 -2      2630      3533      3542      3569
 -1      5205    3    0    1
 -2      3568      3172      3321      3705
 -1      5206    3    0    1
 -2      1290       969      2138      3549
 -1      5207    3    0    1
 -2      1500      2755      1770      3369
 -1      5208    3    0    1
 -2       350       270      3508      1921
 -1      5209    3    0    1
 -2       690      1005      2242      2431
 -1      5210    3    0    1
 -2       690       671       996      2431
 -1      5211    3    0    1
 -2       690       996      1005      2431
 -1      5212    3    0    1
 -2      2236       388      2359      2432
 -1      5213    3    0    1
 -2       375       376      2347      2457
 -1      5214    3    0    1
 -2      2083       375      2344      2457
 -1      5215    3    0    1
 -2       988      2343      2507      3518
 -1      5216    3    0    1
 -2       807      1059      2236      2432
 -1      5217    3    0    1
 -2      1059       388      2236      2432
 -1      5218    3    0    1
 -2      1117       397      1406      2433
 -1      5219    3    0    1
 -2      1991       387      2052      2434
 -1      5220    3    0    1
 -2      2062      1990      2146      2435
 -1      5221    3    0    1
 -2      1972       386      2045      2435
 -1      5222    3    0    1
 -2      1972      2045      2332      2435
 -1      5223    3    0    1
 -2      1990      2045      2146      2435
 -1      5224    3    0    1
 -2      2045       386      2146      2435
 -1      5225    3    0    1
 -2      2127      2244      2402      2436
 -1      5226    3    0    1
 -2      1117      2127      2402      2436
 -1      5227    3    0    1
 -2       447      2433      1388       397
 -1      5228    3    0    1
 -2      2433      2299      1388      1387
 -1      5229    3    0    1
 -2      1388      2433      1387       397
 -1      5230    3    0    1
 -2      1019       725      2442      2482
 -1      5231    3    0    1
 -2      3108      1559      3227      3377
 -1      5232    3    0    1
 -2       725      1019      1022      2482
 -1      5233    3    0    1
 -2       725       726      1020      2482
 -1      5234    3    0    1
 -2       369      2306      2413      2437
 -1      5235    3    0    1
 -2      2286       369      2413      2437
 -1      5236    3    0    1
 -2      2234       202      2399      2482
 -1      5237    3    0    1
 -2       959       370      2018      2437
 -1      5238    3    0    1
 -2       193      1009      2209      2439
 -1      5239    3    0    1
 -2       698      2159      2169      2439
 -1      5240    3    0    1
 -2       698      2169      2252      2439
 -1      5241    3    0    1
 -2      2209       698      2252      2439
 -1      5242    3    0    1
 -2      1009       193      2159      2439
 -1      5243    3    0    1
 -2       698      1009      2159      2439
 -1      5244    3    0    1
 -2       997       341      3518      1732
 -1      5245    3    0    1
 -2       163       658       667      1732
 -1      5246    3    0    1
 -2       550       826      2314      2440
 -1      5247    3    0    1
 -2      1282       550       557      2440
 -1      5248    3    0    1
 -2      1282       557      2230      2440
 -1      5249    3    0    1
 -2       658       341       997      1732
 -1      5250    3    0    1
 -2      2494      2526      2607      3565
 -1      5251    3    0    1
 -2       163       341       658      1732
 -1      5252    3    0    1
 -2       550       940      1338      2440
 -1      5253    3    0    1
 -2       826       550      1338      2440
 -1      5254    3    0    1
 -2       576      1635      3063      3069
 -1      5255    3    0    1
 -2       988       997      3518      1732
 -1      5256    3    0    1
 -2       762      1038      2446      2612
 -1      5257    3    0    1
 -2      3512      1532      2666      1658
 -1      5258    3    0    1
 -2      1055       345      2335      2483
 -1      5259    3    0    1
 -2       345      2454      2335      2483
 -1      5260    3    0    1
 -2      1019      1031      2399      2442
 -1      5261    3    0    1
 -2       744       725      1030      2442
 -1      5262    3    0    1
 -2       725       744      1031      2442
 -1      5263    3    0    1
 -2       725      1020      1030      2442
 -1      5264    3    0    1
 -2      1019       725      1031      2442
 -1      5265    3    0    1
 -2      2116      1310      2252      2443
 -1      5266    3    0    1
 -2      2206       978      2259      2444
 -1      5267    3    0    1
 -2      2160       363      2324      2444
 -1      5268    3    0    1
 -2       363      2160      2259      2444
 -1      5269    3    0    1
 -2      2163       643      2279      2444
 -1      5270    3    0    1
 -2       643       983      2395      2444
 -1      5271    3    0    1
 -2      2279       643      2395      2444
 -1      5272    3    0    1
 -2       990       978      2206      2444
 -1      5273    3    0    1
 -2       976       363      2163      2444
 -1      5274    3    0    1
 -2       363       159      2163      2444
 -1      5275    3    0    1
 -2       159       983      2163      2444
 -1      5276    3    0    1
 -2       159       363       990      2444
 -1      5277    3    0    1
 -2       983       643      2163      2444
 -1      5278    3    0    1
 -2       363       978       990      2444
 -1      5279    3    0    1
 -2      1043       390      2301      2445
 -1      5280    3    0    1
 -2       390       259      2301      2445
 -1      5281    3    0    1
 -2       259       390      1056      2445
 -1      5282    3    0    1
 -2       390      1045      1056      2445
 -1      5283    3    0    1
 -2      1037       761      1038      2446
 -1      5284    3    0    1
 -2      2017      2007      2334      2451
 -1      5285    3    0    1
 -2       227       343      1037      2446
 -1      5286    3    0    1
 -2       960       590      2410      2474
 -1      5287    3    0    1
 -2      1355      2017      2334      2451
 -1      5288    3    0    1
 -2       208      1023      1319      2479
 -1      5289    3    0    1
 -2      1063      2261      2453      3697
 -1      5290    3    0    1
 -2      2309       213      2405      2466
 -1      5291    3    0    1
 -2      1026       213      2309      2466
 -1      5292    3    0    1
 -2      1026      2309      2331      2466
 -1      5293    3    0    1
 -2      1331       802      2257      2614
 -1      5294    3    0    1
 -2      3567      2790      3584      3593
 -1      5295    3    0    1
 -2      1331      2257      2258      2614
 -1      5296    3    0    1
 -2       210       208      2361      2479
 -1      5297    3    0    1
 -2      2007      2025      2334      2451
 -1      5298    3    0    1
 -2       295      1083      1370      2451
 -1      5299    3    0    1
 -2      2025      2007      2058      2451
 -1      5300    3    0    1
 -2      1637        27      1774      3160
 -1      5301    3    0    1
 -2       272      1969      2422      2480
 -1      5302    3    0    1
 -2       232       223      1036      2450
 -1      5303    3    0    1
 -2       761       762      2446      2450
 -1      5304    3    0    1
 -2       762       761      1036      2450
 -1      5305    3    0    1
 -2      2025      1083      2334      2451
 -1      5306    3    0    1
 -2       254      1328      2154      2484
 -1      5307    3    0    1
 -2      2335      1056       797       798
 -1      5308    3    0    1
 -2      1056      2335       797      2452
 -1      5309    3    0    1
 -2       260       254      1056      2452
 -1      5310    3    0    1
 -2      1056       254      2154      2452
 -1      5311    3    0    1
 -2       257       345      2175      2454
 -1      5312    3    0    1
 -2       254      1051      1328      2484
 -1      5313    3    0    1
 -2       789       787      1328      2484
 -1      5314    3    0    1
 -2       797       816      1064      2453
 -1      5315    3    0    1
 -2       797      1054      1063      2453
 -1      5316    3    0    1
 -2      1053       797      1064      2453
 -1      5317    3    0    1
 -2      1038       227      2446      3696
 -1      5318    3    0    1
 -2      1047       237      2408      2615
 -1      5319    3    0    1
 -2      2261      1331      2475      2614
 -1      5320    3    0    1
 -2      1449      1532      1533      3393
 -1      5321    3    0    1
 -2       336       337      3694      3696
 -1      5322    3    0    1
 -2      1450      1449      1533      3393
 -1      5323    3    0    1
 -2      1029      1038      2612      3696
 -1      5324    3    0    1
 -2      2666      1532      3041      3393
 -1      5325    3    0    1
 -2       376      2091      2287      2457
 -1      5326    3    0    1
 -2       376      2287      2347      2457
 -1      5327    3    0    1
 -2       376      1986      2091      2457
 -1      5328    3    0    1
 -2      1986      2083      2091      2457
 -1      5329    3    0    1
 -2       376       375      1986      2457
 -1      5330    3    0    1
 -2      1986       375      2083      2457
 -1      5331    3    0    1
 -2       400      1283      1286      2458
 -1      5332    3    0    1
 -2      1283       568      1286      2458
 -1      5333    3    0    1
 -2       400       405      2356      2458
 -1      5334    3    0    1
 -2       405       400      1286      2458
 -1      5335    3    0    1
 -2       568      2230      2282      2458
 -1      5336    3    0    1
 -2       568      1283      2230      2458
 -1      5337    3    0    1
 -2       575       568      2282      2458
 -1      5338    3    0    1
 -2       568       575      1286      2458
 -1      5339    3    0    1
 -2      1345       290       292      2459
 -1      5340    3    0    1
 -2      1386      2358       290      1103
 -1      5341    3    0    1
 -2      1345      2358      1344       290
 -1      5342    3    0    1
 -2      1345      2358       290      2459
 -1      5343    3    0    1
 -2      2358      2042      1345      1344
 -1      5344    3    0    1
 -2      2323       149      2360      2460
 -1      5345    3    0    1
 -2       992      2281      2351      2460
 -1      5346    3    0    1
 -2      2281       992      2326      2460
 -1      5347    3    0    1
 -2      2089       992      2351      2460
 -1      5348    3    0    1
 -2      1299       149      2323      2460
 -1      5349    3    0    1
 -2      2089      1299      2326      2460
 -1      5350    3    0    1
 -2       992      2089      2326      2460
 -1      5351    3    0    1
 -2       149      1299      2089      2460
 -1      5352    3    0    1
 -2      1069      1072      2423      2462
 -1      5353    3    0    1
 -2      1069       385      1072      2462
 -1      5354    3    0    1
 -2       832      2416      2423      2462
 -1      5355    3    0    1
 -2      1072       832      2423      2462
 -1      5356    3    0    1
 -2       832      1072      2416      2462
 -1      5357    3    0    1
 -2       381       385      1069      2462
 -1      5358    3    0    1
 -2       381      1069      2284      2462
 -1      5359    3    0    1
 -2      2284      1069      2423      2462
 -1      5360    3    0    1
 -2      1363       849      1362      2463
 -1      5361    3    0    1
 -2      1362       849      2373      2463
 -1      5362    3    0    1
 -2      1979      1362      2373      2463
 -1      5363    3    0    1
 -2      2192      1979      2373      2463
 -1      5364    3    0    1
 -2       243      1041      2418      2464
 -1      5365    3    0    1
 -2      2375       243      2418      2464
 -1      5366    3    0    1
 -2      1041       769      2229      2464
 -1      5367    3    0    1
 -2       769      1041      1043      2464
 -1      5368    3    0    1
 -2       390      2375      2445      2464
 -1      5369    3    0    1
 -2       390       245      2375      2464
 -1      5370    3    0    1
 -2      1043       390      2445      2464
 -1      5371    3    0    1
 -2       245       243      2375      2464
 -1      5372    3    0    1
 -2       243       245      1043      2464
 -1      5373    3    0    1
 -2       245       390      1043      2464
 -1      5374    3    0    1
 -2       780      1037      1047      2465
 -1      5375    3    0    1
 -2      1896       673      1897      3432
 -1      5376    3    0    1
 -2      1024      1026      2331      2466
 -1      5377    3    0    1
 -2       212      1024      2331      2466
 -1      5378    3    0    1
 -2      1024       212      1026      2466
 -1      5379    3    0    1
 -2       394       213      1026      2466
 -1      5380    3    0    1
 -2      1028       213      2466      2467
 -1      5381    3    0    1
 -2       234       219      2405      2467
 -1      5382    3    0    1
 -2       219       234      1039      2467
 -1      5383    3    0    1
 -2       213       234      2405      2467
 -1      5384    3    0    1
 -2      1028       762      1039      2467
 -1      5385    3    0    1
 -2       743       762      1028      2467
 -1      5386    3    0    1
 -2       213      1028      1039      2467
 -1      5387    3    0    1
 -2       234       213      1039      2467
 -1      5388    3    0    1
 -2      2585       409      3510      1923
 -1      5389    3    0    1
 -2      1329      1050       787      2468
 -1      5390    3    0    1
 -2       787      1050      2427      2468
 -1      5391    3    0    1
 -2       733      1318      1025      2469
 -1      5392    3    0    1
 -2       618       617       970      2470
 -1      5393    3    0    1
 -2       970       617      2321      2470
 -1      5394    3    0    1
 -2       970      2321      2409      2470
 -1      5395    3    0    1
 -2       129       970      2409      2470
 -1      5396    3    0    1
 -2      2275       129      2409      2470
 -1      5397    3    0    1
 -2       971       972      2201      2470
 -1      5398    3    0    1
 -2       971       617       972      2470
 -1      5399    3    0    1
 -2       618       970       973      2470
 -1      5400    3    0    1
 -2       618       973      2275      2470
 -1      5401    3    0    1
 -2       128       129      2275      2470
 -1      5402    3    0    1
 -2       129       128       970      2470
 -1      5403    3    0    1
 -2       970       128       973      2470
 -1      5404    3    0    1
 -2       973       128      2275      2470
 -1      5405    3    0    1
 -2       730       719      2388      2471
 -1      5406    3    0    1
 -2      1528      1432      1529      3007
 -1      5407    3    0    1
 -2      1475      1474      1741      3302
 -1      5408    3    0    1
 -2       730      1023      1316      2471
 -1      5409    3    0    1
 -2      2584      2143      3577      3579
 -1      5410    3    0    1
 -2       719       730      1316      2471
 -1      5411    3    0    1
 -2       294      1074      2393      2472
 -1      5412    3    0    1
 -2       294      1073      1074      2472
 -1      5413    3    0    1
 -2      2301       787      2427      2473
 -1      5414    3    0    1
 -2      2283      2301      2427      2473
 -1      5415    3    0    1
 -2       259      1328      2301      2473
 -1      5416    3    0    1
 -2      1328       787      2301      2473
 -1      5417    3    0    1
 -2      1997      2019      2362      2474
 -1      5418    3    0    1
 -2      1997      2362      2410      2474
 -1      5419    3    0    1
 -2      1442      2854      1727      1728
 -1      5420    3    0    1
 -2      1432      3639      1754      3474
 -1      5421    3    0    1
 -2      3120      2910      3668      3671
 -1      5422    3    0    1
 -2       738      1319      2046      2618
 -1      5423    3    0    1
 -2       348       270      2261      2475
 -1      5424    3    0    1
 -2       270       348      1331      2475
 -1      5425    3    0    1
 -2      1331       348      2261      2475
 -1      5426    3    0    1
 -2       350       349      3508      3728
 -1      5427    3    0    1
 -2      3563      3556      3645      3660
 -1      5428    3    0    1
 -2       948      2135      2248      2476
 -1      5429    3    0    1
 -2       355       948      2248      2476
 -1      5430    3    0    1
 -2       831       948      1069      2476
 -1      5431    3    0    1
 -2       831       564       948      2476
 -1      5432    3    0    1
 -2       355       288      1069      2476
 -1      5433    3    0    1
 -2       948       355      1069      2476
 -1      5434    3    0    1
 -2       202      2234      2348      2482
 -1      5435    3    0    1
 -2       227       343      2446      2478
 -1      5436    3    0    1
 -2       343       227      1032      2478
 -1      5437    3    0    1
 -2      3601      3091      3219      3373
 -1      5438    3    0    1
 -2       343      1032      1323      2478
 -1      5439    3    0    1
 -2       589       959      2018      2481
 -1      5440    3    0    1
 -2       411       971      2201      3510
 -1      5441    3    0    1
 -2       958       589      2018      2481
 -1      5442    3    0    1
 -2      1053      1064      2219      2480
 -1      5443    3    0    1
 -2       272       275      1064      2480
 -1      5444    3    0    1
 -2      1064      2452      2453      2480
 -1      5445    3    0    1
 -2       610       614       971      1924
 -1      5446    3    0    1
 -2      1030      2361      2442      2479
 -1      5447    3    0    1
 -2      1030       210      2361      2479
 -1      5448    3    0    1
 -2       208      1029      2479      3696
 -1      5449    3    0    1
 -2      2158       980      2585      3510
 -1      5450    3    0    1
 -2       411       610       971      1924
 -1      5451    3    0    1
 -2       202      1019      2399      2482
 -1      5452    3    0    1
 -2       726      2079      2365      2482
 -1      5453    3    0    1
 -2      1020       726      1021      2482
 -1      5454    3    0    1
 -2      1020      1021      2214      2482
 -1      5455    3    0    1
 -2       726       725      1022      2482
 -1      5456    3    0    1
 -2       726      1022      2079      2482
 -1      5457    3    0    1
 -2      2079      1022      2348      2482
 -1      5458    3    0    1
 -2      1019       202      1022      2482
 -1      5459    3    0    1
 -2      1021       726      2365      2482
 -1      5460    3    0    1
 -2      2214      1021      2365      2482
 -1      5461    3    0    1
 -2       198       202      2348      2482
 -1      5462    3    0    1
 -2       202       198      1022      2482
 -1      5463    3    0    1
 -2      1022       198      2348      2482
 -1      5464    3    0    1
 -2      2600      2697      3516      3557
 -1      5465    3    0    1
 -2       254      2154      2452      2484
 -1      5466    3    0    1
 -2       260       254      2452      2484
 -1      5467    3    0    1
 -2       254       260      1051      2484
 -1      5468    3    0    1
 -2      1051       262      2219      2484
 -1      5469    3    0    1
 -2       262       260      2452      2484
 -1      5470    3    0    1
 -2      2219       262      2452      2484
 -1      5471    3    0    1
 -2       260       262      1051      2484
 -1      5472    3    0    1
 -2       636       971       980      2485
 -1      5473    3    0    1
 -2      3003      2802      1802      3349
 -1      5474    3    0    1
 -2      1920      3672      3431      3700
 -1      5475    3    0    1
 -2      2254       807      2432      2486
 -1      5476    3    0    1
 -2       267       272      2422      2486
 -1      5477    3    0    1
 -2       272       267      1057      2486
 -1      5478    3    0    1
 -2      1057       267      1059      2486
 -1      5479    3    0    1
 -2      1059       267      2422      2486
 -1      5480    3    0    1
 -2      2232      2525      2766      3686
 -1      5481    3    0    1
 -2      2556       458      2728      2905
 -1      5482    3    0    1
 -2      2582      1194      2660      2984
 -1      5483    3    0    1
 -2      1495      1621      1622      2923
 -1      5484    3    0    1
 -2      3000      1464      3071      3585
 -1      5485    3    0    1
 -2      2258      1334      2475      2617
 -1      5486    3    0    1
 -2      2494      2853      2923      3565
 -1      5487    3    0    1
 -2      3397      3371      1917      3454
 -1      5488    3    0    1
 -2      3129      2858      3208      3614
 -1      5489    3    0    1
 -2      1916      1914      3429      3476
 -1      5490    3    0    1
 -2      1541      1428      1542      3162
 -1      5491    3    0    1
 -2      3568      2717      3050      3445
 -1      5492    3    0    1
 -2      2643      3564      3659      3358
 -1      5493    3    0    1
 -2      3569      3324      3652      3339
 -1      5494    3    0    1
 -2       918      1330      1049      2531
 -1      5495    3    0    1
 -2      1308      2208      2243      3410
 -1      5496    3    0    1
 -2       226      3179      1679      1905
 -1      5497    3    0    1
 -2      1454      1455      1617      3228
 -1      5498    3    0    1
 -2      1603      2642      1301      3272
 -1      5499    3    0    1
 -2       997      2488       341      2270
 -1      5500    3    0    1
 -2      1416      1549      1550      3019
 -1      5501    3    0    1
 -2      1308      2208      3410      3726
 -1      5502    3    0    1
 -2      2068       175      2271      2516
 -1      5503    3    0    1
 -2       559       551       947      1676
 -1      5504    3    0    1
 -2       952      1284      2796      3535
 -1      5505    3    0    1
 -2      1162       907      2512      2569
 -1      5506    3    0    1
 -2       426       175      1003      2516
 -1      5507    3    0    1
 -2      2852      2673      3536      3547
 -1      5508    3    0    1
 -2      2897      3140      3596      3305
 -1      5509    3    0    1
 -2       285      1070      2423      2525
 -1      5510    3    0    1
 -2      3035      3015      3572      3156
 -1      5511    3    0    1
 -2      1493      3034      1763      1764
 -1      5512    3    0    1
 -2      2285      2522      3511      3638
 -1      5513    3    0    1
 -2      1049      1330       784      2531
 -1      5514    3    0    1
 -2      2442      1030      2479      2543
 -1      5515    3    0    1
 -2      1614      3002      3240      3296
 -1      5516    3    0    1
 -2      3673      2829      3707      3730
 -1      5517    3    0    1
 -2      1704      1469      1705      3036
 -1      5518    3    0    1
 -2      3622      3175      3256      3301
 -1      5519    3    0    1
 -2      3068      1767      3111      3680
 -1      5520    3    0    1
 -2      1759      1496      3076      3401
 -1      5521    3    0    1
 -2      1534      2659      3146      3249
 -1      5522    3    0    1
 -2       826      2314      2440      2575
 -1      5523    3    0    1
 -2      1632      1421      1633      3100
 -1      5524    3    0    1
 -2      2596      3535      2893      3069
 -1      5525    3    0    1
 -2      1754      3551      3205      3635
 -1      5526    3    0    1
 -2      2553      2633      3612      3716
 -1      5527    3    0    1
 -2      2273      1323      2478      2578
 -1      5528    3    0    1
 -2      2787      1621      2950      3028
 -1      5529    3    0    1
 -2      2520      2218      3504      3515
 -1      5530    3    0    1
 -2      2934      1521      2951      2952
 -1      5531    3    0    1
 -2      2823      1718      1767      3336
 -1      5532    3    0    1
 -2      2232      2135      2255      3528
 -1      5533    3    0    1
 -2      2648      1532      1658      1659
 -1      5534    3    0    1
 -2      1735      1734      1799      3166
 -1      5535    3    0    1
 -2         1       353      1549      3460
 -1      5536    3    0    1
 -2      2185      2511      2841      3715
 -1      5537    3    0    1
 -2      1305       173      1703      3603
 -1      5538    3    0    1
 -2       947       352      2255      3528
 -1      5539    3    0    1
 -2      2858       594      1719      3208
 -1      5540    3    0    1
 -2       449       558      2624      2999
 -1      5541    3    0    1
 -2       730       738      1027      2540
 -1      5542    3    0    1
 -2      3546      3516      3571      3303
 -1      5543    3    0    1
 -2       264      3571      3311      3630
 -1      5544    3    0    1
 -2       629      2189      2386      2609
 -1      5545    3    0    1
 -2       150       147      1562      1587
 -1      5546    3    0    1
 -2       653       988      2343      2507
 -1      5547    3    0    1
 -2      2105       963      2605      3688
 -1      5548    3    0    1
 -2      1007       694      2153      3410
 -1      5549    3    0    1
 -2       623       629       977      2665
 -1      5550    3    0    1
 -2      1651      3509      3538      3539
 -1      5551    3    0    1
 -2      1332       802      2594      2641
 -1      5552    3    0    1
 -2      1046      1055      2603      3530
 -1      5553    3    0    1
 -2      1562      1587      2680       150
 -1      5554    3    0    1
 -2       492       792      2531      2660
 -1      5555    3    0    1
 -2      1544       171      1545      3085
 -1      5556    3    0    1
 -2      1678      2955      3584      1894
 -1      5557    3    0    1
 -2      2679      2691      3533      3643
 -1      5558    3    0    1
 -2      3144      2783      3162      3701
 -1      5559    3    0    1
 -2      1238      2679      2691      3533
 -1      5560    3    0    1
 -2      1675      3519      3605      3389
 -1      5561    3    0    1
 -2      2838      3551      3088      3155
 -1      5562    3    0    1
 -2      2453      2261      2613      3697
 -1      5563    3    0    1
 -2      2937      3000      3206      3667
 -1      5564    3    0    1
 -2      3142        44      1839      1872
 -1      5565    3    0    1
 -2      3523      2651      3561      3617
 -1      5566    3    0    1
 -2      1504      2622      2716      2793
 -1      5567    3    0    1
 -2       810      1060       802      2594
 -1      5568    3    0    1
 -2      2222      2246      2161      2570
 -1      5569    3    0    1
 -2       330      1012      2390      3502
 -1      5570    3    0    1
 -2      1485      1474      1486      3049
 -1      5571    3    0    1
 -2      1496      1621      2923      3401
 -1      5572    3    0    1
 -2      3535      2969      2972      3069
 -1      5573    3    0    1
 -2      3519      3605      3633      3661
 -1      5574    3    0    1
 -2      1192       492      2531      2660
 -1      5575    3    0    1
 -2       790       781      1555      2918
 -1      5576    3    0    1
 -2       328       200      2690      3725
 -1      5577    3    0    1
 -2      2846      2161      3402      3687
 -1      5578    3    0    1
 -2      1428      3050      1803      3445
 -1      5579    3    0    1
 -2      1621      1495      1622      3028
 -1      5580    3    0    1
 -2      3026      2682      3667      3675
 -1      5581    3    0    1
 -2      2829      3366      3673      3707
 -1      5582    3    0    1
 -2      2847      1588      2917      3194
 -1      5583    3    0    1
 -2       961      1287       587      2512
 -1      5584    3    0    1
 -2      1411      2553      3238      3701
 -1      5585    3    0    1
 -2      1504      1588      1589      2793
 -1      5586    3    0    1
 -2      2488       997       341      3518
 -1      5587    3    0    1
 -2      1562      1648      2798      3016
 -1      5588    3    0    1
 -2      2574      2241      3516      3519
 -1      5589    3    0    1
 -2      2590      3266      3671      3452
 -1      5590    3    0    1
 -2      1756      2891      3046      3295
 -1      5591    3    0    1
 -2      1808      2915      3130      1850
 -1      5592    3    0    1
 -2      3640      3096      3333      3730
 -1      5593    3    0    1
 -2      3512      1287      3555      3041
 -1      5594    3    0    1
 -2      2153      1312      2390      3399
 -1      5595    3    0    1
 -2      2996      2953      3036      3591
 -1      5596    3    0    1
 -2      1514      1515      3256      3307
 -1      5597    3    0    1
 -2      2597      2631      2987      3591
 -1      5598    3    0    1
 -2      2640      3569      3580      3619
 -1      5599    3    0    1
 -2      2572      2551      1551      1552
 -1      5600    3    0    1
 -2      2548      2270      2558      3524
 -1      5601    3    0    1
 -2      1044      1324      2790      3593
 -1      5602    3    0    1
 -2      2387      3506      3509      3687
 -1      5603    3    0    1
 -2       328      1015      2498      3725
 -1      5604    3    0    1
 -2      1304       665      2559      2634
 -1      5605    3    0    1
 -2       966      1158      1160      2566
 -1      5606    3    0    1
 -2         1      1549      1550      3460
 -1      5607    3    0    1
 -2      2507       157      3518      3540
 -1      5608    3    0    1
 -2      3220      1421      3627      3278
 -1      5609    3    0    1
 -2      1489      2592      2867      2624
 -1      5610    3    0    1
 -2      1594      1595      3073      1787
 -1      5611    3    0    1
 -2      1003       175      2068      2516
 -1      5612    3    0    1
 -2      3538      1423      2929      3002
 -1      5613    3    0    1
 -2      2365      2390      3502      3399
 -1      5614    3    0    1
 -2      2776      1662      1663      2978
 -1      5615    3    0    1
 -2      1021      2214      2365      3502
 -1      5616    3    0    1
 -2       726      2365       707      3502
 -1      5617    3    0    1
 -2      2365       726       707      2079
 -1      5618    3    0    1
 -2       328       200      3502      1912
 -1      5619    3    0    1
 -2       721       713      1021      1912
 -1      5620    3    0    1
 -2       707      1012      1021      3502
 -1      5621    3    0    1
 -2       726       707      1021      3502
 -1      5622    3    0    1
 -2      1445      2718      3561      3147
 -1      5623    3    0    1
 -2      3538      1627      2930      1812
 -1      5624    3    0    1
 -2      1149      1147      2536      2759
 -1      5625    3    0    1
 -2      3574      3602      3631      3644
 -1      5626    3    0    1
 -2      1610      1611      3103      3334
 -1      5627    3    0    1
 -2       999      1304      2141      2497
 -1      5628    3    0    1
 -2      3140      1820      3183      1887
 -1      5629    3    0    1
 -2      1592      1593      1693      2992
 -1      5630    3    0    1
 -2       408      1294      3538      1812
 -1      5631    3    0    1
 -2      1332      2641      2657      2786
 -1      5632    3    0    1
 -2       743       762      2467      2612
 -1      5633    3    0    1
 -2       754       745      2891      1714
 -1      5634    3    0    1
 -2      2490      3543      3598      3400
 -1      5635    3    0    1
 -2       328      1015      1316      2498
 -1      5636    3    0    1
 -2      1316      1015      2388      2498
 -1      5637    3    0    1
 -2      3622      3138      3278      3330
 -1      5638    3    0    1
 -2       963      2421      2605      3688
 -1      5639    3    0    1
 -2       201      1316      2214      2498
 -1      5640    3    0    1
 -2       328       201      2214      2498
 -1      5641    3    0    1
 -2       201       328      1316      2498
 -1      5642    3    0    1
 -2       353         1      1867      3460
 -1      5643    3    0    1
 -2      1411      3238      3407      3701
 -1      5644    3    0    1
 -2      1591      1590      2724      2779
 -1      5645    3    0    1
 -2      2496      2713      2735      2926
 -1      5646    3    0    1
 -2      1592      2992      3062      3292
 -1      5647    3    0    1
 -2       762      1029      1038      2612
 -1      5648    3    0    1
 -2      2668      2967      3003      3037
 -1      5649    3    0    1
 -2      1469      1619      1620      3037
 -1      5650    3    0    1
 -2      2496      2492      3527      3014
 -1      5651    3    0    1
 -2        51      1768      1805      1933
 -1      5652    3    0    1
 -2       676       683      1002      2510
 -1      5653    3    0    1
 -2      2767      2527      3527      2877
 -1      5654    3    0    1
 -2      2242      2548      2558      3524
 -1      5655    3    0    1
 -2      2046       738      2618      3338
 -1      5656    3    0    1
 -2      2635      2918      3119      3609
 -1      5657    3    0    1
 -2      3040      2943      3104      3669
 -1      5658    3    0    1
 -2      1516      1517      1581      3132
 -1      5659    3    0    1
 -2      3655      2833      3372      3682
 -1      5660    3    0    1
 -2      1432      1528      3263      3474
 -1      5661    3    0    1
 -2       495       494      2644      2700
 -1      5662    3    0    1
 -2        24        62      1570      2702
 -1      5663    3    0    1
 -2       408      3539      3621      3629
 -1      5664    3    0    1
 -2       276      1890      1891      1892
 -1      5665    3    0    1
 -2      2531      2582      2660      3568
 -1      5666    3    0    1
 -2      2698       736      2933      3080
 -1      5667    3    0    1
 -2       979       635      2158      2608
 -1      5668    3    0    1
 -2      1284      2963      3575      1786
 -1      5669    3    0    1
 -2      3553      2703      3013      3614
 -1      5670    3    0    1
 -2      1682      1683      1753      3023
 -1      5671    3    0    1
 -2      1697       329      3556      1779
 -1      5672    3    0    1
 -2      3392      2578      3698      3723
 -1      5673    3    0    1
 -2       171      1830      3613      3270
 -1      5674    3    0    1
 -2      3318      3622      3670      3714
 -1      5675    3    0    1
 -2      2628      1696      3575      3073
 -1      5676    3    0    1
 -2      2134      2673      2852      3547
 -1      5677    3    0    1
 -2       655      2571      1885      1886
 -1      5678    3    0    1
 -2      1476      1594      2764      3226
 -1      5679    3    0    1
 -2      1330       918      1193      2531
 -1      5680    3    0    1
 -2      1687      2757      3584      3347
 -1      5681    3    0    1
 -2      1504      1505      1554      2622
 -1      5682    3    0    1
 -2       763      2836      1783      1784
 -1      5683    3    0    1
 -2      1521      1522      2934      1726
 -1      5684    3    0    1
 -2       405      3690      3699      1954
 -1      5685    3    0    1
 -2      2143      1301      2651      3577
 -1      5686    3    0    1
 -2      1023      1316      2471      2616
 -1      5687    3    0    1
 -2      2273      1326      2615      2504
 -1      5688    3    0    1
 -2      1055       345      3530      1807
 -1      5689    3    0    1
 -2       242      2369      3529      3530
 -1      5690    3    0    1
 -2      2369      1046      2377      3530
 -1      5691    3    0    1
 -2       247       242      3529      3530
 -1      5692    3    0    1
 -2      1852      1851      3350      3387
 -1      5693    3    0    1
 -2      3538      2929      2930      3184
 -1      5694    3    0    1
 -2      3513      3548      3600      3662
 -1      5695    3    0    1
 -2      2986       691      1798      1799
 -1      5696    3    0    1
 -2      2343      2488      2507      3518
 -1      5697    3    0    1
 -2      3113      1669      1871      1872
 -1      5698    3    0    1
 -2      3551      2838      2970      3155
 -1      5699    3    0    1
 -2       594       583      2735      1672
 -1      5700    3    0    1
 -2      1634       226      3532      3720
 -1      5701    3    0    1
 -2      1730      1493      1731      3042
 -1      5702    3    0    1
 -2       637      2572      1551      1552
 -1      5703    3    0    1
 -2      1669      3191      3294      1872
 -1      5704    3    0    1
 -2      2916      2826      2937      3585
 -1      5705    3    0    1
 -2      1547      2845      1819      3384
 -1      5706    3    0    1
 -2      1476      1477      2593      1584
 -1      5707    3    0    1
 -2      3556      1697      1779      3114
 -1      5708    3    0    1
 -2      2582      2660      2802      2984
 -1      5709    3    0    1
 -2       963       972      2421      3688
 -1      5710    3    0    1
 -2      2659      1534      1740      3249
 -1      5711    3    0    1
 -2      1729      3140      3305      1887
 -1      5712    3    0    1
 -2       952       403      3514      1658
 -1      5713    3    0    1
 -2       434       346      1577      2860
 -1      5714    3    0    1
 -2      2767      1491      1635      2877
 -1      5715    3    0    1
 -2      1462      1463      1631      2799
 -1      5716    3    0    1
 -2      3543      2818      3146      3249
 -1      5717    3    0    1
 -2      2220       575      2282      2555
 -1      5718    3    0    1
 -2      2796      3535      3575      3625
 -1      5719    3    0    1
 -2      1211       924      2594      2710
 -1      5720    3    0    1
 -2      3180      1638      3195      3624
 -1      5721    3    0    1
 -2      2625      1576      2837      3567
 -1      5722    3    0    1
 -2      1055       345      2483      3530
 -1      5723    3    0    1
 -2      3596      2897      3310      3653
 -1      5724    3    0    1
 -2       437       340      3649      3685
 -1      5725    3    0    1
 -2      2540      2588      2725      3531
 -1      5726    3    0    1
 -2      2915      1598      1744      1745
 -1      5727    3    0    1
 -2      3202      1738      3675      3710
 -1      5728    3    0    1
 -2      2712      2663      2958      3652
 -1      5729    3    0    1
 -2      2872      2554      3565      3294
 -1      5730    3    0    1
 -2       605       611       969      2566
 -1      5731    3    0    1
 -2      1925        43      1926      1928
 -1      5732    3    0    1
 -2      1847      1848      3274      1864
 -1      5733    3    0    1
 -2       969      1290       605      2566
 -1      5734    3    0    1
 -2      3539      3455      3134      3687
 -1      5735    3    0    1
 -2       416       989      2412      2507
 -1      5736    3    0    1
 -2      2564      2499      3535      3625
 -1      5737    3    0    1
 -2      2972      2647      2978      3182
 -1      5738    3    0    1
 -2      2847      1588      3194      3212
 -1      5739    3    0    1
 -2       979       989      3729      1962
 -1      5740    3    0    1
 -2      2728      3564      3145      3642
 -1      5741    3    0    1
 -2       352      2232      2255      3528
 -1      5742    3    0    1
 -2      1646      3567      3176      3216
 -1      5743    3    0    1
 -2       557      2632      1280       550
 -1      5744    3    0    1
 -2      1500      1501      2755      3008
 -1      5745    3    0    1
 -2       683       676       999      2510
 -1      5746    3    0    1
 -2      2828      2703      3044      3553
 -1      5747    3    0    1
 -2      1568       403      3514      3548
 -1      5748    3    0    1
 -2       999      1148      1150      2510
 -1      5749    3    0    1
 -2       999      1150      1308      2510
 -1      5750    3    0    1
 -2      1759      1596      1760      3211
 -1      5751    3    0    1
 -2      1756      1623      3040      3046
 -1      5752    3    0    1
 -2       463       462      1147      2510
 -1      5753    3    0    1
 -2      1147       462      1149      2510
 -1      5754    3    0    1
 -2       462       463      1148      2510
 -1      5755    3    0    1
 -2       999       462      1148      2510
 -1      5756    3    0    1
 -2      1148       463      1150      2510
 -1      5757    3    0    1
 -2      1485      1486      2664      2903
 -1      5758    3    0    1
 -2       676       462       999      2510
 -1      5759    3    0    1
 -2      1413      3548      3552      3662
 -1      5760    3    0    1
 -2       906      1163      1289      2512
 -1      5761    3    0    1
 -2       907       471      1162      2512
 -1      5762    3    0    1
 -2       472       471       907      2512
 -1      5763    3    0    1
 -2      1479      1480      1686      2956
 -1      5764    3    0    1
 -2       227      1032      2478      3694
 -1      5765    3    0    1
 -2       471      1163       906      2512
 -1      5766    3    0    1
 -2      1163       471       472      2512
 -1      5767    3    0    1
 -2      1289       472       593      2512
 -1      5768    3    0    1
 -2       472      1289      1163      2512
 -1      5769    3    0    1
 -2       684      3678      3406      3695
 -1      5770    3    0    1
 -2       977      3579      3672      3689
 -1      5771    3    0    1
 -2      1035      1320       748      2721
 -1      5772    3    0    1
 -2      3579      3611      3672      3689
 -1      5773    3    0    1
 -2      3073      1696      1786      1840
 -1      5774    3    0    1
 -2      1826      1789      3670      3376
 -1      5775    3    0    1
 -2      1543      2619      3551      3635
 -1      5776    3    0    1
 -2      1635      2767      1636      1491
 -1      5777    3    0    1
 -2      1500      1562      1563      3008
 -1      5778    3    0    1
 -2      1779      3556      3114      3660
 -1      5779    3    0    1
 -2      3579       151      3666      3689
 -1      5780    3    0    1
 -2      1592      2937      3000      3206
 -1      5781    3    0    1
 -2      2755      1500      3008      3369
 -1      5782    3    0    1
 -2      1783      1646      3082      3337
 -1      5783    3    0    1
 -2      1563      1562      2939      3016
 -1      5784    3    0    1
 -2      2614      2454      3477      3733
 -1      5785    3    0    1
 -2      3514       952      1658      3575
 -1      5786    3    0    1
 -2      1063       348      2261      3697
 -1      5787    3    0    1
 -2      1032      1319      2618      3694
 -1      5788    3    0    1
 -2      1792      1803      3346      3498
 -1      5789    3    0    1
 -2      1602      1601      1766      3336
 -1      5790    3    0    1
 -2      2544      2630      3533      3542
 -1      5791    3    0    1
 -2      2170       285      2525      2575
 -1      5792    3    0    1
 -2      3110      3097      3350      3708
 -1      5793    3    0    1
 -2      1748       619      1749      3316
 -1      5794    3    0    1
 -2       648       637      2572      1551
 -1      5795    3    0    1
 -2      1428      1541      1542      2653
 -1      5796    3    0    1
 -2      2510      2536      3620      3671
 -1      5797    3    0    1
 -2       667       658       997      1732
 -1      5798    3    0    1
 -2      1440      1441      1742      3291
 -1      5799    3    0    1
 -2      1578      2848      3190      3281
 -1      5800    3    0    1
 -2       345      2175      2483      3529
 -1      5801    3    0    1
 -2       781      1555      1556      2631
 -1      5802    3    0    1
 -2      1250       527      2588      2725
 -1      5803    3    0    1
 -2       784      2241      2355      3661
 -1      5804    3    0    1
 -2      1071       280      2525      3508
 -1      5805    3    0    1
 -2      2712      1521      2957      3339
 -1      5806    3    0    1
 -2      3586       439      1861      3343
 -1      5807    3    0    1
 -2       604       407       972      1952
 -1      5808    3    0    1
 -2      1706       196      1707      2920
 -1      5809    3    0    1
 -2      1503      1502      2843      2886
 -1      5810    3    0    1
 -2      1588      3194      3212      3607
 -1      5811    3    0    1
 -2      2201       411      3510      3411
 -1      5812    3    0    1
 -2      1516      1517      2804      3032
 -1      5813    3    0    1
 -2      2228      2185      2491      2574
 -1      5814    3    0    1
 -2      1476      2593      1583      1584
 -1      5815    3    0    1
 -2      1786      1594      1787      3276
 -1      5816    3    0    1
 -2      1070       947      2500      3528
 -1      5817    3    0    1
 -2       969      1290      2566      2687
 -1      5818    3    0    1
 -2      1555      1704      3609      3258
 -1      5819    3    0    1
 -2      1165       908      2562      3070
 -1      5820    3    0    1
 -2      2656      3535      2969      2972
 -1      5821    3    0    1
 -2      2535      2671      3537      3595
 -1      5822    3    0    1
 -2      3197      2849      3662      3735
 -1      5823    3    0    1
 -2      3519      3545      3633      3709
 -1      5824    3    0    1
 -2      2383       118      2403      3521
 -1      5825    3    0    1
 -2      3010      2905      3018      3691
 -1      5826    3    0    1
 -2      1729      2897      2995      3305
 -1      5827    3    0    1
 -2       494      2644      2700      2708
 -1      5828    3    0    1
 -2      3559      2745      3071      3585
 -1      5829    3    0    1
 -2      1458      1457      1488      3452
 -1      5830    3    0    1
 -2      3597      2973      3668      3702
 -1      5831    3    0    1
 -2      3525       961      3628      3663
 -1      5832    3    0    1
 -2      2656      3535      2972      3182
 -1      5833    3    0    1
 -2      2222      2013      2246      2570
 -1      5834    3    0    1
 -2      1789      1790      1827      3277
 -1      5835    3    0    1
 -2      1707      1706      2936      3443
 -1      5836    3    0    1
 -2       665       659      1304      2559
 -1      5837    3    0    1
 -2       210       333      2616      3582
 -1      5838    3    0    1
 -2      3068      3057      3229      3680
 -1      5839    3    0    1
 -2      1640      1641      2800      2949
 -1      5840    3    0    1
 -2        69       206      1772      1887
 -1      5841    3    0    1
 -2       332      1845      1846      1878
 -1      5842    3    0    1
 -2      2746      2895      3647      3488
 -1      5843    3    0    1
 -2      2138      1290      3549      3663
 -1      5844    3    0    1
 -2      2739      1432      1754      3604
 -1      5845    3    0    1
 -2        94       944      3592      3721
 -1      5846    3    0    1
 -2      1576      3551      3155      3165
 -1      5847    3    0    1
 -2       468       469      2566      2828
 -1      5848    3    0    1
 -2      1464      2914      3178      3292
 -1      5849    3    0    1
 -2      1309      2556      2728      3174
 -1      5850    3    0    1
 -2      1421      1422      1633      3100
 -1      5851    3    0    1
 -2      1623      1756      1757      3046
 -1      5852    3    0    1
 -2      1652      3232      1887      1888
 -1      5853    3    0    1
 -2      3551      2619      3205      3635
 -1      5854    3    0    1
 -2      1786      1594      3276      3636
 -1      5855    3    0    1
 -2      3225      3608      3473      3496
 -1      5856    3    0    1
 -2      1783       772      3176      3372
 -1      5857    3    0    1
 -2       583       594      2735      1719
 -1      5858    3    0    1
 -2      1581      1582      2909      3032
 -1      5859    3    0    1
 -2      1907       673      1908      3426
 -1      5860    3    0    1
 -2      2214      1020      2482      3526
 -1      5861    3    0    1
 -2       333       210      3526      3582
 -1      5862    3    0    1
 -2      3506      3549      3621      3629
 -1      5863    3    0    1
 -2       512       513      1220      2524
 -1      5864    3    0    1
 -2      1220       513      1222      2524
 -1      5865    3    0    1
 -2      1446      3018      3090      3442
 -1      5866    3    0    1
 -2      1704      1555      1705      3258
 -1      5867    3    0    1
 -2      2563      2610      3546      3231
 -1      5868    3    0    1
 -2      1482      2895      1936      3488
 -1      5869    3    0    1
 -2      2677      2915      3130      3300
 -1      5870    3    0    1
 -2       285       280      2170      2525
 -1      5871    3    0    1
 -2      1052       347      3557      3616
 -1      5872    3    0    1
 -2       472       593      2512      2637
 -1      5873    3    0    1
 -2       280       285      2423      2525
 -1      5874    3    0    1
 -2      1038       227      3696      1930
 -1      5875    3    0    1
 -2       565      2805      1721      1722
 -1      5876    3    0    1
 -2      2423      1070      2500      2525
 -1      5877    3    0    1
 -2      1598      1599      2890      1745
 -1      5878    3    0    1
 -2      1071       280      2423      2525
 -1      5879    3    0    1
 -2      1062      1071      3508      1921
 -1      5880    3    0    1
 -2      2817      1916      3429      3476
 -1      5881    3    0    1
 -2      1847      1858      1859      3306
 -1      5882    3    0    1
 -2      1449      1450      1533      2792
 -1      5883    3    0    1
 -2      1327      2730      3551      3165
 -1      5884    3    0    1
 -2      2890      1598      3585      3283
 -1      5885    3    0    1
 -2      1005      2242      2431      2558
 -1      5886    3    0    1
 -2       342       248      3698      3723
 -1      5887    3    0    1
 -2      1603      1512      1604      2742
 -1      5888    3    0    1
 -2      3263      3245      3639      3490
 -1      5889    3    0    1
 -2      2760      2635      3566      3581
 -1      5890    3    0    1
 -2      2246      2013      2288      2570
 -1      5891    3    0    1
 -2      2632       557      1280      2733
 -1      5892    3    0    1
 -2      1655      1471      1656      2904
 -1      5893    3    0    1
 -2      2526      3565      3040      3295
 -1      5894    3    0    1
 -2      2636      2746      3596      3653
 -1      5895    3    0    1
 -2      3543      2817      3429      3476
 -1      5896    3    0    1
 -2      2526      3040      3046      3295
 -1      5897    3    0    1
 -2       527      2540      2588      2725
 -1      5898    3    0    1
 -2       798       779      1055      2603
 -1      5899    3    0    1
 -2       528       527       730      2588
 -1      5900    3    0    1
 -2       498       826      2623      2781
 -1      5901    3    0    1
 -2      1551       637      1552      2775
 -1      5902    3    0    1
 -2      3562       335      3665      3676
 -1      5903    3    0    1
 -2      2881      2679      3533      3643
 -1      5904    3    0    1
 -2      2735      2496      2926      3014
 -1      5905    3    0    1
 -2      2715       119      1510      1509
 -1      5906    3    0    1
 -2      1581       612      2864      3607
 -1      5907    3    0    1
 -2      2835      2783      3151      3372
 -1      5908    3    0    1
 -2      1326       242      3529      3121
 -1      5909    3    0    1
 -2      1545      1544      3085      3163
 -1      5910    3    0    1
 -2      3654      3265      3341      3458
 -1      5911    3    0    1
 -2      3649      3685      3441      3466
 -1      5912    3    0    1
 -2       701      1010      2556      2728
 -1      5913    3    0    1
 -2      3110      1826      3277      3708
 -1      5914    3    0    1
 -2      2681      1222      2872      3221
 -1      5915    3    0    1
 -2      2717      2788      2984      3568
 -1      5916    3    0    1
 -2      3398      3387      3435      1961
 -1      5917    3    0    1
 -2      3588      3573      3608      3650
 -1      5918    3    0    1
 -2       492       493      1194      2531
 -1      5919    3    0    1
 -2      1192       492      1194      2531
 -1      5920    3    0    1
 -2       493       492      1193      2531
 -1      5921    3    0    1
 -2      1330       492       792      2531
 -1      5922    3    0    1
 -2       492      1330      1193      2531
 -1      5923    3    0    1
 -2       918       493      1193      2531
 -1      5924    3    0    1
 -2      3533      2573      3542      3569
 -1      5925    3    0    1
 -2      1478      3282      3407      3701
 -1      5926    3    0    1
 -2      2795      2765      3533      3065
 -1      5927    3    0    1
 -2       279      1511      3679      3693
 -1      5928    3    0    1
 -2      2577      2701      3644      3651
 -1      5929    3    0    1
 -2      3257      3670      3376      3736
 -1      5930    3    0    1
 -2      2508      2844      3566      3713
 -1      5931    3    0    1
 -2      2388      1018      2396      3602
 -1      5932    3    0    1
 -2      1032      1219      1221      2721
 -1      5933    3    0    1
 -2       346       434      1577      2970
 -1      5934    3    0    1
 -2      2618      2479      3416      3694
 -1      5935    3    0    1
 -2      1576      2625      2837      2860
 -1      5936    3    0    1
 -2      1504      1505      2622      2793
 -1      5937    3    0    1
 -2      2590      2589      3448      3737
 -1      5938    3    0    1
 -2      1530      1459      3599      3658
 -1      5939    3    0    1
 -2      2292      2673      3536      3576
 -1      5940    3    0    1
 -2      3543      2683      3570      3438
 -1      5941    3    0    1
 -2      2943      2526      3040      3046
 -1      5942    3    0    1
 -2       475       557      2632      2733
 -1      5943    3    0    1
 -2       647       641      2544      3542
 -1      5944    3    0    1
 -2      1549      2884      3019      3654
 -1      5945    3    0    1
 -2      1610      1573      1611      3334
 -1      5946    3    0    1
 -2      2775       648      2952      3438
 -1      5947    3    0    1
 -2      3585      3071      3143      3200
 -1      5948    3    0    1
 -2      2923      3279      3401      3456
 -1      5949    3    0    1
 -2        15        13      1808      1850
 -1      5950    3    0    1
 -2      1589      1588      2847      3212
 -1      5951    3    0    1
 -2      3168      1833      1514      1515
 -1      5952    3    0    1
 -2      2514      2539      3506      3517
 -1      5953    3    0    1
 -2       146       409      3510      3727
 -1      5954    3    0    1
 -2       982      1239      1300      2544
 -1      5955    3    0    1
 -2       641       982      1300      2544
 -1      5956    3    0    1
 -2       982      1236      1239      2544
 -1      5957    3    0    1
 -2       522      1237      1238      2544
 -1      5958    3    0    1
 -2      2342      2532      3532      3724
 -1      5959    3    0    1
 -2       522       521      1237      2544
 -1      5960    3    0    1
 -2      2759      2536      3493      3737
 -1      5961    3    0    1
 -2      2695      2643      2732      3659
 -1      5962    3    0    1
 -2       521       522      1239      2544
 -1      5963    3    0    1
 -2      1157      2655      2828      2862
 -1      5964    3    0    1
 -2      1236       521      1239      2544
 -1      5965    3    0    1
 -2       641       521       982      2544
 -1      5966    3    0    1
 -2       982       521      1236      2544
 -1      5967    3    0    1
 -2      2520      3504      2752      3574
 -1      5968    3    0    1
 -2      2478      2618      3416      3694
 -1      5969    3    0    1
 -2      3148      2835      3176      3372
 -1      5970    3    0    1
 -2      1429      1428      1542      2653
 -1      5971    3    0    1
 -2       115       404      3690      1953
 -1      5972    3    0    1
 -2      2752      3522      3574      3602
 -1      5973    3    0    1
 -2       405       954      2370      3690
 -1      5974    3    0    1
 -2       611       605       966      2566
 -1      5975    3    0    1
 -2       964      2546      3690      1953
 -1      5976    3    0    1
 -2       974      1293      2204      2545
 -1      5977    3    0    1
 -2      2161      2222      2570      2626
 -1      5978    3    0    1
 -2      2250      3503      3615      3711
 -1      5979    3    0    1
 -2       779       798      2377      2603
 -1      5980    3    0    1
 -2      2965      3588      3608      3437
 -1      5981    3    0    1
 -2       600       964      2105      2546
 -1      5982    3    0    1
 -2      2370      3690      3433      3699
 -1      5983    3    0    1
 -2      2861      3564      3678      3691
 -1      5984    3    0    1
 -2       964       115      2105      2546
 -1      5985    3    0    1
 -2       600      2105      2447      2546
 -1      5986    3    0    1
 -2      2677      3010      3130      3691
 -1      5987    3    0    1
 -2      3564      3062      3659      3691
 -1      5988    3    0    1
 -2      3062      2900      3659      3691
 -1      5989    3    0    1
 -2       115      2105      2383       118
 -1      5990    3    0    1
 -2      2105       115      2383      2546
 -1      5991    3    0    1
 -2      3564      2905      3062      3691
 -1      5992    3    0    1
 -2      3010      3018      3130      3691
 -1      5993    3    0    1
 -2      3564      2580      3678      3691
 -1      5994    3    0    1
 -2      2900      3062      3292      3691
 -1      5995    3    0    1
 -2      1300       157      2026      2649
 -1      5996    3    0    1
 -2      1619      1620      2967      1769
 -1      5997    3    0    1
 -2      2312      1300      2386      2649
 -1      5998    3    0    1
 -2      1300      2026      2386      2649
 -1      5999    3    0    1
 -2      2732      2643      3642      3659
 -1      6000    3    0    1
 -2       341      2141      2548      2312
 -1      6001    3    0    1
 -2       341       162      2270      2548
 -1      6002    3    0    1
 -2       341      2270      2488      2548
 -1      6003    3    0    1
 -2      2312       341      2488      2548
 -1      6004    3    0    1
 -2      3153      3622      1881      3330
 -1      6005    3    0    1
 -2      3569      2523      3580      3619
 -1      6006    3    0    1
 -2      1313      2218      2388      3632
 -1      6007    3    0    1
 -2      3187      2999      3195      3624
 -1      6008    3    0    1
 -2      2396      3522      3602      3634
 -1      6009    3    0    1
 -2      3594      3515      3601      3373
 -1      6010    3    0    1
 -2      1029       743      2361      2612
 -1      6011    3    0    1
 -2      1283      2230      2458      2591
 -1      6012    3    0    1
 -2      3169      1625      3192      3624
 -1      6013    3    0    1
 -2      1484      1483      2874      1713
 -1      6014    3    0    1
 -2      2557      1487      3405      3417
 -1      6015    3    0    1
 -2      1479      2704      1685      1686
 -1      6016    3    0    1
 -2      1738      2948      2990      3647
 -1      6017    3    0    1
 -2      1602      1601      2889      1863
 -1      6018    3    0    1
 -2      2628      2764      3073      3625
 -1      6019    3    0    1
 -2      1601      2856      3111      3680
 -1      6020    3    0    1
 -2      2204       974      2545      3727
 -1      6021    3    0    1
 -2       348       269      3697      1955
 -1      6022    3    0    1
 -2      2768      2640      3580      3102
 -1      6023    3    0    1
 -2      2514      2161      2626      3687
 -1      6024    3    0    1
 -2       665       994      2559      2634
 -1      6025    3    0    1
 -2      1478      3282      3701      1959
 -1      6026    3    0    1
 -2      3548      2522      3552      3662
 -1      6027    3    0    1
 -2      3517      3222      3638      3662
 -1      6028    3    0    1
 -2      1455      1454      1617      2906
 -1      6029    3    0    1
 -2      2584      2487      3579      3611
 -1      6030    3    0    1
 -2      3029      1616      1845      1846
 -1      6031    3    0    1
 -2      1018       332      3602      3631
 -1      6032    3    0    1
 -2      2580      3564      3659      3691
 -1      6033    3    0    1
 -2       405      2370      2458      3699
 -1      6034    3    0    1
 -2      1423      3509      3134      3413
 -1      6035    3    0    1
 -2       575       587      1286      2555
 -1      6036    3    0    1
 -2      3134      3509      3687      3413
 -1      6037    3    0    1
 -2       587       957      1286      2555
 -1      6038    3    0    1
 -2      3363      2846      3687      3413
 -1      6039    3    0    1
 -2      3503      1447      3522      3634
 -1      6040    3    0    1
 -2      1847      1858      3306      3714
 -1      6041    3    0    1
 -2       899      1142      1312      2556
 -1      6042    3    0    1
 -2       900       457      1141      2556
 -1      6043    3    0    1
 -2       458       457       900      2556
 -1      6044    3    0    1
 -2      1592      1464      3178      3292
 -1      6045    3    0    1
 -2      3113      3191      1872      1903
 -1      6046    3    0    1
 -2       924      2594      2710      3558
 -1      6047    3    0    1
 -2      1142       457       458      2556
 -1      6048    3    0    1
 -2      1457      1458      3451      3452
 -1      6049    3    0    1
 -2      1507      1506      2840      1739
 -1      6050    3    0    1
 -2       457      1142       899      2556
 -1      6051    3    0    1
 -2       458      1312      1142      2556
 -1      6052    3    0    1
 -2      1312       458       701      2556
 -1      6053    3    0    1
 -2       991      1253      1255      2559
 -1      6054    3    0    1
 -2      2908      3113      3191      3294
 -1      6055    3    0    1
 -2      1486      1485      2551      1552
 -1      6056    3    0    1
 -2      1419      3546      3557      3630
 -1      6057    3    0    1
 -2      1559      1560      1771      3227
 -1      6058    3    0    1
 -2      1248       529      1254      2559
 -1      6059    3    0    1
 -2       530       529      1248      2559
 -1      6060    3    0    1
 -2      1309      3554      3576      3594
 -1      6061    3    0    1
 -2       529      1255      1253      2559
 -1      6062    3    0    1
 -2      1255       529       530      2559
 -1      6063    3    0    1
 -2      2537      2672      3274      3654
 -1      6064    3    0    1
 -2      2734      2134      3523      3547
 -1      6065    3    0    1
 -2      1662      1524      1663      2978
 -1      6066    3    0    1
 -2      1701      1791      3154      3420
 -1      6067    3    0    1
 -2       799       808      2988      1881
 -1      6068    3    0    1
 -2      1493      1494      2821      1763
 -1      6069    3    0    1
 -2      3507      1419      3604      3713
 -1      6070    3    0    1
 -2      2786      1754      3604      1841
 -1      6071    3    0    1
 -2      1316      2214      2498      3045
 -1      6072    3    0    1
 -2      1553      1504      1554      2622
 -1      6073    3    0    1
 -2      1424      1436      3525      3078
 -1      6074    3    0    1
 -2      1060      1332      2594      2657
 -1      6075    3    0    1
 -2      2840      1506      1738      1739
 -1      6076    3    0    1
 -2      1646      1647      1784      3082
 -1      6077    3    0    1
 -2      1459      1530      3599      3270
 -1      6078    3    0    1
 -2      3515      2292      3554      3576
 -1      6079    3    0    1
 -2       748       756      1035      2721
 -1      6080    3    0    1
 -2      1522      1521      2934      3022
 -1      6081    3    0    1
 -2       808       799      1752      3239
 -1      6082    3    0    1
 -2      1512      1725      1726      2958
 -1      6083    3    0    1
 -2      2746      3140      3596      3653
 -1      6084    3    0    1
 -2      2888      3533      3025      3108
 -1      6085    3    0    1
 -2      1829      1543      3616      3635
 -1      6086    3    0    1
 -2       575       568      1286      2562
 -1      6087    3    0    1
 -2      2643      3564      3358      3695
 -1      6088    3    0    1
 -2      1164      1166      1286      2562
 -1      6089    3    0    1
 -2       568      1283      1286      2562
 -1      6090    3    0    1
 -2      1283      1164      1286      2562
 -1      6091    3    0    1
 -2       908       474      1165      2562
 -1      6092    3    0    1
 -2       474       473      1165      2562
 -1      6093    3    0    1
 -2      1435      3520      3532      3615
 -1      6094    3    0    1
 -2       473       474      1166      2562
 -1      6095    3    0    1
 -2      3565      2770      3040      3295
 -1      6096    3    0    1
 -2      3605      3519      3635      3661
 -1      6097    3    0    1
 -2      1164       473      1166      2562
 -1      6098    3    0    1
 -2      1530      3009      3597      3360
 -1      6099    3    0    1
 -2       473      1283       568      2562
 -1      6100    3    0    1
 -2      1283       473      1164      2562
 -1      6101    3    0    1
 -2      1505      1504      1589      2793
 -1      6102    3    0    1
 -2      2953      2996      3003      3591
 -1      6103    3    0    1
 -2      1044      2355      2772      3661
 -1      6104    3    0    1
 -2       468       469      1158      2566
 -1      6105    3    0    1
 -2       437       340      1604      1680
 -1      6106    3    0    1
 -2      1158       469      1160      2566
 -1      6107    3    0    1
 -2      1532      2666      1658      1659
 -1      6108    3    0    1
 -2       352        93      2255      2689
 -1      6109    3    0    1
 -2      2483      2504      2661      3529
 -1      6110    3    0    1
 -2      2905       900      3010      3018
 -1      6111    3    0    1
 -2      3533      2881      2939      3066
 -1      6112    3    0    1
 -2       969      2566      2655      2687
 -1      6113    3    0    1
 -2      3519      1675      3635      1543
 -1      6114    3    0    1
 -2       147       150      1562      1648
 -1      6115    3    0    1
 -2      2655      2828      2862      3553
 -1      6116    3    0    1
 -2      2161      2246      2502      2570
 -1      6117    3    0    1
 -2      2161      2502      2514      2570
 -1      6118    3    0    1
 -2      2838      1675      3551      2970
 -1      6119    3    0    1
 -2       720      1640      3067      3391
 -1      6120    3    0    1
 -2      2726       994      3561      2820
 -1      6121    3    0    1
 -2      1438      1901      1902      3374
 -1      6122    3    0    1
 -2      1902      1896      3378      3678
 -1      6123    3    0    1
 -2      2572       637      1537      1538
 -1      6124    3    0    1
 -2      1287       961      3512      3555
 -1      6125    3    0    1
 -2      1655       335      3484      3734
 -1      6126    3    0    1
 -2       762       743      1029      2612
 -1      6127    3    0    1
 -2      1649      2823      1778      3382
 -1      6128    3    0    1
 -2      1588      1504      2917      3194
 -1      6129    3    0    1
 -2      2798      2881      2939      3016
 -1      6130    3    0    1
 -2      1736      1445      3561      3147
 -1      6131    3    0    1
 -2      1594      1476      1595      3215
 -1      6132    3    0    1
 -2      1464      1465      2914      1745
 -1      6133    3    0    1
 -2      2863      1581      2864      3607
 -1      6134    3    0    1
 -2      2446       343      2465      2578
 -1      6135    3    0    1
 -2      3151      2835      3372      3682
 -1      6136    3    0    1
 -2       226      1634      3532      3669
 -1      6137    3    0    1
 -2      2845      2988      1881      1882
 -1      6138    3    0    1
 -2      1317      2729      3537      3052
 -1      6139    3    0    1
 -2      1301       340      1712      3685
 -1      6140    3    0    1
 -2      1305       676      2243      3536
 -1      6141    3    0    1
 -2      2843      2735      1719      1720
 -1      6142    3    0    1
 -2      1614      1615      3240      3354
 -1      6143    3    0    1
 -2      2553      1411      3407      3701
 -1      6144    3    0    1
 -2      3234      1645      3271      1880
 -1      6145    3    0    1
 -2      1596      3198      3310      1883
 -1      6146    3    0    1
 -2      1578      2676      2866      3677
 -1      6147    3    0    1
 -2      2914      1464      1744      3292
 -1      6148    3    0    1
 -2       210       333      3526      1750
 -1      6149    3    0    1
 -2      2588      2725      3531      3596
 -1      6150    3    0    1
 -2       907      2512      2569      2960
 -1      6151    3    0    1
 -2      1558      1557      3103      3354
 -1      6152    3    0    1
 -2       270      1062      2415      3508
 -1      6153    3    0    1
 -2      2666      2550      2693      3041
 -1      6154    3    0    1
 -2       754       745      1714      3241
 -1      6155    3    0    1
 -2      2703      3013      3044      3590
 -1      6156    3    0    1
 -2       460      2667      2682      2745
 -1      6157    3    0    1
 -2      1555      1704      2964      3609
 -1      6158    3    0    1
 -2       449      1489      1490      2624
 -1      6159    3    0    1
 -2       666      2571      3139      3598
 -1      6160    3    0    1
 -2       720      2949      1641      1640
 -1      6161    3    0    1
 -2      3012      3558      3168      3475
 -1      6162    3    0    1
 -2      1546      3149      3312      1933
 -1      6163    3    0    1
 -2      3175      3256      3301      3440
 -1      6164    3    0    1
 -2      2162      3534      3731      3732
 -1      6165    3    0    1
 -2       808      3153      3239      3622
 -1      6166    3    0    1
 -2      1767      2823      3336      3382
 -1      6167    3    0    1
 -2      1283      2230      2591      3541
 -1      6168    3    0    1
 -2        71        73      1837      1853
 -1      6169    3    0    1
 -2      1682      1752      1753      3239
 -1      6170    3    0    1
 -2      2655      2687      2865      3618
 -1      6171    3    0    1
 -2       237       775       248      1957
 -1      6172    3    0    1
 -2      2061      2547      3552      3039
 -1      6173    3    0    1
 -2      1474      1475      2659      2814
 -1      6174    3    0    1
 -2      2387      2514      2539      3506
 -1      6175    3    0    1
 -2      1560      1559      1771      3304
 -1      6176    3    0    1
 -2       756       748      1032      2721
 -1      6177    3    0    1
 -2      2512      2569      2637      3527
 -1      6178    3    0    1
 -2      1696      3575      3073      1786
 -1      6179    3    0    1
 -2      1798      2986      1799      3166
 -1      6180    3    0    1
 -2      1563      1562      1587      2789
 -1      6181    3    0    1
 -2      3535      2647      2893      2972
 -1      6182    3    0    1
 -2      1485      1486      2551      3049
 -1      6183    3    0    1
 -2      1721      2893      2945      2972
 -1      6184    3    0    1
 -2       347      3557      3571      3630
 -1      6185    3    0    1
 -2      1455      1454      2827      1717
 -1      6186    3    0    1
 -2      1540      1727      3013      3164
 -1      6187    3    0    1
 -2       635       979      2412      3427
 -1      6188    3    0    1
 -2       333       334      3526      1751
 -1      6189    3    0    1
 -2      1858      1847      1859      3265
 -1      6190    3    0    1
 -2      2887      1524      1721      1722
 -1      6191    3    0    1
 -2      3553      2847      3194      3607
 -1      6192    3    0    1
 -2      3580      1573      3102      3619
 -1      6193    3    0    1
 -2      3633      3706      3709      1947
 -1      6194    3    0    1
 -2      2723      2934      2951      2952
 -1      6195    3    0    1
 -2      2247      2185      2322      2777
 -1      6196    3    0    1
 -2      2700      1198      3015      3655
 -1      6197    3    0    1
 -2      1798      2986      3166      3659
 -1      6198    3    0    1
 -2      3051      2701      3651      3489
 -1      6199    3    0    1
 -2      1540      1539      1727      3164
 -1      6200    3    0    1
 -2       766      1044      1324      2644
 -1      6201    3    0    1
 -2      1690      2746      3140      3183
 -1      6202    3    0    1
 -2      2899      1280      3592      3636
 -1      6203    3    0    1
 -2      1040      1323      2273      2598
 -1      6204    3    0    1
 -2      2536      1149      2759      3493
 -1      6205    3    0    1
 -2      1708      1452      3563      3464
 -1      6206    3    0    1
 -2      1841       347      3635      1866
 -1      6207    3    0    1
 -2      1533      1532      2666      3393
 -1      6208    3    0    1
 -2      2571       666      1885      3390
 -1      6209    3    0    1
 -2      1448      1511      3505      3693
 -1      6210    3    0    1
 -2      1549      2884      2976      3019
 -1      6211    3    0    1
 -2       980       409      2158      2585
 -1      6212    3    0    1
 -2       964       115      2546      1953
 -1      6213    3    0    1
 -2      2563      2228      3546      3204
 -1      6214    3    0    1
 -2      3598      2557      3400      3483
 -1      6215    3    0    1
 -2      3085      2935      3163      3469
 -1      6216    3    0    1
 -2      1020      2442      2482      3526
 -1      6217    3    0    1
 -2       265        51      1769      1805
 -1      6218    3    0    1
 -2      1858      3293       450      3306
 -1      6219    3    0    1
 -2      1327      1052      2241      3661
 -1      6220    3    0    1
 -2      2871      1594      3215      3636
 -1      6221    3    0    1
 -2      2543      2214      3526      3045
 -1      6222    3    0    1
 -2      3522      3586      3602      3634
 -1      6223    3    0    1
 -2       712       460      2667      2682
 -1      6224    3    0    1
 -2       730       738      2540      2588
 -1      6225    3    0    1
 -2       738       730       527      2588
 -1      6226    3    0    1
 -2      2154       798      2335      2603
 -1      6227    3    0    1
 -2      1469      1704      1705      3258
 -1      6228    3    0    1
 -2       798      1055      2335      2603
 -1      6229    3    0    1
 -2      1252       527       528      2588
 -1      6230    3    0    1
 -2       527      1252      1250      2588
 -1      6231    3    0    1
 -2      2536      1147      2722      2759
 -1      6232    3    0    1
 -2      2335      1055      2483      2603
 -1      6233    3    0    1
 -2      1614      1557      1615      3354
 -1      6234    3    0    1
 -2      2247      2322      2501      3004
 -1      6235    3    0    1
 -2       738       527      2540      2588
 -1      6236    3    0    1
 -2      2862      2655      3553      3607
 -1      6237    3    0    1
 -2       346      3605      3661      3706
 -1      6238    3    0    1
 -2      3044      1657      3083      1880
 -1      6239    3    0    1
 -2      1596      3211      1883      1884
 -1      6240    3    0    1
 -2       400      1283      2458      2591
 -1      6241    3    0    1
 -2      3620      2510      3671      3702
 -1      6242    3    0    1
 -2      3386      1810      3695      3722
 -1      6243    3    0    1
 -2       772      3148      3176      3372
 -1      6244    3    0    1
 -2      3299      2549      3671      3702
 -1      6245    3    0    1
 -2       330       700      1012      1911
 -1      6246    3    0    1
 -2       330      1012      3502      1911
 -1      6247    3    0    1
 -2      1141       900      2556      2861
 -1      6248    3    0    1
 -2       952      1284      3535      3575
 -1      6249    3    0    1
 -2      3523      2406      3560      3561
 -1      6250    3    0    1
 -2      1792      1803      1804      3346
 -1      6251    3    0    1
 -2      2781      1336      2912      3627
 -1      6252    3    0    1
 -2      3083      1612      3084      3590
 -1      6253    3    0    1
 -2      1220      2554      2681      2872
 -1      6254    3    0    1
 -2      1552      1551      2775      2903
 -1      6255    3    0    1
 -2      2647      3535      2978      3182
 -1      6256    3    0    1
 -2       802      1060      1332      2594
 -1      6257    3    0    1
 -2      2900      2992      3062      3659
 -1      6258    3    0    1
 -2      2724      1591      2779      2832
 -1      6259    3    0    1
 -2      1428      1429      1542      3162
 -1      6260    3    0    1
 -2      1663      1449      2776      1450
 -1      6261    3    0    1
 -2       925      1334      1331      2594
 -1      6262    3    0    1
 -2      1334       925      1210      2594
 -1      6263    3    0    1
 -2      3543      2842      3570      3598
 -1      6264    3    0    1
 -2      2931      3608      3225      3500
 -1      6265    3    0    1
 -2      3553      2565      3607      3614
 -1      6266    3    0    1
 -2       504      1211       924      2594
 -1      6267    3    0    1
 -2      1211       504       505      2594
 -1      6268    3    0    1
 -2       505       504       925      2594
 -1      6269    3    0    1
 -2      1554      1553      2622      2702
 -1      6270    3    0    1
 -2       925       504      1210      2594
 -1      6271    3    0    1
 -2      2877      3527      3089      3606
 -1      6272    3    0    1
 -2      2483       345      3529      3530
 -1      6273    3    0    1
 -2      1576      1440      1577      2837
 -1      6274    3    0    1
 -2       793       785      1055      1807
 -1      6275    3    0    1
 -2      3501      2194      3507      3557
 -1      6276    3    0    1
 -2      2679      2798      3533      3066
 -1      6277    3    0    1
 -2      1668      3549      3618      3626
 -1      6278    3    0    1
 -2      3501      2194      3505      3507
 -1      6279    3    0    1
 -2      1719      1502      3129      3208
 -1      6280    3    0    1
 -2      1505      1504      1554      3158
 -1      6281    3    0    1
 -2      1710       114      1767      3068
 -1      6282    3    0    1
 -2      2913      1627      3618      3255
 -1      6283    3    0    1
 -2      2955      2654      3584      3674
 -1      6284    3    0    1
 -2      1496      1495      1759      3076
 -1      6285    3    0    1
 -2      1819      2639      3207      3713
 -1      6286    3    0    1
 -2      1060      2194      2258      3507
 -1      6287    3    0    1
 -2      1440      1441      3088      3155
 -1      6288    3    0    1
 -2      3505      1060      3712      3507
 -1      6289    3    0    1
 -2      1332       802      2257      3507
 -1      6290    3    0    1
 -2      2257       802      2258      3507
 -1      6291    3    0    1
 -2      1060       802      1332      3507
 -1      6292    3    0    1
 -2       810      1060      2258      3507
 -1      6293    3    0    1
 -2      1060       810       802      3507
 -1      6294    3    0    1
 -2       802       810      2258      3507
 -1      6295    3    0    1
 -2       151      1758      3259      3692
 -1      6296    3    0    1
 -2      1746      1763      3152      3185
 -1      6297    3    0    1
 -2       630       619      3298      1899
 -1      6298    3    0    1
 -2      2194      2257      2258      3507
 -1      6299    3    0    1
 -2      1415      1580      3545      3499
 -1      6300    3    0    1
 -2      1745      1744      3150      3446
 -1      6301    3    0    1
 -2      1684      2831      2946      3559
 -1      6302    3    0    1
 -2      1594      1476      3215      3329
 -1      6303    3    0    1
 -2      3572      1483      3156      3612
 -1      6304    3    0    1
 -2      1588      1589      2847      2917
 -1      6305    3    0    1
 -2      3515      1456      3554      3556
 -1      6306    3    0    1
 -2      1624      1623      1757      3046
 -1      6307    3    0    1
 -2      1568      2648      1658      1773
 -1      6308    3    0    1
 -2      3538       151      1835      3240
 -1      6309    3    0    1
 -2       513      1222      2524      2681
 -1      6310    3    0    1
 -2      2862      3553      3194      3607
 -1      6311    3    0    1
 -2      1808        13      1809      1850
 -1      6312    3    0    1
 -2      1701      1702      3077      3309
 -1      6313    3    0    1
 -2      1534      1535      2659      1741
 -1      6314    3    0    1
 -2      2512       472      2637      2960
 -1      6315    3    0    1
 -2      2365      2498      3399      3725
 -1      6316    3    0    1
 -2      1450      1449      2693      3167
 -1      6317    3    0    1
 -2      3099      3214      3641      3348
 -1      6318    3    0    1
 -2      1569       403      3512      1658
 -1      6319    3    0    1
 -2      1730      1731      2968      1822
 -1      6320    3    0    1
 -2      3074      1632      3100      3713
 -1      6321    3    0    1
 -2       154       640       649      1963
 -1      6322    3    0    1
 -2       189      1007      2390      3410
 -1      6323    3    0    1
 -2      1738      2948      3647      3391
 -1      6324    3    0    1
 -2      1324      1044      2772      3544
 -1      6325    3    0    1
 -2      1472      1471      1656      3107
 -1      6326    3    0    1
 -2      2342       756      2367      3724
 -1      6327    3    0    1
 -2      3594      3219      3270      3373
 -1      6328    3    0    1
 -2      2769      1483      3572      3612
 -1      6329    3    0    1
 -2       449       558      1638      2924
 -1      6330    3    0    1
 -2      3520      3545      3724      2511
 -1      6331    3    0    1
 -2       979       989      2412      3729
 -1      6332    3    0    1
 -2      2408      1047      2615      3698
 -1      6333    3    0    1
 -2       436       151      3240      1920
 -1      6334    3    0    1
 -2      3672       151      3689      1920
 -1      6335    3    0    1
 -2      2423      1071      2525      3508
 -1      6336    3    0    1
 -2      2415       832      2423      3508
 -1      6337    3    0    1
 -2       832      1071      2423      3508
 -1      6338    3    0    1
 -2       815       832      2415      3508
 -1      6339    3    0    1
 -2      1062       815      2415      3508
 -1      6340    3    0    1
 -2       832      1062      1071      3508
 -1      6341    3    0    1
 -2      3608      3610      3496      3500
 -1      6342    3    0    1
 -2      2415      2423      2525      3508
 -1      6343    3    0    1
 -2       832       815      1062      3508
 -1      6344    3    0    1
 -2        24        62      1554      1876
 -1      6345    3    0    1
 -2      1539      2675      1672      1673
 -1      6346    3    0    1
 -2      3095      1632      3627      3326
 -1      6347    3    0    1
 -2      2667      2682      2745      3559
 -1      6348    3    0    1
 -2      1521      2934      1725      1726
 -1      6349    3    0    1
 -2       583      2858      1719      1720
 -1      6350    3    0    1
 -2       270      1062      3508      1921
 -1      6351    3    0    1
 -2       409       414       979      2608
 -1      6352    3    0    1
 -2      2259       635      2412      2608
 -1      6353    3    0    1
 -2       409      2158      2585      2608
 -1      6354    3    0    1
 -2       414       409      2585      2608
 -1      6355    3    0    1
 -2      2189       414      2585      2608
 -1      6356    3    0    1
 -2       414      2189      2429      2608
 -1      6357    3    0    1
 -2       409       979       980      2608
 -1      6358    3    0    1
 -2       980       979      2158      2608
 -1      6359    3    0    1
 -2       409       980      2158      2608
 -1      6360    3    0    1
 -2      2026       416      2429      3729
 -1      6361    3    0    1
 -2       979      2412      3427      3729
 -1      6362    3    0    1
 -2      1300       157      2649      3540
 -1      6363    3    0    1
 -2      1520      3506      1600      3549
 -1      6364    3    0    1
 -2       341      2312      2488      3540
 -1      6365    3    0    1
 -2      1678       226      1679      2869
 -1      6366    3    0    1
 -2      2387      2205      2487      3509
 -1      6367    3    0    1
 -2      2634      2670      2817      3429
 -1      6368    3    0    1
 -2      1603      2742      2825      3652
 -1      6369    3    0    1
 -2      1528      2857      3007      3087
 -1      6370    3    0    1
 -2      1820      3183      1887      1888
 -1      6371    3    0    1
 -2      1680       340      3577      3649
 -1      6372    3    0    1
 -2      2876      1667      2981      3232
 -1      6373    3    0    1
 -2      2894      2876      2981      3232
 -1      6374    3    0    1
 -2      2704      2767      1685      1686
 -1      6375    3    0    1
 -2      2752      2396      3522      3602
 -1      6376    3    0    1
 -2      1534      2911      1836      1837
 -1      6377    3    0    1
 -2      1301       994       659      3561
 -1      6378    3    0    1
 -2      2682      2983      3644      3651
 -1      6379    3    0    1
 -2      3409      2521      3476      3478
 -1      6380    3    0    1
 -2      1331      2258      2475      2614
 -1      6381    3    0    1
 -2       802       792      2257      2614
 -1      6382    3    0    1
 -2       792      2175      2257      2614
 -1      6383    3    0    1
 -2       792      1330      2175      2614
 -1      6384    3    0    1
 -2      2361      1029      2612      3696
 -1      6385    3    0    1
 -2      1330       802      1331      2614
 -1      6386    3    0    1
 -2       792       802      1330      2614
 -1      6387    3    0    1
 -2      1040       237      2273      2615
 -1      6388    3    0    1
 -2      1046      2369      2408      2615
 -1      6389    3    0    1
 -2       242      1046      2408      2615
 -1      6390    3    0    1
 -2      1046       242      2369      2615
 -1      6391    3    0    1
 -2       242       237      1326      2615
 -1      6392    3    0    1
 -2       242      1326      2504      2615
 -1      6393    3    0    1
 -2       237      1040      1326      2615
 -1      6394    3    0    1
 -2      1326      2273      2615      1040
 -1      6395    3    0    1
 -2      1335       819      2170      2617
 -1      6396    3    0    1
 -2      2170       819      2258      2617
 -1      6397    3    0    1
 -2      1561      3126      3221      3436
 -1      6398    3    0    1
 -2      1835       151      3672      1920
 -1      6399    3    0    1
 -2      2615       237      3392      3698
 -1      6400    3    0    1
 -2      2446      1037      2465      3698
 -1      6401    3    0    1
 -2       819       810      2258      2617
 -1      6402    3    0    1
 -2       810      1334      2258      2617
 -1      6403    3    0    1
 -2       151       436      3689      1920
 -1      6404    3    0    1
 -2       151      1835      3240      1920
 -1      6405    3    0    1
 -2      2803      2801      3639      3474
 -1      6406    3    0    1
 -2       810       819      1335      2617
 -1      6407    3    0    1
 -2      1334       810      1335      2617
 -1      6408    3    0    1
 -2      3504      3515      3563      3660
 -1      6409    3    0    1
 -2       748       738      2342      2618
 -1      6410    3    0    1
 -2      3115      1509      3618      3423
 -1      6411    3    0    1
 -2      1510      1509      3115      3423
 -1      6412    3    0    1
 -2       738      1032      1319      2618
 -1      6413    3    0    1
 -2      1458      1457      3409      3417
 -1      6414    3    0    1
 -2      1509      3020      1427      1426
 -1      6415    3    0    1
 -2       738       748      1032      2618
 -1      6416    3    0    1
 -2      2555       957      3412      3699
 -1      6417    3    0    1
 -2      2836      1783      3082      3321
 -1      6418    3    0    1
 -2      2960      3057      3161      3271
 -1      6419    3    0    1
 -2       352       354      3528      1676
 -1      6420    3    0    1
 -2      1638      1639      2924      3237
 -1      6421    3    0    1
 -2      2841      2574      3243      3709
 -1      6422    3    0    1
 -2      3253      3304      3462      3730
 -1      6423    3    0    1
 -2      2194      3501      2697      3557
 -1      6424    3    0    1
 -2      2902      2924      3230      3646
 -1      6425    3    0    1
 -2      2670      2758      3543      3570
 -1      6426    3    0    1
 -2      2551      1485      1551      1552
 -1      6427    3    0    1
 -2      1836      2911      3248      1853
 -1      6428    3    0    1
 -2      3400      3409      3429      3483
 -1      6429    3    0    1
 -2      1543      3519      3389      3709
 -1      6430    3    0    1
 -2      1633      1632      3095      3326
 -1      6431    3    0    1
 -2      1512      1513      1604      2742
 -1      6432    3    0    1
 -2      2625      2790      3567      3593
 -1      6433    3    0    1
 -2      2769      1483      1713      1714
 -1      6434    3    0    1
 -2      2214       201      3526      3045
 -1      6435    3    0    1
 -2      2759      2722      3620      3320
 -1      6436    3    0    1
 -2      3265      1847      3341      3458
 -1      6437    3    0    1
 -2       344       785       793      1807
 -1      6438    3    0    1
 -2      2660      2802      2996      3591
 -1      6439    3    0    1
 -2      1747      1746      3034      1764
 -1      6440    3    0    1
 -2       826       819      1335      2623
 -1      6441    3    0    1
 -2      1332       347      3604      3630
 -1      6442    3    0    1
 -2      1023       210      2616      3582
 -1      6443    3    0    1
 -2      1541      2783      2993      3151
 -1      6444    3    0    1
 -2      3404      3012      3428      3475
 -1      6445    3    0    1
 -2       921      1338      1335      2623
 -1      6446    3    0    1
 -2      1335      1338       826      2623
 -1      6447    3    0    1
 -2      1338       921      1202      2623
 -1      6448    3    0    1
 -2      1915      1914      3451      3495
 -1      6449    3    0    1
 -2       499       498       921      2623
 -1      6450    3    0    1
 -2      1338       498       826      2623
 -1      6451    3    0    1
 -2       921       498      1202      2623
 -1      6452    3    0    1
 -2       498      1338      1202      2623
 -1      6453    3    0    1
 -2      2514      2161      2570      2626
 -1      6454    3    0    1
 -2      2592      2624      3226      3625
 -1      6455    3    0    1
 -2      2406       994      3560      3561
 -1      6456    3    0    1
 -2      1445      3523      3561      3617
 -1      6457    3    0    1
 -2      1671      2908      3113      3191
 -1      6458    3    0    1
 -2      2542      2625      3567      3584
 -1      6459    3    0    1
 -2      1456      3515      3554      3594
 -1      6460    3    0    1
 -2      1419      1536      3507      3604
 -1      6461    3    0    1
 -2      1320      1035      2342      3532
 -1      6462    3    0    1
 -2      2026       157      2507      2649
 -1      6463    3    0    1
 -2      1415      2625      3584      3593
 -1      6464    3    0    1
 -2      2594      1332      2641      2657
 -1      6465    3    0    1
 -2      2222      2407      2501      3030
 -1      6466    3    0    1
 -2      2551      2795      3533      3065
 -1      6467    3    0    1
 -2      1836        71      1837      1853
 -1      6468    3    0    1
 -2       612       601      1581      2864
 -1      6469    3    0    1
 -2      1305      3547      3560      3603
 -1      6470    3    0    1
 -2      3340      2966      1902      3678
 -1      6471    3    0    1
 -2      3588      3573      3105      3608
 -1      6472    3    0    1
 -2       641       521      2544      2630
 -1      6473    3    0    1
 -2      2525      1070      3528      1677
 -1      6474    3    0    1
 -2       802      1331      2594      2641
 -1      6475    3    0    1
 -2      1472      1471      1590      2724
 -1      6476    3    0    1
 -2      2061      2931      3573      3735
 -1      6477    3    0    1
 -2      1044       766      1324      2772
 -1      6478    3    0    1
 -2      1566      1531      2798      2881
 -1      6479    3    0    1
 -2      3010      2677      3130      3300
 -1      6480    3    0    1
 -2       900      1715      3010      3018
 -1      6481    3    0    1
 -2       206        69      1820      1887
 -1      6482    3    0    1
 -2       449      1638      1639      2924
 -1      6483    3    0    1
 -2      1282       550       940      2632
 -1      6484    3    0    1
 -2       909      1282       940      2632
 -1      6485    3    0    1
 -2      1282       909      1168      2632
 -1      6486    3    0    1
 -2      1532      1533      2648      2792
 -1      6487    3    0    1
 -2      2591      2230      2689      3541
 -1      6488    3    0    1
 -2       550      1282       557      2632
 -1      6489    3    0    1
 -2       612       601      1588      3141
 -1      6490    3    0    1
 -2       476       475       909      2632
 -1      6491    3    0    1
 -2      2952      2758      3570      3438
 -1      6492    3    0    1
 -2      1515      1514      1854      3307
 -1      6493    3    0    1
 -2       909       475      1168      2632
 -1      6494    3    0    1
 -2      2745      2946      3559      3071
 -1      6495    3    0    1
 -2       475      1282      1168      2632
 -1      6496    3    0    1
 -2      2241      2574      2686      3519
 -1      6497    3    0    1
 -2      1588      1589      2793      3141
 -1      6498    3    0    1
 -2      1282       475       557      2632
 -1      6499    3    0    1
 -2      3140      1652      3305      1887
 -1      6500    3    0    1
 -2      3113      1671      3191      1903
 -1      6501    3    0    1
 -2      2692      1526       727      2875
 -1      6502    3    0    1
 -2      2821      3152      3185      3668
 -1      6503    3    0    1
 -2       185      3554      1765      3469
 -1      6504    3    0    1
 -2      2664      2560      2814      3543
 -1      6505    3    0    1
 -2       994      1301      2559      2726
 -1      6506    3    0    1
 -2      2716      1504      2793      3707
 -1      6507    3    0    1
 -2      1494      1493      3034      1763
 -1      6508    3    0    1
 -2      1623      1687      1688      3058
 -1      6509    3    0    1
 -2      2573      3542      3569      3324
 -1      6510    3    0    1
 -2      1627      2930      1812      1813
 -1      6511    3    0    1
 -2      2809      3531      3596      3647
 -1      6512    3    0    1
 -2      2667      2745      2946      3559
 -1      6513    3    0    1
 -2      3546      2697      3557      3571
 -1      6514    3    0    1
 -2      3350      3110      3708      3465
 -1      6515    3    0    1
 -2       119      1436      1607      3628
 -1      6516    3    0    1
 -2      2831      2850      3559      3202
 -1      6517    3    0    1
 -2      2963      1594      3575      1786
 -1      6518    3    0    1
 -2      3542      2640      3569      3580
 -1      6519    3    0    1
 -2      2565      2811      3607      3614
 -1      6520    3    0    1
 -2      1464      1592      1593      3150
 -1      6521    3    0    1
 -2      1618       335      3562      1782
 -1      6522    3    0    1
 -2      1287      1532      3512      1658
 -1      6523    3    0    1
 -2       925       505      2594      2641
 -1      6524    3    0    1
 -2      1331       925      2594      2641
 -1      6525    3    0    1
 -2      2857      3007      3087      3604
 -1      6526    3    0    1
 -2      1701        27      1702      3309
 -1      6527    3    0    1
 -2       966      2201      3521      2291
 -1      6528    3    0    1
 -2      2641      2594      2882      3558
 -1      6529    3    0    1
 -2      2769      1483      1714      3572
 -1      6530    3    0    1
 -2      2544      1237      2630       521
 -1      6531    3    0    1
 -2      1786        94      1787      1840
 -1      6532    3    0    1
 -2      1612      1442      2815      3590
 -1      6533    3    0    1
 -2      2911      1836      1837      1853
 -1      6534    3    0    1
 -2       736       727      1621      3177
 -1      6535    3    0    1
 -2       346       434      2970      1889
 -1      6536    3    0    1
 -2       702       691      1692      2938
 -1      6537    3    0    1
 -2        71      1836      1838      1844
 -1      6538    3    0    1
 -2      1719      1502      1720      3129
 -1      6539    3    0    1
 -2      3198      1700      1828      3210
 -1      6540    3    0    1
 -2      1592      1692      1693      2937
 -1      6541    3    0    1
 -2      1483      2874      1714      3565
 -1      6542    3    0    1
 -2       165       183      3524      3550
 -1      6543    3    0    1
 -2       611       969      2566      2655
 -1      6544    3    0    1
 -2      1706      2920      2921      3489
 -1      6545    3    0    1
 -2       494      1197       495      2644
 -1      6546    3    0    1
 -2      1682      1833      1834      3251
 -1      6547    3    0    1
 -2      1197       494      1195      2644
 -1      6548    3    0    1
 -2      1678      3264      1894      1895
 -1      6549    3    0    1
 -2      1565      1564      2989      3260
 -1      6550    3    0    1
 -2      2646      1413      3575      3625
 -1      6551    3    0    1
 -2       285      2525      3528      1677
 -1      6552    3    0    1
 -2      2834      1768      3312      1933
 -1      6553    3    0    1
 -2      1670      1669      3113      3159
 -1      6554    3    0    1
 -2      2153       694      2243      3410
 -1      6555    3    0    1
 -2      2406      2734      3523      3547
 -1      6556    3    0    1
 -2      1443      1442      1613      2928
 -1      6557    3    0    1
 -2      3331      3398      3703      3708
 -1      6558    3    0    1
 -2       745       754      1756      3241
 -1      6559    3    0    1
 -2      2843      2735      2926      1719
 -1      6560    3    0    1
 -2      2205      1298      2584      3579
 -1      6561    3    0    1
 -2      2623      2781      2912      3047
 -1      6562    3    0    1
 -2      2561      2840      1776      3710
 -1      6563    3    0    1
 -2      1471      1590      1591      2944
 -1      6564    3    0    1
 -2       974       931      1297      2665
 -1      6565    3    0    1
 -2      3591      3262      3639      3705
 -1      6566    3    0    1
 -2      3565      1462      3159      3294
 -1      6567    3    0    1
 -2      2902      2627      2924      3646
 -1      6568    3    0    1
 -2       623       974      1297      2665
 -1      6569    3    0    1
 -2      2674      3565      3159      3294
 -1      6570    3    0    1
 -2      1032      1323       756      2721
 -1      6571    3    0    1
 -2      1593      1592      2937      3150
 -1      6572    3    0    1
 -2      2915      1598      1808      3130
 -1      6573    3    0    1
 -2       408      1651      3539      1814
 -1      6574    3    0    1
 -2      3620      3131      3374      3434
 -1      6575    3    0    1
 -2      2790      3567      3584      3674
 -1      6576    3    0    1
 -2      1658        99      1659      1660
 -1      6577    3    0    1
 -2      1600      1785      3629      3455
 -1      6578    3    0    1
 -2      1454      1616      1617      2906
 -1      6579    3    0    1
 -2      2499      2564      2592      3625
 -1      6580    3    0    1
 -2      1616      2671      1617      2906
 -1      6581    3    0    1
 -2      1549      1416      1550      3394
 -1      6582    3    0    1
 -2      1598      1599      2915      1809
 -1      6583    3    0    1
 -2      1501      1500      1563      3008
 -1      6584    3    0    1
 -2      2679      2881      3248      3643
 -1      6585    3    0    1
 -2      2637      2512      3527      3555
 -1      6586    3    0    1
 -2      2671      2906      3052      3595
 -1      6587    3    0    1
 -2      2524       513      2681      2721
 -1      6588    3    0    1
 -2      2811      2638      3607      3614
 -1      6589    3    0    1
 -2      1678      1679      3179      3264
 -1      6590    3    0    1
 -2       576       565      1635      2892
 -1      6591    3    0    1
 -2       986       340      3577      3652
 -1      6592    3    0    1
 -2      1526      1527      1590      2779
 -1      6593    3    0    1
 -2      1547      2845      1881      1882
 -1      6594    3    0    1
 -2      2288      2563      2931      3225
 -1      6595    3    0    1
 -2      1500      1501      2939      3025
 -1      6596    3    0    1
 -2      1160      1293      2566      2655
 -1      6597    3    0    1
 -2       469      1160      2566      2655
 -1      6598    3    0    1
 -2      2343       997      2488      3518
 -1      6599    3    0    1
 -2      3149      2834      3312      1933
 -1      6600    3    0    1
 -2      2848      2980      3061      3190
 -1      6601    3    0    1
 -2      1477      1476      2764      2867
 -1      6602    3    0    1
 -2      3509      3539      3134      3687
 -1      6603    3    0    1
 -2      2135       947      2255      3528
 -1      6604    3    0    1
 -2      1544       185      3085      3469
 -1      6605    3    0    1
 -2      1690      3140      1820      3183
 -1      6606    3    0    1
 -2      3503      2250      2752      2777
 -1      6607    3    0    1
 -2      3526      2543      3045      3582
 -1      6608    3    0    1
 -2      1521      1537      2952      3022
 -1      6609    3    0    1
 -2      2387      2514      3506      3687
 -1      6610    3    0    1
 -2      2626      2161      2846      3687
 -1      6611    3    0    1
 -2      1070      2500      2766      3528
 -1      6612    3    0    1
 -2      3597      3031      3408      3702
 -1      6613    3    0    1
 -2      3530       247      1806      1807
 -1      6614    3    0    1
 -2      2322      2247      2586      3004
 -1      6615    3    0    1
 -2      1716      2827      3116      3595
 -1      6616    3    0    1
 -2       966      1289      2291      3521
 -1      6617    3    0    1
 -2       977       151      3579      3689
 -1      6618    3    0    1
 -2      1194      1192      2531      2660
 -1      6619    3    0    1
 -2      2802      2984      3003      3568
 -1      6620    3    0    1
 -2       162       165      3524      3550
 -1      6621    3    0    1
 -2      2670      2817      3543      2991
 -1      6622    3    0    1
 -2      1614      2658      2768      3259
 -1      6623    3    0    1
 -2      2504      2369      2661      3529
 -1      6624    3    0    1
 -2      1046      1055      3530      1806
 -1      6625    3    0    1
 -2       773       776      1046      1806
 -1      6626    3    0    1
 -2      1194      2531      2582      2660
 -1      6627    3    0    1
 -2      1541      1542      2653      2731
 -1      6628    3    0    1
 -2      1646      1783      1784      3176
 -1      6629    3    0    1
 -2      1612      1442      1613      2815
 -1      6630    3    0    1
 -2      1301      2143      2651      3561
 -1      6631    3    0    1
 -2      1525      1524      1722      2945
 -1      6632    3    0    1
 -2      1521      1522      1538      3022
 -1      6633    3    0    1
 -2       996      1005      2558      3524
 -1      6634    3    0    1
 -2      1706      1707      2936      1940
 -1      6635    3    0    1
 -2      2674      2853      3565      3126
 -1      6636    3    0    1
 -2      1005      2242      2558      3524
 -1      6637    3    0    1
 -2      2270       996      2558      3524
 -1      6638    3    0    1
 -2      2910      3031      3597      3668
 -1      6639    3    0    1
 -2      2751      2901      3572      3241
 -1      6640    3    0    1
 -2      3244      1432      3263      3639
 -1      6641    3    0    1
 -2      1826      1497      1827      3376
 -1      6642    3    0    1
 -2       162      2270      2548      3524
 -1      6643    3    0    1
 -2        17        72      1915      1950
 -1      6644    3    0    1
 -2      1558      1557      1615      2839
 -1      6645    3    0    1
 -2      1517      1516      3072      3132
 -1      6646    3    0    1
 -2      2893      2647      2945      2972
 -1      6647    3    0    1
 -2      2220       961      2290      3512
 -1      6648    3    0    1
 -2      1287       961       587      3512
 -1      6649    3    0    1
 -2      1287       587      2220      3512
 -1      6650    3    0    1
 -2       593       961      2220      3512
 -1      6651    3    0    1
 -2       587       593      2220      3512
 -1      6652    3    0    1
 -2       593       587       961      3512
 -1      6653    3    0    1
 -2      3245      3262      3639      3490
 -1      6654    3    0    1
 -2        27      1637      1701      3160
 -1      6655    3    0    1
 -2      2285      2220      2290      3512
 -1      6656    3    0    1
 -2       931      1232      1297      2665
 -1      6657    3    0    1
 -2      2162      2734      3523      3534
 -1      6658    3    0    1
 -2      2367      1324      2772      3544
 -1      6659    3    0    1
 -2      1592      1464      3585      3150
 -1      6660    3    0    1
 -2      2247      2322      2586      2777
 -1      6661    3    0    1
 -2      3650      3573      3447      3735
 -1      6662    3    0    1
 -2       518      1232       931      2665
 -1      6663    3    0    1
 -2      1232       518       519      2665
 -1      6664    3    0    1
 -2      2809      3531      2933      3080
 -1      6665    3    0    1
 -2      2322      2777      2782      2830
 -1      6666    3    0    1
 -2      1464      1465      1593      3178
 -1      6667    3    0    1
 -2      1576      2625      2790      3567
 -1      6668    3    0    1
 -2      2527      2877      3089      3606
 -1      6669    3    0    1
 -2      1316       901      1144      2667
 -1      6670    3    0    1
 -2      1015      1316       712      2667
 -1      6671    3    0    1
 -2       901      1316      1015      2667
 -1      6672    3    0    1
 -2      2594      2641      2710      3558
 -1      6673    3    0    1
 -2      1914      1915      3461      3495
 -1      6674    3    0    1
 -2      2574      3204      3243      3709
 -1      6675    3    0    1
 -2       460       459      1144      2667
 -1      6676    3    0    1
 -2      2749      3527      3555      3606
 -1      6677    3    0    1
 -2      3395      1851      3397      1941
 -1      6678    3    0    1
 -2       901       460      1144      2667
 -1      6679    3    0    1
 -2       346      1580      2860      1947
 -1      6680    3    0    1
 -2       460      1015       712      2667
 -1      6681    3    0    1
 -2      1015       460       901      2667
 -1      6682    3    0    1
 -2       210      2479      2543      3582
 -1      6683    3    0    1
 -2      1423      3509      1651      3134
 -1      6684    3    0    1
 -2      1429      1428      1804      3144
 -1      6685    3    0    1
 -2      1636      1635      3001      3063
 -1      6686    3    0    1
 -2       403      3512      3514      3600
 -1      6687    3    0    1
 -2      3011      1519      3597      3250
 -1      6688    3    0    1
 -2      2908      2674      3113      3294
 -1      6689    3    0    1
 -2      2772      2686      3544      3661
 -1      6690    3    0    1
 -2      3274      1847      1865      3341
 -1      6691    3    0    1
 -2      2694      2826      3559      3585
 -1      6692    3    0    1
 -2      1765      1456      3594      3373
 -1      6693    3    0    1
 -2      1427      3423      1509      1510
 -1      6694    3    0    1
 -2      1618       335      1782      3196
 -1      6695    3    0    1
 -2      3187      2963      3226      3625
 -1      6696    3    0    1
 -2      2939      2798      3016      3066
 -1      6697    3    0    1
 -2      1480      1479      2704      2856
 -1      6698    3    0    1
 -2      1305      1002       676      3536
 -1      6699    3    0    1
 -2      1035      1320      2721      2873
 -1      6700    3    0    1
 -2      3527      2767      2877      3325
 -1      6701    3    0    1
 -2      3213      2889      1862      1863
 -1      6702    3    0    1
 -2      2856      1479      1862      1863
 -1      6703    3    0    1
 -2      2893      3535      2972      3069
 -1      6704    3    0    1
 -2      1833      3175      3301      3440
 -1      6705    3    0    1
 -2      1619      2834      1768      3312
 -1      6706    3    0    1
 -2      2651      3523      3534      3617
 -1      6707    3    0    1
 -2      3617      3388      3681      3731
 -1      6708    3    0    1
 -2      2812      2685      3553      3135
 -1      6709    3    0    1
 -2       944      1280      2899      3636
 -1      6710    3    0    1
 -2      1469      2953      3003      3037
 -1      6711    3    0    1
 -2       171       185      1544      3360
 -1      6712    3    0    1
 -2       766      1326       774      2708
 -1      6713    3    0    1
 -2      1448      2606      3627      3679
 -1      6714    3    0    1
 -2      2730      3568      3639      3705
 -1      6715    3    0    1
 -2      2643      2705      2989      3642
 -1      6716    3    0    1
 -2      2948      3067      3647      3391
 -1      6717    3    0    1
 -2      1583      1476      1584      2867
 -1      6718    3    0    1
 -2      2983      3033      3644      3651
 -1      6719    3    0    1
 -2      2634      2559      2670      3570
 -1      6720    3    0    1
 -2      1490      1489      2627      2868
 -1      6721    3    0    1
 -2       247       242      3530      1806
 -1      6722    3    0    1
 -2      3543      2659      1740      3249
 -1      6723    3    0    1
 -2      2827      1716      3052      3595
 -1      6724    3    0    1
 -2       781      1528      1529      2961
 -1      6725    3    0    1
 -2       601       612      1588      3212
 -1      6726    3    0    1
 -2      1018      1317      2396      3602
 -1      6727    3    0    1
 -2      2637      2753      3527      2960
 -1      6728    3    0    1
 -2      2396      3503      2752      3522
 -1      6729    3    0    1
 -2      2577      3029      3033      3644
 -1      6730    3    0    1
 -2      2496      2926      3555      2975
 -1      6731    3    0    1
 -2      1909      3395      3397      1960
 -1      6732    3    0    1
 -2      2355      1044       766       774
 -1      6733    3    0    1
 -2      3174      3564      3717      3722
 -1      6734    3    0    1
 -2      1444      2629      1585      2680
 -1      6735    3    0    1
 -2      1435      1824      3615      3734
 -1      6736    3    0    1
 -2       150      1562      1586      2680
 -1      6737    3    0    1
 -2      2879      3551      3639      3705
 -1      6738    3    0    1
 -2      1495      1496      1621      2923
 -1      6739    3    0    1
 -2      1596      1759      3157      3436
 -1      6740    3    0    1
 -2      2506      2523      3569      3619
 -1      6741    3    0    1
 -2      1460      1606      2823      2889
 -1      6742    3    0    1
 -2      2667       712      2682      2983
 -1      6743    3    0    1
 -2      1873       549      3348      3458
 -1      6744    3    0    1
 -2      2992      2900      3062      3292
 -1      6745    3    0    1
 -2      1452      3574      3631      3644
 -1      6746    3    0    1
 -2      1319       208      2479      3694
 -1      6747    3    0    1
 -2      2524      1220      2554      2681
 -1      6748    3    0    1
 -2      2914      2900      3178      3292
 -1      6749    3    0    1
 -2      1704      1469      3609      3258
 -1      6750    3    0    1
 -2      1474      2763      2814      3543
 -1      6751    3    0    1
 -2      3572      3612      3655      3682
 -1      6752    3    0    1
 -2      1541      1542      1644      2993
 -1      6753    3    0    1
 -2       201       722       718      1751
 -1      6754    3    0    1
 -2      3553      3013      3590      3614
 -1      6755    3    0    1
 -2      2965      3588      3105      3608
 -1      6756    3    0    1
 -2      2887      2805      1721      3606
 -1      6757    3    0    1
 -2      1744      2914      3292      3300
 -1      6758    3    0    1
 -2      2778      1573      1748      1749
 -1      6759    3    0    1
 -2      2697      3501      3546      3557
 -1      6760    3    0    1
 -2       147      1562      1563      1648
 -1      6761    3    0    1
 -2      2798      1566      2881      3016
 -1      6762    3    0    1
 -2      3608      3592      3719      3664
 -1      6763    3    0    1
 -2      2230        93      2689      3541
 -1      6764    3    0    1
 -2      1569      3512      2666      1658
 -1      6765    3    0    1
 -2      1504      1505      2917      3158
 -1      6766    3    0    1
 -2      2544       641      2630      3542
 -1      6767    3    0    1
 -2      1520      3506      3101      3189
 -1      6768    3    0    1
 -2      2697      2491      3546      3500
 -1      6769    3    0    1
 -2      1282        93      2230      3541
 -1      6770    3    0    1
 -2      3547      3576      3599      3658
 -1      6771    3    0    1
 -2      1222      1220      2681      2872
 -1      6772    3    0    1
 -2      1070      2500      2525      2766
 -1      6773    3    0    1
 -2      1044      2772      3544      3661
 -1      6774    3    0    1
 -2      2647      2596      3535      2893
 -1      6775    3    0    1
 -2      3559      2831      3202      3710
 -1      6776    3    0    1
 -2      2778      1573      3580      3619
 -1      6777    3    0    1
 -2      1421      1818      1819      3268
 -1      6778    3    0    1
 -2      2676      1438      1856      1857
 -1      6779    3    0    1
 -2      1588      1504      1589      2917
 -1      6780    3    0    1
 -2      1320      1035      3532      3734
 -1      6781    3    0    1
 -2      1474      3543      1740      2991
 -1      6782    3    0    1
 -2      2322      2586      2777      2830
 -1      6783    3    0    1
 -2      2551      2756      3533      3049
 -1      6784    3    0    1
 -2      1038      3696      1929      1930
 -1      6785    3    0    1
 -2      1442      1443      1613      2815
 -1      6786    3    0    1
 -2      2980      2589      3620      3737
 -1      6787    3    0    1
 -2      2670      1254      2817      2991
 -1      6788    3    0    1
 -2      2505      3124      3618      3607
 -1      6789    3    0    1
 -2      1713      2769      1714      3241
 -1      6790    3    0    1
 -2      3519      2686      3544      3545
 -1      6791    3    0    1
 -2      3527      2569      2960      3057
 -1      6792    3    0    1
 -2      1324       766      2367      2772
 -1      6793    3    0    1
 -2      1044      2355       766      2772
 -1      6794    3    0    1
 -2       766      2355      2367      2772
 -1      6795    3    0    1
 -2      1734      3166      3224      3642
 -1      6796    3    0    1
 -2      2765      3569      3065      3339
 -1      6797    3    0    1
 -2      1665       226      2869      1949
 -1      6798    3    0    1
 -2      2940      3555      3041      3606
 -1      6799    3    0    1
 -2      2490      2560      2664      3543
 -1      6800    3    0    1
 -2      1013      2390      3684      1943
 -1      6801    3    0    1
 -2      1419      1536      3546      3630
 -1      6802    3    0    1
 -2      1756      2901      3572      3674
 -1      6803    3    0    1
 -2      2659      1474      2814      3543
 -1      6804    3    0    1
 -2      2757      2669      3584      3347
 -1      6805    3    0    1
 -2      1421      1422      1818      3268
 -1      6806    3    0    1
 -2      1625      1780      1781      3342
 -1      6807    3    0    1
 -2      1867         1      3718      3496
 -1      6808    3    0    1
 -2      2704      2856      3325      3680
 -1      6809    3    0    1
 -2      1619      1620      2834      3117
 -1      6810    3    0    1
 -2      1781      1625      3624      3323
 -1      6811    3    0    1
 -2      3577      3534      3579      3611
 -1      6812    3    0    1
 -2      3130      1808      1869      3300
 -1      6813    3    0    1
 -2      1600       408      3549      3629
 -1      6814    3    0    1
 -2      2561      1776      1777      3181
 -1      6815    3    0    1
 -2      1675      3605      1889      3389
 -1      6816    3    0    1
 -2      1591      1471      2944      3289
 -1      6817    3    0    1
 -2      2771      3533      2881      2939
 -1      6818    3    0    1
 -2      2488      2507      3518      3540
 -1      6819    3    0    1
 -2      1598      2890      1744      1745
 -1      6820    3    0    1
 -2      2783      2993      3151      3372
 -1      6821    3    0    1
 -2      3563       329      1875      3645
 -1      6822    3    0    1
 -2      2786      2857      3566      3604
 -1      6823    3    0    1
 -2      3052      2729      3595      3391
 -1      6824    3    0    1
 -2      1810      3247      3695      3722
 -1      6825    3    0    1
 -2      1516      1517      1627      3133
 -1      6826    3    0    1
 -2      3612      3015      3655      3682
 -1      6827    3    0    1
 -2      1646      1647      3082      3291
 -1      6828    3    0    1
 -2      1441      1440      3088      3291
 -1      6829    3    0    1
 -2      2518      3589      3707      3730
 -1      6830    3    0    1
 -2       422       999      2242      3550
 -1      6831    3    0    1
 -2      2640      3580      3102      3619
 -1      6832    3    0    1
 -2        71      1836      3248      1853
 -1      6833    3    0    1
 -2      3536      1459      1703      3597
 -1      6834    3    0    1
 -2      1562      2939      3016      3066
 -1      6835    3    0    1
 -2      1198       495      2644      2700
 -1      6836    3    0    1
 -2       952      1287      2220      3514
 -1      6837    3    0    1
 -2      2522      2285      3511      3514
 -1      6838    3    0    1
 -2      1284       952      2282      3514
 -1      6839    3    0    1
 -2      1284      2282      2547      3514
 -1      6840    3    0    1
 -2      1297       414      2189      3704
 -1      6841    3    0    1
 -2      2220      1287      3512      3514
 -1      6842    3    0    1
 -2       952      2220      2282      3514
 -1      6843    3    0    1
 -2      2285      2220      3512      3514
 -1      6844    3    0    1
 -2      3511      2285      3512      3514
 -1      6845    3    0    1
 -2       952       403      1287      3514
 -1      6846    3    0    1
 -2      1474      1475      2898      3302
 -1      6847    3    0    1
 -2      2566      2655      2687      3553
 -1      6848    3    0    1
 -2      2285      2522      2547      3514
 -1      6849    3    0    1
 -2      2282      2220      2547      3514
 -1      6850    3    0    1
 -2      2220      2285      2547      3514
 -1      6851    3    0    1
 -2      1743      3165      3291      3337
 -1      6852    3    0    1
 -2      2504      1326      3529      3121
 -1      6853    3    0    1
 -2      1767      1710      3068      3111
 -1      6854    3    0    1
 -2       583      2735      1672      1673
 -1      6855    3    0    1
 -2      2501      2971      3269      3731
 -1      6856    3    0    1
 -2      1854      1514      1855      3307
 -1      6857    3    0    1
 -2      1426      2886      1794      1795
 -1      6858    3    0    1
 -2      1472      1471      2724      2904
 -1      6859    3    0    1
 -2      2724      1471      2832      2904
 -1      6860    3    0    1
 -2      2753      2637      3527      3555
 -1      6861    3    0    1
 -2      2822      2714      2859      3555
 -1      6862    3    0    1
 -2      3198      1596      3310      3653
 -1      6863    3    0    1
 -2      2992      1592      3178      3292
 -1      6864    3    0    1
 -2      1652      3235      3305      1936
 -1      6865    3    0    1
 -2      1431      2677      1605      3130
 -1      6866    3    0    1
 -2      3573      2927      3225      3473
 -1      6867    3    0    1
 -2      1449      1450      1663      3167
 -1      6868    3    0    1
 -2      2880      2494      3565      3637
 -1      6869    3    0    1
 -2      3505      1448      3610      3231
 -1      6870    3    0    1
 -2      1198      2700      3015      3223
 -1      6871    3    0    1
 -2      1523      1452      3631      3644
 -1      6872    3    0    1
 -2      1052      2600      3516      3557
 -1      6873    3    0    1
 -2      2864       612      3212      3607
 -1      6874    3    0    1
 -2      2292      2218      2520      3515
 -1      6875    3    0    1
 -2      1220      2554      2872      1698
 -1      6876    3    0    1
 -2      2724      2832      3537      2904
 -1      6877    3    0    1
 -2      2832      1655      3537      2904
 -1      6878    3    0    1
 -2      2699      1655      1656      2904
 -1      6879    3    0    1
 -2       700       194       704      1911
 -1      6880    3    0    1
 -2       982      1297      2609      3424
 -1      6881    3    0    1
 -2      1474      2763      3543      2991
 -1      6882    3    0    1
 -2      2574      2241      2600      3516
 -1      6883    3    0    1
 -2      2512      2749      3527      3555
 -1      6884    3    0    1
 -2      2574      2600      2697      3516
 -1      6885    3    0    1
 -2      1052      2257      2600      3557
 -1      6886    3    0    1
 -2      3536      1309      3576      3594
 -1      6887    3    0    1
 -2      3395      1906      3415      1941
 -1      6888    3    0    1
 -2      3055      3239      3622      3301
 -1      6889    3    0    1
 -2      1607      1436      3583      3628
 -1      6890    3    0    1
 -2      2736      2529      3572      3674
 -1      6891    3    0    1
 -2      1885       666      3364      3671
 -1      6892    3    0    1
 -2      1326       766      1040      2708
 -1      6893    3    0    1
 -2      1195      1040      2644      2708
 -1      6894    3    0    1
 -2      1040      1195      1326      2708
 -1      6895    3    0    1
 -2       629       977      2665      2774
 -1      6896    3    0    1
 -2      2162      2584      3534      3579
 -1      6897    3    0    1
 -2       919       494      2700      2708
 -1      6898    3    0    1
 -2       594       583      1672      2858
 -1      6899    3    0    1
 -2      2735       583      1719      1720
 -1      6900    3    0    1
 -2      1040       766      2644      2708
 -1      6901    3    0    1
 -2      1725      2712      1726      2958
 -1      6902    3    0    1
 -2      2735      1672      1673      3014
 -1      6903    3    0    1
 -2      1498      1497      1827      3465
 -1      6904    3    0    1
 -2      1675       346      3551      2970
 -1      6905    3    0    1
 -2      3561      1736      3147      1821
 -1      6906    3    0    1
 -2      1712      1301      3561      3272
 -1      6907    3    0    1
 -2       763      1643      1644      3148
 -1      6908    3    0    1
 -2      1627      1812      3618      3255
 -1      6909    3    0    1
 -2      3611      3672      3689      3700
 -1      6910    3    0    1
 -2      1504      1553      1554      3158
 -1      6911    3    0    1
 -2      3169      3070      3624      3657
 -1      6912    3    0    1
 -2      1803      1792      1804      3238
 -1      6913    3    0    1
 -2      1818      1547      1819      3268
 -1      6914    3    0    1
 -2      1581       601      1582      2864
 -1      6915    3    0    1
 -2      1669      3113      3159      3294
 -1      6916    3    0    1
 -2      2561      1776      3181      3710
 -1      6917    3    0    1
 -2      2802      2984      1802      3349
 -1      6918    3    0    1
 -2      2514      2285      2539      3517
 -1      6919    3    0    1
 -2      1509      1427      1510      2822
 -1      6920    3    0    1
 -2      1528      3263      3474      3490
 -1      6921    3    0    1
 -2      1536      3507      3604      3630
 -1      6922    3    0    1
 -2       157       646       988      1733
 -1      6923    3    0    1
 -2       422      2242      3524      3550
 -1      6924    3    0    1
 -2      1280       353      3592      3664
 -1      6925    3    0    1
 -2      1049      2504      3529      3121
 -1      6926    3    0    1
 -2       414       632       628      1962
 -1      6927    3    0    1
 -2      2548       162      3524      3550
 -1      6928    3    0    1
 -2       119      2715      1510      1607
 -1      6929    3    0    1
 -2      2143      1301      2406      3561
 -1      6930    3    0    1
 -2      2525       285      3528      3686
 -1      6931    3    0    1
 -2      1469      2964      3117      3312
 -1      6932    3    0    1
 -2       665       659       994      3561
 -1      6933    3    0    1
 -2      1701      1637      3112      3160
 -1      6934    3    0    1
 -2      3519      3605      3389      3709
 -1      6935    3    0    1
 -2       665       994      2406      3561
 -1      6936    3    0    1
 -2      2934      1725      1726      3273
 -1      6937    3    0    1
 -2      2651      2406      3523      3561
 -1      6938    3    0    1
 -2      1445      3523      1736      3561
 -1      6939    3    0    1
 -2      1301       659      2406      3561
 -1      6940    3    0    1
 -2      2893       576      3063      3069
 -1      6941    3    0    1
 -2      2282      1284      2547      3039
 -1      6942    3    0    1
 -2      3004      3599      3601      3219
 -1      6943    3    0    1
 -2      1483      1630      1631      2874
 -1      6944    3    0    1
 -2      1614      1557      2768      2839
 -1      6945    3    0    1
 -2      1032      1221      1323      2721
 -1      6946    3    0    1
 -2       513       512      1219      2721
 -1      6947    3    0    1
 -2       756      1323      2524      2721
 -1      6948    3    0    1
 -2      1035       756      2524      2721
 -1      6949    3    0    1
 -2      1221       512      2524      2721
 -1      6950    3    0    1
 -2      1219       512      1221      2721
 -1      6951    3    0    1
 -2      1323      1221      2524      2721
 -1      6952    3    0    1
 -2      1662      2776      1663      1449
 -1      6953    3    0    1
 -2       518       519      2665      2794
 -1      6954    3    0    1
 -2      3157      1596      1883      1884
 -1      6955    3    0    1
 -2      1475      1474      1486      2814
 -1      6956    3    0    1
 -2      2664      1485      2763      2814
 -1      6957    3    0    1
 -2       341       163      3518      1732
 -1      6958    3    0    1
 -2      2691      2679      2997      3643
 -1      6959    3    0    1
 -2      2494      2607      2799      3565
 -1      6960    3    0    1
 -2      3512      1424      2666      3555
 -1      6961    3    0    1
 -2      1555      1556      2631      3036
 -1      6962    3    0    1
 -2       120       118      3521      3688
 -1      6963    3    0    1
 -2      2995      3305      3647      3488
 -1      6964    3    0    1
 -2      2953      1704      2996      3036
 -1      6965    3    0    1
 -2      3002      3538      3296      3640
 -1      6966    3    0    1
 -2      3493      1914      1964      3737
 -1      6967    3    0    1
 -2      2537      2884      3636      3654
 -1      6968    3    0    1
 -2      1422      1421      1633      3326
 -1      6969    3    0    1
 -2      3590      3553      3135      3367
 -1      6970    3    0    1
 -2      2614      1331      3430      3733
 -1      6971    3    0    1
 -2      1851      3350      3387      3708
 -1      6972    3    0    1
 -2      2770      2554      2974      3565
 -1      6973    3    0    1
 -2      1761      1746      1762      3152
 -1      6974    3    0    1
 -2      1430      2583      1711      3161
 -1      6975    3    0    1
 -2       781       790      1528      2961
 -1      6976    3    0    1
 -2      2685      3083      3084      3590
 -1      6977    3    0    1
 -2      1450      1449      2776      2792
 -1      6978    3    0    1
 -2      1280      2733       557       944
 -1      6979    3    0    1
 -2      1464      1744      3071      3585
 -1      6980    3    0    1
 -2      1624      1623      2901      1757
 -1      6981    3    0    1
 -2      3585      1598      3200      3283
 -1      6982    3    0    1
 -2      1879        23      1880      1945
 -1      6983    3    0    1
 -2      1744      1598      3071      3585
 -1      6984    3    0    1
 -2      1456      3515      3594      3373
 -1      6985    3    0    1
 -2      2619      3551      3244      3639
 -1      6986    3    0    1
 -2      1694        94      3592      3721
 -1      6987    3    0    1
 -2      1792      1793      1804      3238
 -1      6988    3    0    1
 -2        15      1808      3130      1850
 -1      6989    3    0    1
 -2      1070       947      3528      1676
 -1      6990    3    0    1
 -2      2884      1549      3592      3654
 -1      6991    3    0    1
 -2      3554      3515      3576      3594
 -1      6992    3    0    1
 -2      1525      1524      1663      2887
 -1      6993    3    0    1
 -2      2731      2836      3568      3321
 -1      6994    3    0    1
 -2      1594      2963      3575      3625
 -1      6995    3    0    1
 -2      1555       781      1556      2918
 -1      6996    3    0    1
 -2      1068      2314      3679      3437
 -1      6997    3    0    1
 -2      3677      2866      3385      3442
 -1      6998    3    0    1
 -2      2292      2218      3515      3632
 -1      6999    3    0    1
 -2      1509      2714      2715      2859
 -1      7000    3    0    1
 -2      2250      3503      3338      3665
 -1      7001    3    0    1
 -2      3610      3608      3664      3437
 -1      7002    3    0    1
 -2      1485      1551      2903      3438
 -1      7003    3    0    1
 -2      1424      3517      2780      3078
 -1      7004    3    0    1
 -2      2634       994      2726      2820
 -1      7005    3    0    1
 -2       196      1706      1707      3443
 -1      7006    3    0    1
 -2      2656       952      2796      3535
 -1      7007    3    0    1
 -2      2161      2222      2626      2846
 -1      7008    3    0    1
 -2      2757      1687      3058      3347
 -1      7009    3    0    1
 -2       201      1020      3526      1751
 -1      7010    3    0    1
 -2       619       630      1748      3024
 -1      7011    3    0    1
 -2       210      2471      2479      3582
 -1      7012    3    0    1
 -2       210      2543      3526      3582
 -1      7013    3    0    1
 -2      1594      2871      3276      3636
 -1      7014    3    0    1
 -2      2897      2588      2995      3596
 -1      7015    3    0    1
 -2      2511      2250      2532      3520
 -1      7016    3    0    1
 -2      2498      2153      3399      3725
 -1      7017    3    0    1
 -2      2429      2026      2609      3704
 -1      7018    3    0    1
 -2      3640      1748      3316      3333
 -1      7019    3    0    1
 -2      1581      1582      2863      2864
 -1      7020    3    0    1
 -2      1289      2383      2403      3521
 -1      7021    3    0    1
 -2       407       406      2604      3521
 -1      7022    3    0    1
 -2       966       407      2604      3521
 -1      7023    3    0    1
 -2       406       120      2604      3521
 -1      7024    3    0    1
 -2       120       118      2604      3521
 -1      7025    3    0    1
 -2      2973      3299      3668      3702
 -1      7026    3    0    1
 -2      1289       966      2604      3521
 -1      7027    3    0    1
 -2      2201      2291      2403      3521
 -1      7028    3    0    1
 -2       118      1289      2604      3521
 -1      7029    3    0    1
 -2      2291      2290      2403      3521
 -1      7030    3    0    1
 -2      2668      3003      3568      3591
 -1      7031    3    0    1
 -2      3535      2646      3575      3625
 -1      7032    3    0    1
 -2       790       781      2918      2961
 -1      7033    3    0    1
 -2      3002      3538      1835      3240
 -1      7034    3    0    1
 -2      1612      3084      1879      1880
 -1      7035    3    0    1
 -2      2531      2660      2730      3568
 -1      7036    3    0    1
 -2       276      3693      3712      3486
 -1      7037    3    0    1
 -2       630      3619      1899      3377
 -1      7038    3    0    1
 -2      1481      1776      1777      3287
 -1      7039    3    0    1
 -2      1470      1469      1620      3037
 -1      7040    3    0    1
 -2      1614      1615      2839      3259
 -1      7041    3    0    1
 -2      2803      2660      3591      3639
 -1      7042    3    0    1
 -2      1833      1514      1834      3251
 -1      7043    3    0    1
 -2      2205       977      3579      3672
 -1      7044    3    0    1
 -2      1638      2924      3230      3237
 -1      7045    3    0    1
 -2       685       677      1005      1724
 -1      7046    3    0    1
 -2       739       210       731      1750
 -1      7047    3    0    1
 -2       731       210      1030      1750
 -1      7048    3    0    1
 -2      1553        24      1554      1876
 -1      7049    3    0    1
 -2      1537       648      2952      3022
 -1      7050    3    0    1
 -2       648       637      1551      2775
 -1      7051    3    0    1
 -2      1424      2714      3555      3628
 -1      7052    3    0    1
 -2      1537      1521      1538      3022
 -1      7053    3    0    1
 -2      1515      3256      3307      3440
 -1      7054    3    0    1
 -2      1319      2479      2618      3694
 -1      7055    3    0    1
 -2      2984      2802      3003      3349
 -1      7056    3    0    1
 -2      2621      2760      2982      3581
 -1      7057    3    0    1
 -2      2691      2795      3533      3643
 -1      7058    3    0    1
 -2      3627      3622      3318      3714
 -1      7059    3    0    1
 -2      2530      2953      3568      3591
 -1      7060    3    0    1
 -2      1752      2988       799       808
 -1      7061    3    0    1
 -2      1619      2967      1768      1769
 -1      7062    3    0    1
 -2      2619      1543      3205      3635
 -1      7063    3    0    1
 -2      2884      3592      3636      3654
 -1      7064    3    0    1
 -2      2809      3531      3080      3596
 -1      7065    3    0    1
 -2      1721      2805      3089      3606
 -1      7066    3    0    1
 -2      2506      2551      3533      3569
 -1      7067    3    0    1
 -2      2828      3553      3044      3590
 -1      7068    3    0    1
 -2      3210      3199      3211      3653
 -1      7069    3    0    1
 -2      3608      3573      3225      3473
 -1      7070    3    0    1
 -2      2510      3620      3375      3702
 -1      7071    3    0    1
 -2      1627      1516      1628      3072
 -1      7072    3    0    1
 -2      1686      1685      2956      3001
 -1      7073    3    0    1
 -2      3091      3004      3601      3219
 -1      7074    3    0    1
 -2      2593      2537      3636      3646
 -1      7075    3    0    1
 -2      1492      1491      2767      1686
 -1      7076    3    0    1
 -2       736      2809      2933      3080
 -1      7077    3    0    1
 -2      1504      1505      1589      2917
 -1      7078    3    0    1
 -2      1704      2953      2996      3003
 -1      7079    3    0    1
 -2      1577      1576      2837      2860
 -1      7080    3    0    1
 -2      1456      3554      1765      3594
 -1      7081    3    0    1
 -2      2600      2194      2697      3557
 -1      7082    3    0    1
 -2       473      1165      2562      3070
 -1      7083    3    0    1
 -2      2746      2747      3596      3647
 -1      7084    3    0    1
 -2      1703      3547      3536      3603
 -1      7085    3    0    1
 -2      1534      2659      1740      1741
 -1      7086    3    0    1
 -2      1527      1526      1590      2944
 -1      7087    3    0    1
 -2      1526      1527      2875      2944
 -1      7088    3    0    1
 -2      3070      3187      3624      3657
 -1      7089    3    0    1
 -2      1052       347      1332      3557
 -1      7090    3    0    1
 -2      1746      1761      1762      3139
 -1      7091    3    0    1
 -2      1474      2795      3017      3049
 -1      7092    3    0    1
 -2      1619      1469      1620      3117
 -1      7093    3    0    1
 -2      1027      1317      2540      3537
 -1      7094    3    0    1
 -2      2842      2670      3543      3570
 -1      7095    3    0    1
 -2       210       739       333      1750
 -1      7096    3    0    1
 -2      1429      1428      3050      1804
 -1      7097    3    0    1
 -2      2968      1730      1821      3668
 -1      7098    3    0    1
 -2      3571      3557      3616      3635
 -1      7099    3    0    1
 -2      1018      2218      2388      3644
 -1      7100    3    0    1
 -2      2870      1678      1894      1895
 -1      7101    3    0    1
 -2      3501      3712      3486      3491
 -1      7102    3    0    1
 -2      3246      3615      3676      3711
 -1      7103    3    0    1
 -2       982       416      3424      3704
 -1      7104    3    0    1
 -2      1752      1682      3023      3581
 -1      7105    3    0    1
 -2      2929      3538      3640      3673
 -1      7106    3    0    1
 -2      3573      1412      3447      3473
 -1      7107    3    0    1
 -2      2897      1729      3140      3305
 -1      7108    3    0    1
 -2       206      2981      1887      1893
 -1      7109    3    0    1
 -2        93      2689      3541      3578
 -1      7110    3    0    1
 -2      2250      3520      3615      3665
 -1      7111    3    0    1
 -2      1537      2572      2957      3065
 -1      7112    3    0    1
 -2      1424      3511      3517      3628
 -1      7113    3    0    1
 -2       408      1813      1812      1814
 -1      7114    3    0    1
 -2      1030       210      3526      1750
 -1      7115    3    0    1
 -2      1020      1030      3526      1750
 -1      7116    3    0    1
 -2      2745      3559      3000      3585
 -1      7117    3    0    1
 -2      1624      1623      1688      3058
 -1      7118    3    0    1
 -2      2584      2651      3534      3577
 -1      7119    3    0    1
 -2      2687      3553      3607      3614
 -1      7120    3    0    1
 -2      1421      1422      3100      3207
 -1      7121    3    0    1
 -2      1524      1721      2945      2972
 -1      7122    3    0    1
 -2      2674      2872      2908      3126
 -1      7123    3    0    1
 -2       434      3389      3709      1947
 -1      7124    3    0    1
 -2      2894      2876      3559      2981
 -1      7125    3    0    1
 -2      1502      2843      1719      1720
 -1      7126    3    0    1
 -2      1487      2557      3405      3483
 -1      7127    3    0    1
 -2      1145      1468      2946      3071
 -1      7128    3    0    1
 -2      1297      2609      3424      3704
 -1      7129    3    0    1
 -2      1631      1630      2799      2874
 -1      7130    3    0    1
 -2      2763      2670      3543      2991
 -1      7131    3    0    1
 -2      2731      1643      2836      3321
 -1      7132    3    0    1
 -2      3112      3169      3624      3657
 -1      7133    3    0    1
 -2      3308        24      1876      3367
 -1      7134    3    0    1
 -2      1543      1829      3205      3635
 -1      7135    3    0    1
 -2      1704      1555      2996      3036
 -1      7136    3    0    1
 -2      1564      1565      1735      3106
 -1      7137    3    0    1
 -2      2134      2247      3463      3731
 -1      7138    3    0    1
 -2       173      1736      1821      1832
 -1      7139    3    0    1
 -2      2517      3055      3622      3256
 -1      7140    3    0    1
 -2      1474      1485      1486      2814
 -1      7141    3    0    1
 -2      1569       403      1658      1660
 -1      7142    3    0    1
 -2      1483      1484      2769      1713
 -1      7143    3    0    1
 -2      2666      1569      1658      1660
 -1      7144    3    0    1
 -2       403      1569      3513      1660
 -1      7145    3    0    1
 -2      1496      1495      2907      1759
 -1      7146    3    0    1
 -2      2583      1430      3068      3161
 -1      7147    3    0    1
 -2       666      2571      3598      3390
 -1      7148    3    0    1
 -2       403        99      1658      1660
 -1      7149    3    0    1
 -2      2651      2406      2734      3523
 -1      7150    3    0    1
 -2      2981      1652      1887      3487
 -1      7151    3    0    1
 -2      1412      1689      3608      3719
 -1      7152    3    0    1
 -2      2641      2710      3558      2962
 -1      7153    3    0    1
 -2      2619      3551      3205      3244
 -1      7154    3    0    1
 -2      2185      2322      2782      2819
 -1      7155    3    0    1
 -2      2609       982      3424      3704
 -1      7156    3    0    1
 -2      2554      2872      1698      3294
 -1      7157    3    0    1
 -2      3079      3570      2842      3598
 -1      7158    3    0    1
 -2      2208      2319      2599      3684
 -1      7159    3    0    1
 -2       558      2924      2954      3230
 -1      7160    3    0    1
 -2      1476      1594      1595      2764
 -1      7161    3    0    1
 -2       947      2135      2500      3528
 -1      7162    3    0    1
 -2      2525      1070      2766      3528
 -1      7163    3    0    1
 -2      1477      1476      1595      2764
 -1      7164    3    0    1
 -2      1489      1490      1584      2868
 -1      7165    3    0    1
 -2      2489      3569      3580      3652
 -1      7166    3    0    1
 -2      1513      1512      1726      2958
 -1      7167    3    0    1
 -2      1702      1701      3112      3160
 -1      7168    3    0    1
 -2      1692       691      1693      2938
 -1      7169    3    0    1
 -2      1512      1513      2742      2958
 -1      7170    3    0    1
 -2       218        59      1828      1884
 -1      7171    3    0    1
 -2      2831      2667      2946      3559
 -1      7172    3    0    1
 -2       557      1280      2965       550
 -1      7173    3    0    1
 -2      2797      1801      3154      3309
 -1      7174    3    0    1
 -2      3566      2857      3087      3604
 -1      7175    3    0    1
 -2      1598      2915      1808      1809
 -1      7176    3    0    1
 -2      1604      1603      2742      2825
 -1      7177    3    0    1
 -2      2767      2527      2877      2892
 -1      7178    3    0    1
 -2      1635      2767      2877      2892
 -1      7179    3    0    1
 -2        17      1914      3461      1964
 -1      7180    3    0    1
 -2      1472      1471      2808      2944
 -1      7181    3    0    1
 -2       565       576      2805      2892
 -1      7182    3    0    1
 -2      3641      2538      3646      3654
 -1      7183    3    0    1
 -2      2946      3559      3071      3585
 -1      7184    3    0    1
 -2      1627      1628      2913      3072
 -1      7185    3    0    1
 -2      1440      2773      2837      3567
 -1      7186    3    0    1
 -2      2586      3574      3201      3464
 -1      7187    3    0    1
 -2        94      1840      3648      3656
 -1      7188    3    0    1
 -2       353      1689      2976      3592
 -1      7189    3    0    1
 -2      2753      2637      3555      2975
 -1      7190    3    0    1
 -2       340      1650      2825      1680
 -1      7191    3    0    1
 -2      2586      3059      3601      3660
 -1      7192    3    0    1
 -2      3205      1829      1841      3635
 -1      7193    3    0    1
 -2      2926      2753      3555      2975
 -1      7194    3    0    1
 -2      1459      3547      3599      3658
 -1      7195    3    0    1
 -2      1488      1885      1487      3405
 -1      7196    3    0    1
 -2      1715      3010      3018      3130
 -1      7197    3    0    1
 -2      1630      1462      1631      2799
 -1      7198    3    0    1
 -2      2735      2713      2843      2926
 -1      7199    3    0    1
 -2      1572      1562      2798      3066
 -1      7200    3    0    1
 -2      1517      1516      1627      3072
 -1      7201    3    0    1
 -2      1280      2632      2733      2899
 -1      7202    3    0    1
 -2       519      1232      2665      2774
 -1      7203    3    0    1
 -2      2601      2356      2689      3578
 -1      7204    3    0    1
 -2      1500      3025      1770      1771
 -1      7205    3    0    1
 -2       185       171      3613      3658
 -1      7206    3    0    1
 -2       575      1284       568      2796
 -1      7207    3    0    1
 -2      2957      2572      3569      3065
 -1      7208    3    0    1
 -2      3567      2542      3584      3674
 -1      7209    3    0    1
 -2       333      3526      1750      1751
 -1      7210    3    0    1
 -2      2249       955      2356      3578
 -1      7211    3    0    1
 -2      2356       400      3541      3578
 -1      7212    3    0    1
 -2      3566      2844      3581      3713
 -1      7213    3    0    1
 -2      1500      1501      3025      1771
 -1      7214    3    0    1
 -2      3030      3363      3402      3732
 -1      7215    3    0    1
 -2      3055      3622      3256      3301
 -1      7216    3    0    1
 -2       637      1537      1538      3022
 -1      7217    3    0    1
 -2       399       398      3541      3578
 -1      7218    3    0    1
 -2      2723      2934      2952      3022
 -1      7219    3    0    1
 -2      3236      3081      3670      3714
 -1      7220    3    0    1
 -2      3562      1618      1782      3246
 -1      7221    3    0    1
 -2      2815      1442      2854      3590
 -1      7222    3    0    1
 -2      3641      3265      3654      3458
 -1      7223    3    0    1
 -2       718       722      1020      1751
 -1      7224    3    0    1
 -2      1523      1452      3574      3631
 -1      7225    3    0    1
 -2      1020      1030      2442      3526
 -1      7226    3    0    1
 -2      2716      2518      3589      3707
 -1      7227    3    0    1
 -2      1698      2908      3191      3294
 -1      7228    3    0    1
 -2      1592      1692      3062      3659
 -1      7229    3    0    1
 -2      2705      3260      3642      3717
 -1      7230    3    0    1
 -2      2908      2872      3565      3294
 -1      7231    3    0    1
 -2      1463      1462      1670      3159
 -1      7232    3    0    1
 -2      1638       449      1639      3180
 -1      7233    3    0    1
 -2      2668      2788      2984      3349
 -1      7234    3    0    1
 -2      1462      1669      3159      3294
 -1      7235    3    0    1
 -2      2554      2974      3565      3294
 -1      7236    3    0    1
 -2      3398      3097      3703      3708
 -1      7237    3    0    1
 -2       619       630      3024      3285
 -1      7238    3    0    1
 -2      2407      2501      3463      3731
 -1      7239    3    0    1
 -2      2748      2528      3667      3675
 -1      7240    3    0    1
 -2      1652      1653      3235      1937
 -1      7241    3    0    1
 -2      1068      1336      2623      2781
 -1      7242    3    0    1
 -2      3584      2654      3655      3674
 -1      7243    3    0    1
 -2       619       630      3298      3316
 -1      7244    3    0    1
 -2      2623      2781      3047      3317
 -1      7245    3    0    1
 -2      3074      3507      1890      3713
 -1      7246    3    0    1
 -2       119       961      2859      3628
 -1      7247    3    0    1
 -2      1569      3512      3513      3628
 -1      7248    3    0    1
 -2      1424      1569      3513      3628
 -1      7249    3    0    1
 -2      3511      1424      3513      3628
 -1      7250    3    0    1
 -2        94      1284      3575      1786
 -1      7251    3    0    1
 -2      1621      1622      2950      3028
 -1      7252    3    0    1
 -2      1416      2816      1864      1865
 -1      7253    3    0    1
 -2      2751      2769      1714      3572
 -1      7254    3    0    1
 -2      1756       754      3572      3241
 -1      7255    3    0    1
 -2       736      1621      2950      3080
 -1      7256    3    0    1
 -2       433       119      1607      3583
 -1      7257    3    0    1
 -2       185       171      1544      3085
 -1      7258    3    0    1
 -2       330      1312      2690      3725
 -1      7259    3    0    1
 -2      2854      1727      1728      3164
 -1      7260    3    0    1
 -2      3003      2802      3568      3591
 -1      7261    3    0    1
 -2      3586      3574      3631      3343
 -1      7262    3    0    1
 -2      1498      1497      3371      3376
 -1      7263    3    0    1
 -2      2823      1649      3657      3382
 -1      7264    3    0    1
 -2      2906      2827      3052      3595
 -1      7265    3    0    1
 -2      1808      1598      1809      3283
 -1      7266    3    0    1
 -2      1598      1599      1809      3283
 -1      7267    3    0    1
 -2      2726      2951      3570      3290
 -1      7268    3    0    1
 -2      1433      1432      2739      3007
 -1      7269    3    0    1
 -2      2657      1332      3604      1060
 -1      7270    3    0    1
 -2       433       119      3626      1860
 -1      7271    3    0    1
 -2      2675      1672      1673      2858
 -1      7272    3    0    1
 -2      1672       583      1673      2858
 -1      7273    3    0    1
 -2      2441      2194      3505      3500
 -1      7274    3    0    1
 -2      1549      2899      3654      3341
 -1      7275    3    0    1
 -2      2680      1585      1587      2789
 -1      7276    3    0    1
 -2      2928      2583      3271      3344
 -1      7277    3    0    1
 -2      2884      1549      2976      3592
 -1      7278    3    0    1
 -2      3124      2687      3607      3614
 -1      7279    3    0    1
 -2      2967      1768      1769      1788
 -1      7280    3    0    1
 -2      3552      1696      3648      1413
 -1      7281    3    0    1
 -2      3096      3296      3640      3333
 -1      7282    3    0    1
 -2      2141       999      2497      3550
 -1      7283    3    0    1
 -2      2775      2683      2903      3438
 -1      7284    3    0    1
 -2      1685      1479      1686      2956
 -1      7285    3    0    1
 -2       648      2775      2952      3022
 -1      7286    3    0    1
 -2      2924       558      2954      3646
 -1      7287    3    0    1
 -2      1304       162      2141      3550
 -1      7288    3    0    1
 -2      2834      1619      1768      1769
 -1      7289    3    0    1
 -2      2937      1592      3000      3585
 -1      7290    3    0    1
 -2      1577      1576      2970      3155
 -1      7291    3    0    1
 -2      1607       433      3583      3284
 -1      7292    3    0    1
 -2      3608      3664      3473      3496
 -1      7293    3    0    1
 -2      2478      1032      2618      3694
 -1      7294    3    0    1
 -2      2745      3000      3071      3585
 -1      7295    3    0    1
 -2      2890      1598      1744      3585
 -1      7296    3    0    1
 -2      1803      1804      3144      3238
 -1      7297    3    0    1
 -2      1441      1440      1577      3155
 -1      7298    3    0    1
 -2      1287      2749      3555      3041
 -1      7299    3    0    1
 -2      1833      1682      1834      3301
 -1      7300    3    0    1
 -2      3304      1559      1899      1900
 -1      7301    3    0    1
 -2      1508      1419      3507      3074
 -1      7302    3    0    1
 -2       736       727      2933      2950
 -1      7303    3    0    1
 -2      1559      3285      1899      1900
 -1      7304    3    0    1
 -2       346      1576      1577      2860
 -1      7305    3    0    1
 -2      2749      2569      3527      2806
 -1      7306    3    0    1
 -2      3605       346      1889      3706
 -1      7307    3    0    1
 -2      1645      2960      3057      3161
 -1      7308    3    0    1
 -2      3514      1413      3548      3552
 -1      7309    3    0    1
 -2       398        93      3541      3578
 -1      7310    3    0    1
 -2       242      2369      2504      3529
 -1      7311    3    0    1
 -2      2255      2601      2689      3578
 -1      7312    3    0    1
 -2      2714      1509      2822      2859
 -1      7313    3    0    1
 -2      2496      2492      2527      3527
 -1      7314    3    0    1
 -2      2527      2492      2704      3527
 -1      7315    3    0    1
 -2      2583      2492      2754      3527
 -1      7316    3    0    1
 -2      3559      2745      3000      3667
 -1      7317    3    0    1
 -2      1581      2863      3132      3607
 -1      7318    3    0    1
 -2      2951      2723      2952      3570
 -1      7319    3    0    1
 -2      2527      2704      2767      3527
 -1      7320    3    0    1
 -2      1462      3092      3612      3383
 -1      7321    3    0    1
 -2      2692       736      2880      3177
 -1      7322    3    0    1
 -2      3562      3503      3615      3665
 -1      7323    3    0    1
 -2      2569      2512      2749      3527
 -1      7324    3    0    1
 -2      1623      1624      2901      3058
 -1      7325    3    0    1
 -2      1553        24      3308      3367
 -1      7326    3    0    1
 -2      2653      2740      3568      3445
 -1      7327    3    0    1
 -2      2792      2776      3535      3182
 -1      7328    3    0    1
 -2      3523      3617      3681      3731
 -1      7329    3    0    1
 -2      2590      2549      3620      3671
 -1      7330    3    0    1
 -2      3238      3701      1925      1928
 -1      7331    3    0    1
 -2       952      1284       575      2796
 -1      7332    3    0    1
 -2      3546      2610      3204      3303
 -1      7333    3    0    1
 -2      2746      1418      1690      3140
 -1      7334    3    0    1
 -2      1280       550      2314      2965
 -1      7335    3    0    1
 -2      2566      2703      2828      3553
 -1      7336    3    0    1
 -2      1725      1512      3324      3652
 -1      7337    3    0    1
 -2       952      2562      2656      2796
 -1      7338    3    0    1
 -2       952       575      2562      2796
 -1      7339    3    0    1
 -2       799      3153      1881      1882
 -1      7340    3    0    1
 -2      1483      1484      1631      3383
 -1      7341    3    0    1
 -2      2817      2818      3543      2991
 -1      7342    3    0    1
 -2      1284       952      3514      3575
 -1      7343    3    0    1
 -2      2590      3448      3451      3737
 -1      7344    3    0    1
 -2      2734      2651      3523      3534
 -1      7345    3    0    1
 -2      2711      1635      3001      3069
 -1      7346    3    0    1
 -2      1562       150      1572      2798
 -1      7347    3    0    1
 -2      2551      2572      1551      3065
 -1      7348    3    0    1
 -2       415       414      3729      1962
 -1      7349    3    0    1
 -2      3515      1456      3556      3114
 -1      7350    3    0    1
 -2      2735       594      2926      1719
 -1      7351    3    0    1
 -2       727      1526      1527      2875
 -1      7352    3    0    1
 -2      1549       353      2976      3592
 -1      7353    3    0    1
 -2      2633      2769      3572      3612
 -1      7354    3    0    1
 -2       347      1332      3604      1841
 -1      7355    3    0    1
 -2      1802      3003      3349      1948
 -1      7356    3    0    1
 -2      2694      2826      3585      3446
 -1      7357    3    0    1
 -2      2522      3511      3638      3662
 -1      7358    3    0    1
 -2      1746      1763      1764      3152
 -1      7359    3    0    1
 -2      3554       185      1765      3613
 -1      7360    3    0    1
 -2      3044      1612      3083      3590
 -1      7361    3    0    1
 -2      3533      2630      3064      3102
 -1      7362    3    0    1
 -2       345       344      3530      1807
 -1      7363    3    0    1
 -2      2768      2640      3542      3580
 -1      7364    3    0    1
 -2       792      2531      2660      2801
 -1      7365    3    0    1
 -2      1447      3522      3370      3711
 -1      7366    3    0    1
 -2       345       344      3529      3530
 -1      7367    3    0    1
 -2      2483      2175      2504      3529
 -1      7368    3    0    1
 -2      2369      2603      2661      3530
 -1      7369    3    0    1
 -2      2685      1414      3083      3367
 -1      7370    3    0    1
 -2      1423      1651      3538      2929
 -1      7371    3    0    1
 -2      3573      2931      3608      3225
 -1      7372    3    0    1
 -2      3310      3198      2897      1817
 -1      7373    3    0    1
 -2      1454      2827      1716      3052
 -1      7374    3    0    1
 -2      2703      3553      3013      3590
 -1      7375    3    0    1
 -2      2905      2728      3564      3145
 -1      7376    3    0    1
 -2       612       601      3141      3366
 -1      7377    3    0    1
 -2      1729       206      3140      1887
 -1      7378    3    0    1
 -2      2668      2953      3003      3591
 -1      7379    3    0    1
 -2      1620      1619      2967      3037
 -1      7380    3    0    1
 -2      2936      3260      1939      1940
 -1      7381    3    0    1
 -2      1836      3146      1838      3249
 -1      7382    3    0    1
 -2      1141       900      2861      3018
 -1      7383    3    0    1
 -2      3266      1885      1488      3364
 -1      7384    3    0    1
 -2      2658      1614      2839      3259
 -1      7385    3    0    1
 -2      3135      3158      3308      3367
 -1      7386    3    0    1
 -2       756       766      2367      3724
 -1      7387    3    0    1
 -2       408      3255      1813      1785
 -1      7388    3    0    1
 -2      2679      1238      2691      2997
 -1      7389    3    0    1
 -2      2634      2670      2842      3570
 -1      7390    3    0    1
 -2      2603      2483      2661      3530
 -1      7391    3    0    1
 -2      2369      2377      2603      3530
 -1      7392    3    0    1
 -2      3031      3597      3668      3702
 -1      7393    3    0    1
 -2      2489      2712      3569      3652
 -1      7394    3    0    1
 -2      2562      2656      3535      2969
 -1      7395    3    0    1
 -2      2988       799      1881      1882
 -1      7396    3    0    1
 -2      1327      3605      3635      3661
 -1      7397    3    0    1
 -2      2630      2640      3533      3569
 -1      7398    3    0    1
 -2       666      3136      3254      3364
 -1      7399    3    0    1
 -2      2801      3551      1754      3635
 -1      7400    3    0    1
 -2      2586      2520      2777      3574
 -1      7401    3    0    1
 -2       188       189       695      1943
 -1      7402    3    0    1
 -2      1294       977      2205      3538
 -1      7403    3    0    1
 -2       157       156      3518      3540
 -1      7404    3    0    1
 -2      1536      1419      3507      3630
 -1      7405    3    0    1
 -2       519      2774      2794      2878
 -1      7406    3    0    1
 -2      2835      3567      3176      3372
 -1      7407    3    0    1
 -2      1747      1746      1764      3152
 -1      7408    3    0    1
 -2      2522      3514      3548      3552
 -1      7409    3    0    1
 -2      1503      1502      2886      1795
 -1      7410    3    0    1
 -2      2825       340      1604      1603
 -1      7411    3    0    1
 -2      1526      2692       727       736
 -1      7412    3    0    1
 -2      2666      1658      1659      1660
 -1      7413    3    0    1
 -2      3131      1896      3374      3434
 -1      7414    3    0    1
 -2      2247      2520      2586      3601
 -1      7415    3    0    1
 -2       601       612      2909      3366
 -1      7416    3    0    1
 -2      2921      1706      1939      1940
 -1      7417    3    0    1
 -2      3531      2725      3080      3596
 -1      7418    3    0    1
 -2      2356       400      2591      3541
 -1      7419    3    0    1
 -2       400      1283      2591      3541
 -1      7420    3    0    1
 -2      3596      2747      2787      3647
 -1      7421    3    0    1
 -2      1605      2677      2915      3130
 -1      7422    3    0    1
 -2       655      1761      1762      3254
 -1      7423    3    0    1
 -2      2826      3559      2916      2528
 -1      7424    3    0    1
 -2      1313      1018      2388      3644
 -1      7425    3    0    1
 -2       285       828       825      1677
 -1      7426    3    0    1
 -2       559       352       551      1676
 -1      7427    3    0    1
 -2       285       825      1070      1677
 -1      7428    3    0    1
 -2      2819      2185      3243      3715
 -1      7429    3    0    1
 -2      1651      3539      1814      3134
 -1      7430    3    0    1
 -2        59      1883      1884      1904
 -1      7431    3    0    1
 -2       709       720      1738      3060
 -1      7432    3    0    1
 -2      1474      2898      3017      3302
 -1      7433    3    0    1
 -2      1305       676      2510      2910
 -1      7434    3    0    1
 -2      2640      2630      3542      3569
 -1      7435    3    0    1
 -2      1798      3166      3186      3659
 -1      7436    3    0    1
 -2      3214      3265      3641      3458
 -1      7437    3    0    1
 -2        27        28      1774      3160
 -1      7438    3    0    1
 -2      2602      2706      2809      3531
 -1      7439    3    0    1
 -2      2706      2602      2761      3531
 -1      7440    3    0    1
 -2      1730      2968      3297      3668
 -1      7441    3    0    1
 -2      1703      3547      3603      3352
 -1      7442    3    0    1
 -2      1746      3005      1761      3139
 -1      7443    3    0    1
 -2       799       808      3153      3239
 -1      7444    3    0    1
 -2      2134      2734      3523      3731
 -1      7445    3    0    1
 -2      1553      3158      3194      3367
 -1      7446    3    0    1
 -2       630       619      1748      3316
 -1      7447    3    0    1
 -2      1491      1685      1686      3001
 -1      7448    3    0    1
 -2      2492      2754      3527      3014
 -1      7449    3    0    1
 -2      2557      1487      3417      3483
 -1      7450    3    0    1
 -2      1002       185      1309      3613
 -1      7451    3    0    1
 -2      1248      2634      2670      2817
 -1      7452    3    0    1
 -2      1562      1500      2939      3066
 -1      7453    3    0    1
 -2       341       991      2312      3540
 -1      7454    3    0    1
 -2      3203       264      1841      1842
 -1      7455    3    0    1
 -2      1534      2911      3302      3643
 -1      7456    3    0    1
 -2      1254      2559      2670      2817
 -1      7457    3    0    1
 -2       257      1054      3697      1956
 -1      7458    3    0    1
 -2      3597      1519      3314      3408
 -1      7459    3    0    1
 -2      1336      2623      2781      2912
 -1      7460    3    0    1
 -2      1535      1534      2659      3146
 -1      7461    3    0    1
 -2      2773      1440      1743      3567
 -1      7462    3    0    1
 -2       346       434      1889      3706
 -1      7463    3    0    1
 -2      2642      1712      3561      3272
 -1      7464    3    0    1
 -2      2562      2656      2796      3535
 -1      7465    3    0    1
 -2      3587      3683      3715      3468
 -1      7466    3    0    1
 -2      3683      3587      3720      3468
 -1      7467    3    0    1
 -2      2640      2630      3533      3102
 -1      7468    3    0    1
 -2       416      2026      2429      3704
 -1      7469    3    0    1
 -2       340      2825      1604      1680
 -1      7470    3    0    1
 -2      1336      1632      3627      1890
 -1      7471    3    0    1
 -2      1679      1678      2870      1895
 -1      7472    3    0    1
 -2      2685      3083      3590      3367
 -1      7473    3    0    1
 -2      3402      3363      3687      3700
 -1      7474    3    0    1
 -2        47      1854      1855      1934
 -1      7475    3    0    1
 -2      1502      1503      2843      1720
 -1      7476    3    0    1
 -2      1470      1469      2953      3036
 -1      7477    3    0    1
 -2      1465      1464      1593      3150
 -1      7478    3    0    1
 -2      2631      1555      3036      3591
 -1      7479    3    0    1
 -2      3025      1500      1770      3108
 -1      7480    3    0    1
 -2      1316       201      2214      3045
 -1      7481    3    0    1
 -2      1623      2901      1756      3674
 -1      7482    3    0    1
 -2      1442      1443      2854      1728
 -1      7483    3    0    1
 -2      2714      1509      2715      2822
 -1      7484    3    0    1
 -2      1509      1510      2715      2822
 -1      7485    3    0    1
 -2      1485      2551      1551      3065
 -1      7486    3    0    1
 -2      1489       558      2627      3646
 -1      7487    3    0    1
 -2      1237      1238      2544      3533
 -1      7488    3    0    1
 -2      3265      2672      3641      3654
 -1      7489    3    0    1
 -2       119      1668      3626      1860
 -1      7490    3    0    1
 -2      2872      2674      3565      3126
 -1      7491    3    0    1
 -2      2818      3543      2991      3249
 -1      7492    3    0    1
 -2      3145       702      3186      3659
 -1      7493    3    0    1
 -2      1756      2891      1757      3046
 -1      7494    3    0    1
 -2      3509      1651      3538      1423
 -1      7495    3    0    1
 -2      2822      1426      2886      3123
 -1      7496    3    0    1
 -2      2891       745      1756      1757
 -1      7497    3    0    1
 -2      1670      1669      3242      1871
 -1      7498    3    0    1
 -2      3210      1828      1883      1884
 -1      7499    3    0    1
 -2      2506      2756      2771      3533
 -1      7500    3    0    1
 -2      2544      1238      2691      3533
 -1      7501    3    0    1
 -2      1238      1237      2679      3533
 -1      7502    3    0    1
 -2      3558      2710      3149      3312
 -1      7503    3    0    1
 -2      2755      1500      1770      1771
 -1      7504    3    0    1
 -2      2765      2691      2795      3533
 -1      7505    3    0    1
 -2      2573      2691      2765      3533
 -1      7506    3    0    1
 -2      2551      1485      2795      3065
 -1      7507    3    0    1
 -2      3537      2671      3052      3595
 -1      7508    3    0    1
 -2      2573      2544      2691      3533
 -1      7509    3    0    1
 -2      2506      2551      2756      3533
 -1      7510    3    0    1
 -2      1237      2544      2630      3533
 -1      7511    3    0    1
 -2      3358      2580      3362      3678
 -1      7512    3    0    1
 -2      2551      3533      3569      3065
 -1      7513    3    0    1
 -2        27      1701      1702      3160
 -1      7514    3    0    1
 -2      1417      1416      1550      3019
 -1      7515    3    0    1
 -2      2784      2700      3282      3682
 -1      7516    3    0    1
 -2      1547      2845      1818      1819
 -1      7517    3    0    1
 -2      2608       979      3729      1962
 -1      7518    3    0    1
 -2      2162      2584      2651      3534
 -1      7519    3    0    1
 -2      1484      1483      1631      2874
 -1      7520    3    0    1
 -2       416       982      2026      3704
 -1      7521    3    0    1
 -2      2162      2651      2734      3534
 -1      7522    3    0    1
 -2      1727      2854      3590      3164
 -1      7523    3    0    1
 -2       772       763      2836      1783
 -1      7524    3    0    1
 -2      3001      1491      3048      3069
 -1      7525    3    0    1
 -2       745       754      2891      1756
 -1      7526    3    0    1
 -2      1159      2566      2703      2828
 -1      7527    3    0    1
 -2      1159       468      2566      2828
 -1      7528    3    0    1
 -2       469      1157      2655      2828
 -1      7529    3    0    1
 -2      1474      1475      1486      3049
 -1      7530    3    0    1
 -2       437       340      1712      3272
 -1      7531    3    0    1
 -2      2755      2629      3589      3369
 -1      7532    3    0    1
 -2      1432      1528      1529      3263
 -1      7533    3    0    1
 -2       171      1544      1545      3360
 -1      7534    3    0    1
 -2       828       285       356      1677
 -1      7535    3    0    1
 -2       722       201       334      1751
 -1      7536    3    0    1
 -2      2522      2061      2547      3552
 -1      7537    3    0    1
 -2      1536      1419      3546      3311
 -1      7538    3    0    1
 -2       924      3558      3149      3475
 -1      7539    3    0    1
 -2      1495      1496      2907      3028
 -1      7540    3    0    1
 -2      2911      1836      3248      3643
 -1      7541    3    0    1
 -2      1192      2802      2984      1802
 -1      7542    3    0    1
 -2      1506      1507      2840      1777
 -1      7543    3    0    1
 -2      1672      1539      1673      3014
 -1      7544    3    0    1
 -2      3504      2218      2752      3574
 -1      7545    3    0    1
 -2      2845      1818      1819      3207
 -1      7546    3    0    1
 -2      1526      2698      2779      2832
 -1      7547    3    0    1
 -2      1591      1526      2779      2832
 -1      7548    3    0    1
 -2      1873      1789      1874      3471
 -1      7549    3    0    1
 -2      1648      1562      2798       150
 -1      7550    3    0    1
 -2      2563      2931      3225      3500
 -1      7551    3    0    1
 -2      1562      1563      1648      3016
 -1      7552    3    0    1
 -2       226      1634      3179      1905
 -1      7553    3    0    1
 -2      3299      2611      3668      3671
 -1      7554    3    0    1
 -2      2812      2565      3553      3590
 -1      7555    3    0    1
 -2      1851      3395      3397      3415
 -1      7556    3    0    1
 -2      2677      3010      3292      3300
 -1      7557    3    0    1
 -2      2568      3568      3050      3445
 -1      7558    3    0    1
 -2      2907      1496      1759      3653
 -1      7559    3    0    1
 -2      1565      1564      2921      3051
 -1      7560    3    0    1
 -2      2984      2668      3003      3568
 -1      7561    3    0    1
 -2      2741      3558      3012      3149
 -1      7562    3    0    1
 -2      1443      1442      2928      3267
 -1      7563    3    0    1
 -2      2628      1413      2646      3625
 -1      7564    3    0    1
 -2      3050      1428      1803      1804
 -1      7565    3    0    1
 -2      1789      1790      1874      3471
 -1      7566    3    0    1
 -2      1508      1892      3712      3491
 -1      7567    3    0    1
 -2      2827      1454      2906      3052
 -1      7568    3    0    1
 -2      3553      2862      3194      3367
 -1      7569    3    0    1
 -2      1428      3162      3328      3701
 -1      7570    3    0    1
 -2      3558      2710      2964      3119
 -1      7571    3    0    1
 -2      1471      1655      1656      3107
 -1      7572    3    0    1
 -2      1316      2471      2616      3582
 -1      7573    3    0    1
 -2      3137      1438      3355      3374
 -1      7574    3    0    1
 -2      2823      1460      2824      3657
 -1      7575    3    0    1
 -2      2826      2937      3585      3150
 -1      7576    3    0    1
 -2      1576       346      1577      2970
 -1      7577    3    0    1
 -2      2835      3655      3372      3682
 -1      7578    3    0    1
 -2       346      1576      3551      2970
 -1      7579    3    0    1
 -2      2776      1449      1662      3182
 -1      7580    3    0    1
 -2      2648      1568      1658      3575
 -1      7581    3    0    1
 -2      2648      1532      2792      3535
 -1      7582    3    0    1
 -2      2574      3516      3204      3709
 -1      7583    3    0    1
 -2      2750      1494      1763      3193
 -1      7584    3    0    1
 -2      1532      2648      1658      3535
 -1      7585    3    0    1
 -2      3549      1290      3618      3626
 -1      7586    3    0    1
 -2      3525      3517      3101      3626
 -1      7587    3    0    1
 -2      2564      2499      2596      3535
 -1      7588    3    0    1
 -2      2596      2499      2647      3535
 -1      7589    3    0    1
 -2      1664      2967      1788      3349
 -1      7590    3    0    1
 -2      1721       565      1722      3063
 -1      7591    3    0    1
 -2      2499      2646      2776      3535
 -1      7592    3    0    1
 -2       151      3538      1835      3672
 -1      7593    3    0    1
 -2      2647      2499      2776      3535
 -1      7594    3    0    1
 -2      1444      2629      2680      3589
 -1      7595    3    0    1
 -2      2776      2646      2792      3535
 -1      7596    3    0    1
 -2      2729      3531      3537      3595
 -1      7597    3    0    1
 -2      1597      1596      3157      1884
 -1      7598    3    0    1
 -2      2523      2489      3569      3580
 -1      7599    3    0    1
 -2      1808        15      3130      1869
 -1      7600    3    0    1
 -2      2646      2648      2792      3535
 -1      7601    3    0    1
 -2      2927      2931      3225      2288
 -1      7602    3    0    1
 -2       952      2656      1658      3535
 -1      7603    3    0    1
 -2      3232      1772      1887      1888
 -1      7604    3    0    1
 -2      2912      3171      3627      3278
 -1      7605    3    0    1
 -2      3552      1413      3662      3735
 -1      7606    3    0    1
 -2      2900      2695      2992      3659
 -1      7607    3    0    1
 -2       156       163      3518      3540
 -1      7608    3    0    1
 -2       341      2488      3518      3540
 -1      7609    3    0    1
 -2      1480      1479      2856      1863
 -1      7610    3    0    1
 -2      1435      1634      3532      3587
 -1      7611    3    0    1
 -2        14      1578      3061      3190
 -1      7612    3    0    1
 -2      1578        14      1579      3190
 -1      7613    3    0    1
 -2       944      3588      3592      3721
 -1      7614    3    0    1
 -2       285      1070      2525      1677
 -1      7615    3    0    1
 -2      1516      1627      1628      3133
 -1      7616    3    0    1
 -2      2862      2828      1877      3367
 -1      7617    3    0    1
 -2      1481      3181      1936      1937
 -1      7618    3    0    1
 -2      2342      1320      3532      3665
 -1      7619    3    0    1
 -2      3071      1468      3143      3200
 -1      7620    3    0    1
 -2      2806      3527      2877      3325
 -1      7621    3    0    1
 -2      1305      1002      3536      3597
 -1      7622    3    0    1
 -2      1655      2699      1656      3196
 -1      7623    3    0    1
 -2      1454      1455      2827      2906
 -1      7624    3    0    1
 -2      1783       763      1784      3176
 -1      7625    3    0    1
 -2      2948       709      1738      1739
 -1      7626    3    0    1
 -2      1522      1521      1538      2957
 -1      7627    3    0    1
 -2      3041      2550      3606      3555
 -1      7628    3    0    1
 -2      1501      1500      2755      1771
 -1      7629    3    0    1
 -2       691       702      1692      2986
 -1      7630    3    0    1
 -2      3533      2771      2888      3025
 -1      7631    3    0    1
 -2      2820      3570      3079      3193
 -1      7632    3    0    1
 -2       683      1002      2243      3536
 -1      7633    3    0    1
 -2       676       683      2243      3536
 -1      7634    3    0    1
 -2       683       676      1002      3536
 -1      7635    3    0    1
 -2      1002      1309      2243      3536
 -1      7636    3    0    1
 -2      2999       558      3187      3195
 -1      7637    3    0    1
 -2      1706       329      3644      3489
 -1      7638    3    0    1
 -2      3615      3562      3665      3676
 -1      7639    3    0    1
 -2      1596      1759      1760      3157
 -1      7640    3    0    1
 -2      2630      1237      3533      3066
 -1      7641    3    0    1
 -2      1504      2716      3589      3707
 -1      7642    3    0    1
 -2      2243      2292      2673      3536
 -1      7643    3    0    1
 -2      2406      2243      2673      3536
 -1      7644    3    0    1
 -2        27      1701      3154      3309
 -1      7645    3    0    1
 -2      3522      2777      3574      3201
 -1      7646    3    0    1
 -2      2162      2584      3579      3611
 -1      7647    3    0    1
 -2      1543      1829      3616      3303
 -1      7648    3    0    1
 -2      1548      1547      2845      1818
 -1      7649    3    0    1
 -2       169      1821      1822      1832
 -1      7650    3    0    1
 -2      2588      2729      3531      3537
 -1      7651    3    0    1
 -2      2805       576      1721      3089
 -1      7652    3    0    1
 -2        15      1808      1816      3200
 -1      7653    3    0    1
 -2      1495      2907      1759      1760
 -1      7654    3    0    1
 -2      3296      1573      3640      3333
 -1      7655    3    0    1
 -2      2897      1418      3198      3653
 -1      7656    3    0    1
 -2      1642      3522      3634      3586
 -1      7657    3    0    1
 -2      1531      2911      3248      3643
 -1      7658    3    0    1
 -2       745      1713      1714      3241
 -1      7659    3    0    1
 -2      1252      1250      2588      2897
 -1      7660    3    0    1
 -2      2588      1250      2725      2897
 -1      7661    3    0    1
 -2      1502      2843      2886      3123
 -1      7662    3    0    1
 -2      1590      1526      1591      2944
 -1      7663    3    0    1
 -2      1540      1539      2675      1672
 -1      7664    3    0    1
 -2      2807      1426      3359      3020
 -1      7665    3    0    1
 -2      1489      2592      2624      3226
 -1      7666    3    0    1
 -2      1519      3379      3470      3722
 -1      7667    3    0    1
 -2      1563      1562      2789      3008
 -1      7668    3    0    1
 -2      2491      2574      3546      3204
 -1      7669    3    0    1
 -2      1816      1609      3200      3283
 -1      7670    3    0    1
 -2      2228      2491      3546      3204
 -1      7671    3    0    1
 -2      1332      1060      3507      3604
 -1      7672    3    0    1
 -2      2854      1442      1727      3590
 -1      7673    3    0    1
 -2      3641      3230      3646      3703
 -1      7674    3    0    1
 -2      1432      1528      2857      3007
 -1      7675    3    0    1
 -2      2706      2535      3537      3595
 -1      7676    3    0    1
 -2      2783      1541      2993      3162
 -1      7677    3    0    1
 -2      3642      2705      3717      3722
 -1      7678    3    0    1
 -2      1864      1416      1865      3459
 -1      7679    3    0    1
 -2       709       720      2948      1738
 -1      7680    3    0    1
 -2      3346      1792      1925      1926
 -1      7681    3    0    1
 -2      2943      1687      3104      3353
 -1      7682    3    0    1
 -2       165       162      3524      1723
 -1      7683    3    0    1
 -2      3461      3422      1964      3737
 -1      7684    3    0    1
 -2      1548      1547      1818      3268
 -1      7685    3    0    1
 -2      1564      3260      1939      3457
 -1      7686    3    0    1
 -2      3547      3603      3352      3681
 -1      7687    3    0    1
 -2      1718      1766      1767      3336
 -1      7688    3    0    1
 -2      2288      2502      2570      3638
 -1      7689    3    0    1
 -2      3553      2812      3158      3194
 -1      7690    3    0    1
 -2      3256      1833      3301      3440
 -1      7691    3    0    1
 -2      1765       185      3085      1830
 -1      7692    3    0    1
 -2      2506      3533      2888      3619
 -1      7693    3    0    1
 -2       612       601      2864      3212
 -1      7694    3    0    1
 -2      1596      1597      1760      3211
 -1      7695    3    0    1
 -2      2892      2527      3089      3606
 -1      7696    3    0    1
 -2      2805      2892      3089      3606
 -1      7697    3    0    1
 -2      2749      3555      2940      3606
 -1      7698    3    0    1
 -2      1436       119      2715      3628
 -1      7699    3    0    1
 -2       558      2999      3180      3195
 -1      7700    3    0    1
 -2      1493      1494      2750      3042
 -1      7701    3    0    1
 -2      3527      2749      2806      3606
 -1      7702    3    0    1
 -2      3575      1594      3073      1786
 -1      7703    3    0    1
 -2      1638       558      3180      3195
 -1      7704    3    0    1
 -2      1532      3512      3555      3041
 -1      7705    3    0    1
 -2      1651      3509      3539      3134
 -1      7706    3    0    1
 -2       345      1049      3529      3121
 -1      7707    3    0    1
 -2       612      1588      3212      3607
 -1      7708    3    0    1
 -2      1426      1427      2822      2886
 -1      7709    3    0    1
 -2      1517      1516      2804      3133
 -1      7710    3    0    1
 -2      3504      1452      3574      3464
 -1      7711    3    0    1
 -2      2666      1532      3555      3041
 -1      7712    3    0    1
 -2      2635      2621      2709      3609
 -1      7713    3    0    1
 -2      3005      1761      3139      3598
 -1      7714    3    0    1
 -2      3527      2806      3089      3606
 -1      7715    3    0    1
 -2      1490      1489      1584      2867
 -1      7716    3    0    1
 -2      1489      1490      2624      2867
 -1      7717    3    0    1
 -2      1489      1583      1584      2867
 -1      7718    3    0    1
 -2      1583      1489      1584      2868
 -1      7719    3    0    1
 -2      2593      1583      1584      2868
 -1      7720    3    0    1
 -2       226       435      1679      2869
 -1      7721    3    0    1
 -2      3502      2365      3399      3725
 -1      7722    3    0    1
 -2      1789      1790      3277      3348
 -1      7723    3    0    1
 -2      2747      3287      3647      3488
 -1      7724    3    0    1
 -2      1679      1678      2869      2870
 -1      7725    3    0    1
 -2      3559      2826      2916      3585
 -1      7726    3    0    1
 -2      2773      2662      3567      3216
 -1      7727    3    0    1
 -2      3034      2750      1763      3193
 -1      7728    3    0    1
 -2      1647      1646      3176      3216
 -1      7729    3    0    1
 -2      1743      2773      3567      3216
 -1      7730    3    0    1
 -2      2726      2820      3561      3570
 -1      7731    3    0    1
 -2        27        28      1702      3309
 -1      7732    3    0    1
 -2      3509      1423      3538      3672
 -1      7733    3    0    1
 -2      1499      2674      2908      3127
 -1      7734    3    0    1
 -2       335       438      1782      3196
 -1      7735    3    0    1
 -2      2540      2588      3531      3537
 -1      7736    3    0    1
 -2      2524      2681      2770      2873
 -1      7737    3    0    1
 -2      2681      2524      2721      2873
 -1      7738    3    0    1
 -2      3505      3610      3679      3437
 -1      7739    3    0    1
 -2      3555      2749      2940      3041
 -1      7740    3    0    1
 -2      2828      3553      3590      3367
 -1      7741    3    0    1
 -2      2779      2724      2832      3537
 -1      7742    3    0    1
 -2      2813      2642      3570      3290
 -1      7743    3    0    1
 -2      1647      1646      1742      3291
 -1      7744    3    0    1
 -2      2706      2698      3531      3537
 -1      7745    3    0    1
 -2      2540      1317      2588      3537
 -1      7746    3    0    1
 -2      2932      2813      3273      3290
 -1      7747    3    0    1
 -2      3073      1786      1787      1840
 -1      7748    3    0    1
 -2        44       217      1871      1903
 -1      7749    3    0    1
 -2      1630      1462      3565      3294
 -1      7750    3    0    1
 -2      3140      1652      3235      3305
 -1      7751    3    0    1
 -2      1231       518      2794      2878
 -1      7752    3    0    1
 -2      2522      2547      3514      3552
 -1      7753    3    0    1
 -2      2785      2815      2854      3590
 -1      7754    3    0    1
 -2       519       932      2774      2878
 -1      7755    3    0    1
 -2      1616      1454      1617      3228
 -1      7756    3    0    1
 -2      1463      1462      3092      3275
 -1      7757    3    0    1
 -2      3565      2872      3126      3221
 -1      7758    3    0    1
 -2      2753      3527      2960      3327
 -1      7759    3    0    1
 -2      1792      3238      1925      1926
 -1      7760    3    0    1
 -2      1534      1535      2911      1837
 -1      7761    3    0    1
 -2      1873      3348      3356      3458
 -1      7762    3    0    1
 -2      2569      2637      3527      2960
 -1      7763    3    0    1
 -2      1301       340      1603      3272
 -1      7764    3    0    1
 -2      1742      1646      1743      3291
 -1      7765    3    0    1
 -2      1439      1438      1901      3472
 -1      7766    3    0    1
 -2      2686      2241      3519      3661
 -1      7767    3    0    1
 -2      1027      2540      2698      3537
 -1      7768    3    0    1
 -2      2535      2671      2699      3537
 -1      7769    3    0    1
 -2      1027      2698      2832      3537
 -1      7770    3    0    1
 -2      2706      2535      2724      3537
 -1      7771    3    0    1
 -2      1735      1734      3166      3224
 -1      7772    3    0    1
 -2       329       196      1875      3645
 -1      7773    3    0    1
 -2      3549      1290      3626      3663
 -1      7774    3    0    1
 -2      2588      1317      2729      3537
 -1      7775    3    0    1
 -2      2671      1447      2699      3537
 -1      7776    3    0    1
 -2       346      1327      3605      3635
 -1      7777    3    0    1
 -2      2535      2699      2724      3537
 -1      7778    3    0    1
 -2      1655      1027      2832      3537
 -1      7779    3    0    1
 -2      2706      2724      2779      3537
 -1      7780    3    0    1
 -2      1600      3629      3687      3455
 -1      7781    3    0    1
 -2      1327       346      3551      3635
 -1      7782    3    0    1
 -2      1543      3516      3616      3635
 -1      7783    3    0    1
 -2      2505      3124      3607      3614
 -1      7784    3    0    1
 -2      1594      3575      3073      3625
 -1      7785    3    0    1
 -2      1284      2796      3575      3625
 -1      7786    3    0    1
 -2      1529      1528      3007      3087
 -1      7787    3    0    1
 -2      2735       594      1672      2926
 -1      7788    3    0    1
 -2      2518      2755      3589      3730
 -1      7789    3    0    1
 -2      2454      3697      3477      3733
 -1      7790    3    0    1
 -2      1147      2722      2759      3320
 -1      7791    3    0    1
 -2      2550      2666      3555      3041
 -1      7792    3    0    1
 -2      2312      1300      2649      3540
 -1      7793    3    0    1
 -2       163       341      3518      3540
 -1      7794    3    0    1
 -2      3506      2387      3509      3621
 -1      7795    3    0    1
 -2      1517      1627      3133      3184
 -1      7796    3    0    1
 -2      1651      3538      2929      2930
 -1      7797    3    0    1
 -2      2930      1651      1812      1814
 -1      7798    3    0    1
 -2      1651       408      1812      1814
 -1      7799    3    0    1
 -2      1516      1581      1582      3132
 -1      7800    3    0    1
 -2      3126      1699      3157      1904
 -1      7801    3    0    1
 -2      2865      2687      3607      3618
 -1      7802    3    0    1
 -2      1582      1581      2863      3132
 -1      7803    3    0    1
 -2      1300      2312      2503      3540
 -1      7804    3    0    1
 -2      2930      1812      1813      1814
 -1      7805    3    0    1
 -2      2781      2912      3047      3622
 -1      7806    3    0    1
 -2       408       125      3539      3629
 -1      7807    3    0    1
 -2      3536      1002      3594      3658
 -1      7808    3    0    1
 -2      2725      2540      3531      3080
 -1      7809    3    0    1
 -2      1470      1469      1705      3258
 -1      7810    3    0    1
 -2       157      2507      2649      3540
 -1      7811    3    0    1
 -2       163       156      2503      3540
 -1      7812    3    0    1
 -2      2488      2312      2649      3540
 -1      7813    3    0    1
 -2       341       163      2503      3540
 -1      7814    3    0    1
 -2       156       157      2503      3540
 -1      7815    3    0    1
 -2      2507      2488      2649      3540
 -1      7816    3    0    1
 -2       157      1300      2503      3540
 -1      7817    3    0    1
 -2       991       341      2503      3540
 -1      7818    3    0    1
 -2       185       171      1530      3360
 -1      7819    3    0    1
 -2      1734      1564      1735      3106
 -1      7820    3    0    1
 -2      3034      1746      1763      1764
 -1      7821    3    0    1
 -2      2356      2591      2689      3541
 -1      7822    3    0    1
 -2      3598      2842      3390      3483
 -1      7823    3    0    1
 -2       340      1603      2825      3652
 -1      7824    3    0    1
 -2      1845      3029      1846      1878
 -1      7825    3    0    1
 -2      2577      2800      3122      3228
 -1      7826    3    0    1
 -2        14      1578      1579      3385
 -1      7827    3    0    1
 -2      2711      3001      3048      3069
 -1      7828    3    0    1
 -2      1640      2949      3122      3675
 -1      7829    3    0    1
 -2      1416      1417      2816      3019
 -1      7830    3    0    1
 -2      1635      2711      3063      3069
 -1      7831    3    0    1
 -2      3575      2628      3073      3625
 -1      7832    3    0    1
 -2      2640      1298      2768      3542
 -1      7833    3    0    1
 -2       986      2544      2573      3542
 -1      7834    3    0    1
 -2      1603      1512      2742      3652
 -1      7835    3    0    1
 -2       986       647      2544      3542
 -1      7836    3    0    1
 -2       641      1298      2640      3542
 -1      7837    3    0    1
 -2      2532      3520      3532      3724
 -1      7838    3    0    1
 -2      1496      2907      3028      3653
 -1      7839    3    0    1
 -2      1496      3028      3596      3653
 -1      7840    3    0    1
 -2      1523      3029      1845      1878
 -1      7841    3    0    1
 -2      2630       641      2640      3542
 -1      7842    3    0    1
 -2      2846      3189      3687      3455
 -1      7843    3    0    1
 -2      3569      3542      3580      3652
 -1      7844    3    0    1
 -2       332       439      3631      1878
 -1      7845    3    0    1
 -2      2800      1454      3122      3228
 -1      7846    3    0    1
 -2      1413      2628      3575      3625
 -1      7847    3    0    1
 -2      3397      3371      3454      3736
 -1      7848    3    0    1
 -2      3533      2506      3569      3619
 -1      7849    3    0    1
 -2      2523      2778      3580      3619
 -1      7850    3    0    1
 -2      1636      1491      2767      1492
 -1      7851    3    0    1
 -2      2767      1635      1636      2892
 -1      7852    3    0    1
 -2       576      1635      2877      2892
 -1      7853    3    0    1
 -2      2805      2887      1721      1722
 -1      7854    3    0    1
 -2      2852      2134      3547      3599
 -1      7855    3    0    1
 -2      1613      1612      2815      3084
 -1      7856    3    0    1
 -2      3596      2746      3647      3488
 -1      7857    3    0    1
 -2      1783      1646      1784      3082
 -1      7858    3    0    1
 -2       612      3365      3673      3707
 -1      7859    3    0    1
 -2      1731      1730      3042      3147
 -1      7860    3    0    1
 -2      3235      2895      1936      1937
 -1      7861    3    0    1
 -2      3697      2261      3477      3733
 -1      7862    3    0    1
 -2      1534      1535      1741      3302
 -1      7863    3    0    1
 -2      2763      2664      2814      3543
 -1      7864    3    0    1
 -2      2335      2453      2613      3697
 -1      7865    3    0    1
 -2      2924      2902      3230      3237
 -1      7866    3    0    1
 -2      2560      2521      2818      3543
 -1      7867    3    0    1
 -2      3641      3230      2947      2954
 -1      7868    3    0    1
 -2      1626      1625      3077      3342
 -1      7869    3    0    1
 -2      1632      1633      3095      1891
 -1      7870    3    0    1
 -2       242      1046      2369      1806
 -1      7871    3    0    1
 -2      2511      3520      3545      3715
 -1      7872    3    0    1
 -2      1754      3203      3604      1841
 -1      7873    3    0    1
 -2      1308       427      2208      3726
 -1      7874    3    0    1
 -2      3409      2521      3429      3476
 -1      7875    3    0    1
 -2      1576      1327      3551      3165
 -1      7876    3    0    1
 -2      2632       475      2733      2947
 -1      7877    3    0    1
 -2      3583       433      3626      3284
 -1      7878    3    0    1
 -2        13        15      1808      1816
 -1      7879    3    0    1
 -2      3636      3641      3646      3654
 -1      7880    3    0    1
 -2      2537      2816      2884      3654
 -1      7881    3    0    1
 -2      3448      3422      3461      3737
 -1      7882    3    0    1
 -2        24      1553      1877      3367
 -1      7883    3    0    1
 -2      2993      2835      3148      3372
 -1      7884    3    0    1
 -2      3067      1640      3595      3391
 -1      7885    3    0    1
 -2      2560      2659      2814      3543
 -1      7886    3    0    1
 -2      2670      2758      2763      3543
 -1      7887    3    0    1
 -2      3076      2853      3221      3401
 -1      7888    3    0    1
 -2      2911      1534      1836      3643
 -1      7889    3    0    1
 -2       173       169      3603      3623
 -1      7890    3    0    1
 -2      2728      2556      2905      3564
 -1      7891    3    0    1
 -2      2659      1474      1740      1741
 -1      7892    3    0    1
 -2      1469      1704      2953      3036
 -1      7893    3    0    1
 -2       435      3683      3468      1949
 -1      7894    3    0    1
 -2      2658      2768      3542      3580
 -1      7895    3    0    1
 -2      1416      3654      1549      3019
 -1      7896    3    0    1
 -2      1725      2712      3652      3339
 -1      7897    3    0    1
 -2      3324      1725      3652      3339
 -1      7898    3    0    1
 -2      2686      2367      2772      3544
 -1      7899    3    0    1
 -2      1521      2712      1725      3339
 -1      7900    3    0    1
 -2      3569      2957      3065      3339
 -1      7901    3    0    1
 -2      3610      3505      3679      3693
 -1      7902    3    0    1
 -2      2406      1305      3536      3547
 -1      7903    3    0    1
 -2      1519      1810      3386      3470
 -1      7904    3    0    1
 -2      1870      1854      3313      3440
 -1      7905    3    0    1
 -2      1332      2786      3604      1841
 -1      7906    3    0    1
 -2      1567      3313      1934      3453
 -1      7907    3    0    1
 -2      2686      2511      3544      3545
 -1      7908    3    0    1
 -2      1754      1755      3205      3244
 -1      7909    3    0    1
 -2      3362      3378      3678      3472
 -1      7910    3    0    1
 -2      3533      2640      3102      3619
 -1      7911    3    0    1
 -2      1301      1712      3561      3685
 -1      7912    3    0    1
 -2      3298      3304      1899      1900
 -1      7913    3    0    1
 -2      1457      1487      1488      3452
 -1      7914    3    0    1
 -2      3402      3363      3700      3732
 -1      7915    3    0    1
 -2      1437      2797      3154      3398
 -1      7916    3    0    1
 -2      2511      2686      2841      3545
 -1      7917    3    0    1
 -2      2686      2574      2841      3545
 -1      7918    3    0    1
 -2      3395        29      1941      1960
 -1      7919    3    0    1
 -2      1461      3493      1964      3737
 -1      7920    3    0    1
 -2      3516      2574      3519      3709
 -1      7921    3    0    1
 -2      1635      2711      3001      3063
 -1      7922    3    0    1
 -2       565       576      1635      3063
 -1      7923    3    0    1
 -2      1555      1704      1705      3036
 -1      7924    3    0    1
 -2      1486      1485      1552      2903
 -1      7925    3    0    1
 -2       154       415      3424      3704
 -1      7926    3    0    1
 -2       415       414      3424      3704
 -1      7927    3    0    1
 -2       790      2996      3591      3492
 -1      7928    3    0    1
 -2      3566      2657      3604      3713
 -1      7929    3    0    1
 -2      3189      1520      3687      3455
 -1      7930    3    0    1
 -2      1544       185      3597      3360
 -1      7931    3    0    1
 -2      2781      3627      3318      3714
 -1      7932    3    0    1
 -2      3254      3668      3671      3449
 -1      7933    3    0    1
 -2      2491      2574      2697      3546
 -1      7934    3    0    1
 -2      2491      2228      2574      3204
 -1      7935    3    0    1
 -2      2710      3558      2964      3312
 -1      7936    3    0    1
 -2      1305      3536      3547      3603
 -1      7937    3    0    1
 -2      3205      1754      1841      1842
 -1      7938    3    0    1
 -2      1471      1655      2832      2904
 -1      7939    3    0    1
 -2      2646      2648      3535      3575
 -1      7940    3    0    1
 -2      2770      2873      3637      3669
 -1      7941    3    0    1
 -2      1818      1421      1819      3207
 -1      7942    3    0    1
 -2      2872      2674      2908      3565
 -1      7943    3    0    1
 -2      2607      2891      1714      3565
 -1      7944    3    0    1
 -2       900      2556      2861      2905
 -1      7945    3    0    1
 -2      1630      1462      2799      3565
 -1      7946    3    0    1
 -2      2850      3559      3202      3675
 -1      7947    3    0    1
 -2      2648      1658      3535      3575
 -1      7948    3    0    1
 -2      2674      2494      2799      3565
 -1      7949    3    0    1
 -2      2679      1737      2997      3248
 -1      7950    3    0    1
 -2      1593      1592      1693      2937
 -1      7951    3    0    1
 -2      1654      2818      2991      3249
 -1      7952    3    0    1
 -2      2659      1474      3543      1740
 -1      7953    3    0    1
 -2      2726      2634      2820      3570
 -1      7954    3    0    1
 -2      2642      3561      3570      3290
 -1      7955    3    0    1
 -2      3581      2982      3168      3251
 -1      7956    3    0    1
 -2      2406      2673      2734      3547
 -1      7957    3    0    1
 -2       438       335      1656      3196
 -1      7958    3    0    1
 -2      2583      1711      3161      3344
 -1      7959    3    0    1
 -2      1885       655      1886      3364
 -1      7960    3    0    1
 -2       329      3556      1779      3645
 -1      7961    3    0    1
 -2      2974      2770      3565      3295
 -1      7962    3    0    1
 -2      2859      3555      2975      3123
 -1      7963    3    0    1
 -2      3534      2584      3577      3579
 -1      7964    3    0    1
 -2      1598      1808      3130      3300
 -1      7965    3    0    1
 -2      3504      2520      3515      3601
 -1      7966    3    0    1
 -2      1068      3664      3679      3718
 -1      7967    3    0    1
 -2      1598      3071      3585      3200
 -1      7968    3    0    1
 -2      3622      2781      3627      3318
 -1      7969    3    0    1
 -2      1456      3515      3091      3114
 -1      7970    3    0    1
 -2      1658      2648      1659      1773
 -1      7971    3    0    1
 -2      3553      2812      3135      3158
 -1      7972    3    0    1
 -2      1499      2908      3126      3127
 -1      7973    3    0    1
 -2      1462      1669      1670      3159
 -1      7974    3    0    1
 -2      2890      3585      3143      3200
 -1      7975    3    0    1
 -2      2583      3161      3271      3344
 -1      7976    3    0    1
 -2       601       612      1581      2909
 -1      7977    3    0    1
 -2      2901      1756      3572      3241
 -1      7978    3    0    1
 -2      1494      2821      1763      3185
 -1      7979    3    0    1
 -2      1612      2815      3084      3590
 -1      7980    3    0    1
 -2      2915      2914      1744      3300
 -1      7981    3    0    1
 -2       354       352      3686      3479
 -1      7982    3    0    1
 -2       763       772      1643      3148
 -1      7983    3    0    1
 -2      1836      3146      1837      1838
 -1      7984    3    0    1
 -2       676       462      2510      2910
 -1      7985    3    0    1
 -2      2510       462      2536      2910
 -1      7986    3    0    1
 -2      3142        44      1872      1938
 -1      7987    3    0    1
 -2      2895      1482      3287      3488
 -1      7988    3    0    1
 -2      1423      3509      3413      3700
 -1      7989    3    0    1
 -2       994      2726      3561      1301
 -1      7990    3    0    1
 -2      1002      1305      2510      2910
 -1      7991    3    0    1
 -2       403      3514      1658      3575
 -1      7992    3    0    1
 -2      2732      2989      3224      3642
 -1      7993    3    0    1
 -2      1694      1786      3276      3636
 -1      7994    3    0    1
 -2      1836      1838      1844      3249
 -1      7995    3    0    1
 -2      1692      1592      1693      2992
 -1      7996    3    0    1
 -2      2776      2647      3535      2978
 -1      7997    3    0    1
 -2      2682      2667      2983      3675
 -1      7998    3    0    1
 -2      2715      2859      3555      3628
 -1      7999    3    0    1
 -2      1424      1436      2714      3628
 -1      8000    3    0    1
 -2       119      1607      3583      3628
 -1      8001    3    0    1
 -2      1509       119      2859      3628
 -1      8002    3    0    1
 -2      1765      3554      3717      3469
 -1      8003    3    0    1
 -2      1756      2901      1757      3241
 -1      8004    3    0    1
 -2      2677      1431      3018      3130
 -1      8005    3    0    1
 -2      2761      2706      3531      3595
 -1      8006    3    0    1
 -2      1522      1521      2712      1726
 -1      8007    3    0    1
 -2      1500      1501      1563      2939
 -1      8008    3    0    1
 -2      3516      1543      3616      3303
 -1      8009    3    0    1
 -2      3140      2897      3596      3653
 -1      8010    3    0    1
 -2      3533      2771      2881      3643
 -1      8011    3    0    1
 -2      2738      3566      3087      3604
 -1      8012    3    0    1
 -2      2934      1521      2952      3022
 -1      8013    3    0    1
 -2      1600      2913      3618      3255
 -1      8014    3    0    1
 -2      1479      2704      2856      3325
 -1      8015    3    0    1
 -2      1559      1770      1771      3304
 -1      8016    3    0    1
 -2      3099      3277      3641      3708
 -1      8017    3    0    1
 -2      1330      2614      3430      3733
 -1      8018    3    0    1
 -2      1569      1424      3512      3628
 -1      8019    3    0    1
 -2      1330       257      2454      3733
 -1      8020    3    0    1
 -2      1555      1556      1705      3258
 -1      8021    3    0    1
 -2      2740      2717      3568      3445
 -1      8022    3    0    1
 -2       745      1756      1757      3241
 -1      8023    3    0    1
 -2      3509      2205      3538      3621
 -1      8024    3    0    1
 -2      2788      1453      3173      3349
 -1      8025    3    0    1
 -2      3573      1412      3608      3650
 -1      8026    3    0    1
 -2      1436      1424      3525      3628
 -1      8027    3    0    1
 -2      2859      3512      3555      3628
 -1      8028    3    0    1
 -2      2899      3288      3641      3654
 -1      8029    3    0    1
 -2      1740      1534      1741      3302
 -1      8030    3    0    1
 -2      1496      1495      1621      3028
 -1      8031    3    0    1
 -2      2984      2788      3173      3349
 -1      8032    3    0    1
 -2      1469      2919      3609      3258
 -1      8033    3    0    1
 -2      1627      1628      2930      1813
 -1      8034    3    0    1
 -2      1469      1470      2919      3258
 -1      8035    3    0    1
 -2       183       165      2497      3550
 -1      8036    3    0    1
 -2       162      1304      2497      3550
 -1      8037    3    0    1
 -2       165       162      2497      3550
 -1      8038    3    0    1
 -2      1549      2606      3394      3460
 -1      8039    3    0    1
 -2      3556       329      3632      3645
 -1      8040    3    0    1
 -2      2914      2915      1744      1745
 -1      8041    3    0    1
 -2      2881      1531      3248      3643
 -1      8042    3    0    1
 -2        51       265      1769      1788
 -1      8043    3    0    1
 -2       333       334      2616      3582
 -1      8044    3    0    1
 -2      1562      2680      2789      3369
 -1      8045    3    0    1
 -2        14      3061      1815      3190
 -1      8046    3    0    1
 -2      2981      1667      1772      3232
 -1      8047    3    0    1
 -2      2520      2752      2777      3574
 -1      8048    3    0    1
 -2      2479      2471      2543      3582
 -1      8049    3    0    1
 -2      1419      3501      3507      3557
 -1      8050    3    0    1
 -2      1652      1653      3232      1888
 -1      8051    3    0    1
 -2      1454      1616      2906      3052
 -1      8052    3    0    1
 -2      2934      1521      1725      3290
 -1      8053    3    0    1
 -2      2681      2524      2770      3565
 -1      8054    3    0    1
 -2      3260      1564      1939      1940
 -1      8055    3    0    1
 -2      3387      1935      1941      1961
 -1      8056    3    0    1
 -2      1707      1706      2920      2921
 -1      8057    3    0    1
 -2       335       438      1656      1932
 -1      8058    3    0    1
 -2      1514      1515      1854      3261
 -1      8059    3    0    1
 -2      3527      2806      2877      3089
 -1      8060    3    0    1
 -2      1573      2778      1748      3619
 -1      8061    3    0    1
 -2      2877       576      2892      3089
 -1      8062    3    0    1
 -2      3649       437      3685      3466
 -1      8063    3    0    1
 -2      1507      1506      1739      2990
 -1      8064    3    0    1
 -2      3146      2818      1838      3249
 -1      8065    3    0    1
 -2      2660      2531      2730      3551
 -1      8066    3    0    1
 -2       792      2531      2801      3551
 -1      8067    3    0    1
 -2       792      1052      1327      3551
 -1      8068    3    0    1
 -2       549       450      3214      1858
 -1      8069    3    0    1
 -2      2388      1316      2498      3045
 -1      8070    3    0    1
 -2      2679      1572      2798      3066
 -1      8071    3    0    1
 -2      1464      1465      1745      3150
 -1      8072    3    0    1
 -2      1789      3670      3376      3471
 -1      8073    3    0    1
 -2      2640      3533      3569      3619
 -1      8074    3    0    1
 -2      1574      1573      3316      3334
 -1      8075    3    0    1
 -2      1583      1476      2867      3226
 -1      8076    3    0    1
 -2        94       432      1840      3656
 -1      8077    3    0    1
 -2       792       784      2531      3551
 -1      8078    3    0    1
 -2       784       792      1327      3551
 -1      8079    3    0    1
 -2       332      1642      3586      1861
 -1      8080    3    0    1
 -2      2838      2619      2879      3551
 -1      8081    3    0    1
 -2      1449      1662      3041      3167
 -1      8082    3    0    1
 -2      2531      1327      2730      3551
 -1      8083    3    0    1
 -2      1543      2619      2838      3551
 -1      8084    3    0    1
 -2      1432      1433      2739      1755
 -1      8085    3    0    1
 -2       808       799      3153      1881
 -1      8086    3    0    1
 -2      1327       346      1576      3551
 -1      8087    3    0    1
 -2      1052       792      2801      3551
 -1      8088    3    0    1
 -2       242       247      3529      3121
 -1      8089    3    0    1
 -2      2680      2629      2789      3008
 -1      8090    3    0    1
 -2       784      1327      2531      3551
 -1      8091    3    0    1
 -2      1643       772      2836      3321
 -1      8092    3    0    1
 -2      2494      2587      3565      3637
 -1      8093    3    0    1
 -2      2567      2530      3568      3591
 -1      8094    3    0    1
 -2      1487      1457      3671      3452
 -1      8095    3    0    1
 -2      1476      1477      1595      3215
 -1      8096    3    0    1
 -2       702      1692      2986      3659
 -1      8097    3    0    1
 -2      2564      3535      3187      3625
 -1      8098    3    0    1
 -2      3517      3506      3101      3626
 -1      8099    3    0    1
 -2      1540      1539      1672      3014
 -1      8100    3    0    1
 -2      2657      2786      3566      3604
 -1      8101    3    0    1
 -2      2877      2767      1685      3325
 -1      8102    3    0    1
 -2      2715      1509      2859      3628
 -1      8103    3    0    1
 -2      3351      1909      3395      3397
 -1      8104    3    0    1
 -2      2812      2565      2847      3553
 -1      8105    3    0    1
 -2       702      2986      1798      3659
 -1      8106    3    0    1
 -2      1812      1627      1813      3255
 -1      8107    3    0    1
 -2      3576      3594      3599      3658
 -1      8108    3    0    1
 -2      2566      2687      2703      3553
 -1      8109    3    0    1
 -2       790      1555      2631      3591
 -1      8110    3    0    1
 -2      3185      1730      3297      3668
 -1      8111    3    0    1
 -2      2841      2511      3545      3715
 -1      8112    3    0    1
 -2      1776      1482      3181      3710
 -1      8113    3    0    1
 -2      1935      3387      1941      1942
 -1      8114    3    0    1
 -2      2953      2668      3568      3591
 -1      8115    3    0    1
 -2      2285      3511      3512      3628
 -1      8116    3    0    1
 -2      2734      2162      3523      3731
 -1      8117    3    0    1
 -2      3535      2796      3187      3625
 -1      8118    3    0    1
 -2      2573       986      3542      3324
 -1      8119    3    0    1
 -2      2538      2537      3646      3654
 -1      8120    3    0    1
 -2      2633      2855      3612      3716
 -1      8121    3    0    1
 -2      2890      2694      3585      3446
 -1      8122    3    0    1
 -2      1617      1616      3029      1846
 -1      8123    3    0    1
 -2      3558      2621      3581      3609
 -1      8124    3    0    1
 -2      2717      2788      3568      3050
 -1      8125    3    0    1
 -2      2671      1616      1617      3118
 -1      8126    3    0    1
 -2      3551      1754      3244      3639
 -1      8127    3    0    1
 -2      1513      1512      2932      3273
 -1      8128    3    0    1
 -2      2706      2698      2779      2933
 -1      8129    3    0    1
 -2      1526       727      1527      2933
 -1      8130    3    0    1
 -2      1526      1527      2779      2933
 -1      8131    3    0    1
 -2      2698      1526      2779      2933
 -1      8132    3    0    1
 -2      2698      2706      3531      2933
 -1      8133    3    0    1
 -2       119      3583      3626      3663
 -1      8134    3    0    1
 -2       736      1526      2698      2933
 -1      8135    3    0    1
 -2      1752      1682      1753      3023
 -1      8136    3    0    1
 -2      1847      1848      3265      3274
 -1      8137    3    0    1
 -2      1934      1854      3313       268
 -1      8138    3    0    1
 -2      1482      1481      2895      3287
 -1      8139    3    0    1
 -2       342       343      2598      3723
 -1      8140    3    0    1
 -2      1483      2874      1713      1714
 -1      8141    3    0    1
 -2      2607      2891      1713      1714
 -1      8142    3    0    1
 -2      2891       745      1713      1714
 -1      8143    3    0    1
 -2      2874      2607      1713      1714
 -1      8144    3    0    1
 -2       185       171      3085      1830
 -1      8145    3    0    1
 -2      2697      3516      3557      3571
 -1      8146    3    0    1
 -2      3525      3517      3626      3663
 -1      8147    3    0    1
 -2      1487      1457      3417      3483
 -1      8148    3    0    1
 -2      3539       125      3455      3629
 -1      8149    3    0    1
 -2       276       279      3095      1890
 -1      8150    3    0    1
 -2      3079      3570      3598      3193
 -1      8151    3    0    1
 -2      2714      2715      2859      3555
 -1      8152    3    0    1
 -2      3512       961      2859      3555
 -1      8153    3    0    1
 -2      1744      1464      3150      3446
 -1      8154    3    0    1
 -2      1517      1516      1581      3032
 -1      8155    3    0    1
 -2      2788      1453      1681      3173
 -1      8156    3    0    1
 -2      3583      3525      3626      3663
 -1      8157    3    0    1
 -2      1692      1693      2937      2938
 -1      8158    3    0    1
 -2      1492      1491      1686      3001
 -1      8159    3    0    1
 -2      2710      1546      3149      3312
 -1      8160    3    0    1
 -2      1635      1491      1636      3001
 -1      8161    3    0    1
 -2      2857      2961      3566      3087
 -1      8162    3    0    1
 -2      1562      1500      1563      2939
 -1      8163    3    0    1
 -2       576      2805      2892      3089
 -1      8164    3    0    1
 -2      2572       648      1551      3065
 -1      8165    3    0    1
 -2      2194      2257      3507      3557
 -1      8166    3    0    1
 -2      2731      1541      1643      3321
 -1      8167    3    0    1
 -2      1578      1579      1857      3281
 -1      8168    3    0    1
 -2      1454      2800      1716      1717
 -1      8169    3    0    1
 -2      1454      1455      2800      1717
 -1      8170    3    0    1
 -2      1641      1640      2800      1717
 -1      8171    3    0    1
 -2      2800      1640      1716      1717
 -1      8172    3    0    1
 -2      1439      1438      1857      3281
 -1      8173    3    0    1
 -2      1451      2876      2981      3143
 -1      8174    3    0    1
 -2      3545      2841      3243      3709
 -1      8175    3    0    1
 -2      1458      1457      1915      3409
 -1      8176    3    0    1
 -2      2257      1332      3507      3557
 -1      8177    3    0    1
 -2      1856      1578      1857      3281
 -1      8178    3    0    1
 -2      3516      3519      3381      3709
 -1      8179    3    0    1
 -2      2695      1692      2992      3659
 -1      8180    3    0    1
 -2      2740      3568      3172      3321
 -1      8181    3    0    1
 -2      1313      2388      3280      3632
 -1      8182    3    0    1
 -2       185      1309      3554      3469
 -1      8183    3    0    1
 -2      3641      3654      3341      3458
 -1      8184    3    0    1
 -2        17        72      1927      3461
 -1      8185    3    0    1
 -2      3455      1814      3539      3134
 -1      8186    3    0    1
 -2      3565      2681      3221      3279
 -1      8187    3    0    1
 -2      3260      1939      3457      3717
 -1      8188    3    0    1
 -2      2643      3564      3642      3659
 -1      8189    3    0    1
 -2       961      1287      2512      3555
 -1      8190    3    0    1
 -2       961      2512      2637      3555
 -1      8191    3    0    1
 -2      3220      3093      3627      3326
 -1      8192    3    0    1
 -2      1489      3286      3646      3329
 -1      8193    3    0    1
 -2      1594      3215      3636      3329
 -1      8194    3    0    1
 -2      1697       329      3554      3556
 -1      8195    3    0    1
 -2      3563       329      3632      3644
 -1      8196    3    0    1
 -2      2550      2714      2762      3555
 -1      8197    3    0    1
 -2      2495      2550      2762      3555
 -1      8198    3    0    1
 -2      2762      2714      2822      3555
 -1      8199    3    0    1
 -2      2713      2495      2762      3555
 -1      8200    3    0    1
 -2      3194      2847      3212      3607
 -1      8201    3    0    1
 -2      2550      1424      2714      3555
 -1      8202    3    0    1
 -2      1852      1851      3397      1918
 -1      8203    3    0    1
 -2      1424      2550      2666      3555
 -1      8204    3    0    1
 -2      3516      2697      3546      3571
 -1      8205    3    0    1
 -2      2687      2655      2865      3607
 -1      8206    3    0    1
 -2      3138      3220      3627      3268
 -1      8207    3    0    1
 -2      2565      2847      3553      3607
 -1      8208    3    0    1
 -2       961      2637      2859      3555
 -1      8209    3    0    1
 -2      1517      1581      3132      3607
 -1      8210    3    0    1
 -2      1528      1529      2961      3087
 -1      8211    3    0    1
 -2      2512      1287      2749      3555
 -1      8212    3    0    1
 -2      1456      1697      3554      3556
 -1      8213    3    0    1
 -2      1549      2606      3315      3394
 -1      8214    3    0    1
 -2      1428      1803      1804      3144
 -1      8215    3    0    1
 -2      2861      1141      3018      3090
 -1      8216    3    0    1
 -2      1416      2816      1865      3341
 -1      8217    3    0    1
 -2      2914      2677      3292      3300
 -1      8218    3    0    1
 -2       996      1005      3524      1723
 -1      8219    3    0    1
 -2      2270       996      3524      1723
 -1      8220    3    0    1
 -2       162      2270      3524      1723
 -1      8221    3    0    1
 -2       664       668       996      1723
 -1      8222    3    0    1
 -2       162       664       996      1723
 -1      8223    3    0    1
 -2       668       162       165      1723
 -1      8224    3    0    1
 -2       162       668       664      1723
 -1      8225    3    0    1
 -2      3524       165      1723      1724
 -1      8226    3    0    1
 -2      1005       422      2242      1724
 -1      8227    3    0    1
 -2      2242       422      3524      1724
 -1      8228    3    0    1
 -2      1005      2242      3524      1724
 -1      8229    3    0    1
 -2       183       422       677      1724
 -1      8230    3    0    1
 -2       183       677       685      1724
 -1      8231    3    0    1
 -2      2755      1770      3253      3304
 -1      8232    3    0    1
 -2      1721      2893      1722      2945
 -1      8233    3    0    1
 -2      1524      1721      1722      2945
 -1      8234    3    0    1
 -2      1706      2936      3443      3717
 -1      8235    3    0    1
 -2      1410      2589      2980      3737
 -1      8236    3    0    1
 -2      1672      2735      2926      3014
 -1      8237    3    0    1
 -2      2880      3565      3279      3456
 -1      8238    3    0    1
 -2       460      2667      2745      2946
 -1      8239    3    0    1
 -2       460       459      2667      2946
 -1      8240    3    0    1
 -2      2831      1143      1684      2946
 -1      8241    3    0    1
 -2      2667      1143      2831      2946
 -1      8242    3    0    1
 -2       459      1143      2667      2946
 -1      8243    3    0    1
 -2      2662      2835      3567      3176
 -1      8244    3    0    1
 -2      1506      2840      1738      3710
 -1      8245    3    0    1
 -2      1145       460      2745      2946
 -1      8246    3    0    1
 -2      2893      1721      1722      3063
 -1      8247    3    0    1
 -2      2621      2741      2919      3558
 -1      8248    3    0    1
 -2       335      3562      1782      3676
 -1      8249    3    0    1
 -2      2594       924      2882      3558
 -1      8250    3    0    1
 -2       201      1316      2616      3582
 -1      8251    3    0    1
 -2      3197      1413      3439      3735
 -1      8252    3    0    1
 -2      1761       666      3598      3390
 -1      8253    3    0    1
 -2      1446      3090      3677      3442
 -1      8254    3    0    1
 -2      1744      1464      1745      3150
 -1      8255    3    0    1
 -2      2890      3585      3200      3283
 -1      8256    3    0    1
 -2      2878      2680      3094      3589
 -1      8257    3    0    1
 -2      2635      3566      3581      3609
 -1      8258    3    0    1
 -2      2937      1592      3585      3150
 -1      8259    3    0    1
 -2      1668       119      3115      1860
 -1      8260    3    0    1
 -2      1520      3506      3549      3626
 -1      8261    3    0    1
 -2       170        14      1815      3190
 -1      8262    3    0    1
 -2      1770      3025      3108      3227
 -1      8263    3    0    1
 -2      1619      1469      3003      3037
 -1      8264    3    0    1
 -2      3088      1440      3165      3291
 -1      8265    3    0    1
 -2       944      2282      2965      3039
 -1      8266    3    0    1
 -2      2967      1619      3003      3037
 -1      8267    3    0    1
 -2       173      1736      3561      1821
 -1      8268    3    0    1
 -2      3516      3557      3571      3635
 -1      8269    3    0    1
 -2      3551      1543      1675      2838
 -1      8270    3    0    1
 -2      1415      1665      3545      3683
 -1      8271    3    0    1
 -2        94      1694      3592      3636
 -1      8272    3    0    1
 -2      3181      3232      1936      1937
 -1      8273    3    0    1
 -2       673       684      3361      3426
 -1      8274    3    0    1
 -2      1280       944      3592      3636
 -1      8275    3    0    1
 -2      3581      2844      3384      3713
 -1      8276    3    0    1
 -2      1652      3232      1936      3487
 -1      8277    3    0    1
 -2      1580      1415      3545      3633
 -1      8278    3    0    1
 -2      3603      3560      3623      3681
 -1      8279    3    0    1
 -2      3140       206      1820      1887
 -1      8280    3    0    1
 -2      1464      2914      1744      1745
 -1      8281    3    0    1
 -2       691       702      1798      3209
 -1      8282    3    0    1
 -2      1309       185      3554      3613
 -1      8283    3    0    1
 -2      2879      2838      3551      3088
 -1      8284    3    0    1
 -2      1471      1655      3107      3289
 -1      8285    3    0    1
 -2      2988      1752       799      3023
 -1      8286    3    0    1
 -2       637       648      1537      3022
 -1      8287    3    0    1
 -2      2621      2635      3581      3609
 -1      8288    3    0    1
 -2      3298       630      1899      3462
 -1      8289    3    0    1
 -2      2528      2561      2694      3559
 -1      8290    3    0    1
 -2      2528      2694      2826      3559
 -1      8291    3    0    1
 -2      2667      2831      2850      3559
 -1      8292    3    0    1
 -2      3522      3503      2777      3711
 -1      8293    3    0    1
 -2      2694      2561      2894      3559
 -1      8294    3    0    1
 -2      3525      1436      3583      3078
 -1      8295    3    0    1
 -2      3520      1435      3532      3587
 -1      8296    3    0    1
 -2      2876      2694      2894      3559
 -1      8297    3    0    1
 -2      2902      3230      3237      3703
 -1      8298    3    0    1
 -2      2931      2927      3225      3573
 -1      8299    3    0    1
 -2      3531      2706      3537      3595
 -1      8300    3    0    1
 -2      1491      1492      1636      3001
 -1      8301    3    0    1
 -2      2729      3537      3052      3595
 -1      8302    3    0    1
 -2      1506      2840      1776      1777
 -1      8303    3    0    1
 -2      3230      2902      3646      3703
 -1      8304    3    0    1
 -2      2777      2586      3574      3201
 -1      8305    3    0    1
 -2      2627       558      2924      3646
 -1      8306    3    0    1
 -2      2723      2775      2952      3570
 -1      8307    3    0    1
 -2      3422      1927      3448      3461
 -1      8308    3    0    1
 -2      1770      1559      3253      3304
 -1      8309    3    0    1
 -2      2681      2770      2873      3637
 -1      8310    3    0    1
 -2      2522      3552      3638      3735
 -1      8311    3    0    1
 -2      2587      2526      3565      3637
 -1      8312    3    0    1
 -2      2934      2813      3570      3290
 -1      8313    3    0    1
 -2      2660      2801      3551      3639
 -1      8314    3    0    1
 -2      1414      2685      3135      3367
 -1      8315    3    0    1
 -2      3533      3064      3066      3108
 -1      8316    3    0    1
 -2      3533      2888      3064      3108
 -1      8317    3    0    1
 -2      3664      3610      3718      3496
 -1      8318    3    0    1
 -2      2681      2883      3565      3637
 -1      8319    3    0    1
 -2      3083      2828      3590      3367
 -1      8320    3    0    1
 -2      2900      2992      3178      3292
 -1      8321    3    0    1
 -2      1571      3308      1876      3367
 -1      8322    3    0    1
 -2      2642      1301      3561      3290
 -1      8323    3    0    1
 -2      2895      2746      3235      3488
 -1      8324    3    0    1
 -2      1301      2642      3561      3272
 -1      8325    3    0    1
 -2      3025      2888      3108      3227
 -1      8326    3    0    1
 -2      2912      3171      3622      3627
 -1      8327    3    0    1
 -2      1528       790      2857      2961
 -1      8328    3    0    1
 -2       994      1305      2406      3560
 -1      8329    3    0    1
 -2      2406      1305      3547      3560
 -1      8330    3    0    1
 -2      3523      2406      3547      3560
 -1      8331    3    0    1
 -2      1555      2964      3119      3609
 -1      8332    3    0    1
 -2      2501      3004      3599      3731
 -1      8333    3    0    1
 -2      1581      1516      1582      3032
 -1      8334    3    0    1
 -2      2205      2487      3509      3672
 -1      8335    3    0    1
 -2      3626      3101      3284      1860
 -1      8336    3    0    1
 -2      1432      1433      1529      3007
 -1      8337    3    0    1
 -2      1755      1754      3205      1842
 -1      8338    3    0    1
 -2      3547      1703      3536      1459
 -1      8339    3    0    1
 -2      3067      1640      3116      3595
 -1      8340    3    0    1
 -2      3025      1770      1771      3227
 -1      8341    3    0    1
 -2      1896      1897      1901      3378
 -1      8342    3    0    1
 -2      1770      1559      1771      3227
 -1      8343    3    0    1
 -2      2823      1767      1778      3382
 -1      8344    3    0    1
 -2       119      1668      3618      3626
 -1      8345    3    0    1
 -2      2314       550      2440      2965
 -1      8346    3    0    1
 -2       557      2282      2440      2965
 -1      8347    3    0    1
 -2       557       944      2282      2965
 -1      8348    3    0    1
 -2       450       549      3214      3348
 -1      8349    3    0    1
 -2       977      1614      3240      3296
 -1      8350    3    0    1
 -2       550       557      2440      2965
 -1      8351    3    0    1
 -2       557      1280       944      2965
 -1      8352    3    0    1
 -2      1420      2560      2818      3146
 -1      8353    3    0    1
 -2      2744      2807      3124      3618
 -1      8354    3    0    1
 -2      2218      1018      3602      3644
 -1      8355    3    0    1
 -2      2891      1714      3565      3295
 -1      8356    3    0    1
 -2      2494      2674      2853      3565
 -1      8357    3    0    1
 -2      2799      2607      2874      3565
 -1      8358    3    0    1
 -2       691      1692      1693      2986
 -1      8359    3    0    1
 -2      2788      2568      3568      3050
 -1      8360    3    0    1
 -2      1469      1470      2953      3037
 -1      8361    3    0    1
 -2      2674      2853      3126      3127
 -1      8362    3    0    1
 -2      1735      1734      3038      1799
 -1      8363    3    0    1
 -2      1620      1619      2834      1769
 -1      8364    3    0    1
 -2      1668      3101      3626      1860
 -1      8365    3    0    1
 -2      2752      3522      2777      3574
 -1      8366    3    0    1
 -2      3511      3517      3638      3662
 -1      8367    3    0    1
 -2      3506      3549      3626      3663
 -1      8368    3    0    1
 -2      2730      2660      3551      3639
 -1      8369    3    0    1
 -2      3371      3376      3454      3736
 -1      8370    3    0    1
 -2      1730      2968      1821      1822
 -1      8371    3    0    1
 -2      1547      1548      1882      3330
 -1      8372    3    0    1
 -2      1412      2884      3592      3636
 -1      8373    3    0    1
 -2      2866      1578      3677      3385
 -1      8374    3    0    1
 -2       695       189      1013      1943
 -1      8375    3    0    1
 -2      3517      2626      2780      3078
 -1      8376    3    0    1
 -2      1509      1427      2822      1426
 -1      8377    3    0    1
 -2      1485      2551      2795      3049
 -1      8378    3    0    1
 -2      1474      1485      2795      3049
 -1      8379    3    0    1
 -2      1619      1469      3117      3312
 -1      8380    3    0    1
 -2      3527      2583      3057      3271
 -1      8381    3    0    1
 -2      3331      1169      1898      3435
 -1      8382    3    0    1
 -2      2656      1658      3535      3182
 -1      8383    3    0    1
 -2      3298      3640      3316      3333
 -1      8384    3    0    1
 -2      2510      1002      2910      3031
 -1      8385    3    0    1
 -2      1447      3503      3562      3634
 -1      8386    3    0    1
 -2       648       637      2775      3022
 -1      8387    3    0    1
 -2      2775      2723      2952      3022
 -1      8388    3    0    1
 -2      1687      2955      3584      3674
 -1      8389    3    0    1
 -2       940      1338      2440      3686
 -1      8390    3    0    1
 -2       569       400       955      1797
 -1      8391    3    0    1
 -2      1840      1696      3648      3656
 -1      8392    3    0    1
 -2      3198      3199      3210      3653
 -1      8393    3    0    1
 -2      1621      1622      2923      3177
 -1      8394    3    0    1
 -2      1644      1643      2993      3148
 -1      8395    3    0    1
 -2      1469      1470      1705      3036
 -1      8396    3    0    1
 -2      1445      2642      1712      3561
 -1      8397    3    0    1
 -2      2642      1445      2718      3561
 -1      8398    3    0    1
 -2      2143      2406      2651      3561
 -1      8399    3    0    1
 -2      1643      1541      1644      2993
 -1      8400    3    0    1
 -2      1621       727      1622      3177
 -1      8401    3    0    1
 -2      1714      1483      3565      3295
 -1      8402    3    0    1
 -2      2695      1692      1693      2992
 -1      8403    3    0    1
 -2      3260      2936      1939      3717
 -1      8404    3    0    1
 -2      3588      1280      3437      2965
 -1      8405    3    0    1
 -2      1549         1      1550      2976
 -1      8406    3    0    1
 -2      3188      3026      3651      3667
 -1      8407    3    0    1
 -2         1       353      1689      2976
 -1      8408    3    0    1
 -2       353         1      1549      2976
 -1      8409    3    0    1
 -2      1479      3213      1862      1863
 -1      8410    3    0    1
 -2      2807      1426      3020      3124
 -1      8411    3    0    1
 -2      1426      2807      1794      3124
 -1      8412    3    0    1
 -2      1530      3599      3270      3658
 -1      8413    3    0    1
 -2      2561      2894      3559      3710
 -1      8414    3    0    1
 -2      3552      2522      3638      3662
 -1      8415    3    0    1
 -2      1632      3095      3627      1890
 -1      8416    3    0    1
 -2      1324      1044      3544      3593
 -1      8417    3    0    1
 -2      1525      1524      2945      2978
 -1      8418    3    0    1
 -2      1524      1525      1663      2978
 -1      8419    3    0    1
 -2      2945      1524      2972      2978
 -1      8420    3    0    1
 -2      2647      2945      2972      2978
 -1      8421    3    0    1
 -2      1854      1855      1934      3453
 -1      8422    3    0    1
 -2      2554      2524      2681      3565
 -1      8423    3    0    1
 -2      1483      1630      2874      3565
 -1      8424    3    0    1
 -2      2861       900      2905      3018
 -1      8425    3    0    1
 -2      2526      2891      3565      3295
 -1      8426    3    0    1
 -2      1630      2799      2874      3565
 -1      8427    3    0    1
 -2      2874      2607      1714      3565
 -1      8428    3    0    1
 -2      1564      2921      1939      1940
 -1      8429    3    0    1
 -2       403      3514      3548      3600
 -1      8430    3    0    1
 -2      3142      1839      3242      1872
 -1      8431    3    0    1
 -2      2554      2681      2872      3565
 -1      8432    3    0    1
 -2      1608      1410      2848      2980
 -1      8433    3    0    1
 -2      1829      1841      3635      1866
 -1      8434    3    0    1
 -2      2511      2185      2777      3715
 -1      8435    3    0    1
 -2      1410      2589      2848      2980
 -1      8436    3    0    1
 -2      2857      1528      2961      3087
 -1      8437    3    0    1
 -2      1667      1451      2876      2981
 -1      8438    3    0    1
 -2      2682      2983      3651      3675
 -1      8439    3    0    1
 -2      1873       450      1874      3348
 -1      8440    3    0    1
 -2       115      2383      2546      3433
 -1      8441    3    0    1
 -2       961       119      1290      3583
 -1      8442    3    0    1
 -2      2625      3567      3584      3593
 -1      8443    3    0    1
 -2      3183      1652      1887      1888
 -1      8444    3    0    1
 -2      1851      1852      3350      1918
 -1      8445    3    0    1
 -2      2529      2633      3572      3612
 -1      8446    3    0    1
 -2      1555      2996      3036      3591
 -1      8447    3    0    1
 -2       719       712      2667      2983
 -1      8448    3    0    1
 -2       712       719      1313      2983
 -1      8449    3    0    1
 -2       712      1313      2682      2983
 -1      8450    3    0    1
 -2      1772        69      1887      1888
 -1      8451    3    0    1
 -2      2728      2556      3564      3174
 -1      8452    3    0    1
 -2      1473      1194      2717      2984
 -1      8453    3    0    1
 -2      2175      1330      2454      3733
 -1      8454    3    0    1
 -2      2905      3564      3062      3145
 -1      8455    3    0    1
 -2      3371      3397      1917      1918
 -1      8456    3    0    1
 -2      1194      2582      2717      2984
 -1      8457    3    0    1
 -2      1457      1914      1915      3409
 -1      8458    3    0    1
 -2      2660      1192      2802      2984
 -1      8459    3    0    1
 -2      3006      2829      3673      3730
 -1      8460    3    0    1
 -2      2218      1313      2388      3644
 -1      8461    3    0    1
 -2      3557       347      3571      3616
 -1      8462    3    0    1
 -2      3158      3553      3194      3367
 -1      8463    3    0    1
 -2      2143       986      3577      3579
 -1      8464    3    0    1
 -2      2895      2747      3647      3488
 -1      8465    3    0    1
 -2      1858       450      1859      3306
 -1      8466    3    0    1
 -2      3235      2746      3305      3488
 -1      8467    3    0    1
 -2       208      1029      3696      1929
 -1      8468    3    0    1
 -2      3286      3636      3646      3329
 -1      8469    3    0    1
 -2       709      1738      1739      3060
 -1      8470    3    0    1
 -2      2809      2602      3531      3647
 -1      8471    3    0    1
 -2      1482      1776      3287      3488
 -1      8472    3    0    1
 -2      2990      1506      1776      1777
 -1      8473    3    0    1
 -2      2693      1449      3041      3167
 -1      8474    3    0    1
 -2       558      1489      2624      3187
 -1      8475    3    0    1
 -2      3080      1496      3596      3310
 -1      8476    3    0    1
 -2      3033      2577      3644      3651
 -1      8477    3    0    1
 -2       720      1641       709      3067
 -1      8478    3    0    1
 -2      1801        27      3154      3309
 -1      8479    3    0    1
 -2      1596      1597      3211      1884
 -1      8480    3    0    1
 -2      1738      2948      1739      2990
 -1      8481    3    0    1
 -2      1506      1738      1739      2990
 -1      8482    3    0    1
 -2      2852      3547      3576      3599
 -1      8483    3    0    1
 -2      1507      1506      2990      1777
 -1      8484    3    0    1
 -2      2840      2561      1776      1777
 -1      8485    3    0    1
 -2      1614       151      1615      3259
 -1      8486    3    0    1
 -2      1535      1534      3146      1837
 -1      8487    3    0    1
 -2      2817      1254      1654      2991
 -1      8488    3    0    1
 -2      2817      1654      2818      2991
 -1      8489    3    0    1
 -2      1740      1474      3017      3302
 -1      8490    3    0    1
 -2      3038      1734      1798      1799
 -1      8491    3    0    1
 -2      2818      2560      3543      3146
 -1      8492    3    0    1
 -2      1002      1305      2910      3597
 -1      8493    3    0    1
 -2      1775      2700      3223      3716
 -1      8494    3    0    1
 -2      3575        94      1840      3648
 -1      8495    3    0    1
 -2       340       437      1712      3685
 -1      8496    3    0    1
 -2      1780      1625      1781      3323
 -1      8497    3    0    1
 -2      3011      2973      3597      3314
 -1      8498    3    0    1
 -2      1568       403      3548      1773
 -1      8499    3    0    1
 -2       346      1675      3605      1889
 -1      8500    3    0    1
 -2      2492      2704      3527      3680
 -1      8501    3    0    1
 -2      2046      2396      3634      3338
 -1      8502    3    0    1
 -2      1290       961      3583      3663
 -1      8503    3    0    1
 -2       403      1568      3514      3575
 -1      8504    3    0    1
 -2      2524      2554      2770      3565
 -1      8505    3    0    1
 -2      2607      2526      2891      3565
 -1      8506    3    0    1
 -2       754      2891      1756      3295
 -1      8507    3    0    1
 -2      3198      1418      3199      3653
 -1      8508    3    0    1
 -2      2526      2494      2587      3565
 -1      8509    3    0    1
 -2      1630      1483      2974      3565
 -1      8510    3    0    1
 -2      2642      1603      1301      3290
 -1      8511    3    0    1
 -2      1639      1638      1780      3237
 -1      8512    3    0    1
 -2       344       345      3529      3121
 -1      8513    3    0    1
 -2      1438      1439      1901      3374
 -1      8514    3    0    1
 -2      1657      2828      3044      3083
 -1      8515    3    0    1
 -2      2660      2582      2802      3568
 -1      8516    3    0    1
 -2      2582      2717      2984      3568
 -1      8517    3    0    1
 -2       344       247      3530      1807
 -1      8518    3    0    1
 -2      2710      1211      3558      3149
 -1      8519    3    0    1
 -2      1541      2653      2740      3568
 -1      8520    3    0    1
 -2      1858       549      3293      3322
 -1      8521    3    0    1
 -2      2802      2582      2984      3568
 -1      8522    3    0    1
 -2      1601      1602      1766      3111
 -1      8523    3    0    1
 -2      2722      2536      2759      3620
 -1      8524    3    0    1
 -2      1250      2725      2897      3310
 -1      8525    3    0    1
 -2      1647      1646      1784      3176
 -1      8526    3    0    1
 -2      2569      3527      2806      3325
 -1      8527    3    0    1
 -2      1768        51      1788      1948
 -1      8528    3    0    1
 -2      2897      1252      1729      2995
 -1      8529    3    0    1
 -2      3146      1534      1836      1837
 -1      8530    3    0    1
 -2      2659      3543      3146      3249
 -1      8531    3    0    1
 -2      1238      2679      1737      2997
 -1      8532    3    0    1
 -2      1694        94      1786      3636
 -1      8533    3    0    1
 -2      1610      1573      3580      3419
 -1      8534    3    0    1
 -2      1426      1509      3020      3124
 -1      8535    3    0    1
 -2       196       329      1779      3645
 -1      8536    3    0    1
 -2      3567      2662      3176      3216
 -1      8537    3    0    1
 -2      2733       944      2899      3636
 -1      8538    3    0    1
 -2      2895      3235      1936      3488
 -1      8539    3    0    1
 -2      1515      3054      3168      1833
 -1      8540    3    0    1
 -2      1559      1560      3227      3285
 -1      8541    3    0    1
 -2      2739      2541      1754      3203
 -1      8542    3    0    1
 -2        69      1820      1887      1888
 -1      8543    3    0    1
 -2      3535      2776      2978      3182
 -1      8544    3    0    1
 -2      1532      2792      3535      3182
 -1      8545    3    0    1
 -2      3622      3256      3440      3736
 -1      8546    3    0    1
 -2      1641      3060       720       709
 -1      8547    3    0    1
 -2      3157      3126      1883      3436
 -1      8548    3    0    1
 -2      1532      1449      2792      3182
 -1      8549    3    0    1
 -2       955       400      2356      3578
 -1      8550    3    0    1
 -2       171      1530      3270      3658
 -1      8551    3    0    1
 -2      1730      1494      3185      3297
 -1      8552    3    0    1
 -2      2853      3126      3127      3221
 -1      8553    3    0    1
 -2      2651      1301      3561      3617
 -1      8554    3    0    1
 -2       977      1298      2205      3579
 -1      8555    3    0    1
 -2      2651      3534      3577      3617
 -1      8556    3    0    1
 -2      2700      1478      3282      3407
 -1      8557    3    0    1
 -2      2249      2356      2601      3578
 -1      8558    3    0    1
 -2      1616      1617      3029      3228
 -1      8559    3    0    1
 -2       201      3526      3045      3582
 -1      8560    3    0    1
 -2       201       334      3526      3582
 -1      8561    3    0    1
 -2      2543      2471      3045      3582
 -1      8562    3    0    1
 -2      3551      2801      1754      3639
 -1      8563    3    0    1
 -2      3532      3520      3587      3724
 -1      8564    3    0    1
 -2      1640      3052      3595      3391
 -1      8565    3    0    1
 -2      2594      2641      2882      3566
 -1      8566    3    0    1
 -2      2641      2594      2657      3566
 -1      8567    3    0    1
 -2      2882      2641      3558      3566
 -1      8568    3    0    1
 -2      3558      2641      2962      3566
 -1      8569    3    0    1
 -2      1675      3519      3635      3605
 -1      8570    3    0    1
 -2      2774      2878      3094      3589
 -1      8571    3    0    1
 -2      2786      2857      2962      3566
 -1      8572    3    0    1
 -2      2641      2786      2962      3566
 -1      8573    3    0    1
 -2      1316       201      3045      3582
 -1      8574    3    0    1
 -2      2635      2508      2760      3566
 -1      8575    3    0    1
 -2      2760      2508      2844      3566
 -1      8576    3    0    1
 -2      2508      2635      2738      3566
 -1      8577    3    0    1
 -2      2774      2794      2878      3589
 -1      8578    3    0    1
 -2      2977      3622      3627      3714
 -1      8579    3    0    1
 -2      2657      2594      2882      3566
 -1      8580    3    0    1
 -2      2738      2635      2961      3566
 -1      8581    3    0    1
 -2      3551      1754      3205      3244
 -1      8582    3    0    1
 -2        99      1658      1659      1773
 -1      8583    3    0    1
 -2      2657      1060      3604      3713
 -1      8584    3    0    1
 -2      1451      1609      2890      3200
 -1      8585    3    0    1
 -2      3058      1687      3584      3674
 -1      8586    3    0    1
 -2      1518      1519      1544      3163
 -1      8587    3    0    1
 -2        71      1836      1837      1838
 -1      8588    3    0    1
 -2        99       403      1658      1773
 -1      8589    3    0    1
 -2       403      1568      1658      1773
 -1      8590    3    0    1
 -2      1721      2893      2972      3069
 -1      8591    3    0    1
 -2      2660      3568      3591      3639
 -1      8592    3    0    1
 -2       264      1841      1842      1866
 -1      8593    3    0    1
 -2      1332      2657      3604      2786
 -1      8594    3    0    1
 -2       576      2893      1721      3069
 -1      8595    3    0    1
 -2      1635      1491      3001      3069
 -1      8596    3    0    1
 -2      1576      1440      2837      3567
 -1      8597    3    0    1
 -2      2542      2662      2736      3567
 -1      8598    3    0    1
 -2      2662      2542      2773      3567
 -1      8599    3    0    1
 -2      1448      3610      1867      3679
 -1      8600    3    0    1
 -2       727       736      2692      3177
 -1      8601    3    0    1
 -2      2529      2662      2835      3567
 -1      8602    3    0    1
 -2      3285       619      1899      1900
 -1      8603    3    0    1
 -2      2542      2625      2773      3567
 -1      8604    3    0    1
 -2      1646      1743      2994      3567
 -1      8605    3    0    1
 -2      2581      2583      3068      3680
 -1      8606    3    0    1
 -2      2773      2625      2837      3567
 -1      8607    3    0    1
 -2      1743      1440      2994      3567
 -1      8608    3    0    1
 -2      1576      2790      2994      3567
 -1      8609    3    0    1
 -2      1440      1576      2994      3567
 -1      8610    3    0    1
 -2      2653      1541      2731      3568
 -1      8611    3    0    1
 -2      2788      2668      2984      3568
 -1      8612    3    0    1
 -2      3136      2549      3266      3671
 -1      8613    3    0    1
 -2       344       345       785      1807
 -1      8614    3    0    1
 -2      2567      2530      2568      3568
 -1      8615    3    0    1
 -2      2717      2582      2740      3568
 -1      8616    3    0    1
 -2       242       776       773      1806
 -1      8617    3    0    1
 -2       776       242       247      1806
 -1      8618    3    0    1
 -2       242      2369      3530      1806
 -1      8619    3    0    1
 -2      2567      2568      2731      3568
 -1      8620    3    0    1
 -2      2582      2531      2730      3568
 -1      8621    3    0    1
 -2      3588      2061      3105      3650
 -1      8622    3    0    1
 -2      2668      2530      2953      3568
 -1      8623    3    0    1
 -2      2567      2731      2836      3568
 -1      8624    3    0    1
 -2      3523      3534      3617      3731
 -1      8625    3    0    1
 -2      2568      2530      2668      3568
 -1      8626    3    0    1
 -2      2568      2653      2731      3568
 -1      8627    3    0    1
 -2      3513      3511      3548      3662
 -1      8628    3    0    1
 -2      3538      3096      3296      3640
 -1      8629    3    0    1
 -2      2568      2668      2788      3568
 -1      8630    3    0    1
 -2      1776      1481      1777      3181
 -1      8631    3    0    1
 -2      2847      2812      3553      3194
 -1      8632    3    0    1
 -2      2559      2634      2726      3570
 -1      8633    3    0    1
 -2      3605      3633      3661      3706
 -1      8634    3    0    1
 -2      3564      3145      3642      3659
 -1      8635    3    0    1
 -2      3057      2583      3068      3161
 -1      8636    3    0    1
 -2      2247      2407      3463      3731
 -1      8637    3    0    1
 -2      3366       612      3673      3707
 -1      8638    3    0    1
 -2       115      2546      3690      3433
 -1      8639    3    0    1
 -2      2134      3599      3601      3731
 -1      8640    3    0    1
 -2       971       980      3510      1923
 -1      8641    3    0    1
 -2      3692       340      3652      3577
 -1      8642    3    0    1
 -2      2689      2356      3541      3578
 -1      8643    3    0    1
 -2      1626      1625      1780      3323
 -1      8644    3    0    1
 -2      3564      2580      3358      3678
 -1      8645    3    0    1
 -2      1280       944      2965      3588
 -1      8646    3    0    1
 -2      2965       944      3039      3588
 -1      8647    3    0    1
 -2      2769      2751      1714      3241
 -1      8648    3    0    1
 -2      2255       946      2601      3578
 -1      8649    3    0    1
 -2        93      2255      2689      3578
 -1      8650    3    0    1
 -2       946       955      2601      3578
 -1      8651    3    0    1
 -2       955      2249      2601      3578
 -1      8652    3    0    1
 -2       400       399      3541      3578
 -1      8653    3    0    1
 -2      1748      2778      1749      3024
 -1      8654    3    0    1
 -2       619      1748      1749      3024
 -1      8655    3    0    1
 -2      3533      2765      3569      3065
 -1      8656    3    0    1
 -2      3542      3569      3324      3652
 -1      8657    3    0    1
 -2      1682      2982      3023      3581
 -1      8658    3    0    1
 -2      2988      1752      3023      3581
 -1      8659    3    0    1
 -2      1428      1803      3144      3701
 -1      8660    3    0    1
 -2      2935      1765      3717      3469
 -1      8661    3    0    1
 -2      2572      2551      3569      3065
 -1      8662    3    0    1
 -2      3558      2882      3566      3581
 -1      8663    3    0    1
 -2      2882      3558      3054      3581
 -1      8664    3    0    1
 -2      2621      2635      2760      3581
 -1      8665    3    0    1
 -2      2988       808      1752      3581
 -1      8666    3    0    1
 -2      2844      2760      3566      3581
 -1      8667    3    0    1
 -2       986      3542      3324      3652
 -1      8668    3    0    1
 -2      2684      2489      3580      3652
 -1      8669    3    0    1
 -2      1725      2712      2958      3652
 -1      8670    3    0    1
 -2      3616      3571      3303      3311
 -1      8671    3    0    1
 -2      2982      2760      2988      3581
 -1      8672    3    0    1
 -2      2658      2684      3580      3652
 -1      8673    3    0    1
 -2      1512      1725      2958      3652
 -1      8674    3    0    1
 -2      2489      2513      2523      3569
 -1      8675    3    0    1
 -2      2513      2506      2523      3569
 -1      8676    3    0    1
 -2      2513      2489      2712      3569
 -1      8677    3    0    1
 -2      2506      2513      2551      3569
 -1      8678    3    0    1
 -2      2513      2712      2957      3569
 -1      8679    3    0    1
 -2      3028      2907      3596      3653
 -1      8680    3    0    1
 -2      2572      2513      2957      3569
 -1      8681    3    0    1
 -2      2742      1512      2958      3652
 -1      8682    3    0    1
 -2      2551      2513      2572      3569
 -1      8683    3    0    1
 -2      2657      2896      3566      3581
 -1      8684    3    0    1
 -2      1759      1596      3211      3653
 -1      8685    3    0    1
 -2      2669      2870      3584      3347
 -1      8686    3    0    1
 -2      2882      2657      3566      3581
 -1      8687    3    0    1
 -2      3542      2658      3580      3652
 -1      8688    3    0    1
 -2      2746      1418      3140      3653
 -1      8689    3    0    1
 -2      3304      3233      3462      3730
 -1      8690    3    0    1
 -2      3542       986      3577      3652
 -1      8691    3    0    1
 -2      2732      2643      2989      3642
 -1      8692    3    0    1
 -2      1601      2856      1862      1863
 -1      8693    3    0    1
 -2      3575        94      1786      1840
 -1      8694    3    0    1
 -2      1747      1746      3005      3034
 -1      8695    3    0    1
 -2      1657        26      3083      1880
 -1      8696    3    0    1
 -2      3527      2569      3057      3229
 -1      8697    3    0    1
 -2      1616      1617      3118      1846
 -1      8698    3    0    1
 -2      1481      1482      2895      1936
 -1      8699    3    0    1
 -2      2569      1162      3057      3229
 -1      8700    3    0    1
 -2      3093      3095      3627      3326
 -1      8701    3    0    1
 -2      1494      1493      2750      3034
 -1      8702    3    0    1
 -2      1890      3074      1891      1892
 -1      8703    3    0    1
 -2      2273      1323      2578      3723
 -1      8704    3    0    1
 -2      2754      2583      3527      3271
 -1      8705    3    0    1
 -2      2783      3151      3162      3328
 -1      8706    3    0    1
 -2      2960      3527      3057      3271
 -1      8707    3    0    1
 -2      2971      1459      3599      3270
 -1      8708    3    0    1
 -2      2441      3105      3608      3437
 -1      8709    3    0    1
 -2       332      3586      3602      3631
 -1      8710    3    0    1
 -2      1479      1480      2956      3213
 -1      8711    3    0    1
 -2      2754      1442      3271      3327
 -1      8712    3    0    1
 -2      2588      3109      3647      3391
 -1      8713    3    0    1
 -2      1283      2230      3541      3403
 -1      8714    3    0    1
 -2      1312       330      3399      3725
 -1      8715    3    0    1
 -2      1502      2886      1794      3123
 -1      8716    3    0    1
 -2      3574      3522      3586      3602
 -1      8717    3    0    1
 -2      1652      3235      1936      1937
 -1      8718    3    0    1
 -2      3522      1642      3634      1447
 -1      8719    3    0    1
 -2      1616      3118      1845      1846
 -1      8720    3    0    1
 -2      2746      3140      3235      3305
 -1      8721    3    0    1
 -2       558      1489      3286      3646
 -1      8722    3    0    1
 -2       170        14      1579      3385
 -1      8723    3    0    1
 -2      2742      2663      2825      3652
 -1      8724    3    0    1
 -2      2926      2843      1719      3123
 -1      8725    3    0    1
 -2      1512      1603      3324      3652
 -1      8726    3    0    1
 -2      2886      1426      1794      3123
 -1      8727    3    0    1
 -2      3140      2746      3596      3305
 -1      8728    3    0    1
 -2       173       169      1821      1868
 -1      8729    3    0    1
 -2      2971      2501      3599      3731
 -1      8730    3    0    1
 -2      1237      2679      3533      3066
 -1      8731    3    0    1
 -2      1237      1572      2679      3066
 -1      8732    3    0    1
 -2      1159      1657      2828      3044
 -1      8733    3    0    1
 -2      2683      2490      3543      3570
 -1      8734    3    0    1
 -2      2842      3598      3429      3483
 -1      8735    3    0    1
 -2      2718      2642      3561      3570
 -1      8736    3    0    1
 -2      2820      2718      3561      3570
 -1      8737    3    0    1
 -2      1297      2189      2609      3704
 -1      8738    3    0    1
 -2      2026       982      2609      3704
 -1      8739    3    0    1
 -2      3543      2758      3438      3570
 -1      8740    3    0    1
 -2      2557      3598      3405      3483
 -1      8741    3    0    1
 -2      2758      2726      2951      3570
 -1      8742    3    0    1
 -2      2670      2726      2758      3570
 -1      8743    3    0    1
 -2      2758      2951      2952      3570
 -1      8744    3    0    1
 -2      2509      2723      2813      3570
 -1      8745    3    0    1
 -2      2509      2534      2723      3570
 -1      8746    3    0    1
 -2      1447      1618      3562      3711
 -1      8747    3    0    1
 -2       449       558      2999      3180
 -1      8748    3    0    1
 -2      2820      2634      2842      3570
 -1      8749    3    0    1
 -2      2813      2723      2934      3570
 -1      8750    3    0    1
 -2      2642      2509      2813      3570
 -1      8751    3    0    1
 -2      2534      2683      2723      3570
 -1      8752    3    0    1
 -2      2509      2642      2718      3570
 -1      8753    3    0    1
 -2      2138      1294      2205      3621
 -1      8754    3    0    1
 -2      2509      2718      2750      3570
 -1      8755    3    0    1
 -2      2670      2559      2726      3570
 -1      8756    3    0    1
 -2      2723      2683      2775      3570
 -1      8757    3    0    1
 -2      2680      1586      3094      3369
 -1      8758    3    0    1
 -2      3409      1457      3429      3483
 -1      8759    3    0    1
 -2      1540      1539      3014      3267
 -1      8760    3    0    1
 -2      1429      1428      2653      3050
 -1      8761    3    0    1
 -2      3561      2726      3570      3290
 -1      8762    3    0    1
 -2      3616      1829      3635      1866
 -1      8763    3    0    1
 -2      1710      2581      3068      3111
 -1      8764    3    0    1
 -2      2911      1695      3248      1853
 -1      8765    3    0    1
 -2      3020      1509      1427      3423
 -1      8766    3    0    1
 -2      2709      2621      2919      3609
 -1      8767    3    0    1
 -2      2931      2061      3573      3105
 -1      8768    3    0    1
 -2      3039      2965      3588      3105
 -1      8769    3    0    1
 -2      2951      2934      3570      3290
 -1      8770    3    0    1
 -2      3084      1879      1880      1945
 -1      8771    3    0    1
 -2      2750      1494      3034      1763
 -1      8772    3    0    1
 -2       969      1294      2138      3621
 -1      8773    3    0    1
 -2      3506      3509      3539      3621
 -1      8774    3    0    1
 -2      3358      3564      3678      3695
 -1      8775    3    0    1
 -2      1692      1592      2992      3659
 -1      8776    3    0    1
 -2      1625      1701      1702      3077
 -1      8777    3    0    1
 -2      3574      2586      3660      3464
 -1      8778    3    0    1
 -2      2764      2592      2867      3625
 -1      8779    3    0    1
 -2      2977      3138      3622      3330
 -1      8780    3    0    1
 -2      1626      1625      1702      3077
 -1      8781    3    0    1
 -2      2897      2725      3596      3310
 -1      8782    3    0    1
 -2      3015      3572      3612      3655
 -1      8783    3    0    1
 -2      3605      1889      3389      3706
 -1      8784    3    0    1
 -2      3616      1829      1866      3303
 -1      8785    3    0    1
 -2      1027      1320      3338      3665
 -1      8786    3    0    1
 -2      1812       408      3618      3255
 -1      8787    3    0    1
 -2      1763      2821      1764      3152
 -1      8788    3    0    1
 -2      2736      2529      2751      3572
 -1      8789    3    0    1
 -2      2751      2529      2769      3572
 -1      8790    3    0    1
 -2      2736      2751      2901      3572
 -1      8791    3    0    1
 -2      2529      2633      2769      3572
 -1      8792    3    0    1
 -2      3211      3210      1883      1884
 -1      8793    3    0    1
 -2       754      1714      3035      3572
 -1      8794    3    0    1
 -2      2981      1652      3232      1887
 -1      8795    3    0    1
 -2      3015      3035      3572      3655
 -1      8796    3    0    1
 -2      2273      1040      2598      3723
 -1      8797    3    0    1
 -2      2796      1284      2963      3625
 -1      8798    3    0    1
 -2      2963      1594      3226      3625
 -1      8799    3    0    1
 -2       206      2981      1772      1887
 -1      8800    3    0    1
 -2      3610      3231      3496      3500
 -1      8801    3    0    1
 -2      1565      1564      1735      3224
 -1      8802    3    0    1
 -2       264       347      1536      3203
 -1      8803    3    0    1
 -2      2718      2750      3570      3193
 -1      8804    3    0    1
 -2      3112      1637      3169      3657
 -1      8805    3    0    1
 -2      1646      3567      1783      3176
 -1      8806    3    0    1
 -2      1469      1470      1620      3117
 -1      8807    3    0    1
 -2      1766      1601      1767      3336
 -1      8808    3    0    1
 -2      2820      2718      3570      3193
 -1      8809    3    0    1
 -2       114      2823      1718      1767
 -1      8810    3    0    1
 -2        98      1718      1766      1767
 -1      8811    3    0    1
 -2        98       114      1718      1767
 -1      8812    3    0    1
 -2      2922      1646      3291      3337
 -1      8813    3    0    1
 -2      3523      2162      3534      3731
 -1      8814    3    0    1
 -2      3021      2743      3640      3334
 -1      8815    3    0    1
 -2      2582      2740      3568      3172
 -1      8816    3    0    1
 -2      3389      3381      3709      3499
 -1      8817    3    0    1
 -2       433      3626      3284      1860
 -1      8818    3    0    1
 -2      2770      2524      2873      3669
 -1      8819    3    0    1
 -2       473      2562      2796      3070
 -1      8820    3    0    1
 -2      3166      2732      3642      3659
 -1      8821    3    0    1
 -2      2396      2250      3503      3338
 -1      8822    3    0    1
 -2      3536      1530      3597      3658
 -1      8823    3    0    1
 -2      1539      1727      1728      3267
 -1      8824    3    0    1
 -2      1714      2751      3572      3241
 -1      8825    3    0    1
 -2      2851      3112      3624      3657
 -1      8826    3    0    1
 -2      1309      3554      3594      3613
 -1      8827    3    0    1
 -2      1201      3317      3494      3736
 -1      8828    3    0    1
 -2       439       332      1846      1878
 -1      8829    3    0    1
 -2      2823      1606      1718      3336
 -1      8830    3    0    1
 -2      1734      1735      3038      3106
 -1      8831    3    0    1
 -2      2785      2565      3590      3614
 -1      8832    3    0    1
 -2      2766      2525      3528      3686
 -1      8833    3    0    1
 -2      3566      3558      3581      3609
 -1      8834    3    0    1
 -2      1002      1309      3594      3613
 -1      8835    3    0    1
 -2       754      1714      3572      3241
 -1      8836    3    0    1
 -2      1744      2890      3585      3446
 -1      8837    3    0    1
 -2      3158      1553      3308      3367
 -1      8838    3    0    1
 -2      2890      1744      1745      3446
 -1      8839    3    0    1
 -2      3533      2888      3619      3377
 -1      8840    3    0    1
 -2      1653      1652      3183      1888
 -1      8841    3    0    1
 -2      2218      2752      3574      3602
 -1      8842    3    0    1
 -2      1483      1714      3572      3156
 -1      8843    3    0    1
 -2      1616      2671      2906      3052
 -1      8844    3    0    1
 -2      2712      3569      3652      3339
 -1      8845    3    0    1
 -2      2510      3031      3668      3702
 -1      8846    3    0    1
 -2      3682      2700      3407      3716
 -1      8847    3    0    1
 -2      1613      1612      1879      3344
 -1      8848    3    0    1
 -2      3519      1543      3381      3709
 -1      8849    3    0    1
 -2      1852      1851      3387      1942
 -1      8850    3    0    1
 -2      2981      1887      1893      3487
 -1      8851    3    0    1
 -2      2712      2957      3569      3339
 -1      8852    3    0    1
 -2      1596      1759      3310      3653
 -1      8853    3    0    1
 -2      1418      2636      3199      3653
 -1      8854    3    0    1
 -2      2658      2489      2684      3652
 -1      8855    3    0    1
 -2      1603       986      3324      3652
 -1      8856    3    0    1
 -2      2201       407      3521      3688
 -1      8857    3    0    1
 -2      1811      1810      3247      1908
 -1      8858    3    0    1
 -2      2907      1759      3211      3653
 -1      8859    3    0    1
 -2      3692      2825       340      1650
 -1      8860    3    0    1
 -2        24      1553      2702      1800
 -1      8861    3    0    1
 -2      1768      1788      3349      1948
 -1      8862    3    0    1
 -2       210      1023      2471      3582
 -1      8863    3    0    1
 -2       334       333      3526      3582
 -1      8864    3    0    1
 -2       334       201      2616      3582
 -1      8865    3    0    1
 -2      2471      1023      2616      3582
 -1      8866    3    0    1
 -2      2671      1616      3118      1845
 -1      8867    3    0    1
 -2       337       336      3694      3481
 -1      8868    3    0    1
 -2      1665      2669      3584      3593
 -1      8869    3    0    1
 -2      2625      1576      2790      3593
 -1      8870    3    0    1
 -2      3608      3610      3664      3496
 -1      8871    3    0    1
 -2       907      1645      2960      3057
 -1      8872    3    0    1
 -2        44       217      1839      1871
 -1      8873    3    0    1
 -2      1541      1542      2993      3162
 -1      8874    3    0    1
 -2      2998      1594      3636      3329
 -1      8875    3    0    1
 -2       986      1301      2143      3577
 -1      8876    3    0    1
 -2      3243      2819      3715      3468
 -1      8877    3    0    1
 -2      1627      1294      3538      3184
 -1      8878    3    0    1
 -2       332       439      1846      1861
 -1      8879    3    0    1
 -2      1468      2946      3071      3143
 -1      8880    3    0    1
 -2      3071      2946      3585      3143
 -1      8881    3    0    1
 -2      1760      1759      3076      3157
 -1      8882    3    0    1
 -2      2727      2840      1738      3060
 -1      8883    3    0    1
 -2      1738      2840      1739      3060
 -1      8884    3    0    1
 -2      2730      2582      3568      3172
 -1      8885    3    0    1
 -2      2889      2823      3657      3382
 -1      8886    3    0    1
 -2      1544      1518      1545      3250
 -1      8887    3    0    1
 -2      2654      3035      3655      3674
 -1      8888    3    0    1
 -2      2396      3503      3634      3338
 -1      8889    3    0    1
 -2      3238      1825      3407      3701
 -1      8890    3    0    1
 -2      2576      2977      3627      3714
 -1      8891    3    0    1
 -2      3422      1461      1964      3737
 -1      8892    3    0    1
 -2      2777      2185      2782      3715
 -1      8893    3    0    1
 -2      1491      3001      3048      3319
 -1      8894    3    0    1
 -2      3279      3565      3637      3456
 -1      8895    3    0    1
 -2      3095       276      1890      1891
 -1      8896    3    0    1
 -2      1284      2796      3535      3575
 -1      8897    3    0    1
 -2      2547      1284      3514      3575
 -1      8898    3    0    1
 -2      3505      1336      3679      3693
 -1      8899    3    0    1
 -2      3389      3709      1947      3499
 -1      8900    3    0    1
 -2      1413      1568      2648      3575
 -1      8901    3    0    1
 -2      1413      2628      1696      3575
 -1      8902    3    0    1
 -2      2646      1413      2648      3575
 -1      8903    3    0    1
 -2      3506      1520      3101      3626
 -1      8904    3    0    1
 -2      3549      3506      3621      3663
 -1      8905    3    0    1
 -2      1683      1682      3239      3301
 -1      8906    3    0    1
 -2      2781      1068      3627      3315
 -1      8907    3    0    1
 -2      1518      1519      3011      3250
 -1      8908    3    0    1
 -2      1627      3538      2930      3184
 -1      8909    3    0    1
 -2       673      1896      1897      3361
 -1      8910    3    0    1
 -2      1305      3536      1703      3597
 -1      8911    3    0    1
 -2      2292      1309      3554      3576
 -1      8912    3    0    1
 -2      3536      2852      3547      3576
 -1      8913    3    0    1
 -2      1524      2972      2978      3182
 -1      8914    3    0    1
 -2      2243      2292      3536      3576
 -1      8915    3    0    1
 -2      1309      2243      3536      3576
 -1      8916    3    0    1
 -2      2243      1309      2292      3576
 -1      8917    3    0    1
 -2      2673      2292      2852      3576
 -1      8918    3    0    1
 -2        44      1698      3191      1872
 -1      8919    3    0    1
 -2       114      2823      1767      1778
 -1      8920    3    0    1
 -2       720       709      2948      3067
 -1      8921    3    0    1
 -2      2553      3612      3682      3716
 -1      8922    3    0    1
 -2      1470      1469      2919      3117
 -1      8923    3    0    1
 -2      2727      2528      3675      3710
 -1      8924    3    0    1
 -2      1564      1565      2989      3224
 -1      8925    3    0    1
 -2       248       237      3698      3723
 -1      8926    3    0    1
 -2      3519      2574      3545      3709
 -1      8927    3    0    1
 -2      2574      2841      3545      3709
 -1      8928    3    0    1
 -2       347      3203      3604      1536
 -1      8929    3    0    1
 -2       343      2465      2578      3698
 -1      8930    3    0    1
 -2      1730      1494      3042      3193
 -1      8931    3    0    1
 -2      3126      3157      1883      1904
 -1      8932    3    0    1
 -2      2980      1608      3061      3190
 -1      8933    3    0    1
 -2      3053      2682      3644      3651
 -1      8934    3    0    1
 -2      1594      3073      1786      1787
 -1      8935    3    0    1
 -2      1494      2750      3042      3193
 -1      8936    3    0    1
 -2      2745      1145      2946      3071
 -1      8937    3    0    1
 -2      3517      1424      3525      3078
 -1      8938    3    0    1
 -2       399       400      3541      3403
 -1      8939    3    0    1
 -2      1633      1632      3074      1891
 -1      8940    3    0    1
 -2      3322      1789      3670      3380
 -1      8941    3    0    1
 -2      2764      1594      3073      3625
 -1      8942    3    0    1
 -2       264       347      3203      1841
 -1      8943    3    0    1
 -2      2581      1430      1710      3068
 -1      8944    3    0    1
 -2       114      1709      1767      3068
 -1      8945    3    0    1
 -2      1430      2581      2583      3068
 -1      8946    3    0    1
 -2       994       173      3561      1821
 -1      8947    3    0    1
 -2      1685      1479      2956      3319
 -1      8948    3    0    1
 -2       340      1650      1680      3577
 -1      8949    3    0    1
 -2      3009      3011      3597      3250
 -1      8950    3    0    1
 -2      1523       332      3631      1878
 -1      8951    3    0    1
 -2      3559      2831      3086      3487
 -1      8952    3    0    1
 -2      1632      1421      3627      3326
 -1      8953    3    0    1
 -2      3230      2954      3641      3646
 -1      8954    3    0    1
 -2        23      3234      1879      1880
 -1      8955    3    0    1
 -2      2584      2143      2651      3577
 -1      8956    3    0    1
 -2       986       340      1301      3577
 -1      8957    3    0    1
 -2      2711      2893      3063      3069
 -1      8958    3    0    1
 -2      2711      2596      2893      3069
 -1      8959    3    0    1
 -2      3594      3613      3270      3658
 -1      8960    3    0    1
 -2      1734      1798      3166      3186
 -1      8961    3    0    1
 -2      1422      1421      1818      3207
 -1      8962    3    0    1
 -2      2489      2658      2663      3652
 -1      8963    3    0    1
 -2      1459      1530      3536      3658
 -1      8964    3    0    1
 -2      3613       171      3270      3658
 -1      8965    3    0    1
 -2      2562       908      2720      3070
 -1      8966    3    0    1
 -2       237      1040      2273      3723
 -1      8967    3    0    1
 -2       173      1703      3603      1868
 -1      8968    3    0    1
 -2      3603       169      3352      3623
 -1      8969    3    0    1
 -2      1440      1576      3155      3165
 -1      8970    3    0    1
 -2      2815      2685      3084      3590
 -1      8971    3    0    1
 -2       961       119      3583      3628
 -1      8972    3    0    1
 -2      1493      1730      1731      3297
 -1      8973    3    0    1
 -2      1576      3551      2970      3155
 -1      8974    3    0    1
 -2      2915      1808      1809      1850
 -1      8975    3    0    1
 -2      3558      3566      3119      3609
 -1      8976    3    0    1
 -2      1491      1685      3001      3319
 -1      8977    3    0    1
 -2      1439      1438      3137      3374
 -1      8978    3    0    1
 -2      1290       969      3549      3618
 -1      8979    3    0    1
 -2      2968      1821      1822      1868
 -1      8980    3    0    1
 -2       151      1614      1615      3240
 -1      8981    3    0    1
 -2      2818      1575      3146      1838
 -1      8982    3    0    1
 -2      2541      1754      3203      3604
 -1      8983    3    0    1
 -2      2960      3527      3271      3327
 -1      8984    3    0    1
 -2       977       151      1298      3579
 -1      8985    3    0    1
 -2      2487      2205      2584      3579
 -1      8986    3    0    1
 -2      2853      3565      3126      3221
 -1      8987    3    0    1
 -2      2823      2889      3336      3382
 -1      8988    3    0    1
 -2      3559      3202      3675      3710
 -1      8989    3    0    1
 -2      2768      2658      2839      3580
 -1      8990    3    0    1
 -2      1557      2768      2839      3580
 -1      8991    3    0    1
 -2      2684      1557      2839      3580
 -1      8992    3    0    1
 -2      1660      3513      3600      3662
 -1      8993    3    0    1
 -2      1675       346      2970      1889
 -1      8994    3    0    1
 -2       738      2342      2618      3338
 -1      8995    3    0    1
 -2      2684      2489      2778      3580
 -1      8996    3    0    1
 -2      2489      2523      2778      3580
 -1      8997    3    0    1
 -2      2232       352      2440      3686
 -1      8998    3    0    1
 -2      1413      1568      3548      3662
 -1      8999    3    0    1
 -2      1557      1610      2768      3580
 -1      9000    3    0    1
 -2      1610      1573      2768      3580
 -1      9001    3    0    1
 -2       684      3361      3426      3702
 -1      9002    3    0    1
 -2      3234      1711      1879      3344
 -1      9003    3    0    1
 -2      2658      2684      2839      3580
 -1      9004    3    0    1
 -2      2896      2882      3054      3581
 -1      9005    3    0    1
 -2      2982      2988      3023      3581
 -1      9006    3    0    1
 -2      2760      2844      2988      3581
 -1      9007    3    0    1
 -2      1752      2896      3054      3581
 -1      9008    3    0    1
 -2      2844      2845      2988      3581
 -1      9009    3    0    1
 -2      2657      2882      2896      3581
 -1      9010    3    0    1
 -2      1682      1752      3054      3581
 -1      9011    3    0    1
 -2       808      2896      1752      3581
 -1      9012    3    0    1
 -2       549       450      1873      3348
 -1      9013    3    0    1
 -2      1678      2869      2870      3584
 -1      9014    3    0    1
 -2      1678       226      2869      3584
 -1      9015    3    0    1
 -2       673       684      1896      3361
 -1      9016    3    0    1
 -2      1662      1524      2978      3182
 -1      9017    3    0    1
 -2      1772      2981      3232      1887
 -1      9018    3    0    1
 -2      1652      3140      3183      1887
 -1      9019    3    0    1
 -2      2746      3596      3305      3488
 -1      9020    3    0    1
 -2      1789      1873      1874      3348
 -1      9021    3    0    1
 -2      2747      2895      3287      3488
 -1      9022    3    0    1
 -2      1687      2757      3058      3584
 -1      9023    3    0    1
 -2      2654      1324      2955      3584
 -1      9024    3    0    1
 -2      2669      2542      2757      3584
 -1      9025    3    0    1
 -2      2625      2542      2669      3584
 -1      9026    3    0    1
 -2      1665      2669      2869      3584
 -1      9027    3    0    1
 -2      1324      1678      2955      3584
 -1      9028    3    0    1
 -2      1002      1309      3536      3594
 -1      9029    3    0    1
 -2      1415      2625      2669      3584
 -1      9030    3    0    1
 -2      2869      2669      2870      3584
 -1      9031    3    0    1
 -2      2565      3553      3590      3614
 -1      9032    3    0    1
 -2      1678      1679      3264      1895
 -1      9033    3    0    1
 -2      1466      1687      2955      3584
 -1      9034    3    0    1
 -2      1790      1789      1874      3348
 -1      9035    3    0    1
 -2      1068      1336      3627      3679
 -1      9036    3    0    1
 -2      1592      1464      3000      3585
 -1      9037    3    0    1
 -2      3523      1445      1736      3681
 -1      9038    3    0    1
 -2       558       449      1638      3180
 -1      9039    3    0    1
 -2      2809       736      2950      3080
 -1      9040    3    0    1
 -2      1462      1463      2799      3159
 -1      9041    3    0    1
 -2      2891       754      1714      3295
 -1      9042    3    0    1
 -2      1462      2799      3565      3159
 -1      9043    3    0    1
 -2      2799      2674      3565      3159
 -1      9044    3    0    1
 -2      3512      3511      3513      3628
 -1      9045    3    0    1
 -2      3506      1600      3549      3629
 -1      9046    3    0    1
 -2      1761      3152      3449      1746
 -1      9047    3    0    1
 -2      1826      1789      1827      3277
 -1      9048    3    0    1
 -2      1681      2788      3173      3346
 -1      9049    3    0    1
 -2      3006      3298      3640      3316
 -1      9050    3    0    1
 -2      2232      2766      3528      3686
 -1      9051    3    0    1
 -2      3266      1487      1885      3671
 -1      9052    3    0    1
 -2      3532      1435      3615      3734
 -1      9053    3    0    1
 -2      3191        44      1872      1903
 -1      9054    3    0    1
 -2      1421      1422      3220      3326
 -1      9055    3    0    1
 -2      1730      3561      3147      1821
 -1      9056    3    0    1
 -2      1540      1727      3267      3327
 -1      9057    3    0    1
 -2      1810      1811      3247      3470
 -1      9058    3    0    1
 -2      1612      3234      3271      1880
 -1      9059    3    0    1
 -2      1661      1414      3083      3084
 -1      9060    3    0    1
 -2       276       279      1890      1892
 -1      9061    3    0    1
 -2      1612      3044      3083      1880
 -1      9062    3    0    1
 -2      1612      3083      3084      1880
 -1      9063    3    0    1
 -2      3235      3305      1936      3488
 -1      9064    3    0    1
 -2      3109      2995      3647      3488
 -1      9065    3    0    1
 -2      3522      2777      3201      3711
 -1      9066    3    0    1
 -2      3047      3357      3494      3736
 -1      9067    3    0    1
 -2       702       691      2938      3209
 -1      9068    3    0    1
 -2      2916      3559      3585      3667
 -1      9069    3    0    1
 -2       691      1798      1799      3209
 -1      9070    3    0    1
 -2      2931      2927      3573      3735
 -1      9071    3    0    1
 -2      3124      2505      3618      2807
 -1      9072    3    0    1
 -2      3064      3533      3102      3619
 -1      9073    3    0    1
 -2      2527      2877      2892      3089
 -1      9074    3    0    1
 -2      1696      3575      1786      1840
 -1      9075    3    0    1
 -2      1141      1446      3018      3090
 -1      9076    3    0    1
 -2      2292      3554      3280      3632
 -1      9077    3    0    1
 -2      2966       684      1896      3678
 -1      9078    3    0    1
 -2      3006      2743      3640      3673
 -1      9079    3    0    1
 -2      1449      2776      2792      3182
 -1      9080    3    0    1
 -2      1917      1851      3435      3708
 -1      9081    3    0    1
 -2      3538      3096      3640      3673
 -1      9082    3    0    1
 -2      1483      2974      3565      3295
 -1      9083    3    0    1
 -2      1792      1803      3282      3701
 -1      9084    3    0    1
 -2      2645      2748      3667      3675
 -1      9085    3    0    1
 -2      2241      2600      3516      3635
 -1      9086    3    0    1
 -2      2153       712      2388      3280
 -1      9087    3    0    1
 -2       347      1052      1841      3635
 -1      9088    3    0    1
 -2      2681      2872      3565      3221
 -1      9089    3    0    1
 -2      1761       655      1762      3139
 -1      9090    3    0    1
 -2       340       986      1603      3652
 -1      9091    3    0    1
 -2      1643      1541      2993      3372
 -1      9092    3    0    1
 -2      2714      1436      2715      3628
 -1      9093    3    0    1
 -2       961      2290      3512      3628
 -1      9094    3    0    1
 -2      3511      2285      3517      3628
 -1      9095    3    0    1
 -2      2714      2715      3555      3628
 -1      9096    3    0    1
 -2       119      1509      2715      3628
 -1      9097    3    0    1
 -2      2967      2668      3003      3349
 -1      9098    3    0    1
 -2       961      3512      2859      3628
 -1      9099    3    0    1
 -2      2967      1619      1768      3349
 -1      9100    3    0    1
 -2      2485      2201      3510      3411
 -1      9101    3    0    1
 -2      1280      3588      3437      3592
 -1      9102    3    0    1
 -2      2685      2565      2812      3590
 -1      9103    3    0    1
 -2      3013      1442      3044      3590
 -1      9104    3    0    1
 -2      1727      1442      3013      3590
 -1      9105    3    0    1
 -2      2565      2685      2785      3590
 -1      9106    3    0    1
 -2      2680      1586      2878      3094
 -1      9107    3    0    1
 -2      1586       932      2878      3094
 -1      9108    3    0    1
 -2      1511      1448      3627      3679
 -1      9109    3    0    1
 -2      2785      2685      2815      3590
 -1      9110    3    0    1
 -2      2665      2707      2774      3096
 -1      9111    3    0    1
 -2       977      1294      2665      3096
 -1      9112    3    0    1
 -2       977      2665      2774      3096
 -1      9113    3    0    1
 -2      1294       977      3538      3096
 -1      9114    3    0    1
 -2       666       655      1885      3364
 -1      9115    3    0    1
 -2      1821       169      1822      1868
 -1      9116    3    0    1
 -2      2955      1466      3584      1894
 -1      9117    3    0    1
 -2      2665      1294      2707      3096
 -1      9118    3    0    1
 -2      1703       173      1821      1868
 -1      9119    3    0    1
 -2      2964      1469      3117      3609
 -1      9120    3    0    1
 -2      3002      3021      3640      3354
 -1      9121    3    0    1
 -2      3098      1466      1894      1895
 -1      9122    3    0    1
 -2      2750      2509      3570      3598
 -1      9123    3    0    1
 -2      1704      1469      2964      3609
 -1      9124    3    0    1
 -2      1767      1710        98       114
 -1      9125    3    0    1
 -2      2918      1555      3119      3609
 -1      9126    3    0    1
 -2      3566      2635      3119      3609
 -1      9127    3    0    1
 -2      2061      3573      3650      3735
 -1      9128    3    0    1
 -2      1564      1734      3224      3642
 -1      9129    3    0    1
 -2       748      1320      2342      3338
 -1      9130    3    0    1
 -2      1417      1416      2816      1864
 -1      9131    3    0    1
 -2      1766        98      1767      3111
 -1      9132    3    0    1
 -2      1413      3197      3662      3735
 -1      9133    3    0    1
 -2       969      1290      2687      3618
 -1      9134    3    0    1
 -2      3538      2929      3184      3673
 -1      9135    3    0    1
 -2        14       170      1579      3190
 -1      9136    3    0    1
 -2      2781      2912      3622      3627
 -1      9137    3    0    1
 -2      1068      1336      2781      3627
 -1      9138    3    0    1
 -2      3061      1608      1815      3190
 -1      9139    3    0    1
 -2      2848      1608      2980      3190
 -1      9140    3    0    1
 -2      1010      1313      3280      3632
 -1      9141    3    0    1
 -2      3554      1010      3280      3632
 -1      9142    3    0    1
 -2       434       346      2860      1947
 -1      9143    3    0    1
 -2      2638      2505      3607      3614
 -1      9144    3    0    1
 -2       346       434      3706      1947
 -1      9145    3    0    1
 -2      1551      2775      2903      3438
 -1      9146    3    0    1
 -2      2185      2228      2819      3243
 -1      9147    3    0    1
 -2      2528      3559      3675      3710
 -1      9148    3    0    1
 -2      1601      1767      3336      3382
 -1      9149    3    0    1
 -2      1573      2768      3580      3102
 -1      9150    3    0    1
 -2      3266      1487      3671      3452
 -1      9151    3    0    1
 -2      3314      3597      3408      3702
 -1      9152    3    0    1
 -2      3127      3126      3157      3436
 -1      9153    3    0    1
 -2      1652      1653      3183      3235
 -1      9154    3    0    1
 -2       946       955      3578      1796
 -1      9155    3    0    1
 -2        93       946      2255      1796
 -1      9156    3    0    1
 -2      1557      1610      1611      3103
 -1      9157    3    0    1
 -2      3439      1413      3485      3735
 -1      9158    3    0    1
 -2      2886      1502      1794      1795
 -1      9159    3    0    1
 -2      3064      3533      3619      3377
 -1      9160    3    0    1
 -2      3026      2682      3651      3667
 -1      9161    3    0    1
 -2        93      2255      3578      1796
 -1      9162    3    0    1
 -2       556       560       946      1796
 -1      9163    3    0    1
 -2        93       556       946      1796
 -1      9164    3    0    1
 -2       560        93       398      1796
 -1      9165    3    0    1
 -2        93       560       556      1796
 -1      9166    3    0    1
 -2       399       398      3578      1797
 -1      9167    3    0    1
 -2      3578       398      1796      1797
 -1      9168    3    0    1
 -2       399       569       577      1797
 -1      9169    3    0    1
 -2       399       400       569      1797
 -1      9170    3    0    1
 -2      2968      1703      1821      1868
 -1      9171    3    0    1
 -2      3288      2941      3641      3356
 -1      9172    3    0    1
 -2      3620      2848      3320      3355
 -1      9173    3    0    1
 -2      3620      3137      3281      3355
 -1      9174    3    0    1
 -2      3547      1459      3599      3352
 -1      9175    3    0    1
 -2      2553      3144      3238      3701
 -1      9176    3    0    1
 -2      3137      1438      3281      3355
 -1      9177    3    0    1
 -2      1438      1856      3281      3355
 -1      9178    3    0    1
 -2       237      3392      2273      2615
 -1      9179    3    0    1
 -2      1518      1810      1811      3314
 -1      9180    3    0    1
 -2      2942      3180      3624      3323
 -1      9181    3    0    1
 -2       332      1523      1845      1878
 -1      9182    3    0    1
 -2      1553      1554      3308      1876
 -1      9183    3    0    1
 -2      2479      2361      2612      3696
 -1      9184    3    0    1
 -2      3079      1761      3598      3390
 -1      9185    3    0    1
 -2      3527      2704      3325      3680
 -1      9186    3    0    1
 -2      2682      3651      3667      3675
 -1      9187    3    0    1
 -2      1565      1564      3051      3106
 -1      9188    3    0    1
 -2      3170      3120      3668      3449
 -1      9189    3    0    1
 -2      3002      1614      3240      3354
 -1      9190    3    0    1
 -2      2813      2934      3273      3290
 -1      9191    3    0    1
 -2       619      3298      1899      1900
 -1      9192    3    0    1
 -2       354       352      3528      3686
 -1      9193    3    0    1
 -2      1687      1623      2943      3104
 -1      9194    3    0    1
 -2      2943      1623      3040      3104
 -1      9195    3    0    1
 -2      2685      3590      3135      3367
 -1      9196    3    0    1
 -2      3672      1423      3431      3700
 -1      9197    3    0    1
 -2      2816      3274      1864      1865
 -1      9198    3    0    1
 -2      1570        24      2702      1800
 -1      9199    3    0    1
 -2      1914      3461      1964      3737
 -1      9200    3    0    1
 -2      1935        29      1941      1961
 -1      9201    3    0    1
 -2      1603      1604      2932      3272
 -1      9202    3    0    1
 -2       450      3214      1858      1859
 -1      9203    3    0    1
 -2      1471      1472      2808      3107
 -1      9204    3    0    1
 -2      3565      2883      3279      3637
 -1      9205    3    0    1
 -2      2589      1410      3448      3737
 -1      9206    3    0    1
 -2      2771      3533      2939      3108
 -1      9207    3    0    1
 -2      2939      3533      3066      3108
 -1      9208    3    0    1
 -2      1455      1454      2800      3228
 -1      9209    3    0    1
 -2      2771      2939      3025      3108
 -1      9210    3    0    1
 -2      1669      1670      3113      1871
 -1      9211    3    0    1
 -2      1506      2990      1776      3109
 -1      9212    3    0    1
 -2      1489      2627      2868      3646
 -1      9213    3    0    1
 -2      1706      2921      1939      3489
 -1      9214    3    0    1
 -2      2989      1564      3224      3642
 -1      9215    3    0    1
 -2      2733      3286      3636      3646
 -1      9216    3    0    1
 -2      1602      1601      2856      3111
 -1      9217    3    0    1
 -2      1710      1767        98      3111
 -1      9218    3    0    1
 -2      1519      1544      3163      3469
 -1      9219    3    0    1
 -2      1697      1456      3554      3717
 -1      9220    3    0    1
 -2      1460      1637      1774      3112
 -1      9221    3    0    1
 -2      1600       408      3255      3618
 -1      9222    3    0    1
 -2      1323       343      2578      3723
 -1      9223    3    0    1
 -2      1459      3536      3547      3658
 -1      9224    3    0    1
 -2      1637      1774      3112      3160
 -1      9225    3    0    1
 -2        28        27      1702      3160
 -1      9226    3    0    1
 -2      1499      1671      2908      3113
 -1      9227    3    0    1
 -2      2510      2536      2722      3620
 -1      9228    3    0    1
 -2      1839        44      1871      1872
 -1      9229    3    0    1
 -2      1452      3504      3574      3644
 -1      9230    3    0    1
 -2      3504      1452      3563      3644
 -1      9231    3    0    1
 -2      2580      2695      3659      3358
 -1      9232    3    0    1
 -2      1336       279      3679      3693
 -1      9233    3    0    1
 -2      2948       720      3067      3391
 -1      9234    3    0    1
 -2      1641      1640      1717      3116
 -1      9235    3    0    1
 -2      1716      2827      1717      3116
 -1      9236    3    0    1
 -2      1640      1716      1717      3116
 -1      9237    3    0    1
 -2      1714      3035      3572      3156
 -1      9238    3    0    1
 -2      2741      2919      3558      3117
 -1      9239    3    0    1
 -2      3591      2597      3396      3450
 -1      9240    3    0    1
 -2      2611      3254      3668      3671
 -1      9241    3    0    1
 -2      1567      2620      3313      3453
 -1      9242    3    0    1
 -2      1431      2677      3018      3442
 -1      9243    3    0    1
 -2       329       196      1779      3443
 -1      9244    3    0    1
 -2      1599      1598      2890      3283
 -1      9245    3    0    1
 -2      1555       790      2918      3119
 -1      9246    3    0    1
 -2      2710      3558      2962      3119
 -1      9247    3    0    1
 -2       738      2046      3634      3338
 -1      9248    3    0    1
 -2      2962      3558      3566      3119
 -1      9249    3    0    1
 -2      3503      3562      3634      3665
 -1      9250    3    0    1
 -2      1765       185      1830      3613
 -1      9251    3    0    1
 -2       185       171      1830      3613
 -1      9252    3    0    1
 -2      2857      2962      3566      3119
 -1      9253    3    0    1
 -2      3503      3634      3338      3665
 -1      9254    3    0    1
 -2      2918       790      2961      3119
 -1      9255    3    0    1
 -2       790      2857      2961      3119
 -1      9256    3    0    1
 -2      2961      2857      3566      3119
 -1      9257    3    0    1
 -2      2635      2961      3566      3119
 -1      9258    3    0    1
 -2      2205      3509      3538      3672
 -1      9259    3    0    1
 -2      2635      2918      2961      3119
 -1      9260    3    0    1
 -2      2702      1570      1800      3589
 -1      9261    3    0    1
 -2      1553      1504      2622      3589
 -1      9262    3    0    1
 -2      3252      2941      3641      3708
 -1      9263    3    0    1
 -2      3387      3097      3398      3708
 -1      9264    3    0    1
 -2      3350      1851      1917      3708
 -1      9265    3    0    1
 -2      1553      2702      1800      3589
 -1      9266    3    0    1
 -2      1553      2622      2702      3589
 -1      9267    3    0    1
 -2      2794      2925      1800      3589
 -1      9268    3    0    1
 -2      2629      2518      2755      3589
 -1      9269    3    0    1
 -2      2595      2518      2629      3589
 -1      9270    3    0    1
 -2      3641      3277      3356      3708
 -1      9271    3    0    1
 -2      2518      2595      2716      3589
 -1      9272    3    0    1
 -2      2878      1231      1800      3589
 -1      9273    3    0    1
 -2      1231      2794      1800      3589
 -1      9274    3    0    1
 -2      1301      2651      3577      3617
 -1      9275    3    0    1
 -2      2791      3097      3110      3708
 -1      9276    3    0    1
 -2      2595      2622      2716      3589
 -1      9277    3    0    1
 -2      1570      2878      1800      3589
 -1      9278    3    0    1
 -2      2925      1553      1800      3589
 -1      9279    3    0    1
 -2      1444      2595      2629      3589
 -1      9280    3    0    1
 -2      1444      2680      2878      3589
 -1      9281    3    0    1
 -2      2595      1570      2702      3589
 -1      9282    3    0    1
 -2      1570      1444      2878      3589
 -1      9283    3    0    1
 -2      2595      1444      1570      3589
 -1      9284    3    0    1
 -2      1504      1553      2925      3589
 -1      9285    3    0    1
 -2      2622      2595      2702      3589
 -1      9286    3    0    1
 -2      2743      3002      3021      3640
 -1      9287    3    0    1
 -2      2996      2802      3003      3591
 -1      9288    3    0    1
 -2      2530      2597      2987      3591
 -1      9289    3    0    1
 -2      2530      2567      2597      3591
 -1      9290    3    0    1
 -2      3102      3064      3619      3377
 -1      9291    3    0    1
 -2      1035      2342      3532      3724
 -1      9292    3    0    1
 -2      1555       790      2996      3591
 -1      9293    3    0    1
 -2      2953      2530      2987      3591
 -1      9294    3    0    1
 -2      2953      2987      3036      3591
 -1      9295    3    0    1
 -2      2987      2631      3036      3591
 -1      9296    3    0    1
 -2      1616      3029      3033      3122
 -1      9297    3    0    1
 -2      2800      1640      2949      3122
 -1      9298    3    0    1
 -2       438      1782      3246      3676
 -1      9299    3    0    1
 -2      2888      3108      3227      3377
 -1      9300    3    0    1
 -2      2762      2713      3555      3123
 -1      9301    3    0    1
 -2      3555      2713      2975      3123
 -1      9302    3    0    1
 -2      1426      2822      2859      3123
 -1      9303    3    0    1
 -2      2859      2822      3555      3123
 -1      9304    3    0    1
 -2      2822      2762      3555      3123
 -1      9305    3    0    1
 -2      2843      2713      2886      3123
 -1      9306    3    0    1
 -2      2713      2762      2886      3123
 -1      9307    3    0    1
 -2      2762      2822      2886      3123
 -1      9308    3    0    1
 -2      1412      2884      1689      3592
 -1      9309    3    0    1
 -2      1689      2884      2976      3592
 -1      9310    3    0    1
 -2      2808      1471      3107      3289
 -1      9311    3    0    1
 -2      2990      1776      3109      3287
 -1      9312    3    0    1
 -2      2185      2841      3243      3715
 -1      9313    3    0    1
 -2      1280       353      1549      3592
 -1      9314    3    0    1
 -2      2701      2920      3644      3489
 -1      9315    3    0    1
 -2      1280      1549      2899      3592
 -1      9316    3    0    1
 -2      2782      3217      3711      3467
 -1      9317    3    0    1
 -2      2744      2807      3020      3124
 -1      9318    3    0    1
 -2      2505      2810      3607      3618
 -1      9319    3    0    1
 -2       682       686      1004      1944
 -1      9320    3    0    1
 -2      1727      1539      1728      3164
 -1      9321    3    0    1
 -2      1600      3687      1520      3455
 -1      9322    3    0    1
 -2      1687      1466      1688      3347
 -1      9323    3    0    1
 -2      2917      1504      3158      3194
 -1      9324    3    0    1
 -2      1638      1639      1780      3323
 -1      9325    3    0    1
 -2      1519      1518      1544      3250
 -1      9326    3    0    1
 -2      1598      2915      1744      3300
 -1      9327    3    0    1
 -2      3534      2162      3579      3611
 -1      9328    3    0    1
 -2      1798      3038      1799      3209
 -1      9329    3    0    1
 -2      2937      2916      3585      3667
 -1      9330    3    0    1
 -2      1810      3386      3470      3722
 -1      9331    3    0    1
 -2      3000      2937      3585      3667
 -1      9332    3    0    1
 -2      2745      3559      3026      3667
 -1      9333    3    0    1
 -2      1545      1544      3250      3360
 -1      9334    3    0    1
 -2      1762      1761      3152      3254
 -1      9335    3    0    1
 -2      1588       601      1589      3141
 -1      9336    3    0    1
 -2      2686      3519      3544      3661
 -1      9337    3    0    1
 -2      1560      1559      3304      1900
 -1      9338    3    0    1
 -2      2820       994      3561      1821
 -1      9339    3    0    1
 -2       961      3525      3583      3663
 -1      9340    3    0    1
 -2      1438      1439      2676      3472
 -1      9341    3    0    1
 -2      1519      1544      3597      3250
 -1      9342    3    0    1
 -2      1896      3131      1897      3361
 -1      9343    3    0    1
 -2      1416      3345      3714      3459
 -1      9344    3    0    1
 -2      1500      1562      3008      3369
 -1      9345    3    0    1
 -2      3610      1448      1867      3496
 -1      9346    3    0    1
 -2        94       432      1787      1840
 -1      9347    3    0    1
 -2      1651      3538      2930      1812
 -1      9348    3    0    1
 -2      1651       408      3538      1812
 -1      9349    3    0    1
 -2      3565      2880      3637      3456
 -1      9350    3    0    1
 -2      2823      2824      2889      3657
 -1      9351    3    0    1
 -2        24      1553      3308      1876
 -1      9352    3    0    1
 -2       411       410      3510      3727
 -1      9353    3    0    1
 -2       408       969      3549      3621
 -1      9354    3    0    1
 -2      1610      1557      1611      3419
 -1      9355    3    0    1
 -2      3567      2994      1783      3372
 -1      9356    3    0    1
 -2      1790      1789      1827      3376
 -1      9357    3    0    1
 -2      3531      2588      3596      3647
 -1      9358    3    0    1
 -2       720      1641      3067      1640
 -1      9359    3    0    1
 -2      1634       226      3179      3669
 -1      9360    3    0    1
 -2       285      2525      2575      3686
 -1      9361    3    0    1
 -2      1763      2821      3152      3185
 -1      9362    3    0    1
 -2      3018      2861      3090      3677
 -1      9363    3    0    1
 -2      1632      2912      3627      3278
 -1      9364    3    0    1
 -2      3171      3622      3627      3278
 -1      9365    3    0    1
 -2      1578      2848      3061      3190
 -1      9366    3    0    1
 -2      3709      1580      1947      3499
 -1      9367    3    0    1
 -2      2833      3567      3655      3372
 -1      9368    3    0    1
 -2      2162      2734      3463      3731
 -1      9369    3    0    1
 -2       279      1508      1890      1892
 -1      9370    3    0    1
 -2      2669      1415      3584      3593
 -1      9371    3    0    1
 -2      2654      1324      3584      3593
 -1      9372    3    0    1
 -2      2538      2593      2868      3646
 -1      9373    3    0    1
 -2      2314      2194      3505      3437
 -1      9374    3    0    1
 -2      1068      1280      2314      3437
 -1      9375    3    0    1
 -2       666       655      1761      3139
 -1      9376    3    0    1
 -2       655       666      2571      3139
 -1      9377    3    0    1
 -2      1747      1746      1762      3139
 -1      9378    3    0    1
 -2      1746      1747      3005      3139
 -1      9379    3    0    1
 -2      2924      2954      3230      3646
 -1      9380    3    0    1
 -2       808      3153      3622      1881
 -1      9381    3    0    1
 -2      1518      1544      1545      3163
 -1      9382    3    0    1
 -2      3525       961      3583      3628
 -1      9383    3    0    1
 -2      3398      3331      3435      3708
 -1      9384    3    0    1
 -2      3252      3641      3356      3708
 -1      9385    3    0    1
 -2      1871      3113      1872      1903
 -1      9386    3    0    1
 -2      2487      3402      3687      3700
 -1      9387    3    0    1
 -2      1828        59      1883      1884
 -1      9388    3    0    1
 -2      1597      1596      1760      3157
 -1      9389    3    0    1
 -2      3397      1851      3415      3454
 -1      9390    3    0    1
 -2      3214      3641      3348      3458
 -1      9391    3    0    1
 -2      2782      2185      2819      3715
 -1      9392    3    0    1
 -2      1573      1610      3640      3334
 -1      9393    3    0    1
 -2      3126      1699      3127      3157
 -1      9394    3    0    1
 -2      2586      2777      2830      3201
 -1      9395    3    0    1
 -2      2694      2890      3585      3143
 -1      9396    3    0    1
 -2      2946      3559      3585      3143
 -1      9397    3    0    1
 -2      3559      2946      2981      3143
 -1      9398    3    0    1
 -2      2876      3559      2981      3143
 -1      9399    3    0    1
 -2      2876      2694      3559      3143
 -1      9400    3    0    1
 -2      3559      2694      3585      3143
 -1      9401    3    0    1
 -2      1496      3596      3310      3653
 -1      9402    3    0    1
 -2      1642      3522      3586      3201
 -1      9403    3    0    1
 -2      3522      3574      3586      3201
 -1      9404    3    0    1
 -2      2694      1451      2890      3143
 -1      9405    3    0    1
 -2      3572      2529      3655      3674
 -1      9406    3    0    1
 -2      1758      3611      3700      3732
 -1      9407    3    0    1
 -2      1451      2694      2876      3143
 -1      9408    3    0    1
 -2       403        99      1660      3600
 -1      9409    3    0    1
 -2      1290       119      3618      3626
 -1      9410    3    0    1
 -2      3512      3513      3514      3600
 -1      9411    3    0    1
 -2       558      2624      2999      3187
 -1      9412    3    0    1
 -2      1662      1449      1663      3167
 -1      9413    3    0    1
 -2      3636      2733      3641      3654
 -1      9414    3    0    1
 -2      3147      1730      1821      1822
 -1      9415    3    0    1
 -2      3599      3601      3219      3373
 -1      9416    3    0    1
 -2      1725      1512      3273      3290
 -1      9417    3    0    1
 -2      1592      1593      2992      3178
 -1      9418    3    0    1
 -2      1746      1747      1762      3152
 -1      9419    3    0    1
 -2      3552      2061      3039      3650
 -1      9420    3    0    1
 -2      1312      2153      2690      3725
 -1      9421    3    0    1
 -2      1546      1211      2710      3149
 -1      9422    3    0    1
 -2      1409      1629      2834      3149
 -1      9423    3    0    1
 -2      1409      2741      3012      3149
 -1      9424    3    0    1
 -2      3397      1941      1942      1960
 -1      9425    3    0    1
 -2      2741      1409      2834      3149
 -1      9426    3    0    1
 -2      2620      1434      1567      3313
 -1      9427    3    0    1
 -2      3223      2700      3682      3716
 -1      9428    3    0    1
 -2      3612      3223      3682      3716
 -1      9429    3    0    1
 -2       435       226      1679      1905
 -1      9430    3    0    1
 -2      3595      3531      3647      3391
 -1      9431    3    0    1
 -2      1694      1412      3573      3721
 -1      9432    3    0    1
 -2      3286      2998      3636      3329
 -1      9433    3    0    1
 -2      1696      3656      3485      3735
 -1      9434    3    0    1
 -2      1596      3157      1883      3436
 -1      9435    3    0    1
 -2      1580       346      2860      3593
 -1      9436    3    0    1
 -2       226      1665      2869      3593
 -1      9437    3    0    1
 -2      2869      1665      3584      3593
 -1      9438    3    0    1
 -2       226      2869      3584      3593
 -1      9439    3    0    1
 -2      3584       226      1324      1678
 -1      9440    3    0    1
 -2       279      1508      1892      3712
 -1      9441    3    0    1
 -2      3120      1885      3671      3449
 -1      9442    3    0    1
 -2      1792      3238      3701      1925
 -1      9443    3    0    1
 -2      1576      2625      2860      3593
 -1      9444    3    0    1
 -2       346      1576      2860      3593
 -1      9445    3    0    1
 -2      2758      3543      3438      2763
 -1      9446    3    0    1
 -2      3501      1508      3507      3712
 -1      9447    3    0    1
 -2      1665       226      3683      3593
 -1      9448    3    0    1
 -2      2625      1415      1580      3593
 -1      9449    3    0    1
 -2      1415      2669      1665      3593
 -1      9450    3    0    1
 -2      1576      1044      2790      3593
 -1      9451    3    0    1
 -2      2625      1580      2860      3593
 -1      9452    3    0    1
 -2       226      3584      1324      3593
 -1      9453    3    0    1
 -2       346      1044      1576      3593
 -1      9454    3    0    1
 -2      3567      1783      3176      3372
 -1      9455    3    0    1
 -2      1437      2797      1801      3154
 -1      9456    3    0    1
 -2      1013      2216      2319      3684
 -1      9457    3    0    1
 -2        27      1701      1791      3154
 -1      9458    3    0    1
 -2      2672      2538      3641      3654
 -1      9459    3    0    1
 -2      2884      2816      3019      3654
 -1      9460    3    0    1
 -2      1511      1448      3505      3231
 -1      9461    3    0    1
 -2      1640      1716      3116      3595
 -1      9462    3    0    1
 -2      3083      3084      1880      1945
 -1      9463    3    0    1
 -2      2827      2761      3116      3595
 -1      9464    3    0    1
 -2      2761      3067      3116      3595
 -1      9465    3    0    1
 -2      2535      2706      2761      3595
 -1      9466    3    0    1
 -2      2535      2761      2827      3595
 -1      9467    3    0    1
 -2      2761      2948      3067      3595
 -1      9468    3    0    1
 -2      2671      2535      2827      3595
 -1      9469    3    0    1
 -2      2671      2827      2906      3595
 -1      9470    3    0    1
 -2      1716      1640      3052      3595
 -1      9471    3    0    1
 -2      1553      1554      3158      3308
 -1      9472    3    0    1
 -2      1808      1809      1816      3283
 -1      9473    3    0    1
 -2       285       356      3686      3479
 -1      9474    3    0    1
 -2      3015      3572      3156      3612
 -1      9475    3    0    1
 -2      2971      3599      3219      3270
 -1      9476    3    0    1
 -2      2950      2809      3080      3596
 -1      9477    3    0    1
 -2      2787      1621      3028      3596
 -1      9478    3    0    1
 -2      3527      2569      3229      3325
 -1      9479    3    0    1
 -2      1621      2950      3080      3596
 -1      9480    3    0    1
 -2      1621      2787      2950      3596
 -1      9481    3    0    1
 -2      1621      1496      3028      3596
 -1      9482    3    0    1
 -2      2636      2787      2907      3596
 -1      9483    3    0    1
 -2       335      3615      3665      3676
 -1      9484    3    0    1
 -2      2636      2746      2747      3596
 -1      9485    3    0    1
 -2      1866      3616      3303      3311
 -1      9486    3    0    1
 -2      3546      3571      3630      3311
 -1      9487    3    0    1
 -2       264      3616      1866      3311
 -1      9488    3    0    1
 -2      2725      3080      3596      3310
 -1      9489    3    0    1
 -2      2704      2767      3527      3325
 -1      9490    3    0    1
 -2      2907      2787      3028      3596
 -1      9491    3    0    1
 -2      1536      3546      3630      3311
 -1      9492    3    0    1
 -2      3293      1873      1874      3471
 -1      9493    3    0    1
 -2      2787      2809      2950      3596
 -1      9494    3    0    1
 -2      1451      2890      3143      3200
 -1      9495    3    0    1
 -2      1601      1602      2889      3336
 -1      9496    3    0    1
 -2      1496      1621      3080      3596
 -1      9497    3    0    1
 -2       185      1765      3085      3469
 -1      9498    3    0    1
 -2      2719      1459      3009      3597
 -1      9499    3    0    1
 -2      1459      2719      2968      3597
 -1      9500    3    0    1
 -2      2973      2719      3009      3597
 -1      9501    3    0    1
 -2      1703      1459      2968      3597
 -1      9502    3    0    1
 -2      1459      1530      3009      3597
 -1      9503    3    0    1
 -2      1544      1002      3031      3597
 -1      9504    3    0    1
 -2      2973      3009      3011      3597
 -1      9505    3    0    1
 -2       655       666      3254      3364
 -1      9506    3    0    1
 -2      3567      2790      3655      3674
 -1      9507    3    0    1
 -2       226      1678      3179      3669
 -1      9508    3    0    1
 -2      1715      3010      3130      3300
 -1      9509    3    0    1
 -2       185      1002      1544      3597
 -1      9510    3    0    1
 -2      1519      1544      3031      3597
 -1      9511    3    0    1
 -2      2599      2208      3684      3726
 -1      9512    3    0    1
 -2      3088      1440      3155      3165
 -1      9513    3    0    1
 -2      3551      3088      3155      3165
 -1      9514    3    0    1
 -2      3222      2849      3638      3662
 -1      9515    3    0    1
 -2      2992      1592      3062      3659
 -1      9516    3    0    1
 -2      3039      2061      3588      3650
 -1      9517    3    0    1
 -2      2619      2879      3551      3639
 -1      9518    3    0    1
 -2      2788      2717      2984      3173
 -1      9519    3    0    1
 -2       437       340      1680      3649
 -1      9520    3    0    1
 -2      3175      3622      3440      3736
 -1      9521    3    0    1
 -2       986      3577      3579      3692
 -1      9522    3    0    1
 -2      2717      1473      2984      3173
 -1      9523    3    0    1
 -2      2162      2487      3611      3700
 -1      9524    3    0    1
 -2      3175      3622      3256      3440
 -1      9525    3    0    1
 -2       340      3577      3649      3685
 -1      9526    3    0    1
 -2      1573      1574      2778      3419
 -1      9527    3    0    1
 -2      1459      2971      3599      3352
 -1      9528    3    0    1
 -2      2982      2621      3581      3168
 -1      9529    3    0    1
 -2      2621      3558      3581      3168
 -1      9530    3    0    1
 -2      3558      3054      3581      3168
 -1      9531    3    0    1
 -2       414       979      2608      1962
 -1      9532    3    0    1
 -2      3198      3310      2897      3653
 -1      9533    3    0    1
 -2      1727      1442      1728      3267
 -1      9534    3    0    1
 -2      2796      2963      3187      3625
 -1      9535    3    0    1
 -2      1482      1481      1776      3181
 -1      9536    3    0    1
 -2      2663      2742      2958      3652
 -1      9537    3    0    1
 -2      2867      2592      3226      3625
 -1      9538    3    0    1
 -2      2628      2592      2764      3625
 -1      9539    3    0    1
 -2      2764      2867      3226      3625
 -1      9540    3    0    1
 -2      2489      2663      2712      3652
 -1      9541    3    0    1
 -2      2736      2542      3567      3674
 -1      9542    3    0    1
 -2        15      1468      1808      3200
 -1      9543    3    0    1
 -2      2499      2592      2628      3625
 -1      9544    3    0    1
 -2      2541      2739      1754      3604
 -1      9545    3    0    1
 -2      2781      3047      3317      3318
 -1      9546    3    0    1
 -2      2606      1549      3315      3679
 -1      9547    3    0    1
 -2      3610      1068      3664      3679
 -1      9548    3    0    1
 -2      3627      2606      3315      3679
 -1      9549    3    0    1
 -2      3186      3166      3642      3659
 -1      9550    3    0    1
 -2      3145      3186      3642      3659
 -1      9551    3    0    1
 -2      3579      3577      3611      3692
 -1      9552    3    0    1
 -2      1010      1309      2728      3174
 -1      9553    3    0    1
 -2      3505      3501      3507      3712
 -1      9554    3    0    1
 -2      3213      2956      3319      3657
 -1      9555    3    0    1
 -2       549      3214      3348      3458
 -1      9556    3    0    1
 -2      3670      3257      3376      3471
 -1      9557    3    0    1
 -2      1518      1519      3379      3470
 -1      9558    3    0    1
 -2      3640      3006      3673      3730
 -1      9559    3    0    1
 -2       427      1004      2319      3684
 -1      9560    3    0    1
 -2      3682      2708      2833      2784
 -1      9561    3    0    1
 -2       436       151      1615      3240
 -1      9562    3    0    1
 -2      1625      1626      1780      3342
 -1      9563    3    0    1
 -2      3236      2517      3622      3670
 -1      9564    3    0    1
 -2       763       772      3148      3176
 -1      9565    3    0    1
 -2       772       763      1783      3176
 -1      9566    3    0    1
 -2      1770      2755      1771      3304
 -1      9567    3    0    1
 -2      1592      1464      1593      3178
 -1      9568    3    0    1
 -2      1841      3205      1842      1866
 -1      9569    3    0    1
 -2       347       264      3616      1866
 -1      9570    3    0    1
 -2       264       347      1841      1866
 -1      9571    3    0    1
 -2      1018      1313      2983      3644
 -1      9572    3    0    1
 -2      2620      1434      3313      3736
 -1      9573    3    0    1
 -2      3331      3154      3420      3703
 -1      9574    3    0    1
 -2      1781      1625      3342      3703
 -1      9575    3    0    1
 -2      2941      2947      3641      3703
 -1      9576    3    0    1
 -2      1320      2342      3338      3665
 -1      9577    3    0    1
 -2      2902      2791      3641      3703
 -1      9578    3    0    1
 -2      2947      3331      3420      3703
 -1      9579    3    0    1
 -2      2288      2502      3638      3735
 -1      9580    3    0    1
 -2      3318      3317      3670      3736
 -1      9581    3    0    1
 -2      3357      3313      3494      3736
 -1      9582    3    0    1
 -2      2683      2490      3570      3598
 -1      9583    3    0    1
 -2      2534      2683      3570      3598
 -1      9584    3    0    1
 -2      1746      3034      3079      3598
 -1      9585    3    0    1
 -2      1746      3005      3034      3598
 -1      9586    3    0    1
 -2      1761       666      3139      3598
 -1      9587    3    0    1
 -2      3005      1746      1761      3598
 -1      9588    3    0    1
 -2      2971      3599      3352      3681
 -1      9589    3    0    1
 -2      3560      3523      1736      3681
 -1      9590    3    0    1
 -2      2534      3005      3139      3598
 -1      9591    3    0    1
 -2      2534      2509      3005      3598
 -1      9592    3    0    1
 -2      2571      2534      3139      3598
 -1      9593    3    0    1
 -2      2557      2534      2571      3598
 -1      9594    3    0    1
 -2      3547      3523      3560      3681
 -1      9595    3    0    1
 -2      2490      2534      2557      3598
 -1      9596    3    0    1
 -2      3005      2750      3034      3598
 -1      9597    3    0    1
 -2      2509      2750      3005      3598
 -1      9598    3    0    1
 -2      2534      2490      2683      3598
 -1      9599    3    0    1
 -2       353         1      1689      3719
 -1      9600    3    0    1
 -2      1761      1746      3079      3598
 -1      9601    3    0    1
 -2      3599      3547      3352      3681
 -1      9602    3    0    1
 -2      2574      3516      3546      3204
 -1      9603    3    0    1
 -2      3715      3587      3468      3497
 -1      9604    3    0    1
 -2       549       450      3293      1873
 -1      9605    3    0    1
 -2      2674      2908      3565      3294
 -1      9606    3    0    1
 -2      3388      3269      3681      3731
 -1      9607    3    0    1
 -2      3252      1497      1917      3708
 -1      9608    3    0    1
 -2      2971      2501      3004      3599
 -1      9609    3    0    1
 -2      3642      3260      3457      3717
 -1      9610    3    0    1
 -2      1502      1794      1795      3359
 -1      9611    3    0    1
 -2      1889       434      3389      3706
 -1      9612    3    0    1
 -2      3538      1294      3096      3673
 -1      9613    3    0    1
 -2       986      3542      3577      3692
 -1      9614    3    0    1
 -2      1627      2930      3133      3184
 -1      9615    3    0    1
 -2      1519      1518      3011      3314
 -1      9616    3    0    1
 -2      2787      2809      3596      3647
 -1      9617    3    0    1
 -2        44      1871      1872      1903
 -1      9618    3    0    1
 -2      3097      2791      3703      3708
 -1      9619    3    0    1
 -2      1789      1826      1827      3376
 -1      9620    3    0    1
 -2      3331      2941      3435      3708
 -1      9621    3    0    1
 -2      1331       348      3430      3733
 -1      9622    3    0    1
 -2      2930      2929      3133      3184
 -1      9623    3    0    1
 -2      3131      1896      1897      3374
 -1      9624    3    0    1
 -2      3620      3137      3355      3374
 -1      9625    3    0    1
 -2      1901      1896      1902      3374
 -1      9626    3    0    1
 -2      3689      3672      1920      3700
 -1      9627    3    0    1
 -2      1548      1547      3268      3330
 -1      9628    3    0    1
 -2      3576      3536      3594      3658
 -1      9629    3    0    1
 -2       403      3548      1773      3600
 -1      9630    3    0    1
 -2      3512       403      3513      3600
 -1      9631    3    0    1
 -2      1442      2754      2928      3267
 -1      9632    3    0    1
 -2      2624      3187      3226      3625
 -1      9633    3    0    1
 -2      2624      2564      2999      3187
 -1      9634    3    0    1
 -2      3514      3513      3548      3600
 -1      9635    3    0    1
 -2      3513       403      1660      3600
 -1      9636    3    0    1
 -2        99       403      1773      3600
 -1      9637    3    0    1
 -2      3531      2588      3647      3391
 -1      9638    3    0    1
 -2      1752       799      1753      3239
 -1      9639    3    0    1
 -2      1514      1833      1834      3256
 -1      9640    3    0    1
 -2       227      2478      3416      3694
 -1      9641    3    0    1
 -2      3552      3039      3648      3650
 -1      9642    3    0    1
 -2      2709      1555      3609      3258
 -1      9643    3    0    1
 -2      2701      3644      3651      3489
 -1      9644    3    0    1
 -2      1514      1515      1833      3256
 -1      9645    3    0    1
 -2      2828      1157      2862      1877
 -1      9646    3    0    1
 -2      1625      1626      1702      3192
 -1      9647    3    0    1
 -2      3539      3506      3621      3629
 -1      9648    3    0    1
 -2      1701      1702      3112      3192
 -1      9649    3    0    1
 -2      1701      1625      1702      3192
 -1      9650    3    0    1
 -2      1442      1443      1728      3267
 -1      9651    3    0    1
 -2      1701      3112      3169      3192
 -1      9652    3    0    1
 -2      1594      2764      3226      3625
 -1      9653    3    0    1
 -2      1625      1701      3169      3192
 -1      9654    3    0    1
 -2      1539      1540      1727      3267
 -1      9655    3    0    1
 -2      3570      2750      3598      3193
 -1      9656    3    0    1
 -2      3034      1746      3079      3193
 -1      9657    3    0    1
 -2      1746      3034      1763      3193
 -1      9658    3    0    1
 -2      3034      3079      3598      3193
 -1      9659    3    0    1
 -2      2750      3034      3598      3193
 -1      9660    3    0    1
 -2      1730      3042      3147      3193
 -1      9661    3    0    1
 -2      3561      2820      1821      3193
 -1      9662    3    0    1
 -2      1730      3561      1821      3193
 -1      9663    3    0    1
 -2      3561      1730      3147      3193
 -1      9664    3    0    1
 -2      2718      2820      3561      3193
 -1      9665    3    0    1
 -2      2718      3561      3147      3193
 -1      9666    3    0    1
 -2      2750      2718      3042      3193
 -1      9667    3    0    1
 -2      3042      2718      3147      3193
 -1      9668    3    0    1
 -2      2812      2847      2917      3194
 -1      9669    3    0    1
 -2      2812      2917      3158      3194
 -1      9670    3    0    1
 -2      2699      1655      3537      3196
 -1      9671    3    0    1
 -2      1618      2699      3537      3196
 -1      9672    3    0    1
 -2      3516      1543      3519      3635
 -1      9673    3    0    1
 -2      3599      3547      3681      3731
 -1      9674    3    0    1
 -2      1052       347      3616      3635
 -1      9675    3    0    1
 -2      2600      1052      3516      3635
 -1      9676    3    0    1
 -2       346      1044      3633      3661
 -1      9677    3    0    1
 -2      2520      2292      3515      3601
 -1      9678    3    0    1
 -2      3515      2292      3576      3601
 -1      9679    3    0    1
 -2      3515      3576      3594      3601
 -1      9680    3    0    1
 -2      1327       346      3605      3661
 -1      9681    3    0    1
 -2       774       784      2355      3661
 -1      9682    3    0    1
 -2      1052      1327      3635      3661
 -1      9683    3    0    1
 -2      1044      3544      3633      3661
 -1      9684    3    0    1
 -2      3422        17      3461      1964
 -1      9685    3    0    1
 -2      2852      2134      3599      3601
 -1      9686    3    0    1
 -2      2292      2852      3576      3601
 -1      9687    3    0    1
 -2      2586      2520      3574      3601
 -1      9688    3    0    1
 -2      2241      1052      3635      3661
 -1      9689    3    0    1
 -2      2520      3504      3574      3601
 -1      9690    3    0    1
 -2      3538      1423      1835      3672
 -1      9691    3    0    1
 -2      3091      3515      3373      3601
 -1      9692    3    0    1
 -2       414      2608      3729      1962
 -1      9693    3    0    1
 -2      3004      3059      3091      3601
 -1      9694    3    0    1
 -2      3091      3059      3114      3601
 -1      9695    3    0    1
 -2      3004      2586      3059      3601
 -1      9696    3    0    1
 -2      2247      2134      2520      3601
 -1      9697    3    0    1
 -2      2520      2134      2852      3601
 -1      9698    3    0    1
 -2      2292      2520      2852      3601
 -1      9699    3    0    1
 -2      3113      2674      3159      3294
 -1      9700    3    0    1
 -2       601      1588      1589      3212
 -1      9701    3    0    1
 -2      1418      1700      3198      3199
 -1      9702    3    0    1
 -2      3599      3594      3219      3270
 -1      9703    3    0    1
 -2       169       173      1821      1832
 -1      9704    3    0    1
 -2      2767      2704      1685      3325
 -1      9705    3    0    1
 -2      3071      1598      1808      3200
 -1      9706    3    0    1
 -2      1665      3545      3683      3468
 -1      9707    3    0    1
 -2       328      2365      3502      3725
 -1      9708    3    0    1
 -2      3243      3545      3709      3499
 -1      9709    3    0    1
 -2      1052      2801      1841      3635
 -1      9710    3    0    1
 -2      2801      1754      1841      3635
 -1      9711    3    0    1
 -2      1543      3551      1675      3635
 -1      9712    3    0    1
 -2      1754      3205      1841      3635
 -1      9713    3    0    1
 -2      3557      1052      3616      3635
 -1      9714    3    0    1
 -2      2801      1052      3551      3635
 -1      9715    3    0    1
 -2      2218      2396      2752      3602
 -1      9716    3    0    1
 -2      2218      2388      2396      3602
 -1      9717    3    0    1
 -2      1018       332      1317      3602
 -1      9718    3    0    1
 -2      3562      3246      3676      3711
 -1      9719    3    0    1
 -2      3615      3562      3676      3711
 -1      9720    3    0    1
 -2       438       335      1782      3676
 -1      9721    3    0    1
 -2      2888      3064      3108      3377
 -1      9722    3    0    1
 -2      1782      3562      3246      3676
 -1      9723    3    0    1
 -2      3717      2935      3469      3722
 -1      9724    3    0    1
 -2      1508       279      3507      3712
 -1      9725    3    0    1
 -2      3227      1559      3285      3377
 -1      9726    3    0    1
 -2      3320      3620      3355      3434
 -1      9727    3    0    1
 -2       781       790      2631      3396
 -1      9728    3    0    1
 -2      3617      1712      3388      3685
 -1      9729    3    0    1
 -2      1680       437      3649      3466
 -1      9730    3    0    1
 -2      1650      1680      3649      3466
 -1      9731    3    0    1
 -2      2592      1583      2867      3226
 -1      9732    3    0    1
 -2      2610      2563      3546      3204
 -1      9733    3    0    1
 -2      1018       332      3631      3644
 -1      9734    3    0    1
 -2       329      1313      3632      3644
 -1      9735    3    0    1
 -2      3348      3641      3356      3458
 -1      9736    3    0    1
 -2       151       436      1758      3666
 -1      9737    3    0    1
 -2      2902      3641      3646      3703
 -1      9738    3    0    1
 -2      2947      2941      3331      3703
 -1      9739    3    0    1
 -2      3687      1600      1520      3506
 -1      9740    3    0    1
 -2      1601      2889      1862      3382
 -1      9741    3    0    1
 -2      1476      2764      2867      3226
 -1      9742    3    0    1
 -2      3602      1018      3631      3644
 -1      9743    3    0    1
 -2       332      1523      3631      3644
 -1      9744    3    0    1
 -2      1557      1610      3580      3419
 -1      9745    3    0    1
 -2      2743      2929      3002      3640
 -1      9746    3    0    1
 -2      3236      3257      3670      3471
 -1      9747    3    0    1
 -2      3520      2511      3711      3715
 -1      9748    3    0    1
 -2      1754      1432      1755      3244
 -1      9749    3    0    1
 -2      1432      1433      1755      3244
 -1      9750    3    0    1
 -2      2228      2185      2574      3204
 -1      9751    3    0    1
 -2      3315      1416      3394      3714
 -1      9752    3    0    1
 -2      2738      2508      3566      3604
 -1      9753    3    0    1
 -2      1754      3203      1841      1842
 -1      9754    3    0    1
 -2      2883      2681      3565      3279
 -1      9755    3    0    1
 -2      2793      1588      3141      3707
 -1      9756    3    0    1
 -2      2857      1432      3007      3604
 -1      9757    3    0    1
 -2      1432      2739      3007      3604
 -1      9758    3    0    1
 -2      2857      2786      1754      3604
 -1      9759    3    0    1
 -2      2541      2519      2737      3604
 -1      9760    3    0    1
 -2      1419      2519      2541      3604
 -1      9761    3    0    1
 -2      1536      2541      3203      3604
 -1      9762    3    0    1
 -2      2541      2737      2739      3604
 -1      9763    3    0    1
 -2      2519      2508      2737      3604
 -1      9764    3    0    1
 -2      1419      2541      1536      3604
 -1      9765    3    0    1
 -2      2606      3315      3394      3714
 -1      9766    3    0    1
 -2      1754      1755      3203      1842
 -1      9767    3    0    1
 -2      1432      2857      1754      3604
 -1      9768    3    0    1
 -2      2739      2737      3007      3604
 -1      9769    3    0    1
 -2      2737      2738      3087      3604
 -1      9770    3    0    1
 -2      3007      2737      3087      3604
 -1      9771    3    0    1
 -2      3151      1541      3162      3328
 -1      9772    3    0    1
 -2      1442      1612      2928      3271
 -1      9773    3    0    1
 -2      2606      1549      3679      3460
 -1      9774    3    0    1
 -2      2737      2508      2738      3604
 -1      9775    3    0    1
 -2      3153      2977      3622      3330
 -1      9776    3    0    1
 -2      3608      3592      3664      3437
 -1      9777    3    0    1
 -2       173      1736      3623      3561
 -1      9778    3    0    1
 -2      2678      1634      3669      3734
 -1      9779    3    0    1
 -2      1736      3147      1821      1832
 -1      9780    3    0    1
 -2      1821      3147      1822      1832
 -1      9781    3    0    1
 -2      3092      2633      3612      3383
 -1      9782    3    0    1
 -2      3546      2610      3303      3311
 -1      9783    3    0    1
 -2      3571      3546      3303      3311
 -1      9784    3    0    1
 -2      1419      2610      3546      3311
 -1      9785    3    0    1
 -2      2396      3503      3522      3634
 -1      9786    3    0    1
 -2      2840      1506      1776      3710
 -1      9787    3    0    1
 -2      3029      1616      3033      1845
 -1      9788    3    0    1
 -2      2527      2496      3527      3606
 -1      9789    3    0    1
 -2      2495      2550      3555      3606
 -1      9790    3    0    1
 -2      2713      2495      3555      3606
 -1      9791    3    0    1
 -2      2496      2713      3555      3606
 -1      9792    3    0    1
 -2      3527      2496      2926      3606
 -1      9793    3    0    1
 -2      2926      2496      3555      3606
 -1      9794    3    0    1
 -2      1524      2887      1721      3606
 -1      9795    3    0    1
 -2      2550      3041      3606      2693
 -1      9796    3    0    1
 -2      2753      2926      3555      3606
 -1      9797    3    0    1
 -2      3527      2753      3555      3606
 -1      9798    3    0    1
 -2      2753      3527      2926      3606
 -1      9799    3    0    1
 -2      3041      2693      3167      3606
 -1      9800    3    0    1
 -2      1524      1662      2887      3606
 -1      9801    3    0    1
 -2      1662      3041      3167      3606
 -1      9802    3    0    1
 -2      2887      1662      3167      3606
 -1      9803    3    0    1
 -2      2806      2940      3089      3606
 -1      9804    3    0    1
 -2      2495      2527      2805      3606
 -1      9805    3    0    1
 -2      2805      2527      2892      3606
 -1      9806    3    0    1
 -2      2579      2495      2805      3606
 -1      9807    3    0    1
 -2      2579      2805      2887      3606
 -1      9808    3    0    1
 -2      2940      1524      3089      3606
 -1      9809    3    0    1
 -2      2806      2749      2940      3606
 -1      9810    3    0    1
 -2      2495      2496      2527      3606
 -1      9811    3    0    1
 -2      2550      2495      2579      3606
 -1      9812    3    0    1
 -2      2496      2495      2713      3606
 -1      9813    3    0    1
 -2      1524      1721      3089      3606
 -1      9814    3    0    1
 -2      1524      2940      3041      3606
 -1      9815    3    0    1
 -2      2550      2579      2693      3606
 -1      9816    3    0    1
 -2      2579      2887      3167      3606
 -1      9817    3    0    1
 -2      2693      2579      3167      3606
 -1      9818    3    0    1
 -2      1662      1524      3041      3606
 -1      9819    3    0    1
 -2      2638      2505      2811      3607
 -1      9820    3    0    1
 -2      1479      1480      3213      1863
 -1      9821    3    0    1
 -2      2811      2505      2863      3607
 -1      9822    3    0    1
 -2      1435      1824      3217      3615
 -1      9823    3    0    1
 -2      1668      1520      3549      3626
 -1      9824    3    0    1
 -2      2655      2862      2865      3607
 -1      9825    3    0    1
 -2      2865      2862      3194      3607
 -1      9826    3    0    1
 -2      2863      2505      3132      3607
 -1      9827    3    0    1
 -2      2811      2863      2864      3607
 -1      9828    3    0    1
 -2      2565      2811      2847      3607
 -1      9829    3    0    1
 -2      2847      2811      3212      3607
 -1      9830    3    0    1
 -2       612      2865      3194      3607
 -1      9831    3    0    1
 -2      2811      2864      3212      3607
 -1      9832    3    0    1
 -2      2505      2810      3132      3607
 -1      9833    3    0    1
 -2      1588       612      3194      3607
 -1      9834    3    0    1
 -2      1581      1517      2865      3607
 -1      9835    3    0    1
 -2       612      1581      2865      3607
 -1      9836    3    0    1
 -2      2842      3079      3598      3390
 -1      9837    3    0    1
 -2      1825      3407      3701      1928
 -1      9838    3    0    1
 -2      2931      2441      3105      3608
 -1      9839    3    0    1
 -2       740       208       337      1929
 -1      9840    3    0    1
 -2       208       740       737      1929
 -1      9841    3    0    1
 -2      2754      1442      2928      3271
 -1      9842    3    0    1
 -2      3520      3532      3615      3665
 -1      9843    3    0    1
 -2       630      3102      3619      3377
 -1      9844    3    0    1
 -2      3520      2532      3532      3665
 -1      9845    3    0    1
 -2      3634      1027      3338      3665
 -1      9846    3    0    1
 -2      2525      2232      2575      3686
 -1      9847    3    0    1
 -2      1646      1647      1742      3216
 -1      9848    3    0    1
 -2      1440      2773      1743      3216
 -1      9849    3    0    1
 -2      1742      1440      1743      3216
 -1      9850    3    0    1
 -2      1646      1743      3567      3216
 -1      9851    3    0    1
 -2      1646      1742      1743      3216
 -1      9852    3    0    1
 -2      1441      1440      1742      3216
 -1      9853    3    0    1
 -2      1440      1441      2773      3216
 -1      9854    3    0    1
 -2      1412      1694      3573      3447
 -1      9855    3    0    1
 -2      2407      2247      2501      3731
 -1      9856    3    0    1
 -2      1502      1503      3129      3359
 -1      9857    3    0    1
 -2      1574      1573      1611      3419
 -1      9858    3    0    1
 -2      2790      3584      3655      3674
 -1      9859    3    0    1
 -2      1776      2990      1777      3287
 -1      9860    3    0    1
 -2      3573      1412      3650      3721
 -1      9861    3    0    1
 -2      3554      3174      3717      3469
 -1      9862    3    0    1
 -2      1416      3345      3394      3714
 -1      9863    3    0    1
 -2      2977      3236      3670      3714
 -1      9864    3    0    1
 -2      2606      3627      3315      3714
 -1      9865    3    0    1
 -2        14       170      1831      3385
 -1      9866    3    0    1
 -2      3030      2501      3388      3731
 -1      9867    3    0    1
 -2        14      1831      1843      3385
 -1      9868    3    0    1
 -2      1759      3076      3157      3436
 -1      9869    3    0    1
 -2      1578        14      1843      3385
 -1      9870    3    0    1
 -2      3670      3322      3444      3714
 -1      9871    3    0    1
 -2      2606      2576      3627      3714
 -1      9872    3    0    1
 -2      1867      2606      3679      3460
 -1      9873    3    0    1
 -2      1578      1843      3677      3385
 -1      9874    3    0    1
 -2      2973      2719      3597      3668
 -1      9875    3    0    1
 -2      1294      3538      3184      3673
 -1      9876    3    0    1
 -2      3252      1917      3435      3708
 -1      9877    3    0    1
 -2      2719      2968      3597      3668
 -1      9878    3    0    1
 -2      2910      2510      3031      3668
 -1      9879    3    0    1
 -2      2162      2487      2584      3611
 -1      9880    3    0    1
 -2      2968      1703      3597      3668
 -1      9881    3    0    1
 -2      1703      2968      1821      3668
 -1      9882    3    0    1
 -2      3576      3594      3601      3373
 -1      9883    3    0    1
 -2      2821      3185      3297      3668
 -1      9884    3    0    1
 -2      1703      1305      3597      3668
 -1      9885    3    0    1
 -2      2441      3608      3610      3437
 -1      9886    3    0    1
 -2      3586      3574      3602      3631
 -1      9887    3    0    1
 -2       332       439      3586      3631
 -1      9888    3    0    1
 -2      2538      2627      2902      3646
 -1      9889    3    0    1
 -2      2627      2538      2868      3646
 -1      9890    3    0    1
 -2      2872      1561      3126      3221
 -1      9891    3    0    1
 -2      2194      2441      3505      3437
 -1      9892    3    0    1
 -2      3397      1851      1917      1918
 -1      9893    3    0    1
 -2      1222      1561      2872      3221
 -1      9894    3    0    1
 -2      3162      2783      3328      3701
 -1      9895    3    0    1
 -2      2314      1280      2965      3437
 -1      9896    3    0    1
 -2      3511      1424      3517      3222
 -1      9897    3    0    1
 -2      3517      1424      2780      3222
 -1      9898    3    0    1
 -2      1698      2872      2908      3294
 -1      9899    3    0    1
 -2      2250      2532      3520      3665
 -1      9900    3    0    1
 -2      1497      3371      3376      3454
 -1      9901    3    0    1
 -2      2700      1198      1775      3223
 -1      9902    3    0    1
 -2      3503      2250      3615      3665
 -1      9903    3    0    1
 -2      1573      1748      3640      3333
 -1      9904    3    0    1
 -2      3293      3322      3670      3714
 -1      9905    3    0    1
 -2      2845      1547      1881      3384
 -1      9906    3    0    1
 -2      3015      3156      3223      3612
 -1      9907    3    0    1
 -2      2633      2855      3092      3612
 -1      9908    3    0    1
 -2      3156      1462      3223      3612
 -1      9909    3    0    1
 -2      3067      3595      3647      3391
 -1      9910    3    0    1
 -2      1630      1462      3156      3612
 -1      9911    3    0    1
 -2      1776      3109      3287      3488
 -1      9912    3    0    1
 -2      2536      3620      3671      3737
 -1      9913    3    0    1
 -2      1483      1630      3156      3612
 -1      9914    3    0    1
 -2      2644      2700      2708      3655
 -1      9915    3    0    1
 -2      2675      1672      2858      3614
 -1      9916    3    0    1
 -2      2505      2807      3124      3614
 -1      9917    3    0    1
 -2      3590      3013      3164      3614
 -1      9918    3    0    1
 -2      2675      1540      1672      3614
 -1      9919    3    0    1
 -2      2785      3590      3164      3614
 -1      9920    3    0    1
 -2      1672       594      2858      3614
 -1      9921    3    0    1
 -2      2858       594      3208      3614
 -1      9922    3    0    1
 -2      3124      2807      3129      3614
 -1      9923    3    0    1
 -2      3124      3129      3208      3614
 -1      9924    3    0    1
 -2      1540      2675      3164      3614
 -1      9925    3    0    1
 -2      3013      1540      3164      3614
 -1      9926    3    0    1
 -2      2565      2638      2811      3614
 -1      9927    3    0    1
 -2      2638      2565      2675      3614
 -1      9928    3    0    1
 -2      2885      2687      3124      3614
 -1      9929    3    0    1
 -2      2703      2687      2885      3614
 -1      9930    3    0    1
 -2      2885      3124      3208      3614
 -1      9931    3    0    1
 -2      2638      2675      2858      3614
 -1      9932    3    0    1
 -2      2703      2885      3013      3614
 -1      9933    3    0    1
 -2      2638      2858      3129      3614
 -1      9934    3    0    1
 -2      2505      2638      3129      3614
 -1      9935    3    0    1
 -2      2885      1672      3013      3614
 -1      9936    3    0    1
 -2      2675      2565      2785      3614
 -1      9937    3    0    1
 -2      1672      2885      3208      3614
 -1      9938    3    0    1
 -2      2807      2505      3129      3614
 -1      9939    3    0    1
 -2      1672      1540      3013      3614
 -1      9940    3    0    1
 -2      2675      2785      3164      3614
 -1      9941    3    0    1
 -2       594      1672      3208      3614
 -1      9942    3    0    1
 -2      1489      2624      3187      3226
 -1      9943    3    0    1
 -2      1453      2668      2967      3349
 -1      9944    3    0    1
 -2      1559      1770      3108      3227
 -1      9945    3    0    1
 -2      1896      1901      1902      3378
 -1      9946    3    0    1
 -2      1616      3029      3122      3228
 -1      9947    3    0    1
 -2      3029      2577      3033      3228
 -1      9948    3    0    1
 -2      3033      2577      3122      3228
 -1      9949    3    0    1
 -2      3029      3033      3122      3228
 -1      9950    3    0    1
 -2      1454      1616      3122      3228
 -1      9951    3    0    1
 -2      1711        23      3234      1879
 -1      9952    3    0    1
 -2      1421      1632      1633      3326
 -1      9953    3    0    1
 -2      1462      1463      3092      3383
 -1      9954    3    0    1
 -2      2633      2769      3612      3383
 -1      9955    3    0    1
 -2      2446       227      2478      3416
 -1      9956    3    0    1
 -2      1613      1612      3084      1879
 -1      9957    3    0    1
 -2      1419      3507      3074      3713
 -1      9958    3    0    1
 -2      1484      1483      2769      3383
 -1      9959    3    0    1
 -2      1630      1483      1631      3383
 -1      9960    3    0    1
 -2      3081      3293      3670      3714
 -1      9961    3    0    1
 -2      1630      1462      3612      3383
 -1      9962    3    0    1
 -2      3057      1709      3068      3229
 -1      9963    3    0    1
 -2      1162      1709      3057      3229
 -1      9964    3    0    1
 -2      2769      1483      3612      3383
 -1      9965    3    0    1
 -2      1803      1792      3238      3701
 -1      9966    3    0    1
 -2       343      2446      2465      3698
 -1      9967    3    0    1
 -2       237       248      2598      3723
 -1      9968    3    0    1
 -2      2759      2980      3620      3737
 -1      9969    3    0    1
 -2      2567      2597      3591      3705
 -1      9970    3    0    1
 -2      3364      1885      1488      1886
 -1      9971    3    0    1
 -2      1696      3552      3648      3656
 -1      9972    3    0    1
 -2      2216      2390      2599      3684
 -1      9973    3    0    1
 -2       151       977      3538      3672
 -1      9974    3    0    1
 -2      3057      2583      3161      3271
 -1      9975    3    0    1
 -2      1685      2956      3001      3319
 -1      9976    3    0    1
 -2      3140      1652      3183      3235
 -1      9977    3    0    1
 -2      2746      3140      3183      3235
 -1      9978    3    0    1
 -2      2895      1481      1936      1937
 -1      9979    3    0    1
 -2      2538      2902      3641      3646
 -1      9980    3    0    1
 -2       263       269      3697      3733
 -1      9981    3    0    1
 -2      1556      1555      2918      3258
 -1      9982    3    0    1
 -2       436       151      1758      3259
 -1      9983    3    0    1
 -2      3610      3505      3231      3500
 -1      9984    3    0    1
 -2      1851      3395      3415      1941
 -1      9985    3    0    1
 -2      2835      2529      3655      3682
 -1      9986    3    0    1
 -2      2620      3313      3440      3736
 -1      9987    3    0    1
 -2       666      3136      3364      3671
 -1      9988    3    0    1
 -2      1459      3547      1703      3352
 -1      9989    3    0    1
 -2      3047      2781      3622      3318
 -1      9990    3    0    1
 -2      1875      1708      3660      3464
 -1      9991    3    0    1
 -2      3239      1682      3622      3301
 -1      9992    3    0    1
 -2       720      2948      1738      3391
 -1      9993    3    0    1
 -2       666      1761      3254      3449
 -1      9994    3    0    1
 -2       989       416      2412      3729
 -1      9995    3    0    1
 -2      1609      2890      3200      3283
 -1      9996    3    0    1
 -2      2589      2590      3620      3737
 -1      9997    3    0    1
 -2       977       151      3538      3240
 -1      9998    3    0    1
 -2       151       977      1614      3240
 -1      9999    3    0    1
 -2       169       173      3603      1868
 -1     10000    3    0    1
 -2      1517      2865      3607      3618
 -1     10001    3    0    1
 -2      2913      1627      3072      3618
 -1     10002    3    0    1
 -2      1627      1517      3072      3618
 -1     10003    3    0    1
 -2      3132      1517      3607      3618
 -1     10004    3    0    1
 -2      2810      3132      3607      3618
 -1     10005    3    0    1
 -2      3072      1517      3132      3618
 -1     10006    3    0    1
 -2      1600      1520      3549      3618
 -1     10007    3    0    1
 -2      1520      1668      3549      3618
 -1     10008    3    0    1
 -2      3020      2744      3124      3618
 -1     10009    3    0    1
 -2       119      1668      3115      3618
 -1     10010    3    0    1
 -2       257       263      3697      3733
 -1     10011    3    0    1
 -2      2387      2205      3509      3621
 -1     10012    3    0    1
 -2      1509       119      3115      3618
 -1     10013    3    0    1
 -2       969       408      3549      3618
 -1     10014    3    0    1
 -2       408      1600      3549      3618
 -1     10015    3    0    1
 -2       408      1600      3255      1785
 -1     10016    3    0    1
 -2       969      2138      3549      3621
 -1     10017    3    0    1
 -2      2967      1768      1788      3349
 -1     10018    3    0    1
 -2      2505      2744      2810      3618
 -1     10019    3    0    1
 -2      2810      2744      3027      3618
 -1     10020    3    0    1
 -2       969      2655      2865      3618
 -1     10021    3    0    1
 -2      2744      2505      2807      3618
 -1     10022    3    0    1
 -2      2913      2810      3027      3618
 -1     10023    3    0    1
 -2      3027      2744      3115      3618
 -1     10024    3    0    1
 -2      2687      1290      3124      3618
 -1     10025    3    0    1
 -2      2810      2913      3072      3618
 -1     10026    3    0    1
 -2      1520      2913      3027      3618
 -1     10027    3    0    1
 -2      1668      3027      3115      3618
 -1     10028    3    0    1
 -2      1627       969      2865      3618
 -1     10029    3    0    1
 -2      1517      1627      2865      3618
 -1     10030    3    0    1
 -2      2810      3072      3132      3618
 -1     10031    3    0    1
 -2      1520      1600      2913      3618
 -1     10032    3    0    1
 -2      1668      1520      3027      3618
 -1     10033    3    0    1
 -2      1290      1509      3124      3618
 -1     10034    3    0    1
 -2       969      1627      1812      3618
 -1     10035    3    0    1
 -2      1290       119      1509      3618
 -1     10036    3    0    1
 -2       408       969      1812      3618
 -1     10037    3    0    1
 -2      2778      2523      3024      3619
 -1     10038    3    0    1
 -2      2523      2506      3024      3619
 -1     10039    3    0    1
 -2      1544      3597      3250      3360
 -1     10040    3    0    1
 -2      1748       630      3102      3619
 -1     10041    3    0    1
 -2      2506      2888      3024      3619
 -1     10042    3    0    1
 -2      1573      1748      3102      3619
 -1     10043    3    0    1
 -2      1559      1560      3285      1900
 -1     10044    3    0    1
 -2      1649      3125      3657      3382
 -1     10045    3    0    1
 -2      2185      2574      3204      3243
 -1     10046    3    0    1
 -2      2574      2185      2841      3243
 -1     10047    3    0    1
 -2      3355      1438      1902      3374
 -1     10048    3    0    1
 -2      1068      3627      3315      3679
 -1     10049    3    0    1
 -2      1433      1432      1529      3263
 -1     10050    3    0    1
 -2      2816      1416      3654      3341
 -1     10051    3    0    1
 -2       154       416       640      1963
 -1     10052    3    0    1
 -2      2208       427      2319      3684
 -1     10053    3    0    1
 -2      3015      2700      3655      3682
 -1     10054    3    0    1
 -2      1632      1421      3100      3713
 -1     10055    3    0    1
 -2       329      1708      2920      3644
 -1     10056    3    0    1
 -2      1708       329      3563      3644
 -1     10057    3    0    1
 -2      2798      2679      2881      3248
 -1     10058    3    0    1
 -2      1531      2798      2881      3248
 -1     10059    3    0    1
 -2      2997      1737      1836      3248
 -1     10060    3    0    1
 -2      1737        71      1836      3248
 -1     10061    3    0    1
 -2      1695      1531      2911      3248
 -1     10062    3    0    1
 -2      3516      3546      3204      3303
 -1     10063    3    0    1
 -2      2218      3504      3632      3644
 -1     10064    3    0    1
 -2      3213      3125      1862      3382
 -1     10065    3    0    1
 -2      2818      1654      1844      3249
 -1     10066    3    0    1
 -2      1838      2818      1844      3249
 -1     10067    3    0    1
 -2      1833      3168      1514      3251
 -1     10068    3    0    1
 -2      1683      1682      1834      3251
 -1     10069    3    0    1
 -2      3054      1682      3581      3251
 -1     10070    3    0    1
 -2      1682      2982      3581      3251
 -1     10071    3    0    1
 -2      2982      1682      3023      3251
 -1     10072    3    0    1
 -2      1682      1683      3023      3251
 -1     10073    3    0    1
 -2      1682      3054      1833      3251
 -1     10074    3    0    1
 -2      2241      3516      3519      3635
 -1     10075    3    0    1
 -2      1616      2671      3052      1845
 -1     10076    3    0    1
 -2      3569      2573      3324      3339
 -1     10077    3    0    1
 -2       784      1327      2241      3661
 -1     10078    3    0    1
 -2      3519      2241      3635      3661
 -1     10079    3    0    1
 -2      3592      2899      3636      3654
 -1     10080    3    0    1
 -2      1052      1327      3551      3635
 -1     10081    3    0    1
 -2      2828      2862      3553      3367
 -1     10082    3    0    1
 -2      3242      1839      1871      1872
 -1     10083    3    0    1
 -2      3166      1734      3186      3642
 -1     10084    3    0    1
 -2      3549       408      3621      3629
 -1     10085    3    0    1
 -2      3389      3605      3706      3709
 -1     10086    3    0    1
 -2       263       257      3430      3733
 -1     10087    3    0    1
 -2      1541      2731      3568      3321
 -1     10088    3    0    1
 -2      2589      2848      2980      3620
 -1     10089    3    0    1
 -2      1643      2993      3148      3372
 -1     10090    3    0    1
 -2      2722      2510      3620      3375
 -1     10091    3    0    1
 -2      3648      3552      3650      3656
 -1     10092    3    0    1
 -2      2218      3504      3515      3632
 -1     10093    3    0    1
 -2      1578      1579      2676      1857
 -1     10094    3    0    1
 -2      2549      2589      2590      3620
 -1     10095    3    0    1
 -2      2589      2549      3131      3620
 -1     10096    3    0    1
 -2      2589      3131      3137      3620
 -1     10097    3    0    1
 -2      2836       772      1783      3321
 -1     10098    3    0    1
 -2       407       406      3521      3688
 -1     10099    3    0    1
 -2       151      1298      3579      3692
 -1     10100    3    0    1
 -2      2848      2589      3137      3620
 -1     10101    3    0    1
 -2      1756      3572      3332      3674
 -1     10102    3    0    1
 -2      2901      1623      3058      3674
 -1     10103    3    0    1
 -2      1578      2676      1856      1857
 -1     10104    3    0    1
 -2      1549      2899      3592      3654
 -1     10105    3    0    1
 -2      2915      1605      3130      1850
 -1     10106    3    0    1
 -2       655       666      1761      3254
 -1     10107    3    0    1
 -2      3152      1761      3449      3254
 -1     10108    3    0    1
 -2      3622      3047      3317      3736
 -1     10109    3    0    1
 -2      2925      1504      3589      3707
 -1     10110    3    0    1
 -2      1849      3387      3398      1961
 -1     10111    3    0    1
 -2      1627      1628      1813      3255
 -1     10112    3    0    1
 -2      1628      1627      2913      3255
 -1     10113    3    0    1
 -2      2205      1294      3538      3621
 -1     10114    3    0    1
 -2      3509      3538      3539      3621
 -1     10115    3    0    1
 -2      1547      1819      3268      3278
 -1     10116    3    0    1
 -2      1421      1632      3627      3278
 -1     10117    3    0    1
 -2      1294       408      3538      3621
 -1     10118    3    0    1
 -2      3538       408      3539      3621
 -1     10119    3    0    1
 -2      2668      2984      3003      3349
 -1     10120    3    0    1
 -2       969       408      1294      3621
 -1     10121    3    0    1
 -2      2138      2205      2387      3621
 -1     10122    3    0    1
 -2      1752       808      3239      3622
 -1     10123    3    0    1
 -2      3055      2977      3236      3622
 -1     10124    3    0    1
 -2      3047      3171      3175      3622
 -1     10125    3    0    1
 -2      2517      3055      3236      3622
 -1     10126    3    0    1
 -2      3266      1885      3364      3671
 -1     10127    3    0    1
 -2      2977      3055      3153      3622
 -1     10128    3    0    1
 -2      3047      2912      3171      3622
 -1     10129    3    0    1
 -2      3171      1752      3175      3622
 -1     10130    3    0    1
 -2      3512      1424      3555      3628
 -1     10131    3    0    1
 -2       666       655      2571      1885
 -1     10132    3    0    1
 -2      3153      3055      3239      3622
 -1     10133    3    0    1
 -2      1752      1682      3175      3622
 -1     10134    3    0    1
 -2       808      1752      3171      3622
 -1     10135    3    0    1
 -2      1619      2967      3003      3349
 -1     10136    3    0    1
 -2      2919      2709      3609      3258
 -1     10137    3    0    1
 -2      1474      1740      1741      3302
 -1     10138    3    0    1
 -2       347       264      1536      3630
 -1     10139    3    0    1
 -2      2708      3682      2833      3655
 -1     10140    3    0    1
 -2      3039      3588      3648      3650
 -1     10141    3    0    1
 -2      1452      3504      3563      3464
 -1     10142    3    0    1
 -2      2549      2590      3266      3671
 -1     10143    3    0    1
 -2       151       436      1615      3259
 -1     10144    3    0    1
 -2      1565      1564      3260      1940
 -1     10145    3    0    1
 -2      2610      3546      3486      3491
 -1     10146    3    0    1
 -2        17      1914      1915      3461
 -1     10147    3    0    1
 -2       173       994      3561      3623
 -1     10148    3    0    1
 -2       169       173      1832      3623
 -1     10149    3    0    1
 -2      2632      2733      2899      3641
 -1     10150    3    0    1
 -2      2632      2941      2947      3641
 -1     10151    3    0    1
 -2      3262      3591      3639      3450
 -1     10152    3    0    1
 -2      3592      1280      3664      3437
 -1     10153    3    0    1
 -2      1416      1417      1550      3394
 -1     10154    3    0    1
 -2      1514      1854      1855      3261
 -1     10155    3    0    1
 -2      3461      1914      3495      3737
 -1     10156    3    0    1
 -2      1416      1549      3315      3394
 -1     10157    3    0    1
 -2      1305       173      3603      3623
 -1     10158    3    0    1
 -2      3560      1305      3603      3623
 -1     10159    3    0    1
 -2       994      1305      3560      3623
 -1     10160    3    0    1
 -2      3523      1736      3561      3623
 -1     10161    3    0    1
 -2      3560      3523      3561      3623
 -1     10162    3    0    1
 -2      3523      3560      1736      3623
 -1     10163    3    0    1
 -2       994       173      1305      3623
 -1     10164    3    0    1
 -2      3131      3137      3620      3374
 -1     10165    3    0    1
 -2      1557      1610      3103      3640
 -1     10166    3    0    1
 -2      3640      3006      3316      3334
 -1     10167    3    0    1
 -2      1573      1574      1611      3334
 -1     10168    3    0    1
 -2      2931      2441      3608      3500
 -1     10169    3    0    1
 -2      3307      1854      3313      3453
 -1     10170    3    0    1
 -2      1573      1748      1749      3316
 -1     10171    3    0    1
 -2      1687      1688      3058      3347
 -1     10172    3    0    1
 -2      2292      3515      3554      3632
 -1     10173    3    0    1
 -2       329      1010      3554      3632
 -1     10174    3    0    1
 -2      3564      3062      3145      3659
 -1     10175    3    0    1
 -2      3380      3317      3415      3736
 -1     10176    3    0    1
 -2      1748      1573      3640      3316
 -1     10177    3    0    1
 -2       329      3554      3556      3632
 -1     10178    3    0    1
 -2      1512      1603      2932      3290
 -1     10179    3    0    1
 -2       957      1286      2555      3412
 -1     10180    3    0    1
 -2      1301      2726      3561      3290
 -1     10181    3    0    1
 -2      1467      1466      3098      1895
 -1     10182    3    0    1
 -2      3264      3098      1894      1895
 -1     10183    3    0    1
 -2      1669      1462      1670      3275
 -1     10184    3    0    1
 -2      1669      1670      3242      3275
 -1     10185    3    0    1
 -2      3214      1858      1859      3265
 -1     10186    3    0    1
 -2       630      3298      3316      3333
 -1     10187    3    0    1
 -2      2597      2631      3591      3396
 -1     10188    3    0    1
 -2      1855      1854      3307      3453
 -1     10189    3    0    1
 -2      2620      3307      3313      3453
 -1     10190    3    0    1
 -2      3594      3576      3599      3373
 -1     10191    3    0    1
 -2      3313      1870      3357      3494
 -1     10192    3    0    1
 -2      3509      1423      3672      3700
 -1     10193    3    0    1
 -2      3552      3650      3656      3735
 -1     10194    3    0    1
 -2      1830      1765      3613      3373
 -1     10195    3    0    1
 -2      1765      3594      3613      3373
 -1     10196    3    0    1
 -2      3599      3576      3601      3373
 -1     10197    3    0    1
 -2      3318      3322      3670      3380
 -1     10198    3    0    1
 -2      3112      3169      3192      3624
 -1     10199    3    0    1
 -2       171       185      1530      3658
 -1     10200    3    0    1
 -2      3594      1002      3613      3658
 -1     10201    3    0    1
 -2      2580      2695      2900      3659
 -1     10202    3    0    1
 -2       185      1002      3597      3658
 -1     10203    3    0    1
 -2      1002       185      3613      3658
 -1     10204    3    0    1
 -2      3062      1692      3145      3659
 -1     10205    3    0    1
 -2       738       748      2342      3338
 -1     10206    3    0    1
 -2      3601      3114      3515      3660
 -1     10207    3    0    1
 -2      2695      2643      3659      3358
 -1     10208    3    0    1
 -2       748       738      1027      3338
 -1     10209    3    0    1
 -2       702      1798      3186      3659
 -1     10210    3    0    1
 -2      1027       738      3634      3338
 -1     10211    3    0    1
 -2      3169      3070      3195      3624
 -1     10212    3    0    1
 -2      1781      3169      3195      3624
 -1     10213    3    0    1
 -2      2564      2533      2942      3624
 -1     10214    3    0    1
 -2      2533      2851      2942      3624
 -1     10215    3    0    1
 -2      3070      3187      3195      3624
 -1     10216    3    0    1
 -2      1638      1781      3195      3624
 -1     10217    3    0    1
 -2      2564      2942      2999      3624
 -1     10218    3    0    1
 -2      1781      1625      3169      3624
 -1     10219    3    0    1
 -2      2999      2942      3180      3624
 -1     10220    3    0    1
 -2      3547      3536      3576      3658
 -1     10221    3    0    1
 -2      3307      2620      3313      3440
 -1     10222    3    0    1
 -2      2986      2732      3166      3659
 -1     10223    3    0    1
 -2        59      3126      1883      1904
 -1     10224    3    0    1
 -2      3247      2643      3695      3722
 -1     10225    3    0    1
 -2      2851      3112      3192      3624
 -1     10226    3    0    1
 -2      2517      3257      3351      3736
 -1     10227    3    0    1
 -2      2695      2732      2986      3659
 -1     10228    3    0    1
 -2       748      1027      1320      3338
 -1     10229    3    0    1
 -2      3557      3546      3571      3630
 -1     10230    3    0    1
 -2       347      3571       264      3630
 -1     10231    3    0    1
 -2      1632      3095      1890      1891
 -1     10232    3    0    1
 -2      2606      2576      3093      3627
 -1     10233    3    0    1
 -2      3093      2576      3220      3627
 -1     10234    3    0    1
 -2      1448      2606      3093      3627
 -1     10235    3    0    1
 -2      2743      3006      3640      3334
 -1     10236    3    0    1
 -2      2576      3138      3220      3627
 -1     10237    3    0    1
 -2      1336      1632      2912      3627
 -1     10238    3    0    1
 -2      3552      2061      3650      3735
 -1     10239    3    0    1
 -2      3507      1419      3557      3630
 -1     10240    3    0    1
 -2      3571       347       264      3616
 -1     10241    3    0    1
 -2      1511      1448      3093      3627
 -1     10242    3    0    1
 -2      2576      2977      3138      3627
 -1     10243    3    0    1
 -2      1471      2808      2944      3289
 -1     10244    3    0    1
 -2       347      1332      3557      3630
 -1     10245    3    0    1
 -2      1511      3093      3095      3627
 -1     10246    3    0    1
 -2      1332      3507      3557      3630
 -1     10247    3    0    1
 -2      3664         1      3719      3473
 -1     10248    3    0    1
 -2      1493      1494      1730      3297
 -1     10249    3    0    1
 -2      1466      1467      3098      3353
 -1     10250    3    0    1
 -2      1494      2821      3185      3297
 -1     10251    3    0    1
 -2      1494      1493      2821      3297
 -1     10252    3    0    1
 -2      1687      1623      1688      3353
 -1     10253    3    0    1
 -2      3584      1466      3347      1894
 -1     10254    3    0    1
 -2      1467      1466      1688      3353
 -1     10255    3    0    1
 -2      1541      1428      3162      3328
 -1     10256    3    0    1
 -2      2583      2754      2928      3271
 -1     10257    3    0    1
 -2      1645      3161      3234      3271
 -1     10258    3    0    1
 -2      1462      1463      1670      3275
 -1     10259    3    0    1
 -2      3371      1497      1917      3454
 -1     10260    3    0    1
 -2      3451      3448      3495      3737
 -1     10261    3    0    1
 -2      2441      3505      3610      3500
 -1     10262    3    0    1
 -2      1914      1457      3451      3737
 -1     10263    3    0    1
 -2      3451      1457      3452      3737
 -1     10264    3    0    1
 -2      1826      1497      3376      3454
 -1     10265    3    0    1
 -2      1594      1595      1787      3276
 -1     10266    3    0    1
 -2      1787        94      1694       432
 -1     10267    3    0    1
 -2      1694      1786      1787      3276
 -1     10268    3    0    1
 -2      1594      2871      3215      3276
 -1     10269    3    0    1
 -2      1595      1594      3215      3276
 -1     10270    3    0    1
 -2      3175      1682      1833      3301
 -1     10271    3    0    1
 -2      3517      3506      3626      3663
 -1     10272    3    0    1
 -2      1535      1534      2911      3302
 -1     10273    3    0    1
 -2      2788      3173      3346      3498
 -1     10274    3    0    1
 -2      1448      3505      3610      3693
 -1     10275    3    0    1
 -2      1448      3610      3679      3693
 -1     10276    3    0    1
 -2      3134      2846      3687      3455
 -1     10277    3    0    1
 -2      3587      1634      3720      3497
 -1     10278    3    0    1
 -2      3627      3138      3268      3278
 -1     10279    3    0    1
 -2      3220      3627      3268      3278
 -1     10280    3    0    1
 -2      3547      3560      3603      3681
 -1     10281    3    0    1
 -2      3622      3138      3627      3278
 -1     10282    3    0    1
 -2      1421      3220      3268      3278
 -1     10283    3    0    1
 -2      1819      1421      3268      3278
 -1     10284    3    0    1
 -2      3507      1332      3604      3630
 -1     10285    3    0    1
 -2      3565      2880      2923      2494
 -1     10286    3    0    1
 -2       972      2201      2421      3688
 -1     10287    3    0    1
 -2      1037      1047      2465      3698
 -1     10288    3    0    1
 -2      1650      1425      3577      3692
 -1     10289    3    0    1
 -2      3186      2979      3642      3457
 -1     10290    3    0    1
 -2      2880      3565      2923      3279
 -1     10291    3    0    1
 -2      1612      1613      2928      3344
 -1     10292    3    0    1
 -2      2907      2636      3596      3653
 -1     10293    3    0    1
 -2      2700       919      2784      3282
 -1     10294    3    0    1
 -2      3298      3006      3640      3730
 -1     10295    3    0    1
 -2      1309      2292      3554      3280
 -1     10296    3    0    1
 -2      1309      2243      2292      3280
 -1     10297    3    0    1
 -2       712      1313      2388      3280
 -1     10298    3    0    1
 -2       701       694      1010      3280
 -1     10299    3    0    1
 -2       701       712      2153      3280
 -1     10300    3    0    1
 -2      2521      3543      3429      3476
 -1     10301    3    0    1
 -2      1309       694      2243      3280
 -1     10302    3    0    1
 -2       694      2153      2243      3280
 -1     10303    3    0    1
 -2       694       701      2153      3280
 -1     10304    3    0    1
 -2      1010      1309      3554      3280
 -1     10305    3    0    1
 -2      1309      1010       694      3280
 -1     10306    3    0    1
 -2       712      1010      1313      3280
 -1     10307    3    0    1
 -2       712       701      1010      3280
 -1     10308    3    0    1
 -2        28        27      1801      3309
 -1     10309    3    0    1
 -2       329      1313      3644      3489
 -1     10310    3    0    1
 -2      2218      2292      3280      3632
 -1     10311    3    0    1
 -2      2388      2218      3280      3632
 -1     10312    3    0    1
 -2      1010       329      1313      3632
 -1     10313    3    0    1
 -2      1478       919      2700      3282
 -1     10314    3    0    1
 -2      3525      3583      3626      3284
 -1     10315    3    0    1
 -2      3101      3525      3626      3284
 -1     10316    3    0    1
 -2      1436      3583      3078      3284
 -1     10317    3    0    1
 -2      1436      1607      3583      3284
 -1     10318    3    0    1
 -2      3517      3525      3101      3284
 -1     10319    3    0    1
 -2      3525      3517      3078      3284
 -1     10320    3    0    1
 -2      3078      3517      3101      3284
 -1     10321    3    0    1
 -2      3024       630      3619      3285
 -1     10322    3    0    1
 -2      3597      3009      3250      3360
 -1     10323    3    0    1
 -2      1515      1833      3256      3440
 -1     10324    3    0    1
 -2      1580       346      3593      3633
 -1     10325    3    0    1
 -2      3544      1415      3593      3633
 -1     10326    3    0    1
 -2      1415      1580      3593      3633
 -1     10327    3    0    1
 -2      1044      3544      3593      3633
 -1     10328    3    0    1
 -2       346      1044      3593      3633
 -1     10329    3    0    1
 -2      2765      2573      3569      3339
 -1     10330    3    0    1
 -2      2957      1537      3065      3339
 -1     10331    3    0    1
 -2       119       433      1510      1860
 -1     10332    3    0    1
 -2      3115       119      1510      1860
 -1     10333    3    0    1
 -2       119      3115      1510      1509
 -1     10334    3    0    1
 -2      3118      1642      1845      1861
 -1     10335    3    0    1
 -2      1642       332      1845      1861
 -1     10336    3    0    1
 -2      1845       332      1846      1861
 -1     10337    3    0    1
 -2      3118      1845      1846      1861
 -1     10338    3    0    1
 -2      1027      1317      3537      3634
 -1     10339    3    0    1
 -2      1618      1447      3562      3634
 -1     10340    3    0    1
 -2      1027       730      1317      3634
 -1     10341    3    0    1
 -2      1317       730      2396      3634
 -1     10342    3    0    1
 -2      3574      2586      3601      3660
 -1     10343    3    0    1
 -2      1708      3563      1875      3660
 -1     10344    3    0    1
 -2       196      1875      3645      3660
 -1     10345    3    0    1
 -2       335      1618      3562      3634
 -1     10346    3    0    1
 -2       738       730      1027      3634
 -1     10347    3    0    1
 -2      3537      1618      3196      3634
 -1     10348    3    0    1
 -2      3537      1618      1447      2699
 -1     10349    3    0    1
 -2      2671      1447      3537      3634
 -1     10350    3    0    1
 -2      1642       332      3586      3634
 -1     10351    3    0    1
 -2       332      1317      3602      3634
 -1     10352    3    0    1
 -2      3586       332      3602      3634
 -1     10353    3    0    1
 -2      1618       335      3196      3634
 -1     10354    3    0    1
 -2      3515      3504      3601      3660
 -1     10355    3    0    1
 -2      1875      3563      3645      3660
 -1     10356    3    0    1
 -2       730       738      2046      3634
 -1     10357    3    0    1
 -2       730      2046      2396      3634
 -1     10358    3    0    1
 -2      3537      1317      3052      3634
 -1     10359    3    0    1
 -2      2671      3537      3052      3634
 -1     10360    3    0    1
 -2       332      1642      1845      3634
 -1     10361    3    0    1
 -2      1655      3537      3196      3634
 -1     10362    3    0    1
 -2       335      1655      3196      3634
 -1     10363    3    0    1
 -2      1655      1027      3537      3634
 -1     10364    3    0    1
 -2      2671      3052      1845      3634
 -1     10365    3    0    1
 -2      3118      2671      1845      3634
 -1     10366    3    0    1
 -2      1642      3118      1845      3634
 -1     10367    3    0    1
 -2      3556      3515      3114      3660
 -1     10368    3    0    1
 -2      1618      3537      1447      3634
 -1     10369    3    0    1
 -2      1447      2671      1642      3634
 -1     10370    3    0    1
 -2      1317       332      1845      3634
 -1     10371    3    0    1
 -2       335      1027      1655      3634
 -1     10372    3    0    1
 -2      1642      2671      3118      3634
 -1     10373    3    0    1
 -2      3052      1317      1845      3634
 -1     10374    3    0    1
 -2      2841      3545      3243      3715
 -1     10375    3    0    1
 -2      3611      2487      3672      3700
 -1     10376    3    0    1
 -2      1848      1847      1859      3306
 -1     10377    3    0    1
 -2      3274      1847      1864      1865
 -1     10378    3    0    1
 -2      2871      2537      2884      3636
 -1     10379    3    0    1
 -2      2537      2871      3215      3636
 -1     10380    3    0    1
 -2        94       944      2998      3636
 -1     10381    3    0    1
 -2       944      2733      2998      3636
 -1     10382    3    0    1
 -2       754      1756      3572      3332
 -1     10383    3    0    1
 -2      2998      2733      3286      3636
 -1     10384    3    0    1
 -2      1412      2871      2884      3636
 -1     10385    3    0    1
 -2      2593      2537      3215      3636
 -1     10386    3    0    1
 -2      2871      1694      3276      3636
 -1     10387    3    0    1
 -2        94      2998      1786      3636
 -1     10388    3    0    1
 -2      3520      2250      3615      3711
 -1     10389    3    0    1
 -2       200       194      3502      1912
 -1     10390    3    0    1
 -2      1767      1601      3111      3680
 -1     10391    3    0    1
 -2      2871      1412      1694      3636
 -1     10392    3    0    1
 -2      2998      1594      1786      3636
 -1     10393    3    0    1
 -2      3171      3622      3278      1881
 -1     10394    3    0    1
 -2      3293      1858       450       549
 -1     10395    3    0    1
 -2      1847      1864      1865      3459
 -1     10396    3    0    1
 -2       279       276      3693      3712
 -1     10397    3    0    1
 -2      1682      3175      3622      3301
 -1     10398    3    0    1
 -2      1603      2642      2932      3290
 -1     10399    3    0    1
 -2      3638      3552      3662      3735
 -1     10400    3    0    1
 -2      1512      2932      3273      3290
 -1     10401    3    0    1
 -2      2934      1725      3273      3290
 -1     10402    3    0    1
 -2      1521      2934      2951      3290
 -1     10403    3    0    1
 -2      3306      1847      3714      3459
 -1     10404    3    0    1
 -2      3565      2526      3040      3637
 -1     10405    3    0    1
 -2      2770      3565      3040      3637
 -1     10406    3    0    1
 -2       356       354      3528      3686
 -1     10407    3    0    1
 -2      2941      3331      3703      3708
 -1     10408    3    0    1
 -2      2692      1526      2875      3637
 -1     10409    3    0    1
 -2      3214      1858      3265      3458
 -1     10410    3    0    1
 -2      2390       189      3684      1943
 -1     10411    3    0    1
 -2      2808      2944      3289      3637
 -1     10412    3    0    1
 -2      2875      1526      2944      3637
 -1     10413    3    0    1
 -2      1526      1591      2944      3637
 -1     10414    3    0    1
 -2      2944      1591      3289      3637
 -1     10415    3    0    1
 -2      2883      2873      2959      3637
 -1     10416    3    0    1
 -2      2681      2873      2883      3637
 -1     10417    3    0    1
 -2      2493      2587      2688      3637
 -1     10418    3    0    1
 -2       736      2883      2959      3637
 -1     10419    3    0    1
 -2      1897      1896      1901      3374
 -1     10420    3    0    1
 -2      2688      2587      2692      3637
 -1     10421    3    0    1
 -2      2692      2587      2880      3637
 -1     10422    3    0    1
 -2       336       337      3696      1930
 -1     10423    3    0    1
 -2      1571      3135      3308      3367
 -1     10424    3    0    1
 -2      2493      2526      2587      3637
 -1     10425    3    0    1
 -2      1526       736      2959      3637
 -1     10426    3    0    1
 -2      1526      2959      3289      3637
 -1     10427    3    0    1
 -2      2688      2692      2875      3637
 -1     10428    3    0    1
 -2      2493      2688      2808      3637
 -1     10429    3    0    1
 -2      2652      2493      2808      3637
 -1     10430    3    0    1
 -2      2587      2494      2880      3637
 -1     10431    3    0    1
 -2      2791      3110      3641      3708
 -1     10432    3    0    1
 -2      1591      1526      3289      3637
 -1     10433    3    0    1
 -2      2808      2688      2944      3637
 -1     10434    3    0    1
 -2      2688      2875      2944      3637
 -1     10435    3    0    1
 -2      1682      1683      1834      3301
 -1     10436    3    0    1
 -2      2676      3368      3677      3472
 -1     10437    3    0    1
 -2      1438      2676      3677      3472
 -1     10438    3    0    1
 -2      2502      2514      2570      3638
 -1     10439    3    0    1
 -2      3633       346      3661      3706
 -1     10440    3    0    1
 -2      3256      2620      3440      3736
 -1     10441    3    0    1
 -2      2285      3511      3517      3638
 -1     10442    3    0    1
 -2      2514      2285      3517      3638
 -1     10443    3    0    1
 -2      2626      3517      2780      3638
 -1     10444    3    0    1
 -2      2626      2514      3517      3638
 -1     10445    3    0    1
 -2      3257      2517      3670      3736
 -1     10446    3    0    1
 -2      2570      2514      2626      3638
 -1     10447    3    0    1
 -2      3313      3357      3440      3736
 -1     10448    3    0    1
 -2      3175      3047      3622      3736
 -1     10449    3    0    1
 -2      3376      3670      3454      3736
 -1     10450    3    0    1
 -2      3622      3317      3318      3736
 -1     10451    3    0    1
 -2      3415      3397      3454      3736
 -1     10452    3    0    1
 -2      3622      3318      3670      3736
 -1     10453    3    0    1
 -2      1466      1467      1688      3347
 -1     10454    3    0    1
 -2      2849      2780      3222      3638
 -1     10455    3    0    1
 -2      2514      2502      2522      3638
 -1     10456    3    0    1
 -2      2570      2780      2849      3638
 -1     10457    3    0    1
 -2      2285      2514      2522      3638
 -1     10458    3    0    1
 -2      2288      2570      2849      3638
 -1     10459    3    0    1
 -2      2502      2061      2522      3638
 -1     10460    3    0    1
 -2      2570      2626      2780      3638
 -1     10461    3    0    1
 -2      3317      3047      3494      3736
 -1     10462    3    0    1
 -2      2816      1416      3019      3654
 -1     10463    3    0    1
 -2      1044      2644      2708      3655
 -1     10464    3    0    1
 -2      1518      1519      1810      3314
 -1     10465    3    0    1
 -2      3002      3538      3240      3296
 -1     10466    3    0    1
 -2      3538       977      3240      3296
 -1     10467    3    0    1
 -2       977      3538      3096      3296
 -1     10468    3    0    1
 -2      1848      1847      3306      3459
 -1     10469    3    0    1
 -2      3035       754      3572      3332
 -1     10470    3    0    1
 -2      2949      2800      3122      3675
 -1     10471    3    0    1
 -2      3551      3088      3165      3705
 -1     10472    3    0    1
 -2      1653      1652      3232      1937
 -1     10473    3    0    1
 -2      3671      2590      3452      3737
 -1     10474    3    0    1
 -2      3596      2995      3305      3647
 -1     10475    3    0    1
 -2      3103      3021      3640      3334
 -1     10476    3    0    1
 -2      2831      3559      3086      3710
 -1     10477    3    0    1
 -2      3192      2851      3624      3323
 -1     10478    3    0    1
 -2      2851      2942      3624      3323
 -1     10479    3    0    1
 -2      2547      3552      3039      3648
 -1     10480    3    0    1
 -2      1854      1515      3307      3440
 -1     10481    3    0    1
 -2      1696      3575      1840      3648
 -1     10482    3    0    1
 -2      1715      3130      1869      3300
 -1     10483    3    0    1
 -2      2677      2914      2915      3300
 -1     10484    3    0    1
 -2      3003      1619      3349      1948
 -1     10485    3    0    1
 -2      1457      1458      1915      3451
 -1     10486    3    0    1
 -2      3532      3587      3720      3724
 -1     10487    3    0    1
 -2      2620      2517      3351      3736
 -1     10488    3    0    1
 -2      1941         2      1942      1960
 -1     10489    3    0    1
 -2      1425      1758      3611      3666
 -1     10490    3    0    1
 -2        29         2      1941      1960
 -1     10491    3    0    1
 -2      3395      3397      3415      3736
 -1     10492    3    0    1
 -2       631       622       980      1923
 -1     10493    3    0    1
 -2      1692      2695      2986      3659
 -1     10494    3    0    1
 -2      3505      3501      3546      3500
 -1     10495    3    0    1
 -2      1854      3307      3313      3440
 -1     10496    3    0    1
 -2      2515      3245      3262      3639
 -1     10497    3    0    1
 -2      3544      3593      3683      3724
 -1     10498    3    0    1
 -2      2801      2660      2803      3639
 -1     10499    3    0    1
 -2      3245      3244      3263      3639
 -1     10500    3    0    1
 -2      2619      3244      3245      3639
 -1     10501    3    0    1
 -2      2515      2879      3245      3639
 -1     10502    3    0    1
 -2      2532      2511      3520      3724
 -1     10503    3    0    1
 -2      2879      2619      3245      3639
 -1     10504    3    0    1
 -2      1035       756      2342      3724
 -1     10505    3    0    1
 -2      3395      3351      3397      3736
 -1     10506    3    0    1
 -2      3608      2441      3610      3500
 -1     10507    3    0    1
 -2      1870      3313      3357      3440
 -1     10508    3    0    1
 -2      1610      1557      3296      3640
 -1     10509    3    0    1
 -2       961      1290      2290      3663
 -1     10510    3    0    1
 -2       450      3293      1873      1874
 -1     10511    3    0    1
 -2      2261      2614      3477      3733
 -1     10512    3    0    1
 -2      2672      2538      3099      3641
 -1     10513    3    0    1
 -2      2538      2902      3099      3641
 -1     10514    3    0    1
 -2      2941      2632      3288      3641
 -1     10515    3    0    1
 -2      2733      2947      2954      3641
 -1     10516    3    0    1
 -2      2902      2791      3099      3641
 -1     10517    3    0    1
 -2      2672      3099      3214      3641
 -1     10518    3    0    1
 -2      2632      2899      3288      3641
 -1     10519    3    0    1
 -2      3165      3088      3291      3705
 -1     10520    3    0    1
 -2      1847      1865      3714      3459
 -1     10521    3    0    1
 -2      3099      2791      3110      3641
 -1     10522    3    0    1
 -2      2672      3214      3265      3641
 -1     10523    3    0    1
 -2      1573      2778      3580      3419
 -1     10524    3    0    1
 -2      3505      3546      3486      3500
 -1     10525    3    0    1
 -2       248       342      2598      3723
 -1     10526    3    0    1
 -2      1013       189      2390      1943
 -1     10527    3    0    1
 -2      2979      3145      3186      3642
 -1     10528    3    0    1
 -2      3288      3641      3341      3458
 -1     10529    3    0    1
 -2      2979      2728      3145      3642
 -1     10530    3    0    1
 -2      1564      1565      2921      1940
 -1     10531    3    0    1
 -2      3213      2889      3657      3382
 -1     10532    3    0    1
 -2      3166      2732      3224      3642
 -1     10533    3    0    1
 -2      3269      2971      3681      3731
 -1     10534    3    0    1
 -2      1734      1564      3186      3642
 -1     10535    3    0    1
 -2      2679      2881      3533      2798
 -1     10536    3    0    1
 -2      2898      3017      3302      3643
 -1     10537    3    0    1
 -2      2756      2771      3533      3643
 -1     10538    3    0    1
 -2      3017      2898      3049      3643
 -1     10539    3    0    1
 -2      2795      3017      3049      3643
 -1     10540    3    0    1
 -2      1740      1534      3302      3643
 -1     10541    3    0    1
 -2      3017      1740      3302      3643
 -1     10542    3    0    1
 -2      3533      2795      3049      3643
 -1     10543    3    0    1
 -2      2756      3533      3049      3643
 -1     10544    3    0    1
 -2      1531      2696      2911      3643
 -1     10545    3    0    1
 -2      2795      2997      3017      3643
 -1     10546    3    0    1
 -2      2795      2691      2997      3643
 -1     10547    3    0    1
 -2      1534      2997      1836      3643
 -1     10548    3    0    1
 -2      2696      1531      2881      3643
 -1     10549    3    0    1
 -2      2911      2696      3302      3643
 -1     10550    3    0    1
 -2      2771      2696      2881      3643
 -1     10551    3    0    1
 -2      2696      2756      2898      3643
 -1     10552    3    0    1
 -2      2696      2898      3302      3643
 -1     10553    3    0    1
 -2      2997      1534      3017      3643
 -1     10554    3    0    1
 -2      2756      2696      2771      3643
 -1     10555    3    0    1
 -2      1534      1740      3017      3643
 -1     10556    3    0    1
 -2      2898      2756      3049      3643
 -1     10557    3    0    1
 -2      3198      3211      3210      1883
 -1     10558    3    0    1
 -2       329      1708      3563      1875
 -1     10559    3    0    1
 -2      3504      2218      3574      3644
 -1     10560    3    0    1
 -2      3574      2218      3602      3644
 -1     10561    3    0    1
 -2      1523       332      1845      3644
 -1     10562    3    0    1
 -2      3033      3029      1845      3644
 -1     10563    3    0    1
 -2      3029      1523      1845      3644
 -1     10564    3    0    1
 -2      3199      2907      3211      3653
 -1     10565    3    0    1
 -2      2636      2907      3199      3653
 -1     10566    3    0    1
 -2      2794      2925      3589      3730
 -1     10567    3    0    1
 -2      1313      2682      2983      3644
 -1     10568    3    0    1
 -2      1706       329      2920      3644
 -1     10569    3    0    1
 -2      3501      1419      1508      3491
 -1     10570    3    0    1
 -2      1018      2983      3033      3644
 -1     10571    3    0    1
 -2      1452      2701      1708      3644
 -1     10572    3    0    1
 -2      1452      1523      3029      3644
 -1     10573    3    0    1
 -2      2577      1452      3029      3644
 -1     10574    3    0    1
 -2      1452      2577      2701      3644
 -1     10575    3    0    1
 -2      1708      2701      2920      3644
 -1     10576    3    0    1
 -2       332      1018      1845      3644
 -1     10577    3    0    1
 -2      1018      3033      1845      3644
 -1     10578    3    0    1
 -2      2682      1313      3053      3644
 -1     10579    3    0    1
 -2      1419      3501      3546      3491
 -1     10580    3    0    1
 -2      3501      1508      3712      3491
 -1     10581    3    0    1
 -2      3378      3362      3678      3432
 -1     10582    3    0    1
 -2      2602      2761      3531      3647
 -1     10583    3    0    1
 -2      1506      2990      3109      3647
 -1     10584    3    0    1
 -2      1506      1738      2990      3647
 -1     10585    3    0    1
 -2      3678      3358      3695      3432
 -1     10586    3    0    1
 -2      2761      2948      3595      3647
 -1     10587    3    0    1
 -2      3531      2761      3595      3647
 -1     10588    3    0    1
 -2      1457      1487      3671      3493
 -1     10589    3    0    1
 -2      2948      3067      3595      3647
 -1     10590    3    0    1
 -2      2920      1706      3644      3489
 -1     10591    3    0    1
 -2      2995      2588      3109      3647
 -1     10592    3    0    1
 -2      2747      2602      2787      3647
 -1     10593    3    0    1
 -2      2602      2747      2990      3647
 -1     10594    3    0    1
 -2      2990      2747      3287      3647
 -1     10595    3    0    1
 -2      2747      2746      2895      3647
 -1     10596    3    0    1
 -2      1313      3053      3644      3489
 -1     10597    3    0    1
 -2      1896      1897      3378      3432
 -1     10598    3    0    1
 -2      2787      2602      2809      3647
 -1     10599    3    0    1
 -2      2747      3596      2787      2636
 -1     10600    3    0    1
 -2      2948      2602      2990      3647
 -1     10601    3    0    1
 -2      2761      2602      2948      3647
 -1     10602    3    0    1
 -2      1738      1506      3109      3647
 -1     10603    3    0    1
 -2      1432      3263      3639      3474
 -1     10604    3    0    1
 -2      2704      1479      1685      3325
 -1     10605    3    0    1
 -2        47       268      1854      1934
 -1     10606    3    0    1
 -2      2741      3558      3149      3312
 -1     10607    3    0    1
 -2      2834      2741      3149      3312
 -1     10608    3    0    1
 -2      2834      1619      3117      3312
 -1     10609    3    0    1
 -2      3117      2964      3609      3312
 -1     10610    3    0    1
 -2      3558      3117      3609      3312
 -1     10611    3    0    1
 -2      2964      3558      3609      3312
 -1     10612    3    0    1
 -2      3558      2741      3117      3312
 -1     10613    3    0    1
 -2      2741      2834      3117      3312
 -1     10614    3    0    1
 -2      1854       268      1870      3313
 -1     10615    3    0    1
 -2       435       226      1905      3720
 -1     10616    3    0    1
 -2      2717      1473      3173      3498
 -1     10617    3    0    1
 -2      3233      3298      3462      3730
 -1     10618    3    0    1
 -2      1068       353      1280      3664
 -1     10619    3    0    1
 -2        43       250      1926      1928
 -1     10620    3    0    1
 -2      2547      1284      3575      3648
 -1     10621    3    0    1
 -2      1284      2547      3039      3648
 -1     10622    3    0    1
 -2      3514      2547      3575      3648
 -1     10623    3    0    1
 -2      2547      3514      3552      3648
 -1     10624    3    0    1
 -2       944      3039      3588      3648
 -1     10625    3    0    1
 -2       944      1284      3039      3648
 -1     10626    3    0    1
 -2      1625      3192      3624      3323
 -1     10627    3    0    1
 -2      1638      1780      1781      3323
 -1     10628    3    0    1
 -2      1696      1413      3575      3648
 -1     10629    3    0    1
 -2      3125      3213      3319      3657
 -1     10630    3    0    1
 -2      1413      3514      3575      3648
 -1     10631    3    0    1
 -2      3514      1413      3552      3648
 -1     10632    3    0    1
 -2       944        94      1284      3648
 -1     10633    3    0    1
 -2      3585      2826      3150      3446
 -1     10634    3    0    1
 -2      2980      2759      3620      3320
 -1     10635    3    0    1
 -2      3670      3380      3454      3736
 -1     10636    3    0    1
 -2      2612      2446      3416      3696
 -1     10637    3    0    1
 -2      1650      1680      3577      3649
 -1     10638    3    0    1
 -2      2653      1541      2740      3445
 -1     10639    3    0    1
 -2      2528      2561      3559      3710
 -1     10640    3    0    1
 -2      2956      1479      3213      3319
 -1     10641    3    0    1
 -2      3179      1678      3264      3669
 -1     10642    3    0    1
 -2      2454       257      3697      3733
 -1     10643    3    0    1
 -2      1578      1666      3061      3320
 -1     10644    3    0    1
 -2      2757      3058      3584      3674
 -1     10645    3    0    1
 -2      1479      3125      3213      3319
 -1     10646    3    0    1
 -2      3253      2755      3304      3730
 -1     10647    3    0    1
 -2      2848      2980      3620      3320
 -1     10648    3    0    1
 -2      3610      1867      3718      3496
 -1     10649    3    0    1
 -2      3238      1925      1926      1928
 -1     10650    3    0    1
 -2      1703      3603      1868      3352
 -1     10651    3    0    1
 -2      3534      3577      3617      3649
 -1     10652    3    0    1
 -2      2783      3151      3328      3682
 -1     10653    3    0    1
 -2      1708      3563      3660      3464
 -1     10654    3    0    1
 -2      3136      3266      3364      3671
 -1     10655    3    0    1
 -2      2848      1578      3061      3320
 -1     10656    3    0    1
 -2      2980      2848      3061      3320
 -1     10657    3    0    1
 -2      1147      2759      1666      3320
 -1     10658    3    0    1
 -2      1666      2759      2980      3320
 -1     10659    3    0    1
 -2      1666      2980      3061      3320
 -1     10660    3    0    1
 -2      1434      3351      3395      3736
 -1     10661    3    0    1
 -2      2568      2653      3568      3445
 -1     10662    3    0    1
 -2      3381      3243      3709      3499
 -1     10663    3    0    1
 -2      3136       666      3254      3671
 -1     10664    3    0    1
 -2      3368      3362      3691      3472
 -1     10665    3    0    1
 -2      2653      2568      3050      3445
 -1     10666    3    0    1
 -2      1428      1541      2653      3445
 -1     10667    3    0    1
 -2      2536      2510      2910      3671
 -1     10668    3    0    1
 -2      3573      3588      3105      3650
 -1     10669    3    0    1
 -2      2061      3573      3105      3650
 -1     10670    3    0    1
 -2      2720      2562      3070      3657
 -1     10671    3    0    1
 -2      2956      3001      3319      3657
 -1     10672    3    0    1
 -2      3001      3048      3319      3657
 -1     10673    3    0    1
 -2      2533      2851      3624      3657
 -1     10674    3    0    1
 -2      1638      1781      3624      3323
 -1     10675    3    0    1
 -2      3180      1638      3624      3323
 -1     10676    3    0    1
 -2       218        59      1884      1904
 -1     10677    3    0    1
 -2      1883      3157      1884      1904
 -1     10678    3    0    1
 -2      1770      2755      3253      3369
 -1     10679    3    0    1
 -2      1562      1586      2680      3369
 -1     10680    3    0    1
 -2      3247      1810      3470      3722
 -1     10681    3    0    1
 -2      1734      3038      1798      3651
 -1     10682    3    0    1
 -2      3435      3387      1941      1961
 -1     10683    3    0    1
 -2      3564      3642      3717      3722
 -1     10684    3    0    1
 -2      3379      1519      3469      3722
 -1     10685    3    0    1
 -2      3501      2194      2697      3500
 -1     10686    3    0    1
 -2       619       630      3285      1899
 -1     10687    3    0    1
 -2        23        26      1880      1945
 -1     10688    3    0    1
 -2      1734      1564      3106      3651
 -1     10689    3    0    1
 -2      1707      1706      2921      1940
 -1     10690    3    0    1
 -2      3501      2697      3546      3500
 -1     10691    3    0    1
 -2      2966      2861      3564      3678
 -1     10692    3    0    1
 -2      3687      3363      3413      3700
 -1     10693    3    0    1
 -2      2800      2645      2985      3651
 -1     10694    3    0    1
 -2      3026      2682      3053      3651
 -1     10695    3    0    1
 -2      3285      1559      1899      3377
 -1     10696    3    0    1
 -2      3026      3053      3188      3651
 -1     10697    3    0    1
 -2      2645      2748      2985      3651
 -1     10698    3    0    1
 -2      2577      2800      2985      3651
 -1     10699    3    0    1
 -2      2577      2985      3051      3651
 -1     10700    3    0    1
 -2      2985      2748      3038      3651
 -1     10701    3    0    1
 -2      2985      3038      3106      3651
 -1     10702    3    0    1
 -2      3053      1734      3188      3651
 -1     10703    3    0    1
 -2      3051      2985      3106      3651
 -1     10704    3    0    1
 -2      2701      2577      3051      3651
 -1     10705    3    0    1
 -2      1734      1798      3188      3651
 -1     10706    3    0    1
 -2      3174      3717      3469      3722
 -1     10707    3    0    1
 -2      1898      3398      3435      1961
 -1     10708    3    0    1
 -2      1759      1496      3310      3653
 -1     10709    3    0    1
 -2      2636      1418      2746      3653
 -1     10710    3    0    1
 -2      1418      2897      3140      3653
 -1     10711    3    0    1
 -2        26      1645      3234      1880
 -1     10712    3    0    1
 -2       226      1634      1905      3720
 -1     10713    3    0    1
 -2        23        26      3234      1880
 -1     10714    3    0    1
 -2      2134      3523      3547      3731
 -1     10715    3    0    1
 -2      3610      1867      3679      3718
 -1     10716    3    0    1
 -2         1       353      1867      3718
 -1     10717    3    0    1
 -2      1442      2754      3267      3327
 -1     10718    3    0    1
 -2      1727      1442      3267      3327
 -1     10719    3    0    1
 -2      3527      2754      3271      3327
 -1     10720    3    0    1
 -2      2926      1540      3014      3327
 -1     10721    3    0    1
 -2      3014      1540      3267      3327
 -1     10722    3    0    1
 -2      2754      3527      3014      3327
 -1     10723    3    0    1
 -2      3527      2926      3014      3327
 -1     10724    3    0    1
 -2      3527      2753      2926      3327
 -1     10725    3    0    1
 -2      2754      3014      3267      3327
 -1     10726    3    0    1
 -2      1583      1489      3646      3329
 -1     10727    3    0    1
 -2      2593      1476      1583      3329
 -1     10728    3    0    1
 -2      1476      2593      3215      3329
 -1     10729    3    0    1
 -2      3215      2593      3636      3329
 -1     10730    3    0    1
 -2      2593      1583      2868      3329
 -1     10731    3    0    1
 -2      2868      1583      3646      3329
 -1     10732    3    0    1
 -2      2593      2868      3646      3329
 -1     10733    3    0    1
 -2      3171       808      3622      1881
 -1     10734    3    0    1
 -2      3567      2835      3655      3372
 -1     10735    3    0    1
 -2      1810      3247      1907      3695
 -1     10736    3    0    1
 -2      2988       808      3581      1881
 -1     10737    3    0    1
 -2      1579      1578      2866      3385
 -1     10738    3    0    1
 -2      3505      2441      3610      3437
 -1     10739    3    0    1
 -2      3198      1817      3310      1883
 -1     10740    3    0    1
 -2      1596      3198      3211      3653
 -1     10741    3    0    1
 -2      3198      1596      3211      1883
 -1     10742    3    0    1
 -2        59      1817      3198      1883
 -1     10743    3    0    1
 -2        59      3198      1828      1883
 -1     10744    3    0    1
 -2      1881      1547      1882      3330
 -1     10745    3    0    1
 -2      3153      1881      1882      3330
 -1     10746    3    0    1
 -2      3268      1547      3278      3330
 -1     10747    3    0    1
 -2      3138      3268      3278      3330
 -1     10748    3    0    1
 -2      3278      1547      1881      3330
 -1     10749    3    0    1
 -2       353      3592      3664      3719
 -1     10750    3    0    1
 -2      2556      3564      3174      3406
 -1     10751    3    0    1
 -2      2941      2632      2947      3331
 -1     10752    3    0    1
 -2      2216      1013      2390      3684
 -1     10753    3    0    1
 -2      2632       475      2947      3331
 -1     10754    3    0    1
 -2       476       475      2632      3331
 -1     10755    3    0    1
 -2      2585      2485      3510      3411
 -1     10756    3    0    1
 -2      1803      1428      3328      3701
 -1     10757    3    0    1
 -2      1485      2664      2763      3438
 -1     10758    3    0    1
 -2      1551       648      2775      3438
 -1     10759    3    0    1
 -2      2407      2501      3030      3463
 -1     10760    3    0    1
 -2      2730      3551      3165      3705
 -1     10761    3    0    1
 -2       475      1167      2947      3331
 -1     10762    3    0    1
 -2      1169      2632      2941      3331
 -1     10763    3    0    1
 -2      1415      3544      3593      3683
 -1     10764    3    0    1
 -2      2319      2216      2599      3684
 -1     10765    3    0    1
 -2      1519      3163      3379      3469
 -1     10766    3    0    1
 -2      1169       476      2632      3331
 -1     10767    3    0    1
 -2      1004      1013      2319      3684
 -1     10768    3    0    1
 -2      2683      2775      3570      3438
 -1     10769    3    0    1
 -2      1781      1780      3237      3342
 -1     10770    3    0    1
 -2      2672      3265      3274      3654
 -1     10771    3    0    1
 -2      3543      2664      2903      3438
 -1     10772    3    0    1
 -2      2537      2538      2672      3654
 -1     10773    3    0    1
 -2      2896      3581      3384      3713
 -1     10774    3    0    1
 -2      2994      2833      3567      3655
 -1     10775    3    0    1
 -2      2790      2994      3567      3655
 -1     10776    3    0    1
 -2      2983      3033      3651      3675
 -1     10777    3    0    1
 -2      2835      2529      3567      3655
 -1     10778    3    0    1
 -2      3588      1412      3592      3721
 -1     10779    3    0    1
 -2      1640       720      2949      3675
 -1     10780    3    0    1
 -2      2777      2782      2830      3711
 -1     10781    3    0    1
 -2      1447      3503      3522      3711
 -1     10782    3    0    1
 -2      2949       720      3060      3675
 -1     10783    3    0    1
 -2      1324      2790      3593      3655
 -1     10784    3    0    1
 -2      2654      1324      3593      3655
 -1     10785    3    0    1
 -2      1324      1044      2790      3655
 -1     10786    3    0    1
 -2      1044      1324      2644      3655
 -1     10787    3    0    1
 -2      3589      2755      3369      3730
 -1     10788    3    0    1
 -2      3094      2774      3589      3730
 -1     10789    3    0    1
 -2      3298      3640      3333      3730
 -1     10790    3    0    1
 -2      3392       237      2273      3723
 -1     10791    3    0    1
 -2      2729      3531      3595      3391
 -1     10792    3    0    1
 -2      3584      2654      3593      3655
 -1     10793    3    0    1
 -2      2790      3584      3593      3655
 -1     10794    3    0    1
 -2      2670      2842      3543      3429
 -1     10795    3    0    1
 -2      1248      2634      2817      3429
 -1     10796    3    0    1
 -2      2644      2654      3015      3655
 -1     10797    3    0    1
 -2      3015      2654      3035      3655
 -1     10798    3    0    1
 -2      1198      2644      3015      3655
 -1     10799    3    0    1
 -2      2644      1324      2654      3655
 -1     10800    3    0    1
 -2      2790      2708      2833      3655
 -1     10801    3    0    1
 -2       767       237      1047      1957
 -1     10802    3    0    1
 -2      1044      2708      2790      3655
 -1     10803    3    0    1
 -2      2790      2833      2994      3655
 -1     10804    3    0    1
 -2       908      2720      3070      3657
 -1     10805    3    0    1
 -2      1165       908      3070      3657
 -1     10806    3    0    1
 -2      1460      1637      3112      3657
 -1     10807    3    0    1
 -2      3048      2711      3069      3657
 -1     10808    3    0    1
 -2      3001      2711      3048      3657
 -1     10809    3    0    1
 -2      3535      2969      3069      3657
 -1     10810    3    0    1
 -2      2562      2796      3070      3657
 -1     10811    3    0    1
 -2      2796      2562      2969      3657
 -1     10812    3    0    1
 -2      2711      2596      3069      3657
 -1     10813    3    0    1
 -2      2564      2533      3624      3657
 -1     10814    3    0    1
 -2      2596      3535      3069      3657
 -1     10815    3    0    1
 -2      2796      3535      3187      3657
 -1     10816    3    0    1
 -2      3535      2796      2969      3657
 -1     10817    3    0    1
 -2      3187      2564      3624      3657
 -1     10818    3    0    1
 -2      2596      2564      3535      3657
 -1     10819    3    0    1
 -2      3535      2564      3187      3657
 -1     10820    3    0    1
 -2      3048      2720      3125      3657
 -1     10821    3    0    1
 -2      2720      1649      3125      3657
 -1     10822    3    0    1
 -2      2969      2720      3048      3657
 -1     10823    3    0    1
 -2      1649       908      2823      3657
 -1     10824    3    0    1
 -2      2720       908      1649      3657
 -1     10825    3    0    1
 -2      2889      2824      3213      3657
 -1     10826    3    0    1
 -2      2824      2533      2956      3657
 -1     10827    3    0    1
 -2      2824      2956      3213      3657
 -1     10828    3    0    1
 -2      3048      3125      3319      3657
 -1     10829    3    0    1
 -2      1637      3070      3169      3657
 -1     10830    3    0    1
 -2       908      1165      2823      3657
 -1     10831    3    0    1
 -2      2824      1460      3112      3657
 -1     10832    3    0    1
 -2      2851      2824      3112      3657
 -1     10833    3    0    1
 -2      2533      2824      2851      3657
 -1     10834    3    0    1
 -2      2533      2711      2956      3657
 -1     10835    3    0    1
 -2      2969      3048      3069      3657
 -1     10836    3    0    1
 -2      2562      2720      2969      3657
 -1     10837    3    0    1
 -2      1637      1165      3070      3657
 -1     10838    3    0    1
 -2      1165      1637      2823      3657
 -1     10839    3    0    1
 -2      1637      1460      2823      3657
 -1     10840    3    0    1
 -2      2956      2711      3001      3657
 -1     10841    3    0    1
 -2      3070      2796      3187      3657
 -1     10842    3    0    1
 -2      2533      2596      2711      3657
 -1     10843    3    0    1
 -2      2533      2564      2596      3657
 -1     10844    3    0    1
 -2      1779       196      3645      3660
 -1     10845    3    0    1
 -2      3173        43      1925      1946
 -1     10846    3    0    1
 -2      3633       346      3706      1947
 -1     10847    3    0    1
 -2      1580       346      3633      1947
 -1     10848    3    0    1
 -2      1415      3545      3468      3499
 -1     10849    3    0    1
 -2       196      3114      1875      3660
 -1     10850    3    0    1
 -2       196      1779      3114      3660
 -1     10851    3    0    1
 -2      1044       774      2355      3661
 -1     10852    3    0    1
 -2      2241      2686      2772      3661
 -1     10853    3    0    1
 -2      2355      2241      2772      3661
 -1     10854    3    0    1
 -2      1044       346      1327      3661
 -1     10855    3    0    1
 -2       784      1044      1327      3661
 -1     10856    3    0    1
 -2       784       774      1044      3661
 -1     10857    3    0    1
 -2      3654      1416      1549      3341
 -1     10858    3    0    1
 -2      3274      2816      3654      3341
 -1     10859    3    0    1
 -2      2816      3274      1865      3341
 -1     10860    3    0    1
 -2      3265      3274      3654      3341
 -1     10861    3    0    1
 -2      3265      1847      3274      3341
 -1     10862    3    0    1
 -2      3288      3641      3654      3341
 -1     10863    3    0    1
 -2      1847      1848      1864      3459
 -1     10864    3    0    1
 -2      3081      3306      3714      3459
 -1     10865    3    0    1
 -2      1417      1416      1864      3459
 -1     10866    3    0    1
 -2       279      3095      3627      1511
 -1     10867    3    0    1
 -2      3095       279      3627      1890
 -1     10868    3    0    1
 -2      1642      3586      1861      3343
 -1     10869    3    0    1
 -2       353      1867      3679      3460
 -1     10870    3    0    1
 -2       279      1508      3507      1890
 -1     10871    3    0    1
 -2      3507      1508      3074      1890
 -1     10872    3    0    1
 -2       439      3586      3631      3343
 -1     10873    3    0    1
 -2      3631      1523      1878      3343
 -1     10874    3    0    1
 -2      3574      1523      3631      3343
 -1     10875    3    0    1
 -2      1523      3574      3201      3343
 -1     10876    3    0    1
 -2      3161      3234      3271      3344
 -1     10877    3    0    1
 -2      1879      1612      1880      3344
 -1     10878    3    0    1
 -2      3234      1879      1880      3344
 -1     10879    3    0    1
 -2      1612      3234      1880      3344
 -1     10880    3    0    1
 -2      3234      1612      3271      3344
 -1     10881    3    0    1
 -2      1612      2928      3271      3344
 -1     10882    3    0    1
 -2      3161      1711      3234      3344
 -1     10883    3    0    1
 -2      3100      1421      3207      3713
 -1     10884    3    0    1
 -2      2896      3566      3581      3713
 -1     10885    3    0    1
 -2      1060      3507      3604      3713
 -1     10886    3    0    1
 -2      3683      3545      3715      3468
 -1     10887    3    0    1
 -2      3611      2162      3700      3732
 -1     10888    3    0    1
 -2      2777      2782      3711      3715
 -1     10889    3    0    1
 -2      1792      1793      3238      1926
 -1     10890    3    0    1
 -2       432      3656      3447      3485
 -1     10891    3    0    1
 -2      1029      1038      3696      1929
 -1     10892    3    0    1
 -2      3517      3511      3222      3662
 -1     10893    3    0    1
 -2      3222      3511      3513      3662
 -1     10894    3    0    1
 -2      3511      3222      3513      1424
 -1     10895    3    0    1
 -2      3548      1568      1773      3662
 -1     10896    3    0    1
 -2      1773        99      3600      3662
 -1     10897    3    0    1
 -2        99      1660      3600      3662
 -1     10898    3    0    1
 -2      3222      3513      1660      3662
 -1     10899    3    0    1
 -2      3513      3222      1660      1569
 -1     10900    3    0    1
 -2      3197      2849      3222      3662
 -1     10901    3    0    1
 -2      1568      1413      3197      3662
 -1     10902    3    0    1
 -2      1660      3197      3222      3662
 -1     10903    3    0    1
 -2      1773      1568      3197      3662
 -1     10904    3    0    1
 -2        99      1773      3197      3662
 -1     10905    3    0    1
 -2      1660        99      3197      3662
 -1     10906    3    0    1
 -2      2261      1331      2614      3733
 -1     10907    3    0    1
 -2      1290       119      3626      3663
 -1     10908    3    0    1
 -2       119      1290      3583      3663
 -1     10909    3    0    1
 -2       961      2290      3628      3663
 -1     10910    3    0    1
 -2      2138      3549      3621      3663
 -1     10911    3    0    1
 -2      2539      2387      3506      3663
 -1     10912    3    0    1
 -2      3506      2387      3621      3663
 -1     10913    3    0    1
 -2      2285      2539      3517      3663
 -1     10914    3    0    1
 -2      2290      2285      3628      3663
 -1     10915    3    0    1
 -2      2387      2138      3621      3663
 -1     10916    3    0    1
 -2      3517      3525      3628      3663
 -1     10917    3    0    1
 -2      2285      3517      3628      3663
 -1     10918    3    0    1
 -2      2290      2138      2539      3663
 -1     10919    3    0    1
 -2      2285      2290      2539      3663
 -1     10920    3    0    1
 -2      2138      2387      2539      3663
 -1     10921    3    0    1
 -2      2668      1453      2788      3349
 -1     10922    3    0    1
 -2      3651      2645      3667      3675
 -1     10923    3    0    1
 -2      1336      2314      3505      3679
 -1     10924    3    0    1
 -2      1712      1445      3617      3388
 -1     10925    3    0    1
 -2      1689      1412      3592      3719
 -1     10926    3    0    1
 -2      2850      2667      3559      3675
 -1     10927    3    0    1
 -2      2528      3559      3667      3675
 -1     10928    3    0    1
 -2      3559      3026      3667      3675
 -1     10929    3    0    1
 -2      2667      2682      3559      3675
 -1     10930    3    0    1
 -2      2692       736      3637      3456
 -1     10931    3    0    1
 -2      1466      1687      1688      3353
 -1     10932    3    0    1
 -2      1623      1687      2943      3353
 -1     10933    3    0    1
 -2      1466      3347      1894      1895
 -1     10934    3    0    1
 -2      1466      1467      3347      1895
 -1     10935    3    0    1
 -2      1623      1624      1688      3353
 -1     10936    3    0    1
 -2      1466      3098      3104      3353
 -1     10937    3    0    1
 -2      1623      2943      3046      3353
 -1     10938    3    0    1
 -2      1624      1623      3046      3353
 -1     10939    3    0    1
 -2      1687      1466      3104      3353
 -1     10940    3    0    1
 -2      3103      1557      3640      3354
 -1     10941    3    0    1
 -2      3021      3103      3640      3354
 -1     10942    3    0    1
 -2      1614      3002      3296      3354
 -1     10943    3    0    1
 -2      3296      3002      3640      3354
 -1     10944    3    0    1
 -2      1557      3296      3640      3354
 -1     10945    3    0    1
 -2      1557      1614      3296      3354
 -1     10946    3    0    1
 -2      2848      3620      3281      3355
 -1     10947    3    0    1
 -2      1856      1578      3281      3355
 -1     10948    3    0    1
 -2      2848      1578      3320      3355
 -1     10949    3    0    1
 -2      1578      2848      3281      3355
 -1     10950    3    0    1
 -2      2676      1578      1856      3677
 -1     10951    3    0    1
 -2      1497      1498      1827      3376
 -1     10952    3    0    1
 -2      2542      2757      3584      3674
 -1     10953    3    0    1
 -2      1416      1417      3345      3459
 -1     10954    3    0    1
 -2      1865      1416      3714      3459
 -1     10955    3    0    1
 -2      3345      3081      3714      3459
 -1     10956    3    0    1
 -2      1826      1789      3277      3356
 -1     10957    3    0    1
 -2      3277      1789      3348      3356
 -1     10958    3    0    1
 -2      3641      3288      3356      3458
 -1     10959    3    0    1
 -2       196       329      1706      3443
 -1     10960    3    0    1
 -2      1858      1847      3265      3458
 -1     10961    3    0    1
 -2      3277      3099      3641      3356
 -1     10962    3    0    1
 -2      3641      3099      3348      3356
 -1     10963    3    0    1
 -2      3099      3277      3348      3356
 -1     10964    3    0    1
 -2      3020      2744      3618      3423
 -1     10965    3    0    1
 -2      1336      1068      2314      3679
 -1     10966    3    0    1
 -2      2782      3711      3715      3467
 -1     10967    3    0    1
 -2      2774      2794      3589      3730
 -1     10968    3    0    1
 -2      1528       781      1529      3396
 -1     10969    3    0    1
 -2      2563      3225      3231      3500
 -1     10970    3    0    1
 -2      2927      3573      3447      3473
 -1     10971    3    0    1
 -2      1320       335      3615      3665
 -1     10972    3    0    1
 -2       335      1027      3634      3665
 -1     10973    3    0    1
 -2      3562       335      3634      3665
 -1     10974    3    0    1
 -2      2532      2250      3338      3665
 -1     10975    3    0    1
 -2      2342      2532      3338      3665
 -1     10976    3    0    1
 -2      1027       335      1320      3665
 -1     10977    3    0    1
 -2      1789      1826      3670      3380
 -1     10978    3    0    1
 -2      1503      1502      1795      3359
 -1     10979    3    0    1
 -2      2807      3124      3129      3359
 -1     10980    3    0    1
 -2      2807      1794      3124      3359
 -1     10981    3    0    1
 -2      1426      2807      3359      1794
 -1     10982    3    0    1
 -2      1794      1426      1795      3359
 -1     10983    3    0    1
 -2      1426      1427      1795      3359
 -1     10984    3    0    1
 -2      1427      1426      3020      3359
 -1     10985    3    0    1
 -2      3129      3124      3208      3359
 -1     10986    3    0    1
 -2      1502      3129      3208      3359
 -1     10987    3    0    1
 -2      1794      1502      3124      3359
 -1     10988    3    0    1
 -2      3124      1502      3208      3359
 -1     10989    3    0    1
 -2      1789      1873      3670      3471
 -1     10990    3    0    1
 -2      1798      3188      3651      3667
 -1     10991    3    0    1
 -2      2748      3038      3651      3667
 -1     10992    3    0    1
 -2      2937      1692      2938      3667
 -1     10993    3    0    1
 -2      2645      2748      3651      3667
 -1     10994    3    0    1
 -2      2705      2935      3717      3722
 -1     10995    3    0    1
 -2      1810      1518      1811      3470
 -1     10996    3    0    1
 -2       702      1798      3209      3667
 -1     10997    3    0    1
 -2      3038      1798      3651      3667
 -1     10998    3    0    1
 -2      1798      3038      3209      3667
 -1     10999    3    0    1
 -2      2938       702      3209      3667
 -1     11000    3    0    1
 -2      1592      2937      3206      3667
 -1     11001    3    0    1
 -2      1592      1692      2937      3667
 -1     11002    3    0    1
 -2      1692       702      2938      3667
 -1     11003    3    0    1
 -2      3000      3026      3206      3667
 -1     11004    3    0    1
 -2      3026      3188      3206      3667
 -1     11005    3    0    1
 -2      2748      2916      2938      3667
 -1     11006    3    0    1
 -2      2748      2528      2916      3667
 -1     11007    3    0    1
 -2      3000      2745      3026      3667
 -1     11008    3    0    1
 -2      2916      2937      2938      3667
 -1     11009    3    0    1
 -2      2748      2938      3209      3667
 -1     11010    3    0    1
 -2      3619      2888      3285      3377
 -1     11011    3    0    1
 -2      3188       702      3206      3667
 -1     11012    3    0    1
 -2      3038      2748      3209      3667
 -1     11013    3    0    1
 -2       702      1692      3206      3667
 -1     11014    3    0    1
 -2      1798       702      3188      3667
 -1     11015    3    0    1
 -2      1692      1592      3206      3667
 -1     11016    3    0    1
 -2      3622      2517      3256      3736
 -1     11017    3    0    1
 -2      1294      2707      3096      3673
 -1     11018    3    0    1
 -2      3579      3611      3666      3692
 -1     11019    3    0    1
 -2       666      3254      3671      3449
 -1     11020    3    0    1
 -2      3350      3097      3387      3708
 -1     11021    3    0    1
 -2      1283      1282      2230      3403
 -1     11022    3    0    1
 -2       986      1298      3542      3692
 -1     11023    3    0    1
 -2      3577      3542      3652      3692
 -1     11024    3    0    1
 -2      3277      1826      3356      3708
 -1     11025    3    0    1
 -2      1419      2519      3604      3713
 -1     11026    3    0    1
 -2      3387      3398      3435      3708
 -1     11027    3    0    1
 -2      3532      1035      3669      3734
 -1     11028    3    0    1
 -2        93       398      3541      3403
 -1     11029    3    0    1
 -2       398       399      3541      3403
 -1     11030    3    0    1
 -2      1282        93      3541      3403
 -1     11031    3    0    1
 -2      1305      1703      1821      3668
 -1     11032    3    0    1
 -2      3120      2910      3170      3668
 -1     11033    3    0    1
 -2      2719      2611      2821      3668
 -1     11034    3    0    1
 -2      3170      2910      3185      3668
 -1     11035    3    0    1
 -2      3152      2611      3254      3668
 -1     11036    3    0    1
 -2      2611      2973      3299      3668
 -1     11037    3    0    1
 -2       772      1643      3148      3372
 -1     11038    3    0    1
 -2      2821      2611      3152      3668
 -1     11039    3    0    1
 -2      2611      2719      2973      3668
 -1     11040    3    0    1
 -2      2910      1305      3185      3668
 -1     11041    3    0    1
 -2      2833      2994      3567      3372
 -1     11042    3    0    1
 -2      2719      2821      3297      3668
 -1     11043    3    0    1
 -2      2968      2719      3297      3668
 -1     11044    3    0    1
 -2      1305      1730      3185      3668
 -1     11045    3    0    1
 -2      1730      1305      1821      3668
 -1     11046    3    0    1
 -2      1035       226      3532      3669
 -1     11047    3    0    1
 -2      2526      3040      3637      3669
 -1     11048    3    0    1
 -2      2526      2943      3040      3669
 -1     11049    3    0    1
 -2      2493      2526      3637      3669
 -1     11050    3    0    1
 -2      3098      3264      1894      3669
 -1     11051    3    0    1
 -2      3104      2943      3353      3669
 -1     11052    3    0    1
 -2      3098      3104      3353      3669
 -1     11053    3    0    1
 -2      3264      1678      1894      3669
 -1     11054    3    0    1
 -2      2524      1035      2721      3669
 -1     11055    3    0    1
 -2      2721      1035      2873      3669
 -1     11056    3    0    1
 -2      2524      2721      2873      3669
 -1     11057    3    0    1
 -2      1466      3098      1894      3669
 -1     11058    3    0    1
 -2      3098      1466      3104      3669
 -1     11059    3    0    1
 -2      2493      2652      2678      3669
 -1     11060    3    0    1
 -2      2493      2678      3098      3669
 -1     11061    3    0    1
 -2      2849      2288      3638      3735
 -1     11062    3    0    1
 -2      2678      3179      3264      3669
 -1     11063    3    0    1
 -2      2678      1634      3179      3669
 -1     11064    3    0    1
 -2      1035      2770      3104      3669
 -1     11065    3    0    1
 -2      1678      1035      3104      3669
 -1     11066    3    0    1
 -2      2770      3040      3104      3669
 -1     11067    3    0    1
 -2      3098      2678      3264      3669
 -1     11068    3    0    1
 -2      2943      2493      3098      3669
 -1     11069    3    0    1
 -2       432      1840      3656      3485
 -1     11070    3    0    1
 -2      3573      2927      3447      3735
 -1     11071    3    0    1
 -2      2502      2288      2931      3735
 -1     11072    3    0    1
 -2      3656      3447      3485      3735
 -1     11073    3    0    1
 -2      1035      2524      2770      3669
 -1     11074    3    0    1
 -2       226      1035      1678      3669
 -1     11075    3    0    1
 -2      2526      2493      2943      3669
 -1     11076    3    0    1
 -2      2943      3098      3353      3669
 -1     11077    3    0    1
 -2      1678      3104      1894      3669
 -1     11078    3    0    1
 -2      3104      1466      1894      3669
 -1     11079    3    0    1
 -2      3194      2862      1877      3367
 -1     11080    3    0    1
 -2      2789      2680      3008      3369
 -1     11081    3    0    1
 -2      1562      2789      3008      3369
 -1     11082    3    0    1
 -2      2680      2629      3008      3369
 -1     11083    3    0    1
 -2      2680      3094      3589      3369
 -1     11084    3    0    1
 -2      2629      2680      3589      3369
 -1     11085    3    0    1
 -2      2629      2755      3008      3369
 -1     11086    3    0    1
 -2      1447      3522      1642      3370
 -1     11087    3    0    1
 -2      1642      3522      3201      3370
 -1     11088    3    0    1
 -2      1464      1744      3585      3446
 -1     11089    3    0    1
 -2      1464      3585      3150      3446
 -1     11090    3    0    1
 -2      2977      3236      3622      3670
 -1     11091    3    0    1
 -2      3035      3572      3655      3674
 -1     11092    3    0    1
 -2      1901      1438      1902      3472
 -1     11093    3    0    1
 -2       549      3293      3322      3670
 -1     11094    3    0    1
 -2      3293       549      1873      3670
 -1     11095    3    0    1
 -2       279      1511      3627      3679
 -1     11096    3    0    1
 -2      2529      3567      3655      3674
 -1     11097    3    0    1
 -2      3572      3035      3332      3674
 -1     11098    3    0    1
 -2      2517      3236      3257      3670
 -1     11099    3    0    1
 -2      2744      3115      3618      3423
 -1     11100    3    0    1
 -2      2759      1461      3422      3737
 -1     11101    3    0    1
 -2      1336       279      3627      3679
 -1     11102    3    0    1
 -2      3236      3081      3293      3670
 -1     11103    3    0    1
 -2      1789      1873      3322      3670
 -1     11104    3    0    1
 -2      1914      3451      3495      3737
 -1     11105    3    0    1
 -2      3340      1438      3677      3472
 -1     11106    3    0    1
 -2      3493      2759      1461      1149
 -1     11107    3    0    1
 -2      1873       549      3322      3670
 -1     11108    3    0    1
 -2      1487      3120      1885      3671
 -1     11109    3    0    1
 -2      2549      3136      3299      3671
 -1     11110    3    0    1
 -2      3671      1457      3493      3737
 -1     11111    3    0    1
 -2      2536      2910      3120      3671
 -1     11112    3    0    1
 -2      2611      3136      3254      3671
 -1     11113    3    0    1
 -2      3136      2611      3299      3671
 -1     11114    3    0    1
 -2      2979      3642      3457      3717
 -1     11115    3    0    1
 -2      3613      3594      3270      3373
 -1     11116    3    0    1
 -2      1830      3613      3270      3373
 -1     11117    3    0    1
 -2       977      2205      3538      3672
 -1     11118    3    0    1
 -2      2487      3579      3611      3672
 -1     11119    3    0    1
 -2      2487      2205      3579      3672
 -1     11120    3    0    1
 -2      1007      2153      2390      3410
 -1     11121    3    0    1
 -2      3090      3018      3677      3442
 -1     11122    3    0    1
 -2      2791      3641      3703      3708
 -1     11123    3    0    1
 -2       612      2909      3366      3673
 -1     11124    3    0    1
 -2      3641      2941      3703      3708
 -1     11125    3    0    1
 -2       612      1581      2909      3673
 -1     11126    3    0    1
 -2      2909      1581      3032      3673
 -1     11127    3    0    1
 -2      2804      1517      3133      3673
 -1     11128    3    0    1
 -2      3133      1517      3184      3673
 -1     11129    3    0    1
 -2      1581      1517      3032      3673
 -1     11130    3    0    1
 -2      1517      2804      3032      3673
 -1     11131    3    0    1
 -2      2707      3184      3365      3673
 -1     11132    3    0    1
 -2      2829      2743      3006      3673
 -1     11133    3    0    1
 -2      2743      2829      2909      3673
 -1     11134    3    0    1
 -2      2929      2743      3133      3673
 -1     11135    3    0    1
 -2      3110      3099      3641      3708
 -1     11136    3    0    1
 -2      3184      1581      3365      3673
 -1     11137    3    0    1
 -2      2707      1294      3184      3673
 -1     11138    3    0    1
 -2      1851      3387      3435      3708
 -1     11139    3    0    1
 -2      2804      2743      2909      3673
 -1     11140    3    0    1
 -2      2909      2829      3366      3673
 -1     11141    3    0    1
 -2      2743      2804      3133      3673
 -1     11142    3    0    1
 -2      1581       612      3365      3673
 -1     11143    3    0    1
 -2      1517      1581      3184      3673
 -1     11144    3    0    1
 -2      1448      3610      3231      3496
 -1     11145    3    0    1
 -2      2941      3252      3435      3708
 -1     11146    3    0    1
 -2      2804      2909      3032      3673
 -1     11147    3    0    1
 -2      1623      1687      3058      3674
 -1     11148    3    0    1
 -2      3035      2654      3332      3674
 -1     11149    3    0    1
 -2      2654      2955      3332      3674
 -1     11150    3    0    1
 -2      2736      3567      2529      3674
 -1     11151    3    0    1
 -2      2542      2736      2757      3674
 -1     11152    3    0    1
 -2      2757      2736      2901      3674
 -1     11153    3    0    1
 -2      2757      2901      3058      3674
 -1     11154    3    0    1
 -2      1623      1756      3332      3674
 -1     11155    3    0    1
 -2      2955      1687      3332      3674
 -1     11156    3    0    1
 -2      1687      1623      3332      3674
 -1     11157    3    0    1
 -2      3522      3201      3370      3711
 -1     11158    3    0    1
 -2      3562      1618      3246      3711
 -1     11159    3    0    1
 -2      3503      3562      3615      3711
 -1     11160    3    0    1
 -2       720      1738      3060      3675
 -1     11161    3    0    1
 -2      2800      2645      3651      3675
 -1     11162    3    0    1
 -2      3033      2577      3651      3675
 -1     11163    3    0    1
 -2      2577      3033      3122      3675
 -1     11164    3    0    1
 -2      2577      2800      3651      3675
 -1     11165    3    0    1
 -2      2800      2577      3122      3675
 -1     11166    3    0    1
 -2      2645      2727      2748      3675
 -1     11167    3    0    1
 -2      2727      2645      3060      3675
 -1     11168    3    0    1
 -2      1640      2850      3202      3675
 -1     11169    3    0    1
 -2      2645      2949      3060      3675
 -1     11170    3    0    1
 -2      2727      2528      2748      3675
 -1     11171    3    0    1
 -2      3033      2850      3122      3675
 -1     11172    3    0    1
 -2      2983      2850      3033      3675
 -1     11173    3    0    1
 -2      2645      2800      2949      3675
 -1     11174    3    0    1
 -2      2850      1640      3122      3675
 -1     11175    3    0    1
 -2       720      1640      3202      3675
 -1     11176    3    0    1
 -2      2667      2850      2983      3675
 -1     11177    3    0    1
 -2      3503      1447      3562      3711
 -1     11178    3    0    1
 -2      1738       720      3202      3675
 -1     11179    3    0    1
 -2      2643      2705      3642      3722
 -1     11180    3    0    1
 -2      3564      3174      3406      3722
 -1     11181    3    0    1
 -2      3317      3318      3670      3380
 -1     11182    3    0    1
 -2      1438      2676      1856      3677
 -1     11183    3    0    1
 -2      2676      2650      2866      3677
 -1     11184    3    0    1
 -2      3365      2707      3673      3707
 -1     11185    3    0    1
 -2      3090      1578      1843      3677
 -1     11186    3    0    1
 -2      1446      3090      1843      3677
 -1     11187    3    0    1
 -2      3664         1      3473      3496
 -1     11188    3    0    1
 -2      2650      2676      3368      3677
 -1     11189    3    0    1
 -2      3355      3620      3374      3434
 -1     11190    3    0    1
 -2      1518      1519      3163      3379
 -1     11191    3    0    1
 -2      3561      1445      3617      3685
 -1     11192    3    0    1
 -2      1519      1518      1810      3470
 -1     11193    3    0    1
 -2      1578      3090      1856      3677
 -1     11194    3    0    1
 -2      3378      1902      3678      3472
 -1     11195    3    0    1
 -2      1856      3090      3340      3677
 -1     11196    3    0    1
 -2      1438      1856      3340      3677
 -1     11197    3    0    1
 -2      2966      1896      1902      3678
 -1     11198    3    0    1
 -2       409       146      3510      1923
 -1     11199    3    0    1
 -2      1032      1319      3694      3481
 -1     11200    3    0    1
 -2      3247      1810      1907      1908
 -1     11201    3    0    1
 -2       622       409       980      1923
 -1     11202    3    0    1
 -2      3225      3608      3496      3500
 -1     11203    3    0    1
 -2       790       781      1528      3396
 -1     11204    3    0    1
 -2      1854      1934      3313      3453
 -1     11205    3    0    1
 -2      1914      1457      1915      3451
 -1     11206    3    0    1
 -2       353      1068      1549      3679
 -1     11207    3    0    1
 -2      2606      1448      1867      3679
 -1     11208    3    0    1
 -2      1549      1068      3315      3679
 -1     11209    3    0    1
 -2         1      1689      3719      3473
 -1     11210    3    0    1
 -2      3204      3516      3303      3381
 -1     11211    3    0    1
 -2      3516      1543      3303      3381
 -1     11212    3    0    1
 -2      1543      3516      3519      3381
 -1     11213    3    0    1
 -2      2440      1338      2575      3686
 -1     11214    3    0    1
 -2      1338       285      2575      3686
 -1     11215    3    0    1
 -2      2232      2440      2575      3686
 -1     11216    3    0    1
 -2       285       356      3528      3686
 -1     11217    3    0    1
 -2      2583      3057      3068      3680
 -1     11218    3    0    1
 -2      3057      3527      3229      3680
 -1     11219    3    0    1
 -2      2583      3527      3057      3680
 -1     11220    3    0    1
 -2       352       940      2440      3686
 -1     11221    3    0    1
 -2      2583      2492      3527      3680
 -1     11222    3    0    1
 -2      1709      3068      3229      3680
 -1     11223    3    0    1
 -2      1709      1767      3068      3680
 -1     11224    3    0    1
 -2      2856      1601      1862      3680
 -1     11225    3    0    1
 -2      2856      1479      3325      3680
 -1     11226    3    0    1
 -2      1479      2856      1862      3680
 -1     11227    3    0    1
 -2      2856      2581      3111      3680
 -1     11228    3    0    1
 -2      2704      2581      2856      3680
 -1     11229    3    0    1
 -2      1601      1767      3229      3680
 -1     11230    3    0    1
 -2      2492      2581      2704      3680
 -1     11231    3    0    1
 -2      1862      3229      3325      3680
 -1     11232    3    0    1
 -2      2581      2492      2583      3680
 -1     11233    3    0    1
 -2      1767      1709      3229      3680
 -1     11234    3    0    1
 -2      1601      3229      1862      3680
 -1     11235    3    0    1
 -2      1479      1862      3325      3680
 -1     11236    3    0    1
 -2      3627      2781      3315      3714
 -1     11237    3    0    1
 -2      2988      2845      1881      3384
 -1     11238    3    0    1
 -2      2845      2988      3581      3384
 -1     11239    3    0    1
 -2      3581      2988      1881      3384
 -1     11240    3    0    1
 -2       808      3581      1881      3384
 -1     11241    3    0    1
 -2       808      2896      3581      3384
 -1     11242    3    0    1
 -2      3318      3670      3444      3714
 -1     11243    3    0    1
 -2      1712      1445      3561      3685
 -1     11244    3    0    1
 -2      1445      1712      3617      3685
 -1     11245    3    0    1
 -2      1843      1446      3677      3442
 -1     11246    3    0    1
 -2       340      1301      3577      3685
 -1     11247    3    0    1
 -2      3577      3617      3649      3685
 -1     11248    3    0    1
 -2      1040       237      2598      3723
 -1     11249    3    0    1
 -2      3577      1301      3617      3685
 -1     11250    3    0    1
 -2      1301      3561      3617      3685
 -1     11251    3    0    1
 -2      2971      3599      3681      3731
 -1     11252    3    0    1
 -2       343      1323      2598      3723
 -1     11253    3    0    1
 -2      1873      3293      3670      3471
 -1     11254    3    0    1
 -2      1790      1789      3376      3471
 -1     11255    3    0    1
 -2       684       673      1907      3426
 -1     11256    3    0    1
 -2      3611      1425      3666      3692
 -1     11257    3    0    1
 -2      3577      1425      3611      3692
 -1     11258    3    0    1
 -2      2529      3572      3655      3682
 -1     11259    3    0    1
 -2      1785       125      3629      3455
 -1     11260    3    0    1
 -2      3588      1412      3608      3719
 -1     11261    3    0    1
 -2      2708      2700      2784      3682
 -1     11262    3    0    1
 -2      1425      1758      3666      3692
 -1     11263    3    0    1
 -2      1736      1832      3623      3681
 -1     11264    3    0    1
 -2      1832       169      3623      3681
 -1     11265    3    0    1
 -2      1445      3523      3617      3681
 -1     11266    3    0    1
 -2      1445      3617      3388      3681
 -1     11267    3    0    1
 -2         1      3664       353      3718
 -1     11268    3    0    1
 -2      3592      3608      3719      3588
 -1     11269    3    0    1
 -2      3664         1       353      3719
 -1     11270    3    0    1
 -2      1412      3588      3592      3719
 -1     11271    3    0    1
 -2      2819      3715      3468      3497
 -1     11272    3    0    1
 -2      1435      3587      3467      3497
 -1     11273    3    0    1
 -2       169      3603      3352      1868
 -1     11274    3    0    1
 -2      3352      3623       169      3681
 -1     11275    3    0    1
 -2      3269      2971      3352      3681
 -1     11276    3    0    1
 -2      1736      1445      3269      3681
 -1     11277    3    0    1
 -2      1832      3269      3352      3681
 -1     11278    3    0    1
 -2      3269      1445      3388      3681
 -1     11279    3    0    1
 -2      1832      1736      3269      3681
 -1     11280    3    0    1
 -2       169      1832      3352      3681
 -1     11281    3    0    1
 -2      1410      2980      3422      3737
 -1     11282    3    0    1
 -2      1915      1914      1950      3478
 -1     11283    3    0    1
 -2      2633      2553      3612      3682
 -1     11284    3    0    1
 -2      2529      2633      3612      3682
 -1     11285    3    0    1
 -2      3387      1851      1941      1942
 -1     11286    3    0    1
 -2      2833      2784      3151      3682
 -1     11287    3    0    1
 -2      3151      2784      3328      3682
 -1     11288    3    0    1
 -2      2833      3151      3372      3682
 -1     11289    3    0    1
 -2      2784      3282      3328      3682
 -1     11290    3    0    1
 -2      2553      2529      2783      3682
 -1     11291    3    0    1
 -2      2783      2529      2835      3682
 -1     11292    3    0    1
 -2      3031      1519      3597      3408
 -1     11293    3    0    1
 -2      2941      1169      3331      3435
 -1     11294    3    0    1
 -2       352       940      3686      3479
 -1     11295    3    0    1
 -2      2529      2553      2633      3682
 -1     11296    3    0    1
 -2      2597      3591      3262      3450
 -1     11297    3    0    1
 -2      3414      3421      3700      3732
 -1     11298    3    0    1
 -2      1434      3351      1909      3395
 -1     11299    3    0    1
 -2      3505      1511      3231      3693
 -1     11300    3    0    1
 -2      1632      3074      1890      3713
 -1     11301    3    0    1
 -2      2519      2508      3604      3713
 -1     11302    3    0    1
 -2       279       276      1511      3693
 -1     11303    3    0    1
 -2      3094      3589      3369      3730
 -1     11304    3    0    1
 -2      1851      1852      3397      1942
 -1     11305    3    0    1
 -2      2610      1419      3546      3491
 -1     11306    3    0    1
 -2      1665      1415      3593      3683
 -1     11307    3    0    1
 -2      3588      3648      3650      3721
 -1     11308    3    0    1
 -2       200       328      3502      3725
 -1     11309    3    0    1
 -2      2586      3059      3660      3464
 -1     11310    3    0    1
 -2      1906      3395      3415      3736
 -1     11311    3    0    1
 -2       194       330      2690      3725
 -1     11312    3    0    1
 -2      1015       328      2690      3725
 -1     11313    3    0    1
 -2      3683      1665      3468      1949
 -1     11314    3    0    1
 -2      2365       328      2498      3725
 -1     11315    3    0    1
 -2       330       194      3502      3725
 -1     11316    3    0    1
 -2       944        94      3648      3721
 -1     11317    3    0    1
 -2      1412      3588      3650      3721
 -1     11318    3    0    1
 -2       343      1037      3698      1958
 -1     11319    3    0    1
 -2      1437      1849      3387      3398
 -1     11320    3    0    1
 -2      3097      1437      3387      3398
 -1     11321    3    0    1
 -2      2536      2759      3620      3737
 -1     11322    3    0    1
 -2      2797      1437      3097      3398
 -1     11323    3    0    1
 -2      3502       194      1911      1912
 -1     11324    3    0    1
 -2       200       713       721      1912
 -1     11325    3    0    1
 -2       200       328       713      1912
 -1     11326    3    0    1
 -2      3558      2882      3054      3475
 -1     11327    3    0    1
 -2      3558      3012      3404      3475
 -1     11328    3    0    1
 -2      3054      1515      3168      3475
 -1     11329    3    0    1
 -2      1854      3404      3428      3475
 -1     11330    3    0    1
 -2       924      2882      3558      3475
 -1     11331    3    0    1
 -2      3558      3054      3168      3475
 -1     11332    3    0    1
 -2      3149      3558      3404      3475
 -1     11333    3    0    1
 -2      3168      1515      3261      3475
 -1     11334    3    0    1
 -2       427       178      3684      3726
 -1     11335    3    0    1
 -2      1331      1330      2614      3430
 -1     11336    3    0    1
 -2      2670      2634      2842      3429
 -1     11337    3    0    1
 -2      3565      2923      3279      3401
 -1     11338    3    0    1
 -2      2853      3565      3221      3401
 -1     11339    3    0    1
 -2      3221      3565      3279      3401
 -1     11340    3    0    1
 -2      3214       549      1858      3458
 -1     11341    3    0    1
 -2      2923      2853      3076      3401
 -1     11342    3    0    1
 -2      2161      2222      2846      3402
 -1     11343    3    0    1
 -2      1323      2273      2598      3723
 -1     11344    3    0    1
 -2      2222      2161      2407      3402
 -1     11345    3    0    1
 -2      2222      3030      3363      3402
 -1     11346    3    0    1
 -2      2846      2222      3363      3402
 -1     11347    3    0    1
 -2      2817      2670      3543      3429
 -1     11348    3    0    1
 -2      2818      2817      3543      3476
 -1     11349    3    0    1
 -2      2521      1420      2818      3476
 -1     11350    3    0    1
 -2      1409      3012      1823      3404
 -1     11351    3    0    1
 -2      2613      2454      3697      3477
 -1     11352    3    0    1
 -2      2521      2818      3543      3476
 -1     11353    3    0    1
 -2      2571      1885      1886      3405
 -1     11354    3    0    1
 -2      1885      2571      3390      3405
 -1     11355    3    0    1
 -2      2615       237      3698      1957
 -1     11356    3    0    1
 -2      2571      2557      3598      3405
 -1     11357    3    0    1
 -2      2571      3598      3390      3405
 -1     11358    3    0    1
 -2      1487      1885      3390      3405
 -1     11359    3    0    1
 -2      2861      2966      3564      3406
 -1     11360    3    0    1
 -2      2556      2861      3564      3406
 -1     11361    3    0    1
 -2      3610      1068      3679      3437
 -1     11362    3    0    1
 -2      3568      3591      3639      3705
 -1     11363    3    0    1
 -2      2853      3076      3221      3436
 -1     11364    3    0    1
 -2      3076      2853      3127      3436
 -1     11365    3    0    1
 -2      1843      3677      3385      3442
 -1     11366    3    0    1
 -2      2700      3282      3682      3407
 -1     11367    3    0    1
 -2      3670      1826      3376      3454
 -1     11368    3    0    1
 -2      3331      1898      3398      3435
 -1     11369    3    0    1
 -2      1826      3670      3380      3454
 -1     11370    3    0    1
 -2      1825      1411      3238      3407
 -1     11371    3    0    1
 -2      3554      1456      1765      3717
 -1     11372    3    0    1
 -2      1656      1655      1932      3484
 -1     11373    3    0    1
 -2      3204      3516      3381      3709
 -1     11374    3    0    1
 -2      3545      1580      3633      3709
 -1     11375    3    0    1
 -2      1851      3397      1917      3454
 -1     11376    3    0    1
 -2      3076      3127      3157      3436
 -1     11377    3    0    1
 -2      2314      3505      3679      3437
 -1     11378    3    0    1
 -2       208      2479      3694      3696
 -1     11379    3    0    1
 -2       406       120      3521      3688
 -1     11380    3    0    1
 -2      1561        59      3126      3436
 -1     11381    3    0    1
 -2       940      1338      3686      3479
 -1     11382    3    0    1
 -2      2778      2684      3580      3419
 -1     11383    3    0    1
 -2      1068      3610      3664      3437
 -1     11384    3    0    1
 -2      1573      1610      1611      3419
 -1     11385    3    0    1
 -2      3696       337      1929      1930
 -1     11386    3    0    1
 -2       757       227       749      1930
 -1     11387    3    0    1
 -2       227       757       336      1930
 -1     11388    3    0    1
 -2      1557      1558      1611      3419
 -1     11389    3    0    1
 -2      2684      1557      3580      3419
 -1     11390    3    0    1
 -2       257      1330      3430      3733
 -1     11391    3    0    1
 -2      3506      1600      3629      3687
 -1     11392    3    0    1
 -2      2514      2626      3517      3687
 -1     11393    3    0    1
 -2      3506      3517      3101      3687
 -1     11394    3    0    1
 -2      3506      3101      3189      3687
 -1     11395    3    0    1
 -2      1621       736      3177      3456
 -1     11396    3    0    1
 -2      1520      3506      3189      3687
 -1     11397    3    0    1
 -2       736      2883      3637      3456
 -1     11398    3    0    1
 -2      3517      2626      3101      3687
 -1     11399    3    0    1
 -2      3144      1803      3238      3701
 -1     11400    3    0    1
 -2      2923      1621      3177      3456
 -1     11401    3    0    1
 -2      2161      2487      3402      3687
 -1     11402    3    0    1
 -2      2626      2846      3189      3687
 -1     11403    3    0    1
 -2      2161      2387      2487      3687
 -1     11404    3    0    1
 -2      2387      2161      2514      3687
 -1     11405    3    0    1
 -2      1428      3144      3162      3701
 -1     11406    3    0    1
 -2      2923      2880      3279      3456
 -1     11407    3    0    1
 -2      3101      2626      3189      3687
 -1     11408    3    0    1
 -2      1621      2923      3401      3456
 -1     11409    3    0    1
 -2       736      2880      3177      3456
 -1     11410    3    0    1
 -2       118      2403      3521      3688
 -1     11411    3    0    1
 -2      2403      2201      3521      3688
 -1     11412    3    0    1
 -2       118      2105      2403      3688
 -1     11413    3    0    1
 -2       972      3688      1951      1952
 -1     11414    3    0    1
 -2       613       604       972      1952
 -1     11415    3    0    1
 -2      2421      2201      2605      3688
 -1     11416    3    0    1
 -2      2201      2403      2605      3688
 -1     11417    3    0    1
 -2      2403      2105      2605      3688
 -1     11418    3    0    1
 -2       409      2189      2585      3727
 -1     11419    3    0    1
 -2       411      3510      3411      3727
 -1     11420    3    0    1
 -2       146       410      2545      3727
 -1     11421    3    0    1
 -2       683      1308      2243      3410
 -1     11422    3    0    1
 -2       694       683      2243      3410
 -1     11423    3    0    1
 -2      2201       411      3411      3727
 -1     11424    3    0    1
 -2       410       146      3510      3727
 -1     11425    3    0    1
 -2      1293      2204      2545      3727
 -1     11426    3    0    1
 -2      1293      2201      2204      3727
 -1     11427    3    0    1
 -2      2189       974      2204      3727
 -1     11428    3    0    1
 -2      3510      2585      3411      3727
 -1     11429    3    0    1
 -2       409      2585      3510      3727
 -1     11430    3    0    1
 -2       694      1007      1308      3410
 -1     11431    3    0    1
 -2      1293       411      2201      3727
 -1     11432    3    0    1
 -2       409       974      2189      3727
 -1     11433    3    0    1
 -2       683       694      1308      3410
 -1     11434    3    0    1
 -2       581       954       964      3690
 -1     11435    3    0    1
 -2       980       409      2585      1923
 -1     11436    3    0    1
 -2      2370      2447      2546      3690
 -1     11437    3    0    1
 -2       600       581       964      3690
 -1     11438    3    0    1
 -2       146       409       622      1923
 -1     11439    3    0    1
 -2      2370      2417      2447      3690
 -1     11440    3    0    1
 -2      2905      2861      3018      3691
 -1     11441    3    0    1
 -2      2861      2905      3564      3691
 -1     11442    3    0    1
 -2      2966      2861      3678      3691
 -1     11443    3    0    1
 -2      3340      2966      3678      3691
 -1     11444    3    0    1
 -2      3692       340      3577      1650
 -1     11445    3    0    1
 -2      3677      2861      3340      3691
 -1     11446    3    0    1
 -2      2643      3564      3695      3722
 -1     11447    3    0    1
 -2      3564      3406      3695      3722
 -1     11448    3    0    1
 -2      2580      3362      3678      3691
 -1     11449    3    0    1
 -2      2914      2900      3292      3691
 -1     11450    3    0    1
 -2      2677      2914      3292      3691
 -1     11451    3    0    1
 -2      2650      2580      2900      3691
 -1     11452    3    0    1
 -2      2580      2650      3368      3691
 -1     11453    3    0    1
 -2      2677      2650      2900      3691
 -1     11454    3    0    1
 -2      3062      3010      3292      3691
 -1     11455    3    0    1
 -2      2905      3010      3062      3691
 -1     11456    3    0    1
 -2      2861      2966      3340      3691
 -1     11457    3    0    1
 -2      2861      3677      3340      3090
 -1     11458    3    0    1
 -2      3362      2580      3368      3691
 -1     11459    3    0    1
 -2      2677      2900      2914      3691
 -1     11460    3    0    1
 -2      2650      2866      3677      3442
 -1     11461    3    0    1
 -2      3677      3018      3691      3442
 -1     11462    3    0    1
 -2      3018      2677      3691      3442
 -1     11463    3    0    1
 -2      1831      1843      3385      3442
 -1     11464    3    0    1
 -2      2677      2650      3691      3442
 -1     11465    3    0    1
 -2      2658      2768      3259      3692
 -1     11466    3    0    1
 -2      2768      2658      3542      3692
 -1     11467    3    0    1
 -2      2658      2663      3652      3692
 -1     11468    3    0    1
 -2      1614       151      3259      3692
 -1     11469    3    0    1
 -2      2825      3692       340      3652
 -1     11470    3    0    1
 -2      2768      1614      3259      3692
 -1     11471    3    0    1
 -2      2663      2825      3652      3692
 -1     11472    3    0    1
 -2      1298      2768      3542      3692
 -1     11473    3    0    1
 -2      1425      2658      1758      3692
 -1     11474    3    0    1
 -2      1758      2658      3259      3692
 -1     11475    3    0    1
 -2      2658      1425      2663      3692
 -1     11476    3    0    1
 -2      1298       151      1614      3692
 -1     11477    3    0    1
 -2      1425      1650      2825      3692
 -1     11478    3    0    1
 -2      2663      1425      2825      3692
 -1     11479    3    0    1
 -2      1298      1614      2768      3692
 -1     11480    3    0    1
 -2      2844      2845      3384      3713
 -1     11481    3    0    1
 -2      2896      2657      3566      3713
 -1     11482    3    0    1
 -2      1914      3409      3476      3478
 -1     11483    3    0    1
 -2       257      2335      2454      3697
 -1     11484    3    0    1
 -2      1487      1457      1488      3417
 -1     11485    3    0    1
 -2      1487      1488      3405      3417
 -1     11486    3    0    1
 -2       628       632       979      1962
 -1     11487    3    0    1
 -2       356       354      3686      3479
 -1     11488    3    0    1
 -2      3076      1759      3401      3436
 -1     11489    3    0    1
 -2       979       635      2608      3427
 -1     11490    3    0    1
 -2       635      2412      2608      3427
 -1     11491    3    0    1
 -2       227      1032      3694      3481
 -1     11492    3    0    1
 -2       336       227      3694      3481
 -1     11493    3    0    1
 -2      3598      3390      3405      3483
 -1     11494    3    0    1
 -2      3082      2836      3321      3705
 -1     11495    3    0    1
 -2      1557      2684      2839      3419
 -1     11496    3    0    1
 -2      1558      1557      2839      3419
 -1     11497    3    0    1
 -2      2922      2567      3082      3705
 -1     11498    3    0    1
 -2      3591      2597      3262      3705
 -1     11499    3    0    1
 -2      3551      2879      3088      3705
 -1     11500    3    0    1
 -2      3551      2730      3639      3705
 -1     11501    3    0    1
 -2      2189      2429      2609      3704
 -1     11502    3    0    1
 -2      3154      1791      3331      3420
 -1     11503    3    0    1
 -2      1791      1167      3331      3420
 -1     11504    3    0    1
 -2       414      1297      3424      3704
 -1     11505    3    0    1
 -2      2683      3543      2903      3438
 -1     11506    3    0    1
 -2      3262      2515      3639      3705
 -1     11507    3    0    1
 -2      1203      3047      3357      3494
 -1     11508    3    0    1
 -2      2980      2759      3422      3737
 -1     11509    3    0    1
 -2      3375      3620      3434      3702
 -1     11510    3    0    1
 -2      2549      3620      3671      3702
 -1     11511    3    0    1
 -2      3020      1509      3618      3124
 -1     11512    3    0    1
 -2      1509      3020      3618      3423
 -1     11513    3    0    1
 -2      3165      3291      3337      3705
 -1     11514    3    0    1
 -2      3568      2567      3591      3705
 -1     11515    3    0    1
 -2      3082      1783      3337      3705
 -1     11516    3    0    1
 -2      2836      3568      3321      3705
 -1     11517    3    0    1
 -2      2515      2879      3639      3705
 -1     11518    3    0    1
 -2       154       415      3704      3729
 -1     11519    3    0    1
 -2       415       414      3704      3729
 -1     11520    3    0    1
 -2      1334      2475      2617      3728
 -1     11521    3    0    1
 -2      1334      2617      3482      3728
 -1     11522    3    0    1
 -2      2429       416      3704      3729
 -1     11523    3    0    1
 -2       416      2026      2412      3729
 -1     11524    3    0    1
 -2       416       154      3704      3729
 -1     11525    3    0    1
 -2      2415       270      3508      3728
 -1     11526    3    0    1
 -2      2170      1335      2617      3728
 -1     11527    3    0    1
 -2      3508       280      3425      3728
 -1     11528    3    0    1
 -2       270      2415      2475      3728
 -1     11529    3    0    1
 -2       673       684      1907      3695
 -1     11530    3    0    1
 -2      1907      3247      1908      3695
 -1     11531    3    0    1
 -2       673      1907      1908      3695
 -1     11532    3    0    1
 -2      1907       684      3406      3695
 -1     11533    3    0    1
 -2      1810      1907      3406      3695
 -1     11534    3    0    1
 -2      3386      1810      3406      3695
 -1     11535    3    0    1
 -2      3247      2643      3358      3695
 -1     11536    3    0    1
 -2      2546      2370      3690      3433
 -1     11537    3    0    1
 -2      1457      3409      3417      3483
 -1     11538    3    0    1
 -2      3543      3400      3429      3483
 -1     11539    3    0    1
 -2       809       812      1062      1921
 -1     11540    3    0    1
 -2       270       809      1062      1921
 -1     11541    3    0    1
 -2       812       270       350      1921
 -1     11542    3    0    1
 -2       270       812       809      1921
 -1     11543    3    0    1
 -2      3508       350      1921      1922
 -1     11544    3    0    1
 -2       820       280      1071      1922
 -1     11545    3    0    1
 -2       827       820      1071      1922
 -1     11546    3    0    1
 -2       280       827       349      1922
 -1     11547    3    0    1
 -2       827       280       820      1922
 -1     11548    3    0    1
 -2      1854        47      1855      3428
 -1     11549    3    0    1
 -2       268        47      1854      3428
 -1     11550    3    0    1
 -2      3404      1823      1919      3428
 -1     11551    3    0    1
 -2       268      3404      1919      3428
 -1     11552    3    0    1
 -2        47       268      1919      3428
 -1     11553    3    0    1
 -2      1457      1914      3409      3429
 -1     11554    3    0    1
 -2      3543      2842      3598      3429
 -1     11555    3    0    1
 -2      2521      3543      3400      3429
 -1     11556    3    0    1
 -2      1914        17      1915      1950
 -1     11557    3    0    1
 -2      1037      1047      3698      1957
 -1     11558    3    0    1
 -2      1047      2615      3698      1957
 -1     11559    3    0    1
 -2       237       248      3698      1957
 -1     11560    3    0    1
 -2      1047       237      2615      1957
 -1     11561    3    0    1
 -2      1248      2817      1916      3429
 -1     11562    3    0    1
 -2       775       767      1047      1957
 -1     11563    3    0    1
 -2      2521      3400      3409      3429
 -1     11564    3    0    1
 -2      3577      3534      3611      3732
 -1     11565    3    0    1
 -2      3120      2536      3671      3493
 -1     11566    3    0    1
 -2      3698      1037      1957      1958
 -1     11567    3    0    1
 -2       343       755      1037      1958
 -1     11568    3    0    1
 -2      2465      2615      3392      3698
 -1     11569    3    0    1
 -2      2465      2408      2615      3698
 -1     11570    3    0    1
 -2      2578      2465      3392      3698
 -1     11571    3    0    1
 -2      3358      3247      3695      3432
 -1     11572    3    0    1
 -2      1896      3378      3678      3432
 -1     11573    3    0    1
 -2       684      1896      3678      3432
 -1     11574    3    0    1
 -2       684      3678      3695      3432
 -1     11575    3    0    1
 -2       673       684      3695      3432
 -1     11576    3    0    1
 -2       684       673      1896      3432
 -1     11577    3    0    1
 -2      1908       673      3695      3432
 -1     11578    3    0    1
 -2      3247      1908      3695      3432
 -1     11579    3    0    1
 -2      3620      2722      3375      3434
 -1     11580    3    0    1
 -2      2722      3620      3320      3434
 -1     11581    3    0    1
 -2      1902      3355      3374      3434
 -1     11582    3    0    1
 -2       146      3510      1923      1924
 -1     11583    3    0    1
 -2       146       410      3510      1924
 -1     11584    3    0    1
 -2       610       410       614      1924
 -1     11585    3    0    1
 -2       411       410       610      1924
 -1     11586    3    0    1
 -2       404       115      3690      3699
 -1     11587    3    0    1
 -2      3690       115      3433      3699
 -1     11588    3    0    1
 -2      1286      2458      2555      3699
 -1     11589    3    0    1
 -2      1286       405      2458      3699
 -1     11590    3    0    1
 -2       115      2383      3433      3699
 -1     11591    3    0    1
 -2       115       957      2383      3699
 -1     11592    3    0    1
 -2      2555      2370      3433      3699
 -1     11593    3    0    1
 -2      2383      2555      3433      3699
 -1     11594    3    0    1
 -2      2458      2370      2555      3699
 -1     11595    3    0    1
 -2       108       405      3412      3699
 -1     11596    3    0    1
 -2       404       108      3412      3699
 -1     11597    3    0    1
 -2       405      1286      3412      3699
 -1     11598    3    0    1
 -2       957       115      3412      3699
 -1     11599    3    0    1
 -2       115       404      3412      3699
 -1     11600    3    0    1
 -2      1896      3131      3361      3434
 -1     11601    3    0    1
 -2      3126        59      1883      3436
 -1     11602    3    0    1
 -2      3127      2853      3221      3436
 -1     11603    3    0    1
 -2      3126      3127      3221      3436
 -1     11604    3    0    1
 -2      3509      3687      3413      3700
 -1     11605    3    0    1
 -2      3509      2487      3687      3700
 -1     11606    3    0    1
 -2      2487      3509      3672      3700
 -1     11607    3    0    1
 -2      3666       436      3421      3700
 -1     11608    3    0    1
 -2       436      3666      3689      3700
 -1     11609    3    0    1
 -2      1758      3666      3421      3700
 -1     11610    3    0    1
 -2      1758      3611      3666      3700
 -1     11611    3    0    1
 -2       436      3689      1920      3700
 -1     11612    3    0    1
 -2      3413      3363      3431      3700
 -1     11613    3    0    1
 -2      3363      3421      3431      3700
 -1     11614    3    0    1
 -2      3363      3414      3421      3700
 -1     11615    3    0    1
 -2      1423      3413      3431      3700
 -1     11616    3    0    1
 -2      2487      2162      3402      3700
 -1     11617    3    0    1
 -2      3421       436      3431      3700
 -1     11618    3    0    1
 -2      2175      2454      2614      3733
 -1     11619    3    0    1
 -2       436      1920      3431      3700
 -1     11620    3    0    1
 -2      1330      2175      2614      3733
 -1     11621    3    0    1
 -2      2502      2061      3638      3735
 -1     11622    3    0    1
 -2      1655       335      1932      3484
 -1     11623    3    0    1
 -2      2849      3638      3662      3735
 -1     11624    3    0    1
 -2       703       695      1013      1943
 -1     11625    3    0    1
 -2      1004      1013      3684      1943
 -1     11626    3    0    1
 -2       337       208      3696      1929
 -1     11627    3    0    1
 -2       189       188      3684      1943
 -1     11628    3    0    1
 -2      1907       684      3426      3702
 -1     11629    3    0    1
 -2      2910      3668      3671      3702
 -1     11630    3    0    1
 -2      2510      2910      3671      3702
 -1     11631    3    0    1
 -2      2910      2510      3668      3702
 -1     11632    3    0    1
 -2      2549      3131      3620      3702
 -1     11633    3    0    1
 -2      3620      3131      3434      3702
 -1     11634    3    0    1
 -2      1810      3314      3408      3702
 -1     11635    3    0    1
 -2      2973      3597      3314      3702
 -1     11636    3    0    1
 -2      3361       684      3434      3702
 -1     11637    3    0    1
 -2      3131      3361      3434      3702
 -1     11638    3    0    1
 -2      3335      3299      3418      3702
 -1     11639    3    0    1
 -2      2510      3375      3408      3702
 -1     11640    3    0    1
 -2      2549      3299      3335      3702
 -1     11641    3    0    1
 -2      3335      3418      3426      3702
 -1     11642    3    0    1
 -2      3375       684      3408      3702
 -1     11643    3    0    1
 -2      3361      3335      3426      3702
 -1     11644    3    0    1
 -2      3031      2510      3408      3702
 -1     11645    3    0    1
 -2      3299      2973      3418      3702
 -1     11646    3    0    1
 -2       684      1907      3408      3702
 -1     11647    3    0    1
 -2      3131      2549      3335      3702
 -1     11648    3    0    1
 -2      1907      1810      3408      3702
 -1     11649    3    0    1
 -2      2973      3314      3418      3702
 -1     11650    3    0    1
 -2       684      3375      3434      3702
 -1     11651    3    0    1
 -2      3131      3335      3361      3702
 -1     11652    3    0    1
 -2        43      3173      1925      1931
 -1     11653    3    0    1
 -2      1925      3346      1926      1931
 -1     11654    3    0    1
 -2      3173      1681      3346      1931
 -1     11655    3    0    1
 -2      3173      3346      1925      1931
 -1     11656    3    0    1
 -2      3615      3246      3676      1932
 -1     11657    3    0    1
 -2      1824      3217      3615      1932
 -1     11658    3    0    1
 -2      3615      3217      3246      1932
 -1     11659    3    0    1
 -2       335      3615      3676      1932
 -1     11660    3    0    1
 -2       438       335      3676      1932
 -1     11661    3    0    1
 -2      1655       335      1656      1932
 -1     11662    3    0    1
 -2      1840      1696      3656      3485
 -1     11663    3    0    1
 -2      1625      1701      3077      3703
 -1     11664    3    0    1
 -2      1625      3077      3342      3703
 -1     11665    3    0    1
 -2      3097      2797      3398      3703
 -1     11666    3    0    1
 -2      2797      3154      3398      3703
 -1     11667    3    0    1
 -2      3605      3633      3706      3709
 -1     11668    3    0    1
 -2      3363      3414      3700      3732
 -1     11669    3    0    1
 -2      3605      3519      3633      3709
 -1     11670    3    0    1
 -2      3230      1638      3237      3703
 -1     11671    3    0    1
 -2      1638      1781      3237      3703
 -1     11672    3    0    1
 -2      3237      1781      3342      3703
 -1     11673    3    0    1
 -2      3077      1701      3309      3703
 -1     11674    3    0    1
 -2       434      3389      3706      3709
 -1     11675    3    0    1
 -2      3243      3204      3381      3709
 -1     11676    3    0    1
 -2      3154      2797      3309      3703
 -1     11677    3    0    1
 -2      3154      1701      3420      3703
 -1     11678    3    0    1
 -2      1701      3154      3309      3703
 -1     11679    3    0    1
 -2      3230      2947      3420      3703
 -1     11680    3    0    1
 -2      1625      3230      3420      3703
 -1     11681    3    0    1
 -2      3230      3641      2947      3703
 -1     11682    3    0    1
 -2      2797      2791      3056      3703
 -1     11683    3    0    1
 -2      2791      2902      3056      3703
 -1     11684    3    0    1
 -2      1625      1781      3230      3703
 -1     11685    3    0    1
 -2      1701      1625      3420      3703
 -1     11686    3    0    1
 -2      2797      3056      3077      3703
 -1     11687    3    0    1
 -2      3056      2902      3237      3703
 -1     11688    3    0    1
 -2      3154      3331      3398      3703
 -1     11689    3    0    1
 -2      1781      1638      3230      3703
 -1     11690    3    0    1
 -2      3077      3056      3342      3703
 -1     11691    3    0    1
 -2      3056      3237      3342      3703
 -1     11692    3    0    1
 -2      2791      2797      3097      3703
 -1     11693    3    0    1
 -2      2797      3077      3309      3703
 -1     11694    3    0    1
 -2      3172      3165      3337      3705
 -1     11695    3    0    1
 -2      3321      3172      3337      3705
 -1     11696    3    0    1
 -2      2515      2567      2922      3705
 -1     11697    3    0    1
 -2      2730      3165      3172      3705
 -1     11698    3    0    1
 -2      1783      3321      3337      3705
 -1     11699    3    0    1
 -2      2567      2836      3082      3705
 -1     11700    3    0    1
 -2      2879      2515      2922      3705
 -1     11701    3    0    1
 -2      3088      2922      3291      3705
 -1     11702    3    0    1
 -2      2879      2922      3088      3705
 -1     11703    3    0    1
 -2      2567      2515      2597      3705
 -1     11704    3    0    1
 -2      2597      2515      3262      3705
 -1     11705    3    0    1
 -2      3256      2620      3307      3440
 -1     11706    3    0    1
 -2      1712      3388      3685      3441
 -1     11707    3    0    1
 -2      2819      2782      3715      3467
 -1     11708    3    0    1
 -2      3388      3617      3685      3441
 -1     11709    3    0    1
 -2      3617      3649      3685      3441
 -1     11710    3    0    1
 -2      2866      1674      3385      3442
 -1     11711    3    0    1
 -2      1674      1831      3385      3442
 -1     11712    3    0    1
 -2      1431      1674      2866      3442
 -1     11713    3    0    1
 -2      2650      1431      2866      3442
 -1     11714    3    0    1
 -2      1431      2650      2677      3442
 -1     11715    3    0    1
 -2      1588       612      3141      3707
 -1     11716    3    0    1
 -2      3141       612      3366      3707
 -1     11717    3    0    1
 -2      1504      1588      2793      3707
 -1     11718    3    0    1
 -2      2247      2134      3601      3731
 -1     11719    3    0    1
 -2      3599      3004      3601      3731
 -1     11720    3    0    1
 -2      2501      3269      3388      3731
 -1     11721    3    0    1
 -2      2829      3043      3366      3707
 -1     11722    3    0    1
 -2      3617      3534      3388      3731
 -1     11723    3    0    1
 -2      2925      2707      3365      3707
 -1     11724    3    0    1
 -2      2518      2716      3043      3707
 -1     11725    3    0    1
 -2      2716      2793      3043      3707
 -1     11726    3    0    1
 -2      2734      2134      3463      3731
 -1     11727    3    0    1
 -2       348      2261      3697      3733
 -1     11728    3    0    1
 -2      3043      2793      3141      3707
 -1     11729    3    0    1
 -2      1588      2925      3365      3707
 -1     11730    3    0    1
 -2      3043      3141      3366      3707
 -1     11731    3    0    1
 -2       612      1588      3365      3707
 -1     11732    3    0    1
 -2      1588      1504      2925      3707
 -1     11733    3    0    1
 -2      1826      1497      3252      3708
 -1     11734    3    0    1
 -2      3099      3110      3277      3708
 -1     11735    3    0    1
 -2      1826      3252      3356      3708
 -1     11736    3    0    1
 -2      1758      1425      3611      3732
 -1     11737    3    0    1
 -2      3381      1543      3389      3709
 -1     11738    3    0    1
 -2      3421      1758      3700      3732
 -1     11739    3    0    1
 -2      1425      3577      3611      3732
 -1     11740    3    0    1
 -2      1738      3060      3675      3710
 -1     11741    3    0    1
 -2      2831      3086      3202      3710
 -1     11742    3    0    1
 -2      3086      1506      3202      3710
 -1     11743    3    0    1
 -2      2894      2561      3181      3710
 -1     11744    3    0    1
 -2      1776      1506      3086      3710
 -1     11745    3    0    1
 -2      1506      1738      3202      3710
 -1     11746    3    0    1
 -2      2561      2727      2840      3710
 -1     11747    3    0    1
 -2      1482      1776      3086      3710
 -1     11748    3    0    1
 -2      2561      2528      2727      3710
 -1     11749    3    0    1
 -2      2153      1015      2690      3725
 -1     11750    3    0    1
 -2      3346      3173      1925      3498
 -1     11751    3    0    1
 -2      2782      3217      3370      3711
 -1     11752    3    0    1
 -2      2830      2782      3370      3711
 -1     11753    3    0    1
 -2      3217      3246      3370      3711
 -1     11754    3    0    1
 -2      3201      2830      3370      3711
 -1     11755    3    0    1
 -2      1618      1447      3370      3711
 -1     11756    3    0    1
 -2      3246      1618      3370      3711
 -1     11757    3    0    1
 -2      2250      2511      2777      3711
 -1     11758    3    0    1
 -2      1768      2834      1805      1933
 -1     11759    3    0    1
 -2      1629      2834      3149      1933
 -1     11760    3    0    1
 -2      2834      1629      1805      1933
 -1     11761    3    0    1
 -2      3407      2553      3701      3716
 -1     11762    3    0    1
 -2      2855      3092      3612      3716
 -1     11763    3    0    1
 -2      1462      3223      3612      3716
 -1     11764    3    0    1
 -2      1851      3397      1941      1942
 -1     11765    3    0    1
 -2       279      1060      3507      3712
 -1     11766    3    0    1
 -2      3505      1336      3693      3712
 -1     11767    3    0    1
 -2      2996      2803      3591      3492
 -1     11768    3    0    1
 -2      1652      2981      3232      3487
 -1     11769    3    0    1
 -2      1336       279      3693      3712
 -1     11770    3    0    1
 -2      1060      3505      3712      1336
 -1     11771    3    0    1
 -2      3559      1684      2981      2946
 -1     11772    3    0    1
 -2      1060       279      1336      3712
 -1     11773    3    0    1
 -2      1421      1819      3207      3713
 -1     11774    3    0    1
 -2      2845      1819      3384      3713
 -1     11775    3    0    1
 -2      2845      2639      1819      3713
 -1     11776    3    0    1
 -2      3507      1060      1890      3713
 -1     11777    3    0    1
 -2      2639      2519      3100      3713
 -1     11778    3    0    1
 -2      2508      2519      2639      3713
 -1     11779    3    0    1
 -2      2519      3074      3100      3713
 -1     11780    3    0    1
 -2      2519      1419      3074      3713
 -1     11781    3    0    1
 -2      2639      3100      3207      3713
 -1     11782    3    0    1
 -2      3218      2896      3384      3713
 -1     11783    3    0    1
 -2      2508      2639      2844      3713
 -1     11784    3    0    1
 -2      2657      2896      3218      3713
 -1     11785    3    0    1
 -2      1819      3218      3384      3713
 -1     11786    3    0    1
 -2      2844      2639      2845      3713
 -1     11787    3    0    1
 -2      1060      2657      3218      3713
 -1     11788    3    0    1
 -2      3218      1632      1890      3713
 -1     11789    3    0    1
 -2      1421      1632      3218      3713
 -1     11790    3    0    1
 -2      1819      1421      3218      3713
 -1     11791    3    0    1
 -2      1060      3218      1890      3713
 -1     11792    3    0    1
 -2      3293      1858      3322      3714
 -1     11793    3    0    1
 -2      1858      3293      3306      3714
 -1     11794    3    0    1
 -2      3315      2781      3444      3714
 -1     11795    3    0    1
 -2      2781      3318      3444      3714
 -1     11796    3    0    1
 -2      1865      3315      3444      3714
 -1     11797    3    0    1
 -2      3081      2576      3345      3714
 -1     11798    3    0    1
 -2      1865      1416      3315      3714
 -1     11799    3    0    1
 -2      1847      1865      3444      3714
 -1     11800    3    0    1
 -2      1550      1549      3394      3460
 -1     11801    3    0    1
 -2      3293      3081      3306      3714
 -1     11802    3    0    1
 -2      3345      2606      3394      3714
 -1     11803    3    0    1
 -2      2576      2606      3345      3714
 -1     11804    3    0    1
 -2      2977      2576      3081      3714
 -1     11805    3    0    1
 -2      1549       353      3679      3460
 -1     11806    3    0    1
 -2      2977      3081      3236      3714
 -1     11807    3    0    1
 -2      1858      1847      3444      3714
 -1     11808    3    0    1
 -2      3322      1858      3444      3714
 -1     11809    3    0    1
 -2      1665      1415      3545      3468
 -1     11810    3    0    1
 -2      2717      2788      3050      3498
 -1     11811    3    0    1
 -2       194       200      3502      3725
 -1     11812    3    0    1
 -2      3588       944      3648      3721
 -1     11813    3    0    1
 -2      1410      3422      1927      3448
 -1     11814    3    0    1
 -2      3152      3170      3668      3449
 -1     11815    3    0    1
 -2      3254      3152      3668      3449
 -1     11816    3    0    1
 -2      3152      1746      3185      3449
 -1     11817    3    0    1
 -2      3170      3152      3185      3449
 -1     11818    3    0    1
 -2      1564      2921      3051      1939
 -1     11819    3    0    1
 -2      3387      1851      3435      1941
 -1     11820    3    0    1
 -2      1706      2936      1939      1940
 -1     11821    3    0    1
 -2      3639      3262      3450      3490
 -1     11822    3    0    1
 -2        29         2      1935      1941
 -1     11823    3    0    1
 -2        29      1906      3395      1941
 -1     11824    3    0    1
 -2      3591      3639      3450      3492
 -1     11825    3    0    1
 -2      3591      2803      3639      3492
 -1     11826    3    0    1
 -2      3712      1892      3486      3491
 -1     11827    3    0    1
 -2      1529      1528      3450      3490
 -1     11828    3    0    1
 -2      1528      1529      3263      3490
 -1     11829    3    0    1
 -2      2623       498      3317      3494
 -1     11830    3    0    1
 -2      3620      2590      3671      3737
 -1     11831    3    0    1
 -2      3047      2623      3317      3494
 -1     11832    3    0    1
 -2      1457      3671      3452      3737
 -1     11833    3    0    1
 -2      3682      3407      3701      3716
 -1     11834    3    0    1
 -2      2553      3682      3701      3716
 -1     11835    3    0    1
 -2      1411      2553      3407      3716
 -1     11836    3    0    1
 -2      1462      3092      3275      3716
 -1     11837    3    0    1
 -2      3092      1462      3612      3716
 -1     11838    3    0    1
 -2      1669      1462      3275      3716
 -1     11839    3    0    1
 -2      3242      1669      3275      3716
 -1     11840    3    0    1
 -2      1691      3142      3242      3716
 -1     11841    3    0    1
 -2      1872      3142      1938      3716
 -1     11842    3    0    1
 -2      3242      3142      1872      3716
 -1     11843    3    0    1
 -2      1669      3242      1872      3716
 -1     11844    3    0    1
 -2      2633      2553      2855      3716
 -1     11845    3    0    1
 -2      2700      3142      3407      3716
 -1     11846    3    0    1
 -2      3142      1411      3407      3716
 -1     11847    3    0    1
 -2      3092      2855      3275      3716
 -1     11848    3    0    1
 -2      2855      3242      3275      3716
 -1     11849    3    0    1
 -2      2700      1775      3142      3716
 -1     11850    3    0    1
 -2      1462      1669      3223      3716
 -1     11851    3    0    1
 -2      3223      1669      1938      3716
 -1     11852    3    0    1
 -2      2553      1411      2855      3716
 -1     11853    3    0    1
 -2      1691      1411      3142      3716
 -1     11854    3    0    1
 -2      2855      1411      1691      3716
 -1     11855    3    0    1
 -2      2855      1691      3242      3716
 -1     11856    3    0    1
 -2      1775      3223      1938      3716
 -1     11857    3    0    1
 -2      3142      1775      1938      3716
 -1     11858    3    0    1
 -2      1669      1872      1938      3716
 -1     11859    3    0    1
 -2       736      2692      2880      3456
 -1     11860    3    0    1
 -2      2880      2692      3637      3456
 -1     11861    3    0    1
 -2      2880      2923      3177      3456
 -1     11862    3    0    1
 -2      1564      3186      3642      3457
 -1     11863    3    0    1
 -2      2989      1564      3642      3457
 -1     11864    3    0    1
 -2      1564      2989      3260      3457
 -1     11865    3    0    1
 -2      3260      2989      3642      3457
 -1     11866    3    0    1
 -2      2728      3564      3642      3717
 -1     11867    3    0    1
 -2      3564      2728      3174      3717
 -1     11868    3    0    1
 -2      2728      1010      3174      3717
 -1     11869    3    0    1
 -2      2936      1706      1939      3717
 -1     11870    3    0    1
 -2      1010       329      3554      3717
 -1     11871    3    0    1
 -2      2979      2728      3642      3717
 -1     11872    3    0    1
 -2       329      1697      3554      3717
 -1     11873    3    0    1
 -2       329      1706      3443      3717
 -1     11874    3    0    1
 -2      3174      3554      1010      1309
 -1     11875    3    0    1
 -2      3554      3174      1010      3717
 -1     11876    3    0    1
 -2      1697       329      1779      3717
 -1     11877    3    0    1
 -2      1779       329      3443      3717
 -1     11878    3    0    1
 -2      2705      2936      3260      3717
 -1     11879    3    0    1
 -2      2705      1456      2936      3717
 -1     11880    3    0    1
 -2      1689      1412      3573      3473
 -1     11881    3    0    1
 -2      1456      2705      2935      3717
 -1     11882    3    0    1
 -2      1456      1697      2936      3717
 -1     11883    3    0    1
 -2      1456      2935      1765      3717
 -1     11884    3    0    1
 -2      1010      2979      3457      3717
 -1     11885    3    0    1
 -2      2936      1697      3443      3717
 -1     11886    3    0    1
 -2      1939      1706      3457      3717
 -1     11887    3    0    1
 -2       329      1010      3457      3717
 -1     11888    3    0    1
 -2      1010      2728      2979      3717
 -1     11889    3    0    1
 -2      1706       329      3457      3717
 -1     11890    3    0    1
 -2      1697      1779      3443      3717
 -1     11891    3    0    1
 -2       188       695       703      1943
 -1     11892    3    0    1
 -2       188      3684      1943      1944
 -1     11893    3    0    1
 -2       188       178      3684      1944
 -1     11894    3    0    1
 -2       427       178       682      1944
 -1     11895    3    0    1
 -2       682       178       686      1944
 -1     11896    3    0    1
 -2      3304      3298      1899      3462
 -1     11897    3    0    1
 -2       348       269      3430      3733
 -1     11898    3    0    1
 -2      1559      3253      3304      3462
 -1     11899    3    0    1
 -2      1559      3304      1899      3462
 -1     11900    3    0    1
 -2      3004      2247      3601      3731
 -1     11901    3    0    1
 -2      2501      3030      3463      3731
 -1     11902    3    0    1
 -2      3233      3298      3304      3462
 -1     11903    3    0    1
 -2      3083      1661      3084      1945
 -1     11904    3    0    1
 -2       353      1068      3679      3718
 -1     11905    3    0    1
 -2      1068       353      3664      3718
 -1     11906    3    0    1
 -2      2134      3547      3599      3731
 -1     11907    3    0    1
 -2       269       348      3697      3733
 -1     11908    3    0    1
 -2      3587      3715      3467      3497
 -1     11909    3    0    1
 -2      1905       435      3720      3497
 -1     11910    3    0    1
 -2      1634      1905      3720      3497
 -1     11911    3    0    1
 -2      2222      3030      3402      3463
 -1     11912    3    0    1
 -2      2407      2222      3402      3463
 -1     11913    3    0    1
 -2      2222      2407      3030      3463
 -1     11914    3    0    1
 -2      1435      1634      3587      3497
 -1     11915    3    0    1
 -2      3715      3243      3468      3499
 -1     11916    3    0    1
 -2      3050      1803      3445      3498
 -1     11917    3    0    1
 -2      3715      2819      3467      3497
 -1     11918    3    0    1
 -2      1803      3050      3346      3498
 -1     11919    3    0    1
 -2      3545      3715      3468      3499
 -1     11920    3    0    1
 -2      3050      2788      3346      3498
 -1     11921    3    0    1
 -2      3720       435      3468      3497
 -1     11922    3    0    1
 -2       226       435      2869      1949
 -1     11923    3    0    1
 -2      3554      1309      3174      3469
 -1     11924    3    0    1
 -2       435       226      3683      1949
 -1     11925    3    0    1
 -2      1412      1694      3592      3721
 -1     11926    3    0    1
 -2      3648        94      3656      3721
 -1     11927    3    0    1
 -2      3650      3648      3656      3721
 -1     11928    3    0    1
 -2      2517      3622      3670      3736
 -1     11929    3    0    1
 -2        94       432      3656      3721
 -1     11930    3    0    1
 -2       432        94      1694      3721
 -1     11931    3    0    1
 -2      3573      3650      3447      3721
 -1     11932    3    0    1
 -2      1694      3573      3447      3721
 -1     11933    3    0    1
 -2      3656       432      3447      3721
 -1     11934    3    0    1
 -2       432      1694      3447      3721
 -1     11935    3    0    1
 -2      3563      3504      3660      3464
 -1     11936    3    0    1
 -2      3114      1875      3660      3464
 -1     11937    3    0    1
 -2      3059      3114      3660      3464
 -1     11938    3    0    1
 -2      1452      1523      3574      3464
 -1     11939    3    0    1
 -2      3574      1523      3201      3464
 -1     11940    3    0    1
 -2      1580      3633      3709      1947
 -1     11941    3    0    1
 -2      1917      1497      1918      3465
 -1     11942    3    0    1
 -2      3350      1917      1918      3465
 -1     11943    3    0    1
 -2      1497      1826      1827      3465
 -1     11944    3    0    1
 -2      1917      3350      3708      3465
 -1     11945    3    0    1
 -2      1497      1917      3708      3465
 -1     11946    3    0    1
 -2      1826      1497      3708      3465
 -1     11947    3    0    1
 -2      3110      1826      3708      3465
 -1     11948    3    0    1
 -2      1826      3110      3277      3465
 -1     11949    3    0    1
 -2      1827      1826      3277      3465
 -1     11950    3    0    1
 -2       437      1712      3685      3466
 -1     11951    3    0    1
 -2      3685      1712      3441      3466
 -1     11952    3    0    1
 -2      3729       415      1962      1963
 -1     11953    3    0    1
 -2       269       263      3430      3733
 -1     11954    3    0    1
 -2      3520      3587      3715      3467
 -1     11955    3    0    1
 -2      3520      1435      3587      3467
 -1     11956    3    0    1
 -2      3217      1435      3615      3467
 -1     11957    3    0    1
 -2      3217      3615      3711      3467
 -1     11958    3    0    1
 -2      3711      3520      3715      3467
 -1     11959    3    0    1
 -2      1435      3520      3615      3467
 -1     11960    3    0    1
 -2      3615      3520      3711      3467
 -1     11961    3    0    1
 -2      2162      3402      3700      3732
 -1     11962    3    0    1
 -2      3534      2162      3611      3732
 -1     11963    3    0    1
 -2      1925      3173      1946      3498
 -1     11964    3    0    1
 -2      2717      3050      3445      3498
 -1     11965    3    0    1
 -2      2788      2717      3173      3498
 -1     11966    3    0    1
 -2      1792      3346      1925      3498
 -1     11967    3    0    1
 -2      1765      2935      3085      3469
 -1     11968    3    0    1
 -2      1902      3340      3678      3472
 -1     11969    3    0    1
 -2      3677      3368      3691      3472
 -1     11970    3    0    1
 -2      3340      3677      3691      3472
 -1     11971    3    0    1
 -2      3678      3340      3691      3472
 -1     11972    3    0    1
 -2      3362      3678      3691      3472
 -1     11973    3    0    1
 -2      1438      3340      1902      3472
 -1     11974    3    0    1
 -2      3163      3379      3469      3722
 -1     11975    3    0    1
 -2      2935      3163      3469      3722
 -1     11976    3    0    1
 -2      3128      2643      3247      3722
 -1     11977    3    0    1
 -2      2705      2643      3128      3722
 -1     11978    3    0    1
 -2      3128      3247      3470      3722
 -1     11979    3    0    1
 -2      3379      3128      3470      3722
 -1     11980    3    0    1
 -2      3174      3386      3406      3722
 -1     11981    3    0    1
 -2      3386      3174      3469      3722
 -1     11982    3    0    1
 -2      2935      2705      3128      3722
 -1     11983    3    0    1
 -2      3163      3128      3379      3722
 -1     11984    3    0    1
 -2      1519      3386      3469      3722
 -1     11985    3    0    1
 -2      2935      3128      3163      3722
 -1     11986    3    0    1
 -2      3639      1432      1754      3244
 -1     11987    3    0    1
 -2      2367      1324      3544      3724
 -1     11988    3    0    1
 -2      3544      1324      3593      3724
 -1     11989    3    0    1
 -2      1324       226      3593      3724
 -1     11990    3    0    1
 -2      3593       226      3683      3724
 -1     11991    3    0    1
 -2      3587      3683      3720      3724
 -1     11992    3    0    1
 -2       226      3532      3720      3724
 -1     11993    3    0    1
 -2       226      1035      3532      3724
 -1     11994    3    0    1
 -2      2686      2367      3544      3724
 -1     11995    3    0    1
 -2      2511      2686      3544      3724
 -1     11996    3    0    1
 -2      2511      3544      3545      3724
 -1     11997    3    0    1
 -2      3545      3544      3683      3724
 -1     11998    3    0    1
 -2      3683       226      3720      3724
 -1     11999    3    0    1
 -2      2367      2511      2532      3724
 -1     12000    3    0    1
 -2       756      1035      1324      3724
 -1     12001    3    0    1
 -2      2342      2367      2532      3724
 -1     12002    3    0    1
 -2       766       756      1324      3724
 -1     12003    3    0    1
 -2      2511      2367      2686      3724
 -1     12004    3    0    1
 -2      1035       226      1324      3724
 -1     12005    3    0    1
 -2       268      1910      3404      3475
 -1     12006    3    0    1
 -2      1910      3149      3404      3475
 -1     12007    3    0    1
 -2       924      3149      1910      3475
 -1     12008    3    0    1
 -2      3012      3261      3428      3475
 -1     12009    3    0    1
 -2      3012      3168      3261      3475
 -1     12010    3    0    1
 -2      2261      2613      3697      3477
 -1     12011    3    0    1
 -2       632       414       415      1962
 -1     12012    3    0    1
 -2       154       415      3729      1963
 -1     12013    3    0    1
 -2      2521      1913      3476      3478
 -1     12014    3    0    1
 -2      1950      1914      3476      3478
 -1     12015    3    0    1
 -2      1914      1950      3476        17
 -1     12016    3    0    1
 -2      3476      1913      1950      3478
 -1     12017    3    0    1
 -2       118       963      2105      1951
 -1     12018    3    0    1
 -2      2105       963      3688      1951
 -1     12019    3    0    1
 -2       118      2105      3688      1951
 -1     12020    3    0    1
 -2       592       596       963      1951
 -1     12021    3    0    1
 -2       118       592       963      1951
 -1     12022    3    0    1
 -2       596       118       120      1951
 -1     12023    3    0    1
 -2       118       596       592      1951
 -1     12024    3    0    1
 -2       406       120      3688      1952
 -1     12025    3    0    1
 -2      3688       120      1951      1952
 -1     12026    3    0    1
 -2       406       407       604      1952
 -1     12027    3    0    1
 -2       406       604       613      1952
 -1     12028    3    0    1
 -2       188       189      3684      3726
 -1     12029    3    0    1
 -2      2390      2599      3684      3726
 -1     12030    3    0    1
 -2      2390       189      3410      3726
 -1     12031    3    0    1
 -2       189      2390      3684      3726
 -1     12032    3    0    1
 -2       188       178      2552      3726
 -1     12033    3    0    1
 -2       178       427      2552      3726
 -1     12034    3    0    1
 -2       427      1308      2552      3726
 -1     12035    3    0    1
 -2      1308      1007      2552      3726
 -1     12036    3    0    1
 -2       189       188      2552      3726
 -1     12037    3    0    1
 -2      2208      2599      3410      3726
 -1     12038    3    0    1
 -2      1007       189      2552      3726
 -1     12039    3    0    1
 -2      2599      2390      3410      3726
 -1     12040    3    0    1
 -2      2585      2204      3411      3727
 -1     12041    3    0    1
 -2       410       411      2545      3727
 -1     12042    3    0    1
 -2      2204      2201      3411      3727
 -1     12043    3    0    1
 -2       411      1293      2545      3727
 -1     12044    3    0    1
 -2       409       146      2545      3727
 -1     12045    3    0    1
 -2      2189      2204      2585      3727
 -1     12046    3    0    1
 -2       974       409      2545      3727
 -1     12047    3    0    1
 -2       108       405      3699      1954
 -1     12048    3    0    1
 -2       405       108       574      1954
 -1     12049    3    0    1
 -2       574       108       578      1954
 -1     12050    3    0    1
 -2       269       348       803      1955
 -1     12051    3    0    1
 -2       269       803       811      1955
 -1     12052    3    0    1
 -2       269       263      3697      1956
 -1     12053    3    0    1
 -2       791       794      1054      1956
 -1     12054    3    0    1
 -2       257       791      1054      1956
 -1     12055    3    0    1
 -2       794       257       263      1956
 -1     12056    3    0    1
 -2       257       794       791      1956
 -1     12057    3    0    1
 -2      3314      3418      3702      3480
 -1     12058    3    0    1
 -2      1810      3314      3702      3480
 -1     12059    3    0    1
 -2      1907      1810      3702      3480
 -1     12060    3    0    1
 -2      1908      1907      3426      3480
 -1     12061    3    0    1
 -2      3426      1907      3702      3480
 -1     12062    3    0    1
 -2      3418      3426      3702      3480
 -1     12063    3    0    1
 -2       208       337      3694      3481
 -1     12064    3    0    1
 -2      1319       208      3694      3481
 -1     12065    3    0    1
 -2      2608       979      3427      3729
 -1     12066    3    0    1
 -2      2429      2608      3427      3729
 -1     12067    3    0    1
 -2       989      3729      1962      1963
 -1     12068    3    0    1
 -2       649       640       989      1963
 -1     12069    3    0    1
 -2      3508       349      1922      3728
 -1     12070    3    0    1
 -2       280      3508      1922      3728
 -1     12071    3    0    1
 -2       349       280      1922      3728
 -1     12072    3    0    1
 -2       280      1335      2170      3728
 -1     12073    3    0    1
 -2       280      2170      3425      3728
 -1     12074    3    0    1
 -2       349       350      3482      3728
 -1     12075    3    0    1
 -2      2617      2475      3425      3728
 -1     12076    3    0    1
 -2       350       270      3482      3728
 -1     12077    3    0    1
 -2       280       349      3482      3728
 -1     12078    3    0    1
 -2       270      1334      3482      3728
 -1     12079    3    0    1
 -2      1335       280      3482      3728
 -1     12080    3    0    1
 -2      2170      2617      3425      3728
 -1     12081    3    0    1
 -2      2475      2415      3425      3728
 -1     12082    3    0    1
 -2      2412      2026      2429      3729
 -1     12083    3    0    1
 -2      3598      3543      3429      3483
 -1     12084    3    0    1
 -2      3543      3598      3400      3483
 -1     12085    3    0    1
 -2      3400      2557      3417      3483
 -1     12086    3    0    1
 -2      3409      3400      3417      3483
 -1     12087    3    0    1
 -2       775       237       767      1957
 -1     12088    3    0    1
 -2       248      3698      1957      1958
 -1     12089    3    0    1
 -2       248       342      3698      1958
 -1     12090    3    0    1
 -2       343       342       755      1958
 -1     12091    3    0    1
 -2       755       342       758      1958
 -1     12092    3    0    1
 -2      3701      1925      1928      1959
 -1     12093    3    0    1
 -2      3407      3701      1928      1959
 -1     12094    3    0    1
 -2      3282      1792      3701      1959
 -1     12095    3    0    1
 -2      3701      1792      1925      1959
 -1     12096    3    0    1
 -2      1655      1656      3107      3484
 -1     12097    3    0    1
 -2      3656      3650      3721      3735
 -1     12098    3    0    1
 -2      2288      2849      2927      3735
 -1     12099    3    0    1
 -2      2288      2927      2931      3735
 -1     12100    3    0    1
 -2      2927      3439      3447      3735
 -1     12101    3    0    1
 -2      2849      3197      3439      3735
 -1     12102    3    0    1
 -2      3650      3447      3721      3735
 -1     12103    3    0    1
 -2      2927      2849      3439      3735
 -1     12104    3    0    1
 -2      1696      3552      3656      3735
 -1     12105    3    0    1
 -2      3397      3395      1941      1960
 -1     12106    3    0    1
 -2       790      3591      3396      3492
 -1     12107    3    0    1
 -2      3639      2803      3474      3492
 -1     12108    3    0    1
 -2      2610      3546      3231      3486
 -1     12109    3    0    1
 -2      3231      3505      3693      3486
 -1     12110    3    0    1
 -2      3693      3505      3712      3486
 -1     12111    3    0    1
 -2      1511      3231      3693      3486
 -1     12112    3    0    1
 -2       276      1511      3693      3486
 -1     12113    3    0    1
 -2      3505      3501      3712      3486
 -1     12114    3    0    1
 -2      3501      3505      3546      3486
 -1     12115    3    0    1
 -2      3181      1482      1936      3487
 -1     12116    3    0    1
 -2      3559      2894      2981      3487
 -1     12117    3    0    1
 -2      2981      2894      3232      3487
 -1     12118    3    0    1
 -2      3232      3181      1936      3487
 -1     12119    3    0    1
 -2      1482      3181      3710      3487
 -1     12120    3    0    1
 -2      3086      1482      3710      3487
 -1     12121    3    0    1
 -2      3559      3086      3710      3487
 -1     12122    3    0    1
 -2      2894      3559      3710      3487
 -1     12123    3    0    1
 -2      3181      2894      3710      3487
 -1     12124    3    0    1
 -2      1684      2981      1893      3487
 -1     12125    3    0    1
 -2      1684      3559      2981      3487
 -1     12126    3    0    1
 -2      2894      3181      3232      3487
 -1     12127    3    0    1
 -2      2921      3051      1939      3489
 -1     12128    3    0    1
 -2      3053      1734      3651      3489
 -1     12129    3    0    1
 -2      1734      1564      3651      3489
 -1     12130    3    0    1
 -2      3051      1564      1939      3489
 -1     12131    3    0    1
 -2      1564      3051      3106      3489
 -1     12132    3    0    1
 -2      3106      3051      3651      3489
 -1     12133    3    0    1
 -2      1564      3106      3651      3489
 -1     12134    3    0    1
 -2      2920      2701      2921      3489
 -1     12135    3    0    1
 -2      2921      2701      3051      3489
 -1     12136    3    0    1
 -2      3546      3501      3486      3491
 -1     12137    3    0    1
 -2      3396      3591      3450      3492
 -1     12138    3    0    1
 -2      3639      3474      3490      3492
 -1     12139    3    0    1
 -2      3450      3639      3490      3492
 -1     12140    3    0    1
 -2      1528      3396      3450      3492
 -1     12141    3    0    1
 -2      1528       790      3396      3492
 -1     12142    3    0    1
 -2      3474      1528      3490      3492
 -1     12143    3    0    1
 -2      1528      3450      3490      3492
 -1     12144    3    0    1
 -2      1487      3120      3671      3493
 -1     12145    3    0    1
 -2      3231      3225      3496      3500
 -1     12146    3    0    1
 -2      3546      2563      3231      3500
 -1     12147    3    0    1
 -2      3043      2518      3707      3730
 -1     12148    3    0    1
 -2      2707      3673      3707      3730
 -1     12149    3    0    1
 -2      3589      2925      3707      3730
 -1     12150    3    0    1
 -2      3546      3231      3486      3500
 -1     12151    3    0    1
 -2      2491      2246      2563      3500
 -1     12152    3    0    1
 -2      2194      3501      3505      3500
 -1     12153    3    0    1
 -2      2491      2563      3546      3500
 -1     12154    3    0    1
 -2      2829      3043      3707      3730
 -1     12155    3    0    1
 -2      2563      2246      2931      3500
 -1     12156    3    0    1
 -2      3448      3461      3495      3737
 -1     12157    3    0    1
 -2      1870      1203      3357      3494
 -1     12158    3    0    1
 -2      2536      3671      3493      3737
 -1     12159    3    0    1
 -2      1203       499      2623      3494
 -1     12160    3    0    1
 -2       498      1201      3317      3494
 -1     12161    3    0    1
 -2      1203      2623      3047      3494
 -1     12162    3    0    1
 -2      2759      3493      1461      3737
 -1     12163    3    0    1
 -2      2590      3451      3452      3737
 -1     12164    3    0    1
 -2      3096      3640      3673      3730
 -1     12165    3    0    1
 -2      2707      2774      3096      3730
 -1     12166    3    0    1
 -2      2707      3096      3673      3730
 -1     12167    3    0    1
 -2      2707      2665      2774      3730
 -1     12168    3    0    1
 -2      2774      2665      2794      3730
 -1     12169    3    0    1
 -2      2755      2518      3233      3730
 -1     12170    3    0    1
 -2      2518      2829      3233      3730
 -1     12171    3    0    1
 -2      3333      3075      3462      3730
 -1     12172    3    0    1
 -2      3075      3253      3462      3730
 -1     12173    3    0    1
 -2      3075      3094      3253      3730
 -1     12174    3    0    1
 -2      2829      2518      3043      3730
 -1     12175    3    0    1
 -2      2829      3006      3233      3730
 -1     12176    3    0    1
 -2      3096      3075      3333      3730
 -1     12177    3    0    1
 -2      3075      2774      3094      3730
 -1     12178    3    0    1
 -2      2794      2707      2925      3730
 -1     12179    3    0    1
 -2      2755      3233      3304      3730
 -1     12180    3    0    1
 -2      3253      3094      3369      3730
 -1     12181    3    0    1
 -2      3233      3006      3298      3730
 -1     12182    3    0    1
 -2      2774      3075      3096      3730
 -1     12183    3    0    1
 -2      2665      2707      2794      3730
 -1     12184    3    0    1
 -2      3030      3402      3463      3732
 -1     12185    3    0    1
 -2      3463      2162      3731      3732
 -1     12186    3    0    1
 -2      3030      3463      3731      3732
 -1     12187    3    0    1
 -2      3388      3030      3731      3732
 -1     12188    3    0    1
 -2      3534      3388      3731      3732
 -1     12189    3    0    1
 -2      3534      3577      3649      3732
 -1     12190    3    0    1
 -2      3441      3649      3466      3732
 -1     12191    3    0    1
 -2      3649      1650      3466      3732
 -1     12192    3    0    1
 -2      3534      3617      3388      3732
 -1     12193    3    0    1
 -2      3388      3617      3441      3732
 -1     12194    3    0    1
 -2      1425      1650      3577      3732
 -1     12195    3    0    1
 -2      3577      1650      3649      3732
 -1     12196    3    0    1
 -2      3617      3649      3441      3732
 -1     12197    3    0    1
 -2      3617      3534      3649      3732
 -1     12198    3    0    1
 -2      1425      3414      3466      3732
 -1     12199    3    0    1
 -2      3414      1425      3421      3732
 -1     12200    3    0    1
 -2      3414      3030      3441      3732
 -1     12201    3    0    1
 -2      3414      3441      3466      3732
 -1     12202    3    0    1
 -2      1650      1425      3466      3732
 -1     12203    3    0    1
 -2      1425      1758      3421      3732
 -1     12204    3    0    1
 -2      3363      3030      3414      3732
 -1     12205    3    0    1
 -2      3402      2162      3463      3732
 -1     12206    3    0    1
 -2      3030      3388      3441      3732
 -1     12207    3    0    1
 -2       335      1320      3615      3734
 -1     12208    3    0    1
 -2       335      1932      3484      3734
 -1     12209    3    0    1
 -2      3107      1655      3484      3734
 -1     12210    3    0    1
 -2      1655      3107      3289      3734
 -1     12211    3    0    1
 -2      2959      3289      3637      3734
 -1     12212    3    0    1
 -2      2873      2959      3637      3734
 -1     12213    3    0    1
 -2      2873      3637      3669      3734
 -1     12214    3    0    1
 -2      2808      2652      3637      3734
 -1     12215    3    0    1
 -2      3289      2808      3637      3734
 -1     12216    3    0    1
 -2      2493      2652      3669      3734
 -1     12217    3    0    1
 -2      2652      2493      3637      3734
 -1     12218    3    0    1
 -2      3637      2493      3669      3734
 -1     12219    3    0    1
 -2      3615      1824      1932      3734
 -1     12220    3    0    1
 -2       335      3615      1932      3734
 -1     12221    3    0    1
 -2      3615      1320      3665      3734
 -1     12222    3    0    1
 -2      3532      3615      3665      3734
 -1     12223    3    0    1
 -2      1320      3532      3665      3734
 -1     12224    3    0    1
 -2      3107      2808      3289      3734
 -1     12225    3    0    1
 -2      1320      1655      3289      3734
 -1     12226    3    0    1
 -2      2873      1320      3289      3734
 -1     12227    3    0    1
 -2      1435      2652      3484      3734
 -1     12228    3    0    1
 -2      1824      1435      3484      3734
 -1     12229    3    0    1
 -2      1320       335      1655      3734
 -1     12230    3    0    1
 -2      2959      2873      3289      3734
 -1     12231    3    0    1
 -2      2652      1435      2678      3734
 -1     12232    3    0    1
 -2      2678      1435      1634      3734
 -1     12233    3    0    1
 -2      1932      1824      3484      3734
 -1     12234    3    0    1
 -2      2652      3107      3484      3734
 -1     12235    3    0    1
 -2      2652      2808      3107      3734
 -1     12236    3    0    1
 -2      3447      3439      3485      3735
 -1     12237    3    0    1
 -2      2061      2502      2931      3735
 -1     12238    3    0    1
 -2      1413      1696      3485      3735
 -1     12239    3    0    1
 -2      3317      1201      3415      3736
 -1     12240    3    0    1
 -2      3380      3415      3454      3736
 -1     12241    3    0    1
 -2      3351      3257      3371      3736
 -1     12242    3    0    1
 -2      1906      1201      3494      3736
 -1     12243    3    0    1
 -2      1201      1906      3415      3736
 -1     12244    3    0    1
 -2      3395      1906      3494      3736
 -1     12245    3    0    1
 -2      3313      3395      3494      3736
 -1     12246    3    0    1
 -2      1434      2620      3351      3736
 -1     12247    3    0    1
 -2      2517      2620      3256      3736
 -1     12248    3    0    1
 -2      3357      3175      3440      3736
 -1     12249    3    0    1
 -2      3351      3371      3397      3736
 -1     12250    3    0    1
 -2      3371      3257      3376      3736
 -1     12251    3    0    1
 -2      3047      3175      3357      3736
 -1     12252    3    0    1
 -2      3313      1434      3395      3736
 -3
    1PSTEP                         1           1           1          
  100CL  101 1.000000000        3737                     0    1           1
 -4  DISP        4    1
 -5  D1          1    2    1    0
 -5  D2          1    2    2    0
 -5  D3          1    2    3    0
 -5  ALL         1    2    0    0    1ALL
 -1         1-2.69863E-04 8.67464E-05-9.37814E-03
 -1         2 2.47184E-03 6.42168E-04-9.29898E-03
 -1         3 1.53979E-03 1.67234E-03 1.45540E-02
 -1         4 4.09013E-03-1.97124E-03 7.73460E-03
 -1         5 4.49880E-03 1.70650E-03 8.11317E-03
 -1         6 4.16837E-03 1.85976E-03 8.29317E-03
 -1         7 2.10731E-03 2.84526E-03 1.06965E-02
 -1         8 2.85079E-03 2.33654E-03 9.10649E-03
 -1         9 3.10937E-03 2.29401E-03 1.16649E-02
 -1        10 2.99351E-03 2.39713E-03 1.26625E-02
 -1        11 8.36472E-04 5.08455E-05 1.52520E-02
 -1        12 8.42508E-04 2.33368E-04 1.54005E-02
 -1        13 2.26694E-03-5.42991E-04 1.00024E-02
 -1        14 2.30453E-03 6.25556E-04 1.00427E-02
 -1        15 2.30901E-03-5.58045E-04 1.01445E-02
 -1        16 4.56211E-03-1.55006E-03 4.01741E-03
 -1        17 3.12629E-03 1.47214E-03 8.50039E-03
 -1        18 1.41554E-03 1.48672E-03 1.36368E-02
 -1        19 4.56446E-03 1.61322E-03 3.47788E-03
 -1        20 2.65044E-03-2.01839E-03-5.60140E-03
 -1        21 3.93739E-03-1.88438E-03-5.19767E-03
 -1        22 4.57892E-03-1.45444E-03-4.57404E-03
 -1        23 4.30083E-03-1.31091E-03-5.33433E-03
 -1        24 5.17211E-03-4.80855E-04-1.81788E-03
 -1        25 3.05343E-03-2.06779E-03-1.14862E-02
 -1        26 4.34161E-03-1.31205E-03-5.42185E-03
 -1        27 2.47438E-03-4.94957E-04-9.52164E-03
 -1        28 2.44513E-03-4.58990E-04-9.39084E-03
 -1        29 2.48803E-03 6.41950E-04-9.43907E-03
 -1        30-3.34371E-04 9.67460E-06-1.62569E-02
 -1        31 1.01469E-03 1.15924E-04-1.48830E-02
 -1        32-2.28539E-04-4.58923E-05-1.63220E-02
 -1        33-2.04935E-03 1.37995E-04-1.25731E-02
 -1        34-6.94562E-04 1.39350E-04-1.60600E-02
 -1        35 4.19341E-03 1.88736E-03-7.07551E-03
 -1        36 2.07214E-03-2.73225E-03-1.23732E-02
 -1        37 1.97905E-03-2.62478E-03-1.08430E-02
 -1        38 1.54843E-03-1.36975E-03-1.43004E-02
 -1        39 2.91627E-03-2.18991E-03-1.24444E-02
 -1        40 2.97985E-03-1.93591E-03-9.85557E-03
 -1        41 4.64576E-03 1.48465E-03-6.60317E-03
 -1        42 4.61348E-03 1.41575E-03-4.29203E-03
 -1        43 5.28173E-03 5.40823E-04-1.55369E-03
 -1        44 5.26113E-03-5.83908E-04 2.36274E-03
 -1        45 5.36470E-03-6.44493E-05 1.70049E-03
 -1        46 1.55217E-03 1.36136E-03-1.31733E-02
 -1        47 3.28998E-03 1.35194E-03-7.76945E-03
 -1        48 1.63489E-04 1.93012E-03-1.50361E-02
 -1        49 1.62505E-03 1.48998E-03-1.41121E-02
 -1        50 3.15874E-03 2.06656E-03-9.48226E-03
 -1        51 4.43524E-03 1.35043E-03-5.13142E-03
 -1        52 3.16294E-03 2.17730E-03-1.13052E-02
 -1        53 2.14610E-03 2.70784E-03-1.04021E-02
 -1        54 2.99415E-03 2.20835E-03-8.74693E-03
 -1        55 2.23181E-03 2.80404E-03-1.20273E-02
 -1        56 7.23402E-04 2.90751E-03-8.22453E-03
 -1        57 4.56053E-03 1.48682E-03-3.22251E-03
 -1        58 5.35093E-03-7.89670E-05 2.98107E-03
 -1        59 4.42363E-03-1.37248E-03 5.92088E-03
 -1        60 3.63073E-03 5.21556E-05-8.51511E-04
 -1        61 4.80520E-03 6.46814E-05 9.73834E-04
 -1        62 5.11759E-03-4.82085E-04-1.79020E-03
 -1        63 4.58777E-03 1.53327E-03 4.55340E-03
 -1        64 4.14653E-03 1.98334E-03 7.18554E-03
 -1        65 2.82480E-03 2.06141E-03 5.51304E-03
 -1        66 4.80522E-03 6.47543E-05-1.27037E-03
 -1        67 5.15446E-03 4.26558E-05-1.30247E-03
 -1        68 5.14911E-03-2.72694E-05-2.07267E-03
 -1        69 3.16052E-03-1.38366E-03 8.57076E-03
 -1        70 3.09487E-03-2.05280E-03 1.01928E-02
 -1        71 4.35738E-03 1.44276E-03 5.70210E-03
 -1        72 3.09457E-03 1.46183E-03 8.40332E-03
 -1        73 4.33424E-03 1.43685E-03 5.60961E-03
 -1        74 2.98662E-03 2.16547E-03 9.88826E-03
 -1        75 2.26834E-03-2.63783E-03 1.03974E-02
 -1        76 2.12453E-03-2.89140E-03 1.26904E-02
 -1        77 2.93217E-03-2.35782E-03 1.30440E-02
 -1        78 1.44626E-03-1.44939E-03 1.37907E-02
 -1        79 1.51297E-03-1.58958E-03 1.47818E-02
 -1        80 1.28125E-03-1.67767E-03 1.53881E-02
 -1        81 4.98687E-05-1.93080E-03 1.47864E-02
 -1        82 3.24147E-04-1.83801E-03 1.44788E-02
 -1        83 9.87728E-05-2.10273E-03 1.57093E-02
 -1        84-1.38201E-03 2.27912E-03 1.13555E-02
 -1        85 6.21583E-05 2.13136E-03 1.54599E-02
 -1        86-1.30836E-03 2.39322E-03 1.21680E-02
 -1        87 7.74460E-04 3.03959E-03 8.47075E-03
 -1        88 5.47718E-04 5.20062E-05 1.53891E-02
 -1        89-8.29145E-04 7.34483E-05 1.61815E-02
 -1        90-1.29503E-03-2.24348E-03 1.16399E-02
 -1        91-2.14187E-03 2.92574E-04-1.26948E-02
 -1        92 9.76833E-04-8.24767E-05-1.49235E-02
 -1        93-4.36482E-04-9.58135E-05-1.53205E-02
 -1        94-2.92300E-04-3.43242E-05-9.74806E-03
 -1        95-6.56416E-04-1.38100E-04-1.61412E-02
 -1        96 7.58853E-04 1.08461E-04-1.50559E-02
 -1        97 7.20418E-04-9.33893E-05-1.50728E-02
 -1        98 3.24507E-03-1.22360E-03-7.98515E-03
 -1        99-2.33459E-04-1.72006E-04-8.13684E-03
 -1       100-1.22968E-03-2.12952E-03-1.22070E-02
 -1       101-1.41832E-03-2.20035E-03-1.13384E-02
 -1       102-4.05037E-04-4.08533E-04-1.58961E-02
 -1       103 3.29736E-05-1.87884E-03-1.52934E-02
 -1       104-8.43372E-04-6.35383E-04-1.10179E-02
 -1       105 1.43691E-03-1.16625E-03-1.35532E-02
 -1       106 1.31097E-03-1.44527E-03-1.48770E-02
 -1       107 1.20287E-03-1.25153E-03-1.32947E-02
 -1       108-2.06770E-04-4.84624E-04-1.32147E-02
 -1       109-4.24378E-04-3.18071E-04-1.61765E-02
 -1       110 3.49913E-04-1.57236E-03-1.44654E-02
 -1       111-1.42820E-05-1.63418E-03-1.46570E-02
 -1       112-3.49843E-04-5.06477E-04-1.51163E-02
 -1       113 3.07727E-04-1.74106E-03-1.58477E-02
 -1       114 3.29490E-03-1.22777E-03-8.12646E-03
 -1       115 1.83888E-05-5.57549E-04-1.18328E-02
 -1       116 8.68247E-04-2.86476E-03-9.83469E-03
 -1       117 7.50601E-04-2.83817E-03-8.66954E-03
 -1       118 1.56507E-04-5.11675E-04-1.00921E-02
 -1       119-1.44716E-04-1.32316E-04-5.57120E-03
 -1       120 1.79934E-04-5.19120E-04-9.03137E-03
 -1       121 1.17455E-04-6.76094E-04-1.27427E-02
 -1       122 2.14254E-03-2.48751E-03-1.01793E-02
 -1       123 2.84414E-03-2.05307E-03-9.13036E-03
 -1       124 2.24281E-03-2.56190E-03-1.32837E-02
 -1       125-2.45338E-05-6.09086E-05-1.80477E-03
 -1       126 2.00866E-04-5.70006E-04-5.33090E-03
 -1       127 2.57949E-03-2.07217E-03-4.33461E-03
 -1       128 4.49320E-04-4.59983E-04-7.48901E-03
 -1       129 5.26995E-04-4.59268E-04-5.48279E-03
 -1       130 3.22912E-04-5.69424E-04-4.40771E-03
 -1       131 4.50853E-03-1.62855E-03-8.13716E-03
 -1       132 4.60281E-03-1.52108E-03-6.95606E-03
 -1       133 4.07605E-03-1.89293E-03-7.35245E-03
 -1       134 4.13512E-03-1.78761E-03-8.48514E-03
 -1       135 3.99780E-03-1.81164E-03-4.20429E-03
 -1       136 4.52707E-03-1.53471E-03-3.51489E-03
 -1       137 4.84347E-04-2.26691E-05-6.81079E-04
 -1       138 3.62837E-03-5.17619E-05 5.99994E-04
 -1       139 5.48595E-04 1.01585E-04 3.47511E-04
 -1       140 5.13179E-03 9.61746E-05 1.19339E-03
 -1       141 5.13596E-03 6.87391E-05-2.50420E-03
 -1       142 4.81699E-03 6.98961E-05-2.39978E-03
 -1       143 4.81938E-03 7.46091E-05 2.10915E-03
 -1       144 7.42914E-04 2.89992E-05 8.83491E-04
 -1       145 5.11210E-03 1.00912E-04 2.40286E-03
 -1       146 5.03172E-04-8.83793E-05-2.70510E-03
 -1       147 5.07934E-03 6.92149E-04 2.04984E-03
 -1       148 2.71518E-03 2.17045E-03 4.18077E-03
 -1       149 4.15450E-04 5.64449E-04 5.20118E-03
 -1       150 5.14296E-03 7.00263E-04 2.07026E-03
 -1       151-8.64678E-05 6.79809E-05 2.09700E-03
 -1       152 4.07509E-03 1.97848E-03 5.05500E-03
 -1       153 6.09175E-04 4.03312E-04 5.28618E-03
 -1       154 4.52769E-04 2.18102E-04 3.33997E-03
 -1       155 4.59474E-03 1.59691E-03 6.92084E-03
 -1       156 2.90434E-04 4.05442E-04 8.38187E-03
 -1       157 4.03854E-04 3.45937E-04 7.11206E-03
 -1       158 4.14045E-03 1.87662E-03 4.01703E-03
 -1       159 6.52427E-04 3.93265E-04 4.37985E-03
 -1       160 8.83066E-04 3.09386E-03 9.70836E-03
 -1       161 2.19524E-03 2.94515E-03 1.24272E-02
 -1       162 5.99202E-06 5.36886E-04 1.19919E-02
 -1       163 1.95316E-04 5.10541E-04 8.99691E-03
 -1       164 2.33772E-03 2.79754E-03 1.33721E-02
 -1       165-1.39742E-04 5.18690E-04 1.29401E-02
 -1       166-8.79068E-06 6.34796E-04 1.34763E-02
 -1       167 2.28233E-03 2.70636E-03 9.97424E-03
 -1       168 2.95575E-04 6.38103E-04 1.02933E-02
 -1       169-2.60401E-04 1.58547E-04 8.53529E-03
 -1       170 2.28365E-03 6.35896E-04 9.91305E-03
 -1       171-3.54241E-04 7.84982E-05 1.00385E-02
 -1       172-8.59218E-04 5.00720E-04 1.10396E-02
 -1       173-2.93583E-04 1.73083E-04 8.69755E-03
 -1       174-3.73000E-04 5.29633E-04 1.50415E-02
 -1       175-4.47068E-04 4.53834E-04 1.59455E-02
 -1       176 1.19305E-03 1.57907E-03 1.32880E-02
 -1       177 1.31023E-03 1.75521E-03 1.52005E-02
 -1       178-4.19783E-04 2.28582E-04 1.54337E-02
 -1       179-3.57100E-04 5.77291E-04 1.47661E-02
 -1       180 3.65679E-04 1.86136E-03 1.43248E-02
 -1       181 2.92316E-05 1.91493E-03 1.46391E-02
 -1       182 3.20665E-04 2.01500E-03 1.61071E-02
 -1       183-2.29679E-04 5.01692E-04 1.33448E-02
 -1       184-2.20139E-03 4.78903E-04 1.26938E-02
 -1       185-3.76326E-04 7.07338E-05 1.02601E-02
 -1       186-2.22899E-03 3.09696E-04 1.25251E-02
 -1       187-8.78721E-04 1.92181E-04 1.20054E-02
 -1       188-4.52090E-04 1.53135E-04 1.55653E-02
 -1       189-4.74575E-04 3.38875E-05 1.56408E-02
 -1       190 5.88847E-04 2.34624E-04 1.55863E-02
 -1       191-8.32407E-04 2.82817E-04 1.63137E-02
 -1       192-5.36737E-04 2.62800E-04 1.65309E-02
 -1       193-6.74433E-04-1.51448E-04 1.70592E-02
 -1       194-4.68790E-04-1.50819E-04 1.56295E-02
 -1       195-5.01290E-04 9.69403E-05 1.63411E-02
 -1       196-3.40712E-04-3.03349E-05 1.02065E-02
 -1       197-1.22687E-03-2.41546E-03 1.24126E-02
 -1       198-4.17050E-04-3.79216E-04 1.61101E-02
 -1       199-7.84126E-04-4.97848E-04 1.16833E-02
 -1       200-4.43819E-04-2.03833E-04 1.55194E-02
 -1       201-2.33833E-04-3.97886E-04 1.41114E-02
 -1       202-3.46232E-04-4.90627E-04 1.53438E-02
 -1       203 1.22079E-03-1.53892E-03 1.34639E-02
 -1       204 3.68727E-04-1.98785E-03 1.63020E-02
 -1       205 7.70417E-04-2.93619E-03 9.90770E-03
 -1       206 3.22096E-03-1.40493E-03 8.69817E-03
 -1       207 5.83047E-04-2.97103E-03 8.83644E-03
 -1       208 1.22222E-04-4.92842E-04 1.04865E-02
 -1       209 3.17435E-03-2.20767E-03 1.20452E-02
 -1       210-2.29150E-05-4.81103E-04 1.22916E-02
 -1       211 2.30362E-03-2.72156E-03 1.36514E-02
 -1       212 4.24595E-05-6.32646E-04 1.30223E-02
 -1       213 1.12077E-04-6.32047E-04 1.09039E-02
 -1       214 1.99961E-03-2.77928E-03 1.11051E-02
 -1       215 2.95213E-03-2.18614E-03 9.45211E-03
 -1       216-1.99758E-05-6.31969E-04 1.37272E-02
 -1       217 5.19571E-03-5.78267E-04 2.33950E-03
 -1       218 4.36717E-03-1.36062E-03 5.84063E-03
 -1       219 5.00913E-04-4.61765E-04 7.93845E-03
 -1       220 3.74076E-04-6.58777E-04 5.51887E-03
 -1       221 2.81482E-03-2.20099E-03 5.88445E-03
 -1       222 2.74300E-03-2.22495E-03 4.58012E-03
 -1       223 6.30634E-04-4.25951E-04 5.91686E-03
 -1       224 4.01298E-03-1.96372E-03 5.64913E-03
 -1       225 3.60890E-04-5.27318E-04 4.52650E-03
 -1       226-6.39436E-05-5.62153E-05 2.40605E-03
 -1       227 4.57397E-04-4.00644E-04 7.59479E-03
 -1       228 4.62379E-03-1.54400E-03 7.37996E-03
 -1       229 4.59184E-03-1.45679E-03 5.05791E-03
 -1       230 4.14690E-03-1.85095E-03 8.86906E-03
 -1       231 4.07491E-03-1.86046E-03 4.65146E-03
 -1       232 6.85837E-04-4.57620E-04 5.01712E-03
 -1       233 4.57152E-03-1.62647E-03 8.56336E-03
 -1       234 4.68702E-04-4.75476E-04 8.82378E-03
 -1       235 4.12892E-03-1.35985E-04-6.93085E-04
 -1       236 7.23602E-04 7.07680E-06-4.69770E-04
 -1       237 5.99243E-04-7.32038E-05 1.73924E-03
 -1       238 6.58032E-04-2.53632E-05 8.97611E-04
 -1       239 5.15685E-03-6.93366E-05 1.55467E-03
 -1       240 4.13515E-03-1.29325E-05 1.11375E-03
 -1       241 5.35043E-03-7.39044E-07-8.64804E-04
 -1       242 5.50489E-04 4.92403E-05-8.80498E-04
 -1       243 8.01340E-04-3.90541E-05 1.50500E-03
 -1       244 5.14366E-03-4.33567E-05-8.73953E-04
 -1       245 8.12615E-04 5.19765E-05-8.02200E-04
 -1       246 5.33865E-03 4.29344E-09-2.13900E-03
 -1       247 5.17094E-04 1.22442E-04-2.33308E-03
 -1       248 5.49727E-04-1.49265E-04 3.18058E-03
 -1       249 5.17330E-03-6.71313E-05 2.75207E-03
 -1       250 5.21804E-03 5.38047E-04-1.52608E-03
 -1       251 2.76613E-03 1.97767E-03-5.39330E-03
 -1       252 2.67963E-03 2.09251E-03-4.16761E-03
 -1       253 4.38985E-04 5.13069E-04-4.30206E-03
 -1       254 6.69806E-04 4.25307E-04-5.19325E-03
 -1       255 4.12626E-03 1.85728E-03-5.00084E-03
 -1       256 4.59518E-03 1.56658E-03-7.77672E-03
 -1       257 4.48807E-04 3.78914E-04-6.81994E-03
 -1       258 4.19089E-03 1.75225E-03-3.99142E-03
 -1       259 6.87262E-04 3.66907E-04-4.23824E-03
 -1       260 5.97298E-04 5.08671E-04-7.22413E-03
 -1       261 4.23697E-03 1.80863E-03-8.20878E-03
 -1       262 5.51114E-04 5.60956E-04-8.11969E-03
 -1       263 3.36639E-04 4.14935E-04-8.09036E-03
 -1       264-9.66480E-05 1.05869E-04-5.12890E-03
 -1       265 4.40013E-03 1.33641E-03-5.07317E-03
 -1       266 9.00429E-04 2.93931E-03-9.35332E-03
 -1       267 1.23483E-04 5.97192E-04-1.23125E-02
 -1       268 3.33771E-03 1.37957E-03-7.87867E-03
 -1       269 2.64669E-04 4.56111E-04-8.66140E-03
 -1       270 5.47843E-05 4.54201E-04-1.16429E-02
 -1       271 3.02188E-03 2.29225E-03-1.22675E-02
 -1       272 2.13342E-04 6.48903E-04-1.08467E-02
 -1       273 2.36860E-03 2.65582E-03-1.29597E-02
 -1       274 2.32699E-03 2.54883E-03-9.70156E-03
 -1       275 3.08888E-04 6.22750E-04-9.99451E-03
 -1       276-1.91324E-04 1.13595E-04-7.91495E-03
 -1       277-7.31814E-04 4.35025E-04-1.11987E-02
 -1       278-1.07770E-03 2.29448E-03-1.11419E-02
 -1       279-2.13356E-04 1.19635E-04-8.12176E-03
 -1       280-2.41119E-04 3.97807E-04-1.35508E-02
 -1       281 1.44338E-04 1.70951E-03-1.43338E-02
 -1       282-1.12603E-03 2.51595E-03-1.19396E-02
 -1       283 1.31272E-03 1.44177E-03-1.29105E-02
 -1       284 1.39519E-03 1.56597E-03-1.46992E-02
 -1       285-3.06945E-04 2.76785E-04-1.45471E-02
 -1       286 4.01034E-04 1.62231E-03-1.40923E-02
 -1       287 4.02253E-04 1.80942E-03-1.56338E-02
 -1       288-3.22335E-04 3.37104E-04-1.59834E-02
 -1       289 0.00000E+00 0.00000E+00 0.00000E+00
 -1       290 0.00000E+00 0.00000E+00 0.00000E+00
 -1       291 0.00000E+00 0.00000E+00 0.00000E+00
 -1       292 0.00000E+00 0.00000E+00 0.00000E+00
 -1       293 0.00000E+00 0.00000E+00 0.00000E+00
 -1       294 0.00000E+00 0.00000E+00 0.00000E+00
 -1       295 0.00000E+00 0.00000E+00 0.00000E+00
 -1       296 0.00000E+00 0.00000E+00 0.00000E+00
 -1       297 0.00000E+00 0.00000E+00 0.00000E+00
 -1       298 0.00000E+00 0.00000E+00 0.00000E+00
 -1       299 0.00000E+00 0.00000E+00 0.00000E+00
 -1       300 0.00000E+00 0.00000E+00 0.00000E+00
 -1       301 0.00000E+00 0.00000E+00 0.00000E+00
 -1       302 0.00000E+00 0.00000E+00 0.00000E+00
 -1       303 0.00000E+00 0.00000E+00 0.00000E+00
 -1       304 0.00000E+00 0.00000E+00 0.00000E+00
 -1       305 0.00000E+00 0.00000E+00 0.00000E+00
 -1       306 0.00000E+00 0.00000E+00 0.00000E+00
 -1       307 0.00000E+00 0.00000E+00 0.00000E+00
 -1       308 0.00000E+00 0.00000E+00 0.00000E+00
 -1       309 0.00000E+00 0.00000E+00 0.00000E+00
 -1       310 0.00000E+00 0.00000E+00 0.00000E+00
 -1       311 0.00000E+00 0.00000E+00 0.00000E+00
 -1       312 0.00000E+00 0.00000E+00 0.00000E+00
 -1       313 0.00000E+00 0.00000E+00 0.00000E+00
 -1       314 0.00000E+00 0.00000E+00 0.00000E+00
 -1       315 0.00000E+00 0.00000E+00 0.00000E+00
 -1       316 0.00000E+00 0.00000E+00 0.00000E+00
 -1       317 0.00000E+00 0.00000E+00 0.00000E+00
 -1       318 0.00000E+00 0.00000E+00 0.00000E+00
 -1       319 0.00000E+00 0.00000E+00 0.00000E+00
 -1       320 0.00000E+00 0.00000E+00 0.00000E+00
 -1       321 0.00000E+00 0.00000E+00 0.00000E+00
 -1       322 0.00000E+00 0.00000E+00 0.00000E+00
 -1       323 0.00000E+00 0.00000E+00 0.00000E+00
 -1       324 0.00000E+00 0.00000E+00 0.00000E+00
 -1       325 0.00000E+00 0.00000E+00 0.00000E+00
 -1       326 0.00000E+00 0.00000E+00 0.00000E+00
 -1       327 0.00000E+00 0.00000E+00 0.00000E+00
 -1       328-4.11125E-04-2.91778E-04 1.51460E-02
 -1       329-3.52980E-04-2.97039E-05 1.03876E-02
 -1       330-4.48705E-04-6.26752E-05 1.56925E-02
 -1       331-4.46573E-04-3.77006E-04 1.64226E-02
 -1       332-2.43108E-04-9.43672E-05 8.96096E-03
 -1       333-1.13759E-04-4.55293E-04 1.31885E-02
 -1       334-1.91743E-04-4.40230E-04 1.35436E-02
 -1       335-1.43449E-04-1.60457E-04 6.09547E-03
 -1       336 3.09452E-04-4.32821E-04 8.89082E-03
 -1       337 2.07642E-04-4.83396E-04 9.46689E-03
 -1       338 4.77419E-04 4.88295E-04 7.35513E-03
 -1       339 4.23595E-04 5.80326E-04 8.21049E-03
 -1       340-1.93452E-04 1.43084E-04 5.85300E-03
 -1       341 1.25124E-04 5.76644E-04 1.01115E-02
 -1       342 5.12419E-04-2.46013E-04 3.85546E-03
 -1       343 4.90597E-04-2.96062E-04 5.15928E-03
 -1       344 4.90219E-04 2.31191E-04-3.02948E-03
 -1       345 4.76412E-04 3.11365E-04-4.37480E-03
 -1       346-4.82543E-05 1.02025E-05-1.57850E-03
 -1       347-1.20636E-04 1.10830E-04-5.25906E-03
 -1       348 1.46805E-04 4.83211E-04-9.76369E-03
 -1       349-1.95418E-04 4.22966E-04-1.29138E-02
 -1       350-8.73281E-05 4.30313E-04-1.25369E-02
 -1       351 3.89940E-04 6.37291E-04-5.08403E-03
 -1       352-4.17888E-04 7.32626E-05-1.53545E-02
 -1       353-3.04107E-04 8.52701E-05-9.63896E-03
 -1       354-4.51639E-04 1.46488E-04-1.51838E-02
 -1       355-4.38209E-04 5.77169E-05-1.65119E-02
 -1       356-3.92435E-04 1.93247E-04-1.50097E-02
 -1       357-4.29451E-04-1.69336E-04-1.64989E-02
 -1       358 0.00000E+00 0.00000E+00 0.00000E+00
 -1       359 0.00000E+00 0.00000E+00 0.00000E+00
 -1       360 1.32864E-04-6.85925E-04-1.12312E-02
 -1       361 5.47352E-04-3.57021E-04-4.53246E-03
 -1       362 0.00000E+00 0.00000E+00 0.00000E+00
 -1       363 7.64904E-04 7.33348E-05 1.89067E-03
 -1       364 3.13934E-04 6.59160E-04 4.12776E-03
 -1       365 0.00000E+00 0.00000E+00 0.00000E+00
 -1       366-2.32933E-04 7.59192E-04 8.23540E-03
 -1       367 1.60660E-04 6.82405E-04 1.11079E-02
 -1       368-8.49807E-04-6.13634E-04-1.15630E-02
 -1       369-3.65306E-04-8.21543E-04-8.60005E-03
 -1       370-3.42597E-04-7.24085E-04-9.19436E-03
 -1       371 8.06757E-05-6.43742E-04-1.34017E-02
 -1       372-4.05818E-04-5.60649E-04-1.49383E-02
 -1       373 0.00000E+00 0.00000E+00 0.00000E+00
 -1       374 0.00000E+00 0.00000E+00 0.00000E+00
 -1       375-8.45672E-04-3.90359E-05-1.22402E-02
 -1       376-9.19185E-04 3.35588E-05-1.19781E-02
 -1       377 0.00000E+00 0.00000E+00 0.00000E+00
 -1       378-4.94512E-04-8.82327E-05-1.66013E-02
 -1       379 0.00000E+00 0.00000E+00 0.00000E+00
 -1       380-4.31384E-04 3.63444E-05-1.65659E-02
 -1       381-2.99362E-04 3.70998E-04-1.55035E-02
 -1       382 0.00000E+00 0.00000E+00 0.00000E+00
 -1       383-1.00186E-04 7.64653E-04-7.90868E-03
 -1       384-2.03495E-04 5.46647E-04-1.45036E-02
 -1       385-2.84816E-04 4.88276E-04-1.47766E-02
 -1       386-6.59616E-04 5.02767E-04-1.08895E-02
 -1       387-1.53319E-04 7.32132E-04-8.70342E-03
 -1       388 5.68027E-05 6.33500E-04-1.31318E-02
 -1       389 0.00000E+00 0.00000E+00 0.00000E+00
 -1       390 8.34971E-04 9.34146E-05-1.82789E-03
 -1       391 7.93636E-04-1.13780E-04 2.52387E-03
 -1       392 0.00000E+00 0.00000E+00 0.00000E+00
 -1       393 0.00000E+00 0.00000E+00 0.00000E+00
 -1       394 9.41425E-05-6.86361E-04 1.15028E-02
 -1       395-2.20979E-04-7.41434E-04 8.59184E-03
 -1       396-2.69946E-04-7.89035E-04 9.37683E-03
 -1       397 0.00000E+00 0.00000E+00 0.00000E+00
 -1       398-4.58117E-04-1.63151E-04-1.52668E-02
 -1       399-3.99754E-04-2.11727E-04-1.51399E-02
 -1       400-3.51524E-04-3.02791E-04-1.47397E-02
 -1       401 4.09609E-04-5.08545E-04-8.38777E-03
 -1       402 1.74022E-04-6.58793E-04-1.05153E-02
 -1       403-2.69664E-04-1.69733E-04-8.33175E-03
 -1       404-1.18261E-04-5.12364E-04-1.28053E-02
 -1       405-2.73184E-04-4.12796E-04-1.38829E-02
 -1       406 2.85751E-04-4.54899E-04-8.41760E-03
 -1       407 4.15807E-04-4.36595E-04-7.11665E-03
 -1       408-5.39235E-05-6.37316E-05-1.85283E-03
 -1       409 5.29842E-04-1.86311E-05-1.32166E-03
 -1       410 4.68954E-04-2.22259E-04-3.38078E-03
 -1       411 4.66747E-04-2.98300E-04-4.67830E-03
 -1       412 7.39096E-04-4.54366E-05-2.22358E-03
 -1       413 7.34443E-04-3.75577E-05-1.26772E-03
 -1       414 5.27294E-04 6.35108E-05 1.26641E-03
 -1       415 4.82212E-04 1.26547E-04 2.66598E-03
 -1       416 4.39859E-04 2.65585E-04 4.65074E-03
 -1       417-4.01392E-04-5.70933E-04 1.48783E-02
 -1       418-7.97744E-04-5.92017E-04 1.12901E-02
 -1       419 4.71209E-05 6.36634E-04 1.27663E-02
 -1       420-1.75726E-04 8.54910E-04 8.99274E-03
 -1       421 0.00000E+00 0.00000E+00 0.00000E+00
 -1       422-2.63819E-04 4.33468E-04 1.39695E-02
 -1       423-9.36821E-04 5.53144E-04 1.15920E-02
 -1       424-4.44056E-04 1.36512E-04 1.68063E-02
 -1       425-5.76282E-04 4.94320E-05 1.66948E-02
 -1       426-4.82591E-04 4.44880E-04 1.64608E-02
 -1       427-3.45719E-04 3.29400E-04 1.49713E-02
 -1       428-6.30175E-04-6.74615E-05 1.68872E-02
 -1       429-9.12417E-04 8.44529E-05 1.21123E-02
 -1       430 0.00000E+00 0.00000E+00 0.00000E+00
 -1       431 0.00000E+00 0.00000E+00 0.00000E+00
 -1       432-2.65398E-04-4.71481E-05-9.50137E-03
 -1       433-1.29806E-04-1.27154E-04-5.42731E-03
 -1       434-2.73310E-05 1.63631E-05-1.54733E-03
 -1       435-3.51120E-05-6.02837E-05 2.34903E-03
 -1       436-4.89024E-05 7.53698E-05 2.07706E-03
 -1       437-1.68774E-04 1.52841E-04 5.71081E-03
 -1       438-1.37031E-04-1.62163E-04 5.97475E-03
 -1       439-2.10677E-04-9.52275E-05 8.75371E-03
 -1       440 0.00000E+00 0.00000E+00 0.00000E+00
 -1       441 0.00000E+00 0.00000E+00 0.00000E+00
 -1       442 0.00000E+00 0.00000E+00 0.00000E+00
 -1       443 0.00000E+00 0.00000E+00 0.00000E+00
 -1       444 0.00000E+00 0.00000E+00 0.00000E+00
 -1       445 0.00000E+00 0.00000E+00 0.00000E+00
 -1       446 0.00000E+00 0.00000E+00 0.00000E+00
 -1       447 0.00000E+00 0.00000E+00 0.00000E+00
 -1       448 0.00000E+00 0.00000E+00 0.00000E+00
 -1       449 8.79027E-04-2.37490E-04-9.70323E-03
 -1       450 9.02648E-04 3.45828E-04-9.58339E-03
 -1       451 7.96172E-04 1.72664E-03 1.40847E-02
 -1       452 8.38274E-04 1.91075E-03 1.60667E-02
 -1       453 4.35958E-03-1.76806E-03 8.85649E-03
 -1       454 4.36378E-03 1.81686E-03 8.30665E-03
 -1       455 2.57753E-03 2.46208E-03 9.77303E-03
 -1       456 2.65022E-03 2.56728E-03 1.33293E-02
 -1       457 1.84213E-03 9.34457E-05 1.30241E-02
 -1       458 1.76478E-03 2.27336E-04 1.31945E-02
 -1       459 2.36883E-03-1.25419E-03 1.16433E-02
 -1       460 2.38468E-03-1.45368E-03 1.27940E-02
 -1       461 4.34615E-03-1.68720E-03 4.57403E-03
 -1       462 2.28740E-03 1.15513E-03 1.16585E-02
 -1       463 2.34396E-03 1.31927E-03 1.25672E-02
 -1       464 4.34407E-03 1.71389E-03 3.91775E-03
 -1       465 4.30881E-03-1.65582E-03-4.00170E-03
 -1       466 3.08859E-03-2.03012E-03-6.57489E-03
 -1       467 2.97163E-03-2.09068E-03-5.08197E-03
 -1       468 5.06500E-03-1.33834E-03-6.20720E-03
 -1       469 5.05301E-03-1.17890E-03-3.48492E-03
 -1       470 4.36260E-03-1.72411E-03-8.42992E-03
 -1       471 3.60787E-03-1.67605E-03-9.97308E-03
 -1       472 3.56739E-03-1.54972E-03-8.13937E-03
 -1       473 2.45129E-03-1.23154E-03-1.22440E-02
 -1       474 2.48281E-03-1.03543E-03-1.11722E-02
 -1       475 1.93539E-03 2.72067E-04-1.26576E-02
 -1       476 1.96163E-03 7.45758E-05-1.25022E-02
 -1       477 2.13673E-04 6.88391E-05-1.60571E-02
 -1       478 2.55243E-04-1.70448E-04-1.61950E-02
 -1       479-1.81296E-03 1.35962E-04-1.47432E-02
 -1       480-1.79904E-03 4.07189E-05-1.47337E-02
 -1       481 4.36016E-03 1.70357E-03-8.09368E-03
 -1       482 1.07538E-03-2.90141E-03-1.12024E-02
 -1       483 1.06456E-03-2.87904E-03-1.00690E-02
 -1       484-1.03324E-03-2.21528E-03-1.39873E-02
 -1       485-1.02514E-03-2.06152E-03-1.33021E-02
 -1       486 8.11195E-04-1.58014E-03-1.56548E-02
 -1       487 7.60495E-04-1.32907E-03-1.42766E-02
 -1       488 2.59801E-03-2.40806E-03-1.31770E-02
 -1       489 2.52301E-03-2.27489E-03-1.00078E-02
 -1       490 3.34580E-03 2.02852E-03-6.43026E-03
 -1       491 3.22848E-03 2.06830E-03-4.85933E-03
 -1       492 5.12542E-03 1.33543E-03-5.93249E-03
 -1       493 5.11433E-03 1.16613E-03-3.12091E-03
 -1       494 5.68096E-03 5.16895E-05-1.07278E-03
 -1       495 5.66784E-03-9.40962E-05 1.93673E-03
 -1       496 4.47611E-03-6.96553E-05-6.61277E-04
 -1       497 4.51532E-03-8.27591E-07 1.28408E-03
 -1       498 2.61001E-03 1.46424E-03-1.22274E-02
 -1       499 2.52653E-03 1.30265E-03-1.09452E-02
 -1       500 8.87530E-04 1.66076E-03-1.55078E-02
 -1       501 8.40134E-04 1.45886E-03-1.39462E-02
 -1       502-9.61521E-04 2.27378E-03-1.38257E-02
 -1       503-8.23081E-04 2.11698E-03-1.31228E-02
 -1       504 3.85571E-03 1.84336E-03-9.75143E-03
 -1       505 3.84878E-03 1.70245E-03-7.62908E-03
 -1       506 2.67909E-03 2.46698E-03-1.28324E-02
 -1       507 2.61250E-03 2.30276E-03-9.56367E-03
 -1       508 1.28874E-03 3.02303E-03-1.09214E-02
 -1       509 1.14939E-03 3.02772E-03-9.67161E-03
 -1       510 4.33744E-03 1.58052E-03-3.78081E-03
 -1       511 5.28549E-03-1.14259E-04 2.89102E-03
 -1       512 5.07820E-03-1.22877E-03 3.95472E-03
 -1       513 5.13823E-03-1.41432E-03 6.78409E-03
 -1       514 3.14701E-03-2.20168E-03 5.34786E-03
 -1       515 3.29949E-03-2.14622E-03 7.06762E-03
 -1       516 4.94643E-03 1.25231E-04 2.22601E-03
 -1       517 4.10032E-03 8.29821E-05-1.12721E-03
 -1       518 5.59530E-03-1.69970E-05-1.51738E-03
 -1       519 5.62677E-03 1.76912E-04 1.53024E-03
 -1       520 4.11835E-03-2.65387E-05 7.36302E-04
 -1       521 4.96488E-03 1.30601E-03 3.68751E-03
 -1       522 5.04791E-03 1.44622E-03 6.37957E-03
 -1       523 3.23266E-03 2.16688E-03 4.84132E-03
 -1       524 3.39581E-03 2.08085E-03 6.54318E-03
 -1       525 4.92192E-03 6.59001E-05-2.42822E-03
 -1       526 5.29403E-03-1.81905E-05-2.07986E-03
 -1       527 3.77738E-03-1.80376E-03 8.55663E-03
 -1       528 3.72488E-03-1.86589E-03 1.06853E-02
 -1       529 3.71655E-03 1.78624E-03 8.14129E-03
 -1       530 3.68915E-03 1.98770E-03 1.01920E-02
 -1       531 2.62315E-03-2.41886E-03 1.02036E-02
 -1       532 2.67462E-03-2.56306E-03 1.37235E-02
 -1       533 7.92948E-04-1.66036E-03 1.42419E-02
 -1       534 8.50519E-04-1.85426E-03 1.62142E-02
 -1       535-1.92255E-03 3.00455E-04 1.47249E-02
 -1       536-1.92506E-03 3.79965E-04 1.49706E-02
 -1       537-1.03182E-03 2.21739E-03 1.34755E-02
 -1       538-1.07786E-03 2.37318E-03 1.42543E-02
 -1       539 1.05551E-03 3.05951E-03 9.94454E-03
 -1       540 1.21234E-03 3.10097E-03 1.13371E-02
 -1       541 3.10675E-05-1.93510E-06 1.62604E-02
 -1       542 4.67889E-05 2.18399E-04 1.65181E-02
 -1       543 1.08285E-03-3.07276E-03 1.02204E-02
 -1       544 1.22163E-03-3.06378E-03 1.16028E-02
 -1       545-9.59252E-04-2.29165E-03 1.35632E-02
 -1       546-9.68686E-04-2.40526E-03 1.44321E-02
 -1       547-1.60213E-03 1.35798E-04-1.25385E-02
 -1       548-1.53408E-03 6.14280E-05-1.24250E-02
 -1       549 9.19438E-04 3.50822E-04-9.69315E-03
 -1       550-3.62457E-04 6.61038E-05-1.29078E-02
 -1       551 2.43460E-04-2.69507E-05-1.52285E-02
 -1       552-4.85598E-04-1.87178E-05-1.65394E-02
 -1       553-6.11275E-04 3.23455E-05-1.49793E-02
 -1       554-7.33385E-04-5.31453E-05-1.52516E-02
 -1       555-5.17960E-04 2.48969E-05-1.65869E-02
 -1       556 2.79588E-04 3.56521E-05-1.52927E-02
 -1       557-3.59290E-04-1.11918E-04-1.30130E-02
 -1       558 8.99910E-04-2.41684E-04-9.82819E-03
 -1       559 1.54010E-04-1.55640E-05-1.52425E-02
 -1       560 1.84303E-04 1.12765E-05-1.52995E-02
 -1       561-3.76694E-04-1.01143E-05-1.65692E-02
 -1       562-4.44638E-04 1.21060E-06-1.65738E-02
 -1       563-4.96051E-04-1.09244E-04-1.64838E-02
 -1       564-4.43527E-04 6.68289E-05-1.63832E-02
 -1       565 1.28124E-03-7.08777E-04-8.25446E-03
 -1       566-1.21677E-03-1.38515E-03-1.12883E-02
 -1       567-1.09760E-03-1.41225E-03-1.20027E-02
 -1       568-3.57305E-04-1.88428E-04-1.25963E-02
 -1       569 6.34256E-04-8.34994E-04-1.47173E-02
 -1       570-1.05993E-04-1.12183E-03-1.57942E-02
 -1       571-6.52537E-04-5.47217E-04-1.43537E-02
 -1       572-6.10236E-04-5.39621E-04-1.36603E-02
 -1       573-1.08968E-04-1.07034E-03-1.50209E-02
 -1       574 6.11926E-04-8.04905E-04-1.38218E-02
 -1       575-2.83408E-04-2.65257E-04-1.15250E-02
 -1       576 1.30436E-03-7.09768E-04-8.35300E-03
 -1       577 4.97927E-04-8.50568E-04-1.51475E-02
 -1       578 5.03057E-04-8.30744E-04-1.34497E-02
 -1       579-2.35390E-05-1.02647E-03-1.61392E-02
 -1       580-3.19739E-05-1.06191E-03-1.47177E-02
 -1       581-2.22111E-04-4.60108E-04-1.44942E-02
 -1       582-3.43387E-04-3.41923E-04-1.60637E-02
 -1       583 1.87869E-03-7.48802E-04-5.50796E-03
 -1       584 2.09184E-04-1.81459E-03-8.59056E-03
 -1       585 2.75529E-04-1.82634E-03-9.65896E-03
 -1       586 1.53459E-03-1.34968E-03-1.17545E-02
 -1       587-1.97625E-04-3.76860E-04-1.03182E-02
 -1       588 1.15116E-03-1.67546E-03-1.26944E-02
 -1       589-4.14441E-05-7.64163E-04-1.14813E-02
 -1       590 8.86199E-05-7.48788E-04-1.04413E-02
 -1       591 1.11487E-03-1.62807E-03-1.11435E-02
 -1       592 1.56671E-03-1.25598E-03-1.00913E-02
 -1       593-2.11215E-05-3.72900E-04-8.09987E-03
 -1       594 1.90285E-03-7.58286E-04-5.55421E-03
 -1       595 1.44573E-03-1.39047E-03-1.26442E-02
 -1       596 1.52776E-03-1.28899E-03-9.23528E-03
 -1       597 1.17673E-03-1.60044E-03-1.34672E-02
 -1       598 1.20913E-03-1.56647E-03-1.03937E-02
 -1       599 1.76564E-04-6.06817E-04-1.01814E-02
 -1       600-1.91529E-05-5.98617E-04-1.35165E-02
 -1       601 2.32057E-03-2.58652E-04-1.88429E-03
 -1       602 1.47262E-03-1.35470E-03-5.51701E-03
 -1       603 1.47478E-03-1.32049E-03-4.34944E-03
 -1       604 2.48202E-03-1.00362E-03-7.08848E-03
 -1       605 8.32377E-05-3.10507E-04-6.43781E-03
 -1       606 2.24252E-03-1.18676E-03-7.47072E-03
 -1       607 4.73083E-04-5.48222E-04-6.68689E-03
 -1       608 4.48871E-04-5.24439E-04-5.30073E-03
 -1       609 2.21615E-03-1.17399E-03-5.38362E-03
 -1       610 2.50720E-03-8.86291E-04-4.73763E-03
 -1       611 1.85370E-04-2.14156E-04-3.53761E-03
 -1       612 2.36092E-03-2.60662E-04-1.91387E-03
 -1       613 2.42869E-03-1.03949E-03-8.27231E-03
 -1       614 2.49043E-03-8.64124E-04-3.57161E-03
 -1       615 2.24928E-03-1.13679E-03-8.51259E-03
 -1       616 2.26117E-03-1.12203E-03-4.37774E-03
 -1       617 5.77389E-04-3.21642E-04-4.19508E-03
 -1       618 3.70512E-04-4.80230E-04-8.50142E-03
 -1       619 2.32666E-03 3.58912E-04 2.10381E-03
 -1       620 2.10222E-03 2.19337E-05-7.94882E-04
 -1       621 2.09900E-03 2.07049E-05 5.26867E-04
 -1       622 2.84483E-03 2.80885E-06-1.30432E-03
 -1       623 2.72274E-04-7.23385E-05-1.62614E-03
 -1       624 2.79183E-03 1.57105E-05-1.26747E-03
 -1       625 6.72691E-04-1.29445E-05-1.14072E-03
 -1       626 6.41747E-04 1.00855E-05 6.78002E-04
 -1       627 2.77031E-03 5.93918E-05 9.34177E-04
 -1       628 2.83301E-03 8.01076E-05 1.21570E-03
 -1       629 2.69725E-04 9.86966E-05 1.61340E-03
 -1       630 2.36343E-03 3.59380E-04 2.11185E-03
 -1       631 2.81661E-03-1.97294E-05-2.54225E-03
 -1       632 2.82041E-03 1.11893E-04 2.45613E-03
 -1       633 2.80762E-03-1.09121E-05-2.37171E-03
 -1       634 2.77312E-03 1.02849E-04 2.06286E-03
 -1       635 6.14003E-04 1.49039E-04 2.23462E-03
 -1       636 6.09697E-04-7.60045E-05-2.41806E-03
 -1       637 1.84561E-03 8.22332E-04 5.81093E-03
 -1       638 1.56410E-03 1.40678E-03 4.17770E-03
 -1       639 1.62371E-03 1.37587E-03 5.42126E-03
 -1       640 2.50730E-03 9.18300E-04 4.68438E-03
 -1       641 2.54270E-04 2.09558E-04 3.63752E-03
 -1       642 2.35020E-03 1.17219E-03 5.21977E-03
 -1       643 5.48193E-04 5.42417E-04 5.12504E-03
 -1       644 5.31804E-04 5.05412E-04 6.62160E-03
 -1       645 2.38664E-03 1.20227E-03 7.33481E-03
 -1       646 2.48612E-03 9.86392E-04 7.04753E-03
 -1       647 1.20052E-04 2.70815E-04 6.64851E-03
 -1       648 1.87212E-03 8.24170E-04 5.86892E-03
 -1       649 2.48622E-03 8.97483E-04 3.50289E-03
 -1       650 2.43382E-03 1.04309E-03 8.23277E-03
 -1       651 2.39345E-03 1.09859E-03 4.15627E-03
 -1       652 2.37075E-03 1.20218E-03 8.35472E-03
 -1       653 4.05390E-04 4.69506E-04 8.45441E-03
 -1       654 5.55695E-04 2.66259E-04 4.00367E-03
 -1       655 1.25369E-03 7.82983E-04 8.63612E-03
 -1       656 2.11706E-04 1.93798E-03 8.38479E-03
 -1       657 2.73032E-04 1.94301E-03 9.56400E-03
 -1       658 1.51164E-03 1.37857E-03 1.00826E-02
 -1       659-1.13741E-06 3.76033E-04 8.40313E-03
 -1       660 1.13259E-03 1.72196E-03 1.10138E-02
 -1       661-5.59495E-05 7.62406E-04 1.02710E-02
 -1       662-7.15416E-05 7.48643E-04 1.14179E-02
 -1       663 1.12124E-03 1.79889E-03 1.27067E-02
 -1       664 1.53010E-03 1.42800E-03 1.19085E-02
 -1       665-1.58505E-04 3.64916E-04 1.05386E-02
 -1       666 1.28959E-03 7.91906E-04 8.72370E-03
 -1       667 1.49929E-03 1.35057E-03 9.18773E-03
 -1       668 1.45850E-03 1.47210E-03 1.28289E-02
 -1       669 1.26212E-03 1.65173E-03 1.02072E-02
 -1       670 1.19288E-03 1.72955E-03 1.35399E-02
 -1       671-5.31018E-05 5.95620E-04 1.35019E-02
 -1       672 1.88972E-04 5.77702E-04 1.00964E-02
 -1       673 7.92329E-04 3.49587E-04 1.02197E-02
 -1       674-1.14701E-03 1.41493E-03 1.12436E-02
 -1       675-1.06582E-03 1.43461E-03 1.20305E-02
 -1       676-3.31514E-04 3.34853E-04 1.17983E-02
 -1       677 5.49664E-04 9.50982E-04 1.39294E-02
 -1       678-1.22409E-04 1.17959E-03 1.49809E-02
 -1       679-5.30229E-04 5.09429E-04 1.38691E-02
 -1       680-5.88873E-04 5.23924E-04 1.45017E-02
 -1       681-1.33289E-04 1.28018E-03 1.58902E-02
 -1       682 5.54448E-04 1.01139E-03 1.49181E-02
 -1       683-4.64627E-04 2.22753E-04 1.30166E-02
 -1       684 8.34475E-04 3.69276E-04 1.03287E-02
 -1       685 4.72129E-04 9.84147E-04 1.34816E-02
 -1       686 4.21202E-04 1.04029E-03 1.54380E-02
 -1       687-5.93601E-05 1.18070E-03 1.45859E-02
 -1       688-2.97616E-05 1.19684E-03 1.63723E-02
 -1       689-3.76819E-04 3.81378E-04 1.63035E-02
 -1       690-2.08546E-04 5.28145E-04 1.45353E-02
 -1       691 7.80285E-04-3.08012E-04 1.03377E-02
 -1       692-1.65666E-03 2.40141E-04 1.23399E-02
 -1       693-1.63934E-03 3.07615E-04 1.25738E-02
 -1       694-4.67434E-04 9.00513E-05 1.34923E-02
 -1       695 1.62348E-04 9.97659E-06 1.56396E-02
 -1       696-6.19475E-04-1.96591E-06 1.66252E-02
 -1       697-6.79156E-04 6.44626E-05 1.50303E-02
 -1       698-7.42549E-04 5.16376E-05 1.52802E-02
 -1       699-6.59704E-04 9.95227E-05 1.67166E-02
 -1       700 2.10253E-04 6.13869E-05 1.57419E-02
 -1       701-4.66626E-04-8.70787E-05 1.33651E-02
 -1       702 8.09651E-04-3.04829E-04 1.04420E-02
 -1       703 4.86131E-05 2.47991E-05 1.56419E-02
 -1       704 9.70041E-05 6.68420E-05 1.57921E-02
 -1       705-4.45632E-04 6.13887E-05 1.66666E-02
 -1       706-4.89951E-04 7.14110E-05 1.68205E-02
 -1       707-4.09345E-04-1.21251E-04 1.67855E-02
 -1       708-4.65326E-04 1.13470E-04 1.67758E-02
 -1       709 1.30687E-03-7.60395E-04 8.82518E-03
 -1       710-1.07470E-03-1.58592E-03 1.22491E-02
 -1       711-1.13607E-03-1.37960E-03 1.14947E-02
 -1       712-3.86173E-04-2.20932E-04 1.31605E-02
 -1       713 5.65967E-04-9.29195E-04 1.50913E-02
 -1       714-1.17661E-04-1.23960E-03 1.60941E-02
 -1       715-5.53020E-04-4.54352E-04 1.47160E-02
 -1       716-5.91040E-04-5.27909E-04 1.39657E-02
 -1       717-1.25249E-04-1.13866E-03 1.51941E-02
 -1       718 5.61310E-04-8.72389E-04 1.41240E-02
 -1       719-2.78662E-04-2.96487E-04 1.19114E-02
 -1       720 1.34240E-03-7.74597E-04 8.92027E-03
 -1       721 4.35816E-04-9.75490E-04 1.55904E-02
 -1       722 5.30066E-04-9.00429E-04 1.36722E-02
 -1       723-6.84589E-06-1.16188E-03 1.65179E-02
 -1       724-3.99751E-06-1.14494E-03 1.47482E-02
 -1       725-1.97112E-04-4.99493E-04 1.47263E-02
 -1       726-3.58423E-04-3.28164E-04 1.64513E-02
 -1       727 1.87401E-03-7.37593E-04 6.06417E-03
 -1       728 2.77802E-04-1.88401E-03 9.78607E-03
 -1       729 1.53288E-04-1.89443E-03 8.77069E-03
 -1       730-1.80716E-04-3.67756E-04 1.08864E-02
 -1       731 1.54745E-03-1.40222E-03 1.23028E-02
 -1       732 1.15008E-03-1.73090E-03 1.30210E-02
 -1       733-7.86467E-05-6.52579E-04 1.17970E-02
 -1       734 1.08321E-03-1.68981E-03 1.14277E-02
 -1       735-4.01150E-05-7.04955E-04 1.05311E-02
 -1       736 1.89788E-03-7.44630E-04 6.13373E-03
 -1       737 1.58750E-03-1.30072E-03 1.05110E-02
 -1       738-3.26234E-05-3.06218E-04 8.63733E-03
 -1       739 1.51520E-03-1.41862E-03 1.32107E-02
 -1       740 1.58200E-03-1.31736E-03 9.61350E-03
 -1       741 1.19970E-03-1.64221E-03 1.38180E-02
 -1       742 1.17878E-03-1.66738E-03 1.06677E-02
 -1       743 2.25818E-04-5.77405E-04 1.05335E-02
 -1       744-9.41788E-06-5.73871E-04 1.38708E-02
 -1       745 2.37582E-03-3.28459E-04 2.40550E-03
 -1       746 1.57853E-03-1.50348E-03 5.77514E-03
 -1       747 1.57962E-03-1.41254E-03 4.60111E-03
 -1       748 3.87457E-05-3.17705E-04 6.93188E-03
 -1       749 2.53521E-03-9.84056E-04 7.52361E-03
 -1       750 2.35426E-03-1.19516E-03 7.91287E-03
 -1       751 4.73538E-04-5.39936E-04 7.21470E-03
 -1       752 2.33381E-03-1.17023E-03 5.83614E-03
 -1       753 5.63053E-04-5.07852E-04 5.59913E-03
 -1       754 2.40281E-03-3.29911E-04 2.43331E-03
 -1       755 2.54529E-03-9.01235E-04 5.18777E-03
 -1       756 2.61801E-04-1.30488E-04 4.00693E-03
 -1       757 2.48123E-03-1.04091E-03 8.69641E-03
 -1       758 2.51795E-03-8.77295E-04 4.03345E-03
 -1       759 2.34646E-03-1.15354E-03 8.94672E-03
 -1       760 2.37201E-03-1.12204E-03 4.80132E-03
 -1       761 6.31802E-04-3.45862E-04 4.69141E-03
 -1       762 4.34038E-04-4.82915E-04 9.06734E-03
 -1       763 2.38488E-03 2.51252E-04-1.60275E-03
 -1       764 2.38969E-03-2.02196E-05 1.07666E-03
 -1       765 2.46110E-03-7.01558E-05-6.21498E-04
 -1       766 2.66183E-04-1.15294E-04 1.95852E-03
 -1       767 2.94550E-03-7.00446E-05 1.72414E-03
 -1       768 2.99630E-03-3.34244E-05 1.53378E-03
 -1       769 8.17800E-04-1.69095E-05 1.19941E-03
 -1       770 2.96935E-03 3.63949E-05-8.79171E-04
 -1       771 8.35565E-04 3.46226E-05-6.06889E-04
 -1       772 2.41722E-03 2.55157E-04-1.62601E-03
 -1       773 2.93922E-03 1.96751E-05-8.40402E-04
 -1       774 2.77458E-04 6.07230E-05-1.13115E-03
 -1       775 2.93771E-03-1.12526E-04 3.02076E-03
 -1       776 2.93046E-03 5.18444E-05-2.15838E-03
 -1       777 2.99664E-03-6.72158E-05 2.69588E-03
 -1       778 2.97059E-03 5.30452E-05-2.03971E-03
 -1       779 7.29193E-04 1.19936E-04-2.10540E-03
 -1       780 6.87451E-04-1.47789E-04 2.89804E-03
 -1       781 1.98013E-03 7.10971E-04-5.22569E-03
 -1       782 1.63358E-03 1.33328E-03-4.18500E-03
 -1       783 1.62148E-03 1.28891E-03-5.31574E-03
 -1       784 2.03997E-04 2.02153E-04-3.16875E-03
 -1       785 2.56178E-03 8.67618E-04-4.40421E-03
 -1       786 2.42004E-03 1.15921E-03-5.14632E-03
 -1       787 6.31231E-04 5.20216E-04-4.98577E-03
 -1       788 2.43374E-03 1.19628E-03-7.22591E-03
 -1       789 6.11314E-04 5.60191E-04-6.57245E-03
 -1       790 1.99890E-03 7.11025E-04-5.29023E-03
 -1       791 2.54660E-03 9.42470E-04-6.74046E-03
 -1       792 1.42439E-04 2.38703E-04-6.23005E-03
 -1       793 2.53175E-03 8.48639E-04-3.24603E-03
 -1       794 2.50186E-03 9.98262E-04-7.90374E-03
 -1       795 2.46250E-03 1.08270E-03-4.11560E-03
 -1       796 2.40801E-03 1.20338E-03-8.27491E-03
 -1       797 3.57430E-04 5.02162E-04-8.30803E-03
 -1       798 5.88253E-04 2.85874E-04-3.89272E-03
 -1       799 1.37730E-03 7.13390E-04-8.01075E-03
 -1       800 3.19487E-04 1.90240E-03-9.18086E-03
 -1       801 2.15000E-04 1.89344E-03-8.15669E-03
 -1       802-2.80281E-05 3.82733E-04-7.84005E-03
 -1       803 1.65414E-03 1.28684E-03-9.75320E-03
 -1       804 1.24408E-03 1.59860E-03-1.07379E-02
 -1       805 1.16847E-04 7.73291E-04-9.95862E-03
 -1       806 1.22338E-03 1.67762E-03-1.23195E-02
 -1       807 3.28003E-05 7.40958E-04-1.13197E-02
 -1       808 1.40873E-03 7.24858E-04-8.10840E-03
 -1       809 1.60989E-03 1.32833E-03-1.15656E-02
 -1       810-1.42902E-04 3.64768E-04-1.00608E-02
 -1       811 1.59555E-03 1.31797E-03-8.88317E-03
 -1       812 1.52665E-03 1.37370E-03-1.24489E-02
 -1       813 1.35603E-03 1.53195E-03-9.91806E-03
 -1       814 1.24438E-03 1.61944E-03-1.31338E-02
 -1       815 5.20379E-05 5.39650E-04-1.31352E-02
 -1       816 3.00582E-04 5.05310E-04-9.69652E-03
 -1       817-9.54651E-04 1.62117E-03-1.17640E-02
 -1       818-9.01724E-04 1.35597E-03-1.09888E-02
 -1       819-2.29272E-04 2.62263E-04-1.13183E-02
 -1       820 6.29544E-04 8.80831E-04-1.35243E-02
 -1       821 7.95381E-06 1.11061E-03-1.46595E-02
 -1       822-3.52500E-04 4.50651E-04-1.35211E-02
 -1       823-5.01837E-04 4.44100E-04-1.42302E-02
 -1       824-3.16816E-05 1.17130E-03-1.54927E-02
 -1       825 6.44493E-04 9.03883E-04-1.44658E-02
 -1       826-3.63587E-04 1.78476E-04-1.24821E-02
 -1       827 5.82545E-04 9.01278E-04-1.30892E-02
 -1       828 5.56618E-04 9.04146E-04-1.49456E-02
 -1       829 1.76475E-04 1.07125E-03-1.43343E-02
 -1       830 6.15953E-05 1.08588E-03-1.59266E-02
 -1       831-3.06885E-04 3.06596E-04-1.59029E-02
 -1       832-1.79942E-04 4.37373E-04-1.41427E-02
 -1       833 0.00000E+00 0.00000E+00 0.00000E+00
 -1       834 0.00000E+00 0.00000E+00 0.00000E+00
 -1       835 0.00000E+00 0.00000E+00 0.00000E+00
 -1       836 0.00000E+00 0.00000E+00 0.00000E+00
 -1       837 0.00000E+00 0.00000E+00 0.00000E+00
 -1       838 0.00000E+00 0.00000E+00 0.00000E+00
 -1       839 0.00000E+00 0.00000E+00 0.00000E+00
 -1       840 0.00000E+00 0.00000E+00 0.00000E+00
 -1       841 0.00000E+00 0.00000E+00 0.00000E+00
 -1       842 0.00000E+00 0.00000E+00 0.00000E+00
 -1       843 0.00000E+00 0.00000E+00 0.00000E+00
 -1       844 0.00000E+00 0.00000E+00 0.00000E+00
 -1       845 0.00000E+00 0.00000E+00 0.00000E+00
 -1       846 0.00000E+00 0.00000E+00 0.00000E+00
 -1       847 0.00000E+00 0.00000E+00 0.00000E+00
 -1       848 0.00000E+00 0.00000E+00 0.00000E+00
 -1       849 0.00000E+00 0.00000E+00 0.00000E+00
 -1       850 0.00000E+00 0.00000E+00 0.00000E+00
 -1       851 0.00000E+00 0.00000E+00 0.00000E+00
 -1       852 0.00000E+00 0.00000E+00 0.00000E+00
 -1       853 0.00000E+00 0.00000E+00 0.00000E+00
 -1       854 0.00000E+00 0.00000E+00 0.00000E+00
 -1       855 0.00000E+00 0.00000E+00 0.00000E+00
 -1       856 0.00000E+00 0.00000E+00 0.00000E+00
 -1       857 0.00000E+00 0.00000E+00 0.00000E+00
 -1       858 0.00000E+00 0.00000E+00 0.00000E+00
 -1       859 0.00000E+00 0.00000E+00 0.00000E+00
 -1       860 0.00000E+00 0.00000E+00 0.00000E+00
 -1       861 0.00000E+00 0.00000E+00 0.00000E+00
 -1       862 0.00000E+00 0.00000E+00 0.00000E+00
 -1       863 0.00000E+00 0.00000E+00 0.00000E+00
 -1       864 0.00000E+00 0.00000E+00 0.00000E+00
 -1       865 0.00000E+00 0.00000E+00 0.00000E+00
 -1       866 0.00000E+00 0.00000E+00 0.00000E+00
 -1       867 0.00000E+00 0.00000E+00 0.00000E+00
 -1       868 0.00000E+00 0.00000E+00 0.00000E+00
 -1       869 0.00000E+00 0.00000E+00 0.00000E+00
 -1       870 0.00000E+00 0.00000E+00 0.00000E+00
 -1       871 0.00000E+00 0.00000E+00 0.00000E+00
 -1       872 0.00000E+00 0.00000E+00 0.00000E+00
 -1       873 0.00000E+00 0.00000E+00 0.00000E+00
 -1       874 0.00000E+00 0.00000E+00 0.00000E+00
 -1       875 0.00000E+00 0.00000E+00 0.00000E+00
 -1       876 0.00000E+00 0.00000E+00 0.00000E+00
 -1       877 0.00000E+00 0.00000E+00 0.00000E+00
 -1       878 0.00000E+00 0.00000E+00 0.00000E+00
 -1       879 0.00000E+00 0.00000E+00 0.00000E+00
 -1       880 0.00000E+00 0.00000E+00 0.00000E+00
 -1       881 0.00000E+00 0.00000E+00 0.00000E+00
 -1       882 0.00000E+00 0.00000E+00 0.00000E+00
 -1       883 0.00000E+00 0.00000E+00 0.00000E+00
 -1       884 0.00000E+00 0.00000E+00 0.00000E+00
 -1       885 0.00000E+00 0.00000E+00 0.00000E+00
 -1       886 0.00000E+00 0.00000E+00 0.00000E+00
 -1       887 0.00000E+00 0.00000E+00 0.00000E+00
 -1       888 0.00000E+00 0.00000E+00 0.00000E+00
 -1       889 0.00000E+00 0.00000E+00 0.00000E+00
 -1       890 0.00000E+00 0.00000E+00 0.00000E+00
 -1       891 0.00000E+00 0.00000E+00 0.00000E+00
 -1       892 0.00000E+00 0.00000E+00 0.00000E+00
 -1       893 0.00000E+00 0.00000E+00 0.00000E+00
 -1       894 0.00000E+00 0.00000E+00 0.00000E+00
 -1       895 0.00000E+00 0.00000E+00 0.00000E+00
 -1       896 0.00000E+00 0.00000E+00 0.00000E+00
 -1       897 4.32596E-03-1.85206E-03 8.90100E-03
 -1       898 2.38455E-03 2.57543E-03 9.90999E-03
 -1       899 1.37817E-03 1.47341E-05 1.42978E-02
 -1       900 2.16994E-03 1.07831E-04 1.17533E-02
 -1       901 2.03103E-03-1.47772E-03 1.39566E-02
 -1       902 4.39627E-03-1.55190E-03 4.29728E-03
 -1       903 4.25533E-03 1.81390E-03 3.96210E-03
 -1       904 3.38681E-03-2.00483E-03-5.13467E-03
 -1       905 4.29861E-03-1.80475E-03-8.47975E-03
 -1       906 3.41164E-03-1.92615E-03-1.08549E-02
 -1       907 3.90210E-03-1.38715E-03-6.98777E-03
 -1       908 2.83398E-03-8.97748E-04-9.90007E-03
 -1       909 1.51003E-03 2.25554E-05-1.38181E-02
 -1       910 5.53679E-04 1.69074E-04-1.55487E-02
 -1       911-1.34207E-03 1.21815E-04-1.54724E-02
 -1       912-2.02650E-03 1.10769E-04-1.35425E-02
 -1       913 4.46159E-03 1.62115E-03-7.93739E-03
 -1       914-1.22255E-03-2.21846E-03-1.29765E-02
 -1       915 4.62543E-04-1.39307E-03-1.44102E-02
 -1       916 9.98724E-04-1.18369E-03-1.37929E-02
 -1       917 2.68791E-03-2.07023E-03-9.55025E-03
 -1       918 4.96670E-03 1.32813E-03-3.74838E-03
 -1       919 5.66521E-03 1.57244E-04-1.16812E-03
 -1       920 4.27579E-03-3.43980E-05 1.12993E-03
 -1       921 2.05975E-03 1.33924E-03-1.21354E-02
 -1       922-4.91447E-04 2.11808E-03-1.45343E-02
 -1       923-1.03635E-03 2.23802E-03-1.20037E-02
 -1       924 4.02030E-03 1.70923E-03-8.86418E-03
 -1       925 3.56407E-03 1.90927E-03-8.72594E-03
 -1       926 1.70883E-03 2.94295E-03-1.15065E-02
 -1       927 8.65628E-04 2.99064E-03-8.94790E-03
 -1       928 4.40522E-03 1.47589E-03-3.51444E-03
 -1       929 4.27722E-03 1.68925E-03-3.86777E-03
 -1       930 5.27980E-03-9.42756E-05 2.83589E-03
 -1       931 5.46960E-03 1.91068E-05-1.39480E-03
 -1       932 5.62405E-03 2.77671E-04 1.65758E-03
 -1       933 2.54423E-03-2.74531E-03 1.37269E-02
 -1       934-6.00224E-04 2.25363E-03 1.49140E-02
 -1       935 8.56886E-04 3.04990E-03 9.14263E-03
 -1       936-2.71692E-04-7.38413E-05 1.63553E-02
 -1       937 1.47048E-03-3.00010E-03 1.07315E-02
 -1       938 9.39789E-04-3.04062E-03 1.06423E-02
 -1       939-1.17463E-03-2.38023E-03 1.32891E-02
 -1       940-4.54731E-04 7.05206E-06-1.42155E-02
 -1       941-4.78459E-04-2.89070E-05-1.61840E-02
 -1       942-8.08837E-04-3.12226E-05-1.37833E-02
 -1       943-5.10551E-04-4.85806E-05-1.61398E-02
 -1       944-4.00149E-04-1.00213E-04-1.14616E-02
 -1       945-5.06254E-04-1.34600E-04-1.66181E-02
 -1       946-4.48826E-04-1.30373E-04-1.59370E-02
 -1       947-4.29155E-04 1.05810E-04-1.58752E-02
 -1       948-5.17925E-04 7.55295E-05-1.65391E-02
 -1       949-3.93314E-04-4.54331E-04-1.53431E-02
 -1       950-7.64566E-04-6.02351E-04-1.31699E-02
 -1       951-4.94653E-04-5.39405E-04-1.46935E-02
 -1       952-3.29848E-04-2.14976E-04-1.00136E-02
 -1       953-3.41117E-04-5.18597E-04-1.47082E-02
 -1       954-1.63654E-04-4.78306E-04-1.39902E-02
 -1       955-3.06769E-04-2.78355E-04-1.57006E-02
 -1       956-4.14035E-04-3.49900E-04-1.61937E-02
 -1       957-7.47511E-05-4.92438E-04-1.12477E-02
 -1       958 9.16463E-05-7.30524E-04-1.22530E-02
 -1       959-2.09281E-04-7.88261E-04-1.05090E-02
 -1       960 1.09440E-04-6.80995E-04-1.10209E-02
 -1       961-1.24323E-04-2.73389E-04-7.05827E-03
 -1       962 2.02658E-04-6.31601E-04-1.03285E-02
 -1       963 2.11987E-04-5.82335E-04-9.69943E-03
 -1       964-1.01412E-05-5.78129E-04-1.31178E-02
 -1       965-3.74919E-05-5.92603E-04-1.35199E-02
 -1       966 3.16384E-04-4.06320E-04-6.84005E-03
 -1       967 3.92775E-04-5.99175E-04-6.09798E-03
 -1       968 5.26690E-04-4.74685E-04-5.44057E-03
 -1       969 8.41171E-05-1.51994E-04-2.85048E-03
 -1       970 5.12711E-04-3.64164E-04-4.32420E-03
 -1       971 5.92638E-04-2.90126E-04-3.91312E-03
 -1       972 4.03345E-04-4.68677E-04-8.46252E-03
 -1       973 3.46164E-04-4.75689E-04-8.50728E-03
 -1       974 4.05209E-04-6.23137E-05-1.44781E-03
 -1       975 6.16553E-04 3.65244E-05-8.97206E-04
 -1       976 7.54130E-04 4.22769E-05 8.05431E-04
 -1       977 8.96852E-05 1.04750E-04 1.76734E-03
 -1       978 6.14649E-04 1.43581E-04 2.11225E-03
 -1       979 6.10551E-04 1.26720E-04 2.37089E-03
 -1       980 6.49503E-04-7.69209E-05-2.50877E-03
 -1       981 6.74570E-04-8.59170E-05-2.37063E-03
 -1       982 3.05893E-04 2.47533E-04 4.19736E-03
 -1       983 5.72835E-04 4.55540E-04 5.16033E-03
 -1       984 4.33259E-04 6.33669E-04 4.66267E-03
 -1       985 5.46394E-04 4.98032E-04 7.04173E-03
 -1       986-4.37818E-05 2.11859E-04 6.18531E-03
 -1       987 4.27825E-04 4.99080E-04 8.45340E-03
 -1       988 3.98684E-04 4.42172E-04 8.38218E-03
 -1       989 5.67115E-04 2.77376E-04 3.75313E-03
 -1       990 5.55680E-04 2.82427E-04 4.10007E-03
 -1       991 2.13201E-08 4.59793E-04 9.29786E-03
 -1       992-1.57113E-04 8.08823E-04 9.45088E-03
 -1       993 1.57347E-05 7.09626E-04 1.22693E-02
 -1       994-2.58878E-04 2.71044E-04 9.56331E-03
 -1       995-2.03413E-05 6.14476E-04 1.35094E-02
 -1       996-5.41676E-05 5.73793E-04 1.31921E-02
 -1       997 2.26498E-04 5.82291E-04 9.67490E-03
 -1       998 1.91695E-04 5.94366E-04 1.02361E-02
 -1       999-3.44773E-04 3.69267E-04 1.31092E-02
 -1      1000-7.04225E-04 5.11663E-04 1.26047E-02
 -1      1001-4.32744E-04 4.96991E-04 1.55480E-02
 -1      1002-4.81146E-04 1.61913E-04 1.17045E-02
 -1      1003-4.62247E-04 3.95057E-04 1.63851E-02
 -1      1004-3.53036E-04 3.35342E-04 1.58875E-02
 -1      1005-1.89896E-04 5.29863E-04 1.40363E-02
 -1      1006-3.26774E-04 5.49803E-04 1.46681E-02
 -1      1007-4.55343E-04 6.16591E-05 1.47404E-02
 -1      1008-8.48012E-04 1.23813E-04 1.37793E-02
 -1      1009-6.58272E-04-5.98516E-06 1.61514E-02
 -1      1010-4.58343E-04-4.02083E-05 1.19416E-02
 -1      1011-5.32234E-04-9.81561E-05 1.68290E-02
 -1      1012-4.19654E-04-1.61446E-04 1.63524E-02
 -1      1013-4.28551E-04 1.58232E-04 1.63022E-02
 -1      1014-5.12043E-04 1.24580E-04 1.68230E-02
 -1      1015-3.82140E-04-3.02097E-04 1.43283E-02
 -1      1016-7.06768E-04-5.46454E-04 1.34036E-02
 -1      1017-4.53545E-04-4.62078E-04 1.47382E-02
 -1      1018-3.22041E-04-2.12670E-04 1.06087E-02
 -1      1019-2.67821E-04-5.30016E-04 1.49574E-02
 -1      1020-1.41533E-04-4.75332E-04 1.43129E-02
 -1      1021-3.81671E-04-2.60501E-04 1.60377E-02
 -1      1022-4.39694E-04-3.31872E-04 1.65214E-02
 -1      1023-9.12492E-05-4.95862E-04 1.17222E-02
 -1      1024 1.65444E-04-6.68073E-04 1.26034E-02
 -1      1025-1.68129E-04-7.44548E-04 1.07725E-02
 -1      1026 8.31279E-05-7.07951E-04 1.11751E-02
 -1      1027-1.21476E-04-2.44674E-04 7.53652E-03
 -1      1028 1.11105E-04-6.41502E-04 1.06882E-02
 -1      1029 2.73604E-04-5.44280E-04 1.01027E-02
 -1      1030 7.06140E-05-5.25574E-04 1.36548E-02
 -1      1031-1.49592E-05-5.92059E-04 1.38840E-02
 -1      1032 3.42875E-04-3.74471E-04 7.35680E-03
 -1      1033 3.81577E-04-6.04667E-04 6.50724E-03
 -1      1034 5.47745E-04-4.55408E-04 5.82019E-03
 -1      1035 9.08386E-05-1.11646E-04 3.32875E-03
 -1      1036 6.06437E-04-3.77713E-04 4.76699E-03
 -1      1037 6.28490E-04-3.24874E-04 4.34826E-03
 -1      1038 4.42005E-04-4.77125E-04 8.92754E-03
 -1      1039 4.20400E-04-4.65079E-04 9.00714E-03
 -1      1040 3.89926E-04-7.88590E-05 1.92842E-03
 -1      1041 8.87214E-04-1.93464E-05 1.35084E-03
 -1      1042 7.56577E-04-3.26504E-05 1.06885E-03
 -1      1043 8.43495E-04 5.23218E-05-7.25923E-04
 -1      1044 9.80931E-05 1.73891E-05-1.35109E-03
 -1      1045 7.25972E-04 1.20133E-04-2.07090E-03
 -1      1046 6.39295E-04 1.07921E-04-2.18338E-03
 -1      1047 6.73156E-04-1.55314E-04 3.00076E-03
 -1      1048 6.96518E-04-1.01168E-04 2.77841E-03
 -1      1049 3.02281E-04 2.29172E-04-3.83448E-03
 -1      1050 5.16441E-04 5.32013E-04-4.65844E-03
 -1      1051 6.44353E-04 5.35205E-04-6.97226E-03
 -1      1052-2.51903E-05 1.92732E-04-5.71808E-03
 -1      1053 3.88723E-04 5.54119E-04-8.31603E-03
 -1      1054 4.14285E-04 4.71246E-04-8.16867E-03
 -1      1055 6.23376E-04 2.98445E-04-3.55773E-03
 -1      1056 6.54235E-04 3.33675E-04-4.02827E-03
 -1      1057 2.45779E-04 6.38717E-04-1.06000E-02
 -1      1058-1.65321E-04 7.51389E-04-9.09997E-03
 -1      1059 1.98508E-04 7.34949E-04-1.19754E-02
 -1      1060-2.52047E-04 2.73977E-04-9.06768E-03
 -1      1061 2.36740E-05 5.59432E-04-1.31583E-02
 -1      1062 2.54134E-05 5.07628E-04-1.28275E-02
 -1      1063 3.57915E-04 5.17592E-04-9.31079E-03
 -1      1064 2.80390E-04 5.30815E-04-9.92909E-03
 -1      1065-2.79874E-04 4.58867E-04-1.43816E-02
 -1      1066-5.14388E-04 5.18255E-04-1.22308E-02
 -1      1067-3.22713E-04 3.91115E-04-1.52124E-02
 -1      1068-3.66292E-04 1.39117E-04-1.10708E-02
 -1      1069-3.60334E-04 3.18144E-04-1.60022E-02
 -1      1070-2.93143E-04 2.72267E-04-1.54842E-02
 -1      1071-1.31260E-04 4.63139E-04-1.36313E-02
 -1      1072-1.79102E-04 4.90080E-04-1.42590E-02
 -1      1073 0.00000E+00 0.00000E+00 0.00000E+00
 -1      1074 0.00000E+00 0.00000E+00 0.00000E+00
 -1      1075 0.00000E+00 0.00000E+00 0.00000E+00
 -1      1076 0.00000E+00 0.00000E+00 0.00000E+00
 -1      1077 0.00000E+00 0.00000E+00 0.00000E+00
 -1      1078 0.00000E+00 0.00000E+00 0.00000E+00
 -1      1079 0.00000E+00 0.00000E+00 0.00000E+00
 -1      1080 0.00000E+00 0.00000E+00 0.00000E+00
 -1      1081 0.00000E+00 0.00000E+00 0.00000E+00
 -1      1082 0.00000E+00 0.00000E+00 0.00000E+00
 -1      1083 0.00000E+00 0.00000E+00 0.00000E+00
 -1      1084 0.00000E+00 0.00000E+00 0.00000E+00
 -1      1085 0.00000E+00 0.00000E+00 0.00000E+00
 -1      1086 0.00000E+00 0.00000E+00 0.00000E+00
 -1      1087 0.00000E+00 0.00000E+00 0.00000E+00
 -1      1088 0.00000E+00 0.00000E+00 0.00000E+00
 -1      1089 0.00000E+00 0.00000E+00 0.00000E+00
 -1      1090 0.00000E+00 0.00000E+00 0.00000E+00
 -1      1091 0.00000E+00 0.00000E+00 0.00000E+00
 -1      1092 0.00000E+00 0.00000E+00 0.00000E+00
 -1      1093 0.00000E+00 0.00000E+00 0.00000E+00
 -1      1094 0.00000E+00 0.00000E+00 0.00000E+00
 -1      1095 0.00000E+00 0.00000E+00 0.00000E+00
 -1      1096 0.00000E+00 0.00000E+00 0.00000E+00
 -1      1097 0.00000E+00 0.00000E+00 0.00000E+00
 -1      1098 0.00000E+00 0.00000E+00 0.00000E+00
 -1      1099 0.00000E+00 0.00000E+00 0.00000E+00
 -1      1100 0.00000E+00 0.00000E+00 0.00000E+00
 -1      1101 0.00000E+00 0.00000E+00 0.00000E+00
 -1      1102 0.00000E+00 0.00000E+00 0.00000E+00
 -1      1103 0.00000E+00 0.00000E+00 0.00000E+00
 -1      1104 0.00000E+00 0.00000E+00 0.00000E+00
 -1      1105 0.00000E+00 0.00000E+00 0.00000E+00
 -1      1106 0.00000E+00 0.00000E+00 0.00000E+00
 -1      1107 0.00000E+00 0.00000E+00 0.00000E+00
 -1      1108 0.00000E+00 0.00000E+00 0.00000E+00
 -1      1109 0.00000E+00 0.00000E+00 0.00000E+00
 -1      1110 0.00000E+00 0.00000E+00 0.00000E+00
 -1      1111 0.00000E+00 0.00000E+00 0.00000E+00
 -1      1112 0.00000E+00 0.00000E+00 0.00000E+00
 -1      1113 0.00000E+00 0.00000E+00 0.00000E+00
 -1      1114 0.00000E+00 0.00000E+00 0.00000E+00
 -1      1115 0.00000E+00 0.00000E+00 0.00000E+00
 -1      1116 0.00000E+00 0.00000E+00 0.00000E+00
 -1      1117 0.00000E+00 0.00000E+00 0.00000E+00
 -1      1118 0.00000E+00 0.00000E+00 0.00000E+00
 -1      1119 0.00000E+00 0.00000E+00 0.00000E+00
 -1      1120 0.00000E+00 0.00000E+00 0.00000E+00
 -1      1121 0.00000E+00 0.00000E+00 0.00000E+00
 -1      1122 0.00000E+00 0.00000E+00 0.00000E+00
 -1      1123 0.00000E+00 0.00000E+00 0.00000E+00
 -1      1124 0.00000E+00 0.00000E+00 0.00000E+00
 -1      1125 0.00000E+00 0.00000E+00 0.00000E+00
 -1      1126 0.00000E+00 0.00000E+00 0.00000E+00
 -1      1127 0.00000E+00 0.00000E+00 0.00000E+00
 -1      1128 0.00000E+00 0.00000E+00 0.00000E+00
 -1      1129 0.00000E+00 0.00000E+00 0.00000E+00
 -1      1130 0.00000E+00 0.00000E+00 0.00000E+00
 -1      1131 4.96708E-04 1.74059E-03 1.42354E-02
 -1      1132 9.97240E-04 1.56831E-03 1.36956E-02
 -1      1133 1.14424E-03 1.86520E-03 1.56459E-02
 -1      1134 5.71032E-04 2.07807E-03 1.61334E-02
 -1      1135 4.44803E-03-1.68502E-03 8.70625E-03
 -1      1136 4.43280E-03 1.74034E-03 8.21188E-03
 -1      1137 4.34236E-03 1.87965E-03 8.35356E-03
 -1      1138 2.67452E-03 2.31658E-03 9.45672E-03
 -1      1139 2.86681E-03 2.47197E-03 1.30016E-02
 -1      1140 2.51258E-03 2.77489E-03 1.33566E-02
 -1      1141 2.22142E-03-1.48906E-05 1.17421E-02
 -1      1142 1.42138E-03 1.55050E-04 1.44173E-02
 -1      1143 2.73682E-03-1.10813E-03 1.04300E-02
 -1      1144 1.90984E-03-1.34542E-03 1.29043E-02
 -1      1145 2.63582E-03-1.33358E-03 1.15875E-02
 -1      1146 4.21793E-03-1.79028E-03 4.60380E-03
 -1      1147 2.74918E-03 1.25577E-03 1.14427E-02
 -1      1148 1.99862E-03 1.41024E-03 1.27756E-02
 -1      1149 2.63236E-03 1.15774E-03 1.02138E-02
 -1      1150 1.97512E-03 1.51452E-03 1.37437E-02
 -1      1151 4.39077E-03 1.60527E-03 3.71122E-03
 -1      1152 4.36860E-03-1.54025E-03-3.77158E-03
 -1      1153 4.16467E-03-1.75735E-03-4.06230E-03
 -1      1154 2.81675E-03-2.04712E-03-6.07168E-03
 -1      1155 3.58779E-03-1.96286E-03-7.00841E-03
 -1      1156 2.73020E-03-2.07436E-03-4.67295E-03
 -1      1157 5.14354E-03-9.47826E-04-2.86345E-03
 -1      1158 4.86599E-03-1.43373E-03-6.67546E-03
 -1      1159 5.07870E-03-1.29537E-03-5.74305E-03
 -1      1160 4.89699E-03-1.35999E-03-4.09309E-03
 -1      1161 4.43816E-03-1.66284E-03-8.30110E-03
 -1      1162 3.83827E-03-1.56597E-03-9.07455E-03
 -1      1163 3.43743E-03-1.79255E-03-9.05172E-03
 -1      1164 2.11690E-03-1.27783E-03-1.34634E-02
 -1      1165 2.72892E-03-1.04733E-03-1.09491E-02
 -1      1166 1.99705E-03-1.14994E-03-1.24947E-02
 -1      1167 2.28552E-03 2.25643E-04-1.12251E-02
 -1      1168 1.58056E-03 1.50215E-04-1.39356E-02
 -1      1169 2.34843E-03 5.90790E-05-1.11860E-02
 -1      1170-1.27070E-04 1.63501E-04-1.61920E-02
 -1      1171-3.90542E-05-2.20982E-04-1.63002E-02
 -1      1172 5.44602E-04-2.27338E-04-1.56419E-02
 -1      1173-2.09294E-03 1.87997E-04-1.36198E-02
 -1      1174-1.39322E-03-8.53181E-05-1.55733E-02
 -1      1175 4.37290E-03 1.79719E-03-8.18147E-03
 -1      1176 9.26564E-04-2.91315E-03-1.04787E-02
 -1      1177 1.55464E-03-2.87342E-03-1.18829E-02
 -1      1178 1.42521E-03-2.77325E-03-1.05067E-02
 -1      1179 8.71316E-04-2.88395E-03-9.27505E-03
 -1      1180-6.17333E-04-2.13911E-03-1.48168E-02
 -1      1181-6.17613E-04-1.92437E-03-1.40087E-02
 -1      1182-1.31762E-03-2.20456E-03-1.22956E-02
 -1      1183 5.46873E-04-1.75009E-03-1.57772E-02
 -1      1184 1.13077E-03-1.54324E-03-1.52574E-02
 -1      1185 2.29456E-03-2.39332E-03-1.01141E-02
 -1      1186 2.48252E-03-2.58732E-03-1.32852E-02
 -1      1187 2.80586E-03-2.30765E-03-1.28244E-02
 -1      1188 3.81453E-03 1.95277E-03-6.80761E-03
 -1      1189 3.00638E-03 2.04385E-03-5.88524E-03
 -1      1190 2.87665E-03 2.11861E-03-4.52051E-03
 -1      1191 3.62527E-03 1.97228E-03-4.93151E-03
 -1      1192 5.15413E-03 1.23849E-03-5.45776E-03
 -1      1193 5.00506E-03 1.42817E-03-6.37369E-03
 -1      1194 5.27768E-03 1.02925E-03-2.54043E-03
 -1      1195 5.61439E-03 3.09241E-05-1.06473E-03
 -1      1196 4.78406E-03-6.01978E-05-7.41030E-04
 -1      1197 5.57246E-03-5.86728E-05 1.85779E-03
 -1      1198 5.68346E-03-1.71030E-04 2.00520E-03
 -1      1199 4.26761E-03-1.34652E-04-6.57129E-04
 -1      1200 4.77177E-03 1.44648E-05 1.38438E-03
 -1      1201 2.85251E-03 1.29519E-03-1.08567E-02
 -1      1202 2.26610E-03 1.46415E-03-1.33431E-02
 -1      1203 2.91182E-03 1.09899E-03-9.69447E-03
 -1      1204 1.20885E-03 1.63371E-03-1.50837E-02
 -1      1205 6.37773E-04 1.83520E-03-1.55812E-02
 -1      1206 5.61282E-04 1.50470E-03-1.40549E-02
 -1      1207 1.07170E-03 1.32962E-03-1.34499E-02
 -1      1208-1.10909E-03 2.42925E-03-1.28339E-02
 -1      1209-4.20248E-04 1.87672E-03-1.38198E-02
 -1      1210 3.54739E-03 2.03125E-03-1.07262E-02
 -1      1211 4.09860E-03 1.53905E-03-6.63302E-03
 -1      1212 2.89962E-03 2.37092E-03-1.25348E-02
 -1      1213 2.55039E-03 2.65159E-03-1.29179E-02
 -1      1214 2.44349E-03 2.41316E-03-9.69050E-03
 -1      1215 2.74159E-03 2.14712E-03-9.18210E-03
 -1      1216 9.98791E-04 3.00766E-03-1.00390E-02
 -1      1217 1.49095E-03 2.89352E-03-1.01580E-02
 -1      1218 5.26754E-03-1.00542E-04 2.93235E-03
 -1      1219 4.93636E-03-1.45403E-03 7.16129E-03
 -1      1220 5.23551E-03-1.03604E-03 3.33091E-03
 -1      1221 4.96565E-03-1.39923E-03 4.53443E-03
 -1      1222 5.12609E-03-1.30616E-03 6.25769E-03
 -1      1223 2.99204E-03-2.21156E-03 6.44918E-03
 -1      1224 3.49964E-03-2.12964E-03 5.57785E-03
 -1      1225 2.88469E-03-2.20995E-03 4.95601E-03
 -1      1226 3.66637E-03-2.06416E-03 7.39234E-03
 -1      1227 4.99569E-03 1.24405E-04 2.30498E-03
 -1      1228 4.91334E-03 1.00409E-04 2.16210E-03
 -1      1229 3.85292E-03 7.43298E-05-1.01196E-03
 -1      1230 4.39684E-03 6.34027E-05-1.18486E-03
 -1      1231 5.68675E-03-1.38659E-04-1.59759E-03
 -1      1232 5.48453E-03 9.99639E-05 1.39014E-03
 -1      1233 4.47507E-03-1.22832E-05 8.66995E-04
 -1      1234 3.79174E-03-6.92063E-07 5.73514E-04
 -1      1235 4.93074E-03 5.21594E-05-2.40379E-03
 -1      1236 4.91992E-03 1.43160E-03 4.11598E-03
 -1      1237 5.14537E-03 1.12508E-03 3.08119E-03
 -1      1238 5.08195E-03 1.40421E-03 5.99747E-03
 -1      1239 4.91262E-03 1.54985E-03 6.74828E-03
 -1      1240 2.90396E-03 2.18816E-03 4.54878E-03
 -1      1241 3.57910E-03 2.11531E-03 4.98849E-03
 -1      1242 3.74284E-03 2.04125E-03 6.84508E-03
 -1      1243 3.03924E-03 2.10513E-03 5.95483E-03
 -1      1244 4.95405E-03 4.93126E-05-2.46691E-03
 -1      1245 2.85038E-03-2.45990E-03 1.34048E-02
 -1      1246 5.26969E-03 5.29337E-06-2.11213E-03
 -1      1247 5.25844E-03-1.26668E-05-2.07261E-03
 -1      1248 3.86241E-03 1.83137E-03 9.37462E-03
 -1      1249 3.61255E-03-2.01095E-03 1.13877E-02
 -1      1250 3.97333E-03-1.59446E-03 7.38583E-03
 -1      1251 3.50176E-03-1.91418E-03 9.41138E-03
 -1      1252 3.94438E-03-1.79378E-03 9.62356E-03
 -1      1253 3.39135E-03 2.01078E-03 9.17265E-03
 -1      1254 3.94531E-03 1.60000E-03 7.19780E-03
 -1      1255 3.47179E-03 2.14376E-03 1.10355E-02
 -1      1256 2.76651E-03-2.21208E-03 9.82936E-03
 -1      1257 2.36190E-03-2.53287E-03 1.02985E-02
 -1      1258 1.00287E-03-1.50104E-03 1.38679E-02
 -1      1259 4.88910E-04-1.69105E-03 1.44108E-02
 -1      1260-1.32553E-03 2.33626E-03 1.23363E-02
 -1      1261 5.94746E-04-2.02457E-03 1.63163E-02
 -1      1262 1.14026E-03-1.79969E-03 1.58138E-02
 -1      1263-2.18846E-03 3.35665E-04 1.35127E-02
 -1      1264-1.49136E-03 1.44602E-04 1.54895E-02
 -1      1265-1.50840E-03 3.50803E-04 1.56439E-02
 -1      1266-2.17121E-03 4.25311E-04 1.37302E-02
 -1      1267-5.75131E-04 2.02861E-03 1.41565E-02
 -1      1268-1.27394E-03 2.36741E-03 1.30785E-02
 -1      1269 1.46858E-03 2.97550E-03 1.03627E-02
 -1      1270 1.67946E-03 3.07510E-03 1.19184E-02
 -1      1271 9.26890E-04 3.11585E-03 1.03849E-02
 -1      1272 3.29285E-04-7.69595E-05 1.58639E-02
 -1      1273 3.92241E-04 2.88704E-04 1.60449E-02
 -1      1274-3.09596E-04 3.08425E-04 1.65316E-02
 -1      1275 7.45655E-04-3.05119E-03 9.50405E-03
 -1      1276 1.61522E-03-3.05841E-03 1.22499E-02
 -1      1277-5.34055E-04-2.05982E-03 1.42572E-02
 -1      1278-1.24908E-03-2.35819E-03 1.25099E-02
 -1      1279-5.32715E-04-2.31749E-03 1.51306E-02
 -1      1280-4.04690E-04 6.61835E-05-1.13689E-02
 -1      1281-8.12209E-04-2.10530E-05-1.39493E-02
 -1      1282-3.94742E-04-1.14962E-05-1.42422E-02
 -1      1283-3.65192E-04-3.14685E-04-1.38009E-02
 -1      1284-3.83391E-04-1.46489E-04-1.12253E-02
 -1      1285-8.10714E-04-6.25809E-04-1.25721E-02
 -1      1286-2.88591E-04-3.22468E-04-1.27271E-02
 -1      1287-2.89912E-04-2.87531E-04-9.33213E-03
 -1      1288-1.52896E-04-7.79650E-04-9.48774E-03
 -1      1289 5.48222E-05-4.58237E-04-9.28889E-03
 -1      1290-7.20204E-05-2.53305E-04-6.00738E-03
 -1      1291 4.36953E-04-4.98690E-04-7.17186E-03
 -1      1292 4.08900E-04-6.04345E-04-4.78545E-03
 -1      1293 3.71778E-04-2.67956E-04-4.19830E-03
 -1      1294 8.09769E-05-8.44414E-05-1.65340E-03
 -1      1295 7.11645E-04-4.65014E-05-1.16009E-03
 -1      1296 6.20749E-04 1.27000E-05 5.34645E-04
 -1      1297 4.55282E-04 8.69110E-05 1.43218E-03
 -1      1298 6.54801E-05 1.41758E-04 2.99933E-03
 -1      1299 4.36525E-04 5.62992E-04 6.10354E-03
 -1      1300 2.79171E-04 3.25130E-04 6.91527E-03
 -1      1301-1.22947E-04 2.59753E-04 7.28406E-03
 -1      1302 1.71378E-05 6.85278E-04 1.09198E-02
 -1      1303-2.23866E-04 8.03109E-04 1.04017E-02
 -1      1304-2.85537E-05 4.96692E-04 1.13240E-02
 -1      1305-3.61095E-04 2.27251E-04 1.04251E-02
 -1      1306-4.59926E-04 5.43815E-04 1.47642E-02
 -1      1307-7.52384E-04 5.49559E-04 1.32039E-02
 -1      1308-3.77482E-04 3.23641E-04 1.41790E-02
 -1      1309-4.86128E-04 9.10534E-05 1.20153E-02
 -1      1310-5.89893E-04 3.15766E-05 1.62103E-02
 -1      1311-8.99505E-04 1.11654E-04 1.39690E-02
 -1      1312-4.99876E-04-1.15171E-05 1.46847E-02
 -1      1313-4.04676E-04-1.51133E-04 1.19046E-02
 -1      1314-4.32017E-04-4.57098E-04 1.57269E-02
 -1      1315-7.26893E-04-5.25854E-04 1.27691E-02
 -1      1316-3.04406E-04-3.23619E-04 1.31759E-02
 -1      1317-2.88879E-04-2.76255E-04 9.84403E-03
 -1      1318-1.62356E-04-7.54042E-04 9.62460E-03
 -1      1319 7.55481E-05-3.90266E-04 9.73589E-03
 -1      1320-9.35441E-05-2.42519E-04 6.47560E-03
 -1      1321 5.37022E-04-4.90408E-04 7.64669E-03
 -1      1322 3.82393E-04-5.62546E-04 5.13446E-03
 -1      1323 3.83729E-04-2.48783E-04 4.61078E-03
 -1      1324 1.05127E-04-9.30605E-05 2.10571E-03
 -1      1325 7.39648E-04-7.53745E-06-5.24363E-04
 -1      1326 4.17566E-04 3.54084E-05-1.03711E-03
 -1      1327 5.07538E-05 1.56108E-04-2.49439E-03
 -1      1328 7.23433E-04 4.80306E-04-5.21841E-03
 -1      1329 4.77938E-04 5.64258E-04-5.99381E-03
 -1      1330 2.88573E-04 3.32559E-04-6.49435E-03
 -1      1331 5.42252E-05 4.64221E-04-8.97376E-03
 -1      1332-7.83891E-05 2.56008E-04-6.70577E-03
 -1      1333-5.76101E-05 7.56688E-04-1.01578E-02
 -1      1334 9.93504E-06 4.75363E-04-1.10073E-02
 -1      1335-2.46984E-04 2.99719E-04-1.24993E-02
 -1      1336-2.79345E-04 2.11709E-04-9.82277E-03
 -1      1337-6.25098E-04 5.16639E-04-1.28550E-02
 -1      1338-3.56717E-04 2.64517E-04-1.36111E-02
 -1      1339 0.00000E+00 0.00000E+00 0.00000E+00
 -1      1340 0.00000E+00 0.00000E+00 0.00000E+00
 -1      1341 0.00000E+00 0.00000E+00 0.00000E+00
 -1      1342 0.00000E+00 0.00000E+00 0.00000E+00
 -1      1343 0.00000E+00 0.00000E+00 0.00000E+00
 -1      1344 0.00000E+00 0.00000E+00 0.00000E+00
 -1      1345 0.00000E+00 0.00000E+00 0.00000E+00
 -1      1346 0.00000E+00 0.00000E+00 0.00000E+00
 -1      1347 0.00000E+00 0.00000E+00 0.00000E+00
 -1      1348 0.00000E+00 0.00000E+00 0.00000E+00
 -1      1349 0.00000E+00 0.00000E+00 0.00000E+00
 -1      1350 0.00000E+00 0.00000E+00 0.00000E+00
 -1      1351 0.00000E+00 0.00000E+00 0.00000E+00
 -1      1352 0.00000E+00 0.00000E+00 0.00000E+00
 -1      1353 0.00000E+00 0.00000E+00 0.00000E+00
 -1      1354 0.00000E+00 0.00000E+00 0.00000E+00
 -1      1355 0.00000E+00 0.00000E+00 0.00000E+00
 -1      1356 0.00000E+00 0.00000E+00 0.00000E+00
 -1      1357 0.00000E+00 0.00000E+00 0.00000E+00
 -1      1358 0.00000E+00 0.00000E+00 0.00000E+00
 -1      1359 0.00000E+00 0.00000E+00 0.00000E+00
 -1      1360 0.00000E+00 0.00000E+00 0.00000E+00
 -1      1361 0.00000E+00 0.00000E+00 0.00000E+00
 -1      1362 0.00000E+00 0.00000E+00 0.00000E+00
 -1      1363 0.00000E+00 0.00000E+00 0.00000E+00
 -1      1364 0.00000E+00 0.00000E+00 0.00000E+00
 -1      1365 0.00000E+00 0.00000E+00 0.00000E+00
 -1      1366 0.00000E+00 0.00000E+00 0.00000E+00
 -1      1367 0.00000E+00 0.00000E+00 0.00000E+00
 -1      1368 0.00000E+00 0.00000E+00 0.00000E+00
 -1      1369 0.00000E+00 0.00000E+00 0.00000E+00
 -1      1370 0.00000E+00 0.00000E+00 0.00000E+00
 -1      1371 0.00000E+00 0.00000E+00 0.00000E+00
 -1      1372 0.00000E+00 0.00000E+00 0.00000E+00
 -1      1373 0.00000E+00 0.00000E+00 0.00000E+00
 -1      1374 0.00000E+00 0.00000E+00 0.00000E+00
 -1      1375 0.00000E+00 0.00000E+00 0.00000E+00
 -1      1376 0.00000E+00 0.00000E+00 0.00000E+00
 -1      1377 0.00000E+00 0.00000E+00 0.00000E+00
 -1      1378 0.00000E+00 0.00000E+00 0.00000E+00
 -1      1379 0.00000E+00 0.00000E+00 0.00000E+00
 -1      1380 0.00000E+00 0.00000E+00 0.00000E+00
 -1      1381 0.00000E+00 0.00000E+00 0.00000E+00
 -1      1382 0.00000E+00 0.00000E+00 0.00000E+00
 -1      1383 0.00000E+00 0.00000E+00 0.00000E+00
 -1      1384 0.00000E+00 0.00000E+00 0.00000E+00
 -1      1385 0.00000E+00 0.00000E+00 0.00000E+00
 -1      1386 0.00000E+00 0.00000E+00 0.00000E+00
 -1      1387 0.00000E+00 0.00000E+00 0.00000E+00
 -1      1388 0.00000E+00 0.00000E+00 0.00000E+00
 -1      1389 0.00000E+00 0.00000E+00 0.00000E+00
 -1      1390 0.00000E+00 0.00000E+00 0.00000E+00
 -1      1391 0.00000E+00 0.00000E+00 0.00000E+00
 -1      1392 0.00000E+00 0.00000E+00 0.00000E+00
 -1      1393 0.00000E+00 0.00000E+00 0.00000E+00
 -1      1394 0.00000E+00 0.00000E+00 0.00000E+00
 -1      1395 0.00000E+00 0.00000E+00 0.00000E+00
 -1      1396 0.00000E+00 0.00000E+00 0.00000E+00
 -1      1397 0.00000E+00 0.00000E+00 0.00000E+00
 -1      1398 0.00000E+00 0.00000E+00 0.00000E+00
 -1      1399 0.00000E+00 0.00000E+00 0.00000E+00
 -1      1400 0.00000E+00 0.00000E+00 0.00000E+00
 -1      1401 0.00000E+00 0.00000E+00 0.00000E+00
 -1      1402 0.00000E+00 0.00000E+00 0.00000E+00
 -1      1403 0.00000E+00 0.00000E+00 0.00000E+00
 -1      1404 0.00000E+00 0.00000E+00 0.00000E+00
 -1      1405 0.00000E+00 0.00000E+00 0.00000E+00
 -1      1406 0.00000E+00 0.00000E+00 0.00000E+00
 -1      1407 0.00000E+00 0.00000E+00 0.00000E+00
 -1      1408 0.00000E+00 0.00000E+00 0.00000E+00
 -1      1409 3.97822E-03 1.40087E-03-6.52277E-03
 -1      1410 2.80610E-03 1.11426E-03 9.27232E-03
 -1      1411 5.32159E-03 1.06052E-05 3.66638E-04
 -1      1412-2.60185E-04 4.12315E-05-9.60194E-03
 -1      1413-2.56880E-04-9.38071E-05-8.93056E-03
 -1      1414 4.81023E-03-9.14562E-04-3.61330E-03
 -1      1415-1.21145E-05-2.66305E-05 3.85733E-04
 -1      1416 3.00273E-04 2.33444E-04-9.68407E-03
 -1      1417 2.71352E-04 2.33726E-04-9.57951E-03
 -1      1418 3.85542E-03-1.44321E-03 7.30071E-03
 -1      1419-1.42521E-04 1.41721E-04-6.60736E-03
 -1      1420 3.83151E-03 1.48608E-03 7.12169E-03
 -1      1421 5.51025E-04 4.13217E-04-8.17200E-03
 -1      1422 5.31028E-04 4.25201E-04-8.06993E-03
 -1      1423-1.66181E-06-3.86943E-06 1.50835E-04
 -1      1424-1.69988E-04-1.43211E-04-6.86665E-03
 -1      1425-8.07523E-05 1.06915E-04 3.95873E-03
 -1      1426 8.44691E-04-4.53179E-04-5.59411E-03
 -1      1427 8.24919E-04-4.52329E-04-5.53211E-03
 -1      1428 3.74657E-03 4.29305E-04-1.60832E-03
 -1      1429 3.69680E-03 4.20676E-04-1.58639E-03
 -1      1430 3.86039E-03-1.30684E-03-6.77003E-03
 -1      1431 2.35265E-03 3.04520E-05 1.01071E-02
 -1      1432 9.81275E-04 4.42275E-04-5.26948E-03
 -1      1433 9.53144E-04 4.43919E-04-5.20904E-03
 -1      1434 3.00169E-03 1.00272E-03-8.61924E-03
 -1      1435-1.67689E-05-7.94197E-05 4.17603E-03
 -1      1436-1.76473E-04-1.63338E-04-6.14911E-03
 -1      1437 2.48333E-03 1.32453E-04-9.49461E-03
 -1      1438 1.53371E-03 4.85607E-04 1.02795E-02
 -1      1439 1.50525E-03 4.82999E-04 1.01674E-02
 -1      1440 1.16819E-03 1.65934E-04-1.61752E-03
 -1      1441 1.14413E-03 1.65290E-04-1.59161E-03
 -1      1442 2.96600E-03-1.04740E-03-5.53489E-03
 -1      1443 2.94147E-03-1.03479E-03-5.47010E-03
 -1      1444 5.25598E-03 6.24144E-05 1.08796E-04
 -1      1445-1.77972E-04 1.47611E-04 7.17816E-03
 -1      1446 2.35516E-03 1.03937E-04 1.09759E-02
 -1      1447-1.83114E-04-1.29254E-04 7.41966E-03
 -1      1448-1.58431E-04 5.95543E-05-8.71099E-03
 -1      1449 5.03352E-04-4.36127E-04-8.33710E-03
 -1      1450 4.77216E-04-4.42789E-04-8.24730E-03
 -1      1451 2.76335E-03-9.93212E-04 9.43344E-03
 -1      1452-2.69698E-04-8.37027E-05 9.52907E-03
 -1      1453 4.92917E-03 9.56311E-04-3.36347E-03
 -1      1454 4.86626E-04-4.66381E-04 8.92092E-03
 -1      1455 4.62433E-04-4.72642E-04 8.83505E-03
 -1      1456-2.39757E-04 4.48489E-05 1.01714E-02
 -1      1457 2.17700E-03 1.12996E-03 8.65793E-03
 -1      1458 2.13269E-03 1.10313E-03 8.55666E-03
 -1      1459-2.81793E-04 1.31455E-04 9.40942E-03
 -1      1460 2.92829E-03-7.56149E-04-8.79046E-03
 -1      1461 2.90764E-03 1.19386E-03 9.39008E-03
 -1      1462 3.74597E-03-4.68207E-04 2.40833E-03
 -1      1463 3.69116E-03-4.62157E-04 2.38553E-03
 -1      1464 1.45558E-03-4.20717E-04 1.03578E-02
 -1      1465 1.44074E-03-4.35705E-04 1.02435E-02
 -1      1466 1.15174E-03-2.10815E-04 2.46962E-03
 -1      1467 1.13824E-03-2.17763E-04 2.43256E-03
 -1      1468 2.64246E-03-1.19557E-03 1.09629E-02
 -1      1469 3.11558E-03 1.00371E-03-5.28632E-03
 -1      1470 3.07770E-03 9.99363E-04-5.21298E-03
 -1      1471 8.67526E-04-4.69980E-04 6.09927E-03
 -1      1472 8.43263E-04-4.75747E-04 6.05008E-03
 -1      1473 5.28242E-03 8.34062E-04-2.07571E-03
 -1      1474 3.03979E-03 1.15223E-03 5.82202E-03
 -1      1475 3.00077E-03 1.14289E-03 5.74788E-03
 -1      1476 2.44456E-04-1.78613E-04-9.81083E-03
 -1      1477 2.16420E-04-1.81505E-04-9.70326E-03
 -1      1478 5.62965E-03 3.27137E-04-1.36503E-03
 -1      1479 2.19138E-03-9.70875E-04-8.29159E-03
 -1      1480 2.16630E-03-9.66640E-04-8.18566E-03
 -1      1481 2.13912E-03-1.05735E-03 8.78315E-03
 -1      1482 2.15950E-03-1.05895E-03 8.88869E-03
 -1      1483 3.08413E-03-3.67973E-04 2.42643E-03
 -1      1484 3.02693E-03-3.65835E-04 2.39649E-03
 -1      1485 2.42597E-03 1.00708E-03 5.84571E-03
 -1      1486 2.39249E-03 9.95533E-04 5.77471E-03
 -1      1487 1.71361E-03 9.53788E-04 8.69694E-03
 -1      1488 1.66951E-03 9.30701E-04 8.60407E-03
 -1      1489 6.10893E-04-2.44790E-04-9.81438E-03
 -1      1490 5.78507E-04-2.29860E-04-9.70066E-03
 -1      1491 1.72593E-03-8.16671E-04-8.34443E-03
 -1      1492 1.71464E-03-8.25574E-04-8.23016E-03
 -1      1493 4.28003E-04 5.07411E-04 8.65262E-03
 -1      1494 4.51437E-04 5.04040E-04 8.73306E-03
 -1      1495 3.00987E-03-1.06081E-03 6.00310E-03
 -1      1496 3.05892E-03-1.06833E-03 6.08594E-03
 -1      1497 1.65262E-03 4.88138E-04-9.63061E-03
 -1      1498 1.62412E-03 4.72515E-04-9.51279E-03
 -1      1499 4.86089E-03-1.03050E-03 4.21961E-03
 -1      1500 3.62962E-03 5.16864E-04 2.12708E-03
 -1      1501 3.58577E-03 5.14268E-04 2.10225E-03
 -1      1502 1.36762E-03-6.36003E-04-5.58143E-03
 -1      1503 1.34441E-03-6.28292E-04-5.52338E-03
 -1      1504 3.69962E-03-3.58049E-04-1.86950E-03
 -1      1505 3.64530E-03-3.53292E-04-1.84858E-03
 -1      1506 1.78295E-03-9.02758E-04 8.89083E-03
 -1      1507 1.73153E-03-8.76781E-04 8.80758E-03
 -1      1508-1.51135E-04 1.32663E-04-7.29752E-03
 -1      1509 3.90033E-04-2.76732E-04-5.54158E-03
 -1      1510 3.80966E-04-2.81863E-04-5.47577E-03
 -1      1511-1.69488E-04 9.09886E-05-8.33200E-03
 -1      1512 8.61379E-04 4.68133E-04 5.85044E-03
 -1      1513 8.41528E-04 4.78016E-04 5.80319E-03
 -1      1514 2.26093E-03 1.06171E-03-7.95878E-03
 -1      1515 2.28261E-03 1.07894E-03-8.06352E-03
 -1      1516 1.10775E-03-1.82144E-04-1.87057E-03
 -1      1517 1.13985E-03-1.78618E-04-1.89852E-03
 -1      1518 1.70740E-04 2.22456E-04 1.02040E-02
 -1      1519 1.93153E-04 2.20258E-04 1.03084E-02
 -1      1520-2.53602E-05-9.21061E-05-3.65479E-03
 -1      1521 1.34503E-03 6.45896E-04 5.87060E-03
 -1      1522 1.31595E-03 6.40475E-04 5.81001E-03
 -1      1523-2.27061E-04-8.71607E-05 9.16001E-03
 -1      1524 8.98585E-04-5.39071E-04-8.35247E-03
 -1      1525 8.79696E-04-5.53316E-04-8.26219E-03
 -1      1526 1.36490E-03-6.19527E-04 6.12047E-03
 -1      1527 1.33937E-03-6.15288E-04 6.05710E-03
 -1      1528 1.46057E-03 5.96611E-04-5.27854E-03
 -1      1529 1.43542E-03 5.94275E-04-5.21932E-03
 -1      1530-3.11059E-04 1.07011E-04 9.78057E-03
 -1      1531 4.80909E-03 1.07912E-03 3.88744E-03
 -1      1532 1.98853E-04-3.07241E-04-8.28843E-03
 -1      1533 1.65489E-04-3.04039E-04-8.20708E-03
 -1      1534 3.62411E-03 1.28888E-03 5.76441E-03
 -1      1535 3.58271E-03 1.27283E-03 5.69023E-03
 -1      1536-1.26979E-04 1.43654E-04-5.91895E-03
 -1      1537 1.63189E-03 7.38450E-04 5.86444E-03
 -1      1538 1.59445E-03 7.29758E-04 5.81011E-03
 -1      1539 2.41349E-03-8.68531E-04-5.49821E-03
 -1      1540 2.42982E-03-8.67707E-04-5.56552E-03
 -1      1541 3.05310E-03 3.66499E-04-1.65957E-03
 -1      1542 3.01959E-03 3.62554E-04-1.62924E-03
 -1      1543-6.07319E-05 7.62444E-05-3.33074E-03
 -1      1544-5.50987E-05 1.92705E-04 1.02446E-02
 -1      1545-8.67427E-05 1.90872E-04 1.01533E-02
 -1      1546 4.20439E-03 1.36632E-03-5.96804E-03
 -1      1547 9.49481E-04 5.92053E-04-8.13089E-03
 -1      1548 9.31376E-04 5.86803E-04-8.03792E-03
 -1      1549 2.51663E-05 1.42695E-04-9.63568E-03
 -1      1550-1.00044E-05 1.41490E-04-9.52338E-03
 -1      1551 2.15302E-03 9.20177E-04 5.85400E-03
 -1      1552 2.12002E-03 9.16325E-04 5.79836E-03
 -1      1553 4.41107E-03-4.06879E-04-1.86480E-03
 -1      1554 4.35056E-03-4.04877E-04-1.83891E-03
 -1      1555 2.59137E-03 8.21388E-04-5.28653E-03
 -1      1556 2.55559E-03 8.16442E-04-5.22356E-03
 -1      1557 1.17098E-03 2.10891E-04 2.12708E-03
 -1      1558 1.13474E-03 2.08135E-04 2.11243E-03
 -1      1559 2.99897E-03 4.53365E-04 2.12531E-03
 -1      1560 2.95459E-03 4.46213E-04 2.10145E-03
 -1      1561 4.99690E-03-1.35605E-03 6.12941E-03
 -1      1562 4.39044E-03 6.28992E-04 2.09347E-03
 -1      1563 4.33693E-03 6.19613E-04 2.07801E-03
 -1      1564 1.82764E-04-1.82474E-04 1.04168E-02
 -1      1565 1.56055E-04-1.84275E-04 1.03205E-02
 -1      1566 4.94062E-03 9.73933E-04 3.02411E-03
 -1      1567 3.09440E-03 1.19361E-03-8.27473E-03
 -1      1568-2.41186E-04-1.23494E-04-8.56862E-03
 -1      1569-2.01116E-04-1.67033E-04-7.49740E-03
 -1      1570 5.25855E-03-1.61352E-04-8.20578E-04
 -1      1571 4.94026E-03-7.37257E-04-2.75030E-03
 -1      1572 5.14465E-03 9.48414E-04 2.62454E-03
 -1      1573 1.74956E-03 2.86602E-04 2.12416E-03
 -1      1574 1.71163E-03 2.84908E-04 2.10602E-03
 -1      1575 4.06190E-03 1.52131E-03 6.33698E-03
 -1      1576 5.65014E-04 6.76403E-05-1.57988E-03
 -1      1577 5.51765E-04 7.10130E-05-1.55848E-03
 -1      1578 1.93329E-03 5.91394E-04 1.01721E-02
 -1      1579 1.90328E-03 5.87354E-04 1.00499E-02
 -1      1580-6.30879E-06-9.09597E-06-5.98143E-04
 -1      1581 1.74725E-03-2.06919E-04-1.90144E-03
 -1      1582 1.70662E-03-2.06663E-04-1.87778E-03
 -1      1583 4.17748E-04-1.91754E-04-9.81267E-03
 -1      1584 3.89502E-04-1.99939E-04-9.69886E-03
 -1      1585 5.18902E-03 3.19531E-04 1.04771E-03
 -1      1586 5.53697E-03 4.27167E-04 1.79169E-03
 -1      1587 5.12770E-03 4.98362E-04 1.55986E-03
 -1      1588 2.97555E-03-3.44972E-04-1.92014E-03
 -1      1589 2.93213E-03-3.37556E-04-1.88842E-03
 -1      1590 1.08046E-03-5.58153E-04 6.05932E-03
 -1      1591 1.11004E-03-5.55782E-04 6.10227E-03
 -1      1592 1.14550E-03-3.95263E-04 1.04476E-02
 -1      1593 1.13062E-03-3.99011E-04 1.03285E-02
 -1      1594 3.62153E-05-1.26573E-04-9.74524E-03
 -1      1595-4.42898E-07-1.28862E-04-9.65042E-03
 -1      1596 3.73039E-03-1.21887E-03 5.99516E-03
 -1      1597 3.67782E-03-1.20332E-03 5.91498E-03
 -1      1598 1.87772E-03-4.74922E-04 1.02434E-02
 -1      1599 1.85052E-03-4.82200E-04 1.01294E-02
 -1      1600-1.44811E-05-6.32005E-05-2.75249E-03
 -1      1601 2.66109E-03-1.06376E-03-8.22115E-03
 -1      1602 2.64118E-03-1.06610E-03-8.10572E-03
 -1      1603 3.81163E-04 2.90418E-04 5.83815E-03
 -1      1604 3.63348E-04 2.91809E-04 5.77119E-03
 -1      1605 2.24943E-03-2.37271E-04 1.01089E-02
 -1      1606 3.03705E-03-1.01580E-03-8.43726E-03
 -1      1607-1.56520E-04-1.46706E-04-5.80834E-03
 -1      1608 2.57421E-03 9.15373E-04 9.63959E-03
 -1      1609 2.52509E-03-7.80353E-04 9.74574E-03
 -1      1610 1.46643E-03 2.49601E-04 2.12633E-03
 -1      1611 1.42552E-03 2.47439E-04 2.10914E-03
 -1      1612 3.64870E-03-1.17263E-03-5.48881E-03
 -1      1613 3.61412E-03-1.16086E-03-5.40917E-03
 -1      1614 4.96149E-04 1.37707E-04 2.12083E-03
 -1      1615 4.78995E-04 1.37671E-04 2.10203E-03
 -1      1616 1.38227E-04-2.49611E-04 8.94440E-03
 -1      1617 1.19088E-04-2.64290E-04 8.84818E-03
 -1      1618-1.67056E-04-1.42501E-04 6.73601E-03
 -1      1619 3.79871E-03 1.18005E-03-5.19541E-03
 -1      1620 3.76754E-03 1.16771E-03-5.13699E-03
 -1      1621 2.49841E-03-9.19314E-04 6.11444E-03
 -1      1622 2.44908E-03-9.06562E-04 6.05238E-03
 -1      1623 1.74944E-03-2.78139E-04 2.46000E-03
 -1      1624 1.72741E-03-2.78874E-04 2.42494E-03
 -1      1625 1.61540E-03-3.37283E-04-9.71914E-03
 -1      1626 1.58825E-03-3.13949E-04-9.59266E-03
 -1      1627 5.18879E-04-8.10800E-05-1.86528E-03
 -1      1628 5.02599E-04-9.22838E-05-1.84933E-03
 -1      1629 4.20260E-03 1.38597E-03-5.80861E-03
 -1      1630 3.40482E-03-4.05375E-04 2.41744E-03
 -1      1631 3.35424E-03-4.00276E-04 2.39516E-03
 -1      1632 1.82750E-04 2.44935E-04-8.11755E-03
 -1      1633 1.59849E-04 2.67553E-04-8.02695E-03
 -1      1634-4.95862E-05-8.10020E-05 3.30821E-03
 -1      1635 1.50679E-03-7.83817E-04-8.35584E-03
 -1      1636 1.48739E-03-7.82677E-04-8.24655E-03
 -1      1637 2.77087E-03-9.44756E-04-1.02806E-02
 -1      1638 1.25297E-03-2.68619E-04-9.77067E-03
 -1      1639 1.23753E-03-2.77065E-04-9.65710E-03
 -1      1640 9.05785E-04-5.83980E-04 8.93661E-03
 -1      1641 8.89194E-04-5.86629E-04 8.83750E-03
 -1      1642-1.89226E-04-1.23933E-04 8.10328E-03
 -1      1643 2.73876E-03 3.18953E-04-1.63474E-03
 -1      1644 2.70616E-03 3.19612E-04-1.61788E-03
 -1      1645 4.04152E-03-1.29590E-03-6.31626E-03
 -1      1646 1.79228E-03 2.27140E-04-1.63323E-03
 -1      1647 1.76300E-03 2.22877E-04-1.60198E-03
 -1      1648 5.00605E-03 8.59325E-04 2.54202E-03
 -1      1649 2.99636E-03-8.83267E-04-9.09980E-03
 -1      1650-1.16017E-04 1.50616E-04 4.84057E-03
 -1      1651-6.40059E-06-4.45584E-05-8.40296E-04
 -1      1652 2.66556E-03-1.25461E-03 8.78983E-03
 -1      1653 2.62754E-03-1.23443E-03 8.69152E-03
 -1      1654 4.09732E-03 1.46338E-03 6.49702E-03
 -1      1655 3.64404E-04-2.89511E-04 6.07555E-03
 -1      1656 3.49693E-04-2.93579E-04 6.00955E-03
 -1      1657 4.93538E-03-1.35481E-03-5.59386E-03
 -1      1658-3.33222E-05-2.15126E-04-8.31917E-03
 -1      1659-5.12277E-05-2.24349E-04-8.19399E-03
 -1      1660-1.98534E-04-1.80702E-04-7.79152E-03
 -1      1661 4.59535E-03-1.08835E-03-4.44359E-03
 -1      1662 7.15294E-04-4.83504E-04-8.34258E-03
 -1      1663 6.92733E-04-4.93461E-04-8.25403E-03
 -1      1664 4.68518E-03 1.12821E-03-4.23528E-03
 -1      1665-2.07562E-05-4.67951E-05 1.36943E-03
 -1      1666 2.73555E-03 1.23575E-03 1.08414E-02
 -1      1667 2.90496E-03-1.19828E-03 9.05061E-03
 -1      1668-7.54971E-05-1.11961E-04-4.55116E-03
 -1      1669 4.46686E-03-5.22298E-04 2.39902E-03
 -1      1670 4.41180E-03-5.15890E-04 2.36687E-03
 -1      1671 5.02730E-03-8.75882E-04 3.29204E-03
 -1      1672 2.14935E-03-8.32499E-04-5.55487E-03
 -1      1673 2.12750E-03-8.27698E-04-5.49883E-03
 -1      1674 2.32505E-03 3.43539E-04 9.99695E-03
 -1      1675-5.08384E-05 3.88374E-05-2.44084E-03
 -1      1676-4.48187E-04 1.34260E-04-1.55221E-02
 -1      1677-3.44311E-04 2.51708E-04-1.52074E-02
 -1      1678 5.88017E-04-1.19104E-04 2.40469E-03
 -1      1679 5.71637E-04-1.28215E-04 2.38854E-03
 -1      1680-1.42299E-04 1.49152E-04 5.28535E-03
 -1      1681 5.05414E-03 8.26077E-04-2.49583E-03
 -1      1682 1.86065E-03 8.42170E-04-8.11576E-03
 -1      1683 1.83635E-03 8.39205E-04-8.00117E-03
 -1      1684 2.95515E-03-1.10247E-03 9.64628E-03
 -1      1685 1.98670E-03-9.27288E-04-8.31360E-03
 -1      1686 1.96234E-03-9.20666E-04-8.21053E-03
 -1      1687 1.47085E-03-2.46285E-04 2.45478E-03
 -1      1688 1.44875E-03-2.48968E-04 2.42409E-03
 -1      1689-2.35812E-04 8.00957E-05-9.54184E-03
 -1      1690 3.54892E-03-1.41919E-03 7.97131E-03
 -1      1691 5.27826E-03-2.31523E-04 1.30540E-03
 -1      1692 9.56482E-04-3.46763E-04 1.04441E-02
 -1      1693 9.32614E-04-3.46329E-04 1.03269E-02
 -1      1694-2.42488E-04-1.09023E-05-9.60754E-03
 -1      1695 4.57912E-03 1.25686E-03 4.75705E-03
 -1      1696-2.76242E-04-8.49237E-05-9.26992E-03
 -1      1697-2.91296E-04 1.26843E-05 1.02006E-02
 -1      1698 5.23086E-03-8.41035E-04 2.90001E-03
 -1      1699 4.63623E-03-1.18162E-03 5.01138E-03
 -1      1700 4.07663E-03-1.43337E-03 6.61266E-03
 -1      1701 2.03544E-03-4.45653E-04-9.64505E-03
 -1      1702 2.00607E-03-4.03747E-04-9.51123E-03
 -1      1703-2.89165E-04 1.30805E-04 9.02810E-03
 -1      1704 2.87156E-03 9.17503E-04-5.27994E-03
 -1      1705 2.81734E-03 9.04030E-04-5.21977E-03
 -1      1706-9.06780E-06-1.58212E-04 1.03789E-02
 -1      1707-5.38076E-05-1.41084E-04 1.02918E-02
 -1      1708-3.19102E-04-9.55392E-05 9.88756E-03
 -1      1709 3.77872E-03-1.52384E-03-8.59917E-03
 -1      1710 3.54244E-03-1.27900E-03-7.36471E-03
 -1      1711 4.03858E-03-1.36564E-03-6.09800E-03
 -1      1712-1.78906E-04 1.52272E-04 6.46097E-03
 -1      1713 2.69753E-03-3.47403E-04 2.40301E-03
 -1      1714 2.75092E-03-3.51822E-04 2.43261E-03
 -1      1715 2.24312E-03 1.71830E-05 1.10106E-02
 -1      1716 6.96151E-04-5.20868E-04 8.91911E-03
 -1      1717 6.69424E-04-5.21666E-04 8.83445E-03
 -1      1718 3.10537E-03-1.15148E-03-8.20880E-03
 -1      1719 1.62212E-03-6.95334E-04-5.58393E-03
 -1      1720 1.60308E-03-6.97466E-04-5.51528E-03
 -1      1721 1.10116E-03-5.98528E-04-8.36336E-03
 -1      1722 1.08146E-03-6.09622E-04-8.26512E-03
 -1      1723-6.34385E-05 5.52131E-04 1.30577E-02
 -1      1724-2.23257E-04 4.94045E-04 1.36505E-02
 -1      1725 1.10615E-03 5.42789E-04 5.84986E-03
 -1      1726 1.08474E-03 5.53271E-04 5.80422E-03
 -1      1727 2.70661E-03-9.81575E-04-5.54589E-03
 -1      1728 2.68035E-03-9.67388E-04-5.48968E-03
 -1      1729 3.80102E-03-1.73315E-03 9.25366E-03
 -1      1730 1.48056E-04 3.00149E-04 8.69869E-03
 -1      1731 1.20277E-04 3.02772E-04 8.62010E-03
 -1      1732 2.13304E-04 5.52923E-04 9.34491E-03
 -1      1733 3.53573E-04 4.15198E-04 8.36164E-03
 -1      1734 5.01432E-04-2.42769E-04 1.04498E-02
 -1      1735 4.73459E-04-2.45123E-04 1.03389E-02
 -1      1736-2.21083E-04 1.66171E-04 7.88815E-03
 -1      1737 4.94254E-03 1.48546E-03 5.86008E-03
 -1      1738 1.56418E-03-8.32578E-04 8.90152E-03
 -1      1739 1.51793E-03-8.08459E-04 8.81236E-03
 -1      1740 3.33591E-03 1.19993E-03 5.78251E-03
 -1      1741 3.29596E-03 1.18583E-03 5.71939E-03
 -1      1742 1.46209E-03 1.90740E-04-1.59670E-03
 -1      1743 1.48079E-03 1.92359E-04-1.62371E-03
 -1      1744 1.64589E-03-4.12271E-04 1.03107E-02
 -1      1745 1.62625E-03-4.31374E-04 1.01909E-02
 -1      1746 8.54615E-04 6.64991E-04 8.72264E-03
 -1      1747 8.35582E-04 6.65237E-04 8.64296E-03
 -1      1748 2.05637E-03 2.99732E-04 2.11048E-03
 -1      1749 2.01764E-03 2.96540E-04 2.10737E-03
 -1      1750-9.56543E-06-4.96485E-04 1.34070E-02
 -1      1751-1.81968E-04-4.56546E-04 1.38720E-02
 -1      1752 1.62409E-03 7.70707E-04-8.10667E-03
 -1      1753 1.59232E-03 7.73888E-04-8.00828E-03
 -1      1754 4.53707E-04 2.74936E-04-5.24675E-03
 -1      1755 4.28827E-04 2.79483E-04-5.18933E-03
 -1      1756 2.06999E-03-2.95006E-04 2.44706E-03
 -1      1757 2.04397E-03-2.92092E-04 2.41830E-03
 -1      1758-6.67403E-05 8.34699E-05 3.03755E-03
 -1      1759 3.41969E-03-1.16061E-03 6.03507E-03
 -1      1760 3.35942E-03-1.14412E-03 5.96202E-03
 -1      1761 1.05661E-03 7.28622E-04 8.72633E-03
 -1      1762 1.03639E-03 7.32771E-04 8.64361E-03
 -1      1763 6.41869E-04 5.78803E-04 8.73766E-03
 -1      1764 6.25796E-04 5.77909E-04 8.64855E-03
 -1      1765-3.03141E-04 5.47825E-05 1.01253E-02
 -1      1766 2.95353E-03-1.15371E-03-8.04529E-03
 -1      1767 2.98679E-03-1.16749E-03-8.16620E-03
 -1      1768 4.08830E-03 1.23585E-03-5.17251E-03
 -1      1769 4.05549E-03 1.22339E-03-5.10431E-03
 -1      1770 3.32223E-03 4.83088E-04 2.11792E-03
 -1      1771 3.28065E-03 4.84855E-04 2.10049E-03
 -1      1772 2.97995E-03-1.31896E-03 8.82642E-03
 -1      1773-2.38381E-04-1.47106E-04-8.36056E-03
 -1      1774 2.70749E-03-6.27453E-04-9.11599E-03
 -1      1775 5.62943E-03-3.50258E-04 2.16005E-03
 -1      1776 1.96725E-03-1.00544E-03 8.89353E-03
 -1      1777 1.92051E-03-9.77840E-04 8.80128E-03
 -1      1778 3.06202E-03-9.31813E-04-8.68999E-03
 -1      1779-3.04045E-04-1.41851E-06 1.02084E-02
 -1      1780 1.41111E-03-3.12272E-04-9.62947E-03
 -1      1781 1.43374E-03-3.06307E-04-9.74543E-03
 -1      1782-1.45850E-04-1.48949E-04 6.34048E-03
 -1      1783 2.09142E-03 2.33985E-04-1.64059E-03
 -1      1784 2.06214E-03 2.32204E-04-1.60409E-03
 -1      1785-1.72960E-05-6.79183E-05-2.27523E-03
 -1      1786-1.42640E-04-8.00219E-05-9.74215E-03
 -1      1787-1.55082E-04-8.02660E-05-9.58890E-03
 -1      1788 4.54324E-03 1.21623E-03-4.63832E-03
 -1      1789 1.27445E-03 4.13646E-04-9.68813E-03
 -1      1790 1.25029E-03 4.07854E-04-9.56789E-03
 -1      1791 2.41432E-03 1.35860E-04-1.04787E-02
 -1      1792 4.46927E-03 4.88435E-04-1.58881E-03
 -1      1793 4.42259E-03 4.83927E-04-1.55632E-03
 -1      1794 1.10727E-03-5.43800E-04-5.58683E-03
 -1      1795 1.08681E-03-5.35396E-04-5.52908E-03
 -1      1796-4.64759E-04-1.42622E-04-1.55996E-02
 -1      1797-3.60931E-04-2.47828E-04-1.53572E-02
 -1      1798 6.69037E-04-2.77653E-04 1.04478E-02
 -1      1799 6.41292E-04-2.83336E-04 1.03453E-02
 -1      1800 5.51774E-03-2.79443E-04-1.69796E-03
 -1      1801 2.44789E-03-1.59821E-04-9.45499E-03
 -1      1802 5.02318E-03 1.30909E-03-5.31791E-03
 -1      1803 4.08825E-03 4.65464E-04-1.60348E-03
 -1      1804 4.04203E-03 4.60449E-04-1.57360E-03
 -1      1805 4.28567E-03 1.40659E-03-5.45625E-03
 -1      1806 5.92698E-04 1.01539E-04-2.20899E-03
 -1      1807 5.47988E-04 2.59072E-04-3.25081E-03
 -1      1808 2.05985E-03-5.31394E-04 1.02039E-02
 -1      1809 2.03079E-03-5.25743E-04 1.00809E-02
 -1      1810 4.90815E-04 2.84829E-04 1.03378E-02
 -1      1811 4.66777E-04 2.80457E-04 1.02349E-02
 -1      1812 2.36650E-04-7.03672E-05-1.85832E-03
 -1      1813 2.32073E-04-7.86033E-05-1.81856E-03
 -1      1814-9.03996E-06-5.49306E-05-1.31573E-03
 -1      1815 2.42508E-03 7.61721E-04 9.77318E-03
 -1      1816 2.38080E-03-6.72007E-04 9.86997E-03
 -1      1817 4.12336E-03-1.42392E-03 6.72104E-03
 -1      1818 7.41561E-04 5.04610E-04-8.05576E-03
 -1      1819 7.59833E-04 5.01674E-04-8.15186E-03
 -1      1820 3.34249E-03-1.41240E-03 8.26536E-03
 -1      1821-8.29052E-05 2.41011E-04 8.69870E-03
 -1      1822-1.14955E-04 2.41955E-04 8.59804E-03
 -1      1823 3.67389E-03 1.36738E-03-7.13657E-03
 -1      1824-7.34575E-05-1.20051E-04 5.06608E-03
 -1      1825 5.29467E-03 2.22403E-04-5.50025E-04
 -1      1826 1.47979E-03 4.44554E-04-9.67100E-03
 -1      1827 1.45753E-03 4.36663E-04-9.54691E-03
 -1      1828 4.20576E-03-1.42380E-03 6.22118E-03
 -1      1829-7.06945E-05 1.15819E-04-4.25081E-03
 -1      1830-3.31955E-04 7.87007E-05 1.00597E-02
 -1      1831 2.39440E-03 5.06544E-04 9.96307E-03
 -1      1832-2.40256E-04 1.65093E-04 8.20119E-03
 -1      1833 2.03575E-03 9.44674E-04-8.09435E-03
 -1      1834 2.02490E-03 9.40014E-04-7.99721E-03
 -1      1835-3.58066E-05 4.21500E-05 1.11846E-03
 -1      1836 4.00336E-03 1.37636E-03 5.72566E-03
 -1      1837 3.96686E-03 1.36638E-03 5.63732E-03
 -1      1838 4.24459E-03 1.48121E-03 5.95916E-03
 -1      1839 5.25078E-03-3.98169E-04 1.80483E-03
 -1      1840-2.78188E-04-6.21577E-05-9.41766E-03
 -1      1841 1.47841E-04 1.84988E-04-5.25349E-03
 -1      1842 1.43075E-04 1.96978E-04-5.17339E-03
 -1      1843 2.39068E-03 2.96536E-04 1.04884E-02
 -1      1844 4.23785E-03 1.44866E-03 6.09356E-03
 -1      1845-3.08373E-05-1.55335E-04 8.94673E-03
 -1      1846-3.71975E-05-1.70164E-04 8.81344E-03
 -1      1847 5.81581E-04 2.56641E-04-9.70462E-03
 -1      1848 5.60772E-04 2.68419E-04-9.59186E-03
 -1      1849 2.53348E-03 3.54176E-04-9.39244E-03
 -1      1850 2.19800E-03-3.94799E-04 1.00507E-02
 -1      1851 2.02264E-03 5.75437E-04-9.56652E-03
 -1      1852 2.00480E-03 5.56039E-04-9.42938E-03
 -1      1853 4.44340E-03 1.36355E-03 5.17300E-03
 -1      1854 2.80291E-03 1.20597E-03-7.96449E-03
 -1      1855 2.76635E-03 1.18417E-03-7.86602E-03
 -1      1856 1.71886E-03 5.27581E-04 1.02277E-02
 -1      1857 1.69256E-03 5.26893E-04 1.01073E-02
 -1      1858 7.50700E-04 3.19261E-04-9.70192E-03
 -1      1859 7.32165E-04 3.17720E-04-9.59139E-03
 -1      1860-9.92358E-05-1.25194E-04-4.98391E-03
 -1      1861-2.00549E-04-1.10267E-04 8.41803E-03
 -1      1862 2.40653E-03-1.00964E-03-8.26619E-03
 -1      1863 2.38860E-03-1.00735E-03-8.15922E-03
 -1      1864 4.08408E-04 2.61237E-04-9.58637E-03
 -1      1865 4.32545E-04 2.54661E-04-9.68589E-03
 -1      1866-8.36094E-05 1.09866E-04-4.69568E-03
 -1      1867-1.98957E-04 6.23168E-05-9.12218E-03
 -1      1868-2.79726E-04 1.52668E-04 8.75487E-03
 -1      1869 2.22108E-03-1.51234E-04 1.06321E-02
 -1      1870 3.08069E-03 1.06347E-03-8.87696E-03
 -1      1871 4.78815E-03-5.41135E-04 2.36039E-03
 -1      1872 4.85127E-03-5.50158E-04 2.38937E-03
 -1      1873 1.09771E-03 3.58157E-04-9.68959E-03
 -1      1874 1.07824E-03 3.68672E-04-9.57740E-03
 -1      1875-3.25181E-04-6.09291E-05 1.00287E-02
 -1      1876 5.03354E-03-6.04636E-04-2.28308E-03
 -1      1877 5.13712E-03-7.38527E-04-2.43932E-03
 -1      1878-2.13599E-04-9.29099E-05 8.95170E-03
 -1      1879 3.94359E-03-1.24023E-03-5.37954E-03
 -1      1880 3.97793E-03-1.25015E-03-5.45840E-03
 -1      1881 1.19605E-03 6.75983E-04-8.10971E-03
 -1      1882 1.16631E-03 6.67737E-04-8.01846E-03
 -1      1883 4.09097E-03-1.28663E-03 5.94420E-03
 -1      1884 4.03125E-03-1.27122E-03 5.87129E-03
 -1      1885 1.48492E-03 8.69778E-04 8.71357E-03
 -1      1886 1.44820E-03 8.51819E-04 8.61862E-03
 -1      1887 2.90816E-03-1.33693E-03 8.74818E-03
 -1      1888 2.86952E-03-1.31560E-03 8.64546E-03
 -1      1889-3.82481E-05 2.59332E-05-1.98831E-03
 -1      1890 1.52511E-05 1.83030E-04-8.10716E-03
 -1      1891-1.49940E-05 1.91891E-04-7.99125E-03
 -1      1892-1.68797E-04 1.22567E-04-7.59404E-03
 -1      1893 2.98996E-03-1.13532E-03 9.25355E-03
 -1      1894 8.82930E-04-1.68482E-04 2.43432E-03
 -1      1895 8.67179E-04-1.79856E-04 2.40981E-03
 -1      1896 1.16938E-03 4.47422E-04 1.03245E-02
 -1      1897 1.13754E-03 4.25372E-04 1.01991E-02
 -1      1898 2.52053E-03 1.93127E-04-1.03653E-02
 -1      1899 2.66393E-03 4.27516E-04 2.12610E-03
 -1      1900 2.63035E-03 4.22655E-04 2.09765E-03
 -1      1901 1.33438E-03 4.52153E-04 1.01809E-02
 -1      1902 1.35453E-03 4.66011E-04 1.03177E-02
 -1      1903 5.10442E-03-7.38006E-04 2.84917E-03
 -1      1904 4.50464E-03-1.27794E-03 5.40541E-03
 -1      1905-4.04090E-05-8.01401E-05 2.82807E-03
 -1      1906 2.84236E-03 1.15539E-03-1.01635E-02
 -1      1907 6.62638E-04 3.25701E-04 1.03364E-02
 -1      1908 6.27807E-04 3.27293E-04 1.02201E-02
 -1      1909 2.76406E-03 8.45675E-04-8.98889E-03
 -1      1910 3.93063E-03 1.64597E-03-8.41331E-03
 -1      1911-4.35099E-04-1.33827E-04 1.59745E-02
 -1      1912-4.13725E-04-2.39111E-04 1.57231E-02
 -1      1913 3.50438E-03 1.47169E-03 7.76726E-03
 -1      1914 2.66251E-03 1.31556E-03 8.59292E-03
 -1      1915 2.62529E-03 1.29260E-03 8.49191E-03
 -1      1916 3.77983E-03 1.78991E-03 8.96203E-03
 -1      1917 1.81497E-03 5.10662E-04-9.59620E-03
 -1      1918 1.79081E-03 4.99806E-04-9.47291E-03
 -1      1919 3.48274E-03 1.35206E-03-7.44869E-03
 -1      1920-2.65878E-05 4.98901E-05 1.58669E-03
 -1      1921-2.97783E-06 4.86373E-04-1.26830E-02
 -1      1922-1.70254E-04 4.64197E-04-1.32497E-02
 -1      1923 5.84065E-04-5.77922E-05-2.58355E-03
 -1      1924 5.22232E-04-2.49803E-04-3.60265E-03
 -1      1925 4.87826E-03 5.01982E-04-1.57354E-03
 -1      1926 4.81914E-03 4.97918E-04-1.54423E-03
 -1      1927 2.92950E-03 1.32387E-03 8.83473E-03
 -1      1928 5.28929E-03 3.31624E-04-1.01122E-03
 -1      1929 2.33268E-04-5.16428E-04 9.80560E-03
 -1      1930 3.98293E-04-4.56442E-04 8.87854E-03
 -1      1931 5.12430E-03 7.02758E-04-2.03241E-03
 -1      1932-1.03436E-04-1.48781E-04 5.52458E-03
 -1      1933 4.38698E-03 1.39722E-03-5.53977E-03
 -1      1934 3.15022E-03 1.30350E-03-8.03143E-03
 -1      1935 2.47138E-03 5.17716E-04-9.34989E-03
 -1      1936 2.39000E-03-1.18218E-03 8.84052E-03
 -1      1937 2.35765E-03-1.16129E-03 8.73722E-03
 -1      1938 5.47009E-03-4.68804E-04 2.25738E-03
 -1      1939 5.13185E-05-1.61716E-04 1.04173E-02
 -1      1940 2.08128E-05-1.55077E-04 1.03160E-02
 -1      1941 2.23440E-03 6.06677E-04-9.50934E-03
 -1      1942 2.21993E-03 5.92349E-04-9.37698E-03
 -1      1943-4.19106E-04 1.21257E-04 1.59305E-02
 -1      1944-3.82854E-04 2.88446E-04 1.56269E-02
 -1      1945 4.44780E-03-1.21610E-03-4.86887E-03
 -1      1946 5.24644E-03 6.77375E-04-1.83696E-03
 -1      1947-1.44667E-05-3.07030E-06-1.07013E-03
 -1      1948 4.73341E-03 1.35497E-03-5.28848E-03
 -1      1949-2.27436E-05-5.08307E-05 1.85412E-03
 -1      1950 3.27435E-03 1.46747E-03 8.09380E-03
 -1      1951 1.85368E-04-5.46742E-04-9.42074E-03
 -1      1952 3.56220E-04-4.65598E-04-8.42641E-03
 -1      1953-5.00576E-05-5.66959E-04-1.29430E-02
 -1      1954-1.84254E-04-4.87793E-04-1.35571E-02
 -1      1955 3.07325E-04 4.77444E-04-9.00759E-03
 -1      1956 4.01870E-04 4.42431E-04-8.08753E-03
 -1      1957 6.39286E-04-1.31942E-04 3.06246E-03
 -1      1958 5.58256E-04-2.74872E-04 4.07206E-03
 -1      1959 5.49434E-03 4.05357E-04-1.47257E-03
 -1      1960 2.58437E-03 7.44048E-04-9.14839E-03
 -1      1961 2.55907E-03 3.81769E-04-9.90522E-03
 -1      1962 5.63489E-04 1.12483E-04 2.47456E-03
 -1      1963 5.01357E-04 2.41461E-04 3.51491E-03
 -1      1964 3.02526E-03 1.32780E-03 8.91684E-03
 -1      1965-1.08647E-04 6.94856E-04 4.75332E-03
 -1      1966-3.38063E-04 1.14577E-05-1.60331E-04
 -1      1967 4.39675E-04-7.66138E-04 8.15971E-03
 -1      1968-4.20876E-04 7.05084E-05 2.36094E-04
 -1      1969-1.09056E-03-3.90086E-04-1.16268E-02
 -1      1970 1.11815E-03 5.70736E-04 1.11593E-02
 -1      1971 5.88286E-04 5.77365E-04-9.68590E-03
 -1      1972 7.08882E-04-5.76830E-04-1.21716E-02
 -1      1973 8.09350E-04 7.05640E-04 6.31590E-03
 -1      1974-3.63980E-04-3.48350E-04 2.44231E-03
 -1      1975-6.17102E-04-8.23451E-04-3.94342E-03
 -1      1976-1.20343E-04-7.40081E-04-3.87449E-03
 -1      1977-6.26974E-05-7.99813E-04-2.17419E-03
 -1      1978 1.76833E-04-2.74265E-04-1.21204E-03
 -1      1979 2.27059E-04 5.16646E-05-1.81671E-05
 -1      1980 2.18924E-04 2.69137E-04 1.22043E-03
 -1      1981 1.88595E-05 6.06132E-04 2.12630E-03
 -1      1982 4.87541E-04 3.53361E-04 2.39344E-03
 -1      1983-2.34276E-04 6.29447E-04 3.89577E-03
 -1      1984-1.14993E-03-6.43933E-04-5.05714E-03
 -1      1985-9.08180E-04-8.15349E-04-5.62283E-03
 -1      1986-8.97941E-04-3.68454E-05-5.30937E-03
 -1      1987-1.08539E-03 3.08783E-04-6.69846E-03
 -1      1988-1.23039E-03-2.68487E-04-6.73732E-03
 -1      1989-8.21975E-04 3.95297E-04-4.93658E-03
 -1      1990-6.18403E-04 6.99827E-04-5.59027E-03
 -1      1991-3.59732E-04 5.73097E-04-3.57060E-03
 -1      1992-6.90859E-04-6.57583E-04 5.54774E-03
 -1      1993-7.60642E-05 6.56206E-04-3.76797E-03
 -1      1994-1.84847E-05 6.12513E-04-2.22769E-03
 -1      1995-1.06463E-04 3.21316E-04-1.39153E-03
 -1      1996 2.51151E-04 3.12098E-04-1.42334E-03
 -1      1997-2.50932E-04 5.01639E-04-7.58319E-03
 -1      1998 2.33753E-04-6.64910E-06-4.03861E-07
 -1      1999 2.41165E-04-2.72605E-04 1.46138E-03
 -1      2000 2.92494E-05-5.57168E-04 2.18276E-03
 -1      2001-1.42920E-04-7.00106E-04 3.94797E-03
 -1      2002-6.11875E-04-8.79434E-04 4.28456E-03
 -1      2003-3.26875E-04 6.43299E-04-4.86981E-03
 -1      2004-1.26083E-03-6.85342E-04 5.07151E-03
 -1      2005-4.64355E-04 6.73817E-04 3.84025E-03
 -1      2006 6.98541E-04 4.60626E-04-4.09316E-03
 -1      2007-8.29296E-04 6.50136E-04 5.64001E-03
 -1      2008-1.26642E-03 6.62297E-04 5.22489E-03
 -1      2009-1.07429E-03-4.65886E-04 6.88802E-03
 -1      2010-1.28062E-03 3.43352E-04 6.45364E-03
 -1      2011 1.20911E-03 3.08464E-04-1.15962E-02
 -1      2012-9.22694E-04 4.54439E-05 5.06798E-03
 -1      2013 4.27922E-04 1.82860E-05 4.13427E-04
 -1      2014 2.27137E-04-6.60343E-04-6.29692E-03
 -1      2015 5.35005E-06-3.21952E-04 1.86543E-03
 -1      2016-1.66952E-04-4.66020E-04-2.53851E-03
 -1      2017-6.99996E-04 4.64887E-04 3.33071E-03
 -1      2018-6.76150E-04-8.41132E-04-1.19492E-02
 -1      2019 2.60618E-04-8.69833E-04-8.19496E-03
 -1      2020 3.58853E-05 4.65721E-04 1.19748E-03
 -1      2021-8.11878E-04-3.98403E-04-1.40882E-02
 -1      2022 1.01278E-04 7.42516E-04-7.82682E-03
 -1      2023 9.77124E-05 5.56434E-04-3.43352E-03
 -1      2024 3.68773E-04-4.84848E-04 3.43922E-03
 -1      2025 7.62286E-04-7.22409E-04 3.95839E-03
 -1      2026-2.16956E-03-2.58055E-04 5.76081E-03
 -1      2027 1.07037E-03-2.94257E-04-6.91973E-03
 -1      2028-9.30279E-04 4.82787E-04-7.39041E-03
 -1      2029 1.29326E-03 2.96621E-04-5.05677E-03
 -1      2030 1.03874E-03-2.63283E-04 1.12777E-02
 -1      2031-1.41068E-03-8.03128E-05-3.56304E-03
 -1      2032 1.18663E-04-4.39634E-04 2.58351E-03
 -1      2033 1.32182E-03 2.01087E-04 8.05442E-03
 -1      2034 3.51438E-05 3.00263E-04-9.62959E-04
 -1      2035 8.81889E-04-7.93583E-04 7.25658E-03
 -1      2036-1.51144E-05-2.32663E-04 7.80784E-04
 -1      2037 6.73339E-04-6.53826E-04 9.80252E-03
 -1      2038-7.47803E-04 1.74391E-04-3.56965E-03
 -1      2039 2.44795E-04-6.00202E-04 2.62558E-03
 -1      2040-5.75063E-04-7.60703E-04 6.35366E-03
 -1      2041 1.03910E-03 2.68504E-04 5.45562E-03
 -1      2042 1.21022E-05-2.85838E-04 8.71059E-04
 -1      2043 6.34656E-05-3.71924E-04-1.94524E-03
 -1      2044 1.42523E-03 1.11618E-04 7.19042E-03
 -1      2045-5.49931E-04 8.88305E-04-1.02289E-02
 -1      2046-2.37963E-03 3.09578E-04 9.98575E-03
 -1      2047 4.68861E-04-3.83176E-04 2.95021E-03
 -1      2048-5.18956E-04 6.80486E-04 4.89100E-03
 -1      2049-5.76589E-04 7.34760E-04 6.24496E-03
 -1      2050 2.84987E-04-7.49158E-04 5.13430E-03
 -1      2051-7.35518E-04-8.68669E-04 1.06429E-02
 -1      2052-4.38002E-04 7.41934E-04-5.84787E-03
 -1      2053 1.98541E-05-9.16577E-04-5.95637E-03
 -1      2054-5.96723E-04 7.77616E-04 1.18757E-02
 -1      2055-1.07092E-03 3.07602E-04 1.40457E-02
 -1      2056-4.80722E-04 4.34768E-04-2.62643E-03
 -1      2057-1.25865E-03 4.78615E-04 7.60691E-03
 -1      2058-4.36002E-04 3.83373E-04 2.44782E-03
 -1      2059-8.22887E-04 2.32614E-04-4.15460E-03
 -1      2060 1.71452E-04 6.75773E-04-2.42563E-03
 -1      2061-3.10111E-03 3.34960E-05-8.87618E-03
 -1      2062 9.26237E-04-6.08856E-04-6.00326E-03
 -1      2063-2.30907E-04 4.09586E-04 1.61510E-03
 -1      2064 3.55923E-04 6.08563E-05 6.55563E-04
 -1      2065-9.93620E-04 2.62511E-04 7.64441E-03
 -1      2066-4.49078E-04-4.17836E-04-3.10019E-03
 -1      2067-1.10238E-03 2.62658E-04-1.20388E-02
 -1      2068-8.64204E-04-2.59245E-04 1.55798E-02
 -1      2069 1.05961E-04 6.40979E-04-3.65827E-03
 -1      2070-2.64898E-04-6.59091E-04 5.47122E-03
 -1      2071-1.28518E-03 3.05553E-04 1.10988E-02
 -1      2072 1.49349E-04-4.56600E-04-2.41526E-03
 -1      2073 3.70976E-04-4.47102E-04-2.58762E-03
 -1      2074-1.39669E-03 1.86404E-04 3.68796E-03
 -1      2075 5.90155E-04 3.39906E-04-2.40408E-03
 -1      2076 5.59434E-06 2.44400E-04-1.36590E-03
 -1      2077 8.18051E-04-1.49058E-04 4.72573E-03
 -1      2078 5.80155E-04-2.44738E-04 3.27541E-03
 -1      2079-6.22311E-04 1.79099E-04 1.66484E-02
 -1      2080 1.02443E-05-5.48705E-04-4.82547E-03
 -1      2081 3.93400E-05 5.75802E-04 2.39064E-03
 -1      2082 6.81968E-04-1.88429E-04-3.23246E-03
 -1      2083-1.21446E-03-1.05999E-04-8.09276E-03
 -1      2084 3.12133E-04 9.50732E-04 7.41246E-03
 -1      2085 2.68275E-04-5.10448E-04-3.27910E-03
 -1      2086-3.07284E-05 7.56814E-05 1.05745E-04
 -1      2087-3.95895E-04-8.46349E-04-5.37730E-03
 -1      2088-6.96968E-04 3.09737E-04-3.33038E-03
 -1      2089-1.49661E-04 8.29281E-04 6.79062E-03
 -1      2090 3.49711E-04-3.48048E-04 2.08393E-03
 -1      2091 1.43999E-03-2.95681E-05-6.41152E-03
 -1      2092 1.05906E-05-8.22860E-04-3.93359E-03
 -1      2093-3.12301E-05-2.77931E-04-9.07810E-04
 -1      2094 7.15283E-04-6.32903E-04 6.29752E-03
 -1      2095 3.68606E-04 1.09867E-04-7.21492E-04
 -1      2096-3.40609E-04-1.60245E-04 1.02693E-03
 -1      2097 5.78006E-04-4.27916E-04-2.58864E-03
 -1      2098 5.70496E-04-7.16306E-04 6.17812E-03
 -1      2099 7.89167E-04-2.76941E-04-3.12576E-03
 -1      2100-8.46267E-04 5.19726E-04 7.37493E-03
 -1      2101 7.43701E-04 4.16185E-04 3.84480E-03
 -1      2102-3.37112E-04-5.19252E-04-2.20665E-03
 -1      2103 1.54883E-04 5.20484E-04-2.42903E-03
 -1      2104-8.65479E-05 1.01072E-04-9.45313E-05
 -1      2105-1.44093E-03 2.89631E-04-1.08144E-02
 -1      2106 2.78453E-04-4.02404E-04-2.27752E-03
 -1      2107 5.42337E-04-5.34325E-04 1.37578E-02
 -1      2108-5.82304E-04-3.62515E-04 3.08346E-03
 -1      2109 1.19431E-03-1.10422E-04-5.04012E-03
 -1      2110-1.03545E-03-2.11123E-04 1.23207E-02
 -1      2111 7.77209E-04 7.25635E-05 3.84768E-03
 -1      2112 6.21892E-04-5.61345E-04 3.02326E-03
 -1      2113 1.10673E-03-4.05893E-04 7.97506E-03
 -1      2114 1.20149E-04 1.16376E-04-3.50657E-04
 -1      2115-1.44165E-05 3.54125E-04 1.08221E-03
 -1      2116 3.57571E-04-1.37168E-04 1.65177E-02
 -1      2117-8.73251E-04-1.23524E-04 3.98507E-03
 -1      2118 9.65552E-04 5.32166E-04-6.87925E-03
 -1      2119-1.50991E-05-8.20882E-05-3.76501E-04
 -1      2120 8.86556E-04-3.31496E-04 3.55652E-03
 -1      2121-8.40561E-04 1.53858E-04 3.56012E-03
 -1      2122-7.37900E-04 1.91932E-04 3.42698E-03
 -1      2123-5.32489E-04 3.42934E-04-2.29775E-03
 -1      2124-1.00811E-03-5.01327E-04 7.70152E-03
 -1      2125 2.89147E-04-4.33021E-04 2.24405E-03
 -1      2126 1.36573E-03 3.31087E-04 9.58328E-03
 -1      2127-1.17279E-04-4.07654E-04 1.62508E-03
 -1      2128 8.34156E-05-8.33655E-04 7.36717E-03
 -1      2129 1.50844E-04-1.25113E-04 4.19750E-04
 -1      2130-5.41309E-04 1.18429E-04-2.38429E-03
 -1      2131-6.57082E-04-5.29485E-05 2.31417E-03
 -1      2132-1.01868E-04-9.98190E-05 3.09021E-04
 -1      2133-4.27392E-04-5.94611E-04 6.92095E-03
 -1      2134-3.28287E-03-1.88900E-04 7.73195E-03
 -1      2135-7.08258E-04-1.48405E-04-1.64363E-02
 -1      2136 5.09046E-05 3.31190E-04 1.37294E-03
 -1      2137-2.13721E-04 4.75465E-04 2.21488E-03
 -1      2138-2.87788E-03 1.18488E-04-3.38928E-03
 -1      2139 1.12238E-03-1.61528E-04 8.14663E-03
 -1      2140-1.97363E-04 4.00508E-04-2.17249E-03
 -1      2141-2.22083E-03-2.93200E-04 1.16701E-02
 -1      2142 7.86091E-04 5.54145E-05 3.62694E-03
 -1      2143-2.97550E-03-2.91787E-04 6.25149E-03
 -1      2144-1.57743E-04 2.85375E-04-1.56023E-03
 -1      2145-1.07195E-03-4.90126E-04 1.12916E-02
 -1      2146-7.19976E-04 4.57115E-04-7.09594E-03
 -1      2147 7.56166E-04 2.04390E-05-2.47581E-03
 -1      2148-3.29961E-05 1.85823E-04 5.07774E-04
 -1      2149-3.03608E-04 1.88740E-04 9.70778E-04
 -1      2150-6.99886E-04-4.67648E-04-3.54987E-03
 -1      2151 4.16248E-04 4.96091E-04 3.48743E-03
 -1      2152-8.48749E-04-4.06009E-04 3.23061E-03
 -1      2153-1.94023E-03 1.86242E-05 1.43230E-02
 -1      2154-1.21307E-03-1.60394E-04-4.51908E-03
 -1      2155-7.52701E-04-4.41665E-04-3.27605E-03
 -1      2156 4.68012E-04 1.75090E-04-2.70431E-03
 -1      2157-9.85250E-05 3.24370E-04 1.82300E-03
 -1      2158-1.67480E-03-1.65772E-04-1.41010E-03
 -1      2159-8.97225E-04-1.48648E-04 1.53269E-02
 -1      2160-1.13171E-03-6.77474E-05-3.30339E-04
 -1      2161-3.72687E-03-4.16503E-05-1.20928E-03
 -1      2162-3.59985E-03-2.35151E-04 4.00278E-03
 -1      2163 6.53899E-04 3.16673E-04 2.91900E-03
 -1      2164 1.08629E-04 7.03830E-04-5.83016E-03
 -1      2165-9.68702E-04 1.24688E-04-8.12224E-03
 -1      2166-1.74415E-04-2.66688E-04-1.55182E-03
 -1      2167 5.76400E-04 2.88340E-04 2.89600E-03
 -1      2168-5.85611E-04-5.09052E-04 2.61582E-03
 -1      2169 9.37877E-04 2.25159E-04 1.42838E-02
 -1      2170-2.01041E-03-2.56370E-04-1.28351E-02
 -1      2171 7.38491E-04 1.78348E-04-3.12688E-03
 -1      2172 9.62312E-04-6.62800E-04 1.10455E-02
 -1      2173 6.28541E-04 1.63240E-04-2.88685E-03
 -1      2174-3.74200E-04-9.18419E-05-4.52707E-04
 -1      2175-2.42599E-03-2.36022E-04-4.87126E-03
 -1      2176-1.25386E-03-5.09273E-04-1.08097E-02
 -1      2177 7.65833E-04 3.29681E-04 1.46967E-02
 -1      2178 1.16750E-03 4.36334E-04-7.76878E-03
 -1      2179 1.05778E-05-2.31293E-04-7.88779E-04
 -1      2180-2.35621E-05 1.10070E-04 4.95328E-04
 -1      2181 9.97693E-04 6.95723E-04 8.29630E-03
 -1      2182 9.62402E-05-3.48263E-04-1.42418E-03
 -1      2183 7.24738E-04-5.98976E-05-3.34541E-03
 -1      2184 5.23472E-05-2.93631E-04 8.57902E-04
 -1      2185-3.70774E-03-2.08510E-05 4.82550E-04
 -1      2186 9.35513E-06-4.77926E-04-1.59865E-03
 -1      2187 1.96218E-04 3.53158E-04-1.85385E-03
 -1      2188 8.63226E-04-3.57753E-04 1.31334E-02
 -1      2189-2.38616E-03-8.82728E-05 6.37101E-04
 -1      2190-9.38078E-04 7.26049E-04 9.31408E-03
 -1      2191 5.08974E-05 3.26805E-04-9.59106E-04
 -1      2192 2.27637E-04-6.72297E-05-8.66947E-04
 -1      2193-2.10958E-04-2.46568E-04-1.14791E-03
 -1      2194-2.96394E-03-3.30310E-04-7.80052E-03
 -1      2195 9.55213E-05 5.97016E-04 1.32405E-02
 -1      2196 5.39373E-04 6.10321E-04 1.21859E-02
 -1      2197 2.77192E-04-6.34934E-04-4.40080E-03
 -1      2198-5.03579E-04-7.51767E-04 1.34304E-02
 -1      2199 5.37390E-04-2.09137E-04 1.51395E-03
 -1      2200 4.78254E-04 4.63936E-04 2.36595E-03
 -1      2201-1.93757E-03 1.69572E-04-5.95544E-03
 -1      2202-2.38184E-04 1.50657E-04-8.77856E-04
 -1      2203 1.45534E-05-1.14712E-05 1.22788E-04
 -1      2204-2.44181E-03 1.10472E-04-3.03557E-03
 -1      2205-3.13916E-03-1.33460E-04 1.28507E-03
 -1      2206-1.27263E-03-1.95216E-04 4.68311E-03
 -1      2207 7.88036E-05-3.25873E-04 1.22146E-03
 -1      2208-1.61982E-03-1.98451E-04 1.47197E-02
 -1      2209 1.35569E-04 5.03682E-05 1.65534E-02
 -1      2210-3.80218E-04 4.59075E-04-4.46800E-03
 -1      2211 3.92303E-04-2.95842E-04 1.53827E-02
 -1      2212 5.62611E-04 5.19538E-04-3.07983E-03
 -1      2213 1.50002E-04 5.81009E-04 3.97254E-03
 -1      2214-1.43385E-03 1.89275E-04 1.44790E-02
 -1      2215 8.67655E-04-2.10002E-04-1.44565E-02
 -1      2216-8.12156E-04-7.66308E-05 1.67397E-02
 -1      2217 1.88188E-05 5.38725E-04 2.62848E-03
 -1      2218-2.74109E-03 1.92279E-04 1.03476E-02
 -1      2219-5.37765E-04-4.65144E-04-8.75079E-03
 -1      2220-2.46321E-03 2.42103E-04-1.02712E-02
 -1      2221-3.34832E-04-1.14155E-04 2.15498E-03
 -1      2222 3.48577E-04 1.27612E-05 2.67047E-04
 -1      2223-8.87734E-04-9.36013E-04-9.54018E-03
 -1      2224-2.36842E-04 4.31793E-04 3.39523E-03
 -1      2225 6.71804E-04-6.86628E-04 1.17615E-02
 -1      2226 6.19877E-04 5.19211E-04-1.33873E-02
 -1      2227 4.04528E-04-4.17304E-04-2.73711E-03
 -1      2228 3.37130E-04 2.67911E-05-1.69154E-03
 -1      2229-7.91083E-04 1.62004E-04 2.13092E-03
 -1      2230-1.90487E-03-3.09572E-06-1.44088E-02
 -1      2231-1.08644E-03-5.77704E-04 7.08791E-03
 -1      2232-1.51857E-03-1.32395E-04-1.49443E-02
 -1      2233-7.76672E-04 4.09831E-04 6.15161E-03
 -1      2234-4.64601E-05 4.91631E-04 1.50716E-02
 -1      2235 1.07920E-03 3.05157E-04 1.22514E-02
 -1      2236-2.95947E-04 6.71357E-04-1.27912E-02
 -1      2237 1.14509E-04 9.66083E-05-1.61757E-02
 -1      2238 2.61716E-04 7.35410E-04-8.82893E-03
 -1      2239-1.11102E-03-6.41304E-04-7.90636E-03
 -1      2240 1.29404E-03-7.45544E-05 1.20296E-02
 -1      2241-3.12381E-03-2.41847E-04-2.84526E-03
 -1      2242-1.36853E-03-2.23812E-04 1.39875E-02
 -1      2243-2.40943E-03-1.48578E-04 1.22714E-02
 -1      2244 2.69453E-04 7.77510E-04 2.68774E-03
 -1      2245 2.25379E-04 7.28875E-04-5.21760E-03
 -1      2246-3.70653E-03-6.68693E-05-2.98962E-03
 -1      2247-3.62212E-03 9.30902E-06 5.68888E-03
 -1      2248 1.51670E-04-7.89967E-05-1.62223E-02
 -1      2249-8.56964E-04 1.83440E-04-1.61670E-02
 -1      2250-3.36726E-03 2.15381E-04 6.12500E-03
 -1      2251 9.81642E-04 5.42022E-05-1.40204E-02
 -1      2252 6.32530E-04-9.90387E-06 1.54372E-02
 -1      2253-1.42584E-04-5.59410E-04 1.36756E-02
 -1      2254 3.16585E-04-7.60961E-04-1.03650E-02
 -1      2255-1.13752E-03 2.21914E-05-1.59590E-02
 -1      2256 7.05693E-04 1.92597E-04 2.65589E-03
 -1      2257-2.73688E-03-2.22920E-04-7.00688E-03
 -1      2258-2.47814E-03-2.74657E-04-1.00607E-02
 -1      2259-1.43667E-03-1.54606E-04 1.65285E-03
 -1      2260 1.08173E-03 3.93224E-04 3.77273E-03
 -1      2261-1.80200E-03-3.13743E-04-9.49438E-03
 -1      2262 1.79329E-04 7.91647E-04 6.71532E-03
 -1      2263 6.95462E-04-3.11727E-04 3.57728E-03
 -1      2264 7.73630E-04 5.94370E-04 7.04071E-03
 -1      2265 2.53503E-04 7.42776E-04 1.03434E-02
 -1      2266 6.52573E-04-2.22936E-04 1.45017E-02
 -1      2267 1.07258E-03-4.00769E-04-1.22603E-02
 -1      2268-4.18403E-04-2.43411E-05-1.64896E-02
 -1      2269-2.22715E-04 4.77454E-04-1.36266E-02
 -1      2270-1.48528E-03-3.18115E-04 1.16644E-02
 -1      2271-3.38605E-04-3.81547E-04 1.51145E-02
 -1      2272-3.34601E-04 4.99095E-04 5.03770E-03
 -1      2273-2.43602E-03 1.21629E-05 2.80679E-03
 -1      2274-3.15414E-04-1.73425E-04 2.42230E-03
 -1      2275-1.20099E-03 3.92283E-04-7.96130E-03
 -1      2276-3.64994E-04 7.35333E-04 1.32634E-02
 -1      2277-4.56373E-04 2.59058E-04 2.05957E-03
 -1      2278-8.24854E-04-4.24773E-04 8.30736E-03
 -1      2279-5.13853E-04-3.45320E-04 4.06962E-03
 -1      2280-7.03136E-04 3.05094E-05-7.78284E-04
 -1      2281-2.62822E-04-5.81538E-04 9.98694E-03
 -1      2282-2.40781E-03 8.08618E-05-1.16408E-02
 -1      2283-5.15618E-04-2.44891E-04-2.43619E-03
 -1      2284-1.48617E-04-4.06274E-04-1.53372E-02
 -1      2285-3.22240E-03 2.34181E-04-6.94327E-03
 -1      2286 4.37940E-04 7.95830E-04-6.65500E-03
 -1      2287 1.26401E-03-1.38533E-04-8.17496E-03
 -1      2288 2.80771E-04 1.74858E-05-5.16988E-03
 -1      2289 3.85001E-05 4.38849E-04-1.40245E-03
 -1      2290-2.77343E-03 2.27788E-04-7.04843E-03
 -1      2291-2.51794E-03 1.80444E-04-6.00406E-03
 -1      2292-2.73689E-03-5.72452E-05 1.06889E-02
 -1      2293-7.48686E-04 2.77215E-04-1.52149E-02
 -1      2294-5.27086E-04-6.90738E-04-6.65422E-03
 -1      2295 9.68885E-04-4.94612E-04-4.21691E-03
 -1      2296 7.38408E-04 6.79999E-04-6.82692E-03
 -1      2297-7.33515E-04-3.90154E-04 1.44570E-02
 -1      2298 6.92800E-04 6.04873E-04 1.00468E-02
 -1      2299-2.20435E-04-4.46656E-04 2.07727E-03
 -1      2300-7.43731E-05 7.41800E-04 7.15046E-03
 -1      2301 7.49586E-04 3.09381E-04-2.87780E-03
 -1      2302-3.26880E-04-2.11713E-04-1.54118E-03
 -1      2303-5.52951E-04 3.52463E-04-3.86205E-03
 -1      2304 5.59256E-05 2.61855E-04 1.63067E-02
 -1      2305 1.36672E-04 5.44525E-04 3.31602E-03
 -1      2306-5.68880E-06 6.32535E-04-1.05601E-02
 -1      2307 3.34785E-05 6.58109E-04-5.46726E-03
 -1      2308 3.58557E-04 7.78238E-04 2.56267E-03
 -1      2309-1.97871E-04 7.23592E-04 9.89940E-03
 -1      2310-1.04850E-03-1.50006E-05 8.34982E-03
 -1      2311 2.93675E-04 7.30384E-04-4.52106E-03
 -1      2312-2.39505E-03-3.14375E-04 8.68273E-03
 -1      2313-7.05382E-04-7.63334E-05-2.60205E-03
 -1      2314-2.46931E-03-1.63440E-04-1.13526E-02
 -1      2315-1.83654E-04 2.12680E-04-1.51894E-03
 -1      2316-5.66703E-04 1.04920E-05 1.69921E-02
 -1      2317-4.09317E-04-1.67030E-04 1.65180E-02
 -1      2318 2.44073E-04 5.77438E-04-1.30395E-02
 -1      2319-9.87429E-04-2.01965E-04 1.60874E-02
 -1      2320-3.73912E-04-6.13422E-04 1.20615E-02
 -1      2321-1.26285E-03 8.67901E-05-2.88904E-03
 -1      2322 2.93459E-04-3.28532E-05 4.30076E-03
 -1      2323 4.43815E-05-6.60344E-04 4.72673E-03
 -1      2324-8.91768E-04-1.43181E-04 9.82095E-04
 -1      2325-4.17318E-04 3.82898E-04-3.05930E-03
 -1      2326 3.05111E-04 6.54939E-04 8.82317E-03
 -1      2327 9.30989E-05-6.72659E-04 1.07922E-02
 -1      2328 1.05233E-03-4.73431E-04-9.91063E-03
 -1      2329 1.16356E-04-7.24087E-04 9.17940E-03
 -1      2330 3.98394E-04-3.93002E-04 1.92735E-03
 -1      2331-2.14611E-04 6.88734E-04 1.15494E-02
 -1      2332 7.31426E-04-6.65181E-04-1.01302E-02
 -1      2333 8.52561E-05 1.52828E-04-5.72502E-04
 -1      2334 4.79738E-04-2.30918E-04 2.07608E-03
 -1      2335-1.56527E-03-2.93187E-04-6.47885E-03
 -1      2336 1.25755E-03 1.65827E-04 8.15880E-03
 -1      2337-7.00282E-04-4.13580E-04 1.01435E-02
 -1      2338 5.14253E-04-2.39120E-04-2.81627E-03
 -1      2339-8.51461E-04-5.11330E-04 1.29599E-02
 -1      2340-8.20221E-04 4.53264E-04-1.10571E-02
 -1      2341 3.38675E-04-3.75334E-04-2.47685E-03
 -1      2342-2.74646E-03 1.95140E-04 5.66669E-03
 -1      2343-1.61989E-03-3.44031E-04 8.66818E-03
 -1      2344 1.33245E-03 2.10574E-04-8.75264E-03
 -1      2345-6.16143E-04 2.41374E-05-2.65578E-03
 -1      2346-4.22302E-04 2.03673E-04-2.63465E-03
 -1      2347 1.22452E-03-1.76954E-04-1.24601E-02
 -1      2348-3.67892E-04 3.07032E-04 1.59927E-02
 -1      2349-5.23791E-05-6.43378E-04-9.08958E-03
 -1      2350 2.81513E-04-5.94663E-04 1.20324E-02
 -1      2351 4.70667E-05-7.27203E-04 9.15167E-03
 -1      2352 5.25326E-04 2.34887E-04 2.48106E-03
 -1      2353-7.07732E-04-1.74252E-04 2.50635E-03
 -1      2354 9.65023E-04 6.81744E-04-1.01564E-02
 -1      2355-2.78646E-03-6.29260E-05-7.63943E-04
 -1      2356-1.43913E-03 1.03296E-04-1.50775E-02
 -1      2357 8.55640E-05-7.18286E-04 4.13392E-03
 -1      2358 1.84313E-06-1.49782E-04 5.52309E-04
 -1      2359-2.63175E-05-5.28307E-04-1.35959E-02
 -1      2360 1.51524E-04-7.44567E-04 5.00823E-03
 -1      2361-1.25766E-03 3.86196E-04 1.15255E-02
 -1      2362-4.15898E-04 6.23908E-04-6.51242E-03
 -1      2363-2.36910E-04 2.79642E-04-1.51520E-02
 -1      2364-5.87012E-04-5.22728E-05-5.35617E-04
 -1      2365-1.30894E-03 1.00034E-04 1.57663E-02
 -1      2366-1.73126E-04 3.41540E-04 1.53698E-03
 -1      2367-3.14531E-03 1.04503E-04 1.69587E-03
 -1      2368-9.72937E-05-6.06171E-04-1.57117E-03
 -1      2369-1.88270E-03-7.03977E-05-1.67147E-03
 -1      2370-1.53761E-03 1.85847E-04-1.33091E-02
 -1      2371 4.41944E-04 4.76384E-05-1.58394E-02
 -1      2372-7.58331E-05-5.67204E-04-7.70371E-03
 -1      2373 1.68290E-04-1.22765E-04-4.72480E-04
 -1      2374-1.17914E-04-5.12666E-04 3.08285E-03
 -1      2375-1.31548E-03 2.02888E-05-5.46531E-04
 -1      2376 3.83770E-05 1.68172E-04-5.46685E-04
 -1      2377-1.55273E-03-1.72653E-04-2.59503E-03
 -1      2378 7.79987E-04-5.53903E-05-1.48638E-02
 -1      2379 4.94654E-04-8.05232E-04-6.72428E-03
 -1      2380 5.81529E-04 5.66596E-04 1.35543E-02
 -1      2381-7.50202E-04 4.76087E-04 1.31332E-02
 -1      2382 1.00439E-03 3.65476E-04-1.16877E-02
 -1      2383-1.91158E-03 2.33404E-04-1.10220E-02
 -1      2384-5.21992E-04-5.14876E-04 8.65499E-03
 -1      2385-4.90109E-04-1.41147E-04 9.17469E-04
 -1      2386-2.68988E-03-2.34051E-04 3.70942E-03
 -1      2387-3.50248E-03 6.59914E-05-2.11333E-03
 -1      2388-2.18974E-03 2.08858E-04 1.28204E-02
 -1      2389 7.12205E-04 1.53678E-04-1.45230E-02
 -1      2390-1.45626E-03-4.64382E-05 1.58751E-02
 -1      2391-3.32760E-04 5.46760E-04-1.17409E-02
 -1      2392 4.02823E-04 9.03793E-04 4.91329E-03
 -1      2393 4.18005E-04 3.89809E-04-2.23561E-03
 -1      2394-1.66564E-04 5.17599E-04-2.79290E-03
 -1      2395-8.46912E-04-3.83450E-04 6.06074E-03
 -1      2396-2.66942E-03 3.37425E-04 9.43681E-03
 -1      2397-8.28183E-04 4.71634E-04-6.23737E-03
 -1      2398-8.84517E-04 2.56357E-04 4.18448E-03
 -1      2399-2.69759E-04 4.19137E-04 1.46384E-02
 -1      2400 1.37189E-04 8.13361E-04 8.41240E-03
 -1      2401 8.76016E-04-8.15248E-04-6.88771E-03
 -1      2402 1.10272E-04 2.90095E-04 1.22477E-03
 -1      2403-1.98144E-03 2.58505E-04-8.70693E-03
 -1      2404-6.64201E-04-2.91111E-04-1.58229E-02
 -1      2405-6.17631E-04 5.68172E-04 8.90866E-03
 -1      2406-2.71889E-03-3.78889E-04 9.57498E-03
 -1      2407-3.72637E-03-7.63534E-05 2.06991E-03
 -1      2408-1.75474E-03 9.92611E-06 8.58460E-04
 -1      2409-1.13404E-03 2.56238E-04-4.81498E-03
 -1      2410-5.79246E-04 4.80349E-04-8.78533E-03
 -1      2411 1.10724E-03-2.20767E-04-9.22947E-03
 -1      2412-1.70428E-03-2.48194E-04 4.15378E-03
 -1      2413 5.21208E-05 7.24533E-04-8.47323E-03
 -1      2414 3.41252E-04-5.63043E-04-4.55035E-03
 -1      2415-1.41539E-03-3.39700E-04-1.27517E-02
 -1      2416-7.14511E-04-3.87406E-04-1.37648E-02
 -1      2417-8.31228E-04 2.37564E-04-1.51927E-02
 -1      2418-1.09263E-03 1.18622E-04 2.01203E-03
 -1      2419-5.15495E-04 3.34862E-04 3.82669E-03
 -1      2420 4.14861E-04 2.94090E-04-1.54621E-02
 -1      2421-1.55007E-03 3.17461E-04-8.37371E-03
 -1      2422-5.70677E-04-5.44527E-04-1.23644E-02
 -1      2423-9.18347E-04-2.87352E-04-1.52316E-02
 -1      2424 6.17447E-04-5.07585E-04-1.42505E-02
 -1      2425-2.70740E-04 1.63476E-04-1.59942E-02
 -1      2426 1.73302E-04-2.77503E-04-1.60722E-02
 -1      2427-4.41492E-04-3.08816E-04-4.05959E-03
 -1      2428 1.39871E-04-5.11153E-04-1.42565E-02
 -1      2429-2.10597E-03-2.19809E-04 3.07702E-03
 -1      2430 6.53017E-04-3.78468E-04-4.45702E-03
 -1      2431-1.16012E-03-3.36425E-04 1.34303E-02
 -1      2432 5.75373E-05-6.67746E-04-1.21582E-02
 -1      2433-1.61382E-04-3.69252E-04 1.32160E-03
 -1      2434 5.02960E-04-7.91863E-04-4.64167E-03
 -1      2435 9.26298E-04-7.21843E-04-9.01558E-03
 -1      2436 2.70270E-04 5.72286E-04 1.74083E-03
 -1      2437 4.88555E-04 6.99312E-04-9.90544E-03
 -1      2438 2.60342E-04 7.73998E-04 4.81865E-03
 -1      2439 5.32676E-04 2.71855E-04 1.52852E-02
 -1      2440-2.08297E-03-1.37015E-04-1.36716E-02
 -1      2441-3.08346E-03-1.95899E-04-8.76945E-03
 -1      2442-1.01628E-03 3.15736E-04 1.37815E-02
 -1      2443-2.24195E-04-6.80276E-05 1.66912E-02
 -1      2444-9.53772E-04-1.88255E-04 3.16303E-03
 -1      2445-9.45590E-04-2.01392E-04-2.64578E-03
 -1      2446-1.72509E-03 1.76853E-04 7.28504E-03
 -1      2447-9.50378E-04 3.25377E-04-1.29914E-02
 -1      2448 4.17019E-04 9.47006E-04 3.46878E-03
 -1      2449 1.27396E-03 1.71138E-04 1.16256E-02
 -1      2450-1.20574E-03 2.96461E-04 6.22948E-03
 -1      2451-4.96478E-04 4.03583E-04 2.27223E-03
 -1      2452-1.10526E-03-3.63622E-04-7.56044E-03
 -1      2453-1.36149E-03-3.04865E-04-9.21217E-03
 -1      2454-2.04811E-03-2.20552E-04-6.92829E-03
 -1      2455 3.92478E-04-6.26041E-04-1.22545E-02
 -1      2456 9.92531E-04-3.01914E-04-1.22304E-02
 -1      2457 1.47915E-03-1.92685E-05-1.12930E-02
 -1      2458-1.97171E-03 9.97147E-05-1.35430E-02
 -1      2459-1.79778E-05 1.74043E-04 5.53870E-04
 -1      2460-1.70949E-05-7.32524E-04 7.39813E-03
 -1      2461-6.40546E-04 3.40562E-04-1.45334E-02
 -1      2462-4.45219E-04-3.77498E-04-1.46890E-02
 -1      2463-6.21613E-05 1.07735E-04-3.30766E-04
 -1      2464-8.94854E-04-2.11581E-06-9.56363E-05
 -1      2465-1.85007E-03 1.53457E-04 4.00725E-03
 -1      2466-6.96983E-04 5.28794E-04 1.10436E-02
 -1      2467-1.19154E-03 3.79615E-04 9.10406E-03
 -1      2468-3.49194E-04-5.16215E-04-5.98518E-03
 -1      2469 4.63719E-05 7.75047E-04 9.80874E-03
 -1      2470-1.48542E-03 2.55946E-04-5.60672E-03
 -1      2471-1.94318E-03 2.55272E-04 1.25841E-02
 -1      2472-2.67902E-04-2.78157E-04-1.79215E-03
 -1      2473-7.86117E-04-2.59573E-04-4.18146E-03
 -1      2474 2.47435E-04-7.23642E-04-8.56808E-03
 -1      2475-2.00382E-03-3.13345E-04-1.10102E-02
 -1      2476-4.78523E-04-3.01514E-04-1.61444E-02
 -1      2477-4.46834E-04-3.88951E-04-2.72865E-03
 -1      2478-2.20911E-03 1.84425E-04 6.31794E-03
 -1      2479-1.71789E-03 2.92241E-04 1.07207E-02
 -1      2480-7.44936E-04-4.16918E-04-1.04162E-02
 -1      2481 5.33555E-06 5.34647E-04-1.20238E-02
 -1      2482-8.69148E-04 2.41193E-04 1.54510E-02
 -1      2483-1.93734E-03-2.28388E-04-4.29861E-03
 -1      2484-7.56752E-04-4.55136E-04-6.75629E-03
 -1      2485-1.76031E-03 1.24147E-04-3.76657E-03
 -1      2486-2.68083E-04-6.20792E-04-1.06901E-02
 -1      2487-3.59592E-03-1.48333E-04 1.14361E-03
 -1      2488-1.77383E-03-2.85240E-04 9.28279E-03
 -1      2489 1.36518E-03 4.01254E-04 3.98962E-03
 -1      2490 2.36007E-03 1.02693E-03 7.24781E-03
 -1      2491-3.60717E-03-1.13417E-04-4.48403E-03
 -1      2492 2.38973E-03-9.18505E-04-6.89626E-03
 -1      2493 1.39047E-03-3.73168E-04 4.24965E-03
 -1      2494 2.68070E-03-6.34677E-04 4.29606E-03
 -1      2495 1.23580E-03-6.16901E-04-6.88852E-03
 -1      2496 1.89278E-03-7.33576E-04-6.49114E-03
 -1      2497-9.21149E-05 4.65747E-04 1.26129E-02
 -1      2498-1.83627E-03 1.40020E-04 1.46311E-02
 -1      2499 5.78968E-04-3.88918E-04-9.00999E-03
 -1      2500-9.67004E-04-2.35378E-04-1.57685E-02
 -1      2501 3.26872E-04 5.54374E-05 5.02326E-03
 -1      2502-3.62829E-03-1.95969E-05-5.29455E-03
 -1      2503 2.24979E-04 4.14340E-04 8.31948E-03
 -1      2504-2.34164E-03-8.74169E-05-2.01465E-03
 -1      2505 1.59418E-03-4.16102E-04-3.76649E-03
 -1      2506 2.62377E-03 6.84495E-04 4.00206E-03
 -1      2507-1.85435E-03-2.23386E-04 7.57599E-03
 -1      2508 1.25150E-03 6.00239E-04-6.72858E-03
 -1      2509 9.39247E-04 6.13744E-04 7.28354E-03
 -1      2510 1.08824E-03 7.43478E-04 1.19315E-02
 -1      2511-3.58366E-03 7.77330E-05 2.46864E-03
 -1      2512 1.79933E-03-1.03342E-03-9.69284E-03
 -1      2513 1.91158E-03 5.98823E-04 4.62855E-03
 -1      2514-3.64621E-03 3.84196E-05-4.32480E-03
 -1      2515 1.65205E-03 4.54629E-04-3.44012E-03
 -1      2516-2.06228E-04-2.87676E-04 1.58800E-02
 -1      2517 1.80251E-03 6.97520E-04-8.87794E-03
 -1      2518 3.29691E-03 7.68486E-05 1.23348E-04
 -1      2519 5.14924E-04 3.93260E-04-7.02863E-03
 -1      2520-3.28557E-03 6.66179E-05 8.77899E-03
 -1      2521 2.90648E-03 1.18220E-03 7.69246E-03
 -1      2522-3.16316E-03 1.46452E-04-7.93381E-03
 -1      2523 2.02601E-03 5.01281E-04 3.64912E-03
 -1      2524 2.59891E-03-5.86288E-04 3.56911E-03
 -1      2525-1.29474E-03-2.49426E-04-1.46657E-02
 -1      2526 2.09041E-03-4.30228E-04 3.64006E-03
 -1      2527 1.77299E-03-7.62145E-04-7.50507E-03
 -1      2528 1.46910E-03-6.18314E-04 9.69251E-03
 -1      2529 2.77703E-03-2.33411E-05 3.66323E-04
 -1      2530 2.81764E-03 6.66218E-04-3.71563E-03
 -1      2531 2.72879E-03 6.33334E-04-2.93504E-03
 -1      2532-3.22044E-03 1.96642E-04 4.51956E-03
 -1      2533 1.45669E-03-5.67705E-04-9.06826E-03
 -1      2534 1.56123E-03 8.12884E-04 7.60149E-03
 -1      2535 7.60439E-04-5.01330E-04 7.50319E-03
 -1      2536 1.69751E-03 8.47777E-04 9.99064E-03
 -1      2537 2.92998E-04 3.44957E-05-9.69850E-03
 -1      2538 7.70779E-04-8.80696E-06-9.74332E-03
 -1      2539-3.40157E-03 1.43304E-04-4.75518E-03
 -1      2540 1.40490E-03-7.21459E-04 7.38404E-03
 -1      2541 4.36520E-04 3.51278E-04-6.12660E-03
 -1      2542 1.29727E-03-5.27895E-05 3.65949E-04
 -1      2543-1.55444E-03 2.88799E-04 1.33361E-02
 -1      2544 2.63120E-03 8.70868E-04 6.21996E-03
 -1      2545 4.85482E-04-1.77383E-04-2.90916E-03
 -1      2546-1.49999E-03 2.51994E-04-1.22751E-02
 -1      2547-2.67662E-03 1.01108E-04-1.00421E-02
 -1      2548-1.77134E-03-3.13714E-04 1.24061E-02
 -1      2549 1.29023E-03 5.97118E-04 9.53604E-03
 -1      2550 4.69533E-04-4.01422E-04-7.28019E-03
 -1      2551 2.47584E-03 7.66099E-04 4.87006E-03
 -1      2552-4.14830E-04 2.04483E-04 1.48310E-02
 -1      2553 3.99301E-03 2.91605E-05 7.25811E-05
 -1      2554 3.67667E-03-6.81505E-04 3.19810E-03
 -1      2555-2.13884E-03 1.69417E-04-1.22512E-02
 -1      2556 8.15211E-04-4.85633E-06 1.22934E-02
 -1      2557 1.99143E-03 9.14509E-04 7.86681E-03
 -1      2558-1.34970E-03-3.15719E-04 1.33268E-02
 -1      2559 1.89334E-03 1.03602E-03 7.85724E-03
 -1      2560 3.11961E-03 1.27425E-03 6.76936E-03
 -1      2561 1.78602E-03-8.08152E-04 9.26006E-03
 -1      2562 1.22310E-03-6.08474E-04-1.04255E-02
 -1      2563 2.51636E-04 6.55994E-05-5.30999E-03
 -1      2564 1.00210E-03-3.69381E-04-9.29520E-03
 -1      2565 2.71735E-03-6.09909E-04-3.96795E-03
 -1      2566 2.59048E-03-8.23068E-04-6.04905E-03
 -1      2567 2.38564E-03 4.68282E-04-2.84072E-03
 -1      2568 3.26646E-03 5.85209E-04-2.65179E-03
 -1      2569 2.48652E-03-1.12445E-03-8.93129E-03
 -1      2570 3.08833E-04-2.37355E-05-4.11327E-03
 -1      2571 1.51954E-03 8.14883E-04 8.12240E-03
 -1      2572 2.06309E-03 6.84413E-04 5.14293E-03
 -1      2573 1.83801E-03 6.76323E-04 5.91539E-03
 -1      2574-3.67502E-03-1.13164E-04-2.57724E-03
 -1      2575-1.91727E-03-2.40664E-04-1.38471E-02
 -1      2576 4.44501E-04 3.77899E-04-8.86083E-03
 -1      2577 2.68141E-04-2.90532E-04 9.37355E-03
 -1      2578-2.15741E-03 1.30141E-04 4.65275E-03
 -1      2579 8.56032E-04-5.35136E-04-7.61093E-03
 -1      2580 1.21013E-03 1.41127E-05 1.03257E-02
 -1      2581 2.91541E-03-1.07928E-03-7.33005E-03
 -1      2582 3.49848E-03 6.33325E-04-2.44461E-03
 -1      2583 3.18734E-03-1.10672E-03-6.47097E-03
 -1      2584-3.22650E-03-2.45793E-04 3.74258E-03
 -1      2585-2.00757E-03-1.00092E-04-1.65414E-03
 -1      2586 9.72911E-05-8.18178E-05 7.23823E-03
 -1      2587 1.97942E-03-5.34700E-04 4.59836E-03
 -1      2588 2.04390E-03-1.15590E-03 9.80802E-03
 -1      2589 1.93779E-03 7.54955E-04 9.55240E-03
 -1      2590 1.81874E-03 8.34772E-04 9.20225E-03
 -1      2591-1.83005E-03 9.50136E-05-1.43943E-02
 -1      2592 5.23564E-04-2.89141E-04-9.39090E-03
 -1      2593 4.00860E-04-6.04387E-05-9.74689E-03
 -1      2594 1.90868E-03 1.07426E-03-9.47083E-03
 -1      2595 4.21388E-03-8.01426E-05-5.84918E-04
 -1      2596 1.07044E-03-4.66931E-04-8.90969E-03
 -1      2597 2.09230E-03 5.40007E-04-4.13348E-03
 -1      2598 4.79439E-04-1.82074E-04 3.36879E-03
 -1      2599-1.36314E-03-1.48551E-04 1.56347E-02
 -1      2600-3.20289E-03-2.68885E-04-5.37242E-03
 -1      2601-1.12710E-03 1.31925E-04-1.58949E-02
 -1      2602 1.88768E-03-8.61708E-04 7.47201E-03
 -1      2603-1.71277E-03-1.40776E-04-3.84220E-03
 -1      2604 2.68292E-04-5.00615E-04-8.27273E-03
 -1      2605-1.58203E-03 3.02211E-04-9.20806E-03
 -1      2606 9.58302E-05 2.06774E-04-9.10432E-03
 -1      2607 2.73161E-03-5.05279E-04 3.38344E-03
 -1      2608-1.74844E-03-8.26287E-05 1.37818E-03
 -1      2609-2.46159E-03-2.08425E-04 2.80268E-03
 -1      2610 1.43915E-04 1.26279E-04-5.81292E-03
 -1      2611 7.42088E-04 5.54211E-04 9.25472E-03
 -1      2612-1.55687E-03 3.40708E-04 9.60940E-03
 -1      2613-1.72901E-03-2.71649E-04-8.50052E-03
 -1      2614-2.39895E-03-2.67359E-04-7.63646E-03
 -1      2615-1.98608E-03 1.43996E-05 1.18564E-03
 -1      2616-1.42518E-04-4.22635E-04 1.27578E-02
 -1      2617-2.17880E-03-2.80347E-04-1.16190E-02
 -1      2618-2.30985E-03 2.08939E-04 8.70074E-03
 -1      2619 8.18090E-04 3.23084E-04-3.84175E-03
 -1      2620 2.50967E-03 9.54991E-04-8.46225E-03
 -1      2621 2.32015E-03 9.24709E-04-6.65212E-03
 -1      2622 4.02112E-03-2.63224E-04-1.29002E-03
 -1      2623 1.21250E-03 7.58608E-04-1.05665E-02
 -1      2624 7.44546E-04-2.85239E-04-9.50442E-03
 -1      2625 6.23704E-04-2.85032E-05-5.37633E-04
 -1      2626 2.27620E-04-4.06761E-05-3.78727E-03
 -1      2627 7.02020E-04-1.45516E-04-9.71288E-03
 -1      2628 1.41837E-04-2.32025E-04-9.15009E-03
 -1      2629 4.22868E-03 2.06288E-04 7.00024E-04
 -1      2630 3.19338E-03 7.31556E-04 3.01524E-03
 -1      2631 2.36098E-03 7.14987E-04-4.64270E-03
 -1      2632 9.20485E-04 6.82226E-05-1.17203E-02
 -1      2633 3.49220E-03-1.17006E-04 1.07988E-03
 -1      2634 1.78086E-03 1.11530E-03 9.80647E-03
 -1      2635 1.92946E-03 7.65347E-04-6.19552E-03
 -1      2636 2.79435E-03-1.12396E-03 7.20509E-03
 -1      2637 1.59383E-03-7.48445E-04-7.12478E-03
 -1      2638 2.01762E-03-5.39709E-04-4.42272E-03
 -1      2639 9.29776E-04 5.27941E-04-7.32807E-03
 -1      2640 1.88096E-03 3.99179E-04 2.80225E-03
 -1      2641 1.96924E-03 8.69321E-04-7.00055E-03
 -1      2642 4.47490E-04 3.54137E-04 6.65227E-03
 -1      2643 4.90292E-04 5.51038E-05 1.03698E-02
 -1      2644 2.93590E-03-1.12532E-04 1.96417E-03
 -1      2645 8.88476E-04-5.08976E-04 9.51850E-03
 -1      2646 2.40574E-04-2.98188E-04-8.69456E-03
 -1      2647 7.64058E-04-4.84586E-04-8.66184E-03
 -1      2648 1.13512E-05-2.24032E-04-8.49567E-03
 -1      2649-2.19416E-03-2.91706E-04 7.77372E-03
 -1      2650 1.75971E-03 1.24920E-04 1.02266E-02
 -1      2651-3.14122E-03-3.13631E-04 6.02044E-03
 -1      2652 5.87416E-04-2.73837E-04 4.85463E-03
 -1      2653 3.31461E-03 4.95466E-04-2.06793E-03
 -1      2654 2.08651E-03-1.29273E-04 2.05625E-03
 -1      2655 2.57678E-03-5.81754E-04-3.08604E-03
 -1      2656 5.46218E-04-3.69459E-04-9.60911E-03
 -1      2657 1.17117E-03 7.60195E-04-8.71449E-03
 -1      2658 6.64672E-04 2.42557E-04 3.30386E-03
 -1      2659 3.16504E-03 1.23543E-03 6.17846E-03
 -1      2660 2.89920E-03 8.19364E-04-5.61791E-03
 -1      2661-2.03683E-03-1.08489E-04-2.70867E-03
 -1      2662 2.02873E-03 9.32168E-06-3.43065E-04
 -1      2663 6.45931E-04 2.63044E-04 4.48782E-03
 -1      2664 2.52982E-03 1.06370E-03 6.49717E-03
 -1      2665 2.93777E-03-4.65934E-05-1.54338E-03
 -1      2666 1.83644E-04-2.94575E-04-7.61156E-03
 -1      2667 1.20094E-03-7.53485E-04 1.09192E-02
 -1      2668 3.80605E-03 8.48420E-04-3.94612E-03
 -1      2669 6.61726E-04-5.69467E-05 1.28219E-03
 -1      2670 2.64316E-03 1.13651E-03 7.01072E-03
 -1      2671 2.86132E-04-3.16241E-04 8.06164E-03
 -1      2672 6.93456E-04 1.49377E-04-9.68663E-03
 -1      2673-2.84257E-03-2.36012E-04 1.01108E-02
 -1      2674 3.83064E-03-7.31403E-04 3.83080E-03
 -1      2675 2.39420E-03-7.44611E-04-4.75704E-03
 -1      2676 1.71235E-03 3.43630E-04 1.01875E-02
 -1      2677 1.90151E-03-1.58366E-04 1.02204E-02
 -1      2678 6.37878E-04-2.68335E-04 3.70694E-03
 -1      2679 5.13468E-03 1.22106E-03 4.42082E-03
 -1      2680 5.43007E-03 3.37854E-04 1.21812E-03
 -1      2681 3.12829E-03-9.22448E-04 6.26522E-03
 -1      2682 7.74914E-04-6.03318E-04 1.16500E-02
 -1      2683 1.87188E-03 8.71022E-04 6.90996E-03
 -1      2684 1.27455E-03 3.50978E-04 3.11498E-03
 -1      2685 3.68856E-03-8.28145E-04-4.14067E-03
 -1      2686-3.45984E-03-2.88322E-06-3.19371E-04
 -1      2687 1.63925E-03-6.04439E-04-5.72756E-03
 -1      2688 1.37956E-03-4.81452E-04 5.13003E-03
 -1      2689-1.56467E-03-3.25919E-05-1.49827E-02
 -1      2690-3.81814E-04-1.29647E-04 1.49367E-02
 -1      2691 3.37506E-03 1.07609E-03 5.89798E-03
 -1      2692 1.78901E-03-5.93041E-04 5.36424E-03
 -1      2693 5.14803E-04-4.24532E-04-7.75078E-03
 -1      2694 2.09414E-03-8.25030E-04 9.61098E-03
 -1      2695 9.73470E-04-1.62303E-04 1.03621E-02
 -1      2696 3.60050E-03 9.30298E-04 4.34650E-03
 -1      2697-3.39490E-03-2.60565E-04-5.72827E-03
 -1      2698 1.24880E-03-5.77154E-04 6.78342E-03
 -1      2699 3.12973E-04-3.43798E-04 6.83632E-03
 -1      2700 5.70442E-03-5.84294E-06 4.08265E-04
 -1      2701 4.22488E-05-2.16180E-04 9.84918E-03
 -1      2702 4.65050E-03-2.21212E-04-1.11806E-03
 -1      2703 3.29662E-03-9.76360E-04-5.68095E-03
 -1      2704 2.32295E-03-9.01128E-04-7.56070E-03
 -1      2705 4.02775E-05-5.85052E-06 1.03342E-02
 -1      2706 1.38389E-03-6.46091E-04 7.03587E-03
 -1      2707 2.41092E-03-7.20895E-05-1.51463E-03
 -1      2708 2.88735E-03 7.55044E-05-1.13838E-03
 -1      2709 2.42665E-03 9.21793E-04-6.01268E-03
 -1      2710 2.89869E-03 1.07877E-03-6.42006E-03
 -1      2711 1.48086E-03-6.50400E-04-8.65157E-03
 -1      2712 1.30341E-03 4.77445E-04 4.91663E-03
 -1      2713 1.38525E-03-6.45312E-04-6.26625E-03
 -1      2714 4.93130E-04-3.75046E-04-6.31505E-03
 -1      2715 2.30235E-04-2.73164E-04-5.96918E-03
 -1      2716 3.50504E-03-1.21013E-04-6.93416E-04
 -1      2717 4.18952E-03 6.57819E-04-2.11492E-03
 -1      2718 3.75527E-04 3.76989E-04 7.63940E-03
 -1      2719 1.30098E-04 3.22855E-04 9.30793E-03
 -1      2720 1.99731E-03-6.89856E-04-9.59831E-03
 -1      2721 1.80667E-03-6.40294E-04 6.57782E-03
 -1      2722 1.83862E-03 9.03312E-04 1.11722E-02
 -1      2723 1.37037E-03 7.30686E-04 6.65065E-03
 -1      2724 8.97026E-04-5.38463E-04 6.81923E-03
 -1      2725 2.66074E-03-1.11571E-03 7.19182E-03
 -1      2726 1.23079E-03 7.02319E-04 7.02740E-03
 -1      2727 1.28470E-03-6.92130E-04 9.34644E-03
 -1      2728 5.48554E-04 1.26920E-05 1.17174E-02
 -1      2729 1.23247E-03-7.97646E-04 9.32922E-03
 -1      2730 1.70826E-03 3.57163E-04-2.44350E-03
 -1      2731 2.84349E-03 4.41767E-04-2.32545E-03
 -1      2732 4.96070E-04-1.28877E-04 1.03711E-02
 -1      2733 8.32253E-04 9.78155E-05-1.14807E-02
 -1      2734-3.13257E-03-3.58215E-04 8.46685E-03
 -1      2735 1.73425E-03-7.65576E-04-6.08084E-03
 -1      2736 2.01688E-03-3.84213E-05 7.48856E-04
 -1      2737 1.00819E-03 5.28004E-04-6.07021E-03
 -1      2738 1.45287E-03 6.48184E-04-6.15461E-03
 -1      2739 7.36832E-04 4.18462E-04-5.74602E-03
 -1      2740 3.25030E-03 4.66770E-04-2.06180E-03
 -1      2741 3.25585E-03 1.11983E-03-6.15906E-03
 -1      2742 6.69999E-04 3.63915E-04 5.20549E-03
 -1      2743 1.50855E-03 7.54959E-05 1.01604E-04
 -1      2744 6.92866E-04-2.80079E-04-4.23262E-03
 -1      2745 1.70106E-03-9.56145E-04 1.13878E-02
 -1      2746 2.96523E-03-1.17803E-03 8.00786E-03
 -1      2747 2.28402E-03-9.84591E-04 7.93558E-03
 -1      2748 9.82583E-04-4.61294E-04 9.92521E-03
 -1      2749 1.06783E-03-7.10928E-04-9.00517E-03
 -1      2750 7.20859E-04 5.38150E-04 7.92565E-03
 -1      2751 2.57358E-03-1.44030E-04 1.29934E-03
 -1      2752-3.12489E-03 2.20362E-04 8.25638E-03
 -1      2753 2.10523E-03-8.41696E-04-6.45696E-03
 -1      2754 2.70787E-03-9.81707E-04-6.25703E-03
 -1      2755 3.50104E-03 2.45806E-04 1.04653E-03
 -1      2756 2.99806E-03 8.13411E-04 4.46725E-03
 -1      2757 1.41722E-03-1.33705E-04 1.34743E-03
 -1      2758 1.92116E-03 8.46293E-04 6.62246E-03
 -1      2759 2.82710E-03 1.20428E-03 1.03444E-02
 -1      2760 1.78564E-03 7.39408E-04-6.95009E-03
 -1      2761 1.22314E-03-6.56504E-04 7.87350E-03
 -1      2762 9.02885E-04-5.57859E-04-6.43888E-03
 -1      2763 2.62241E-03 1.04025E-03 6.46478E-03
 -1      2764 2.23152E-04-2.37675E-04-9.42356E-03
 -1      2765 2.49512E-03 8.73972E-04 5.80770E-03
 -1      2766-1.22160E-03-2.40146E-04-1.52170E-02
 -1      2767 1.94172E-03-8.00540E-04-7.76604E-03
 -1      2768 1.39559E-03 3.20602E-04 2.53351E-03
 -1      2769 3.03486E-03-1.94027E-04 1.55735E-03
 -1      2770 2.33483E-03-4.51469E-04 3.14542E-03
 -1      2771 3.37202E-03 7.49174E-04 3.55177E-03
 -1      2772-3.09939E-03 3.65572E-06-5.57359E-04
 -1      2773 1.35793E-03 8.51348E-06-5.69932E-04
 -1      2774 2.84675E-03 1.70943E-04 1.64366E-03
 -1      2775 1.75883E-03 8.15958E-04 6.45696E-03
 -1      2776 4.60492E-04-4.05739E-04-8.54868E-03
 -1      2777-3.57764E-03 6.37587E-05 5.73985E-03
 -1      2778 1.79058E-03 4.18176E-04 2.98274E-03
 -1      2779 1.24175E-03-6.16865E-04 6.63525E-03
 -1      2780 1.02319E-04-1.35087E-04-5.53985E-03
 -1      2781 8.19519E-04 5.84186E-04-1.08350E-02
 -1      2782 2.11980E-04-6.12266E-05 4.34986E-03
 -1      2783 3.26153E-03 1.16095E-04-4.62768E-04
 -1      2784 3.96401E-03 1.87020E-04-1.22946E-03
 -1      2785 2.99837E-03-8.16168E-04-4.57021E-03
 -1      2786 1.04044E-03 5.04961E-04-6.41095E-03
 -1      2787 2.34678E-03-9.71859E-04 6.88333E-03
 -1      2788 4.15122E-03 7.10923E-04-2.81657E-03
 -1      2789 4.54553E-03 3.89727E-04 1.32010E-03
 -1      2790 1.62073E-03 3.38706E-05-1.35245E-03
 -1      2791 1.54228E-03 7.74442E-05-9.64490E-03
 -1      2792 2.46905E-04-3.37735E-04-8.45409E-03
 -1      2793 3.32424E-03-2.32326E-04-1.32480E-03
 -1      2794 4.01515E-03-4.95150E-05-1.51935E-03
 -1      2795 3.17325E-03 1.05540E-03 5.79058E-03
 -1      2796 7.39210E-04-4.70635E-04-1.09627E-02
 -1      2797 1.99341E-03-4.73390E-05-9.58838E-03
 -1      2798 5.09410E-03 9.82048E-04 3.05784E-03
 -1      2799 3.39083E-03-5.92292E-04 3.28834E-03
 -1      2800 6.06242E-04-4.21442E-04 9.23979E-03
 -1      2801 1.43484E-03 5.29923E-04-5.43635E-03
 -1      2802 3.91929E-03 1.00216E-03-5.36852E-03
 -1      2803 2.35590E-03 7.42230E-04-5.34433E-03
 -1      2804 1.45506E-03-5.36353E-05-9.06413E-04
 -1      2805 1.26549E-03-6.33012E-04-7.70460E-03
 -1      2806 1.80514E-03-9.03061E-04-8.64887E-03
 -1      2807 1.26818E-03-4.26041E-04-4.58422E-03
 -1      2808 9.66339E-04-3.77208E-04 5.27175E-03
 -1      2809 1.89517E-03-8.07845E-04 6.89145E-03
 -1      2810 9.30038E-04-2.79764E-04-3.09691E-03
 -1      2811 2.31947E-03-4.52454E-04-3.15505E-03
 -1      2812 3.49353E-03-5.77098E-04-3.10125E-03
 -1      2813 8.79786E-04 5.37066E-04 6.61538E-03
 -1      2814 2.86628E-03 1.13487E-03 6.16268E-03
 -1      2815 3.41534E-03-9.95931E-04-4.87310E-03
 -1      2816 3.62311E-04 1.47875E-04-9.64390E-03
 -1      2817 3.93778E-03 1.66295E-03 7.88611E-03
 -1      2818 4.07057E-03 1.54714E-03 6.98431E-03
 -1      2819 2.44270E-04-3.07558E-05 1.96402E-03
 -1      2820 8.40338E-04 6.82696E-04 9.26732E-03
 -1      2821 4.83693E-04 4.56897E-04 9.07626E-03
 -1      2822 5.82826E-04-3.94296E-04-5.88306E-03
 -1      2823 3.09439E-03-9.06000E-04-8.94012E-03
 -1      2824 2.18393E-03-7.84747E-04-8.77849E-03
 -1      2825 3.13693E-04 2.18391E-04 4.97214E-03
 -1      2826 1.66128E-03-6.16767E-04 9.92805E-03
 -1      2827 7.11611E-04-5.25257E-04 8.20540E-03
 -1      2828 5.16998E-03-1.09265E-03-4.16404E-03
 -1      2829 2.37265E-03-3.88841E-05-3.59045E-04
 -1      2830 1.77787E-04-6.99936E-05 5.88038E-03
 -1      2831 1.96490E-03-8.70262E-04 1.01251E-02
 -1      2832 9.68128E-04-4.52187E-04 6.49949E-03
 -1      2833 2.68194E-03 1.26807E-04-1.30922E-03
 -1      2834 3.71687E-03 1.23670E-03-5.72089E-03
 -1      2835 2.61948E-03 4.51398E-05-4.21393E-04
 -1      2836 2.40738E-03 3.65126E-04-2.19915E-03
 -1      2837 9.48829E-04 3.41627E-05-9.58649E-04
 -1      2838 6.11356E-04 2.18824E-04-2.75035E-03
 -1      2839 9.13767E-04 2.38406E-04 2.74302E-03
 -1      2840 1.55318E-03-8.05630E-04 9.14179E-03
 -1      2841-3.70261E-03-3.04139E-05-2.17528E-04
 -1      2842 1.84625E-03 1.07255E-03 9.10963E-03
 -1      2843 1.49288E-03-6.90631E-04-5.87221E-03
 -1      2844 1.36567E-03 6.03139E-04-7.17328E-03
 -1      2845 1.14506E-03 5.91508E-04-7.57566E-03
 -1      2846 2.63787E-04 1.24630E-05-1.17230E-03
 -1      2847 2.94519E-03-4.66292E-04-2.78414E-03
 -1      2848 2.14850E-03 7.59134E-04 9.77869E-03
 -1      2849 1.60943E-04-1.00561E-04-6.75340E-03
 -1      2850 1.15892E-03-5.86803E-04 1.00000E-02
 -1      2851 1.85901E-03-5.48008E-04-9.22634E-03
 -1      2852-3.01667E-03-9.46289E-05 9.52437E-03
 -1      2853 3.33461E-03-8.09886E-04 4.86571E-03
 -1      2854 3.02175E-03-9.34415E-04-4.99976E-03
 -1      2855 4.42256E-03-1.72894E-04 1.07966E-03
 -1      2856 2.48544E-03-9.90154E-04-7.76290E-03
 -1      2857 1.20919E-03 5.17814E-04-5.84023E-03
 -1      2858 2.02588E-03-7.06528E-04-4.97931E-03
 -1      2859 7.80487E-04-4.77903E-04-6.55479E-03
 -1      2860 3.07272E-04 1.61160E-05-1.01921E-03
 -1      2861 1.53146E-03 9.35747E-06 1.14850E-02
 -1      2862 3.48497E-03-5.65411E-04-2.65028E-03
 -1      2863 1.70873E-03-3.52889E-04-2.84968E-03
 -1      2864 2.14197E-03-3.44453E-04-2.53398E-03
 -1      2865 2.11016E-03-4.11599E-04-2.63737E-03
 -1      2866 2.00586E-03 2.62202E-04 1.01393E-02
 -1      2867 3.67790E-04-2.45663E-04-9.51853E-03
 -1      2868 5.16103E-04-1.47200E-04-9.72498E-03
 -1      2869 3.22113E-04-6.14702E-05 1.79554E-03
 -1      2870 6.60361E-04-1.10366E-04 1.83088E-03
 -1      2871-5.26113E-05-2.79332E-05-9.73203E-03
 -1      2872 5.20789E-03-1.12162E-03 4.47901E-03
 -1      2873 1.58935E-03-5.71948E-04 6.17742E-03
 -1      2874 3.07647E-03-4.81046E-04 2.96420E-03
 -1      2875 1.46335E-03-5.63617E-04 5.55481E-03
 -1      2876 2.51950E-03-9.75675E-04 9.31467E-03
 -1      2877 1.92145E-03-9.12278E-04-8.47819E-03
 -1      2878 5.67925E-03 8.80453E-05 7.02349E-05
 -1      2879 1.14217E-03 3.25399E-04-3.18153E-03
 -1      2880 2.42788E-03-6.66522E-04 5.00900E-03
 -1      2881 4.16808E-03 8.65723E-04 3.49157E-03
 -1      2882 2.38695E-03 1.11591E-03-8.52886E-03
 -1      2883 2.31549E-03-7.52887E-04 6.10689E-03
 -1      2884 7.96311E-06 7.40642E-05-9.57735E-03
 -1      2885 2.30527E-03-7.71626E-04-5.55334E-03
 -1      2886 1.02871E-03-5.72191E-04-5.99989E-03
 -1      2887 9.57823E-04-5.81668E-04-7.88619E-03
 -1      2888 2.85902E-03 5.80412E-04 3.09856E-03
 -1      2889 2.58822E-03-8.86147E-04-8.52905E-03
 -1      2890 1.97509E-03-6.96215E-04 9.90455E-03
 -1      2891 2.37336E-03-3.97500E-04 3.08860E-03
 -1      2892 1.62625E-03-7.39444E-04-7.86527E-03
 -1      2893 1.11049E-03-5.43174E-04-8.63679E-03
 -1      2894 2.19403E-03-9.28324E-04 9.27390E-03
 -1      2895 2.53348E-03-1.07467E-03 8.23984E-03
 -1      2896 1.60542E-03 8.41405E-04-8.36946E-03
 -1      2897 4.03009E-03-1.63246E-03 8.15174E-03
 -1      2898 3.20020E-03 9.88419E-04 5.03357E-03
 -1      2899 3.95267E-04 9.06757E-05-1.08797E-02
 -1      2900 1.43908E-03-2.20826E-04 1.02738E-02
 -1      2901 2.00870E-03-1.67611E-04 1.58723E-03
 -1      2902 1.24930E-03-9.21018E-05-9.70558E-03
 -1      2903 2.13361E-03 9.39391E-04 6.47752E-03
 -1      2904 6.17530E-04-4.42463E-04 6.52416E-03
 -1      2905 1.32473E-03 8.26830E-05 1.15134E-02
 -1      2906 4.51453E-04-4.27916E-04 8.38312E-03
 -1      2907 2.85245E-03-1.10414E-03 6.65006E-03
 -1      2908 5.17344E-03-9.40985E-04 3.62289E-03
 -1      2909 1.99095E-03-9.92511E-05-1.04771E-03
 -1      2910 7.02293E-04 5.14530E-04 1.01151E-02
 -1      2911 3.88092E-03 1.15582E-03 4.90130E-03
 -1      2912 6.82874E-04 4.26217E-04-9.45880E-03
 -1      2913 4.56906E-04-1.69344E-04-2.71540E-03
 -1      2914 1.66083E-03-2.68451E-04 1.02522E-02
 -1      2915 1.81027E-03-3.38283E-04 1.02082E-02
 -1      2916 1.31636E-03-4.82220E-04 9.93390E-03
 -1      2917 3.41108E-03-5.01816E-04-2.54001E-03
 -1      2918 2.17681E-03 8.02230E-04-5.71251E-03
 -1      2919 2.95697E-03 1.02959E-03-5.85545E-03
 -1      2920-1.27000E-04-1.41790E-04 1.00028E-02
 -1      2921 9.61296E-06-1.95837E-04 1.01154E-02
 -1      2922 1.58242E-03 3.16087E-04-2.50091E-03
 -1      2923 2.83787E-03-7.86269E-04 5.30049E-03
 -1      2924 1.08659E-03-1.95864E-04-9.69140E-03
 -1      2925 3.35033E-03-1.61639E-04-1.58161E-03
 -1      2926 1.97720E-03-7.71320E-04-6.10132E-03
 -1      2927 1.86268E-04 2.81975E-05-7.41303E-03
 -1      2928 3.13007E-03-1.14200E-03-5.97645E-03
 -1      2929 7.21716E-04 2.86895E-06-3.53631E-04
 -1      2930 4.36249E-04-1.97240E-05-1.03353E-03
 -1      2931-3.55916E-03-8.49647E-05-6.60357E-03
 -1      2932 6.43456E-04 4.37373E-04 6.29072E-03
 -1      2933 1.64294E-03-7.12214E-04 6.63198E-03
 -1      2934 1.15622E-03 6.35301E-04 6.33378E-03
 -1      2935-5.51418E-05 6.52706E-05 1.02324E-02
 -1      2936-1.70234E-04-3.40005E-05 1.03198E-02
 -1      2937 1.35402E-03-4.50434E-04 1.01220E-02
 -1      2938 9.50219E-04-4.08046E-04 1.01232E-02
 -1      2939 3.78127E-03 7.34765E-04 2.94395E-03
 -1      2940 1.18460E-03-6.88790E-04-8.60593E-03
 -1      2941 1.39636E-03 1.07199E-04-1.06605E-02
 -1      2942 1.36981E-03-4.23706E-04-9.36425E-03
 -1      2943 1.49318E-03-3.37920E-04 3.36991E-03
 -1      2944 1.14380E-03-5.10454E-04 5.54672E-03
 -1      2945 9.14718E-04-5.43278E-04-8.49589E-03
 -1      2946 2.81741E-03-1.17892E-03 1.06543E-02
 -1      2947 1.53840E-03 1.49326E-04-1.09412E-02
 -1      2948 1.62148E-03-8.02208E-04 8.20121E-03
 -1      2949 9.35856E-04-5.65333E-04 9.16436E-03
 -1      2950 2.21960E-03-8.83232E-04 6.51802E-03
 -1      2951 1.25376E-03 6.31533E-04 6.46380E-03
 -1      2952 1.68363E-03 7.64490E-04 6.31397E-03
 -1      2953 3.17487E-03 7.47459E-04-4.32796E-03
 -1      2954 1.02045E-03 7.21439E-05-1.06780E-02
 -1      2955 1.47357E-03-1.70314E-04 2.13177E-03
 -1      2956 1.91485E-03-7.82645E-04-8.60976E-03
 -1      2957 1.61603E-03 5.79680E-04 5.16423E-03
 -1      2958 9.91926E-04 4.69872E-04 5.25197E-03
 -1      2959 1.55655E-03-5.68270E-04 6.06458E-03
 -1      2960 3.01973E-03-1.12905E-03-6.73391E-03
 -1      2961 1.78283E-03 7.03242E-04-5.79486E-03
 -1      2962 1.98363E-03 7.58675E-04-6.28588E-03
 -1      2963 5.17807E-04-3.67003E-04-1.03319E-02
 -1      2964 2.96102E-03 1.01901E-03-5.84834E-03
 -1      2965-2.60056E-03-1.04715E-04-1.09836E-02
 -1      2966 1.25056E-03 8.90850E-05 1.08989E-02
 -1      2967 4.02281E-03 1.06155E-03-4.45688E-03
 -1      2968-2.36938E-05 2.43610E-04 9.01875E-03
 -1      2969 1.26661E-03-5.57509E-04-9.56207E-03
 -1      2970 3.58604E-04 1.04517E-04-2.17357E-03
 -1      2971 1.02296E-04 8.46177E-05 7.21704E-03
 -1      2972 1.01113E-03-4.94964E-04-9.00248E-03
 -1      2973 4.20835E-04 3.13020E-04 9.74601E-03
 -1      2974 3.04288E-03-4.93668E-04 2.95963E-03
 -1      2975 1.32180E-03-5.99406E-04-6.25168E-03
 -1      2976-9.61961E-05 8.17201E-05-9.51983E-03
 -1      2977 1.16386E-03 5.49550E-04-8.74317E-03
 -1      2978 6.92031E-04-4.76577E-04-8.47776E-03
 -1      2979 4.08401E-04 2.93191E-05 1.10407E-02
 -1      2980 2.75690E-03 1.08994E-03 1.01994E-02
 -1      2981 2.98878E-03-1.11615E-03 9.51663E-03
 -1      2982 2.05430E-03 8.54530E-04-7.28852E-03
 -1      2983 4.86591E-04-4.95401E-04 1.06007E-02
 -1      2984 5.22653E-03 1.11289E-03-3.93697E-03
 -1      2985 4.72403E-04-3.45931E-04 9.86743E-03
 -1      2986 7.18074E-04-1.88533E-04 1.03810E-02
 -1      2987 2.73988E-03 7.09176E-04-4.24124E-03
 -1      2988 1.50995E-03 7.29611E-04-7.49710E-03
 -1      2989 2.15007E-04-1.13687E-04 1.03598E-02
 -1      2990 1.87561E-03-8.70934E-04 8.33087E-03
 -1      2991 3.37188E-03 1.24751E-03 6.44098E-03
 -1      2992 1.18634E-03-3.26973E-04 1.03084E-02
 -1      2993 2.88426E-03 2.00570E-04-9.60679E-04
 -1      2994 1.87678E-03 7.69756E-05-1.35593E-03
 -1      2995 2.71629E-03-1.33084E-03 9.36175E-03
 -1      2996 3.04779E-03 9.06378E-04-5.30118E-03
 -1      2997 4.00721E-03 1.30318E-03 5.80010E-03
 -1      2998 2.78056E-04 2.85751E-05-1.08506E-02
 -1      2999 1.08239E-03-3.22258E-04-9.44345E-03
 -1      3000 1.60397E-03-7.71697E-04 1.08662E-02
 -1      3001 1.72732E-03-7.57314E-04-8.49315E-03
 -1      3002 5.86331E-04 1.25759E-05 8.58747E-04
 -1      3003 3.75232E-03 9.95111E-04-5.25036E-03
 -1      3004 2.28021E-04-2.19569E-05 7.38042E-03
 -1      3005 1.07603E-03 7.02543E-04 8.04108E-03
 -1      3006 2.13967E-03 8.60360E-05 7.71901E-04
 -1      3007 1.03798E-03 5.33421E-04-5.59345E-03
 -1      3008 3.97728E-03 3.36699E-04 1.33670E-03
 -1      3009-1.05484E-05 2.54023E-04 9.84314E-03
 -1      3010 1.72479E-03-8.26082E-06 1.09835E-02
 -1      3011 1.92935E-04 2.72990E-04 9.96713E-03
 -1      3012 3.09692E-03 1.12289E-03-7.08906E-03
 -1      3013 2.99638E-03-9.50939E-04-5.54333E-03
 -1      3014 2.29255E-03-8.49676E-04-6.15672E-03
 -1      3015 3.61573E-03-2.34980E-04 2.03818E-03
 -1      3016 4.41640E-03 8.04573E-04 2.80888E-03
 -1      3017 3.43641E-03 1.18044E-03 5.79453E-03
 -1      3018 2.36032E-03 6.04272E-05 1.11203E-02
 -1      3019 1.35009E-04 1.33921E-04-9.59982E-03
 -1      3020 8.23556E-04-3.23223E-04-4.82593E-03
 -1      3021 1.26451E-03 7.78989E-05 1.04576E-03
 -1      3022 1.50610E-03 7.60581E-04 6.29905E-03
 -1      3023 1.73542E-03 8.03728E-04-7.61044E-03
 -1      3024 2.31380E-03 4.89370E-04 3.00896E-03
 -1      3025 3.30567E-03 6.59974E-04 3.02307E-03
 -1      3026 1.16176E-03-6.70920E-04 1.11992E-02
 -1      3027 2.68067E-04-2.41888E-04-4.15192E-03
 -1      3028 2.59524E-03-1.00455E-03 6.40997E-03
 -1      3029 4.56940E-05-2.09301E-04 9.13406E-03
 -1      3030 3.12495E-04 4.41469E-05 3.73106E-03
 -1      3031 4.47812E-04 4.79637E-04 1.12434E-02
 -1      3032 1.67092E-03-1.22900E-04-1.30492E-03
 -1      3033 5.29580E-04-3.90307E-04 9.76842E-03
 -1      3034 7.99027E-04 6.06415E-04 8.26251E-03
 -1      3035 2.80220E-03-2.17577E-04 2.08525E-03
 -1      3036 2.80701E-03 7.54960E-04-4.73944E-03
 -1      3037 3.55315E-03 9.19136E-04-4.56211E-03
 -1      3038 6.07920E-04-3.46617E-04 1.00790E-02
 -1      3039-2.68528E-03 7.24258E-06-1.03953E-02
 -1      3040 1.97081E-03-3.57660E-04 2.87683E-03
 -1      3041 8.48118E-04-5.20754E-04-8.49653E-03
 -1      3042 3.42604E-04 4.15963E-04 8.17569E-03
 -1      3043 2.90221E-03-6.45319E-05-6.61896E-04
 -1      3044 3.90547E-03-1.15279E-03-5.54455E-03
 -1      3045-1.65265E-03 2.15926E-04 1.34214E-02
 -1      3046 1.88357E-03-3.63918E-04 3.08276E-03
 -1      3047 1.76657E-03 7.90461E-04-9.41608E-03
 -1      3048 1.68623E-03-6.78218E-04-9.03726E-03
 -1      3049 2.82459E-03 8.61156E-04 5.01142E-03
 -1      3050 3.76343E-03 6.12584E-04-2.41286E-03
 -1      3051 2.30140E-04-2.67422E-04 9.99561E-03
 -1      3052 8.37094E-04-5.71923E-04 9.12189E-03
 -1      3053 5.56995E-04-4.70908E-04 1.09687E-02
 -1      3054 2.44240E-03 1.10724E-03-8.29377E-03
 -1      3055 1.59117E-03 7.17758E-04-8.53432E-03
 -1      3056 1.54784E-03-1.09060E-04-9.66907E-03
 -1      3057 3.96673E-03-1.42015E-03-7.54374E-03
 -1      3058 1.64357E-03-1.97179E-04 1.82177E-03
 -1      3059 3.90988E-06-2.24500E-05 8.41987E-03
 -1      3060 1.19034E-03-6.84359E-04 9.12233E-03
 -1      3061 2.61486E-03 8.91406E-04 1.00450E-02
 -1      3062 1.26595E-03-1.55931E-05 1.09814E-02
 -1      3063 1.32152E-03-6.86540E-04-8.47294E-03
 -1      3064 3.28431E-03 6.16129E-04 2.63203E-03
 -1      3065 2.32289E-03 8.52224E-04 5.76343E-03
 -1      3066 4.09561E-03 7.48195E-04 2.53378E-03
 -1      3067 1.21223E-03-6.74709E-04 8.40861E-03
 -1      3068 3.82921E-03-1.37085E-03-7.79877E-03
 -1      3069 1.34222E-03-5.95516E-04-8.84888E-03
 -1      3070 1.73970E-03-8.12910E-04-1.07860E-02
 -1      3071 2.10247E-03-9.33746E-04 1.08410E-02
 -1      3072 8.51759E-04-1.94953E-04-2.46958E-03
 -1      3073-3.26304E-05-1.57392E-04-9.34340E-03
 -1      3074 2.28900E-04 2.75014E-04-7.37847E-03
 -1      3075 3.02410E-03 2.71092E-04 1.71786E-03
 -1      3076 3.39690E-03-9.59041E-04 5.37081E-03
 -1      3077 1.70929E-03-1.99998E-04-9.62800E-03
 -1      3078 5.29212E-05-1.18990E-04-5.05922E-03
 -1      3079 1.21283E-03 7.91578E-04 8.94858E-03
 -1      3080 2.14147E-03-8.95289E-04 6.76912E-03
 -1      3081 7.97981E-04 3.92197E-04-9.18127E-03
 -1      3082 1.96595E-03 3.05605E-04-2.19446E-03
 -1      3083 4.82762E-03-1.16900E-03-4.86715E-03
 -1      3084 4.01057E-03-1.00832E-03-4.50149E-03
 -1      3085-1.73353E-04 1.24422E-04 1.01960E-02
 -1      3086 2.00553E-03-8.61773E-04 9.52384E-03
 -1      3087 1.33477E-03 5.79675E-04-5.80435E-03
 -1      3088 1.08578E-03 2.57218E-04-2.43726E-03
 -1      3089 1.41418E-03-7.51845E-04-8.50936E-03
 -1      3090 1.85070E-03 9.55772E-05 1.09396E-02
 -1      3091-1.87593E-05 4.25625E-06 8.81148E-03
 -1      3092 3.91659E-03-2.76406E-04 1.56961E-03
 -1      3093 1.38377E-04 2.96802E-04-8.54552E-03
 -1      3094 4.22682E-03 3.47128E-04 1.75437E-03
 -1      3095 8.14814E-06 1.99427E-04-8.26988E-03
 -1      3096 1.59067E-03 1.40656E-04 1.72170E-03
 -1      3097 2.03452E-03 1.59293E-04-9.61258E-03
 -1      3098 1.04194E-03-2.77006E-04 3.14048E-03
 -1      3099 1.15229E-03 2.27555E-04-9.66594E-03
 -1      3100 4.73872E-04 4.18154E-04-7.53362E-03
 -1      3101 8.31282E-05-7.27546E-05-4.22673E-03
 -1      3102 2.45584E-03 4.72060E-04 2.64283E-03
 -1      3103 1.29758E-03 1.48341E-04 1.59078E-03
 -1      3104 1.35043E-03-2.30314E-04 2.80044E-03
 -1      3105-2.98704E-03-7.56594E-05-9.44194E-03
 -1      3106 3.98287E-04-2.79386E-04 1.00620E-02
 -1      3107 5.80753E-04-2.82845E-04 5.45939E-03
 -1      3108 3.57218E-03 6.12057E-04 2.46093E-03
 -1      3109 2.17264E-03-1.13599E-03 9.12942E-03
 -1      3110 1.55327E-03 2.28181E-04-9.63611E-03
 -1      3111 3.02807E-03-1.15257E-03-7.61723E-03
 -1      3112 2.26117E-03-5.05612E-04-9.21661E-03
 -1      3113 4.36849E-03-7.31733E-04 3.23794E-03
 -1      3114-1.01134E-04-2.42310E-05 9.24068E-03
 -1      3115 2.97935E-04-2.38770E-04-4.80399E-03
 -1      3116 9.81399E-04-6.13366E-04 8.22584E-03
 -1      3117 3.37134E-03 1.12825E-03-5.61205E-03
 -1      3118 3.50037E-05-2.03597E-04 8.40963E-03
 -1      3119 2.31200E-03 8.32947E-04-5.83358E-03
 -1      3120 1.22933E-03 6.37032E-04 9.64964E-03
 -1      3121 4.53588E-04 1.39520E-04-2.51349E-03
 -1      3122 5.86271E-04-4.02172E-04 9.35925E-03
 -1      3123 1.21229E-03-5.61899E-04-5.96821E-03
 -1      3124 1.53816E-03-5.73714E-04-5.58413E-03
 -1      3125 2.23314E-03-7.91269E-04-8.95405E-03
 -1      3126 5.00881E-03-1.18207E-03 5.08122E-03
 -1      3127 4.06674E-03-9.55638E-04 4.75548E-03
 -1      3128 1.90347E-04 1.35977E-04 1.03152E-02
 -1      3129 1.61020E-03-5.56452E-04-4.86120E-03
 -1      3130 2.33749E-03-1.14866E-04 1.06365E-02
 -1      3131 1.40995E-03 5.61411E-04 9.86990E-03
 -1      3132 1.28534E-03-2.92610E-04-2.62754E-03
 -1      3133 9.53539E-04-7.21300E-05-1.03762E-03
 -1      3134 1.38869E-04-2.63059E-05-1.06434E-03
 -1      3135 4.17434E-03-7.23102E-04-3.21631E-03
 -1      3136 1.14373E-03 7.00019E-04 9.17897E-03
 -1      3137 1.74476E-03 6.25273E-04 9.85415E-03
 -1      3138 7.66023E-04 4.76243E-04-8.52186E-03
 -1      3139 1.20707E-03 7.65277E-04 8.27589E-03
 -1      3140 3.75656E-03-1.55015E-03 8.51718E-03
 -1      3141 2.90265E-03-2.15242E-04-1.28016E-03
 -1      3142 5.56592E-03-2.52053E-04 1.51910E-03
 -1      3143 2.74981E-03-1.04134E-03 1.03103E-02
 -1      3144 3.94163E-03 1.96227E-04-7.33890E-04
 -1      3145 8.33659E-04-2.13399E-06 1.10432E-02
 -1      3146 3.57242E-03 1.34375E-03 6.31051E-03
 -1      3147 8.42365E-05 2.87646E-04 7.99672E-03
 -1      3148 2.50122E-03 1.35813E-04-1.01587E-03
 -1      3149 4.16773E-03 1.46166E-03-6.74819E-03
 -1      3150 1.48316E-03-5.28050E-04 1.01329E-02
 -1      3151 3.44661E-03 2.06069E-04-1.35292E-03
 -1      3152 7.69707E-04 5.77794E-04 8.99060E-03
 -1      3153 1.26249E-03 6.54134E-04-8.42143E-03
 -1      3154 2.58107E-03-7.93531E-05-1.00089E-02
 -1      3155 7.39313E-04 2.04320E-04-2.22478E-03
 -1      3156 3.48782E-03-2.86075E-04 2.13684E-03
 -1      3157 3.88207E-03-1.06888E-03 5.31337E-03
 -1      3158 3.97000E-03-5.58140E-04-2.63604E-03
 -1      3159 3.89280E-03-6.64242E-04 2.98757E-03
 -1      3160 2.33435E-03-4.99476E-04-9.31098E-03
 -1      3161 4.07647E-03-1.35046E-03-6.64241E-03
 -1      3162 3.48700E-03 2.60655E-04-1.04404E-03
 -1      3163 2.04999E-05 1.54312E-04 1.02198E-02
 -1      3164 2.65954E-03-8.22948E-04-5.01964E-03
 -1      3165 1.36567E-03 2.54115E-04-2.03427E-03
 -1      3166 5.75027E-04-2.17198E-04 1.03616E-02
 -1      3167 6.79646E-04-4.81580E-04-7.92378E-03
 -1      3168 2.52918E-03 9.74658E-04-7.35574E-03
 -1      3169 1.80477E-03-6.72465E-04-1.02480E-02
 -1      3170 7.24476E-04 4.64553E-04 9.43078E-03
 -1      3171 1.25326E-03 5.60029E-04-9.00722E-03
 -1      3172 2.30466E-03 3.53443E-04-2.12798E-03
 -1      3173 5.23811E-03 8.40142E-04-2.49784E-03
 -1      3174 2.83418E-04 5.32188E-05 1.15427E-02
 -1      3175 1.82752E-03 7.59621E-04-8.79674E-03
 -1      3176 2.09580E-03 8.16323E-05-9.52730E-04
 -1      3177 2.38970E-03-7.54383E-04 5.54191E-03
 -1      3178 1.36456E-03-3.36440E-04 1.02956E-02
 -1      3179 4.20997E-04-1.42150E-04 3.10195E-03
 -1      3180 1.18860E-03-3.07221E-04-9.52206E-03
 -1      3181 2.08199E-03-1.01549E-03 9.06107E-03
 -1      3182 6.14168E-04-3.94501E-04-8.85210E-03
 -1      3183 3.11314E-03-1.30285E-03 8.18774E-03
 -1      3184 1.62577E-03-6.47132E-05-1.66451E-03
 -1      3185 5.51710E-04 3.89201E-04 9.13567E-03
 -1      3186 5.87637E-04-6.16474E-05 1.08133E-02
 -1      3187 1.21312E-03-5.32771E-04-1.04514E-02
 -1      3188 8.40191E-04-5.26105E-04 1.08359E-02
 -1      3189 1.23224E-04-5.50970E-05-2.69781E-03
 -1      3190 2.30547E-03 7.86444E-04 9.79166E-03
 -1      3191 5.18411E-03-8.13797E-04 3.08625E-03
 -1      3192 1.87795E-03-4.05834E-04-9.35993E-03
 -1      3193 7.93205E-04 6.22971E-04 8.85362E-03
 -1      3194 3.44619E-03-4.65954E-04-2.30361E-03
 -1      3195 1.41062E-03-5.06880E-04-1.01473E-02
 -1      3196 1.06708E-04-2.27844E-04 6.55615E-03
 -1      3197-3.16566E-05-1.19372E-04-7.32274E-03
 -1      3198 4.23347E-03-1.45133E-03 6.83364E-03
 -1      3199 3.40902E-03-1.25939E-03 6.74510E-03
 -1      3200 2.61404E-03-8.41653E-04 1.01697E-02
 -1      3201 7.28849E-05-1.01685E-04 7.54506E-03
 -1      3202 1.50785E-03-7.04140E-04 9.55987E-03
 -1      3203 2.12564E-04 2.38445E-04-5.69806E-03
 -1      3204 2.84436E-04 1.96973E-05-3.03412E-03
 -1      3205 3.94901E-04 2.74220E-04-4.39943E-03
 -1      3206 1.17586E-03-5.95391E-04 1.08084E-02
 -1      3207 7.03961E-04 4.86607E-04-7.67130E-03
 -1      3208 1.90285E-03-6.86733E-04-5.56852E-03
 -1      3209 7.94502E-04-3.99895E-04 1.00983E-02
 -1      3210 3.78006E-03-1.33428E-03 6.45877E-03
 -1      3211 3.47855E-03-1.23836E-03 6.34978E-03
 -1      3212 2.55703E-03-4.18410E-04-2.57662E-03
 -1      3213 2.28424E-03-8.71243E-04-8.54817E-03
 -1      3214 9.28943E-04 2.45413E-04-9.66681E-03
 -1      3215 1.35112E-04-9.33602E-05-9.72867E-03
 -1      3216 1.63444E-03 1.07872E-04-9.92714E-04
 -1      3217 5.31141E-05-1.16491E-04 5.17117E-03
 -1      3218 9.22999E-04 6.06704E-04-8.35815E-03
 -1      3219-2.16037E-05 4.88245E-05 8.61003E-03
 -1      3220 4.57271E-04 4.27567E-04-8.39756E-03
 -1      3221 3.80682E-03-1.09120E-03 6.12951E-03
 -1      3222-2.45824E-05-1.64982E-04-6.78055E-03
 -1      3223 4.54499E-03-2.70173E-04 2.07495E-03
 -1      3224 3.63984E-04-1.60480E-04 1.03605E-02
 -1      3225 1.60752E-04 8.92747E-05-7.19525E-03
 -1      3226 4.51522E-04-2.77636E-04-1.00544E-02
 -1      3227 3.07348E-03 5.56427E-04 2.62349E-03
 -1      3228 3.20160E-04-3.45198E-04 9.13242E-03
 -1      3229 2.94503E-03-1.26829E-03-8.57734E-03
 -1      3230 1.41538E-03 5.01466E-05-1.04055E-02
 -1      3231 9.65159E-05 8.82185E-05-7.07001E-03
 -1      3232 2.50787E-03-1.14378E-03 9.05702E-03
 -1      3233 2.80396E-03 1.45523E-04 8.07550E-04
 -1      3234 4.17721E-03-1.35107E-03-6.06978E-03
 -1      3235 2.67071E-03-1.16775E-03 8.36304E-03
 -1      3236 1.32126E-03 5.39533E-04-9.07873E-03
 -1      3237 1.34271E-03-1.99597E-04-9.67839E-03
 -1      3238 4.62929E-03 2.15398E-04-6.92852E-04
 -1      3239 1.53036E-03 7.35768E-04-8.27876E-03
 -1      3240 2.94023E-04 3.68279E-05 1.46338E-03
 -1      3241 2.34406E-03-2.36624E-04 1.81078E-03
 -1      3242 4.73712E-03-3.11846E-04 1.55771E-03
 -1      3243 2.71325E-04 1.85297E-05-5.86349E-04
 -1      3244 8.71789E-04 3.36461E-04-4.53828E-03
 -1      3245 1.28803E-03 4.46057E-04-4.06844E-03
 -1      3246-3.66007E-05-1.39735E-04 5.74936E-03
 -1      3247 4.73532E-04 1.78445E-04 1.02878E-02
 -1      3248 4.93165E-03 1.27840E-03 4.89346E-03
 -1      3249 3.76421E-03 1.33744E-03 6.11148E-03
 -1      3250 2.66234E-06 2.34668E-04 1.00241E-02
 -1      3251 2.16597E-03 8.72645E-04-7.59405E-03
 -1      3252 1.65681E-03 1.60075E-04-1.02169E-02
 -1      3253 3.43797E-03 3.54550E-04 1.84026E-03
 -1      3254 9.71561E-04 6.24832E-04 9.06668E-03
 -1      3255 2.12489E-04-1.00327E-04-2.53358E-03
 -1      3256 2.13073E-03 8.80782E-04-8.40341E-03
 -1      3257 1.59243E-03 5.73191E-04-9.19847E-03
 -1      3258 2.69145E-03 9.51162E-04-5.65068E-03
 -1      3259 3.12707E-04 1.70199E-04 2.76730E-03
 -1      3260 4.04525E-05-6.88400E-05 1.03350E-02
 -1      3261 2.73899E-03 1.10925E-03-7.54761E-03
 -1      3262 1.68756E-03 4.74030E-04-3.99425E-03
 -1      3263 1.20860E-03 4.36455E-04-4.69096E-03
 -1      3264 7.12055E-04-2.14831E-04 3.22855E-03
 -1      3265 7.18293E-04 2.24472E-04-9.65072E-03
 -1      3266 1.48387E-03 8.30211E-04 9.03431E-03
 -1      3267 2.58255E-03-9.53530E-04-5.91603E-03
 -1      3268 6.78843E-04 4.80330E-04-8.32683E-03
 -1      3269 7.12993E-05 1.16643E-04 7.06833E-03
 -1      3270-1.60016E-04 6.53532E-05 9.27235E-03
 -1      3271 3.22116E-03-1.12853E-03-6.15847E-03
 -1      3272 1.82178E-04 2.56256E-04 6.27883E-03
 -1      3273 8.83793E-04 5.50868E-04 6.25664E-03
 -1      3274 5.58141E-04 1.72931E-04-9.65651E-03
 -1      3275 4.31297E-03-3.09767E-04 1.60448E-03
 -1      3276-1.28104E-04-5.62284E-05-9.66541E-03
 -1      3277 1.33135E-03 2.93639E-04-9.65303E-03
 -1      3278 8.23008E-04 4.86897E-04-8.73877E-03
 -1      3279 3.02519E-03-9.19050E-04 6.13146E-03
 -1      3280-2.33433E-03 4.00733E-05 1.24927E-02
 -1      3281 1.91296E-03 6.55470E-04 9.93135E-03
 -1      3282 4.55607E-03 2.76507E-04-1.34216E-03
 -1      3283 2.11180E-03-6.48596E-04 9.92056E-03
 -1      3284 6.11036E-06-1.05359E-04-5.01222E-03
 -1      3285 2.67620E-03 5.29629E-04 2.62079E-03
 -1      3286 6.01288E-04 3.02174E-05-1.04226E-02
 -1      3287 2.18023E-03-9.56314E-04 8.33755E-03
 -1      3288 8.40738E-04 8.01492E-05-1.04380E-02
 -1      3289 1.17873E-03-4.85600E-04 6.05243E-03
 -1      3290 9.71589E-04 5.25860E-04 6.23627E-03
 -1      3291 1.37150E-03 2.49689E-04-2.11484E-03
 -1      3292 1.52983E-03-9.89003E-05 1.07572E-02
 -1      3293 1.01846E-03 4.11412E-04-9.31874E-03
 -1      3294 4.21060E-03-6.43665E-04 2.82913E-03
 -1      3295 2.54670E-03-4.16806E-04 2.79695E-03
 -1      3296 1.47680E-03 1.50045E-04 1.85235E-03
 -1      3297 2.32339E-04 3.67161E-04 9.00144E-03
 -1      3298 2.47367E-03 2.12870E-04 1.30005E-03
 -1      3299 8.82991E-04 4.97683E-04 9.63481E-03
 -1      3300 1.80902E-03-1.37005E-04 1.06244E-02
 -1      3301 1.87824E-03 8.57377E-04-8.26678E-03
 -1      3302 3.44660E-03 1.12781E-03 5.25180E-03
 -1      3303 1.61778E-04 8.44083E-05-4.03926E-03
 -1      3304 3.03439E-03 2.52835E-04 1.34046E-03
 -1      3305 3.07777E-03-1.41739E-03 9.12618E-03
 -1      3306 7.49996E-04 3.50895E-04-9.38366E-03
 -1      3307 2.43687E-03 1.07057E-03-8.16708E-03
 -1      3308 4.43932E-03-6.39881E-04-2.67697E-03
 -1      3309 2.11271E-03-2.44220E-04-9.52441E-03
 -1      3310 3.25968E-03-1.19043E-03 6.74305E-03
 -1      3311 4.81960E-05 1.18312E-04-4.95446E-03
 -1      3312 3.64680E-03 1.22464E-03-5.79237E-03
 -1      3313 3.16875E-03 1.13621E-03-8.70267E-03
 -1      3314 5.11753E-04 3.01086E-04 9.98587E-03
 -1      3315 5.28921E-04 4.02085E-04-1.02558E-02
 -1      3316 2.03477E-03 1.71625E-04 1.42565E-03
 -1      3317 1.82596E-03 9.46949E-04-1.06274E-02
 -1      3318 1.26155E-03 6.78152E-04-1.02925E-02
 -1      3319 1.97375E-03-7.87974E-04-8.76165E-03
 -1      3320 2.13133E-03 9.27432E-04 1.07391E-02
 -1      3321 2.64857E-03 3.55988E-04-1.88971E-03
 -1      3322 1.20465E-03 5.69837E-04-9.96296E-03
 -1      3323 1.55300E-03-4.14894E-04-9.40910E-03
 -1      3324 1.26841E-03 5.21925E-04 5.82426E-03
 -1      3325 2.40970E-03-1.06418E-03-8.48335E-03
 -1      3326 2.42772E-04 3.16306E-04-8.26241E-03
 -1      3327 2.57236E-03-9.53580E-04-6.15166E-03
 -1      3328 3.94350E-03 2.83785E-04-1.40614E-03
 -1      3329 3.96970E-04-6.37910E-05-1.01455E-02
 -1      3330 1.00685E-03 5.95409E-04-8.34100E-03
 -1      3331 2.45734E-03 1.35355E-04-1.09113E-02
 -1      3332 2.10177E-03-2.12813E-04 2.12553E-03
 -1      3333 2.44404E-03 2.68459E-04 1.83973E-03
 -1      3334 1.64811E-03 1.23001E-04 1.19024E-03
 -1      3335 1.02464E-03 4.93784E-04 9.84944E-03
 -1      3336 2.82329E-03-1.06284E-03-8.29900E-03
 -1      3337 1.84777E-03 2.86923E-04-1.90647E-03
 -1      3338-2.85517E-03 2.64350E-04 7.39049E-03
 -1      3339 1.78278E-03 6.99876E-04 5.79063E-03
 -1      3340 1.55461E-03 1.87052E-04 1.07191E-02
 -1      3341 5.66950E-04 1.22256E-04-1.01265E-02
 -1      3342 1.47707E-03-2.23482E-04-9.65735E-03
 -1      3343-7.30398E-05-9.23113E-05 8.10560E-03
 -1      3344 3.60746E-03-1.22519E-03-6.02035E-03
 -1      3345 3.98989E-04 3.18484E-04-9.21720E-03
 -1      3346 4.26963E-03 6.27875E-04-2.21955E-03
 -1      3347 1.05507E-03-1.54719E-04 1.71799E-03
 -1      3348 1.12121E-03 2.91056E-04-9.65835E-03
 -1      3349 5.02400E-03 1.15617E-03-4.42441E-03
 -1      3350 1.86807E-03 3.44825E-04-9.53732E-03
 -1      3351 2.19653E-03 7.25177E-04-8.94903E-03
 -1      3352-1.14697E-04 1.35350E-04 8.06685E-03
 -1      3353 1.32736E-03-2.79395E-04 2.93985E-03
 -1      3354 8.31711E-04 1.03396E-04 1.45563E-03
 -1      3355 1.86092E-03 7.30177E-04 1.05266E-02
 -1      3356 1.26568E-03 2.00408E-04-1.01875E-02
 -1      3357 2.39124E-03 9.08492E-04-9.05637E-03
 -1      3358 8.68343E-04 1.08153E-04 1.03314E-02
 -1      3359 1.27403E-03-5.19660E-04-5.06416E-03
 -1      3360-1.60963E-04 1.78071E-04 9.92440E-03
 -1      3361 1.06150E-03 4.28178E-04 1.00538E-02
 -1      3362 1.33631E-03 2.30361E-04 1.02679E-02
 -1      3363 2.81389E-04 3.81980E-05 1.42509E-03
 -1      3364 1.29113E-03 7.85889E-04 8.91732E-03
 -1      3365 2.50632E-03-1.56685E-04-1.61968E-03
 -1      3366 2.45389E-03-1.35637E-04-1.03861E-03
 -1      3367 5.10243E-03-8.87689E-04-3.31973E-03
 -1      3368 1.57018E-03 2.32204E-04 1.02304E-02
 -1      3369 3.98271E-03 3.86355E-04 1.87175E-03
 -1      3370 2.36409E-05-1.33366E-04 6.17883E-03
 -1      3371 1.90159E-03 5.92667E-04-9.22603E-03
 -1      3372 2.78112E-03 1.71457E-04-1.37363E-03
 -1      3373-1.14699E-04 2.58237E-05 9.26685E-03
 -1      3374 1.50668E-03 5.11998E-04 9.98047E-03
 -1      3375 1.26279E-03 7.08046E-04 1.08163E-02
 -1      3376 1.65275E-03 5.15932E-04-9.33306E-03
 -1      3377 2.89465E-03 5.05497E-04 2.48951E-03
 -1      3378 1.24034E-03 3.47586E-04 1.02237E-02
 -1      3379 1.91074E-04 1.99916E-04 1.02268E-02
 -1      3380 1.82417E-03 8.22566E-04-1.01141E-02
 -1      3381 1.51856E-04 5.02283E-05-2.02695E-03
 -1      3382 2.64475E-03-8.96083E-04-8.78781E-03
 -1      3383 3.46929E-03-2.55185E-04 1.72577E-03
 -1      3384 1.20352E-03 6.89796E-04-8.28399E-03
 -1      3385 2.18685E-03 3.99132E-04 1.00415E-02
 -1      3386 3.73943E-04 6.38418E-05 1.08712E-02
 -1      3387 2.19301E-03 3.46975E-04-9.47942E-03
 -1      3388 1.26837E-04 1.67988E-04 5.54177E-03
 -1      3389 5.98590E-05 3.93372E-05-1.92160E-03
 -1      3390 1.62681E-03 9.63160E-04 8.88819E-03
 -1      3391 1.61668E-03-9.32969E-04 9.16061E-03
 -1      3392-2.13711E-03 1.04280E-05 2.89887E-03
 -1      3393 3.03067E-04-3.48387E-04-7.90215E-03
 -1      3394 1.89782E-04 2.25845E-04-9.32944E-03
 -1      3395 2.91266E-03 1.01068E-03-9.57170E-03
 -1      3396 1.97538E-03 6.46804E-04-4.71021E-03
 -1      3397 2.23061E-03 6.25005E-04-9.20687E-03
 -1      3398 2.51859E-03 1.57490E-04-1.02012E-02
 -1      3399-1.63293E-03-2.44945E-05 1.52821E-02
 -1      3400 2.47362E-03 1.04222E-03 7.71147E-03
 -1      3401 3.23743E-03-9.80385E-04 6.05491E-03
 -1      3402-3.71450E-03-1.24411E-04 1.44379E-03
 -1      3403-3.40746E-04-1.38259E-04-1.44812E-02
 -1      3404 3.88586E-03 1.47243E-03-7.66819E-03
 -1      3405 1.73127E-03 8.78544E-04 8.23900E-03
 -1      3406 7.96532E-04 6.46515E-05 1.09359E-02
 -1      3407 5.57274E-03 1.17101E-04-2.27757E-04
 -1      3408 7.44172E-04 5.40073E-04 1.07929E-02
 -1      3409 2.53107E-03 1.17112E-03 8.16271E-03
 -1      3410-1.67849E-03-7.37794E-05 1.52564E-02
 -1      3411-2.02894E-03 1.61403E-04-3.32023E-03
 -1      3412-1.26438E-04-4.22415E-04-1.23831E-02
 -1      3413 1.63449E-04 2.06318E-05 3.96662E-04
 -1      3414 2.25988E-04 6.26252E-05 3.26701E-03
 -1      3415 2.28607E-03 9.30842E-04-1.00462E-02
 -1      3416-1.99815E-03 2.23292E-04 8.38677E-03
 -1      3417 2.25511E-03 1.05073E-03 8.13570E-03
 -1      3418 7.54890E-04 4.37047E-04 9.89924E-03
 -1      3419 1.50628E-03 3.35894E-04 2.67243E-03
 -1      3420 1.90834E-03 5.80033E-05-1.03993E-02
 -1      3421 1.37718E-04 6.68322E-05 2.21796E-03
 -1      3422 2.95965E-03 1.21339E-03 9.50480E-03
 -1      3423 5.41766E-04-2.82926E-04-5.03192E-03
 -1      3424 4.66755E-04 1.71558E-04 2.89251E-03
 -1      3425-1.70252E-03-2.51145E-04-1.25625E-02
 -1      3426 8.21805E-04 4.22131E-04 1.00323E-02
 -1      3427-1.79955E-03-1.72696E-04 2.79256E-03
 -1      3428 3.18280E-03 1.22493E-03-7.37505E-03
 -1      3429 2.81148E-03 1.36153E-03 9.01597E-03
 -1      3430 2.99150E-04 4.22777E-04-7.97368E-03
 -1      3431 9.65990E-05 3.96790E-05 1.31434E-03
 -1      3432 9.40045E-04 2.53994E-04 1.02862E-02
 -1      3433-1.87788E-03 2.48340E-04-1.23103E-02
 -1      3434 1.48114E-03 6.91718E-04 1.05916E-02
 -1      3435 2.08659E-03 2.13100E-04-1.01971E-02
 -1      3436 4.21058E-03-1.22268E-03 6.04583E-03
 -1      3437-2.66365E-03-1.65115E-04-1.04627E-02
 -1      3438 2.19073E-03 9.17660E-04 6.30813E-03
 -1      3439 2.41289E-05-4.08170E-05-7.87766E-03
 -1      3440 2.25869E-03 9.19128E-04-8.62420E-03
 -1      3441 8.99518E-05 1.34775E-04 4.70650E-03
 -1      3442 2.40237E-03 1.40599E-04 1.06675E-02
 -1      3443-2.53415E-04-1.38110E-05 1.02654E-02
 -1      3444 8.19359E-04 5.04742E-04-1.00550E-02
 -1      3445 3.70074E-03 5.10842E-04-1.94668E-03
 -1      3446 1.73323E-03-6.21899E-04 9.98608E-03
 -1      3447-5.90749E-05 1.34399E-05-8.64424E-03
 -1      3448 2.27999E-03 1.07118E-03 9.10500E-03
 -1      3449 1.05675E-03 6.20852E-04 9.25412E-03
 -1      3450 1.79666E-03 5.33955E-04-4.43660E-03
 -1      3451 2.08624E-03 1.06570E-03 8.91399E-03
 -1      3452 1.81117E-03 9.62089E-04 8.86477E-03
 -1      3453 2.76816E-03 1.14183E-03-8.22033E-03
 -1      3454 1.95753E-03 7.13358E-04-9.89596E-03
 -1      3455 1.02338E-04-4.04847E-05-2.10066E-03
 -1      3456 2.54932E-03-8.32211E-04 6.05602E-03
 -1      3457 1.58164E-04-4.54091E-06 1.07802E-02
 -1      3458 9.01475E-04 1.76860E-04-1.00602E-02
 -1      3459 5.15394E-04 3.25387E-04-9.38064E-03
 -1      3460-8.91367E-05 1.45022E-04-9.27600E-03
 -1      3461 2.63859E-03 1.26301E-03 8.75941E-03
 -1      3462 2.88117E-03 3.34140E-04 1.88600E-03
 -1      3463-3.68576E-03-1.07822E-04 4.49931E-03
 -1      3464-1.53824E-04-1.08349E-04 8.79767E-03
 -1      3465 1.63546E-03 3.56300E-04-9.56997E-03
 -1      3466 7.08776E-06 1.45120E-04 4.85137E-03
 -1      3467 1.31004E-04-7.14138E-05 3.33076E-03
 -1      3468 1.36761E-04-3.29698E-05 1.90791E-03
 -1      3469 9.55872E-05 3.30167E-05 1.07261E-02
 -1      3470 3.39510E-04 2.11719E-04 1.02508E-02
 -1      3471 1.28323E-03 4.67883E-04-9.33423E-03
 -1      3472 1.48926E-03 3.63211E-04 1.02136E-02
 -1      3473-2.65795E-05 3.05686E-05-8.14009E-03
 -1      3474 1.57279E-03 5.69654E-04-5.31952E-03
 -1      3475 3.13439E-03 1.35884E-03-8.32455E-03
 -1      3476 3.73184E-03 1.59783E-03 8.25843E-03
 -1      3477-1.95446E-03-2.57190E-04-8.19340E-03
 -1      3478 3.01877E-03 1.31801E-03 7.99343E-03
 -1      3479-3.90061E-04 1.55480E-04-1.43376E-02
 -1      3480 6.02500E-04 3.55706E-04 1.00734E-02
 -1      3481 2.70895E-04-4.33785E-04 8.76422E-03
 -1      3482-5.92991E-05 3.95879E-04-1.21171E-02
 -1      3483 2.26590E-03 1.14125E-03 8.85695E-03
 -1      3484 2.62451E-04-2.38064E-04 5.18153E-03
 -1      3485-1.20436E-04-3.47546E-05-8.67456E-03
 -1      3486 6.89705E-05 1.04838E-04-7.06233E-03
 -1      3487 2.46528E-03-1.00348E-03 9.37833E-03
 -1      3488 2.58469E-03-1.21989E-03 9.05400E-03
 -1      3489 2.53170E-04-3.14688E-04 1.07581E-02
 -1      3490 1.47963E-03 4.71206E-04-4.44087E-03
 -1      3491-1.74099E-05 1.25892E-04-6.63348E-03
 -1      3492 1.91961E-03 6.55981E-04-5.27653E-03
 -1      3493 2.20103E-03 9.96218E-04 9.41974E-03
 -1      3494 2.98095E-03 1.16228E-03-9.98804E-03
 -1      3495 2.34433E-03 1.14499E-03 8.86223E-03
 -1      3496 5.91646E-05 7.25823E-05-7.97460E-03
 -1      3497 1.05833E-04-7.09747E-05 2.80410E-03
 -1      3498 4.62221E-03 6.29426E-04-1.89927E-03
 -1      3499 1.87123E-04 1.03934E-05-7.24038E-04
 -1      3500-3.48183E-03-1.38421E-04-6.72462E-03
 -1      3501-1.63156E-03-5.70734E-05-7.49671E-03
 -1      3502-8.09651E-04-8.09484E-05 1.59070E-02
 -1      3503-1.60877E-03 5.82650E-05 6.93282E-03
 -1      3504-1.62291E-03 6.30769E-05 1.01299E-02
 -1      3505-1.25302E-03 2.43798E-05-8.40250E-03
 -1      3506-1.71437E-03-7.68786E-06-2.86166E-03
 -1      3507-6.93245E-04 1.13166E-04-7.74390E-03
 -1      3508-7.22300E-04 1.68342E-04-1.30697E-02
 -1      3509-1.48182E-03-5.13242E-05-8.42333E-04
 -1      3510-6.20766E-04-3.84881E-05-3.10362E-03
 -1      3511-1.75614E-03 2.78010E-05-7.63094E-03
 -1      3512-7.02151E-04-1.27156E-04-8.02390E-03
 -1      3513-9.41154E-04-5.57478E-05-7.93781E-03
 -1      3514-1.11707E-03-2.77577E-05-9.62049E-03
 -1      3515-1.40324E-03 2.22227E-05 1.05203E-02
 -1      3516-1.80842E-03-6.87175E-05-4.37945E-03
 -1      3517-1.93214E-03 2.60634E-05-5.66383E-03
 -1      3518-7.43629E-04 1.12205E-04 8.90563E-03
 -1      3519-1.38121E-03-5.99516E-05-2.56870E-03
 -1      3520-1.78335E-03 8.45458E-06 3.37250E-03
 -1      3521-8.64858E-04-1.44747E-04-8.53901E-03
 -1      3522-1.39949E-03 2.20130E-05 8.29832E-03
 -1      3523-1.52900E-03-1.16060E-04 8.01783E-03
 -1      3524-9.22640E-04 5.76472E-05 1.32985E-02
 -1      3525-1.04610E-03-2.76473E-05-5.76530E-03
 -1      3526-7.11495E-04-1.70490E-04 1.37273E-02
 -1      3527 2.35788E-03-9.72413E-04-7.87505E-03
 -1      3528-7.86318E-04 4.28541E-06-1.54524E-02
 -1      3529-9.14107E-04 3.76690E-05-2.60927E-03
 -1      3530-6.32567E-04 2.57341E-05-2.73277E-03
 -1      3531 1.77639E-03-8.53168E-04 7.92166E-03
 -1      3532-5.87279E-04-8.51467E-05 4.25203E-03
 -1      3533 3.39830E-03 8.69364E-04 4.32566E-03
 -1      3534-1.89744E-03-8.75690E-05 5.23807E-03
 -1      3535 5.83486E-04-3.98618E-04-9.53517E-03
 -1      3536-1.24548E-03 1.38742E-05 1.06564E-02
 -1      3537 9.12339E-04-5.48588E-04 7.70006E-03
 -1      3538-3.81357E-04-4.68753E-05-3.65154E-04
 -1      3539-7.24595E-04-4.56565E-05-1.33986E-03
 -1      3540-9.72727E-04 3.90390E-05 8.60100E-03
 -1      3541-1.05077E-03-7.73035E-05-1.49056E-02
 -1      3542 9.58168E-04 3.58004E-04 4.38488E-03
 -1      3543 2.93953E-03 1.20093E-03 7.10112E-03
 -1      3544-1.52358E-03-3.30532E-05-8.13487E-05
 -1      3545-1.78802E-03-1.57395E-05-2.87519E-05
 -1      3546-1.34269E-03-4.64481E-05-5.65742E-03
 -1      3547-1.39373E-03-3.58281E-05 9.23726E-03
 -1      3548-8.00738E-04-6.73213E-05-8.49936E-03
 -1      3549-5.94237E-04-1.22869E-04-3.73730E-03
 -1      3550-7.45892E-04 1.90341E-04 1.29798E-02
 -1      3551 8.84531E-04 3.35604E-04-3.77815E-03
 -1      3552-1.75216E-03 2.35006E-05-9.16482E-03
 -1      3553 3.62828E-03-7.92692E-04-4.21955E-03
 -1      3554-6.86171E-04 6.29591E-05 1.13840E-02
 -1      3555 9.07385E-04-5.56546E-04-7.70354E-03
 -1      3556-8.10984E-04 9.26357E-06 1.04258E-02
 -1      3557-1.45626E-03-5.30394E-05-6.29377E-03
 -1      3558 2.84803E-03 1.07875E-03-6.88766E-03
 -1      3559 1.92359E-03-8.72404E-04 1.02778E-02
 -1      3560-1.04306E-03 3.13146E-06 8.60683E-03
 -1      3561-6.10642E-04 9.31001E-05 8.28501E-03
 -1      3562-8.35377E-04-2.66809E-05 6.51060E-03
 -1      3563-8.22185E-04-1.67406E-05 1.02378E-02
 -1      3564 8.76009E-04 2.51417E-05 1.12619E-02
 -1      3565 3.20912E-03-6.06549E-04 3.69199E-03
 -1      3566 1.54607E-03 7.13432E-04-7.06705E-03
 -1      3567 1.80534E-03 2.49128E-05-7.31173E-04
 -1      3568 3.02263E-03 6.13679E-04-3.25363E-03
 -1      3569 1.89773E-03 5.84579E-04 4.86101E-03
 -1      3570 1.51670E-03 8.15321E-04 7.59940E-03
 -1      3571-1.09585E-03-1.82347E-05-5.24875E-03
 -1      3572 2.75669E-03-1.78332E-04 1.58676E-03
 -1      3573-1.69633E-03-4.26648E-05-8.68501E-03
 -1      3574-1.16643E-03 2.33625E-05 9.18959E-03
 -1      3575-4.01006E-04-1.09640E-04-1.01316E-02
 -1      3576-1.68110E-03 9.39911E-07 1.02822E-02
 -1      3577-1.02818E-03 6.51186E-07 5.27830E-03
 -1      3578-8.70789E-04-9.71860E-05-1.54921E-02
 -1      3579-1.41221E-03-4.49194E-05 3.31763E-03
 -1      3580 1.64751E-03 4.07988E-04 3.06364E-03
 -1      3581 2.06096E-03 8.93771E-04-7.63298E-03
 -1      3582-9.96392E-04-7.34673E-05 1.31084E-02
 -1      3583-5.60972E-04-7.62646E-05-5.75628E-03
 -1      3584 1.12116E-03-8.65844E-05 1.41055E-03
 -1      3585 1.94366E-03-7.80855E-04 1.03912E-02
 -1      3586-7.62802E-04-1.82875E-05 8.59465E-03
 -1      3587-8.87190E-04-2.87300E-05 2.90156E-03
 -1      3588-1.47613E-03-6.43877E-05-1.05556E-02
 -1      3589 4.24529E-03 3.63259E-05-2.38379E-04
 -1      3590 3.59939E-03-9.20026E-04-4.75341E-03
 -1      3591 2.67801E-03 6.58417E-04-4.31070E-03
 -1      3592-5.10876E-04 3.36277E-05-1.07277E-02
 -1      3593-1.02009E-04-6.33852E-05 8.23060E-04
 -1      3594-9.32921E-04 3.90370E-05 1.03047E-02
 -1      3595 1.06200E-03-6.10891E-04 8.16266E-03
 -1      3596 2.79483E-03-1.14721E-03 7.58676E-03
 -1      3597 3.06184E-04 3.57597E-04 1.04083E-02
 -1      3598 1.57220E-03 8.57779E-04 8.24755E-03
 -1      3599-1.36048E-03-9.28333E-06 8.64756E-03
 -1      3600-6.59093E-04-1.02958E-04-8.20242E-03
 -1      3601-1.61802E-03 2.31627E-06 8.74044E-03
 -1      3602-1.20429E-03-5.54535E-07 9.67872E-03
 -1      3603-6.82811E-04 6.78439E-05 8.96662E-03
 -1      3604 8.16221E-04 4.55702E-04-6.65181E-03
 -1      3605-7.00779E-04-1.62464E-05-2.07381E-03
 -1      3606 1.29664E-03-6.39458E-04-7.84462E-03
 -1      3607 2.20647E-03-4.73449E-04-3.32131E-03
 -1      3608-1.68025E-03-6.98626E-05-9.51214E-03
 -1      3609 2.62537E-03 9.50148E-04-6.14580E-03
 -1      3610-1.09151E-03 3.43849E-06-9.40687E-03
 -1      3611-1.12947E-03-4.11256E-05 2.66485E-03
 -1      3612 3.79609E-03-1.74794E-04 1.53395E-03
 -1      3613-6.22000E-04 5.68632E-05 1.02393E-02
 -1      3614 2.47388E-03-6.67309E-04-4.71920E-03
 -1      3615-7.42334E-04-4.00459E-05 5.60764E-03
 -1      3616-5.87284E-04 3.16436E-05-4.79061E-03
 -1      3617-1.11359E-03 2.27498E-05 6.23419E-03
 -1      3618 4.68908E-04-2.28520E-04-3.71467E-03
 -1      3619 2.24267E-03 4.67750E-04 3.02273E-03
 -1      3620 1.85568E-03 8.57218E-04 1.03185E-02
 -1      3621-1.34762E-03-2.70934E-05-2.09877E-03
 -1      3622 1.47160E-03 6.38960E-04-8.96835E-03
 -1      3623-6.48284E-04 8.80160E-05 8.58930E-03
 -1      3624 1.63078E-03-5.04184E-04-9.75472E-03
 -1      3625 4.25341E-04-3.27868E-04-9.80987E-03
 -1      3626-5.34291E-04-5.22687E-05-5.09773E-03
 -1      3627 4.36978E-04 3.83280E-04-9.43127E-03
 -1      3628-7.88893E-04-8.75568E-05-6.93870E-03
 -1      3629-6.31733E-04-3.54580E-05-2.12116E-03
 -1      3630-5.92457E-04 4.23951E-05-5.69499E-03
 -1      3631-6.30487E-04-3.48556E-05 9.15859E-03
 -1      3632-1.29714E-03 8.69688E-06 1.13931E-02
 -1      3633-7.21488E-04-2.02003E-05-1.07420E-03
 -1      3634-7.29183E-04-9.94254E-05 8.20656E-03
 -1      3635-2.90877E-04 1.23890E-04-4.15945E-03
 -1      3636 2.82977E-04 2.22904E-05-1.03892E-02
 -1      3637 1.85022E-03-5.41593E-04 5.25238E-03
 -1      3638-1.81300E-03-1.94567E-05-6.64310E-03
 -1      3639 1.69756E-03 4.70797E-04-4.13397E-03
 -1      3640 1.76049E-03 1.07860E-04 1.15354E-03
 -1      3641 1.02298E-03 8.79504E-05-1.03119E-02
 -1      3642 4.52998E-04 7.78760E-06 1.08541E-02
 -1      3643 3.83801E-03 1.04726E-03 4.91058E-03
 -1      3644-5.66987E-04-1.07967E-04 1.07844E-02
 -1      3645-6.56188E-04-1.04768E-05 1.03253E-02
 -1      3646 7.06468E-04-8.24316E-06-1.02083E-02
 -1      3647 2.14229E-03-9.96785E-04 8.24685E-03
 -1      3648-1.08027E-03-4.53954E-05-9.92432E-03
 -1      3649-7.60424E-04 5.36944E-05 5.55891E-03
 -1      3650-1.23549E-03-5.61280E-05-9.75533E-03
 -1      3651 7.40285E-04-4.52240E-04 1.04521E-02
 -1      3652 1.15915E-03 3.85929E-04 4.74255E-03
 -1      3653 3.31385E-03-1.23382E-03 7.01775E-03
 -1      3654 5.55378E-04 6.81363E-05-1.01980E-02
 -1      3655 2.89959E-03-4.34239E-05 6.72635E-04
 -1      3656-8.66997E-04-4.65151E-05-9.63349E-03
 -1      3657 1.92920E-03-6.94160E-04-9.59664E-03
 -1      3658-6.42044E-04 5.67047E-05 1.01100E-02
 -1      3659 9.67847E-04-9.32225E-05 1.07832E-02
 -1      3660-9.48948E-04-4.52666E-05 9.39631E-03
 -1      3661-1.21472E-03-2.01366E-05-1.99731E-03
 -1      3662-1.00256E-03-6.21650E-05-7.48429E-03
 -1      3663-1.66460E-03 2.55833E-05-5.10524E-03
 -1      3664-9.94863E-04 1.38727E-05-9.62337E-03
 -1      3665-1.42091E-03 1.59644E-05 6.62962E-03
 -1      3666-5.26756E-04 2.14078E-05 2.63902E-03
 -1      3667 1.12440E-03-5.39684E-04 1.04446E-02
 -1      3668 5.67825E-04 4.39574E-04 9.87654E-03
 -1      3669 1.00307E-03-2.71829E-04 3.82977E-03
 -1      3670 1.48005E-03 5.96528E-04-9.57782E-03
 -1      3671 1.38235E-03 7.16057E-04 9.63292E-03
 -1      3672-8.05702E-04-3.12318E-06 1.60617E-03
 -1      3673 1.93901E-03-2.55227E-06-7.59685E-04
 -1      3674 1.93081E-03-6.80337E-05 1.22163E-03
 -1      3675 1.17143E-03-5.85644E-04 9.94033E-03
 -1      3676-5.48274E-04-7.85063E-05 6.08585E-03
 -1      3677 1.94506E-03 1.88168E-04 1.05860E-02
 -1      3678 1.16372E-03 1.18256E-04 1.06956E-02
 -1      3679-4.30558E-04 1.08220E-04-9.99557E-03
 -1      3680 3.05711E-03-1.16178E-03-7.94247E-03
 -1      3681-7.26442E-04 7.60666E-05 7.65443E-03
 -1      3682 4.11026E-03 2.58272E-05 1.07659E-04
 -1      3683-7.60040E-04-3.85367E-05 1.85280E-03
 -1      3684-7.72137E-04 6.61469E-05 1.59063E-02
 -1      3685-5.69125E-04 9.06108E-05 6.23385E-03
 -1      3686-1.13357E-03-3.15307E-05-1.46239E-02
 -1      3687-1.41691E-03-3.16518E-05-1.62869E-03
 -1      3688-6.90422E-04-1.17078E-04-8.97643E-03
 -1      3689-5.17927E-04 2.68122E-05 2.03065E-03
 -1      3690-8.25953E-04-1.87506E-04-1.33767E-02
 -1      3691 1.53811E-03 5.57011E-05 1.06996E-02
 -1      3692-2.56062E-04 1.02987E-04 3.81817E-03
 -1      3693-6.52682E-04 6.93446E-05-8.34368E-03
 -1      3694-9.24958E-04-7.14527E-05 8.97150E-03
 -1      3695 8.10642E-04 1.53003E-04 1.06038E-02
 -1      3696-6.23587E-04-1.04204E-04 9.45280E-03
 -1      3697-5.22484E-04 1.00860E-04-8.60873E-03
 -1      3698-5.36815E-04-8.01681E-05 3.61729E-03
 -1      3699-1.05675E-03-1.29205E-04-1.29212E-02
 -1      3700-8.73849E-04 3.81580E-06 2.00065E-03
 -1      3701 4.52245E-03 1.95632E-04-7.83561E-04
 -1      3702 1.05154E-03 5.98588E-04 1.03137E-02
 -1      3703 1.70566E-03 2.82323E-05-1.01786E-02
 -1      3704-8.93589E-04-8.28036E-06 2.97674E-03
 -1      3705 2.06214E-03 4.47091E-04-3.08424E-03
 -1      3706-4.91323E-04-7.65092E-06-1.55503E-03
 -1      3707 3.01878E-03-9.88757E-05-9.41469E-04
 -1      3708 1.83904E-03 1.84384E-04-1.00149E-02
 -1      3709-8.89785E-04-2.28810E-05-1.39377E-03
 -1      3710 1.79623E-03-8.22947E-04 9.51658E-03
 -1      3711-1.03699E-03-8.66706E-06 5.88746E-03
 -1      3712-6.68036E-04 6.04926E-05-7.90691E-03
 -1      3713 8.58496E-04 5.03355E-04-7.63640E-03
 -1      3714 6.85872E-04 4.05704E-04-9.61215E-03
 -1      3715-1.67732E-03-2.85133E-05 1.95436E-03
 -1      3716 4.66261E-03-1.75402E-04 1.29043E-03
 -1      3717 1.86813E-05 1.99020E-05 1.08778E-02
 -1      3718-6.26701E-04 4.39594E-05-9.46901E-03
 -1      3719-6.00949E-04 5.97798E-05-9.68051E-03
 -1      3720-4.51254E-04-3.35423E-05 2.65975E-03
 -1      3721-6.48295E-04-3.50223E-05-9.76435E-03
 -1      3722 4.42673E-04 7.33913E-05 1.07862E-02
 -1      3723-9.02216E-04-8.91031E-05 3.44186E-03
 -1      3724-1.52563E-03 1.98492E-05 2.46530E-03
 -1      3725-1.04090E-03-6.59328E-05 1.53699E-02
 -1      3726-1.01113E-03 7.44933E-05 1.52708E-02
 -1      3727-8.77920E-04-4.15129E-05-2.96925E-03
 -1      3728-9.56839E-04 7.08786E-05-1.26425E-02
 -1      3729-5.28733E-04-1.65927E-06 3.03001E-03
 -1      3730 3.13891E-03 9.15342E-05 5.02694E-04
 -1      3731-1.75172E-03-2.01007E-05 6.22442E-03
 -1      3732-1.07366E-03-3.42913E-05 4.08766E-03
 -1      3733-8.08251E-04 9.41167E-05-8.20076E-03
 -1      3734 3.26458E-04-2.06867E-04 4.81655E-03
 -1      3735-1.25640E-03-1.26638E-05-8.47186E-03
 -1      3736 2.23641E-03 8.90756E-04-9.65073E-03
 -1      3737 2.35609E-03 1.05188E-03 9.53811E-03
 -3
    1PSTEP                         2           1           1          
  100CL  101 1.000000000        3737                     0    1           1
 -4  STRESS      6    1
 -5  SXX         1    4    1    1
 -5  SYY         1    4    2    2
 -5  SZZ         1    4    3    3
 -5  SXY         1    4    1    2
 -5  SYZ         1    4    2    3
 -5  SZX         1    4    3    1
 -1         1-1.35176E+00-1.05039E+00-1.01839E+00-1.50659E-02 1.65590E-02-5.88352E-01
 -1         2-3.20100E-01-1.18910E+00 1.10220E-01-2.42806E-01-3.73847E-02 7.34209E-02
 -1         3 6.71586E-01 2.25647E-01-3.15799E-02-1.42532E-01 3.61749E-02-7.85864E-02
 -1         4 1.68860E-01 2.07341E-01-5.08000E-02 1.48872E-01 5.36441E-02-4.95086E-03
 -1         5 1.71462E-01 1.45347E-02-7.65064E-02-7.96169E-02-3.94393E-02 7.62588E-03
 -1         6 4.96529E-02 4.53938E-04-1.11421E-01-3.75114E-02-4.38071E-02-1.45155E-03
 -1         7 4.80183E-01 2.61554E-01-6.14802E-02-2.26240E-01-5.01960E-02 4.09312E-02
 -1         8 3.70064E-02 5.41620E-02-1.34855E-01-6.14740E-02 4.35227E-02 7.65996E-03
 -1         9 3.67885E-01 2.12225E-01-3.18083E-02-1.95682E-01 3.63550E-02-4.50969E-02
 -1        10 2.89872E-01-2.28986E-03-8.81522E-02-7.00274E-02-3.54157E-02-2.59592E-02
 -1        11 7.90289E-01 2.10006E-01-3.05065E-02-4.19853E-02 9.78234E-03-1.08565E-01
 -1        12 6.18614E-01 1.18810E-01-7.61755E-02 5.38070E-02-2.71740E-03-8.75942E-02
 -1        13 2.42164E-01 1.46639E+00 2.59245E-02-3.80867E-01 7.95256E-02 6.51483E-02
 -1        14 4.58727E-01 1.78059E+00 2.70395E-01 3.57298E-01-6.55541E-02-8.66594E-02
 -1        15 2.60865E-01 1.38875E+00 9.71440E-02-3.82149E-01 1.88429E-02-3.20855E-02
 -1        16-1.43457E-02-1.68363E-02-1.04833E-01 6.63580E-02-6.98308E-02 2.04604E-02
 -1        17 7.12425E-01 8.22346E-01 1.73278E-01 5.30038E-01-8.95137E-02-1.42997E-01
 -1        18 5.53931E-01 2.10364E-01-2.11889E-02-1.95827E-01 3.30222E-02-6.22763E-02
 -1        19-1.39865E-02-4.22680E-02-1.21733E-01-7.01227E-02 5.94490E-02 2.17550E-02
 -1        20-8.00716E-02-3.22842E-02-1.11813E-01-5.76561E-02 6.13274E-02 9.91668E-02
 -1        21-1.81185E-01-1.59757E-01 6.36782E-02-2.00073E-01 2.43381E-02 1.16095E-02
 -1        22-2.15895E-01-2.13588E-01-5.54425E-03-1.58844E-01-5.42846E-02-3.73390E-02
 -1        23-8.69915E-01-1.54570E-01-1.15031E-02 2.75810E-01 1.70011E-01-1.73163E-01
 -1        24-4.61315E-01 9.19864E-02 6.40277E-02-1.31515E-01 4.60586E-02-2.69755E-01
 -1        25-4.62482E-01-2.61922E-01 1.13029E-02-2.00870E-01-4.40020E-02-5.70148E-02
 -1        26-8.76572E-01-8.90498E-02-3.89170E-02 2.51218E-01 8.55246E-02-1.60017E-01
 -1        27-2.07134E-01-1.31871E+00 7.76477E-04 1.94258E-01 2.24195E-02-5.19538E-02
 -1        28-1.01673E-01-1.13503E+00 1.08280E-01 1.33669E-01 4.21584E-02 2.52604E-02
 -1        29-3.84255E-01-1.58352E+00-1.21758E-01-3.64047E-01-6.03058E-02 3.32186E-03
 -1        30-1.63115E-01-6.30038E-02 4.35258E-01 9.31140E-02-4.77230E-02-4.99012E-02
 -1        31-7.23119E-01-1.59125E-01 7.55486E-02-3.13738E-02-1.40086E-02-9.99478E-02
 -1        32-2.12193E-01-8.86051E-02 2.78993E-01-1.23644E-01 5.14961E-02-1.68741E-02
 -1        33-2.26530E-01-1.10395E-01-3.16389E-01-3.11779E-03 3.68463E-03 2.67716E-01
 -1        34-9.22935E-01-2.21491E-01 8.95133E-02 2.45985E-02-8.63701E-03 7.31284E-02
 -1        35-1.51964E-01-1.79148E-01 3.27756E-02 1.35667E-01-5.70319E-02-9.89590E-03
 -1        36-4.71324E-01-3.22124E-01 4.15659E-02-2.38121E-01 6.44694E-02 2.95514E-02
 -1        37-4.72406E-01-2.05449E-01 6.53289E-02-1.98275E-01 2.18118E-02-3.78983E-03
 -1        38-6.69708E-01-1.95069E-01 8.04175E-02-1.41065E-01-2.27926E-02-9.42526E-02
 -1        39-2.84712E-01 8.44190E-03 1.34882E-01-7.89155E-02 5.26323E-02-4.74937E-02
 -1        40-2.93090E-01-2.44104E-01 2.90518E-02-1.84295E-01-6.55159E-02-6.63517E-02
 -1        41-2.35489E-01-1.74430E-01-1.08500E-02 1.64622E-01 1.12459E-02-1.45147E-03
 -1        42-1.43596E-01-1.34859E-01 1.50194E-03 1.54264E-01 6.72887E-02-5.07962E-02
 -1        43-5.39605E-01 4.57900E-02-1.31587E-02 2.74418E-01-2.72084E-02-2.75473E-01
 -1        44 4.59408E-01-7.44721E-02-9.13337E-02 1.86106E-01 6.32661E-02-2.61325E-01
 -1        45 1.29907E-02 2.98412E-02-1.44603E-02 1.06432E-01-1.01545E-02 6.61051E-03
 -1        46-6.04265E-01-2.06464E-01 6.99938E-02 1.54072E-01 5.63306E-02-8.67157E-02
 -1        47-6.24456E-01-6.62163E-01-4.92185E-02-5.27839E-01-1.71672E-01-8.04913E-02
 -1        48-7.28749E-01-2.70528E-01 7.68577E-02 1.85347E-01-5.25705E-02 8.16266E-02
 -1        49-6.85182E-01-1.93964E-01 4.75149E-02 1.16447E-01 4.30905E-03-5.84157E-02
 -1        50-4.14581E-01-2.61527E-01 3.15151E-02 1.91813E-01 4.41699E-02-4.01424E-02
 -1        51-8.99709E-01-5.45999E-02-2.19109E-02-1.48820E-01-1.40552E-02-1.76696E-01
 -1        52-3.83014E-01-1.57548E-01 7.50271E-02 1.47035E-01-1.04369E-03 7.98521E-03
 -1        53-5.09381E-01-2.88423E-01 5.38478E-02 2.35107E-01-3.69246E-02 4.47005E-02
 -1        54-4.47554E-03-1.16632E-01 1.20281E-01 8.65867E-02 1.37219E-01 2.79316E-02
 -1        55-3.14910E-01-2.58288E-01 8.89370E-02 1.81534E-01-5.63134E-02 3.21120E-02
 -1        56-1.64972E-01-8.13624E-02-2.60894E-01 6.36297E-02-1.21165E-01 1.91035E-01
 -1        57 2.21864E-02-2.63554E-02 2.78080E-02 3.86357E-02 9.52030E-02 3.16085E-02
 -1        58 5.10710E-02 5.20609E-02-6.47591E-03 5.71028E-02 4.12967E-02 2.39976E-02
 -1        59 6.49656E-01 7.58968E-02 8.62236E-02-2.80141E-01 4.70433E-02-1.88773E-01
 -1        60 1.48355E-02-1.08345E-02-1.51322E-02-7.13371E-02 1.28043E-02 8.43069E-02
 -1        61-1.63861E-03-2.16115E-02 3.84961E-02-1.14827E-01-1.13462E-02-1.20475E-02
 -1        62-5.71290E-01 4.19105E-02-1.57908E-02-1.21445E-01 5.54333E-02-3.04213E-01
 -1        63 2.31652E-01 1.80466E-01 1.06368E-02-1.58109E-01 4.17470E-02-2.73997E-02
 -1        64 1.20517E-01 1.45114E-01-8.23179E-02-1.41868E-01-4.52110E-02-1.15930E-02
 -1        65 5.83982E-02 3.50604E-02 1.17558E-01-6.46111E-02-6.75042E-02 9.69575E-02
 -1        66 3.03742E-02 2.32197E-02 1.10011E-02-1.05098E-01 4.24217E-02-2.20225E-02
 -1        67-6.62504E-03 5.15797E-03-1.97205E-04-1.41471E-01-1.23476E-02-1.74435E-03
 -1        68 2.95138E-02 3.99201E-02 1.17937E-02 7.26898E-02-3.53697E-02 1.51329E-03
 -1        69 7.08083E-01 8.83393E-01 4.28525E-02-6.59527E-01 1.96149E-01-4.52171E-03
 -1        70 4.51107E-01 3.12055E-01-6.70201E-03 2.26715E-01-5.05114E-02-5.12297E-02
 -1        71 8.07322E-01 1.91753E-01 1.71742E-01 1.98749E-01-8.00554E-02-1.37273E-01
 -1        72 4.88922E-01 6.63691E-01 5.51043E-02 4.52508E-01-1.39022E-01-1.06831E-01
 -1        73 5.69354E-01-1.88172E-02-4.68395E-02 1.11676E-01-6.35255E-02-1.07498E-01
 -1        74 2.33002E-01 2.26351E-01-5.09486E-02-1.91668E-01 5.01982E-02-3.24108E-02
 -1        75 2.96713E-01 1.14474E-03-2.47303E-01 1.84617E-02-7.07254E-02-1.71113E-02
 -1        76 4.79993E-01 3.61758E-01-3.28687E-02 2.55468E-01 4.84266E-02 3.72883E-02
 -1        77 2.62486E-01 2.39763E-02-1.46148E-01 3.95047E-02 2.49092E-02-1.45864E-02
 -1        78 5.83117E-01 2.42262E-01-4.04660E-02 1.76869E-01-5.21495E-02-6.83968E-02
 -1        79 5.87840E-01 1.56576E-01-4.87076E-02 1.22981E-01-3.31466E-02-7.27861E-02
 -1        80 3.52632E-01-1.52547E-02-1.12285E-01-5.64845E-02 5.73519E-02-2.85810E-02
 -1        81 7.26647E-01 2.23055E-01-7.96588E-02 1.50504E-01 1.81665E-02 6.00817E-02
 -1        82 3.87689E-01-2.72918E-02-1.87039E-01-6.96103E-02-8.91208E-02 1.51251E-02
 -1        83 6.47191E-01 2.54422E-01-6.16502E-02 2.11188E-01 3.78267E-02 1.03031E-01
 -1        84 1.98368E-01 1.27179E-01 2.88406E-01-2.62405E-02-8.61738E-02 2.28452E-01
 -1        85 7.51972E-01 2.56740E-01-5.48399E-02-1.82712E-01-4.98908E-02 9.47433E-02
 -1        86 1.60398E-01 7.45489E-02 2.71738E-01-6.48660E-02-6.39677E-02 2.05803E-01
 -1        87 1.43848E-01 8.67958E-02 2.29634E-01-4.90935E-02-1.13558E-01 1.61234E-01
 -1        88 2.78198E-01 4.29257E-02-1.82622E-01-1.65277E-01 1.23765E-01-3.69655E-02
 -1        89 8.57102E-01 2.05115E-01-7.92651E-02 7.63493E-03 2.84232E-02 9.94453E-02
 -1        90 1.93308E-01 6.21010E-02 2.97750E-01 5.52879E-02 8.84528E-02 2.36066E-01
 -1        91-2.20372E-01-4.32621E-02-3.07535E-01 1.69745E-02 1.97862E-02 2.44803E-01
 -1        92-5.95412E-01-1.19212E-01 4.00658E-02 1.85396E-02 1.44739E-02-1.09494E-01
 -1        93 9.35144E-02-7.03488E-02 1.60113E-02-9.29790E-03-4.55135E-03-5.79534E-02
 -1        94-7.30855E-01-7.01357E-01-6.04631E-01 1.28486E-03 1.67755E-02-2.85058E-01
 -1        95-7.78983E-01-1.36460E-01 1.15195E-01-9.58025E-02 1.83764E-02 4.08647E-02
 -1        96-2.74426E-01-6.38215E-02 1.63881E-01-1.75558E-01-9.78906E-02-1.33981E-02
 -1        97-2.52081E-01-4.34048E-02 8.89552E-02 1.36221E-01 8.72229E-02-5.84374E-02
 -1        98-5.76948E-01-7.28426E-01-4.33631E-02 5.78764E-01 1.16414E-01-6.65272E-02
 -1        99-1.16753E+00-9.69531E-01-8.61267E-01 3.17844E-02 6.30172E-02-4.30433E-01
 -1       100-9.82454E-02-1.20213E-01-2.51871E-01-1.29919E-02 1.12949E-01 1.74410E-01
 -1       101-1.54272E-01-1.49215E-01-1.90742E-01-3.72509E-02 1.03757E-01 2.06997E-01
 -1       102 8.08981E-02-7.29503E-02-3.60270E-02-3.29132E-03 2.66807E-02-2.56392E-03
 -1       103-7.58200E-01-3.18258E-01 8.96025E-02-2.30901E-01 4.06038E-02 8.37915E-02
 -1       104-3.34496E-01-2.91038E-01-3.58800E-01 3.09172E-03 1.48901E-01 2.69206E-01
 -1       105-5.21521E-01-1.43299E-01 2.92311E-02-1.78287E-01-4.13812E-02-9.01525E-02
 -1       106-3.73052E-01 2.88019E-02 1.95065E-01 6.86460E-02 9.19863E-02-1.09299E-02
 -1       107-1.17233E-01-1.58628E-01 7.86864E-02-1.57984E-01-9.50300E-02-2.08911E-02
 -1       108-3.88336E-01-4.24147E-01-2.73875E-01 1.12109E-01 1.09840E-01-1.11423E-01
 -1       109-1.29498E-01-2.63765E-01-2.66859E-01 5.41168E-02-1.07934E-02-7.58841E-02
 -1       110-2.49545E-01-2.06058E-02 2.73557E-01 4.17934E-02-6.28277E-02 5.55817E-04
 -1       111-6.98388E-01-1.71054E-01 9.14145E-02-1.70561E-01 1.38278E-02 5.47184E-02
 -1       112-1.09542E-01-1.65688E-01-9.32033E-02-4.30619E-03-4.49983E-02-3.53502E-02
 -1       113-1.06557E-01-2.41720E-01 2.19937E-01-2.09031E-01 8.65113E-02-6.16368E-02
 -1       114-6.19689E-01-6.53156E-01-1.36210E-01 5.89505E-01 5.28989E-02-8.42786E-02
 -1       115 7.04750E-02 2.66425E-02 1.00524E-01 7.64065E-02 3.50973E-02-4.62931E-02
 -1       116-1.49726E-01-8.90815E-02-2.24228E-01-4.11407E-02 1.08822E-01 1.59501E-01
 -1       117-1.33812E-01-6.31854E-02-1.82227E-01-6.92538E-02 1.06723E-01 1.27649E-01
 -1       118-3.64699E-02-1.10229E-01-1.65581E-01 3.94858E-02-2.41691E-02-1.06152E-01
 -1       119-5.38832E-01-3.70280E-01-3.25282E-01-3.50008E-02 7.92103E-04-4.30988E-01
 -1       120-4.82981E-01-2.79859E-01-3.47047E-01 3.50240E-02 3.60764E-02-2.41174E-01
 -1       121 1.03709E-01 2.73153E-02 2.16487E-03 3.25132E-02 4.53602E-02-2.54416E-02
 -1       122-3.83837E-01 7.14315E-03 1.10952E-01-7.94080E-02-5.00253E-02 5.47284E-03
 -1       123-1.39775E-02-1.98608E-01 4.24028E-02-7.72488E-02-8.13116E-02 3.24869E-03
 -1       124 7.65725E-03-1.81774E-01 1.57291E-01-8.24432E-02 9.99057E-02-5.24606E-02
 -1       125-3.90860E-01-3.31858E-01-2.63519E-01-1.83287E-01-2.02213E-02-4.68710E-01
 -1       126-2.18190E-01-1.73381E-01-1.83291E-01-5.30375E-02 9.04504E-02 3.68448E-02
 -1       127-2.93499E-02-3.71042E-02-9.32680E-03-6.31679E-02 2.84087E-02 7.95325E-02
 -1       128-4.46099E-02-4.46604E-02-3.61006E-02 3.28917E-02 3.31754E-02-4.60656E-02
 -1       129 7.79749E-02 7.91311E-02 1.01746E-01 3.78266E-02-3.80300E-03-8.13765E-02
 -1       130-2.61813E-02 5.42909E-02 4.20540E-02-2.77447E-02 6.36493E-02 7.26541E-03
 -1       131-1.71568E-01-2.08942E-02 8.71624E-02-7.33551E-02 4.17740E-02 4.81738E-03
 -1       132-1.80451E-01-1.42733E-01 3.04177E-02-1.41652E-01 6.54723E-03 3.06736E-04
 -1       133-1.19172E-01-1.59140E-01 8.67922E-03-1.41393E-01 6.91471E-02 1.31979E-02
 -1       134 1.25118E-02-5.70004E-02 1.57766E-02-1.75736E-02 6.26093E-02-1.96318E-02
 -1       135-2.02749E-01-5.15543E-02 1.11000E-01-1.30895E-01-6.64937E-02-9.14421E-03
 -1       136 3.03089E-02-3.75380E-02 6.82587E-02-3.63782E-02-9.50968E-02 5.02151E-02
 -1       137-5.71080E-02-4.77548E-02-1.24947E-02-7.48387E-02 4.89946E-02-3.32991E-02
 -1       138 3.71656E-02-1.81557E-02 9.99340E-02-4.30691E-02-1.82125E-02 8.51310E-02
 -1       139 1.34969E-01 1.43835E-01 1.51830E-01-4.17616E-02-4.28073E-02-3.55984E-02
 -1       140 2.39842E-02 6.39155E-03-2.49958E-02-1.15007E-01-7.14696E-02 8.56434E-03
 -1       141-7.69970E-02-6.79421E-02-1.31931E-02-7.75002E-02 5.93803E-02 4.67230E-02
 -1       142 5.54284E-02 5.55039E-02 1.14097E-02-5.75642E-02 3.79212E-02-3.14581E-02
 -1       143-5.02028E-02-5.51053E-02 1.38598E-02-5.90985E-02-4.12365E-02-1.99491E-02
 -1       144-2.92564E-02-3.14295E-02-2.66945E-03 9.99238E-03-1.15352E-03-3.46017E-02
 -1       145 5.99774E-02 5.33946E-02-1.92445E-02-6.70553E-02-5.79933E-02 2.81899E-02
 -1       146 4.74806E-02 2.06422E-01 1.38772E-01-5.73080E-02 9.89335E-02-1.81909E-01
 -1       147 3.96791E-01-2.62715E-02 2.67943E-02-2.50279E-01-1.01080E-01-3.44246E-01
 -1       148 2.66819E-02 5.05602E-02 3.63853E-02-6.36767E-02-4.76401E-02 8.13309E-02
 -1       149 8.40863E-02 9.24826E-02 8.51314E-02-1.07111E-02-1.40435E-01 3.04192E-02
 -1       150 4.35892E-01-6.56330E-02 3.91563E-02-2.18995E-01-6.74892E-02-3.06246E-01
 -1       151 1.60229E-01 8.76685E-02 7.99250E-02-1.06243E-01-8.10669E-02-4.91039E-01
 -1       152 2.02046E-01 1.87740E-01-3.66205E-02-1.79109E-01 4.24865E-03-3.74532E-04
 -1       153 5.39108E-02 4.63788E-02 2.54551E-03 2.47474E-02-1.60974E-02-3.38420E-02
 -1       154 5.72823E-02 3.58102E-02 8.22526E-02-2.00876E-02 6.56640E-03-1.82672E-01
 -1       155 2.03486E-01 1.37928E-01-1.55319E-02-1.41531E-01 2.15375E-03 1.06945E-02
 -1       156 1.63054E-01-6.45003E-02-6.55961E-02 1.76330E-02-1.34903E-01-1.16990E-01
 -1       157-3.11322E-02-2.51226E-02-8.52580E-02 5.29464E-02-5.94231E-02-5.10894E-02
 -1       158 2.05704E-01 5.89462E-02-6.36288E-02-1.26946E-01 4.80364E-02-2.00449E-02
 -1       159 5.48135E-02 6.75490E-02-9.70687E-03 1.86981E-02 3.35257E-02-2.56508E-02
 -1       160 1.03073E-01 8.57212E-02 2.60964E-01-5.49928E-02-9.75768E-02 1.63404E-01
 -1       161 2.55166E-01 2.37387E-01-1.08904E-01-1.85904E-01-6.79436E-02 3.84102E-02
 -1       162-6.39796E-02-1.07812E-02-8.49806E-02 6.52758E-02-3.15979E-02-6.53505E-02
 -1       163 3.20100E-01 1.18778E-01 2.06082E-01-2.79133E-02-6.82496E-02-1.95616E-01
 -1       164-5.66281E-03 2.11777E-01-1.24140E-01-7.28589E-02-6.60608E-02-4.39652E-02
 -1       165 3.36012E-01 3.06656E-01 1.11875E-01 1.41217E-01-1.21017E-01-8.64132E-02
 -1       166 5.02459E-02 1.03860E-01 1.60790E-01 4.92929E-02 1.97473E-03-1.56056E-02
 -1       167 3.18894E-01-2.08012E-02-1.67339E-01-6.86916E-02 7.50092E-02 1.04479E-02
 -1       168 1.11354E-01 4.75482E-02 1.11898E-02 5.94030E-02-1.46285E-02-5.35342E-02
 -1       169 1.11259E+00 9.43040E-01 8.32555E-01-4.94316E-02-5.05306E-02-4.10451E-01
 -1       170 2.06971E-01 1.23691E+00-1.13739E-01 2.76617E-01-4.18299E-02-1.12235E-03
 -1       171 1.30266E+00 1.10726E+00 1.08956E+00 1.53366E-02 7.86518E-02-5.49564E-01
 -1       172 3.85097E-01 2.82333E-01 3.38295E-01-2.24558E-02-1.57832E-01 2.52862E-01
 -1       173 9.22790E-01 7.85388E-01 6.11116E-01-3.76443E-02-9.32951E-02-3.86413E-01
 -1       174 1.12259E-01 1.28888E-01 5.79830E-02 2.74052E-02-7.51840E-03-4.81488E-03
 -1       175 4.23818E-02 1.32733E-01 1.43448E-01-8.88345E-04-3.62016E-02-2.46805E-02
 -1       176 1.13519E-01 1.90440E-01-1.15414E-01-1.73977E-01 8.52382E-02 5.64423E-03
 -1       177 3.64180E-01-2.45646E-02-1.55633E-01 5.73277E-02-7.79304E-02-3.17029E-02
 -1       178 1.53566E-01 4.05389E-01 1.18133E-01 7.20142E-02-3.89130E-02-4.97491E-02
 -1       179 1.08758E-01 1.26311E-01 9.24922E-02 3.36202E-02 5.53091E-02-1.62039E-02
 -1       180 2.56035E-01 1.07090E-02-2.66654E-01 5.43985E-02 6.47842E-02-2.78764E-02
 -1       181 6.89377E-01 1.37422E-01-8.16331E-02-1.22250E-01-1.44933E-02 3.05326E-02
 -1       182 1.01465E-01 1.60525E-01-2.23028E-01-1.78709E-01-1.30804E-01-3.36355E-02
 -1       183 3.58421E-01 3.83712E-01 2.52873E-01 7.54435E-02-5.45809E-02-1.28088E-01
 -1       184 2.39602E-01 1.15808E-01 3.34646E-01-2.25944E-02-2.67023E-02 2.83164E-01
 -1       185 9.16265E-01 8.89628E-01 7.84252E-01 5.36702E-02-5.74902E-03-4.34067E-01
 -1       186 2.24446E-01 4.41898E-02 3.45895E-01 2.32926E-03-3.79485E-02 2.63107E-01
 -1       187 2.80942E-01 3.23236E-01 3.93459E-01-5.69418E-02-2.94186E-02 4.27408E-01
 -1       188 2.16996E-01 5.14088E-01 2.25314E-01 5.84935E-02-3.44405E-02-8.06374E-02
 -1       189 1.71213E-02 1.69867E-01 4.55584E-02 1.67275E-02-9.80315E-03-8.00154E-02
 -1       190 2.91732E-01 7.62207E-02-1.03776E-01 1.77335E-01-7.72308E-02-3.13630E-02
 -1       191 6.88223E-01 1.45995E-01-1.19709E-01-1.00282E-01-1.03783E-02 6.12326E-02
 -1       192 3.07899E-01 9.39014E-02-1.94960E-01-2.16156E-01-9.23053E-02-2.03089E-02
 -1       193-8.77396E-02 3.81243E-02 4.09988E-02-9.02348E-03-4.10795E-02-2.23600E-02
 -1       194 2.62600E-01 4.66785E-01 3.01591E-01-1.30287E-02 3.44743E-02-3.57268E-02
 -1       195 2.48084E-01 3.70839E-02-2.89221E-01 1.74438E-01 1.45769E-01-1.68665E-02
 -1       196 9.05466E-01 1.02546E+00 8.12765E-01-1.46570E-02-5.67310E-04-3.70049E-01
 -1       197 1.85160E-01 4.05773E-02 3.00639E-01 7.99348E-02 9.92730E-02 2.35559E-01
 -1       198 2.03757E-02 7.77935E-02 7.11993E-02-1.16447E-02 2.52026E-02 3.34205E-02
 -1       199 3.63700E-01 3.06934E-01 3.51527E-01-5.21628E-03 8.14352E-02 3.24918E-01
 -1       200 2.24627E-01 4.03850E-01 2.06478E-01-3.99941E-02 1.99333E-02-2.84549E-03
 -1       201-2.45552E-05 1.20850E-01 1.01418E-01-3.70515E-02 3.83897E-03-8.97018E-02
 -1       202-8.56510E-02 7.85732E-03-8.09875E-02-5.37201E-02 3.01578E-02 1.67296E-02
 -1       203 1.12099E-01 1.53182E-01-1.50123E-01 1.68092E-01-1.20329E-01 1.00497E-03
 -1       204 1.25050E-01 2.24415E-01-1.24360E-01 1.95940E-01 8.37620E-02-1.15005E-02
 -1       205 1.15230E-01 4.54825E-02 1.97147E-01 6.07986E-02 8.88155E-02 1.47101E-01
 -1       206 7.33072E-01 8.03963E-01 1.44105E-01-6.76994E-01 6.80147E-02-5.39171E-02
 -1       207 9.54705E-02 4.40197E-02 1.41381E-01 7.44204E-02 7.91767E-02 1.28262E-01
 -1       208 3.82020E-02 8.82062E-02 6.43444E-02-5.14469E-02-2.62948E-02-8.64060E-02
 -1       209 4.53134E-01 1.69426E-01-6.18222E-02 1.99820E-01 6.78916E-03-1.24775E-02
 -1       210-3.87271E-02 2.97431E-02 3.43620E-02-9.68788E-02 8.83499E-03-3.97312E-02
 -1       211 9.67514E-04 2.00090E-01-1.24766E-01 8.85702E-02 1.05241E-01-3.64055E-02
 -1       212 6.23032E-02 1.24539E-01 1.80449E-01-3.46469E-02 5.07222E-02 2.18991E-02
 -1       213 4.04065E-02-3.57358E-03 1.02769E-01-3.55336E-02-6.08918E-02-1.50855E-02
 -1       214 4.92827E-01 2.07144E-01-1.10807E-01 2.17597E-01-9.91465E-03-3.44512E-03
 -1       215 1.46580E-03 1.97022E-01-1.19330E-01 8.66221E-02-1.02345E-01 3.44793E-02
 -1       216 2.51713E-01 2.31213E-01 2.67694E-01-4.23338E-02 3.17082E-02-3.39705E-02
 -1       217 4.39336E-01-7.17694E-02-5.53580E-02 1.65233E-01 8.83083E-02-3.34655E-01
 -1       218 7.96701E-01 1.35119E-01 8.39597E-02-3.04298E-01 8.20728E-02-2.22549E-01
 -1       219-3.94571E-02-2.90015E-02-1.50618E-02-5.21993E-02 3.32674E-02-4.56947E-02
 -1       220 1.26432E-01 1.42412E-01 1.53189E-01 2.74415E-02 1.38417E-01 4.28738E-02
 -1       221 8.01178E-02 3.52231E-02 1.31372E-01 7.39015E-02 7.18843E-02 1.16924E-01
 -1       222 1.86648E-02 3.79913E-02-2.53696E-03 7.36040E-02 2.55300E-02 9.88644E-02
 -1       223-4.48244E-02-7.51548E-02-1.64409E-01-5.81224E-02-3.60275E-03-4.41645E-02
 -1       224 2.39806E-01 2.44529E-01-2.18515E-02 1.94320E-01 1.12864E-03 2.27822E-03
 -1       225-7.87684E-02-5.40408E-02 2.04401E-02 1.54267E-02 1.11368E-01 5.93929E-03
 -1       226 2.07327E-01 1.09096E-01 1.47181E-01 6.00466E-02 8.65893E-03-4.73343E-01
 -1       227-3.29962E-02-3.48914E-02-9.43762E-02-5.71193E-02 3.90164E-02-7.10360E-02
 -1       228 2.36161E-01 2.02993E-01 1.11505E-02 1.59883E-01-1.42141E-02-6.82298E-03
 -1       229 2.00151E-01 1.80090E-01-3.16364E-03 1.50647E-01-5.82068E-02-4.80696E-02
 -1       230-2.67771E-02 5.82000E-02-8.44071E-02 1.67233E-02 6.12772E-02-5.09738E-02
 -1       231 2.22221E-01 7.55410E-02-6.30385E-02 1.44732E-01-3.94383E-02-7.69345E-03
 -1       232 4.88483E-02 3.59620E-02-6.76511E-02-1.97751E-02-4.94539E-02-5.52558E-02
 -1       233 1.82190E-01 5.94914E-02-6.55173E-02 1.19891E-01 3.83435E-02 4.04832E-03
 -1       234 2.72632E-01 1.69562E-01 2.03593E-01-3.83227E-02 2.16996E-02-7.31068E-03
 -1       235 2.57858E-02 3.75041E-03 5.23810E-03 3.57341E-02 4.43227E-03 4.22310E-02
 -1       236-3.42819E-02-5.30546E-02-5.92128E-02 2.36871E-02-4.66748E-04-2.14110E-02
 -1       237 2.16134E-02 5.10765E-03-1.56142E-02-4.30826E-02 2.20903E-02-8.51821E-02
 -1       238 1.42120E-01 1.10229E-01 1.14488E-01 5.41758E-02 4.68899E-02-2.86064E-02
 -1       239-1.29092E-02-9.51734E-03 1.74378E-02 1.23914E-01-5.99119E-03-8.58367E-03
 -1       240 9.02400E-03-8.33935E-03 4.69189E-02 2.33855E-02 1.16838E-02 3.59488E-02
 -1       241-2.73628E-02 7.95257E-03-2.50902E-02 8.41025E-02-5.72711E-02 1.56195E-02
 -1       242-5.23397E-02-2.25019E-02 2.11901E-02-4.79807E-02-3.95127E-02-9.55768E-02
 -1       243 8.77258E-03 1.10320E-02 3.28286E-02-2.87996E-02 1.33579E-02-6.76677E-02
 -1       244 4.36848E-02 6.54489E-02 5.25051E-02 1.15836E-01-5.55964E-02-2.34445E-02
 -1       245-3.20045E-02-3.40652E-02-1.07331E-01-2.61151E-02-6.04695E-02-6.71639E-02
 -1       246-3.99909E-02-2.65322E-02-3.64790E-03 3.80443E-02-3.75195E-02 2.69769E-02
 -1       247-5.73174E-03 1.06751E-01 7.78139E-02 4.10460E-02-7.66524E-02-2.36900E-01
 -1       248 8.57165E-02-6.64947E-02-6.03922E-02 2.70930E-02 7.73307E-02-2.05930E-01
 -1       249-4.43048E-02-4.69752E-02 3.22012E-02 5.60203E-02 4.55441E-02-1.28622E-02
 -1       250-5.93949E-01 3.60253E-02-5.24075E-02 2.17951E-01-4.58453E-02-3.31246E-01
 -1       251-8.51456E-02-2.84249E-02-1.05528E-01 5.48993E-02-5.58667E-02 9.84524E-02
 -1       252-3.75345E-02-3.44035E-02-8.42223E-03 6.01904E-02-2.56951E-02 7.19697E-02
 -1       253 7.23363E-03 4.47013E-02-1.83701E-03 4.21460E-02-4.68463E-02 1.99440E-02
 -1       254 1.44966E-02-2.89674E-02 1.20960E-02-9.81529E-03-3.87569E-03-3.68980E-02
 -1       255-1.70447E-01-1.56344E-01 3.99590E-02 1.76843E-01-9.16524E-03-3.95577E-03
 -1       256-1.92785E-01-6.47785E-02 5.12499E-02 1.24238E-01-3.39776E-02 9.11177E-03
 -1       257 3.21188E-02 2.12023E-02 3.76927E-02-5.37112E-02-9.02735E-03-6.29830E-02
 -1       258-1.89144E-01-5.36546E-02 5.38949E-02 1.15301E-01 4.34174E-02-2.10518E-02
 -1       259-7.84877E-02-2.57794E-02-3.96806E-02 2.53831E-03 1.09910E-02-7.56000E-03
 -1       260-5.98921E-02-2.34125E-02-6.33617E-02-3.80608E-02-2.75449E-02-3.90291E-02
 -1       261 2.78369E-02-4.18531E-02 7.72376E-02 2.48693E-02-7.19548E-02-4.97811E-02
 -1       262-1.50177E-02-3.57152E-02-1.00941E-01-4.07171E-02 2.51516E-03-9.54538E-03
 -1       263-2.68105E-01-1.01703E-01-7.68169E-02-6.58041E-02-9.16028E-02-1.44600E-01
 -1       264-8.73359E-01-5.94870E-01-6.33288E-01 1.23778E-01 2.69941E-02-5.30471E-01
 -1       265-6.76734E-01 6.55925E-02 5.58594E-02-9.48137E-02-1.03758E-01-1.25771E-01
 -1       266-1.15757E-01-7.61846E-02-2.97603E-01 7.12562E-02-1.20001E-01 1.85263E-01
 -1       267-6.09004E-02-1.17433E-01-1.03517E-01-2.46082E-02-4.60315E-02-9.92166E-03
 -1       268-5.44475E-01-6.50197E-01-6.76228E-02-5.96847E-01-6.43208E-02-1.29255E-01
 -1       269-3.34277E-01-2.18015E-01-2.57631E-01-5.73445E-02-3.85689E-02-1.74335E-01
 -1       270 5.20618E-02 1.37840E-02 2.01558E-02-8.58225E-02-3.52737E-02-4.54892E-02
 -1       271-3.19917E-01 8.55471E-03 9.70091E-02 6.20924E-02-4.55630E-02 4.32522E-03
 -1       272 9.52078E-02 7.03268E-03 2.66715E-02-5.03635E-02-5.51478E-02-4.67797E-02
 -1       273 1.28116E-02-1.79283E-01 1.48788E-01 6.48215E-02-6.27437E-02-5.59865E-02
 -1       274-3.70612E-01 6.36398E-03 1.18814E-01 8.41946E-02 5.04151E-02 2.16108E-02
 -1       275-3.10827E-01-2.61477E-01-2.02965E-01-1.53498E-02 3.27382E-03-4.52971E-02
 -1       276-1.22002E+00-9.94864E-01-9.59279E-01 1.30794E-02-1.49741E-02-5.10924E-01
 -1       277-2.37444E-01-1.20727E-01-2.36540E-01 1.82271E-02-1.24980E-01 3.28600E-01
 -1       278-1.83056E-01-5.64871E-03-2.81369E-01 6.27699E-02-7.10881E-02 2.28256E-01
 -1       279-7.25183E-01-6.35216E-01-4.82432E-01 3.20310E-02-3.45078E-02-3.68932E-01
 -1       280 1.21786E-01-7.62473E-02-5.59274E-02-3.23422E-02-1.44700E-02-4.54932E-02
 -1       281-6.37041E-01-1.51690E-01 5.62822E-02 1.22930E-01-2.10876E-02 4.54663E-02
 -1       282-1.77443E-01-1.39804E-02-3.01423E-01 6.16045E-02-8.34011E-02 2.31720E-01
 -1       283-1.15906E-01-9.79559E-02 1.34624E-01 1.49008E-01 1.53290E-01-2.95124E-02
 -1       284-3.99743E-01 1.67922E-02 1.48466E-01-7.66687E-02-6.93476E-02-4.95570E-03
 -1       285 1.60126E-01-3.56501E-02 3.19504E-02-6.55929E-02-1.21704E-02-2.52050E-02
 -1       286-3.85731E-01 1.75358E-02 1.49152E-01-7.37743E-02 6.97216E-02 5.24294E-03
 -1       287-8.55840E-02-1.69253E-01 2.60771E-01 1.78113E-01-1.18954E-01-6.21032E-02
 -1       288-3.03349E-02-1.43053E-01-1.03123E-01-2.06292E-02-2.70661E-02-5.05094E-02
 -1       289-1.77401E-01-5.77731E-02 1.43726E-02-5.11353E-02-5.01368E-02 7.98956E-01
 -1       290-1.00549E-01-1.28966E-01-1.05365E-01 1.20722E-03 1.43270E-01 4.02740E-02
 -1       291 5.02959E-01 6.64669E-01 4.91571E-01 5.90430E-02 3.62311E-01 1.46450E-01
 -1       292 3.09860E-01 4.31972E-01 3.12311E-01 5.68486E-03 1.90403E-01 3.77592E-02
 -1       293-1.25352E-01-5.70320E-02-1.46691E-01 1.85153E-02 3.05978E-01 4.78975E-01
 -1       294-4.91326E-01-7.73774E-01-5.27991E-01-1.04673E-01 4.32150E-01 3.93595E-01
 -1       295-2.74947E-01 1.87891E-01-2.59794E-02-9.31333E-02-3.27812E-01 5.53077E-01
 -1       296-1.06317E+00-8.80130E-01-8.18131E-01-1.53720E-01 4.50803E-01 7.16500E-01
 -1       297-1.11602E-01-1.12407E-01-1.03922E-01-2.08921E-02 1.19039E-01 3.46208E-02
 -1       298 7.73047E-01 5.71548E-01 5.94046E-01 2.00168E-03-9.03741E-03 8.96689E-01
 -1       299-7.47142E-01-8.73942E-01-6.82476E-01 1.12312E-01-4.30812E-01 2.87043E-01
 -1       300 4.28637E-01 5.92511E-01 4.29903E-01-3.75301E-02-3.64226E-01 1.50908E-01
 -1       301-1.98886E-01-2.66469E-01-1.95914E-01 1.44928E-02-1.58751E-01 3.12364E-02
 -1       302 3.33820E-01 3.62681E-01 4.97652E-01-1.98252E-02 1.29287E-01 6.37971E-01
 -1       303 2.09930E-01 3.13396E-01 2.20320E-01 1.66488E-02-1.74334E-01 3.48863E-02
 -1       304-1.31306E-01-1.31236E-01-1.51874E-01 1.52328E-03-2.70565E-01 1.30422E-01
 -1       305-4.73663E-01-6.41825E-01-4.69621E-01 4.49246E-02-3.89823E-01 1.52334E-01
 -1       306 3.29722E-01 3.40536E-01 4.82080E-01-1.05304E-02 2.23921E-01 6.27456E-01
 -1       307-8.47585E-01-7.32282E-01-6.65124E-01-1.11233E-01 4.69013E-01 7.00625E-01
 -1       308-4.47637E-01-3.52522E-01-3.81378E-01-4.08461E-03-8.97357E-03 8.15411E-01
 -1       309-3.99429E-02 5.85963E-03-2.50129E-02-3.98714E-02-1.44236E-01 8.45158E-01
 -1       310 3.11505E-01 3.46662E-01 3.53200E-01-2.45657E-02-3.65549E-01 2.47021E-01
 -1       311 2.42976E-01 2.16063E-01 3.03121E-01-4.63836E-03 3.29057E-01 2.47629E-01
 -1       312 6.30004E-02 4.86026E-02 1.13667E-01 1.11648E-02-1.22114E-01 5.97075E-02
 -1       313-2.91731E-01-3.90211E-01-2.87097E-01-2.19168E-02 1.67598E-01 3.29999E-02
 -1       314 8.19559E-02 1.13732E-01 8.23845E-02-5.83605E-03 2.18998E-02 7.37466E-04
 -1       315-3.05957E-02-4.74685E-02 3.23302E-04 1.40669E-02-6.36645E-03-4.81085E-03
 -1       316-3.23783E-02-1.13236E-02-5.81926E-02 3.58537E-03-1.16184E-01 3.13726E-02
 -1       317 1.01072E+00 1.01650E+00 8.53463E-01-1.60760E-01-4.95233E-01 4.82570E-01
 -1       318-1.96073E-01-2.07143E-01-2.93367E-01-7.47652E-03-3.29592E-01 2.31537E-01
 -1       319 9.67715E-02 5.54843E-02-1.82710E-02 3.08218E-02 3.99302E-01 5.62768E-01
 -1       320 3.04481E-01 9.53398E-01 5.73085E-01-2.42821E-01-3.14194E-01 5.04363E-01
 -1       321 1.20979E+00 9.68404E-01 9.17018E-01-1.22658E-01-3.43859E-01 8.26445E-01
 -1       322 1.36010E+00 1.09349E+00 1.03296E+00 1.40824E-01 3.19683E-01 7.72520E-01
 -1       323-4.62996E-01-3.96495E-01-5.23528E-01 7.81695E-03 1.38247E-01 6.84888E-01
 -1       324 1.05181E+00 1.08394E+00 8.99149E-01 1.74634E-01 5.28205E-01 5.47968E-01
 -1       325-1.39161E+00-1.07762E+00-1.03955E+00-1.19017E-01 3.36661E-01 8.08509E-01
 -1       326-1.89661E-01-1.92087E-01-3.64856E-01 4.15977E-02 2.45516E-01 5.95664E-01
 -1       327-3.20328E-01-4.37884E-01-3.19207E-01-2.58352E-02 3.31630E-01 1.36797E-01
 -1       328 9.94740E-03 1.48378E-01 9.73583E-02-4.62013E-02 3.22400E-02-1.82303E-02
 -1       329 7.60816E-01 7.88723E-01 5.65199E-01 1.05984E-02-3.81012E-02-2.77121E-01
 -1       330 8.33789E-02 2.24609E-01 1.76131E-01 1.35067E-02 1.33397E-02-5.31313E-02
 -1       331 1.97674E-01 2.67048E-01 2.59331E-01-3.35244E-02 8.48548E-04 1.71926E-02
 -1       332 7.16944E-01 5.80422E-01 4.59765E-01 3.00567E-02 2.26036E-02-3.86220E-01
 -1       333 2.80143E-01 3.31343E-01 2.26504E-01-1.33194E-01 4.73378E-02-7.93409E-02
 -1       334 3.43449E-01 3.91576E-01 3.24044E-01-8.42942E-02 2.95694E-02-1.16343E-01
 -1       335 5.16373E-01 4.16766E-01 3.44714E-01-1.61879E-03 6.68594E-02-4.80712E-01
 -1       336 3.28782E-01 1.04305E-01 1.02976E-02-8.99672E-02 1.05559E-01-1.74392E-01
 -1       337 4.25050E-01 2.43318E-01 2.12116E-01-5.94650E-02 4.42903E-02-1.88561E-01
 -1       338 1.00120E-01 8.91760E-02 1.51225E-01 2.41903E-02-5.84600E-02-4.29536E-02
 -1       339 1.00853E-01 6.15339E-02 1.47524E-01 2.45540E-02-1.35325E-02-4.16379E-02
 -1       340 5.24275E-01 3.18047E-01 3.71015E-01-2.33850E-03-6.96256E-02-4.36743E-01
 -1       341-8.48983E-02-3.02905E-03 6.57850E-02 4.93386E-02-1.49108E-02-9.81585E-02
 -1       342 1.47949E-01 1.16941E-01 1.62976E-01 2.20545E-02-1.28892E-02-1.77904E-01
 -1       343-2.99168E-02 3.84710E-02 8.37076E-02-5.70406E-02-1.81775E-02-8.43252E-02
 -1       344-9.91861E-02-9.39423E-02-1.66570E-01 3.62209E-02 1.17968E-02-2.07873E-01
 -1       345 2.67336E-02-4.79504E-02-1.20243E-01-6.85894E-02 3.29530E-02-1.07715E-01
 -1       346-1.91432E-01-1.19384E-01-1.02393E-01 7.35988E-02-2.62173E-02-4.00745E-01
 -1       347-4.09278E-01-3.07762E-01-2.42020E-01 5.80601E-02-7.86515E-02-4.12207E-01
 -1       348-1.07929E-01-1.27996E-01-1.88076E-01-7.75454E-02-1.76372E-02-9.23925E-02
 -1       349-5.11439E-01-4.40386E-01-3.55335E-01-1.11346E-01-9.86937E-02-1.04190E-01
 -1       350-3.81072E-01-3.58284E-01-1.80496E-01-1.39070E-01-1.05748E-01-5.51457E-02
 -1       351-3.63967E-01-2.49102E-01-2.06077E-01 6.49649E-02-1.21320E-01 8.50737E-02
 -1       352 2.57892E-01 2.58489E-02 2.35563E-02 1.43907E-02-2.95026E-02-4.69462E-02
 -1       353-9.48663E-01-7.27067E-01-6.35842E-01-1.52377E-02-1.99409E-02-3.98219E-01
 -1       354-2.59263E-01-4.72369E-01-3.00510E-01-5.37056E-02-6.57314E-02-5.94947E-02
 -1       355-4.91159E-02-1.63851E-01-1.75364E-01-2.05428E-02 9.70702E-03-4.62811E-02
 -1       356-1.42434E-01-3.81373E-01-1.73142E-01-9.03755E-02-4.19553E-02-2.98137E-02
 -1       357-1.33054E-01-2.84433E-01-2.60451E-01 2.65453E-02 6.65399E-03-3.07638E-02
 -1       358 6.17733E-01 6.99606E-01 5.54600E-01 9.56840E-02 4.21885E-01 2.80857E-01
 -1       359-7.45046E-03 1.26253E-01-1.50692E-01 3.68698E-02 1.74156E-01 1.39170E-01
 -1       360 4.80669E-02 4.16961E-02 9.14905E-03 6.89966E-04 6.34185E-03-4.54454E-02
 -1       361 1.36816E-02 1.02227E-01 5.50746E-02 5.59547E-03-2.75538E-02-3.80765E-02
 -1       362 2.89486E-02-2.75366E-03 3.95422E-02-3.66553E-03-7.63681E-03 2.60624E-02
 -1       363-7.16799E-02-6.53803E-02-1.97536E-02 2.24537E-02-1.57957E-02-5.19089E-02
 -1       364-3.47789E-03 4.54863E-02 1.11488E-01-1.89772E-02-8.93821E-02 1.20370E-02
 -1       365-4.27658E-02-6.66872E-02 1.22367E-02-8.99665E-03-2.17774E-01 1.46069E-01
 -1       366 3.96137E-02 2.69975E-02 1.62606E-01-3.51002E-02-1.99886E-01 1.67210E-01
 -1       367 4.06239E-02 4.34678E-02-1.79671E-02 2.60441E-02-3.42522E-02-3.71804E-02
 -1       368-1.68650E-01-1.18841E-01-1.92248E-01-7.08194E-03 1.09741E-01 2.55097E-01
 -1       369-1.77129E-01-1.46635E-01-1.25675E-01-3.46968E-03 1.35806E-01 1.19507E-01
 -1       370-2.49234E-01-2.04202E-01-2.94996E-01 2.32816E-02 1.47005E-01 1.74886E-01
 -1       371-1.13236E-01-1.52088E-01-6.70144E-02 7.41637E-02 4.12638E-02-4.94790E-02
 -1       372 1.50236E-02-5.54291E-02-4.46494E-04 2.55631E-02-2.64339E-02-3.64403E-02
 -1       373 4.78579E-01 3.26561E-01 2.77471E-01-1.22235E-01-6.84452E-02 8.92549E-01
 -1       374 1.73733E+00 1.28072E+00 1.27060E+00 7.19985E-02 1.72433E-01 8.60857E-01
 -1       375-2.08329E-01-1.70671E-01-2.66107E-01-1.82798E-02-4.51725E-03 2.91414E-01
 -1       376-8.67598E-02-1.48685E-01-1.02374E-01 7.39157E-02-9.10642E-02 3.93250E-01
 -1       377-1.67266E-01-6.09208E-01-2.81485E-01-7.95809E-02 3.78283E-01 3.63596E-01
 -1       378 6.08237E-02-8.17203E-02-1.03049E-01 8.08122E-03 7.90353E-04 1.34420E-02
 -1       379 7.57070E-01 6.81610E-01 6.87320E-01-1.25507E-01-1.62948E-01 7.93683E-01
 -1       380 7.96480E-02-8.98865E-02-1.60668E-01-4.51948E-02-9.99093E-03-2.45690E-02
 -1       381-1.71020E-03-1.22184E-01-7.61303E-02-1.17583E-02-2.85571E-02 8.64521E-03
 -1       382 1.35574E-01 4.38216E-01 2.84539E-01-9.16279E-02-3.75487E-01 5.76660E-01
 -1       383-1.30794E-01-1.51992E-01-2.37332E-01-7.23748E-03-1.88244E-01 1.33983E-01
 -1       384-2.29707E-03-7.76035E-02-7.77658E-02-6.00358E-02 5.59267E-02-4.63188E-02
 -1       385 4.75897E-02-8.66178E-02-3.09472E-02-6.47878E-02 2.60258E-02-1.31737E-02
 -1       386-1.81613E-01-1.66967E-01-1.54690E-01-3.52402E-02-1.35767E-01 2.77396E-01
 -1       387-1.72107E-01-9.87689E-02-1.97258E-01 1.84273E-02-1.98775E-01 1.82311E-01
 -1       388-8.70092E-02-1.46165E-01-2.21370E-01-4.48589E-02-2.36843E-02-5.95221E-02
 -1       389 6.22767E-01 7.20918E-01 5.65692E-01-9.45294E-02-4.24335E-01 2.82266E-01
 -1       390-9.57294E-03 2.84518E-03-7.57958E-02-3.26419E-02-4.00699E-02-2.92595E-02
 -1       391 7.74925E-02 8.23156E-02 9.69643E-02 3.25680E-03 1.34450E-02-5.72804E-02
 -1       392 1.01159E-01 7.09624E-02 3.04731E-02 1.79654E-02-2.72713E-03 2.60907E-02
 -1       393 8.71733E-02 7.02749E-02 1.44375E-01 1.80113E-02 2.46897E-01 1.35834E-01
 -1       394 9.52038E-03-1.01734E-03 6.63889E-02-5.00232E-02-7.11119E-03-3.41087E-02
 -1       395 2.17727E-01 1.46546E-01 2.38043E-01-6.62486E-03 1.42911E-01 1.22831E-01
 -1       396 2.37389E-01 1.82539E-01 2.58016E-01 3.96534E-02 1.89639E-01 1.83313E-01
 -1       397-7.72461E-01-9.19183E-01-7.12182E-01-1.14196E-01 3.70441E-01 2.46818E-01
 -1       398-3.04744E-01-4.68496E-01-2.68654E-01 5.42988E-02 4.88033E-02-4.01336E-02
 -1       399-1.82044E-01-3.72997E-01-1.60039E-01 7.07261E-02 4.60470E-02-1.55653E-02
 -1       400 1.18882E-01-5.80549E-02-1.24331E-02 4.32221E-02 2.61444E-02-4.02014E-02
 -1       401-1.68337E-01-1.54437E-01-2.42659E-01 2.91111E-02 3.55633E-02-1.74271E-02
 -1       402-1.37760E-01-1.10362E-01-1.63489E-01 1.61916E-02 1.37209E-03-2.78815E-02
 -1       403-8.73056E-01-7.22973E-01-6.36920E-01-4.50879E-02 3.66907E-02-3.38780E-01
 -1       404-3.35197E-01-3.75453E-01-1.15400E-01 1.43688E-01 1.51200E-01-6.81593E-02
 -1       405 1.00890E-01-1.01797E-01-8.36532E-02 5.67032E-02 1.90402E-02-6.16053E-02
 -1       406-2.88742E-01-4.60012E-02-3.56918E-02 7.85035E-02 9.79432E-02-1.65975E-01
 -1       407-2.95642E-02 3.03132E-02 7.24974E-02 4.08800E-02 3.15680E-02-7.34777E-02
 -1       408-2.04993E-01-1.88140E-01-1.68055E-01-8.07028E-02 2.34441E-02-4.73756E-01
 -1       409 7.80369E-03 1.20962E-02 3.75473E-02 5.12634E-02 3.91816E-02-7.13441E-02
 -1       410-1.06461E-01-6.03154E-02-1.67392E-01-6.71868E-02-1.18411E-02-1.91906E-01
 -1       411-5.92849E-02-9.94945E-02-1.65987E-01 1.52637E-02-3.78490E-02-1.26361E-01
 -1       412-7.59266E-02-3.32102E-02-1.12117E-01 1.84280E-02 4.79187E-02-2.19682E-04
 -1       413-4.90386E-02-4.53119E-02-9.42331E-02 2.75386E-02 3.75042E-02-4.46236E-02
 -1       414-2.96829E-02-6.17271E-02-9.32996E-02 6.74051E-02-4.89837E-02-9.22434E-02
 -1       415-3.42745E-02-1.65708E-01-1.81496E-01-2.49296E-02-8.94287E-02-2.15939E-01
 -1       416-3.06240E-02 2.20110E-02 6.40404E-02 5.98281E-02 1.79893E-02-9.83475E-02
 -1       417 2.58227E-01 2.63814E-01 2.95681E-02 3.13427E-02 2.60496E-02 1.19571E-02
 -1       418 2.75327E-01 2.60901E-01 2.34423E-01 3.40415E-02 1.53784E-01 2.26229E-01
 -1       419 1.80156E-02 8.18414E-02 1.17095E-01 6.87034E-02-2.36099E-02-4.90839E-02
 -1       420 3.18015E-01 2.17361E-01 3.27150E-01 1.00674E-02-1.86569E-01 1.55166E-01
 -1       421 2.24576E-01 1.88607E-01 2.92654E-01 8.72274E-04-3.52532E-01 3.67325E-01
 -1       422-2.93401E-02 9.59250E-02 3.14119E-02 3.29083E-02 5.63644E-04-8.45969E-02
 -1       423 3.41799E-01 2.18417E-01 2.42839E-01-4.18695E-03-6.14999E-02 2.53566E-01
 -1       424-8.42647E-02 1.45177E-01 1.28121E-02 5.06082E-02 5.35894E-02-4.43650E-02
 -1       425-2.56366E-02 7.47865E-02 1.73473E-02 5.38819E-02 1.54287E-02 3.84863E-02
 -1       426-2.20754E-02 8.60313E-02 1.38136E-01 1.18157E-03-3.26595E-02-5.40496E-02
 -1       427-1.33206E-01 4.71052E-02-2.75252E-02 6.44032E-02-2.87256E-02-5.54879E-02
 -1       428-2.04568E-01 2.29026E-03-1.09834E-01 2.27505E-02-8.72760E-02-1.46767E-02
 -1       429 1.44988E-01 1.74393E-01 1.81759E-01 4.38157E-02 2.74567E-02 3.80557E-01
 -1       430 1.58381E-01 1.22692E-01 2.87591E-01-1.03314E-02 3.24423E-01 3.99675E-01
 -1       431-8.91201E-01-7.00421E-01-6.86443E-01 6.15721E-02-1.63074E-01 8.82967E-01
 -1       432-1.86060E+00-1.56262E+00-1.51896E+00-7.42352E-02-4.61571E-02-5.54113E-01
 -1       433-1.09969E+00-7.92005E-01-7.33585E-01-1.29455E-01-1.32119E-01-5.46782E-01
 -1       434-2.35012E-01-4.89583E-02-1.32047E-01 1.78586E-01-1.41746E-02-4.13262E-01
 -1       435 4.01842E-01 2.68637E-01 2.97582E-01 2.26725E-01-4.03681E-02-4.96335E-01
 -1       436 2.76747E-01 6.52012E-02 1.04684E-01-2.36516E-01-5.38807E-02-4.65773E-01
 -1       437 1.17406E+00 7.98439E-01 9.21393E-01-1.20970E-01 8.72210E-02-5.57927E-01
 -1       438 8.71218E-01 6.64741E-01 6.55532E-01 4.27242E-02-3.74357E-02-5.77964E-01
 -1       439 1.60242E+00 1.26554E+00 1.27363E+00 9.53346E-02-8.99519E-02-5.61263E-01
 -1       440 1.10601E-01 1.68985E-01 3.71209E-01 4.57896E-02-2.28243E-01 5.97246E-01
 -1       441 5.77886E-01 4.08829E-01 4.70085E-01-7.45351E-03-1.25983E-01 7.18179E-01
 -1       442-5.17913E-02-3.43861E-02-3.26531E-02 9.24335E-03-4.23191E-01 4.25913E-01
 -1       443-2.88388E-01-2.88657E-01-2.87455E-01 3.61328E-02-4.24071E-01 4.04231E-01
 -1       444 2.58813E-01 2.31339E-01 2.83517E-01 9.81716E-03-2.72005E-01 6.82161E-01
 -1       445 1.11049E+00 8.97462E-01 8.45348E-01-1.17965E-01-3.37061E-01 8.27084E-01
 -1       446-5.79897E-01-2.41781E-02-2.40288E-01-4.83094E-02-3.23143E-01 5.74525E-01
 -1       447-1.96454E-01-1.60808E-01-3.73086E-01 3.34706E-02 2.45864E-01 2.01545E-01
 -1       448-1.91594E+00-1.43530E+00-1.41087E+00-1.11777E-01 1.75653E-01 8.94325E-01
 -1       449-1.37171E-01-7.09319E-01-2.34122E-01 1.92423E-01 1.28817E-01-1.41020E-01
 -1       450-1.53911E-01-6.99550E-01-3.14509E-01-1.43662E-01-1.80553E-01-7.05547E-02
 -1       451 2.84526E-01 1.12444E-01-6.59649E-02-8.04573E-02-1.52020E-02-5.01845E-02
 -1       452 3.55485E-01 1.24010E-01 2.28865E-02-1.02246E-01 3.78538E-02-5.19400E-04
 -1       453 1.05442E-01 1.02607E-01-9.57047E-03 5.02261E-02 2.53752E-03 2.30389E-02
 -1       454 7.85978E-02 8.45833E-02-1.36410E-03-5.15868E-02-7.50401E-03 1.15518E-02
 -1       455 1.89500E-01 1.34271E-01-2.39707E-02-9.34827E-02 1.70559E-02-2.42801E-02
 -1       456 1.32230E-01 1.31120E-01-2.30632E-02-1.03720E-01 2.52165E-02 4.60139E-02
 -1       457 6.29474E-01 9.55948E-02-3.74236E-02 6.32353E-03-1.10805E-02-1.08437E-01
 -1       458 4.49340E-01 6.71674E-02 1.09578E-02 5.59444E-03 3.14682E-02-1.82885E-01
 -1       459 6.03662E-01 1.13505E-01 1.18380E-02 1.75639E-01-1.17907E-02-1.37878E-01
 -1       460 4.04666E-01 8.52156E-02-3.00863E-02 9.47611E-02-5.12041E-02-1.43008E-01
 -1       461 1.06369E-01 1.52413E-01 1.95155E-02 6.96286E-02-2.57264E-02-4.12765E-02
 -1       462 3.90132E-01 9.18706E-02 1.80038E-02-1.27638E-01 4.95868E-02-1.80666E-01
 -1       463 5.80229E-01 2.00955E-01 2.67728E-02-1.90898E-01 8.01818E-02-3.18909E-02
 -1       464 8.72078E-02 1.20810E-01 1.66687E-02-6.25689E-02 2.72975E-02-3.19199E-02
 -1       465-1.05919E-01-1.19715E-01 1.32101E-02-7.59911E-02-1.24111E-02-2.58932E-02
 -1       466-7.91756E-02-1.06490E-01 3.18391E-02-1.07544E-01 8.96060E-02 7.95239E-02
 -1       467-6.68342E-02-9.82052E-02 3.17447E-02-1.06945E-01 7.58717E-02 9.64094E-02
 -1       468-1.25810E-01-6.28642E-02 3.14336E-02-1.48461E-01-1.63912E-02-3.42804E-02
 -1       469-1.48135E-01-2.05066E-01-8.14998E-03-1.73664E-01-4.54733E-02-2.84090E-02
 -1       470-5.25061E-02-9.59440E-02-1.59941E-02-5.76737E-02 3.05311E-02 1.56411E-02
 -1       471-3.19033E-01-2.12611E-01 2.79815E-02-1.96753E-01-6.11488E-02-5.85436E-02
 -1       472-2.08923E-01-1.63137E-01-3.10226E-02-1.82160E-01-8.75219E-02-1.36243E-01
 -1       473-4.15305E-01-1.11544E-01 7.02633E-03-1.10888E-01-6.60087E-02-1.45759E-01
 -1       474-6.16658E-01-1.55573E-01-1.07632E-02-1.55010E-01-4.21814E-03-1.23082E-01
 -1       475-4.90008E-01-7.19810E-02 4.22448E-03-9.29973E-03 1.02798E-02-1.69585E-01
 -1       476-6.61604E-01-6.07243E-02 9.78069E-03 8.33310E-04-3.48706E-02-1.13993E-01
 -1       477-3.88877E-01-8.56079E-02 3.87606E-02-4.65200E-03 3.17868E-02-2.15593E-02
 -1       478-3.09049E-01-8.20480E-03 1.65078E-02-7.83199E-05-4.41947E-02-2.15137E-02
 -1       479-4.11195E-01-1.14539E-01 3.01847E-02-7.24593E-04-5.83527E-03 3.05852E-01
 -1       480-3.20653E-01 8.84016E-03 7.96985E-02 1.96528E-02 1.78594E-03 3.29905E-01
 -1       481-9.92920E-02-1.03905E-01 9.62247E-03 5.80486E-02-1.18974E-02 1.82593E-02
 -1       482-2.85177E-01-1.28034E-01 2.05870E-02-9.91832E-02 1.33281E-01 1.97367E-01
 -1       483-1.65132E-01-4.63067E-02 1.42227E-01-1.04340E-01 1.14430E-01 1.66274E-01
 -1       484-3.66209E-01-1.29902E-01 6.84350E-03-1.01748E-01 9.92489E-02 2.99815E-01
 -1       485-4.31753E-01-1.30335E-01 4.07296E-02-1.39374E-01 9.83548E-02 2.57992E-01
 -1       486-3.44567E-01-1.27018E-01 3.97772E-02-8.96946E-02-3.44447E-02-5.96901E-03
 -1       487-3.01605E-01-7.05213E-02 2.75777E-03-1.21296E-01 4.05160E-03-4.88359E-02
 -1       488-1.81155E-01-1.35531E-01 3.10236E-02-9.90856E-02-9.68720E-03-6.64449E-03
 -1       489-2.37663E-01-1.83004E-01-4.10318E-02-1.09123E-01 6.98980E-03-7.50871E-02
 -1       490-9.71055E-02-8.60408E-02 2.95065E-02 1.25678E-01-1.02975E-01 6.36090E-02
 -1       491-9.72746E-02-9.41526E-02 1.11182E-02 1.30080E-01-5.71143E-02 8.56006E-02
 -1       492-8.04139E-02-5.99553E-02 8.65559E-02 8.50236E-02-5.73561E-03-8.20134E-02
 -1       493-1.72593E-01-2.12351E-01-5.01899E-02 1.55959E-01 4.97922E-02-6.04313E-02
 -1       494-6.30399E-03 3.66487E-02 1.19119E-03 9.82046E-02 2.03604E-03-1.24772E-02
 -1       495-2.20821E-02-7.41640E-02-3.36297E-02 1.13763E-01 1.97146E-02-3.20702E-02
 -1       496-1.74951E-02 1.25410E-02 5.62539E-04 7.76762E-02 9.04906E-04 4.81452E-02
 -1       497 4.00350E-03 5.22014E-02 6.51439E-02 5.38517E-02 7.36606E-02 2.56857E-02
 -1       498-3.71881E-01-9.07278E-02 5.54168E-03 1.14356E-01 5.40309E-02-1.37523E-01
 -1       499-5.95839E-01-1.42411E-01 4.18277E-03 1.98401E-01 9.50123E-03-1.41950E-01
 -1       500-3.25221E-01-1.30335E-01 4.04735E-02 8.18214E-02 3.00111E-02-1.64344E-03
 -1       501-2.98627E-01-7.80436E-02-1.09563E-02 8.60840E-02-2.52149E-02-5.33106E-02
 -1       502-3.68007E-01-1.05600E-01 2.15486E-02 5.29847E-02-9.41323E-02 3.25593E-01
 -1       503-3.96073E-01-6.98235E-02 1.03777E-01 8.13165E-02-9.12231E-02 2.39110E-01
 -1       504-3.65650E-01-2.11678E-01 2.56773E-02 1.96223E-01 6.54363E-02-6.75015E-02
 -1       505-3.74073E-01-2.31876E-01 8.04233E-03 2.16385E-01 7.72089E-02-9.55130E-02
 -1       506-2.16838E-01-1.46674E-01 9.92659E-03 9.57705E-02 2.50193E-02 9.89239E-03
 -1       507-1.71269E-01-1.12678E-01-1.13860E-02 9.71459E-02 2.47624E-02-6.24677E-02
 -1       508-2.52558E-01-1.19415E-01 3.48045E-02 1.36379E-01-1.41757E-01 1.73993E-01
 -1       509-1.74079E-01-1.04287E-01 6.63664E-02 1.53959E-01-1.12711E-01 1.30438E-01
 -1       510-1.26722E-01-1.53767E-01-3.81401E-02 6.17449E-02 2.40569E-02-3.76329E-02
 -1       511-2.24061E-02-2.76304E-02-1.79002E-02 2.64978E-02 1.51044E-02-1.71824E-03
 -1       512 1.10826E-01 1.90840E-01 2.12534E-02 1.59635E-01-5.87487E-02-3.61094E-02
 -1       513 5.65120E-02 7.38753E-02-2.66496E-02 1.20920E-01-3.81514E-02-4.77627E-02
 -1       514 7.31706E-02 9.92011E-02-3.81220E-02 1.12567E-01 1.01911E-01 8.18256E-02
 -1       515 9.60124E-02 1.62077E-01-2.54048E-03 1.43551E-01 1.20854E-01 5.65247E-02
 -1       516 1.41035E-02 3.11608E-03 6.61509E-03-3.66930E-02-2.13954E-02 2.36931E-03
 -1       517-5.81474E-03 2.91127E-03 1.09301E-02-8.17548E-02 2.77054E-03 3.17091E-02
 -1       518 4.68188E-02 7.68157E-02 6.64089E-02-1.34578E-01 2.60614E-04-2.89882E-02
 -1       519 1.87326E-02-4.27135E-02 1.25789E-02-1.14880E-01-3.06965E-02-4.84719E-02
 -1       520-2.41882E-03 7.57314E-03 3.62751E-02-6.21161E-02-8.15525E-02 6.30315E-03
 -1       521 6.96326E-02 1.59411E-01 4.36040E-02-1.30677E-01 5.67738E-02-6.42334E-02
 -1       522 5.53131E-02 8.27650E-02-2.55746E-02-1.55453E-01 2.26079E-02-3.92419E-02
 -1       523 5.77387E-02 1.22779E-01-3.51290E-02-9.28125E-02-6.00364E-02 8.15481E-02
 -1       524 7.23373E-02 1.20583E-01-1.77857E-03-1.27321E-01-9.88222E-02 4.84226E-02
 -1       525 6.66209E-02 4.90167E-02 4.83661E-02-2.25252E-02 4.67399E-02 7.81529E-04
 -1       526-3.38864E-02-1.45201E-02-7.63424E-03 1.51347E-02-3.80252E-02-1.34837E-02
 -1       527 2.20973E-01 1.51535E-01 7.99295E-03 9.23658E-02-8.42049E-02-1.30122E-01
 -1       528 9.97946E-02 5.85416E-02-9.69010E-02 6.65203E-02-5.90201E-02-7.94826E-02
 -1       529 3.53076E-01 1.92433E-01 1.54240E-02-2.08841E-01 4.93277E-02-7.14302E-02
 -1       530 3.58898E-01 1.80911E-01-1.41999E-02-1.51731E-01 2.08299E-02-4.23305E-02
 -1       531 2.18160E-01 1.63983E-01-2.41994E-02 1.18528E-01-5.28990E-04-3.49996E-02
 -1       532 9.25933E-02 9.00977E-02-4.33498E-02 1.12908E-01 2.91486E-03 2.55000E-02
 -1       533 3.12584E-01 1.36809E-01-6.58837E-02 7.19486E-02-1.10141E-02-4.39657E-02
 -1       534 3.71764E-01 1.55496E-01 5.02990E-02 9.79808E-02-4.68425E-02 6.37255E-04
 -1       535 3.58454E-01 8.75044E-02-3.85751E-02-2.58175E-02-1.16308E-02 2.95659E-01
 -1       536 2.90921E-01-1.01687E-02-9.63940E-02-2.40901E-02-2.67027E-02 2.87247E-01
 -1       537 3.44438E-01 3.98575E-02-1.04992E-01-8.17735E-02-8.50312E-02 2.52897E-01
 -1       538 3.80975E-01 8.95116E-02 1.50563E-02-8.01406E-02-8.59226E-02 3.05235E-01
 -1       539 2.00410E-01 8.84093E-02-3.91141E-02-1.22373E-01-1.37100E-01 1.94760E-01
 -1       540 1.87386E-01 9.52937E-02 3.58463E-02-1.61220E-01-1.96671E-01 2.10730E-01
 -1       541 3.87102E-01 1.00276E-01-4.00986E-02 1.04085E-04 6.26738E-03-2.52121E-02
 -1       542 4.27350E-01 1.03343E-01 1.79009E-02 8.01987E-03 5.91717E-02-2.40465E-02
 -1       543 2.34579E-01 1.32922E-01-8.63364E-03 1.14799E-01 1.45214E-01 1.75130E-01
 -1       544 1.76114E-01 8.56120E-02-2.68497E-02 1.36060E-01 1.90265E-01 2.04711E-01
 -1       545 3.37891E-01 7.89660E-02-8.34729E-02 9.53224E-02 1.05621E-01 2.31377E-01
 -1       546 3.53374E-01 1.02584E-01 5.13216E-03 8.74055E-02 9.22210E-02 2.99852E-01
 -1       547-2.89565E-01-1.62206E-01-2.85664E-01-7.92806E-03 1.93316E-03 3.80588E-01
 -1       548-5.82995E-01-4.95250E-01-6.96863E-01-9.19128E-03-2.26420E-02 4.64926E-01
 -1       549-3.71327E-01-1.27728E+00-6.53254E-01-1.65836E-01-2.14409E-01-1.35607E-01
 -1       550-3.22503E-02-1.94462E-01-7.26938E-02-2.25604E-03-1.71507E-02-6.91249E-02
 -1       551-3.24310E-01-8.74811E-02 4.49771E-02 8.90654E-03-1.82514E-02-9.71238E-02
 -1       552-3.58138E-01-7.25392E-02 7.68131E-02-2.16871E-02 3.29794E-03 6.04518E-02
 -1       553-3.12114E-01-1.84714E-01-9.66101E-02-3.29280E-02-2.05290E-02 1.76042E-01
 -1       554-8.13713E-02-1.27822E-01-7.02834E-02-2.16436E-02-4.03720E-02 1.00916E-01
 -1       555-2.59123E-01-6.15843E-02 1.56471E-01 3.54630E-02 4.61122E-02 4.60078E-02
 -1       556-2.84004E-01-7.91427E-02 6.67991E-02-3.79332E-02 5.35557E-02-7.42529E-02
 -1       557-4.76925E-03-1.33446E-01-7.93047E-02 1.05505E-02 2.45634E-02-9.94738E-02
 -1       558-3.07579E-01-1.07558E+00-4.80351E-01 2.37880E-01 1.15560E-01-1.93222E-01
 -1       559-1.47636E-01-9.52092E-02 2.03692E-02 5.92687E-02-4.99033E-02-4.39087E-02
 -1       560-1.73170E-01-1.20411E-01 4.51211E-02-7.43423E-02 3.89888E-02-3.21618E-02
 -1       561-7.01559E-02-8.90813E-03 9.63217E-02-4.89486E-02-1.28788E-02 4.01294E-02
 -1       562-8.80966E-02-3.31521E-02 1.39641E-01 2.32284E-02 5.90478E-02 2.12553E-02
 -1       563-4.17738E-02-6.89603E-02-3.42561E-03 7.38123E-03 2.58874E-04-2.76726E-02
 -1       564-1.35362E-01-1.64226E-01-9.07566E-02-4.48901E-02-1.47461E-02-5.00310E-02
 -1       565-4.62564E-01-4.39370E-01-3.06741E-01 3.35282E-01 1.53215E-01-2.56601E-01
 -1       566-2.49290E-01-2.07612E-01-2.73065E-01-4.09191E-02 1.38662E-01 3.17982E-01
 -1       567-4.85700E-01-4.62604E-01-6.56249E-01-4.12696E-02 1.57375E-01 3.76314E-01
 -1       568-5.40249E-02-1.44917E-01-9.24801E-02-4.50253E-05-1.41955E-02-1.07275E-01
 -1       569-2.95117E-01-1.22131E-01 4.28074E-02-3.76084E-02-4.78519E-02-6.45518E-02
 -1       570-3.17574E-01-1.22501E-01 1.55518E-01-1.19029E-01-4.61101E-03 9.68974E-02
 -1       571-2.22588E-01-1.85435E-01-5.30941E-02-2.72554E-02 8.53663E-02 8.98563E-02
 -1       572-2.81138E-01-1.44983E-01-1.88957E-02-6.05561E-02 7.76830E-02 9.46002E-02
 -1       573-3.48082E-01-1.14101E-01 7.97964E-02-8.62631E-02 3.69246E-03 3.29135E-02
 -1       574-2.66473E-01-1.32564E-01 1.15502E-03-7.34202E-02-4.28431E-03-9.96478E-02
 -1       575 2.38813E-02-1.06155E-01-5.70607E-02 2.49049E-02 2.75076E-02-1.18450E-01
 -1       576-6.67128E-01-8.33911E-01-5.66315E-01 4.60265E-01 1.72616E-01-3.00441E-01
 -1       577-2.01229E-01-2.76155E-02 1.23512E-01 4.85134E-02-1.93533E-02-4.04580E-03
 -1       578-1.70237E-01-1.97424E-01-1.30603E-01-1.02570E-01-2.74923E-02-1.11026E-01
 -1       579-1.29995E-01-2.05650E-01 1.45282E-01-6.50621E-02-4.11758E-02 1.77957E-02
 -1       580 2.34145E-02 5.85398E-02 2.59944E-01-1.37669E-02-4.64064E-02 1.03975E-03
 -1       581-1.69651E-01-1.67496E-01-6.90319E-02 1.50102E-02 6.18583E-03-4.83659E-02
 -1       582-2.19686E-01-1.92855E-01-4.14282E-04-4.38382E-04-1.75277E-02-1.16744E-02
 -1       583-3.08466E-01-1.24822E-02-2.07262E-02 9.92519E-02 3.11190E-01-4.40745E-01
 -1       584-1.99680E-01-1.22700E-01-1.57660E-01-5.15131E-02 1.36471E-01 2.07917E-01
 -1       585-4.71262E-01-4.27825E-01-5.72029E-01-3.66760E-02 1.45448E-01 3.22423E-01
 -1       586-1.80511E-01-8.24287E-02 5.99558E-02-6.52653E-02-3.64740E-02-3.67941E-02
 -1       587-6.11058E-02-1.78100E-01-1.98193E-02 5.08248E-02 2.32707E-03-1.17701E-01
 -1       588-1.74322E-01-1.20930E-01 8.12211E-02-1.02462E-01 3.38422E-02 5.34975E-02
 -1       589-2.33916E-01-1.27036E-01-6.31768E-02-3.12021E-02 7.52044E-02 9.80951E-02
 -1       590-2.44524E-01-1.29385E-01-3.26576E-02 5.58301E-03 7.12020E-02 3.96301E-02
 -1       591-2.36020E-01-1.07868E-01 5.73668E-02-1.14871E-01 2.80162E-02-1.03619E-02
 -1       592-1.73453E-01-1.55814E-01-1.34401E-02-9.50399E-02-4.37123E-02-9.10983E-02
 -1       593-8.62575E-02-1.40208E-01-7.57017E-02 1.36979E-02 3.98676E-03-1.36550E-01
 -1       594-6.07181E-01-2.02159E-01-2.64530E-01 2.03841E-01 2.59159E-01-5.29905E-01
 -1       595-1.13172E-01 5.40548E-03 1.59573E-01 5.51450E-03 2.47805E-02-4.79222E-03
 -1       596-1.28309E-01-2.28950E-01-1.25491E-01-3.77972E-02-2.60874E-02-9.96790E-02
 -1       597-5.57024E-02-1.63352E-01 5.98369E-02-1.23001E-02 2.34378E-02 4.29281E-02
 -1       598-1.78084E-01 2.68563E-02 1.45385E-01-4.20278E-02-3.57751E-02-3.08813E-02
 -1       599-3.18143E-02-2.88414E-02-1.99881E-02-4.36410E-03 2.17154E-02-5.50308E-02
 -1       600 3.57459E-02-3.24503E-02 3.78413E-02 6.67948E-02 1.40967E-03-3.67349E-02
 -1       601-1.99318E-01-9.31521E-03-1.01256E-01-3.84011E-02 5.90229E-02-6.42018E-01
 -1       602-2.13866E-01-1.47048E-01-2.26538E-01-6.52913E-02 1.23471E-01 1.54998E-01
 -1       603-1.59922E-01-5.74754E-02-1.27013E-01-5.27353E-02 4.04357E-02 1.68792E-01
 -1       604-9.48630E-02-6.12574E-02 4.56511E-02-5.78160E-02 1.61856E-02-1.82379E-02
 -1       605-1.95819E-03-3.96118E-02 6.98915E-03 6.55021E-02 5.25725E-02-1.28247E-01
 -1       606-6.75292E-02-8.66200E-02 3.91657E-02-7.72584E-02 3.00179E-02 2.06770E-02
 -1       607-8.90003E-02-9.35428E-02-6.99437E-02-2.48947E-02 4.23529E-02-1.41479E-02
 -1       608 2.57591E-02-1.75151E-02 5.65505E-02-3.11066E-03 3.73183E-02-2.39209E-03
 -1       609-1.22117E-01-1.14758E-01 5.10775E-02-9.92563E-02 7.50268E-03 8.49847E-03
 -1       610-1.15154E-01-1.31730E-01-6.49586E-02-6.26463E-02-7.46068E-02-9.04647E-02
 -1       611-9.81337E-02-1.11196E-01-1.33927E-01 4.08366E-02-2.86564E-02-1.04670E-01
 -1       612-2.12690E-01-9.01589E-03-1.14019E-01-7.87077E-03 4.79442E-02-5.51357E-01
 -1       613 5.90911E-02 1.20616E-01 2.29777E-01 6.67797E-03 6.49945E-02 1.31515E-02
 -1       614-9.96111E-02-1.85265E-01-1.40700E-01-3.24224E-02-1.18079E-01-5.53803E-02
 -1       615-7.68132E-02-8.83021E-02-5.61967E-02 1.28441E-03 3.86376E-02 5.53385E-02
 -1       616 2.17781E-04 8.86677E-02 2.24546E-01-7.91486E-02-8.89243E-02-1.24283E-02
 -1       617-5.37129E-02-3.14486E-02 4.33845E-02-4.01863E-02-5.53758E-03-4.57543E-02
 -1       618-1.27880E-01-4.93941E-02-2.42318E-02-1.59633E-02 3.68721E-02-1.82911E-02
 -1       619 2.54640E-01 3.65434E-04 8.23385E-02-7.95557E-02-6.53648E-02-6.93855E-01
 -1       620-1.05313E-01-1.33599E-01-1.65122E-01-6.27996E-02 5.42180E-02 1.18264E-01
 -1       621 5.42839E-02 7.69183E-02 8.07525E-02-6.89639E-02-2.68938E-02 1.65892E-01
 -1       622 9.95461E-03 3.02111E-02 3.16559E-02-4.68731E-02 1.97471E-02-2.47607E-02
 -1       623-8.89516E-03 8.30146E-03 7.51567E-03 6.46155E-02 7.15332E-03-1.25302E-01
 -1       624 1.52612E-02-4.32603E-03 1.18650E-02-4.84337E-02 8.06132E-03 1.73852E-02
 -1       625 1.11135E-01 1.42026E-01 3.46642E-02-2.08758E-02 4.82745E-02-6.89855E-02
 -1       626 9.24949E-03 1.19720E-02 7.27020E-03 6.01892E-03-1.93099E-02-7.23956E-02
 -1       627 4.55125E-02 3.58956E-04 6.29578E-02-4.65097E-02-5.14679E-02 1.52504E-02
 -1       628 3.17032E-03-4.46816E-03-3.84080E-02-4.95920E-02-7.46201E-02-1.70327E-02
 -1       629-5.83278E-02-1.02769E-01-1.21482E-01 7.48810E-02-2.05756E-02-1.31287E-01
 -1       630 3.07166E-01 6.61707E-02 1.64538E-01-4.50035E-02-3.33762E-02-6.88521E-01
 -1       631 2.55986E-02 7.68048E-02 1.28536E-01-1.87230E-02 8.52518E-02 5.07891E-03
 -1       632-4.53944E-02-6.43129E-02-1.49101E-01-1.76876E-02-8.90063E-02-1.58623E-02
 -1       633 9.26161E-03-1.22248E-03-5.81174E-02-3.61224E-02 5.23789E-02 4.03916E-03
 -1       634 7.35964E-04-2.35038E-02 7.43280E-02-2.01918E-02-5.38531E-02 7.25510E-03
 -1       635 3.72464E-02 2.73605E-02 1.85724E-02-9.79611E-03 7.20980E-03-6.07720E-02
 -1       636-1.27849E-02-2.79997E-02-2.89828E-02-8.33566E-03 3.54157E-02-5.64019E-02
 -1       637 6.73041E-01 1.63452E-01 2.84179E-01 1.55311E-01-2.86501E-01-5.46120E-01
 -1       638 9.65326E-02 9.82010E-02 1.59406E-01-4.53529E-02-8.00822E-02 1.65574E-01
 -1       639 1.59292E-01 1.65005E-01 2.14738E-01-4.47279E-02-1.46636E-01 1.49132E-01
 -1       640 8.29816E-02 9.81825E-02 4.73993E-02-4.37205E-02 6.02801E-02-7.12613E-02
 -1       641-4.81767E-03 5.87153E-02 2.41264E-02 3.15538E-02-1.39516E-04-1.42032E-01
 -1       642 9.66475E-02 1.12509E-01-3.89634E-02-1.09085E-01-4.65320E-03 1.60050E-03
 -1       643-1.07523E-02 3.20587E-02-5.57598E-02 8.76332E-03-2.45292E-02-2.63083E-02
 -1       644 8.15986E-02 1.06696E-01 5.15055E-02-2.20059E-02-3.71074E-02-3.38801E-02
 -1       645 4.26004E-02 5.40305E-02-5.32078E-02-5.31697E-02-2.31997E-02 2.04267E-02
 -1       646 9.40100E-02 5.50792E-02-4.11462E-02-5.45191E-02-1.23245E-02-2.92683E-03
 -1       647 2.56194E-02 4.64180E-02 1.95661E-04 6.87261E-02-5.74739E-02-1.19107E-01
 -1       648 9.02822E-01 3.69214E-01 4.54573E-01 2.54530E-01-2.97649E-01-6.38456E-01
 -1       649 9.16452E-02 1.54100E-01 1.88013E-01-2.40643E-02 9.67953E-02-6.60243E-02
 -1       650-3.64417E-02-9.73088E-02-2.03574E-01-1.58195E-02-6.38837E-02 2.19552E-02
 -1       651 5.49736E-02 8.50620E-03-1.39967E-01-5.73459E-02 7.94698E-02-1.96845E-02
 -1       652 2.11998E-01 1.58858E-01 1.60041E-01-3.25641E-02-6.23945E-02 1.27223E-01
 -1       653 6.71897E-02 1.97978E-02-3.48254E-03 6.51710E-03-4.89549E-02-1.83522E-02
 -1       654 5.39870E-02 3.68944E-02 1.44682E-06-2.08266E-02-1.23074E-02-2.70029E-02
 -1       655 3.26958E-01 5.52567E-01 2.87090E-01 3.34479E-01-3.59606E-01-2.50497E-01
 -1       656 1.63388E-01 1.02743E-01 1.65895E-01-3.19065E-02-1.43967E-01 2.28981E-01
 -1       657 2.69107E-01 2.59373E-01 4.59490E-01-3.08649E-02-1.59458E-01 2.57725E-01
 -1       658 1.78049E-01 1.36320E-01 8.68252E-03-8.17221E-02 4.44580E-02-9.18427E-02
 -1       659-9.63801E-03 8.43592E-02 4.55721E-02 3.16960E-02-1.42077E-02-1.07351E-01
 -1       660 2.06087E-01 8.28167E-02-8.38393E-02-9.60241E-02-2.21088E-02 7.79297E-03
 -1       661 3.51451E-02 9.53442E-02 2.97604E-02-3.41480E-02-9.73625E-02 4.42957E-02
 -1       662 1.43720E-01 1.26997E-01 9.60377E-02-4.27094E-02-9.92489E-02 6.98882E-02
 -1       663 1.54754E-01 1.47943E-01-3.74509E-02-1.00573E-01-2.93122E-02 6.07411E-02
 -1       664 1.65158E-01 6.49521E-02-6.07927E-02-7.39689E-02 2.86296E-02-3.78454E-04
 -1       665 1.41532E-01 2.02945E-01 9.37898E-02 6.90383E-02-1.26792E-02-9.14840E-02
 -1       666 3.80573E-01 6.20830E-01 3.12731E-01 3.52863E-01-2.69571E-01-2.93031E-01
 -1       667 1.92158E-01 1.85586E-01 2.13493E-01-6.02059E-02 7.36832E-02-1.42958E-01
 -1       668 1.27984E-01-9.84007E-03-1.16701E-01-3.58935E-03-1.66730E-02 2.36153E-02
 -1       669 2.02160E-01-9.27868E-03-1.70027E-01-2.80135E-02 3.24545E-02-2.64638E-02
 -1       670 4.10945E-02 1.92099E-01-4.64272E-02-6.17653E-02-1.14367E-02 2.28458E-02
 -1       671 4.07730E-02 4.42415E-02 4.06220E-02 5.52869E-03 4.46620E-03-3.81732E-02
 -1       672 1.17962E-01 6.76690E-02 6.24200E-02 1.73456E-02-3.32750E-02-4.02804E-02
 -1       673 1.15465E-01 1.10674E+00 4.59522E-01 1.49663E-01-1.23697E-01-1.00881E-01
 -1       674 3.15845E-01 2.07067E-01 2.86999E-01-2.17842E-02-1.16730E-01 3.55162E-01
 -1       675 4.55408E-01 3.66403E-01 5.54456E-01-2.91290E-02-1.17889E-01 3.56051E-01
 -1       676 1.45572E-01 1.90079E-01 1.30878E-01 2.30995E-02-6.20852E-02-1.39812E-01
 -1       677 2.73301E-01 1.32435E-01-1.31644E-02-8.02674E-02 2.72755E-03-8.80220E-02
 -1       678 3.55890E-01 8.50181E-02-8.77411E-02-7.37122E-02-1.39476E-02 2.04160E-02
 -1       679 1.43006E-01 1.29010E-01 8.96445E-02 6.37148E-03-6.63486E-02 5.34353E-02
 -1       680 3.06676E-01 1.62939E-01 1.51277E-01-8.16267E-03-4.67219E-02 1.46578E-01
 -1       681 3.49624E-01 1.42072E-01-4.06998E-02-9.97177E-02-1.24114E-02 7.94858E-02
 -1       682 2.62416E-01 1.26320E-01-1.25741E-02-3.42769E-02 5.22668E-02-5.79694E-02
 -1       683 1.27125E-01 3.16456E-01 1.94159E-01-5.89183E-03-2.44743E-02-7.94184E-02
 -1       684 1.07937E-01 1.03270E+00 4.13773E-01 1.91716E-01-9.90125E-02-1.14741E-01
 -1       685 1.61513E-01 2.00782E-01 4.62140E-02-1.02784E-01 2.41167E-02-8.57689E-02
 -1       686 2.00402E-01 2.92628E-02-8.62314E-02 3.32672E-02 1.39952E-02-1.72775E-02
 -1       687 5.60126E-02-1.21015E-02-2.07261E-01 6.91078E-03 2.04357E-02 1.72057E-03
 -1       688 5.00247E-02 9.19595E-02-1.82896E-01-7.27911E-02-3.04623E-02-2.22955E-03
 -1       689 1.37330E-01 1.41692E-01 2.98055E-03-8.77291E-03 1.44772E-02-4.32633E-02
 -1       690 1.55815E-01 1.57026E-01 8.23058E-02 2.33227E-02-2.31908E-02-6.03615E-02
 -1       691 1.98110E-01 9.12133E-01 4.07179E-01-2.34361E-01 9.32977E-02-1.37931E-01
 -1       692 3.18335E-01 1.98216E-01 3.33529E-01-2.05990E-02-3.57224E-02 3.96700E-01
 -1       693 5.22479E-01 4.74705E-01 6.70196E-01-2.97641E-02-1.60842E-02 4.72005E-01
 -1       694 9.50124E-03 1.84648E-01 1.27288E-01 8.20459E-03-5.72506E-03-1.08151E-01
 -1       695 3.21649E-01 1.44201E-01-9.05863E-03-2.17540E-02-2.01580E-02-1.10052E-01
 -1       696 3.67580E-01 9.07933E-02-1.00471E-01 2.03608E-02 1.25957E-03 7.92594E-02
 -1       697 2.71972E-01 1.47803E-01 1.40829E-01-5.22580E-04-1.20241E-02 1.93461E-01
 -1       698 5.40095E-02 1.00306E-02 5.97746E-02-1.00178E-02-3.20200E-02 1.10070E-01
 -1       699 4.45335E-01 1.05489E-01-4.86815E-02-3.48644E-02 1.64356E-02 6.50693E-02
 -1       700 3.44255E-01 1.38287E-01 5.20418E-02 3.12519E-02 3.72955E-02-1.08160E-01
 -1       701 1.57072E-01 2.99947E-01 1.39417E-01-1.94223E-02 2.17297E-02-1.32406E-01
 -1       702 1.33487E-01 9.08007E-01 4.16599E-01-2.13687E-01 5.81138E-02-1.96294E-01
 -1       703 2.50154E-01 1.25875E-01-1.76671E-02-9.45369E-02 2.83157E-03-1.03504E-01
 -1       704 2.52868E-01 1.26770E-01 7.36344E-02 1.06532E-01 2.15484E-02-8.15763E-02
 -1       705 1.54114E-01 7.85349E-02-2.61246E-01 1.14754E-01 5.07987E-02-4.55779E-03
 -1       706 2.64086E-01 9.17764E-02-1.89591E-01-1.38680E-01-1.91820E-02-2.62753E-02
 -1       707 1.61699E-01 1.70582E-01 7.47501E-02-4.11681E-03 1.78360E-02-1.57268E-02
 -1       708 1.10756E-01 2.20508E-01 5.35807E-02 5.95385E-03-2.09750E-02-2.55941E-02
 -1       709 2.58909E-01 5.53711E-01 2.36596E-01-3.18647E-01 2.52601E-01-1.99196E-01
 -1       710 3.46098E-01 1.56876E-01 4.68607E-01 9.22904E-02 1.06203E-01 3.43342E-01
 -1       711 4.30798E-01 2.89376E-01 4.63697E-01 4.50173E-02 1.16846E-01 3.94138E-01
 -1       712 5.54604E-02 1.27856E-01 8.10255E-02-5.17408E-03-3.68921E-02-1.00413E-01
 -1       713 3.25343E-01 1.45230E-01 3.43211E-02 4.05799E-02-5.33552E-02-6.58363E-02
 -1       714 4.22260E-01 1.74766E-01-9.35943E-04 1.38471E-01 8.01820E-03 1.00433E-01
 -1       715 2.37390E-01 1.99456E-01 1.79733E-01 4.21916E-02 8.94838E-02 1.29635E-01
 -1       716 1.62654E-01 1.94207E-01 1.33754E-01 1.76399E-03 8.06654E-02 9.86296E-02
 -1       717 3.00991E-01 9.66789E-02-9.63509E-02 5.80255E-02 7.88810E-03 2.72660E-02
 -1       718 2.22409E-01 1.11189E-01-4.53628E-02 6.35716E-02-1.05166E-02-8.11423E-02
 -1       719 2.38955E-01 3.41854E-01 2.86760E-01-3.64124E-02 4.37813E-02-1.29870E-01
 -1       720 2.98383E-01 5.44219E-01 2.76027E-01-3.03947E-01 1.53117E-01-2.20964E-01
 -1       721 2.35583E-01 3.53090E-02-3.84338E-03-3.68102E-02-2.80780E-02-1.46489E-02
 -1       722 1.48046E-01 1.84123E-01 3.11139E-02 5.94282E-02-9.49376E-03-1.01727E-01
 -1       723 1.34938E-01 1.94577E-01-1.81477E-02 8.42529E-02-3.44479E-02 4.62812E-02
 -1       724 2.93511E-01 1.20899E-01-1.34877E-01-1.59215E-02 3.01173E-02 8.75772E-03
 -1       725 3.55758E-01 3.11190E-01 1.36378E-01-2.09728E-02-3.71737E-03-2.12732E-02
 -1       726 2.26516E-01 2.35679E-01 1.21722E-01-5.67177E-03-1.22881E-02-1.28668E-02
 -1       727 3.75517E-01 4.08658E-02 1.36770E-01-1.20940E-01 2.51237E-01-4.45753E-01
 -1       728 2.89765E-01 2.35057E-01 3.29702E-01 5.80378E-02 1.51500E-01 2.55302E-01
 -1       729 1.19476E-01 8.69045E-02 1.83042E-01 5.90936E-02 9.36239E-02 1.84060E-01
 -1       730 1.50625E-02 9.79551E-02 4.92222E-02-3.36820E-02-2.86722E-02-1.27359E-01
 -1       731 1.93064E-01 1.21629E-01-2.65970E-02 8.48902E-02-4.07687E-02-5.36607E-02
 -1       732 1.65503E-01 1.38969E-01-6.54623E-02 1.18198E-01 2.59944E-02 5.92126E-02
 -1       733 2.16653E-01 1.57759E-01 1.37553E-01 4.41957E-02 1.32830E-01 4.53260E-02
 -1       734 1.99749E-01 9.08579E-02-1.26048E-01 1.14826E-01-6.80812E-03 1.48674E-02
 -1       735 8.61173E-02 7.80828E-02 1.67084E-02 1.42762E-02 8.52630E-02 2.43053E-02
 -1       736 6.66049E-01 2.64029E-01 2.50959E-01-2.24375E-01 2.67493E-01-4.20427E-01
 -1       737 1.72404E-01 1.49630E-01-9.73358E-03 7.80532E-02-3.56776E-02-1.10466E-01
 -1       738 3.90133E-02 1.37793E-01 1.15256E-01-5.00239E-02 6.96403E-03-1.53105E-01
 -1       739 1.05061E-02 4.86580E-02-2.70816E-02-2.14158E-02-5.33478E-02-4.14563E-03
 -1       740 1.28796E-01 2.01041E-01 6.76041E-02 2.58205E-02-3.92823E-02-8.79124E-02
 -1       741 1.37006E-01 2.10585E-01 2.40954E-02 2.42472E-02 2.77996E-02 7.56712E-02
 -1       742 4.43912E-02-8.50907E-02-3.11049E-01-4.33709E-04-5.98999E-02-1.65423E-02
 -1       743 1.13557E-01 6.27856E-02-6.66258E-02 2.64961E-02 5.97323E-03-3.32290E-02
 -1       744 1.81867E-01 1.32951E-01 8.23543E-02 2.08399E-02 2.36303E-02-2.22584E-02
 -1       745 2.39930E-01 3.81285E-02 4.22846E-02 1.05147E-02 9.38168E-02-6.13847E-01
 -1       746 2.04423E-01 2.03764E-01 2.65896E-01 6.11267E-02 1.58417E-01 1.76612E-01
 -1       747 8.76556E-02 3.56743E-02 1.34887E-01 5.59450E-02 5.98680E-02 1.97881E-01
 -1       748 5.58332E-02 8.66815E-02 4.00109E-02-8.05148E-02 5.17940E-02-1.33415E-01
 -1       749 9.25769E-02 6.70837E-02-4.38174E-02 5.70407E-02-9.71086E-03-1.20608E-02
 -1       750 8.31639E-02 9.26531E-02-3.85648E-02 5.89689E-02 2.64520E-02 2.92527E-02
 -1       751 3.12844E-02 5.45710E-02 4.15080E-03-4.34540E-03 7.97465E-02-5.02282E-02
 -1       752 1.29798E-01 1.36203E-01-2.83158E-02 1.00802E-01 1.42089E-02 9.35935E-03
 -1       753 7.72537E-02 6.50946E-02-2.36742E-02 1.91703E-02 7.54442E-02-3.12360E-02
 -1       754 3.79144E-01 5.17351E-02 1.29174E-01 4.80981E-03 1.39465E-01-5.52926E-01
 -1       755 1.04550E-01 1.34091E-01 5.62331E-02 6.26628E-02-7.21789E-02-8.00507E-02
 -1       756 7.86472E-03 6.73027E-02 5.43636E-02-6.57770E-02 9.55354E-03-1.54937E-01
 -1       757 9.53630E-02 8.78245E-04-1.27376E-01 3.09551E-02 4.97309E-02-5.47428E-04
 -1       758 1.02237E-01 1.89358E-01 2.13312E-01 3.04071E-02-1.18977E-01-7.21210E-02
 -1       759 9.55927E-02 1.04909E-01 3.12005E-02-3.03050E-04 4.19373E-02 6.08270E-02
 -1       760 7.77277E-02 2.65609E-02-1.35862E-01 5.19966E-02-6.47875E-02-1.66937E-02
 -1       761 6.71926E-02 4.97343E-02 3.79588E-02 1.62377E-02-5.93146E-03-3.78886E-02
 -1       762 1.12561E-01 3.59090E-02 1.80892E-02-1.53461E-02 1.58848E-02-2.79669E-02
 -1       763-2.37310E-01 7.45369E-03-1.14035E-01 1.48852E-01-4.75695E-02-5.60125E-01
 -1       764 3.14933E-02 8.92529E-03-2.37996E-03 3.10928E-02 5.19755E-03 8.47252E-02
 -1       765-2.75925E-02-9.07406E-02-1.71215E-01 1.40292E-02-2.83545E-02 7.03352E-02
 -1       766-4.34637E-02-1.73194E-02-2.68642E-02-7.45599E-02-2.63510E-03-1.46539E-01
 -1       767 8.90064E-05 1.64872E-03-1.35712E-02 3.53775E-02 1.83212E-02-2.38911E-02
 -1       768-2.10396E-02-2.16390E-02-2.07835E-03 5.16556E-02 1.97220E-02 1.26018E-02
 -1       769-4.36268E-03 3.91813E-03-3.78496E-02 2.33083E-02 5.92105E-03-4.77918E-02
 -1       770-6.12179E-03 1.30378E-02-7.44521E-03 5.23106E-02-4.28747E-02 4.42888E-04
 -1       771 1.23920E-02 1.28087E-02-8.13304E-02 7.86241E-03-5.02435E-04-7.01227E-02
 -1       772-2.88875E-01 6.01908E-02-6.84015E-02 1.23248E-01-1.21728E-01-6.26487E-01
 -1       773-3.22821E-02-1.35348E-02-3.45427E-04 2.57136E-02-4.43658E-02-1.06089E-02
 -1       774 5.29279E-02 8.77227E-02 1.97715E-01-3.85863E-03-7.22478E-02-1.32100E-01
 -1       775-1.74372E-02-2.94742E-02-9.85044E-02 1.70681E-02 5.04533E-02-2.74210E-02
 -1       776 4.88747E-02 7.15388E-02 1.18078E-01 6.76107E-03-5.46586E-02-3.04732E-02
 -1       777 9.55835E-02 8.47530E-02 1.53012E-01 3.03328E-02 7.55890E-02 4.61859E-02
 -1       778-8.35644E-02-6.88028E-02-1.65539E-01 9.66861E-03-7.44118E-02 4.80149E-02
 -1       779-5.07481E-02-5.62462E-02-5.54174E-02 1.25844E-02 1.59050E-02-4.36956E-02
 -1       780 3.00312E-02 5.79184E-03 7.78591E-02 2.07729E-02 1.10992E-02-4.15164E-02
 -1       781-3.00222E-01-2.06515E-02-1.23837E-01-1.17153E-01-3.16282E-01-4.21176E-01
 -1       782-1.65093E-02 3.05930E-02 4.54841E-02 2.45670E-02-7.05590E-03 1.38933E-01
 -1       783-2.14178E-01-1.66815E-01-2.08994E-01 5.36236E-02-1.08229E-01 1.79769E-01
 -1       784 2.43118E-02-3.59315E-02-3.20392E-02-5.78745E-02-2.44143E-02-1.61200E-01
 -1       785-8.57212E-02-1.13824E-01-5.22867E-02 5.91221E-02 6.91385E-02-8.08851E-02
 -1       786-1.35439E-01-1.40650E-01 6.83756E-03 1.02027E-01-7.56205E-03 1.94167E-03
 -1       787-3.29630E-02-3.58505E-02-1.28096E-02 2.00315E-02-5.87425E-02-4.37789E-03
 -1       788-6.54100E-02-8.29804E-02 3.52418E-02 4.32933E-02-2.98154E-02 1.83389E-02
 -1       789-5.04390E-02-1.89435E-02-4.52044E-02 8.57353E-03-5.86010E-02-2.38023E-02
 -1       790-4.95018E-01-2.05184E-01-3.14284E-01-1.69610E-01-2.67586E-01-4.61813E-01
 -1       791-9.44219E-02-5.91284E-02 4.49599E-02 6.80821E-02 5.08579E-03-8.11234E-03
 -1       792-6.57941E-03-2.63203E-02-1.60627E-02-5.90049E-02-3.30761E-02-1.27165E-01
 -1       793-8.68753E-02-1.80028E-01-1.79210E-01 2.97904E-02 1.13574E-01-5.36470E-02
 -1       794-9.84109E-02-1.92297E-02 1.12634E-01 4.95521E-02-4.51506E-02 7.52611E-03
 -1       795-3.47343E-02 3.12473E-02 1.29146E-01 6.82239E-02 6.78575E-02-1.59845E-02
 -1       796-7.65717E-02-7.68349E-02-3.27012E-02-4.52574E-03-5.97993E-02 5.12657E-02
 -1       797-1.44376E-01-9.83071E-02-6.64132E-02 1.27903E-02-5.74338E-03-4.37216E-02
 -1       798-9.53857E-02-7.48622E-02-3.18801E-02 1.66668E-02 3.85810E-03-3.83745E-02
 -1       799-2.83968E-01-4.43493E-01-2.41037E-01-3.18150E-01-3.17085E-01-2.44250E-01
 -1       800-2.58088E-01-2.35443E-01-3.61904E-01 5.66984E-02-1.67924E-01 2.68616E-01
 -1       801-1.14582E-01-1.05624E-01-1.93202E-01 5.29887E-02-1.56787E-01 2.45164E-01
 -1       802-1.62595E-01-1.73088E-01-1.49438E-01-2.26557E-02-1.46307E-03-1.04316E-01
 -1       803-1.88782E-01-1.46842E-01-2.74502E-02 5.83137E-02 3.13757E-02-7.77908E-02
 -1       804-2.08026E-01-1.22312E-01 5.91087E-02 1.00938E-01-1.24469E-02 2.93624E-02
 -1       805-2.43682E-01-1.71335E-01-1.03514E-01 5.19387E-02-1.08782E-01 5.48107E-02
 -1       806-1.99203E-01-1.53683E-01 5.95494E-02 1.12728E-01-2.65038E-02 7.54554E-02
 -1       807-4.41078E-02-6.60843E-02-8.82822E-02-2.53760E-02-1.23692E-01 3.20096E-02
 -1       808-3.19617E-01-5.51497E-01-3.22812E-01-3.33094E-01-2.76578E-01-2.70558E-01
 -1       809-1.96990E-01-7.06146E-02 9.00061E-02 6.61725E-02 1.71734E-02 1.72331E-02
 -1       810-4.01766E-02-2.35493E-01-1.03828E-01-6.21872E-02-3.23577E-02-1.09144E-01
 -1       811-1.09159E-01-2.09538E-01-1.16324E-01 6.10461E-02 9.29768E-02-9.20774E-02
 -1       812-1.48657E-01-2.03017E-02 1.05495E-01-3.19330E-04-6.23445E-03 5.02572E-02
 -1       813-2.40586E-01-6.17824E-02 8.81376E-02 3.53561E-02-1.31776E-02-3.05365E-02
 -1       814-6.61962E-02-1.31876E-01 6.18468E-02 2.33415E-02-1.64207E-02 1.92107E-02
 -1       815-1.68959E-01-1.13371E-01-4.20008E-02-3.31885E-02-7.62817E-03-2.66583E-02
 -1       816-1.22147E-01-7.49843E-02-2.73363E-03 2.51149E-02-6.60347E-03-4.49288E-02
 -1       817-3.51353E-01-1.15972E-01-4.74400E-01 6.60570E-02-8.17281E-02 3.37559E-01
 -1       818-4.39872E-01-2.33127E-01-4.30311E-01 2.46104E-02-8.55739E-02 3.75807E-01
 -1       819 4.09390E-02-9.66942E-02-4.83348E-02-4.36930E-02-4.08937E-02-1.29499E-01
 -1       820-2.17578E-01-9.16727E-02 4.76120E-02 5.97006E-02 2.32557E-03-8.02939E-02
 -1       821-3.17148E-01-9.87745E-02 6.48563E-02 5.46595E-02-1.17448E-02 3.00312E-02
 -1       822-7.09198E-02-6.22186E-02 2.27493E-02 8.09039E-03-9.01737E-02 1.33384E-01
 -1       823-3.79885E-01-3.20683E-01-2.06640E-01 3.39410E-02-7.27297E-02 1.54771E-01
 -1       824-3.39737E-01-1.53096E-01 7.81969E-02 9.22235E-02-6.06457E-03 7.69290E-02
 -1       825-2.77944E-01-9.27641E-02 8.15448E-02 4.81076E-02 3.60811E-02-7.36698E-02
 -1       826 3.32701E-02-5.86908E-02 7.99712E-04-1.84764E-02 1.62362E-02-9.48418E-02
 -1       827-6.95302E-02-9.72741E-02 7.15181E-03 5.45508E-02 1.08997E-04-8.45131E-02
 -1       828-1.02862E-01-1.35326E-02 1.64101E-01-4.27060E-02 7.83722E-03 2.62075E-02
 -1       829-2.61040E-01 4.39566E-03 1.55635E-01-5.23583E-02 3.36677E-02-2.38054E-02
 -1       830-8.84493E-02-1.48015E-01 2.19974E-01 1.03758E-01-2.38451E-02 1.61521E-03
 -1       831-1.41274E-01-1.75294E-01-2.74450E-02-1.18827E-02 8.99847E-03-3.39056E-02
 -1       832-1.67020E-01-1.60335E-01-1.20994E-01-3.12211E-02-1.65774E-02-2.96757E-02
 -1       833 1.59352E-01 2.28886E-01 1.19976E-01 4.36031E-02 4.00306E-01 3.40810E-01
 -1       834-3.66508E-01-3.16413E-01-2.79197E-01-8.58553E-02 4.05562E-01 2.91840E-01
 -1       835 3.84804E-01 1.89115E-01 2.59729E-01 1.69686E-01-9.39699E-02 8.62058E-01
 -1       836-1.54234E-01-2.54627E-01-1.42264E-01 2.87313E-01-9.23847E-02 8.07747E-01
 -1       837-4.21797E-01-5.85012E-01-4.23867E-01-2.10304E-02 2.45537E-01 7.44839E-02
 -1       838-1.01475E-01-8.98001E-02-1.50886E-01 1.58532E-03 1.44988E-01 8.48708E-02
 -1       839 5.24892E-02 4.31213E-01 1.93978E-01 5.56927E-02 4.64167E-01 5.62383E-01
 -1       840-4.46506E-01 1.43382E-01-1.41957E-01 2.80431E-03 4.35987E-01 5.26303E-01
 -1       841 2.37025E-01 2.68432E-01 2.66700E-01-1.96269E-02-1.86384E-01 8.04595E-02
 -1       842 5.09209E-01 6.77465E-01 4.99590E-01-4.28347E-02-2.59849E-01 7.88255E-02
 -1       843-1.28289E-01-3.11189E-01-1.77831E-01 5.46240E-02-2.91907E-01 6.16972E-01
 -1       844-1.51209E+00-1.30055E+00-1.18412E+00 1.96561E-01-4.17077E-01 7.80267E-01
 -1       845 5.16971E-01 8.49333E-01 5.64431E-01 2.64368E-01 3.83860E-01 6.85447E-01
 -1       846-2.37149E-02 5.95853E-01 2.21694E-01 2.97691E-01 3.60837E-01 6.24629E-01
 -1       847-1.98199E-01-2.57186E-01-2.18428E-01-1.40433E-02 2.69196E-01 1.96657E-01
 -1       848-6.96650E-01-9.30742E-01-6.85132E-01-7.64168E-02 3.92454E-01 2.09779E-01
 -1       849 2.25720E-01 1.77462E-01 1.51577E-01-5.31361E-02 1.11059E-01 1.11709E-02
 -1       850 2.55425E-01 1.42192E-01 1.37450E-01-5.68098E-02 9.52302E-02 1.20028E-02
 -1       851 2.95134E-01 2.55720E-01 2.26360E-01-1.41007E-01-9.41196E-02 9.15546E-01
 -1       852-3.60393E-01-1.97934E-01-2.43789E-01-2.08431E-01-9.05229E-02 8.58605E-01
 -1       853 1.58684E-02-2.06427E-01-1.70872E-01-6.32416E-03-4.10705E-01 4.52015E-01
 -1       854-5.80037E-01-9.74760E-01-6.33248E-01 1.42150E-01-4.07314E-01 4.79494E-01
 -1       855-7.77715E-02-1.81632E-01-6.98038E-02-2.80176E-02-3.77010E-01 1.87660E-01
 -1       856-3.64315E-02-5.53302E-02-1.46643E-01-8.38428E-02-3.41222E-01 1.27509E-01
 -1       857 2.05397E-01 1.93759E-01 2.12488E-01 1.49732E-02-6.28262E-02-1.17904E-02
 -1       858 1.84768E-01 1.90485E-01 1.22151E-01 3.26196E-02-6.68570E-02-1.07419E-02
 -1       859-6.12807E-02 1.11129E-01 1.51927E-02 2.59274E-02-4.58824E-01 3.76371E-01
 -1       860 3.40168E-01 6.67110E-01 4.13911E-01-2.98660E-02-4.23037E-01 3.48143E-01
 -1       861-5.91554E-01-4.91448E-01-5.77631E-01-2.11870E-03 8.41288E-02 7.22940E-01
 -1       862-2.06941E+00-1.50729E+00-1.50579E+00-3.53711E-02 9.08706E-02 9.22689E-01
 -1       863 2.05698E-01 1.80896E-01 1.57465E-01 5.07992E-02-8.55861E-02 1.52365E-02
 -1       864 2.32366E-01 1.57579E-01 1.57302E-01 6.02683E-02-7.98118E-02 1.57822E-02
 -1       865 1.81498E-01-6.75430E-02 6.63355E-02 1.04728E-01-2.60185E-01 8.30309E-01
 -1       866-6.97297E-01-8.16744E-01-6.08248E-01 2.13788E-01-2.48553E-01 8.04111E-01
 -1       867 3.86864E-01 5.44926E-01 3.92284E-01-1.42192E-02-2.44766E-01 7.42501E-02
 -1       868 1.13316E-02-3.29106E-02 4.77175E-02 1.75688E-03-1.24433E-01 6.19425E-02
 -1       869 1.51190E-01 4.14861E-01 2.36075E-01 4.63130E-02-3.70471E-01 1.96052E-01
 -1       870-2.07215E-02 3.44237E-01 1.32659E-01 1.09130E-01-3.50048E-01 1.84279E-01
 -1       871-1.47469E-01-2.21470E-01-1.55323E-01 3.66181E-02 1.10960E-01 1.09278E-02
 -1       872 1.26872E-01 1.23610E-01 6.03293E-02-1.49241E-02 8.28264E-02 2.90257E-02
 -1       873-8.43901E-01-9.64928E-01-7.61517E-01-1.33659E-01 4.73003E-01 3.88175E-01
 -1       874-2.06723E-02 1.84776E-02-1.33065E-01 3.58458E-02 2.77715E-01 3.05211E-01
 -1       875 3.09489E-01 4.30651E-01 2.80171E-01 1.07453E-01 3.48743E-01 6.55639E-01
 -1       876-4.41770E-01-6.28496E-02-2.31193E-01 6.48813E-02 3.43124E-01 6.39545E-01
 -1       877 2.42544E-01 1.96058E-01 1.48790E-01 2.01614E-01 3.38720E-02 8.42318E-01
 -1       878-7.27504E-01-3.81457E-01-4.44020E-01 3.14676E-01 6.67532E-02 8.89967E-01
 -1       879 6.21491E-02-3.16904E-01-7.82796E-02-2.05998E-01 2.63688E-01 8.10448E-01
 -1       880 3.23439E-01 3.46364E-01 3.80413E-01-3.62265E-02-3.43233E-01 6.76260E-01
 -1       881-2.67049E-01-8.62646E-02-1.27396E-01 3.90084E-02-4.03089E-01 4.63374E-01
 -1       882-1.14449E-01-2.51896E-01-1.34692E-01 6.88268E-03-4.67895E-01 3.78033E-01
 -1       883 1.39461E-01 1.72773E-01 1.71735E-01-2.01129E-03 1.63320E-01 6.57917E-02
 -1       884 4.19380E-03-1.14640E-01-4.01923E-02 5.93004E-02 3.27444E-01 1.81529E-01
 -1       885 2.05753E-01-1.21655E-01 3.82332E-02-7.72305E-03 4.18233E-01 5.15313E-01
 -1       886 1.07246E-01 2.97774E-01 1.89491E-01 1.43663E-01 2.23409E-01 8.01631E-01
 -1       887 1.91515E+00 1.48712E+00 1.43236E+00-1.63491E-01-2.93765E-01 9.68398E-01
 -1       888-3.78056E-01-8.44992E-01-5.11044E-01-1.17739E-01 3.95568E-01 4.89400E-01
 -1       889 9.39598E-01 1.64736E-01 5.01573E-01-2.48358E-01 2.62879E-01 7.68323E-01
 -1       890 3.40816E-01 4.73021E-01 3.42625E-01 1.67961E-02 2.22343E-01 6.74481E-02
 -1       891 1.09208E+00 9.80140E-01 8.72403E-01-1.59488E-01-4.30402E-01 8.05196E-01
 -1       892 2.33967E-01 5.32805E-01 2.84610E-01-7.72305E-02-4.08921E-01 4.85851E-01
 -1       893 2.56792E-01 7.10643E-02 1.69879E-01-5.75450E-02-4.35642E-01 3.49455E-01
 -1       894-2.98688E-01-5.47268E-01-3.48865E-01 4.85859E-02 3.22306E-01 1.78497E-01
 -1       895 1.94919E-01 5.43955E-02 1.58707E-01 1.10666E-01-2.42026E-01 7.38958E-01
 -1       896-7.69277E-01-2.65794E-01-4.11588E-01 1.47109E-01 2.08858E-01 7.80321E-01
 -1       897 8.27429E-02 1.28243E-01-3.31198E-02 6.20632E-02 2.75462E-02 1.59939E-02
 -1       898 2.60791E-01 1.03288E-01-1.18866E-01-1.22872E-01 2.15509E-02-3.00580E-02
 -1       899 6.17802E-01 2.07560E-01 6.54060E-02-5.33469E-03-1.34303E-03-1.97655E-01
 -1       900 4.70995E-01 1.10366E-01-1.92296E-02 1.48749E-02-3.08247E-03-1.48779E-01
 -1       901 5.35044E-01 2.00080E-01 9.21935E-02 1.30349E-01-5.78119E-02-1.85474E-01
 -1       902 1.19931E-01 1.63394E-01 6.17309E-03 1.04808E-01-5.52671E-02-3.42794E-02
 -1       903 1.00378E-01 1.29731E-01-4.51795E-02-1.03136E-01 2.66973E-02-2.56327E-02
 -1       904-2.12873E-01-2.02722E-01-5.61795E-03-2.08169E-01 3.41388E-02 4.87427E-02
 -1       905-8.49928E-02-1.32685E-01-2.10230E-02-6.35555E-02 3.56584E-02 2.93570E-02
 -1       906-3.24831E-01-2.16579E-01-6.05760E-03-1.31604E-01-6.05985E-02-7.53401E-02
 -1       907-2.78766E-01-1.52498E-01-1.37319E-02-1.65658E-01-7.24187E-02-9.44783E-02
 -1       908-3.77461E-01-2.63053E-02 8.50974E-02-8.21673E-02-4.87784E-02-1.83007E-01
 -1       909-6.43527E-01-1.65048E-01-4.74152E-02-7.37142E-03-1.29749E-02-2.06463E-01
 -1       910-5.34568E-01-1.14084E-01 6.51977E-02-4.19519E-02 2.39970E-02-2.20699E-02
 -1       911-8.62590E-01-2.61315E-01-2.10751E-02 4.53275E-03 3.39406E-02 1.91575E-01
 -1       912-2.85954E-01-7.63693E-02-6.59692E-02 2.86452E-03-4.88383E-03 3.29837E-01
 -1       913-1.15477E-01-9.41216E-02 6.36230E-02 1.03315E-01-1.48508E-02 1.20009E-02
 -1       914-1.89951E-01-9.87644E-02-8.03593E-02-4.53663E-02 1.07412E-01 2.74693E-01
 -1       915-3.73740E-01-7.59225E-02 1.06829E-01-8.34761E-02-8.54700E-03-7.84300E-03
 -1       916-3.48393E-01-1.03857E-01 1.03671E-02-1.42094E-01 7.99270E-04-5.45000E-02
 -1       917-2.78022E-01-2.25889E-01-1.36033E-02-1.57482E-01-1.54097E-02-5.08241E-02
 -1       918-1.45807E-01-1.80253E-01-4.36553E-02 1.25400E-01 1.15379E-01-8.88831E-02
 -1       919 3.60146E-02 3.95394E-01 1.14742E-01 9.61054E-02-9.08021E-02-4.92882E-02
 -1       920-1.82735E-02 1.89918E-03-4.50866E-03 6.33607E-02 2.22522E-03 6.13504E-02
 -1       921-6.24871E-01-2.38825E-01-8.78895E-02 1.35433E-01 4.28387E-02-1.76666E-01
 -1       922-7.56578E-01-2.66667E-01-4.27812E-03 1.48157E-01-5.75682E-02 1.72917E-01
 -1       923-3.31403E-01-1.01050E-01-1.38356E-01 3.80097E-02-8.91776E-02 2.87264E-01
 -1       924-9.34876E-02-6.05112E-02 5.41636E-02 3.85754E-02 5.08424E-02-7.67862E-02
 -1       925-3.36893E-01-2.26436E-01-1.18315E-02 1.61745E-01 8.92164E-02-1.41091E-01
 -1       926-5.04807E-01-3.01212E-01-7.88450E-03 2.48187E-01-9.64019E-02 1.04439E-01
 -1       927-1.64125E-01-6.40499E-02-6.14450E-02 1.03048E-01-1.35630E-01 2.24852E-01
 -1       928-1.09057E-01-1.37586E-01-2.01866E-03 1.07702E-01 5.03429E-02-3.54996E-02
 -1       929-9.37515E-02-1.34017E-01 4.23771E-02 9.42292E-02 1.83716E-02-2.36597E-02
 -1       930 9.99439E-03-3.09828E-03 3.96338E-02 5.20731E-02 3.70099E-02 7.46110E-03
 -1       931-2.64240E-02 1.85368E-02-8.02641E-03-9.86016E-02 6.38717E-02-3.25816E-02
 -1       932-3.43877E-02-3.90955E-01-1.68763E-01-1.01023E-01-5.74011E-02-5.43115E-02
 -1       933 2.40032E-01 2.17077E-01-2.51371E-02 1.46933E-01 1.73034E-02 3.45326E-02
 -1       934 7.52674E-01 2.51879E-01 6.17008E-03-1.62339E-01-5.24250E-02 1.79120E-01
 -1       935 1.79643E-01 6.87816E-02 4.44955E-02-6.77294E-02-1.16287E-01 2.09305E-01
 -1       936 4.33582E-01 8.09299E-02-1.62962E-01 5.46729E-02 2.45052E-02-5.87351E-03
 -1       937 4.93102E-01 3.31146E-01 3.23409E-02 2.40950E-01 1.08569E-01 9.55801E-02
 -1       938 1.88062E-01 8.57237E-02 7.45758E-02 9.60990E-02 1.46246E-01 1.91722E-01
 -1       939 2.14172E-01 3.96903E-02 1.10509E-01 5.67398E-02 9.19669E-02 2.97886E-01
 -1       940-1.06156E-01-1.60649E-01-9.14189E-03-3.16397E-03-1.88993E-02-1.03751E-01
 -1       941-1.00102E-01-2.34420E-02-8.51796E-03 8.90931E-03 9.20014E-03 1.18791E-01
 -1       942-2.48181E-01-1.94086E-01-2.19829E-01 2.99968E-03-3.22441E-02 2.33822E-01
 -1       943-2.96994E-01-2.22324E-01-1.14323E-01-6.40554E-03-3.56850E-05 1.01665E-01
 -1       944-2.04984E-01-2.53634E-01-1.85711E-01-9.39418E-03 6.10488E-02-7.25070E-02
 -1       945 3.29657E-02-5.63276E-02-4.16813E-02 2.98552E-02 2.57482E-02-8.99994E-03
 -1       946-9.76888E-02-1.49094E-01-4.66547E-02 3.35498E-02 2.31776E-02-4.64850E-02
 -1       947-7.52929E-02-1.46747E-01-6.67882E-02-1.71546E-02-4.74687E-02-6.29212E-02
 -1       948-5.32490E-02-1.23157E-01-1.19040E-01-2.72008E-02-5.02891E-03-1.72282E-02
 -1       949-2.94687E-01-2.01203E-01-2.34527E-02-8.54159E-02 8.16825E-02 1.17302E-01
 -1       950-2.02231E-01-1.50761E-01-1.84904E-01-2.75670E-02 6.95392E-02 1.98846E-01
 -1       951-1.21280E-01-1.06981E-01-2.18424E-02-3.50108E-02 6.33433E-02 8.73890E-02
 -1       952-2.58218E-01-3.00978E-01-2.27739E-01-1.77115E-03 3.21776E-02-1.98459E-01
 -1       953-1.23035E-01-6.72427E-02 2.35398E-02 7.51785E-04-4.05756E-02-5.36914E-02
 -1       954-9.17091E-02-1.93812E-01-1.16305E-01 1.35033E-02 4.54473E-02-6.00176E-02
 -1       955 4.08555E-02-7.57376E-02 3.91923E-02 6.37411E-02 2.98543E-03-3.30814E-02
 -1       956-6.26260E-02-1.39150E-01-1.51874E-02-1.27123E-03-2.69026E-02-7.44759E-03
 -1       957 3.17484E-02-7.05142E-02 3.27858E-02 5.93091E-02 1.54736E-03-6.77883E-02
 -1       958-2.51764E-01-1.42276E-01-5.40232E-02-7.38294E-02 1.05882E-01 1.01316E-01
 -1       959-3.06994E-01-2.05776E-01-2.33806E-01-2.99458E-02 1.19070E-01 1.79755E-01
 -1       960-1.64354E-01-1.20558E-01-8.08916E-02-4.03516E-02 6.84395E-02 4.66724E-02
 -1       961-1.06087E-01-1.73896E-01-9.62288E-02 9.25251E-03 5.61891E-02-2.08615E-01
 -1       962-9.13479E-02-4.70100E-02-4.56748E-02-7.75114E-03 4.39936E-03-5.50821E-02
 -1       963-1.61535E-01-1.58474E-01-1.29355E-01-2.29492E-02 1.32420E-02-8.92904E-02
 -1       964-1.89349E-01-1.17100E-01-1.26435E-03 4.53670E-02 2.22467E-02-1.66764E-02
 -1       965-2.86093E-02-1.10670E-01-4.51475E-02 3.36986E-02 2.51997E-02-5.02527E-02
 -1       966-6.14224E-02-6.55535E-02-2.75948E-02 2.93972E-02-1.99821E-02-6.39069E-02
 -1       967-9.85818E-02-9.03057E-02-8.06254E-02-5.54029E-02 9.90113E-02 4.25962E-02
 -1       968-1.15952E-01-1.09633E-01-4.23246E-02-2.87334E-02-4.24165E-03-7.33737E-03
 -1       969-9.09563E-02-1.23890E-01-1.20616E-01 2.27431E-03-8.19968E-04-2.40183E-01
 -1       970-6.57465E-02-1.48981E-02 6.11009E-02-2.16231E-02-7.26132E-03-2.26162E-02
 -1       971-5.65653E-02-6.27535E-02-9.22514E-02-1.49298E-02-2.98654E-02-1.07776E-01
 -1       972-8.87659E-02 7.77483E-03 5.24972E-02 1.71515E-02 5.33152E-02-7.21112E-02
 -1       973-8.92078E-02-7.64344E-02-1.04258E-01 5.36185E-03 1.34092E-02 6.41396E-03
 -1       974 1.62072E-02 3.23547E-02 3.76619E-02 2.02483E-02 5.86748E-02-9.07528E-02
 -1       975-7.39597E-02-7.95652E-02-5.83082E-02-2.70080E-02 7.80101E-02-2.66977E-02
 -1       976-3.53030E-02-2.26579E-02-1.57926E-02-6.37127E-02-8.37885E-03-3.70456E-02
 -1       977 1.33008E-02 1.14099E-02-7.50618E-02 2.07162E-02-4.70778E-02-2.78468E-01
 -1       978-2.90820E-02-8.37235E-02 2.34030E-02 1.64407E-02-1.32366E-02-1.07266E-02
 -1       979-8.69717E-03-1.25678E-02-6.15981E-02 1.29633E-02-2.54770E-02-8.04075E-02
 -1       980 2.73391E-02 5.09219E-02 6.69707E-02 2.57992E-02 4.40997E-02-8.23037E-02
 -1       981 1.48028E-02 9.33853E-03-3.24046E-02 5.20198E-03 3.71174E-02-2.58913E-02
 -1       982 5.06628E-02 4.94190E-02 5.26021E-02 1.41534E-02 3.28295E-02-9.43141E-02
 -1       983 1.45508E-01 1.77571E-01 5.80485E-02-7.28081E-02-2.80342E-02 1.43018E-03
 -1       984 1.47973E-01 1.69538E-01 8.47611E-02-5.89804E-02-9.21108E-02 5.98439E-02
 -1       985 4.44937E-02 4.09310E-02 6.00859E-02-1.82891E-02-7.58293E-02-3.45690E-02
 -1       986 6.37910E-02 3.39562E-02-9.40263E-02 5.78186E-02-9.84629E-02-2.11268E-01
 -1       987 1.30915E-01 1.25172E-01 1.41205E-01 1.59155E-02-3.89969E-02 5.96749E-03
 -1       988 9.20030E-02 2.06091E-02-3.67927E-02-3.04926E-03-7.07702E-02-4.65007E-02
 -1       989 6.87239E-02 6.41768E-02 5.13149E-02-1.51524E-02 1.67801E-02-1.01297E-01
 -1       990 1.95860E-02-5.25230E-03-4.45613E-02-5.06102E-03 1.64714E-02-3.22648E-02
 -1       991 1.70317E-01 1.56090E-01 9.14583E-02-1.92346E-02 2.58281E-02-9.68821E-02
 -1       992 3.25488E-02 5.60001E-02 5.39832E-02-2.94284E-02-9.46139E-02 8.02249E-02
 -1       993 2.23064E-01 1.57137E-01 7.55186E-02-7.95159E-02-9.55174E-02 7.24675E-02
 -1       994 2.67576E-01 2.76614E-01 1.47686E-01 4.36850E-02-6.70633E-02-1.61010E-01
 -1       995 8.87629E-02 1.29930E-01 1.33063E-01 9.64673E-04 1.49914E-02-2.77783E-02
 -1       996 6.04423E-02 5.49772E-02-4.78375E-03 2.96655E-02-3.72244E-02-2.52160E-02
 -1       997 1.13126E-01 7.12899E-02 7.92094E-02 4.62189E-03-2.02237E-02-9.91532E-02
 -1       998 4.96064E-02 1.61868E-02-1.22321E-02 4.03892E-02-1.59646E-02-3.16424E-02
 -1       999 5.03824E-02 1.08810E-01 6.86917E-02 1.84934E-02 1.09984E-02-1.11457E-01
 -1      1000 2.97561E-01 1.47085E-01 1.06091E-01-2.70667E-02-9.23695E-02 1.97806E-01
 -1      1001 1.36689E-01 1.01581E-01 1.17578E-01-1.65557E-02-4.79017E-02 8.17523E-02
 -1      1002 3.86441E-01 4.03417E-01 2.16672E-01 2.10091E-03-2.76535E-02-1.36867E-01
 -1      1003 9.26828E-02 1.23669E-01 3.60972E-02-2.18795E-02-1.67240E-02-4.14203E-02
 -1      1004 1.60991E-01 2.26777E-01 5.59709E-02 4.15792E-02-1.13481E-02-4.90216E-02
 -1      1005 3.38593E-02 1.14937E-01 5.74561E-02 6.13960E-03-4.73669E-02-7.55921E-02
 -1      1006 1.46820E-01 9.16577E-02-4.45228E-03 2.50668E-02 2.05357E-02-2.23211E-02
 -1      1007 7.62455E-02 1.75807E-01 3.60199E-02 3.18618E-02 1.77835E-03-1.06096E-01
 -1      1008 1.96055E-01 1.54222E-01 2.12604E-01-3.85011E-02-3.26802E-02 2.14947E-01
 -1      1009 3.06868E-01 1.64992E-01 1.03824E-01-2.82401E-03-1.77535E-02 1.54961E-01
 -1      1010 3.02304E-01 4.03034E-01 1.86447E-01 1.41271E-03 4.55030E-03-1.28850E-01
 -1      1011 2.91830E-01 2.10888E-01 2.70762E-02-1.85684E-02-1.45033E-02-1.08758E-02
 -1      1012 3.88382E-02 1.19860E-01 1.27807E-01 3.29831E-02 3.61250E-02-2.96596E-02
 -1      1013 3.54033E-02 1.51435E-01 2.10109E-02-2.21980E-03-2.97098E-02-6.35343E-02
 -1      1014 3.54034E-02 1.10197E-01-9.88746E-03 4.43984E-02 3.64082E-03-5.48014E-03
 -1      1015 1.51504E-01 2.15329E-01 1.36774E-01-2.89465E-03-1.37671E-02-1.04991E-01
 -1      1016 3.48105E-01 2.75738E-01 3.14181E-01 1.50041E-02 8.21305E-02 2.22314E-01
 -1      1017 3.36293E-01 2.23083E-01 6.29265E-02 7.83791E-02 7.89981E-02 1.03475E-01
 -1      1018 1.65098E-01 2.48046E-01 1.87641E-01 1.47463E-02 8.69692E-02-1.37530E-01
 -1      1019 1.31476E-01 9.61607E-02-4.06228E-02-4.55600E-02-3.95556E-03-3.79487E-02
 -1      1020 3.88229E-02 1.15325E-01 1.56107E-02-5.01032E-02-4.62572E-04-6.52624E-02
 -1      1021 1.45375E-01 2.07112E-01 1.65141E-01-4.47133E-02 1.04828E-02 4.74655E-03
 -1      1022 8.26160E-02 1.08263E-01 1.39759E-02 5.81822E-03-1.67907E-02 6.06202E-03
 -1      1023 9.49536E-02 1.31428E-01 5.20238E-02-1.10716E-02-2.64895E-02-7.26625E-02
 -1      1024 1.61155E-01 1.36390E-01 1.39576E-01 4.87722E-02 9.54184E-02 4.09929E-02
 -1      1025 2.53774E-01 2.12394E-01 2.35468E-01 2.93406E-02 1.43368E-01 1.25852E-01
 -1      1026 1.56774E-01 1.35775E-01 1.16397E-01 2.41173E-02 6.51399E-02 4.49826E-02
 -1      1027 2.51763E-01 2.75582E-01 2.48253E-01-1.80569E-02 3.22274E-02-2.56305E-01
 -1      1028 1.09208E-01 3.94258E-02-1.40077E-02 1.27415E-02-1.58975E-02-1.50145E-04
 -1      1029 8.49575E-02 1.10869E-01 7.76998E-02-7.98831E-03 1.65580E-03-9.37092E-02
 -1      1030 4.85314E-03 5.30169E-02 2.28090E-02-5.43153E-02-1.27201E-02-5.90511E-02
 -1      1031 1.51748E-01 1.79573E-01 1.87022E-01-8.12460E-03 1.13583E-02 7.08949E-03
 -1      1032 2.69920E-02 6.32422E-02 3.01620E-02-4.51300E-02-7.01677E-03-8.85606E-02
 -1      1033 8.67547E-02 8.64459E-02 5.10260E-02 3.96166E-02 1.24850E-01 1.23598E-02
 -1      1034 1.03957E-01 1.12534E-01 6.58087E-04 6.32172E-02 2.03202E-02-2.18161E-02
 -1      1035 4.36876E-02 5.68112E-02 6.36333E-02-2.02728E-02 1.23878E-02-2.24079E-01
 -1      1036 7.44525E-02 4.32036E-02-1.90654E-02 2.18906E-03-2.66971E-02-4.08603E-02
 -1      1037 9.94276E-02 1.17962E-01 1.16645E-01 2.07057E-02-3.92203E-02-8.26822E-02
 -1      1038 1.06652E-01 2.92388E-02-4.31934E-02-1.24664E-02 3.94657E-02-5.77394E-02
 -1      1039 1.47972E-01 8.34806E-02 8.61425E-02-2.06823E-02 2.40083E-02 2.50747E-02
 -1      1040-3.03429E-02-6.00033E-02-2.59104E-02-3.10034E-02 2.91849E-02-8.55730E-02
 -1      1041-3.14179E-02-2.46193E-02-7.63915E-03 3.34314E-02 4.31390E-02-3.59972E-02
 -1      1042 4.94557E-02 1.83341E-02 3.48775E-02 3.03224E-02 1.91117E-02-2.36073E-02
 -1      1043-4.59961E-02-2.18065E-02-5.75909E-02 1.85399E-02-9.12417E-03-5.55094E-02
 -1      1044 3.19503E-02 5.01281E-02 1.01995E-01-3.25546E-02-4.61106E-02-2.13740E-01
 -1      1045-5.91669E-03-1.31205E-02-7.12235E-02-3.02316E-02-1.05654E-02-1.44576E-02
 -1      1046 1.36478E-02 1.61574E-02 2.39395E-02-2.07256E-02 1.10241E-02-8.43018E-02
 -1      1047-5.88099E-02-7.07690E-02-9.21275E-02 2.30035E-03 9.75173E-03-7.24712E-02
 -1      1048 7.69748E-03 2.06682E-03 8.25847E-02-2.34166E-02 1.74722E-02-3.51869E-02
 -1      1049 2.62880E-03-1.43170E-02-1.90622E-02-4.12477E-02 1.84145E-02-1.27730E-01
 -1      1050-9.56035E-02-7.69153E-02-7.24971E-02 4.73245E-02-5.64248E-02 4.51292E-02
 -1      1051-1.52004E-01-1.21463E-01-6.36854E-02 5.98018E-02-5.13358E-02-7.73354E-03
 -1      1052 2.83779E-02-5.13541E-02-1.69701E-03-5.69309E-02-9.08779E-02-2.06719E-01
 -1      1053-1.16019E-02-3.34308E-02-5.97321E-02-5.97994E-02 3.43852E-03 5.14370E-03
 -1      1054-1.25074E-01-8.50909E-02-2.22721E-02 1.97629E-02-1.21388E-02-7.19747E-02
 -1      1055-4.47677E-02-6.05815E-02-9.77843E-02 4.26636E-03 4.50913E-02-1.11937E-01
 -1      1056-3.19122E-02-2.19120E-02 2.10180E-02-7.10995E-03 1.17292E-02-3.90499E-02
 -1      1057-7.80128E-02-8.65410E-02 1.70430E-02 5.32722E-02-5.47429E-02 3.40057E-02
 -1      1058-1.10932E-01-1.14383E-01-1.31837E-01 6.67379E-02-1.43693E-01 1.14468E-01
 -1      1059-2.00983E-01-1.89848E-01-1.20804E-01 4.66117E-02-7.45627E-02 3.46632E-02
 -1      1060-1.40033E-01-2.15946E-01-2.28143E-02-1.98085E-02-9.46309E-02-1.01924E-01
 -1      1061-1.05462E-01-1.33848E-01-1.19961E-01-9.56474E-03-1.74753E-02-1.39446E-02
 -1      1062-1.89728E-01-8.42652E-02 1.03880E-03-4.81579E-02-4.43434E-02-6.75597E-03
 -1      1063-4.64965E-02-8.49518E-02-7.32404E-02-2.51778E-02-1.34556E-02-8.13452E-02
 -1      1064-5.05424E-02-4.11253E-02 3.61430E-03-3.29341E-02-2.04023E-02-2.67939E-02
 -1      1065-2.01330E-01-1.58937E-01-8.11157E-02 1.90458E-02-5.25484E-02 6.51216E-02
 -1      1066-3.70323E-01-2.17045E-01-7.33411E-02 3.06156E-03-1.09055E-01 2.14694E-01
 -1      1067-1.02806E-01-7.45686E-02-1.96284E-02-1.66586E-02-5.74840E-02 4.71406E-02
 -1      1068-2.37504E-01-2.76662E-01-1.37508E-01-3.38129E-02-1.25467E-02-9.55657E-02
 -1      1069 8.84849E-03-8.38899E-02 5.32711E-03-6.84372E-03-6.19474E-03-2.49212E-02
 -1      1070 1.92090E-02-1.07142E-01-3.84320E-03-5.70161E-02-2.59674E-02-2.84951E-02
 -1      1071-6.98158E-02-1.55323E-01-9.93447E-02-2.25171E-02-5.26629E-02-4.39546E-02
 -1      1072-2.01008E-01-1.72846E-01-9.16428E-02-3.01554E-02 2.16736E-02-5.22188E-02
 -1      1073 8.62011E-01 8.94500E-01 7.39491E-01 1.38252E-01 4.99358E-01 4.09803E-01
 -1      1074 1.21984E-01 1.33002E-01 1.18429E-01 1.60957E-02 4.10041E-01 3.18022E-01
 -1      1075-2.74736E-01-4.18525E-01-2.20592E-01-4.88952E-02 4.11434E-01 3.21342E-01
 -1      1076 1.19901E-01 1.09948E-01 1.69567E-01-1.59615E-02 2.63153E-01 5.91087E-02
 -1      1077 3.50272E-01 1.12601E-01 2.39163E-01-6.18543E-03 4.45762E-01 5.16542E-01
 -1      1078 4.43312E-02 4.28224E-02 1.19269E-01 1.70943E-02-1.41469E-01 1.39272E-02
 -1      1079 2.07486E-01 7.22645E-02 2.36215E-03 6.77528E-03 3.84170E-01 6.19056E-01
 -1      1080-4.39082E-02-2.16355E-02-1.23717E-01 3.04504E-02 2.16127E-01 1.54758E-01
 -1      1081 2.96220E-01 4.15755E-01 2.71903E-01 4.59693E-02 3.12690E-01 1.96374E-01
 -1      1082-5.75813E-01-7.83807E-01-5.72400E-01-4.54757E-02 3.72142E-01 1.75916E-01
 -1      1083-1.54723E-01-1.89204E-01-2.24664E-01-9.68743E-03-3.24843E-01 4.20092E-01
 -1      1084 3.90240E-01 3.86586E-01 3.55473E-01-5.36206E-02-3.63846E-01 4.56506E-01
 -1      1085-5.73722E-01-7.46959E-01-5.56007E-01 8.13453E-02-4.54043E-01 2.23786E-01
 -1      1086 2.14716E-01 2.07108E-01 2.40504E-01-2.60048E-04-2.62830E-01 1.69164E-01
 -1      1087-1.73358E-01-1.84097E-01-2.51683E-01-2.47489E-03-3.53019E-01 1.80284E-01
 -1      1088 2.37704E-02 3.04320E-02 2.28192E-02-5.20402E-03-4.07437E-02 4.01262E-03
 -1      1089-3.64224E-02-1.12442E-03-2.44939E-02 5.83456E-03-1.08385E-01-1.82663E-02
 -1      1090 1.96798E-01 2.05099E-01 2.73558E-01 2.13247E-02-3.59502E-01 2.77107E-01
 -1      1091-2.51314E-01-4.01775E-01-2.89817E-01 2.10419E-03-4.52774E-01 2.79852E-01
 -1      1092 1.19465E+00 1.22980E+00 1.02069E+00-1.91789E-01-5.12744E-01 4.20789E-01
 -1      1093 7.32194E-01 4.70155E-01 3.83600E-01 4.19285E-02 1.01596E-01 7.65561E-01
 -1      1094-9.37585E-01-6.84284E-01-6.45344E-01-1.12483E-01 9.26941E-02 7.86207E-01
 -1      1095-8.92589E-02-4.89562E-02-4.28700E-02 2.91609E-02-2.58094E-02-1.36412E-02
 -1      1096 1.18112E+00 9.32426E-01 8.89804E-01-1.14437E-01-2.75667E-01 9.08739E-01
 -1      1097 1.84659E-02 8.18283E-02-1.21198E-02-3.58873E-02-2.29919E-01 1.63951E-02
 -1      1098 2.55065E-01 4.08498E-01 2.79360E-01 9.25167E-03-2.16777E-01 3.39703E-02
 -1      1099-9.43360E-02-1.66743E-01-6.08046E-02-5.39407E-03-2.65180E-01 5.40510E-02
 -1      1100-8.03781E-02-1.33565E-01-9.67664E-02 1.72861E-04-2.97168E-01 1.63442E-01
 -1      1101 6.31955E-02 3.43591E-02 7.79276E-02 1.20727E-02-3.42182E-01 1.51807E-01
 -1      1102-1.26303E-01-1.19592E-01-1.33665E-01 3.79848E-02 3.20021E-02-5.42456E-03
 -1      1103 4.56900E-02-8.73811E-03-1.62966E-02 8.25607E-03 1.13880E-01 1.54004E-03
 -1      1104-9.48770E-02-6.92917E-02-9.84322E-02 1.58530E-02 4.37719E-02-9.80406E-03
 -1      1105 3.90072E-02 6.79896E-02 1.45034E-01-3.98470E-02 4.57792E-01 3.09472E-01
 -1      1106-1.17113E-01-1.71361E-01-3.26378E-01 1.14900E-02 4.44337E-02 7.07893E-01
 -1      1107-4.85698E-01-2.35964E-01-2.55673E-01 2.23187E-02 1.90432E-01 6.33289E-01
 -1      1108-5.61464E-01-3.02459E-01-2.91145E-01 1.06888E-01 2.22881E-01 7.87162E-01
 -1      1109-4.61502E-01-3.15372E-01-1.88930E-01 4.72373E-02-3.00227E-01 6.52959E-01
 -1      1110 1.04358E-01 1.35894E-01 2.09965E-01 2.93028E-02-3.04818E-01 5.09857E-01
 -1      1111-9.96019E-01-9.70208E-01-8.27782E-01 1.55808E-01-4.67089E-01 5.69163E-01
 -1      1112-8.47392E-01-8.88278E-01-7.30717E-01 1.35738E-01-5.19876E-01 4.26641E-01
 -1      1113-2.31403E-01-2.51861E-01-1.49396E-01 6.24598E-02-3.86859E-01 2.69833E-01
 -1      1114-7.74575E-02-1.16106E-01-4.11403E-02-3.09518E-02 1.43424E-01 3.08225E-02
 -1      1115-1.76758E-01-2.54027E-01-1.38162E-01 3.56830E-03 2.23620E-01 4.09326E-02
 -1      1116 6.01798E-01 7.42455E-01 5.65930E-01 8.07295E-02 3.72641E-01 1.99188E-01
 -1      1117-1.04479E-01-6.74394E-02-2.09882E-01 1.02881E-02 2.68658E-01 1.37077E-01
 -1      1118 1.37194E+00 1.32359E+00 1.13482E+00 2.12310E-01 4.81341E-01 5.86529E-01
 -1      1119-4.27039E-02 8.57584E-03-4.16730E-02 7.14489E-03 4.14265E-01 4.27565E-01
 -1      1120 6.78348E-01 4.10684E-01 4.27619E-01-4.53255E-02 2.23715E-01 7.47603E-01
 -1      1121 1.53237E+00 1.21884E+00 1.15826E+00-1.57303E-01-3.06861E-01 8.96185E-01
 -1      1122-1.21498E+00-1.07433E+00-9.63796E-01-1.87112E-01 5.24923E-01 5.99962E-01
 -1      1123 2.78259E-01 2.43073E-01 2.65441E-01 1.32160E-01 1.86629E-01 7.56596E-01
 -1      1124 3.95608E-02 1.11374E-01-5.93060E-03 1.86823E-02 2.40271E-01 5.05716E-02
 -1      1125 4.37992E-01 3.78409E-01 3.80974E-01-7.61037E-02-3.61942E-01 7.31909E-01
 -1      1126 8.16360E-01 5.54504E-01 6.55460E-01-7.08795E-02-3.95611E-01 4.54089E-01
 -1      1127-4.42771E-02-1.56782E-02-2.31353E-02 4.29529E-03-3.72121E-01 3.09322E-01
 -1      1128 1.69610E-01 1.61056E-01 1.49734E-01 1.70154E-02 2.75255E-01 1.75034E-01
 -1      1129-1.80989E+00-1.36152E+00-1.33516E+00 1.15451E-01-3.04966E-01 1.00532E+00
 -1      1130-8.60274E-01-7.86795E-01-6.14902E-01-1.70634E-01 2.48101E-01 7.83034E-01
 -1      1131 3.64271E-01 4.72792E-02-1.40531E-01-5.53334E-02 8.72261E-03-3.24673E-02
 -1      1132 3.24193E-01 1.33747E-01-6.11330E-02-1.42759E-01-6.66569E-03-3.76214E-02
 -1      1133 4.49021E-01 1.03591E-01-6.72774E-02-1.09154E-01 1.97315E-02-1.95724E-02
 -1      1134 4.89459E-01 1.73322E-01-4.69996E-02-1.47589E-01-6.91659E-03 9.26147E-03
 -1      1135 1.16739E-01 1.05186E-01-6.39333E-02 9.35455E-02 1.12307E-02 7.84171E-03
 -1      1136 1.04645E-01 7.57935E-02-5.66166E-02-8.00264E-02-1.93220E-02 1.24602E-02
 -1      1137 5.27095E-02 5.60908E-02-5.73112E-02-5.14000E-02-2.90758E-02 1.62917E-02
 -1      1138 1.33295E-01 1.15630E-01-6.29939E-02-1.32547E-01 2.11578E-02-3.87952E-02
 -1      1139 2.62297E-01 1.54398E-01-2.80486E-02-1.33004E-01 1.33028E-02 9.07341E-04
 -1      1140 2.44099E-01 2.41001E-01-2.58387E-02-1.59239E-01 2.43773E-03 9.00039E-03
 -1      1141 4.42222E-01 9.73062E-02-6.06984E-02 4.12374E-02-3.38296E-03-1.63159E-01
 -1      1142 7.03118E-01 1.75167E-01 7.50790E-02-1.26866E-02-5.40488E-03-1.88682E-01
 -1      1143 5.20335E-01 7.43201E-02 6.47916E-03 1.36817E-01-2.89405E-02-2.08415E-01
 -1      1144 6.38497E-01 2.12316E-01 9.47727E-02 1.54871E-01-6.64863E-02-1.79251E-01
 -1      1145 1.89894E-01 2.25579E-02-7.41915E-02 4.19742E-02-4.98534E-02-9.24499E-02
 -1      1146 1.27719E-01 1.66034E-01-4.18874E-02 1.12129E-01-1.56818E-02-2.02767E-02
 -1      1147 2.84944E-01 9.05266E-02-2.91143E-02-8.40633E-02 6.10361E-02-1.22907E-01
 -1      1148 6.01541E-01 2.16247E-01 3.97561E-02-1.59897E-01 7.61932E-02-1.25039E-01
 -1      1149 5.35683E-01 1.43994E-01 3.45305E-02-1.13574E-01 5.03839E-02-1.92330E-01
 -1      1150 4.77799E-01 2.09418E-01-4.42853E-03-1.11771E-01 7.96004E-02-1.36017E-01
 -1      1151 1.14277E-01 1.33565E-01-9.89130E-05-9.47839E-02 4.14268E-02-2.57106E-02
 -1      1152-1.11377E-01-1.51417E-01 2.35852E-02-1.08761E-01-4.04123E-02-3.26516E-02
 -1      1153-1.15584E-01-1.31032E-01 6.37684E-02-1.21821E-01-2.02434E-02-1.57291E-02
 -1      1154-9.61065E-02-9.77216E-02-9.57260E-02-9.94769E-02 1.43660E-01 9.45342E-02
 -1      1155-1.81419E-01-1.90922E-01-2.68254E-03-2.35595E-01 1.25813E-01 4.32171E-02
 -1      1156-7.29930E-02-2.98422E-02-3.68353E-02-7.06263E-02 8.77174E-02 1.10955E-01
 -1      1157-1.44520E-01-3.79011E-01-1.35644E-01-2.40810E-01-9.28031E-02-1.24826E-01
 -1      1158-1.88848E-01-1.67953E-01 1.76638E-02-1.43878E-01-4.21292E-02-3.09496E-02
 -1      1159-1.32901E-02 2.71112E-01 1.31216E-01 3.03567E-02 3.01508E-02-1.67507E-02
 -1      1160-1.50621E-01-1.58214E-01 2.06136E-03-1.16355E-01-8.21635E-02-8.73989E-02
 -1      1161-8.77776E-02-6.64606E-02 6.69855E-02-7.36140E-02 3.14334E-02 4.97593E-03
 -1      1162-1.43907E-01 4.30248E-04 7.74044E-02-4.44586E-02-3.24960E-02-8.08813E-02
 -1      1163-3.98836E-01-2.66863E-01-5.91075E-02-1.85796E-01-9.13215E-02-8.56154E-02
 -1      1164-5.02622E-01-1.77501E-01-6.30688E-02-1.34448E-01-5.83330E-02-1.94323E-01
 -1      1165-3.90014E-01-8.74235E-02 5.71350E-02-8.48423E-02-2.48023E-02-1.39076E-01
 -1      1166-6.68560E-01-2.33258E-01-9.54581E-02-1.64747E-01-6.82931E-02-1.95550E-01
 -1      1167-3.45846E-01 2.35446E-02 8.95380E-02-7.58166E-03 2.63789E-02-1.44770E-01
 -1      1168-6.69479E-01-1.63901E-01-5.47929E-02 8.57842E-03-3.89904E-03-2.08132E-01
 -1      1169-4.33476E-01-6.29922E-02 2.62860E-02-3.52536E-02-1.31269E-02-1.79652E-01
 -1      1170-5.06936E-01-1.06206E-01 1.56322E-01 3.18622E-02 2.68321E-02-2.28645E-02
 -1      1171-4.89236E-01-5.85271E-02 8.48670E-02-3.56980E-02-8.61199E-03 1.42495E-03
 -1      1172-4.89286E-01-7.33470E-02 1.52299E-02 7.05866E-03-1.68694E-02-4.88442E-02
 -1      1173-2.34432E-01-2.47139E-02-8.98604E-02 1.13909E-03 1.32289E-02 2.99133E-01
 -1      1174-8.47907E-01-1.18955E-01 1.85334E-02 2.25899E-02 8.12879E-03 1.94390E-01
 -1      1175-8.12032E-02-1.17604E-01 2.87289E-02 6.02057E-02-3.82827E-02 9.77026E-03
 -1      1176-1.14484E-01-5.34057E-02-1.13631E-01-4.77315E-02 1.29187E-01 1.87585E-01
 -1      1177-4.20303E-01-1.83557E-01 3.54420E-02-2.65813E-01 1.46123E-01 1.76488E-01
 -1      1178-5.40287E-01-2.86629E-01-2.11101E-02-2.36053E-01 1.16614E-01 1.23539E-01
 -1      1179-2.00051E-01-8.23201E-02-7.75990E-02-6.21298E-02 1.37025E-01 1.86639E-01
 -1      1180-6.71912E-01-1.33715E-01 6.63370E-02-2.02399E-01 6.58302E-02 1.86248E-01
 -1      1181-7.98954E-01-3.23516E-01-1.38665E-02-2.03380E-01 8.57143E-02 1.98472E-01
 -1      1182-2.88235E-01-1.06740E-01-5.16657E-02-8.39863E-02 1.10752E-01 2.84757E-01
 -1      1183-4.76046E-01-1.85798E-01 9.96257E-02-1.64492E-01-2.27748E-02-2.52602E-03
 -1      1184-4.66010E-01-9.26020E-02 1.06994E-01-1.00905E-01-1.01917E-02-4.38626E-03
 -1      1185-2.99581E-01-1.77373E-01 6.46242E-02-1.65561E-01 3.05111E-03-2.65365E-02
 -1      1186-2.21704E-01-2.14606E-01 5.81110E-02-1.33378E-01 1.45431E-02 1.84806E-02
 -1      1187-2.53767E-01-1.24580E-01 7.76887E-02-1.25147E-01-3.61284E-04-8.52205E-03
 -1      1188-1.86766E-01-1.89575E-01-1.42171E-02 2.21943E-01-1.14399E-01 3.60915E-02
 -1      1189-7.99301E-02-4.26396E-02-4.82772E-03 1.13464E-01-1.22497E-01 1.13346E-01
 -1      1190-6.72856E-02-5.42732E-02-3.66835E-02 7.48093E-02-6.40086E-02 1.14143E-01
 -1      1191-1.98109E-01-1.91389E-01-8.83157E-03 2.06215E-01-3.59689E-02 4.13157E-02
 -1      1192-1.04280E-01 3.26872E-02 1.39017E-01 3.54117E-02-2.08797E-02-6.18300E-02
 -1      1193-1.49583E-01-1.51312E-01-1.97432E-02 1.52807E-01 5.30501E-02-4.88725E-02
 -1      1194-1.86293E-01-2.58129E-01-2.78805E-02 1.17112E-01 5.66241E-02-9.81905E-02
 -1      1195 9.59150E-03 1.10658E-02-1.30529E-02 8.68170E-02-4.42082E-03-2.28887E-02
 -1      1196-4.51840E-03 1.58515E-02 1.38651E-02 1.45972E-01-1.77023E-02-4.94828E-03
 -1      1197 3.90678E-03-3.24844E-02-5.77068E-02 8.17154E-02 5.63029E-02-3.34226E-02
 -1      1198-6.95649E-02-4.16256E-01-1.35260E-01 6.08403E-02 6.19171E-02-6.97489E-02
 -1      1199 1.58635E-02 2.08620E-02-4.82542E-02 3.53692E-02-1.25363E-03 5.67111E-02
 -1      1200-2.24904E-02-4.55488E-02-6.26835E-03 1.16065E-01 4.82936E-02 3.56896E-02
 -1      1201-1.35017E-01-8.49053E-02 1.10063E-01 4.05869E-03 3.17710E-02-9.73641E-02
 -1      1202-5.26860E-01-1.22377E-01-5.70370E-02 1.85398E-01 1.54509E-02-1.40301E-01
 -1      1203-4.55607E-01-1.03932E-01-6.77283E-02 1.53991E-01 4.75384E-02-2.13202E-01
 -1      1204-5.00095E-01-1.48784E-01 6.53449E-02 1.03842E-01 1.03760E-02 7.54791E-03
 -1      1205-4.38512E-01-1.64525E-01 1.01107E-01 1.48652E-01-3.61165E-03 7.00417E-03
 -1      1206-4.06049E-01-6.08604E-02 5.73181E-02 5.98039E-02-5.01212E-03-1.72666E-02
 -1      1207-4.12740E-01-1.21689E-01 1.43679E-02 1.16804E-01 1.40549E-02-6.57362E-02
 -1      1208-1.69576E-01 4.06335E-02-1.48617E-01 7.76109E-02-8.01285E-02 2.46663E-01
 -1      1209-8.03345E-01-2.33333E-01-2.91556E-04 1.82601E-01-8.13597E-02 1.74280E-01
 -1      1210-4.41965E-01-2.64304E-01-4.03822E-02 1.75599E-01 8.03376E-02-8.86185E-02
 -1      1211-3.35537E-01-2.26209E-01-3.71369E-02 1.68158E-01 8.30707E-02-1.10693E-01
 -1      1212-3.06303E-01-1.60675E-01 5.51322E-02 1.41150E-01-1.22889E-03 2.31716E-02
 -1      1213-2.70423E-01-2.25731E-01 6.10847E-02 1.55497E-01 8.60232E-03 8.52912E-03
 -1      1214-2.51507E-01-1.23866E-01 9.07459E-02 1.33855E-01 6.65495E-03-2.50960E-02
 -1      1215-2.01586E-01-1.43903E-01 2.92651E-02 1.46845E-01 3.73211E-02-5.25891E-02
 -1      1216-1.64415E-01-8.24419E-02-1.63158E-01 9.69302E-02-1.36990E-01 2.19956E-01
 -1      1217-4.31210E-01-2.98332E-01 6.77966E-03 2.85549E-01-3.94293E-02 7.96682E-02
 -1      1218-9.58110E-03-3.72616E-03-4.05933E-02 4.48676E-02 3.33502E-02 2.68185E-04
 -1      1219 1.68129E-01 1.38491E-01-1.20217E-02 1.38412E-01-3.86581E-02-3.68787E-02
 -1      1220 1.54709E-01 2.13474E-01 2.04435E-02 1.37764E-01-6.50497E-02-5.58591E-02
 -1      1221 1.46976E-01 1.60818E-01 1.72949E-02 1.02440E-01-8.65661E-02-1.06602E-01
 -1      1222 9.40890E-02-5.04025E-02-8.62169E-02 4.09259E-02 1.44347E-02-4.05815E-02
 -1      1223 1.11796E-01 1.57749E-01 1.20457E-01 1.24920E-01 1.73013E-01 1.00323E-01
 -1      1224 1.27945E-01 2.22885E-01-2.53200E-02 2.10158E-01 5.87874E-03 3.94401E-02
 -1      1225 4.68891E-02 3.17373E-02 1.29677E-02 9.03096E-02 9.14412E-02 1.35165E-01
 -1      1226 2.37324E-01 2.47874E-01 1.94448E-02 2.01989E-01 7.06181E-02 3.48752E-02
 -1      1227-9.59418E-03-1.11656E-02-2.86490E-02-7.49660E-02-4.37617E-02-3.26590E-03
 -1      1228 2.39533E-02-6.44827E-03 2.90921E-02-5.59616E-02-3.57907E-02 2.76227E-03
 -1      1229-1.17102E-02-8.39784E-02-1.12102E-01-7.43558E-02 8.59012E-02 5.66144E-02
 -1      1230-5.80734E-02-9.68732E-03 1.82681E-02-1.55606E-01 3.78666E-02-1.97796E-04
 -1      1231 1.10954E-01 4.10432E-01 3.96059E-02-9.25393E-02 1.27238E-02-1.12443E-01
 -1      1232 5.48954E-03-1.85671E-02-1.14915E-02-1.30793E-01-1.91781E-02-2.19870E-02
 -1      1233-2.07648E-02-1.28565E-02 5.96467E-02-1.33343E-01-2.74655E-02-2.19332E-03
 -1      1234 6.68285E-03-1.89065E-02-1.59221E-02-8.10510E-02 3.01762E-02 8.14942E-02
 -1      1235-4.55442E-03-2.51984E-02-3.07175E-02-4.56100E-02 2.21609E-02-6.92240E-04
 -1      1236 1.76207E-01 1.73383E-01 5.47908E-02-1.23588E-01 5.98147E-02-8.23411E-02
 -1      1237 1.26375E-01 2.21407E-01 7.22981E-02-1.32007E-01 8.39012E-02-8.61226E-02
 -1      1238-1.07101E-03-2.05034E-01-8.93327E-02-8.33441E-03-3.92451E-04-3.11495E-02
 -1      1239 1.47815E-01 1.22585E-01 5.76684E-03-1.27076E-01 4.01172E-02-4.18824E-02
 -1      1240 1.54043E-02 2.49754E-02 2.03114E-02-8.00745E-02-7.27685E-02 1.10994E-01
 -1      1241 1.19819E-01 2.02984E-01 3.10667E-03-1.90299E-01 1.24744E-03 3.82078E-02
 -1      1242 2.04021E-01 1.95491E-01 1.95961E-02-1.84719E-01-7.72354E-02 3.21723E-02
 -1      1243 8.80674E-02 1.08478E-01 3.13740E-02-1.00365E-01-1.22323E-01 1.01336E-01
 -1      1244-1.29215E-02 2.49971E-02 3.29668E-02-6.43237E-02 4.04039E-02-3.14636E-04
 -1      1245 2.26451E-01 1.21467E-01-9.19285E-02 1.39083E-01-2.95185E-03-1.19963E-02
 -1      1246 1.86048E-02 3.92409E-02 3.16621E-02 4.28438E-02-1.61247E-02-2.41619E-03
 -1      1247-3.46771E-02-2.68156E-02-2.97555E-02 5.43597E-02-1.76405E-02 3.30010E-03
 -1      1248 2.24536E-01 1.43758E-01-1.55105E-02-1.07627E-01 6.39918E-02-1.10405E-01
 -1      1249 3.71447E-01 2.47489E-01 3.60217E-02 2.15294E-01-5.06483E-02-7.20870E-02
 -1      1250 3.38432E-01 2.20505E-01 3.22816E-02 2.21381E-01-8.28042E-02-1.23475E-01
 -1      1251 4.46059E-01 2.82600E-01 7.81223E-02 1.76597E-01-8.79578E-02-1.04172E-01
 -1      1252 1.32792E-01 5.51317E-02-8.47174E-02 6.01535E-02-5.06777E-02-5.92920E-02
 -1      1253 3.22841E-01 2.06785E-01 1.38382E-02-2.31136E-01 1.14148E-01-1.04643E-01
 -1      1254 3.64718E-01 1.78048E-01 4.51516E-02-1.85644E-01 8.77585E-02-1.81919E-01
 -1      1255 3.33713E-01 2.20720E-01 2.10038E-02-1.65369E-01 9.08346E-02-9.16186E-02
 -1      1256 2.89102E-01 2.37473E-01-4.85133E-02 1.60229E-01-1.05216E-02-5.31652E-02
 -1      1257 3.17181E-01 1.79706E-01-1.06507E-01 1.64393E-01-2.49270E-02-2.47517E-02
 -1      1258 3.63161E-01 1.37748E-01-8.12758E-02 1.31546E-01-8.89961E-03-3.94844E-02
 -1      1259 4.34578E-01 9.74913E-02-1.46788E-01 7.48403E-02-1.45628E-04-2.39436E-02
 -1      1260 2.85471E-01 8.79095E-02 6.58263E-02-5.95468E-02-1.10799E-01 2.99877E-01
 -1      1261 4.73083E-01 1.81197E-01-4.19575E-02 1.58182E-01-1.47123E-02 7.26985E-03
 -1      1262 4.35052E-01 1.07452E-01-5.70225E-02 1.07800E-01-2.43384E-02-1.08399E-02
 -1      1263 2.49572E-01 3.61486E-02 1.37554E-01-1.76526E-02-3.60223E-02 3.19966E-01
 -1      1264 8.09073E-01 2.20202E-01 1.29239E-02-3.08072E-02 2.01015E-02 2.31982E-01
 -1      1265 9.01924E-01 2.20687E-01 5.85799E-02-3.24137E-02 6.61623E-03 2.38223E-01
 -1      1266 2.99088E-01 9.74861E-02 9.02982E-02-2.08376E-02-2.47581E-02 3.51183E-01
 -1      1267 8.25160E-01 2.24114E-01-1.20107E-03-1.91466E-01-7.41523E-02 1.64960E-01
 -1      1268 2.16889E-01 8.46344E-02 1.11971E-01-3.30149E-02-9.36486E-02 3.01911E-01
 -1      1269 5.11388E-01 2.66981E-01 1.96250E-02-2.65384E-01-6.23777E-02 8.66323E-02
 -1      1270 5.07707E-01 2.61591E-01 3.36894E-02-2.65991E-01-1.26239E-01 1.20998E-01
 -1      1271 1.57332E-01 8.44061E-02 1.52570E-01-7.82718E-02-1.41353E-01 1.83318E-01
 -1      1272 4.24138E-01 4.54301E-02-1.36180E-01-4.98139E-02-1.18402E-03-4.17143E-02
 -1      1273 5.44958E-01 1.04356E-01-4.11339E-02 2.56778E-02 2.20176E-02-3.98730E-02
 -1      1274 5.60893E-01 9.56042E-02-7.42898E-02-4.46252E-02 1.16976E-02-1.23506E-03
 -1      1275 1.10423E-01 3.89406E-02 8.97368E-02 9.32886E-02 9.79278E-02 1.65393E-01
 -1      1276 3.62479E-01 2.04333E-01-3.18814E-02 2.31358E-01 1.05478E-01 1.23272E-01
 -1      1277 8.05112E-01 2.60710E-01 5.08962E-02 2.22053E-01 9.79008E-02 1.98968E-01
 -1      1278 2.79470E-01 8.21767E-02 7.56901E-02 4.52621E-02 1.12902E-01 2.79257E-01
 -1      1279 7.29331E-01 2.58776E-01 4.72057E-02 1.87954E-01 8.71053E-02 1.73832E-01
 -1      1280-1.86029E-01-2.78243E-01-1.53190E-01-1.73688E-02-3.62535E-02-9.98178E-02
 -1      1281-1.66699E-01-1.33147E-01-1.51798E-01-3.74516E-03-2.63040E-02 2.05749E-01
 -1      1282-2.00191E-01-1.54290E-01-1.50521E-02 3.61178E-02 1.27064E-02-1.33112E-01
 -1      1283-8.41127E-02-1.40832E-01-4.13816E-02-3.28201E-03 3.74826E-03-9.97353E-02
 -1      1284-1.58096E-01-2.38021E-01-1.93640E-01 1.54974E-03 5.93708E-03-9.75054E-02
 -1      1285-3.04965E-01-2.37919E-01-1.78369E-01-4.68471E-02 9.55000E-02 1.73614E-01
 -1      1286-1.70645E-01-1.76383E-01-6.80575E-02-2.55690E-05-1.37310E-02-1.43300E-01
 -1      1287-1.97946E-01-2.65997E-01-5.33068E-02 2.26873E-02 5.79923E-02-1.70123E-01
 -1      1288-4.59708E-01-2.40666E-01-8.78282E-02-6.00030E-02 1.24376E-01 1.30571E-01
 -1      1289 8.72846E-03-5.44095E-02-1.71493E-02 2.49321E-02-3.14894E-02-9.91649E-02
 -1      1290-1.18401E-01-1.28268E-01 4.10526E-02 4.49262E-02 1.10247E-01-2.21119E-01
 -1      1291-9.41300E-02-1.02683E-01-5.27686E-02-4.59706E-02 7.11076E-02-4.00267E-02
 -1      1292-1.71175E-01-1.46286E-01-1.09200E-01-5.41398E-02 5.89461E-02 4.26900E-02
 -1      1293 1.80862E-03-4.00488E-02-7.29039E-02 3.77259E-02-2.79943E-02-9.24158E-02
 -1      1294 7.29545E-02 7.77108E-02 1.00098E-01 4.59056E-02 7.03784E-02-2.55385E-01
 -1      1295-5.31263E-02-6.35287E-02-8.15586E-02-1.38739E-02 3.12653E-02-4.88608E-02
 -1      1296 5.78610E-02 5.88906E-02 3.41920E-02-3.96314E-02 3.53305E-03-1.76696E-02
 -1      1297 3.44543E-02 1.94602E-02-7.36628E-03 1.19499E-02 5.84451E-03-8.32624E-02
 -1      1298 5.88576E-02 1.51623E-01 1.31640E-01 6.84528E-02-5.20514E-03-2.37474E-01
 -1      1299 9.59559E-02 1.27379E-01 6.77488E-02-1.68541E-02-1.12333E-01 2.52179E-02
 -1      1300 3.28377E-02 4.54323E-02 5.51659E-02 4.41096E-02-2.36794E-02-7.39306E-02
 -1      1301 1.18559E-01 1.93648E-01 1.51517E-01 2.99662E-03-5.94396E-02-2.72655E-01
 -1      1302 2.36541E-01 1.55419E-01 7.97167E-02-3.39183E-02-5.72688E-02-5.84482E-03
 -1      1303 2.19522E-01 1.69637E-01 2.29734E-01-2.12156E-02-1.41771E-01 1.55967E-01
 -1      1304 9.85802E-02 1.40676E-01 1.48511E-02 1.00721E-02 1.80275E-02-9.02288E-02
 -1      1305 3.34176E-01 3.36904E-01 2.50903E-01-2.84697E-03-1.11941E-01-2.06451E-01
 -1      1306 2.51479E-01 1.61612E-01 1.12557E-01-3.02185E-02-5.46948E-02 8.53073E-02
 -1      1307 4.52806E-01 3.00378E-01 3.87679E-01-1.07329E-02-8.01660E-02 2.02354E-01
 -1      1308 4.13781E-02 1.86414E-01 1.23267E-01 7.36401E-03-1.86268E-02-1.01587E-01
 -1      1309 2.65415E-01 2.88265E-01 2.13015E-01-1.63249E-04-5.07958E-02-1.07800E-01
 -1      1310 6.73587E-02 7.15583E-02 6.54741E-02 2.02382E-02 3.89956E-02 1.13804E-01
 -1      1311 2.06163E-01 1.88521E-01 2.31722E-01-1.19107E-02-9.37503E-03 2.43675E-01
 -1      1312 8.01305E-02 1.34371E-01 4.09613E-02-1.10214E-02 5.76333E-03-1.46712E-01
 -1      1313 1.07176E-01 2.50304E-01 1.53477E-01-1.40109E-04-3.39091E-02-1.10126E-01
 -1      1314 1.76307E-01 1.32489E-01 1.13632E-01 2.12239E-02 6.31334E-02 7.81725E-02
 -1      1315 2.56365E-01 1.96389E-01 1.44383E-01 4.87939E-02 8.57745E-02 1.72650E-01
 -1      1316 3.96714E-02 1.00609E-01 7.46486E-02-1.76241E-02-2.58763E-03-1.10873E-01
 -1      1317 1.32275E-01 2.07062E-01 4.25338E-03-1.08364E-02 7.10698E-02-1.38528E-01
 -1      1318 8.86021E-02 7.90969E-02 3.74533E-02 2.62047E-02 1.08125E-01 8.92135E-02
 -1      1319 1.11766E-01 1.50232E-01 1.05560E-01-3.26732E-02-2.14404E-02-1.13844E-01
 -1      1320 1.32425E-01 1.02276E-01-4.83510E-02-3.59216E-02 1.15699E-01-2.37086E-01
 -1      1321 1.51347E-01 1.23888E-01 1.87480E-02 5.04893E-02 6.88750E-02-2.65368E-02
 -1      1322 4.30160E-02 3.64517E-02 6.50348E-02 3.69922E-02 8.02007E-02 3.04119E-02
 -1      1323 1.22684E-02 8.25049E-02 8.00125E-02-3.65595E-02-1.85020E-02-1.19590E-01
 -1      1324-4.16707E-03-2.24316E-02-1.03323E-01-6.34160E-02 5.93261E-02-2.55377E-01
 -1      1325-1.01139E-01-9.15992E-02-1.22620E-01 2.71191E-02-3.62306E-03-1.51415E-02
 -1      1326-9.56365E-03-3.94038E-03 1.07297E-02-4.86260E-02-1.66406E-02-8.10211E-02
 -1      1327-1.39593E-01-2.05461E-01-1.85068E-01 1.96055E-03 1.32268E-02-2.29071E-01
 -1      1328-1.01400E-01-1.00924E-01-4.85986E-02 3.31401E-02-1.20699E-02 9.43957E-04
 -1      1329-1.90106E-01-1.33871E-01-9.79329E-02 5.66807E-02-1.14313E-01 2.09314E-02
 -1      1330-8.61077E-03-6.67810E-02-3.83389E-02-2.06523E-02 1.91883E-03-8.08001E-02
 -1      1331 2.01788E-02-2.41529E-02-8.46769E-02-5.26064E-02 8.62192E-03-1.18905E-01
 -1      1332-1.76561E-01-1.89338E-01-1.25247E-01 2.19787E-02-3.34571E-02-2.10158E-01
 -1      1333-2.83907E-01-2.06889E-01-2.47358E-01 3.76894E-02-1.50678E-01 1.50329E-01
 -1      1334 7.61734E-04-7.72993E-02-1.09240E-02-3.26909E-02 2.66740E-02-8.79264E-02
 -1      1335-1.31124E-01-1.76082E-01-2.38635E-02-2.73669E-02 1.36225E-02-1.11181E-01
 -1      1336-2.39201E-01-2.81367E-01-1.95985E-01 7.45975E-03-8.77439E-02-1.73978E-01
 -1      1337-2.44566E-01-1.28908E-01-1.61212E-01 2.66831E-02-8.25695E-02 2.17365E-01
 -1      1338-1.51064E-01-1.53156E-01-5.27622E-02 7.21224E-03 5.21645E-03-9.39132E-02
 -1      1339 2.58310E-01 2.41506E-01 1.57473E-01 6.65214E-02 3.63463E-01 2.65038E-01
 -1      1340 1.58020E+00 1.19473E+00 1.16825E+00-3.77609E-02-1.01481E-01 9.19160E-01
 -1      1341-1.93435E-01-1.90163E-01-1.86591E-01 5.13991E-03-8.91040E-02 7.17048E-01
 -1      1342-1.55297E+00-1.13511E+00-1.13169E+00 3.81544E-02-9.57604E-02 9.72340E-01
 -1      1343-4.34144E-02 8.59248E-02 1.11661E-01 8.26345E-03-7.07737E-02 6.52391E-01
 -1      1344-3.74864E-01-5.14022E-01-3.74221E-01-6.23119E-03 2.23008E-01 4.12999E-02
 -1      1345-1.27630E-01-1.37051E-01-1.48773E-01 2.60440E-02 1.54100E-01 4.73918E-02
 -1      1346 7.40497E-02 1.44242E-01 4.79063E-02-9.44489E-03 2.29569E-01 6.52519E-02
 -1      1347 3.58202E-02 4.21642E-02-3.57312E-03 2.02046E-02 3.35108E-01 3.30808E-01
 -1      1348-1.20420E+00-1.17524E+00-1.00174E+00-1.87857E-01 5.14331E-01 5.48111E-01
 -1      1349-3.57194E-01-4.47241E-01-3.45958E-01-8.44511E-02 4.42513E-01 5.27242E-01
 -1      1350 7.91619E-02 1.80158E-02 1.15529E-01 1.17319E-02-2.07260E-01 5.54035E-02
 -1      1351 4.59663E-01 5.95092E-01 4.44052E-01-3.99847E-02-3.18927E-01 5.64881E-02
 -1      1352 2.41293E-01 3.59250E-01 2.38463E-01 1.39417E-02-1.90531E-01 3.89389E-02
 -1      1353 4.49633E-01 4.80185E-01 3.96039E-01-1.29700E-01-2.73002E-01 5.72016E-01
 -1      1354 1.46257E+00 1.31569E+00 1.16965E+00-1.72267E-01-4.06014E-01 6.55921E-01
 -1      1355-2.58634E-02-1.12676E-01-3.39250E-02 6.39844E-02-2.91682E-01 4.75107E-01
 -1      1356-3.52469E-01-1.79235E-01-9.86297E-02 4.91189E-02-3.85177E-01 6.43613E-01
 -1      1357 1.87260E-01 1.70231E-01 1.18155E-01 3.98026E-02 2.99891E-01 5.45862E-01
 -1      1358-1.09125E+00-8.83258E-01-8.31268E-01-1.18116E-01 4.01501E-01 7.51127E-01
 -1      1359-5.97454E-02-1.26512E-01-9.53887E-02-6.05809E-02 3.39975E-01 5.96120E-01
 -1      1360-2.04414E-01-3.06797E-01-1.37572E-01-6.71675E-02 3.64830E-01 1.65021E-01
 -1      1361-8.88422E-02-5.21547E-02-2.85712E-02 4.38133E-03 1.26014E-01 1.10256E-02
 -1      1362-1.67704E-02-4.74039E-02-2.29255E-02-1.83586E-02 3.04328E-02 1.12550E-02
 -1      1363-1.47148E-01-2.08116E-01-1.49566E-01 2.10528E-02 7.19528E-02-2.28270E-02
 -1      1364-1.90615E-01-2.18448E-01-1.91489E-01 3.59937E-03 1.22417E-01 1.99694E-02
 -1      1365 1.60466E+00 1.16149E+00 1.16455E+00-6.15946E-03-9.99916E-02 1.01530E+00
 -1      1366-1.40054E-01-1.34218E-01-1.04669E-01 1.32247E-02-6.25341E-02 7.29413E-01
 -1      1367-1.61781E+00-1.19551E+00-1.18441E+00 7.77072E-02-9.91161E-02 1.00641E+00
 -1      1368 2.73623E-01 1.98548E-01 1.70963E-01 1.29184E-02-8.61447E-02 7.58962E-01
 -1      1369 1.06749E+00 1.03400E+00 8.84728E-01-1.65940E-01-4.46884E-01 5.44542E-01
 -1      1370-1.21526E+00-1.16621E+00-1.00260E+00 1.90631E-01-4.74236E-01 5.68551E-01
 -1      1371 6.08115E-01 7.76842E-01 5.83067E-01-7.52192E-02-3.63160E-01 1.94121E-01
 -1      1372 9.45516E-03-6.72949E-03 8.33308E-02-5.46339E-03-1.16259E-01-6.35735E-03
 -1      1373 2.77266E-02 3.30262E-02 2.72913E-02 1.67062E-02-3.47730E-02 2.48132E-03
 -1      1374 2.90292E-02-2.77428E-02-3.29607E-02-3.82448E-02-3.85502E-01 2.87187E-01
 -1      1375 8.25194E-01 5.19970E-01 4.37619E-01-2.17950E-02 1.21767E-01 6.85503E-01
 -1      1376-6.94411E-01-4.03857E-01-2.89483E-01 4.79616E-02 1.40353E-01 7.33320E-01
 -1      1377 1.66845E-01 2.60203E-01 1.79787E-01 3.17883E-02-1.37530E-01-1.40558E-02
 -1      1378 3.87893E-02 4.74234E-02 7.41505E-02 1.23249E-02-1.00922E-01 3.48945E-03
 -1      1379-3.12383E-02-5.39898E-02-5.42148E-02-5.79380E-04-4.41458E-02-1.42575E-02
 -1      1380 1.37932E-01 7.83513E-02 1.70362E-01 5.97579E-03-1.87818E-01 7.16498E-01
 -1      1381-1.39976E+00-1.10219E+00-1.05332E+00 1.33091E-01-2.87768E-01 9.48630E-01
 -1      1382 6.05412E-02 8.39910E-02 1.22081E-01-5.44566E-03-2.11910E-01 7.54135E-01
 -1      1383 7.08285E-02 1.23138E-01 9.05900E-02 1.37374E-02-1.54128E-01 5.61179E-02
 -1      1384 6.10227E-01 7.16171E-01 5.58413E-01-8.06924E-02-4.50050E-01 2.23230E-01
 -1      1385-6.29933E-01-7.97402E-01-6.00908E-01 7.96660E-02-4.01769E-01 2.14758E-01
 -1      1386 7.81583E-02 1.17303E-01 7.88694E-02-7.81516E-03 1.36229E-01-2.56170E-03
 -1      1387-7.94894E-01-9.26083E-01-7.24531E-01-1.27918E-01 4.53820E-01 2.95322E-01
 -1      1388-1.65112E-01-1.58719E-01-2.95938E-01 2.11650E-02 3.01779E-01 2.44573E-01
 -1      1389 1.11707E-01 1.96090E-01 4.59992E-02 5.21169E-02 4.14268E-01 3.39107E-01
 -1      1390 2.92894E-01 2.66303E-01 1.82135E-01 7.16850E-02 3.81496E-01 6.66129E-01
 -1      1391 1.32492E+00 1.08790E+00 1.01580E+00 1.63219E-01 3.90147E-01 7.70941E-01
 -1      1392 1.33997E-01 8.62248E-02 2.36865E-01-3.69283E-02 2.81543E-01 5.31695E-01
 -1      1393-3.57907E-01-2.94332E-01-3.09656E-01-1.33810E-02 4.17625E-01 7.07318E-01
 -1      1394 1.53680E+00 1.12405E+00 1.12021E+00 3.99604E-02 1.01555E-01 1.03117E+00
 -1      1395 2.49151E-01 2.01980E-01 1.78291E-01 1.81146E-02 6.97410E-02 7.69134E-01
 -1      1396-1.80337E+00-1.30005E+00-1.30654E+00-6.60952E-02 1.27731E-01 9.89310E-01
 -1      1397-4.59737E-01-6.80501E-01-4.49309E-01 1.24579E-01-4.50875E-01 5.26234E-01
 -1      1398 6.93755E-01 4.39825E-01 5.35604E-01-5.29153E-03 2.06744E-01 6.35501E-01
 -1      1399-1.40882E-01-1.83258E-01-9.25635E-02 1.11464E-01-2.53648E-01 7.87408E-01
 -1      1400 3.66597E-01 3.40681E-01 3.57645E-01 2.08354E-02 3.26088E-01 4.54629E-01
 -1      1401 2.92366E-01 2.66418E-01 8.73618E-02 1.09168E-01 2.04841E-01 7.30428E-01
 -1      1402 1.17807E-01 2.09827E-01 9.21324E-02-1.75662E-02 1.80183E-01 4.77664E-02
 -1      1403 1.27895E+00 1.11600E+00 1.00827E+00-1.58699E-01-4.32854E-01 7.35307E-01
 -1      1404-5.50293E-02-2.69182E-02-3.54916E-02-6.59879E-03-3.06694E-01 4.06036E-01
 -1      1405 3.20073E-01 3.75663E-01 3.05148E-01-3.91835E-02-4.49957E-01 3.00875E-01
 -1      1406-6.48776E-01-8.31527E-01-6.23207E-01-8.84965E-02 3.90884E-01 2.01799E-01
 -1      1407 3.32689E-01 3.55862E-01 4.34487E-01-1.07779E-02-2.04172E-01 6.55885E-01
 -1      1408-3.34494E-01-2.92346E-01-2.43710E-01-9.68269E-02 2.00002E-01 7.30412E-01
 -1      1409-6.11831E-01-5.15722E-01-1.46966E-01-3.11550E-01 1.62434E-02-1.45349E-01
 -1      1410 3.53484E-01 9.63832E-01 7.99548E-02 3.17618E-01-2.60065E-02-1.07609E-01
 -1      1411-7.21248E-02-6.88258E-02-7.19334E-02-2.32276E-02 1.70548E-02-1.69851E-01
 -1      1412-4.87751E-01-5.43145E-01-3.76485E-01 3.98021E-03 2.29384E-03-1.42640E-01
 -1      1413-6.94007E-01-5.79565E-01-4.36870E-01 4.61636E-03 4.70469E-02-2.44561E-01
 -1      1414-3.96277E-01-6.61985E-02-5.59483E-02 1.37893E-01 2.29698E-02-1.51034E-01
 -1      1415-4.97310E-02-2.15424E-02-1.52335E-01 2.09400E-02 4.32009E-02-3.69267E-01
 -1      1416-1.08698E-01-7.10026E-01-5.26807E-01-1.48195E-01-1.33373E-01-2.14089E-01
 -1      1417-6.54484E-02-6.30800E-01-5.02160E-01-1.37521E-01-1.34056E-01-1.51084E-01
 -1      1418 4.84662E-01 3.92549E-01-2.86667E-03-3.15527E-01 2.76465E-02-1.25741E-01
 -1      1419-4.28046E-01-3.47604E-01-2.58339E-01 4.00662E-02-6.31946E-02-2.63110E-01
 -1      1420 6.14512E-01 5.23081E-01 8.52723E-02 3.32874E-01-4.07562E-02-1.28665E-01
 -1      1421-3.38085E-01-3.81316E-01-4.06938E-01-2.91272E-01-2.13218E-01-3.40979E-01
 -1      1422-2.40778E-01-2.44204E-01-2.87562E-01-2.98446E-01-2.38880E-01-3.24096E-01
 -1      1423-3.16705E-02-8.89008E-02-8.21537E-02-1.36302E-01-5.94105E-03-3.89214E-01
 -1      1424-5.39207E-01-4.62766E-01-3.93464E-01-7.07983E-02 3.83903E-02-3.07710E-01
 -1      1425 3.53496E-01 2.48834E-01 1.74177E-01-1.28819E-01-5.40315E-02-3.22993E-01
 -1      1426-5.46725E-01-2.26064E-01-4.38239E-01 1.33965E-01 1.92628E-01-5.77098E-01
 -1      1427-2.95830E-01 5.30599E-02-2.96241E-01 6.52544E-02 1.96617E-01-5.51349E-01
 -1      1428-3.69224E-01 7.56209E-02 1.44117E-02 1.11368E-01-8.16917E-02-5.15570E-01
 -1      1429-2.31173E-01 3.76146E-02 9.31933E-02 1.12513E-01-1.09973E-01-4.98187E-01
 -1      1430-5.45040E-01-4.84162E-01-6.92250E-02 3.57760E-01 1.29777E-02-1.29734E-01
 -1      1431 3.64915E-01 1.26065E+00 1.73659E-01 4.58586E-02 1.80460E-02-1.93400E-01
 -1      1432-4.67567E-01-1.69364E-01-3.57601E-01-1.34134E-01-1.82649E-01-5.16204E-01
 -1      1433-3.66444E-01-3.51138E-02-2.47538E-01-1.48185E-01-2.47260E-01-5.28131E-01
 -1      1434-2.01224E-01-7.95693E-01-2.83445E-02-2.70870E-01-2.43584E-02-7.64464E-02
 -1      1435 4.32515E-01 3.75613E-01 3.29349E-01 7.97203E-02 3.61651E-02-3.91104E-01
 -1      1436-8.84917E-01-6.44838E-01-5.92753E-01-1.03935E-01-3.21872E-02-4.08216E-01
 -1      1437-4.03028E-01-1.27948E+00-1.77323E-01-6.05323E-02-3.59150E-03-1.53605E-01
 -1      1438 2.97277E-01 1.47332E+00 3.71679E-01 3.14468E-01-9.23380E-02-1.22364E-01
 -1      1439 2.32029E-01 1.08517E+00 2.45972E-01 2.88974E-01-1.09407E-01-5.42268E-02
 -1      1440-2.64197E-01-1.95409E-02-2.31070E-01 8.75528E-02-5.87931E-02-5.77609E-01
 -1      1441-1.05445E-01 2.57983E-02-1.28376E-01 9.56730E-02-6.20766E-02-5.70188E-01
 -1      1442-6.54705E-01-2.14153E-01-1.62602E-01 2.13444E-01 1.99058E-01-3.87080E-01
 -1      1443-4.52345E-01-5.37574E-02 5.63082E-02 8.55731E-02 2.54055E-01-3.49495E-01
 -1      1444 2.77380E-02-1.36117E-02-9.17062E-02-2.56727E-02-6.14295E-02-1.84203E-01
 -1      1445 4.61207E-01 3.23297E-01 2.74212E-01-3.42580E-02-1.04689E-01-3.29445E-01
 -1      1446 4.76687E-01 5.00473E-01-4.36988E-02 2.70957E-01-1.91118E-02-2.77016E-01
 -1      1447 4.51155E-01 3.91995E-01 3.28695E-01 2.87502E-02 4.44038E-02-2.97896E-01
 -1      1448-7.49922E-01-6.25658E-01-4.84836E-01 4.84508E-02-7.22235E-02-2.84333E-01
 -1      1449-3.73417E-01-5.63476E-01-5.69855E-01 3.72245E-01 2.61918E-01-3.23996E-01
 -1      1450-3.29286E-01-4.05507E-01-4.92272E-01 2.99045E-01 2.62837E-01-2.81538E-01
 -1      1451 4.10681E-01 1.05305E+00 9.72616E-02-3.36748E-01 6.31786E-02-1.71640E-01
 -1      1452 8.82318E-01 6.36550E-01 5.83653E-01 1.60846E-02 2.04789E-02-2.92724E-01
 -1      1453-4.99803E-01-1.30279E-01-7.67955E-02-1.63361E-01-2.64886E-02-2.10535E-01
 -1      1454 3.64809E-01 5.86891E-01 4.39618E-01-3.51206E-01 2.11534E-01-3.31674E-01
 -1      1455 3.19151E-01 5.06767E-01 4.39212E-01-2.90635E-01 2.38839E-01-2.63013E-01
 -1      1456 1.06810E+00 9.10188E-01 8.19543E-01-3.03573E-02-6.14519E-02-2.97590E-01
 -1      1457 5.75687E-01 6.91403E-01 2.73810E-01 4.55540E-01-1.80616E-01-2.27214E-01
 -1      1458 4.21217E-01 6.19106E-01 1.57399E-01 4.05877E-01-2.07863E-01-2.09104E-01
 -1      1459 6.01491E-01 5.36181E-01 4.72237E-01-8.08927E-03-5.96511E-02-2.56320E-01
 -1      1460-3.52870E-01-8.81819E-01-9.57726E-02 2.69674E-01 3.00419E-02-1.13336E-01
 -1      1461 7.54486E-01 2.52106E-01-2.79034E-02 8.37897E-02 2.23146E-02-2.13544E-01
 -1      1462 3.93792E-01-1.26225E-02 1.43462E-01 8.16113E-02 3.39654E-02-4.91918E-01
 -1      1463 2.91833E-01 1.19332E-03 5.19897E-02 9.47959E-02 4.76290E-02-5.40569E-01
 -1      1464 3.09897E-01 1.45433E+00 2.74190E-01-2.73359E-01 1.32886E-01-9.72743E-02
 -1      1465 2.28960E-01 1.02429E+00 5.79733E-02-1.77811E-01 1.13837E-01-2.67658E-02
 -1      1466 3.09156E-01 8.55900E-02 3.59235E-01-2.51038E-03 4.16098E-02-6.84633E-01
 -1      1467 1.99933E-01-1.48239E-02 2.04595E-01 4.04814E-02 1.68455E-02-7.14118E-01
 -1      1468-1.89040E-02 5.29037E-01-7.34294E-02 7.60912E-02-4.91335E-02-1.74338E-01
 -1      1469-8.92151E-01-2.97989E-01-3.82919E-01-2.61301E-01-2.06907E-01-4.35034E-01
 -1      1470-7.08934E-01-7.70059E-02-1.81870E-01-1.97027E-01-1.75521E-01-3.89820E-01
 -1      1471 5.04115E-01 5.72816E-02 3.41451E-01-2.09776E-01 2.77534E-01-5.87419E-01
 -1      1472 4.62509E-01 7.21482E-02 3.77404E-01-1.39298E-01 2.92783E-01-5.40635E-01
 -1      1473-2.80941E-01-5.28469E-01-7.76032E-02 2.65089E-01 9.18550E-02-2.16541E-01
 -1      1474 6.20196E-01 1.12014E-01 1.00412E-01 2.38910E-01-1.89131E-01-3.42643E-01
 -1      1475 5.33947E-01 7.16889E-02 1.22103E-01 1.68605E-01-1.71243E-01-3.66202E-01
 -1      1476-1.97427E-01-9.77075E-01-6.14178E-01 2.06743E-01 1.41353E-01-1.75653E-01
 -1      1477-9.96879E-02-7.37933E-01-4.30446E-01 1.69746E-01 1.49519E-01-1.29168E-01
 -1      1478 1.55832E-01 4.61305E-01 6.33511E-02 6.26045E-02-9.58455E-02-8.85808E-02
 -1      1479-6.09482E-01-8.38710E-01-3.96334E-01 4.84188E-01 2.64381E-01-2.92964E-01
 -1      1480-3.99075E-01-5.21873E-01-1.70236E-01 3.49092E-01 2.57425E-01-2.36191E-01
 -1      1481 5.65895E-01 4.35567E-01 1.17313E-01-4.24534E-01 1.75058E-01-2.41668E-01
 -1      1482 7.91135E-01 7.66429E-01 4.23487E-01-5.76711E-01 1.56273E-01-3.03496E-01
 -1      1483 3.21475E-01 1.48471E-02 8.81912E-02 3.63617E-02 1.02021E-01-5.64847E-01
 -1      1484 2.72460E-01-2.00722E-02 8.41375E-02 1.67227E-02 9.89439E-02-6.48579E-01
 -1      1485 7.67947E-01 2.76167E-01 2.71979E-01 2.55529E-01-2.32416E-01-4.49836E-01
 -1      1486 5.20965E-01 1.34861E-01 6.94458E-02 1.65680E-01-2.06329E-01-3.76702E-01
 -1      1487 5.53826E-01 7.21499E-01 3.54228E-01 4.63445E-01-2.48428E-01-2.46155E-01
 -1      1488 4.57979E-01 6.52827E-01 2.77728E-01 3.97218E-01-2.91106E-01-2.28370E-01
 -1      1489-2.99293E-01-9.62264E-01-5.81591E-01 2.17986E-01 6.67171E-02-1.39589E-01
 -1      1490-8.81779E-02-8.07740E-01-3.97279E-01 1.51564E-01 1.22483E-01-9.11078E-02
 -1      1491-6.45751E-01-7.41398E-01-4.02525E-01 4.12198E-01 2.10154E-01-2.38705E-01
 -1      1492-5.54162E-01-4.06938E-01-2.23498E-01 3.45801E-01 1.90330E-01-2.25495E-01
 -1      1493 2.93304E-01 3.95106E-01 3.81773E-01 2.57419E-01-3.15456E-01-3.32923E-01
 -1      1494 4.05326E-01 5.61703E-01 5.10818E-01 3.90882E-01-3.28733E-01-4.02217E-01
 -1      1495 7.96634E-01 1.59920E-01 9.40571E-02-2.92196E-01 1.79216E-01-3.62597E-01
 -1      1496 7.66093E-01 1.71075E-01 1.42419E-01-2.65957E-01 1.51412E-01-3.25102E-01
 -1      1497-3.03372E-01-1.35573E+00-3.48471E-01-2.95029E-01-1.42546E-01-2.00315E-01
 -1      1498-2.24326E-01-1.03413E+00-2.03314E-01-2.69378E-01-1.64158E-01-1.38781E-01
 -1      1499 4.87979E-01 1.25936E-01 9.82437E-02-1.14642E-01 4.79130E-03-2.06025E-01
 -1      1500 3.99110E-01 2.83981E-02 1.05140E-01-1.23603E-01-8.34236E-02-6.18630E-01
 -1      1501 3.21938E-01-1.74466E-02 8.11517E-02-1.33187E-01-6.91248E-02-5.68306E-01
 -1      1502-5.59436E-01-1.33876E-01-2.65062E-01 1.56038E-01 2.55791E-01-5.52655E-01
 -1      1503-3.28061E-01-3.61928E-02-9.82638E-02 6.76012E-02 2.66330E-01-4.59867E-01
 -1      1504-3.01539E-01 5.87905E-03-5.60130E-02-4.57404E-02 9.98510E-02-4.47794E-01
 -1      1505-2.31415E-01 4.39808E-02 2.38107E-02-3.93268E-02 1.63270E-01-4.90679E-01
 -1      1506 3.89567E-01 6.45186E-01 3.49934E-01-3.49092E-01 1.45124E-01-2.46230E-01
 -1      1507 2.17849E-01 5.85454E-01 2.82464E-01-3.56443E-01 2.60887E-01-2.27260E-01
 -1      1508-8.64973E-01-7.16138E-01-5.28012E-01 7.59597E-02 1.30198E-02-3.98062E-01
 -1      1509-2.87244E-01-9.82972E-02-2.38223E-01 5.96491E-02 1.23681E-01-4.84889E-01
 -1      1510-5.24444E-01-3.01792E-01-4.70530E-01-2.45960E-03 6.76412E-02-5.53045E-01
 -1      1511-9.45581E-01-8.38608E-01-7.57907E-01 5.66317E-02-3.85480E-02-3.45034E-01
 -1      1512 5.18619E-01 1.71767E-01 3.71713E-01 1.73200E-01-2.22073E-01-5.73941E-01
 -1      1513 4.34115E-01 6.50245E-02 3.29956E-01 1.62929E-01-2.83043E-01-5.22487E-01
 -1      1514-4.86924E-01-4.15150E-01 8.13648E-03-3.45055E-01-1.60152E-01-1.65962E-01
 -1      1515-7.88032E-01-8.38545E-01-3.42997E-01-5.08517E-01-1.50464E-01-2.30988E-01
 -1      1516-2.65965E-01-3.88927E-03-1.65760E-01-1.53258E-03 9.99813E-02-6.53910E-01
 -1      1517-2.48277E-01-3.12534E-02-2.06556E-01 7.42364E-03 8.04707E-02-5.80450E-01
 -1      1518 3.59525E-02 4.87825E-01 4.08955E-01 1.19801E-01-1.04659E-01-1.08748E-01
 -1      1519 2.87013E-01 7.54188E-01 5.95574E-01 1.48492E-01-8.27361E-02-2.02055E-01
 -1      1520-3.76477E-01-3.76655E-01-2.98651E-01-8.44002E-02-8.83445E-03-4.07110E-01
 -1      1521 6.11446E-01 2.36919E-01 3.82457E-01 1.60624E-01-2.63073E-01-5.79427E-01
 -1      1522 4.06826E-01 6.27363E-02 1.96487E-01 1.11660E-01-2.71217E-01-5.42336E-01
 -1      1523 1.08669E+00 7.52876E-01 6.79956E-01 4.18442E-03 1.25282E-03-4.28263E-01
 -1      1524-3.33830E-01-5.19970E-01-4.41877E-01 3.28164E-01 2.40165E-01-3.01370E-01
 -1      1525-3.25837E-01-3.90315E-01-3.67094E-01 3.15360E-01 2.54210E-01-2.37001E-01
 -1      1526 5.04524E-01 2.04403E-01 3.65591E-01-2.09622E-01 3.03502E-01-5.22040E-01
 -1      1527 3.45242E-01 1.18838E-01 1.90200E-01-1.24680E-01 3.35958E-01-5.13115E-01
 -1      1528-4.89556E-01-1.71775E-01-3.33546E-01-1.62374E-01-2.89808E-01-5.23956E-01
 -1      1529-3.36761E-01-3.64009E-02-2.26865E-01-1.05305E-01-2.91708E-01-4.93992E-01
 -1      1530 9.50697E-01 8.79631E-01 7.66729E-01-6.80683E-03 2.45224E-02-3.54418E-01
 -1      1531 4.51855E-01 8.27254E-02 7.18917E-02 2.06460E-01-4.35133E-02-2.14441E-01
 -1      1532-2.17858E-01-3.44474E-01-2.41465E-01 1.97300E-01 1.19559E-01-3.09109E-01
 -1      1533-1.74006E-01-3.89945E-01-4.44619E-01 2.52574E-01 2.47880E-01-2.85231E-01
 -1      1534 6.74555E-01 1.99143E-01 3.69477E-02 2.98858E-01-1.10256E-01-2.11001E-01
 -1      1535 5.64672E-01 1.46363E-01-1.14861E-01 2.24940E-01-1.15106E-01-1.94611E-01
 -1      1536-7.60740E-01-5.42578E-01-5.53168E-01 9.21067E-02-2.94825E-02-4.05772E-01
 -1      1537 8.13303E-01 2.39150E-01 4.10984E-01 2.30402E-01-3.56785E-01-5.77225E-01
 -1      1538 5.14166E-01 4.67543E-02 2.11823E-01 1.18090E-01-2.95749E-01-5.07952E-01
 -1      1539-3.90313E-01-7.10096E-02-1.48335E-01 8.62836E-02 2.44330E-01-4.07200E-01
 -1      1540-6.03277E-01-2.25539E-01-2.87407E-01 1.75931E-01 1.96294E-01-4.69089E-01
 -1      1541-3.29374E-01 1.03000E-02-1.90800E-01 9.00229E-02-6.81713E-02-5.21488E-01
 -1      1542-2.34248E-01 6.68781E-03-2.51073E-02 1.20946E-01-3.93295E-02-4.98784E-01
 -1      1543-4.00084E-01-3.29321E-01-2.81078E-01 1.30581E-01 1.54600E-02-3.88197E-01
 -1      1544 4.79778E-01 8.60623E-01 7.70964E-01 1.34575E-01-6.28365E-02-2.89778E-01
 -1      1545 7.31347E-03 5.46123E-01 6.04532E-01 8.08570E-02-9.06767E-02-1.15222E-01
 -1      1546-8.09722E-01-2.82182E-01-1.95292E-01 1.99588E-01 1.14103E-01-2.67506E-01
 -1      1547-4.71965E-01-4.66436E-01-1.94849E-01-3.53902E-01-2.47293E-01-2.87068E-01
 -1      1548-3.94963E-01-3.63119E-01-1.36531E-01-2.78228E-01-2.58156E-01-2.40689E-01
 -1      1549-4.35530E-01-7.23498E-01-6.53351E-01-8.25436E-02-5.81372E-02-3.27281E-01
 -1      1550-8.61121E-02-6.55119E-01-7.24319E-01-1.14208E-01-1.13545E-01-2.03529E-01
 -1      1551 7.74648E-01 2.31701E-01 3.04417E-01 2.73246E-01-2.60544E-01-5.26510E-01
 -1      1552 6.01446E-01 1.56047E-01 1.74040E-01 1.85132E-01-2.35574E-01-4.71275E-01
 -1      1553-3.80721E-01-6.53629E-03 1.51964E-03-7.47513E-02 5.55460E-02-3.00668E-01
 -1      1554-3.92218E-01 3.05473E-02-5.58551E-03-4.21709E-02 8.10603E-02-3.75430E-01
 -1      1555-6.03511E-01-1.79108E-01-2.31418E-01-1.63836E-01-2.27935E-01-4.23523E-01
 -1      1556-4.93826E-01-4.29812E-02-1.86006E-01-1.57993E-01-2.97465E-01-4.37065E-01
 -1      1557 1.38153E-01 3.45470E-02 8.71619E-02-1.26105E-02-1.02621E-01-6.41595E-01
 -1      1558 1.01107E-01-5.96103E-03 5.18520E-02 1.00175E-02-1.31481E-01-6.49987E-01
 -1      1559 1.91296E-01-6.43773E-02 3.99792E-02-1.47069E-01-1.07109E-01-7.40730E-01
 -1      1560 1.16579E-01-4.24871E-02 3.48093E-02-1.31057E-01-1.19270E-01-6.60004E-01
 -1      1561-1.01313E-01-3.22143E-01-1.54948E-01-2.26690E-01 2.32243E-02-9.82441E-02
 -1      1562 4.10953E-01-3.75756E-02 4.44903E-02-1.81379E-01-7.20232E-02-3.94203E-01
 -1      1563 2.82881E-01-3.53110E-02-2.41119E-02-1.68957E-01-7.56087E-02-3.99292E-01
 -1      1564 1.33153E-01 8.15828E-01 4.91400E-01-1.90675E-01 7.59031E-02-1.68103E-01
 -1      1565 8.50726E-02 6.56768E-01 4.29964E-01-1.54797E-01 1.07295E-01-7.89925E-02
 -1      1566 4.91356E-01 1.95979E-01 1.58640E-01-2.17802E-02 1.02511E-01-3.35573E-01
 -1      1567-3.52292E-01-9.26157E-01-1.37281E-01-4.40352E-01-5.68783E-02-2.27050E-01
 -1      1568-7.24717E-01-7.11555E-01-5.53639E-01 3.38859E-03 3.80715E-02-3.19798E-01
 -1      1569-8.13543E-01-4.87484E-01-5.34934E-01-8.89524E-02-5.15677E-02-3.75761E-01
 -1      1570-2.55716E-01 9.10332E-02-2.73251E-02-7.14533E-02 1.29314E-02-2.03407E-01
 -1      1571-3.87698E-01-5.42107E-02 2.38130E-02-4.18590E-02 4.03723E-02-1.82988E-01
 -1      1572 4.04471E-01 5.38760E-01 2.58593E-01-2.59154E-01 1.04938E-01-2.53770E-01
 -1      1573 1.69901E-01 3.47015E-02 5.96392E-02-3.28368E-02-1.29697E-01-6.76720E-01
 -1      1574 2.31261E-01 8.59318E-03 8.98999E-02-4.15044E-02-1.65350E-01-7.28882E-01
 -1      1575 1.10219E+00 4.78983E-01 7.89032E-02 3.54369E-01-2.78883E-02-1.48093E-01
 -1      1576-1.18773E-01 5.31106E-02-6.88441E-02 4.74564E-02-4.50358E-02-4.74316E-01
 -1      1577-1.89605E-01-7.52636E-03-1.82010E-01 1.15992E-01-4.43252E-02-5.63731E-01
 -1      1578 3.84783E-01 1.66068E+00 2.91884E-01 3.57965E-01-3.65275E-02-1.01691E-01
 -1      1579 2.89624E-01 1.42087E+00 7.64214E-02 2.90327E-01-4.88912E-02-4.01151E-02
 -1      1580-4.94878E-02-1.49327E-02-3.99949E-02 1.10461E-01 1.34848E-02-3.75296E-01
 -1      1581-1.74689E-01 2.68389E-02-7.74231E-02-4.59777E-03 1.20242E-01-5.87744E-01
 -1      1582-2.20007E-01-1.01820E-02-1.22217E-01 9.69447E-04 1.37854E-01-6.51908E-01
 -1      1583-3.48873E-01-1.11909E+00-6.09850E-01 2.41379E-01 3.77871E-02-1.27474E-01
 -1      1584-1.61233E-01-8.86655E-01-4.40744E-01 1.93938E-01 9.61982E-02-5.67607E-02
 -1      1585 3.72220E-01-1.54162E-01-6.53367E-02-8.80117E-02-1.39465E-01-2.84171E-01
 -1      1586-4.34453E-02-6.32394E-01-2.16325E-01-4.73100E-02-1.31602E-01-1.41766E-01
 -1      1587 4.29450E-01-8.43076E-02 1.79884E-02-2.11138E-01-1.17520E-01-3.15209E-01
 -1      1588-2.72327E-01-4.41646E-02-1.29042E-01-3.69213E-02 6.43436E-02-5.38122E-01
 -1      1589-1.42399E-01 4.07791E-02 5.46739E-02-5.84121E-02 1.09648E-01-5.50705E-01
 -1      1590 3.67656E-01 1.52370E-01 3.25647E-01-1.69135E-01 3.36223E-01-4.98782E-01
 -1      1591 6.71325E-01 3.16869E-01 6.39410E-01-2.83008E-01 3.03162E-01-5.74121E-01
 -1      1592 3.61236E-01 1.20198E+00 4.94612E-01-3.05637E-01 1.35607E-02-1.37784E-01
 -1      1593 2.45784E-01 7.60160E-01 1.70668E-01-2.50456E-01 1.07429E-02-1.24045E-01
 -1      1594-1.91367E-01-6.67344E-01-5.87350E-01 1.07327E-01 4.14671E-02-2.34325E-01
 -1      1595-1.34250E-01-7.49971E-01-7.64969E-01 1.47171E-01 1.25534E-01-1.67342E-01
 -1      1596 8.05618E-01 1.46084E-01-4.47784E-02-2.71947E-01 1.58492E-01-2.22570E-01
 -1      1597 7.91702E-01 1.52723E-01-5.86687E-02-2.93701E-01 1.85972E-01-2.40427E-01
 -1      1598 2.82059E-01 1.46913E+00 2.02587E-01-3.89619E-01-1.27199E-02-6.92752E-02
 -1      1599 1.69938E-01 1.13467E+00-2.44694E-02-3.77572E-01 4.25979E-02 8.35636E-03
 -1      1600-2.04136E-01-1.99310E-01-1.48595E-01-8.70274E-02 3.88878E-02-4.39650E-01
 -1      1601-6.49715E-01-8.81875E-01-1.19163E-01 5.77675E-01 1.31044E-01-1.01064E-01
 -1      1602-4.87945E-01-5.83924E-01 1.26987E-01 4.75258E-01 1.30020E-01-8.69244E-02
 -1      1603 3.22223E-01 1.64948E-01 2.67664E-01 1.35473E-01-1.31816E-01-4.54843E-01
 -1      1604 5.36884E-01 2.46932E-01 4.68401E-01 9.57774E-02-1.27212E-01-5.23693E-01
 -1      1605 2.06332E-01 1.58450E+00 2.21634E-01-8.93330E-02 2.50872E-02-2.61251E-01
 -1      1606-7.67406E-01-1.31360E+00-2.17686E-01 6.46001E-01 1.73330E-02-3.12958E-01
 -1      1607-7.41054E-01-4.85852E-01-5.18837E-01-8.52650E-02-4.61265E-02-4.58759E-01
 -1      1608 3.51263E-01 1.51098E+00 5.34601E-02 4.06723E-01 3.24813E-02-1.79937E-01
 -1      1609 2.33456E-01 1.38662E+00 7.15534E-02-4.85275E-01 8.71586E-03-9.58427E-02
 -1      1610 1.75609E-01 2.46523E-03 5.20024E-02-2.07857E-02-9.83699E-02-6.93160E-01
 -1      1611 1.94320E-01-4.76702E-03 5.33752E-02-1.85053E-02-1.23684E-01-7.51594E-01
 -1      1612-7.81277E-01-1.96324E-01-7.99503E-02 2.49334E-01 1.51981E-01-2.51042E-01
 -1      1613-6.03357E-01-8.35598E-02 3.47617E-02 1.51008E-01 2.29587E-01-2.57804E-01
 -1      1614 2.11872E-01 1.26728E-01 2.41289E-01-3.21014E-02-7.71826E-02-5.47284E-01
 -1      1615 1.39474E-01 1.55587E-02 1.46180E-01-9.63623E-02-1.00578E-01-5.71733E-01
 -1      1616 3.94435E-01 4.78469E-01 4.32134E-01-3.40522E-01 1.06589E-01-4.46778E-01
 -1      1617 3.50970E-01 4.07676E-01 4.23923E-01-3.12326E-01 1.48836E-01-3.66249E-01
 -1      1618 7.42444E-01 6.07604E-01 5.47639E-01 1.86943E-02 5.80271E-02-4.21100E-01
 -1      1619-7.96343E-01-1.85424E-01-1.12857E-01-2.76130E-01-1.72811E-01-3.27613E-01
 -1      1620-5.51232E-01 4.40236E-02 1.87881E-01-1.66712E-01-2.34862E-01-2.69589E-01
 -1      1621 7.44743E-01 2.46181E-01 2.78376E-01-2.57891E-01 2.38968E-01-4.19406E-01
 -1      1622 6.14339E-01 1.79109E-01 1.92424E-01-2.28396E-01 2.52384E-01-4.23630E-01
 -1      1623 2.49175E-01 1.26035E-02 1.09406E-01 1.71549E-02 8.50842E-02-6.86896E-01
 -1      1624 2.64726E-01 2.80178E-02 9.82939E-02 5.79963E-02 7.96915E-02-7.28134E-01
 -1      1625-1.91633E-01-1.13413E+00-2.30059E-01 2.65775E-01 7.66877E-02-1.13636E-01
 -1      1626-1.61252E-01-9.78982E-01-1.08753E-01 1.86771E-01 1.59798E-01-8.00940E-02
 -1      1627-1.41479E-01-6.95353E-03-1.83139E-01-6.68941E-03 8.03280E-02-5.86744E-01
 -1      1628-2.40648E-01 1.77797E-02-3.07310E-01-1.35388E-02 1.18381E-01-6.65262E-01
 -1      1629-6.58129E-01-3.40020E-01-1.27556E-02-2.23206E-01-1.13585E-02-1.61439E-01
 -1      1630 3.08105E-01 8.24668E-03 3.47321E-02 6.34785E-02 2.01157E-02-5.03117E-01
 -1      1631 2.81231E-01 5.82206E-03 4.96634E-02 4.78128E-02 4.20995E-02-6.00423E-01
 -1      1632-3.21181E-01-4.07135E-01-5.28054E-01-2.53991E-01-1.77037E-01-4.05090E-01
 -1      1633-3.75171E-01-3.72820E-01-6.04639E-01-3.32200E-01-2.42349E-01-3.61552E-01
 -1      1634 3.40407E-01 2.62497E-01 3.53241E-01 7.78172E-02-8.46524E-05-4.46406E-01
 -1      1635-6.87453E-01-8.09032E-01-5.58808E-01 4.45240E-01 2.58075E-01-2.78763E-01
 -1      1636-5.23758E-01-4.51538E-01-2.87173E-01 3.23622E-01 2.56131E-01-2.54512E-01
 -1      1637-2.26095E-01-8.57936E-01-7.28774E-02 1.09406E-01-1.69719E-02-1.19546E-01
 -1      1638-2.03306E-01-1.04920E+00-2.46257E-01 2.58492E-01 7.83820E-02-1.40942E-01
 -1      1639-1.83666E-01-7.30637E-01-1.50519E-01 2.04921E-01 7.99502E-02-5.06586E-02
 -1      1640 4.32456E-01 6.03499E-01 4.38865E-01-2.64150E-01 1.39146E-01-2.54383E-01
 -1      1641 1.96615E-01 4.47797E-01 2.54566E-01-2.63011E-01 1.84271E-01-2.02986E-01
 -1      1642 9.71131E-01 8.32536E-01 6.79202E-01 5.61709E-02-1.39216E-02-4.28338E-01
 -1      1643-3.38335E-01-5.16154E-02-2.99039E-01 1.05507E-01-4.49531E-02-5.82513E-01
 -1      1644-2.59565E-01-6.14652E-02-2.78980E-01 1.09604E-01-2.43948E-02-5.36078E-01
 -1      1645-7.60946E-01-2.31818E-01-1.79226E-01-1.61071E-01-9.37444E-02-2.48167E-01
 -1      1646-3.33474E-01-1.22345E-01-2.33880E-01 9.01102E-02-9.91207E-02-5.94394E-01
 -1      1647-1.77427E-01-3.76001E-02-1.11166E-01 9.52722E-02-9.81208E-02-6.09356E-01
 -1      1648 3.73010E-01 9.72788E-03 3.28911E-02-1.59402E-01-3.47293E-02-3.92222E-01
 -1      1649-5.40091E-01-2.31380E-01-1.10876E-01 3.62988E-02 1.90863E-02-2.27141E-01
 -1      1650 7.07916E-01 4.92917E-01 5.08967E-01-1.09047E-01-3.71824E-02-3.89689E-01
 -1      1651-2.23409E-01-2.12633E-01-1.65451E-01-1.26516E-01-1.19739E-02-4.60937E-01
 -1      1652 6.95751E-01 8.00963E-01 1.91121E-01-5.99008E-01 1.36881E-01-1.59307E-01
 -1      1653 4.84578E-01 5.28653E-01 9.35157E-03-4.60554E-01 2.03504E-01-8.10337E-02
 -1      1654 7.95412E-01 2.14300E-01 4.90917E-02-1.93411E-01 1.11156E-01-2.07733E-01
 -1      1655 4.28700E-01 2.23055E-01 3.38790E-01-7.37161E-02 1.52487E-01-5.00651E-01
 -1      1656 4.39096E-01 1.81946E-01 3.90227E-01-8.55061E-02 2.05504E-01-5.71827E-01
 -1      1657-3.53357E-02 2.64803E-01 1.44258E-01 2.22171E-01 8.39759E-02-2.88520E-02
 -1      1658-5.84973E-01-4.79540E-01-4.16273E-01 5.16515E-02 2.44488E-02-4.10937E-01
 -1      1659-2.31750E-01-3.67155E-01-4.29442E-01 2.28933E-01 1.79670E-01-3.42469E-01
 -1      1660-1.14148E+00-7.07106E-01-7.58464E-01-1.53366E-02-4.05679E-02-4.27557E-01
 -1      1661-6.16758E-01 2.49094E-02-3.92643E-02 2.52884E-01 6.72968E-02-1.32928E-01
 -1      1662-4.59170E-01-6.43097E-01-5.91188E-01 3.75053E-01 2.61992E-01-3.05541E-01
 -1      1663-2.80711E-01-3.60356E-01-3.64408E-01 3.05875E-01 2.69950E-01-2.08321E-01
 -1      1664-7.39646E-01-1.20649E-01 5.92532E-03-2.80970E-01-4.35700E-02-1.35858E-01
 -1      1665 3.81491E-02 3.13220E-02-6.91983E-02 7.70468E-02 2.43406E-02-4.04063E-01
 -1      1666-1.43022E-01 5.27007E-01-1.44421E-02 6.37948E-03 4.94214E-02-1.74813E-01
 -1      1667 6.25396E-01 1.15023E+00 2.31835E-01-5.94606E-01 5.05008E-02-3.32643E-01
 -1      1668-6.81716E-01-5.05528E-01-4.40220E-01-4.25688E-02-8.39406E-02-4.89619E-01
 -1      1669 3.66024E-01-1.27314E-02 5.49657E-02 1.17344E-01 8.38413E-02-3.85755E-01
 -1      1670 2.26062E-01-7.16321E-02-1.30380E-02 1.33379E-01 1.03687E-01-4.62801E-01
 -1      1671 5.57659E-01 7.50025E-02 2.05856E-02 5.92998E-02 8.52959E-03-2.59906E-01
 -1      1672-5.25140E-01-1.90184E-01-2.87275E-01 1.82726E-01 2.87151E-01-4.65515E-01
 -1      1673-4.00477E-01-1.24393E-01-1.54233E-01 1.08695E-01 3.44041E-01-4.25063E-01
 -1      1674 5.45218E-01 1.90324E+00 2.18674E-01 3.34088E-01-2.87006E-02-2.09929E-01
 -1      1675-3.29853E-01-2.70267E-01-2.74436E-01 1.01671E-01-7.93773E-03-3.90850E-01
 -1      1676-1.96020E-01-3.84554E-01-1.97210E-01-2.71521E-02-8.24519E-02-4.65238E-02
 -1      1677-1.00225E-01-2.63034E-01-9.42206E-02-7.87329E-02-4.20268E-02 1.51454E-02
 -1      1678 2.36708E-01 4.29887E-02 2.32738E-01-3.86540E-03 5.28401E-02-5.85880E-01
 -1      1679 4.20572E-01 1.63519E-01 3.69332E-01 6.53551E-02 2.67865E-02-6.40464E-01
 -1      1680 9.48881E-01 5.62768E-01 7.02815E-01-8.67645E-02 4.23148E-03-4.80678E-01
 -1      1681-3.71769E-01-1.18383E-01-5.99493E-02 5.47844E-03 1.63544E-03-2.21262E-01
 -1      1682-4.92376E-01-5.64783E-01-3.63053E-01-3.58499E-01-2.05192E-01-2.62902E-01
 -1      1683-3.45942E-01-3.19141E-01-1.88724E-01-3.18376E-01-1.89524E-01-2.68132E-01
 -1      1684 4.92114E-01 1.88203E-01 4.92648E-02-6.78303E-03-1.98356E-02-2.27213E-01
 -1      1685-6.15447E-01-7.92436E-01-3.62159E-01 5.07129E-01 1.81227E-01-2.54779E-01
 -1      1686-4.53244E-01-4.82336E-01-1.62996E-01 3.49691E-01 1.72314E-01-2.10220E-01
 -1      1687 1.48514E-01-1.48975E-01-2.64298E-02-2.65964E-02 1.26507E-01-6.66822E-01
 -1      1688 2.59838E-01 5.50139E-03 7.81881E-02 1.77450E-02 5.91477E-02-7.44422E-01
 -1      1689-1.25972E+00-9.76039E-01-8.59212E-01-1.55867E-02-1.20514E-01-3.97355E-01
 -1      1690 6.79058E-01 7.46532E-01 1.06500E-01-6.59630E-01-2.24915E-02-1.66497E-01
 -1      1691 2.46143E-01-1.77579E-01 8.22838E-03 2.35387E-02 7.37962E-02-2.11714E-01
 -1      1692 1.56135E-01 8.91011E-01 3.84662E-01-2.03299E-01-5.40448E-03-1.22508E-01
 -1      1693 2.21296E-01 8.22283E-01 3.56587E-01-1.89472E-01-2.42718E-02-5.59555E-02
 -1      1694-9.52424E-01-1.01183E+00-9.70814E-01 3.04903E-02 3.56018E-02-3.31071E-01
 -1      1695 6.08057E-01 3.98451E-03-1.38887E-02 2.59408E-01-9.20036E-02-1.39410E-01
 -1      1696-9.00058E-01-8.08175E-01-6.73211E-01-4.15080E-02 1.41127E-02-2.22703E-01
 -1      1697 9.44365E-01 8.79776E-01 7.84998E-01 4.94322E-02-6.84697E-02-3.47827E-01
 -1      1698 4.65362E-01 5.26449E-01 2.49625E-01 3.05321E-01-1.15690E-01-2.21385E-01
 -1      1699 7.15536E-01 1.28894E-01 9.71939E-02-2.62756E-01-2.46554E-02-1.65129E-01
 -1      1700 5.42084E-01 2.28187E-01-3.31352E-02-3.27371E-01 9.27423E-02-1.54179E-01
 -1      1701-2.60529E-01-1.27679E+00-2.06780E-01 2.50540E-01-6.17651E-03-1.07644E-01
 -1      1702-1.46141E-01-1.03960E+00-1.67127E-02 1.61479E-01 3.84902E-02-4.07867E-02
 -1      1703 6.85849E-01 6.50605E-01 6.35840E-01 3.23994E-03-9.71822E-02-3.82636E-01
 -1      1704-9.73631E-01-4.53862E-01-5.74108E-01-3.08675E-01-2.23601E-01-4.78111E-01
 -1      1705-6.40150E-01-1.17976E-01-2.92027E-01-1.82355E-01-1.85380E-01-4.86907E-01
 -1      1706 3.62185E-01 8.90769E-01 7.74183E-01-1.11329E-01 4.26362E-02-3.17806E-01
 -1      1707-1.95393E-02 7.62713E-01 7.24709E-01-8.57321E-02 1.22663E-01-1.72388E-01
 -1      1708 1.13822E+00 9.72824E-01 8.11084E-01-3.45715E-02-2.41098E-02-4.44152E-01
 -1      1709 9.08729E-02-2.41101E-01 1.18356E-01 2.49405E-01 5.78351E-02-6.70721E-02
 -1      1710-7.03732E-01-7.35924E-01-1.37261E-01 6.05724E-01 4.92421E-02-1.16311E-01
 -1      1711-7.42841E-01-3.10594E-01-5.24959E-02 3.31301E-01 6.85008E-02-2.36512E-01
 -1      1712 6.76030E-01 5.08258E-01 5.29058E-01-7.17952E-02-3.79356E-02-4.20396E-01
 -1      1713 2.12827E-01-3.15581E-03 3.00401E-02-2.64920E-02 1.09324E-01-6.47852E-01
 -1      1714 2.67234E-01 9.74062E-03 3.34406E-02-1.21399E-02 1.22754E-01-5.76222E-01
 -1      1715 9.85162E-02 8.44837E-02-1.20980E-01-1.06322E-01 4.08030E-03-1.87602E-01
 -1      1716 3.69456E-01 6.31706E-01 5.08606E-01-3.14766E-01 2.73722E-01-2.83387E-01
 -1      1717 2.74850E-01 4.89904E-01 3.55099E-01-2.69535E-01 2.91420E-01-1.82112E-01
 -1      1718-7.06819E-01-1.10003E+00-1.96560E-01 6.56513E-01 1.16887E-01-1.87171E-01
 -1      1719-5.58555E-01-1.13493E-01-2.20413E-01 1.72017E-01 2.65054E-01-5.79654E-01
 -1      1720-3.91060E-01-1.13588E-02-1.72763E-01 8.76673E-02 2.77877E-01-5.01528E-01
 -1      1721-4.09853E-01-6.24503E-01-3.70271E-01 3.56972E-01 1.65243E-01-2.67092E-01
 -1      1722-3.30179E-01-4.16422E-01-2.90574E-01 3.31851E-01 2.13769E-01-2.26216E-01
 -1      1723 1.72696E-01 1.40205E-01 7.33909E-04 7.99560E-02-8.45166E-02-2.59261E-02
 -1      1724 1.76864E-01 2.72900E-01 2.16137E-01 4.00431E-02-6.54394E-02-1.15573E-01
 -1      1725 5.75026E-01 1.80202E-01 3.47439E-01 1.92848E-01-2.73117E-01-5.46300E-01
 -1      1726 4.30392E-01 9.87422E-03 2.67960E-01 1.50622E-01-3.15117E-01-5.31772E-01
 -1      1727-7.41633E-01-2.81913E-01-3.02780E-01 1.95037E-01 1.63678E-01-4.42363E-01
 -1      1728-4.58249E-01-1.39025E-01-9.86867E-02 6.93012E-02 2.34663E-01-4.22383E-01
 -1      1729-1.75919E-01 1.60981E-01-1.31582E-01-2.57017E-01-7.95772E-03-7.78608E-02
 -1      1730 2.52177E-01 4.04633E-01 3.90301E-01 2.10642E-01-2.51980E-01-3.16342E-01
 -1      1731 1.58616E-01 3.40453E-01 3.73644E-01 2.52514E-01-3.22586E-01-2.72733E-01
 -1      1732 3.24806E-01 1.90587E-01 2.59913E-01-1.68710E-02-3.63159E-02-1.86754E-01
 -1      1733 1.77131E-01 3.70465E-02-4.40729E-02 1.57320E-02-1.30367E-01-7.94708E-02
 -1      1734 9.78675E-02 7.61031E-01 4.44875E-01-1.71531E-01 5.18699E-02-1.35457E-01
 -1      1735 7.31690E-02 6.66186E-01 4.12537E-01-1.71046E-01 5.37160E-02-6.51749E-02
 -1      1736 7.83733E-01 5.38061E-01 4.69733E-01-3.46394E-02-4.30481E-02-3.60709E-01
 -1      1737-3.34211E-02-2.87313E-01-1.35948E-01 2.22630E-01-9.41359E-02-4.43710E-02
 -1      1738 3.25059E-01 6.35422E-01 3.04580E-01-3.28146E-01 2.25647E-01-2.39199E-01
 -1      1739 2.28436E-01 6.09245E-01 2.54702E-01-3.40247E-01 3.13559E-01-2.02376E-01
 -1      1740 6.85262E-01 2.38428E-01 2.06273E-01 2.53116E-01-1.48466E-01-3.44514E-01
 -1      1741 4.02962E-01 3.23284E-02-1.06525E-01 1.89341E-01-1.78424E-01-2.85247E-01
 -1      1742-7.64879E-02 3.72549E-02-8.21028E-02 1.08367E-01-7.04697E-02-5.86990E-01
 -1      1743-3.15241E-01-2.94477E-02-2.13528E-01 7.51707E-02-7.17821E-02-5.74494E-01
 -1      1744 4.69045E-01 1.72872E+00 3.90850E-01-3.63349E-01 8.15243E-02-6.75374E-02
 -1      1745 2.38574E-01 1.11771E+00 1.78607E-02-3.22765E-01 5.54331E-02-1.32337E-03
 -1      1746 3.67166E-01 5.26832E-01 3.81311E-01 3.26914E-01-3.23452E-01-3.22265E-01
 -1      1747 2.96165E-01 3.52851E-01 2.62825E-01 2.42068E-01-3.55874E-01-2.35208E-01
 -1      1748 1.46558E-01-1.85429E-02-4.04809E-02-3.92097E-02-1.35314E-01-6.69976E-01
 -1      1749 2.17566E-01-6.55111E-03 4.53202E-02-5.17221E-02-2.01890E-01-6.85918E-01
 -1      1750 1.32806E-01 2.06849E-01 1.27749E-01-1.18634E-01-1.74335E-02-3.03108E-02
 -1      1751 1.89879E-01 2.88796E-01 2.17742E-01-7.04643E-02 3.49479E-02-1.16171E-01
 -1      1752-2.95106E-01-4.96328E-01-3.21646E-01-3.35215E-01-2.28873E-01-2.35489E-01
 -1      1753-4.38893E-01-5.63096E-01-4.20194E-01-3.65591E-01-2.65035E-01-2.16453E-01
 -1      1754-2.15709E-01-1.18556E-01-1.85029E-01-1.03152E-01-1.38134E-01-3.75629E-01
 -1      1755-3.07486E-01-1.29918E-01-3.04681E-01-1.75160E-01-2.80698E-01-4.59869E-01
 -1      1756 2.81674E-01 1.27526E-02 3.53120E-03 3.12437E-02 9.99610E-02-6.13640E-01
 -1      1757 1.85211E-01-3.27587E-02-3.53318E-02 6.85564E-02 9.84721E-02-6.46430E-01
 -1      1758 2.97011E-01 1.45691E-01 9.56048E-02-1.49874E-01-5.62720E-02-4.20143E-01
 -1      1759 7.55571E-01 7.93151E-02-3.51782E-02-3.34863E-01 1.72052E-01-2.49385E-01
 -1      1760 7.56365E-01 1.80459E-01 1.70750E-03-3.17652E-01 1.95678E-01-2.79775E-01
 -1      1761 3.86108E-01 6.18933E-01 3.90281E-01 3.28055E-01-3.15369E-01-2.93412E-01
 -1      1762 3.26714E-01 5.40787E-01 3.30075E-01 2.63595E-01-3.92482E-01-2.45680E-01
 -1      1763 3.40001E-01 5.50763E-01 3.89681E-01 3.50847E-01-3.32069E-01-3.28320E-01
 -1      1764 1.55087E-01 3.19431E-01 1.60637E-01 1.87064E-01-3.06166E-01-2.44988E-01
 -1      1765 1.05335E+00 9.54913E-01 8.86842E-01-1.97756E-02-4.78068E-02-3.91950E-01
 -1      1766-4.90403E-01-6.70244E-01 1.10496E-01 4.90890E-01 9.94500E-02-1.47880E-02
 -1      1767-5.87595E-01-7.66128E-01-1.03617E-01 5.87437E-01 7.14797E-02-1.04178E-01
 -1      1768-8.86852E-01-2.52887E-01-1.54291E-01-1.97310E-01-4.54705E-02-2.51288E-01
 -1      1769-5.87841E-01 1.35397E-02 9.34779E-02-1.26204E-01-1.57308E-01-2.10168E-01
 -1      1770 4.09031E-01 2.60101E-02 1.90498E-01-1.02636E-01-1.35185E-01-7.12118E-01
 -1      1771 2.78156E-01-2.35233E-02 1.39223E-01-1.17077E-01-1.11015E-01-6.57063E-01
 -1      1772 6.94073E-01 1.07468E+00 1.79588E-01-6.73825E-01 2.05529E-01-1.83324E-01
 -1      1773-8.14793E-01-8.02527E-01-6.95309E-01 2.41552E-02 4.58962E-02-4.11731E-01
 -1      1774-2.35901E-01-1.24523E+00-2.34669E-02 2.67555E-01-6.98363E-03-9.95971E-02
 -1      1775-5.41501E-02-5.18897E-01-5.24467E-02 9.59913E-02 7.47489E-02-6.59835E-02
 -1      1776 5.56535E-01 8.24451E-01 4.53001E-01-4.31044E-01 1.86249E-01-2.45898E-01
 -1      1777 2.89825E-01 6.60102E-01 2.48116E-01-3.53616E-01 2.02953E-01-2.12536E-01
 -1      1778-8.63976E-01-1.25902E-01-1.63580E-01 2.21593E-01-1.02662E-02-3.27254E-01
 -1      1779 1.02811E+00 1.01500E+00 8.96685E-01 9.94486E-02-7.27500E-02-4.19770E-01
 -1      1780-2.38156E-01-9.71116E-01-2.38606E-01 2.11659E-01 1.08763E-01-1.04612E-01
 -1      1781-1.73996E-01-1.13002E+00-3.20205E-01 2.57354E-01 6.36988E-02-1.71144E-01
 -1      1782 1.14686E+00 9.34158E-01 8.49512E-01 5.92900E-02-4.12629E-02-5.83216E-01
 -1      1783-1.92108E-01 4.66887E-02-1.08722E-02 8.64470E-02-1.22806E-01-5.41422E-01
 -1      1784-2.30461E-01-3.08755E-02-1.53328E-01 1.24105E-01-7.21822E-02-5.76498E-01
 -1      1785-5.93520E-01-4.94960E-01-5.19038E-01-1.94246E-01-5.96471E-02-5.98678E-01
 -1      1786-4.66622E-01-6.53388E-01-5.38147E-01 4.43566E-02-4.11662E-02-3.54182E-01
 -1      1787-7.44769E-01-9.97344E-01-1.10498E+00 5.76755E-02-3.10066E-03-4.48899E-01
 -1      1788-8.59061E-01-6.48410E-02-5.31056E-03-2.46825E-01-1.07725E-02-7.28651E-02
 -1      1789-2.74662E-01-1.12634E+00-4.72607E-01-1.98047E-01-1.69655E-01-1.03029E-01
 -1      1790-1.95962E-01-9.06309E-01-3.06131E-01-1.57833E-01-1.93114E-01-6.97983E-02
 -1      1791-3.72849E-01-2.72969E-01 7.72066E-02 2.08770E-01-3.43535E-02-2.25525E-01
 -1      1792-4.29606E-01 5.73076E-02-2.59364E-02 1.41170E-01-1.06406E-01-3.26958E-01
 -1      1793-3.77189E-01 3.42899E-02 3.35461E-03 1.73420E-01-9.33355E-02-3.67168E-01
 -1      1794-5.59443E-01-1.48587E-01-2.33927E-01 1.75629E-01 2.08171E-01-5.67710E-01
 -1      1795-2.83388E-01 1.36542E-02-5.97417E-02 5.67643E-02 2.20901E-01-4.81441E-01
 -1      1796-1.67448E-01-3.21200E-01-1.82857E-01 1.20871E-02 5.08693E-02-4.39606E-02
 -1      1797-2.00225E-01-3.77834E-01-1.99579E-01 8.43553E-02 1.52047E-02-3.65764E-03
 -1      1798 1.65937E-01 9.25782E-01 4.36647E-01-2.07200E-01 6.31187E-02-1.50107E-01
 -1      1799 8.63652E-02 7.53082E-01 3.64146E-01-1.92191E-01 7.68689E-02-8.19417E-02
 -1      1800-2.96002E-02 4.73071E-01 1.99359E-01-5.08927E-02 6.04273E-02-1.62718E-01
 -1      1801-1.16617E-01-1.64052E+00-1.33975E-01 7.78048E-02 1.70520E-02-8.46183E-02
 -1      1802 5.96336E-02 3.69088E-01 1.52630E-01-1.88227E-01-3.49538E-02-1.02991E-01
 -1      1803-4.51924E-01-2.86608E-03-9.31987E-02 1.34952E-01-6.43358E-02-4.35066E-01
 -1      1804-3.28697E-01 2.48003E-02 1.81876E-03 1.56031E-01-7.40216E-02-4.41087E-01
 -1      1805-7.28290E-01-1.41173E-01-1.34652E-02-1.16152E-01-8.43963E-03-2.62818E-01
 -1      1806-4.07637E-02-5.17351E-03 1.91395E-02 8.36048E-03-2.18128E-02-1.45438E-01
 -1      1807-1.46501E-01-1.61825E-01-2.48762E-01 2.95192E-02 4.10291E-02-1.99425E-01
 -1      1808 2.23044E-01 1.32412E+00 1.20019E-01-3.73653E-01 1.68276E-02-1.07807E-01
 -1      1809 2.47870E-01 1.29204E+00 6.22330E-02-3.24348E-01 6.25768E-02-2.64178E-02
 -1      1810 1.81085E-01 7.98483E-01 4.62347E-01 1.88906E-01-7.05534E-02-1.61319E-01
 -1      1811 1.46888E-01 6.81233E-01 4.02791E-01 1.54076E-01-7.96074E-02-1.12593E-01
 -1      1812-1.27266E-01-1.17060E-01-1.53039E-01-6.63402E-02 6.02557E-02-5.91597E-01
 -1      1813-3.79220E-01-2.10121E-01-3.89643E-01-8.13957E-02 7.32109E-02-7.17612E-01
 -1      1814-3.29852E-01-2.51515E-01-2.10557E-01-1.76330E-01 9.84287E-05-5.07724E-01
 -1      1815 3.57266E-01 1.63120E+00 4.25325E-03 6.33458E-01 4.27248E-02-1.65151E-01
 -1      1816 2.55198E-01 1.40793E+00 5.48862E-02-5.00450E-01 2.10944E-02 7.44900E-03
 -1      1817 8.55560E-01 3.76837E-01 1.83813E-01 3.06243E-01-1.00110E-01-2.00213E-01
 -1      1818-3.53397E-01-2.76905E-01-1.01006E-01-3.32755E-01-2.82263E-01-3.18246E-01
 -1      1819-4.06878E-01-4.51354E-01-2.10173E-01-3.60711E-01-2.74873E-01-3.12630E-01
 -1      1820 7.82381E-01 8.25018E-01 7.18971E-02-6.97298E-01 5.24341E-02-2.80310E-02
 -1      1821 6.30232E-01 6.70582E-01 6.76403E-01 4.96006E-02-1.38073E-01-4.07636E-01
 -1      1822 2.56783E-01 4.80482E-01 6.59150E-01 2.28810E-01-3.03710E-01-3.18747E-01
 -1      1823-7.11386E-01-8.17764E-01-1.78652E-01-7.07148E-01-2.78725E-02-1.99378E-01
 -1      1824 7.04417E-01 4.82631E-01 4.31032E-01 1.05755E-01-2.81945E-03-5.05244E-01
 -1      1825 2.60885E-02 1.57172E-01-1.10846E-02 2.19289E-02 2.82655E-02-1.85537E-01
 -1      1826-2.75784E-01-1.32532E+00-3.79234E-01-2.37315E-01-1.39814E-01-1.53112E-01
 -1      1827-2.34490E-01-1.02165E+00-2.35730E-01-1.79474E-01-1.66966E-01-1.02112E-01
 -1      1828 8.18326E-01 2.34712E-01 1.10213E-01-3.53086E-01 9.47399E-02-2.09601E-01
 -1      1829-6.38534E-01-5.59032E-01-4.45172E-01 1.13971E-01 6.43951E-02-4.85502E-01
 -1      1830 1.59823E+00 1.30556E+00 1.22862E+00-2.27838E-02-5.43445E-02-6.97400E-01
 -1      1831 3.80863E-01 1.57852E+00 1.98919E-01 2.40155E-01-1.65963E-02 6.25485E-02
 -1      1832 1.04294E+00 8.06003E-01 6.87009E-01-3.38654E-02-3.32920E-02-3.96372E-01
 -1      1833-7.61319E-01-7.31552E-01-3.74780E-01-4.07010E-01-1.32886E-01-3.01592E-01
 -1      1834-4.41962E-01-3.21347E-01-1.25640E-01-2.73857E-01-1.40924E-01-3.00049E-01
 -1      1835 2.27147E-01 1.39679E-01 9.78842E-02-2.15538E-01-2.21758E-02-4.91054E-01
 -1      1836 8.38036E-01 2.47143E-01 1.57330E-01 2.91952E-01-7.52473E-02-1.43264E-01
 -1      1837 6.11577E-01 8.48980E-02-8.54843E-02 2.02732E-01-7.07847E-02-9.86903E-02
 -1      1838 1.00752E+00 3.44436E-01 1.33537E-01 1.46818E-01-1.04986E-02-1.43333E-01
 -1      1839 4.17062E-01-9.01631E-02-3.84841E-02 1.37669E-01 7.05146E-02-2.98178E-01
 -1      1840-1.09648E+00-1.04961E+00-9.45046E-01 1.15210E-03-2.76646E-02-3.33314E-01
 -1      1841-3.73356E-01-2.74155E-01-2.83510E-01-1.41428E-02-3.39730E-02-4.73883E-01
 -1      1842-2.37502E-01-9.37682E-02-3.10478E-01-1.15243E-01-1.52758E-01-4.72688E-01
 -1      1843 4.99833E-01 1.40941E+00 2.52739E-01 4.04416E-01-8.86480E-02-1.99808E-01
 -1      1844 1.53452E+00 6.74466E-01 5.69304E-01-4.00262E-02 2.13300E-02-2.61025E-01
 -1      1845 5.53926E-01 5.03728E-01 4.01182E-01-9.99233E-02 2.00505E-02-4.95794E-01
 -1      1846 7.46525E-01 6.72649E-01 8.10280E-01-1.61640E-01 4.38364E-02-5.41968E-01
 -1      1847-2.45038E-01-9.11053E-01-5.60873E-01-1.36917E-01-1.51666E-01-1.32511E-01
 -1      1848-1.30651E-01-6.65601E-01-3.78071E-01-1.55051E-01-1.48779E-01-8.74796E-02
 -1      1849-3.37209E-01-1.25868E+00-9.22250E-02-2.39952E-01-1.25895E-01-1.13596E-01
 -1      1850 2.58729E-01 1.72501E+00 1.69090E-01-2.63430E-01 1.04948E-01-8.06152E-02
 -1      1851-3.26584E-01-1.33812E+00-2.60151E-01-2.45278E-01-1.95931E-02-1.05390E-01
 -1      1852-1.96605E-01-9.59475E-01 1.23051E-02-1.08484E-01-6.58195E-03-6.15830E-02
 -1      1853 9.00527E-01 1.74677E-01 1.68481E-01 2.41185E-01-8.11249E-02-1.59705E-01
 -1      1854-6.56177E-01-7.63601E-01-1.72521E-01-5.29197E-01-1.63583E-01-1.74541E-01
 -1      1855-4.48513E-01-5.82777E-01-1.10620E-02-4.19516E-01-2.28905E-01-1.10986E-01
 -1      1856 5.14645E-01 1.83616E+00 4.82068E-01 3.89513E-01 7.41488E-04-1.04968E-01
 -1      1857 4.29228E-01 1.47714E+00 2.37244E-01 3.57884E-01-3.98007E-02-2.26404E-02
 -1      1858-2.06557E-01-9.84849E-01-4.61530E-01-1.50948E-01-1.15007E-01-1.23198E-01
 -1      1859-1.05516E-01-6.65121E-01-2.94070E-01-7.49747E-02-9.79205E-02-9.66063E-02
 -1      1860-9.01998E-01-6.42565E-01-5.86249E-01-1.33005E-01-1.89959E-01-5.27222E-01
 -1      1861 1.17963E+00 9.15711E-01 9.02813E-01 4.90809E-03-5.19126E-02-5.70066E-01
 -1      1862-6.33817E-01-9.49363E-01-3.62765E-01 5.07592E-01 2.62813E-01-2.66743E-01
 -1      1863-3.61924E-01-5.39987E-01-1.46109E-02 3.48572E-01 2.66907E-01-1.96849E-01
 -1      1864-8.44529E-02-6.61942E-01-4.02310E-01-1.32673E-01-1.61116E-01-1.21584E-01
 -1      1865-2.22985E-01-8.78401E-01-5.53642E-01-1.50953E-01-1.63812E-01-1.93318E-01
 -1      1866-6.86213E-01-5.12764E-01-4.55977E-01 7.21444E-02 3.02969E-02-4.75132E-01
 -1      1867-1.29791E+00-8.62180E-01-8.23567E-01 1.16679E-02 3.61524E-02-4.27631E-01
 -1      1868 1.21774E+00 1.14215E+00 1.14233E+00 1.93140E-02-9.48947E-02-5.90552E-01
 -1      1869 1.81951E-01 2.38848E-01-1.39016E-01-4.51177E-01-6.90326E-02-2.56661E-01
 -1      1870-6.27768E-01-1.95914E-01-1.05827E-01-7.31375E-02 4.52033E-02-2.73975E-01
 -1      1871 3.32876E-01-3.05676E-02-2.09398E-02 1.31379E-01 7.53526E-02-3.70145E-01
 -1      1872 4.18573E-01 8.42997E-05 2.30163E-02 1.45531E-01 6.45346E-02-2.88065E-01
 -1      1873-2.49440E-01-1.04566E+00-4.98271E-01-2.23515E-01-1.76904E-01-1.26981E-01
 -1      1874-2.02983E-01-7.54560E-01-3.28929E-01-2.24864E-01-1.54987E-01-9.82640E-02
 -1      1875 9.95684E-01 9.16490E-01 5.88762E-01-2.44928E-02-1.42607E-02-3.97781E-01
 -1      1876-3.42777E-01 1.73640E-01 1.59831E-01-5.97844E-02 8.78402E-02-2.88027E-01
 -1      1877-3.19139E-01-5.21371E-01-2.23687E-01-2.67870E-01-1.65846E-01-1.68045E-01
 -1      1878 1.13672E+00 8.84421E-01 9.20261E-01-4.49427E-03-7.36863E-02-5.90157E-01
 -1      1879-7.16412E-01-1.37489E-01 1.98339E-02 2.26190E-01 1.57965E-01-2.47662E-01
 -1      1880-8.40531E-01-1.66319E-01-9.26415E-02 2.36009E-01 9.70400E-02-2.15322E-01
 -1      1881-4.81896E-01-6.41726E-01-4.14661E-01-3.51338E-01-2.75194E-01-2.84009E-01
 -1      1882-3.17026E-01-3.88354E-01-1.85002E-01-3.03065E-01-3.05851E-01-2.04082E-01
 -1      1883 8.00956E-01 1.67105E-01 5.41532E-02-2.67869E-01 8.17887E-02-1.96057E-01
 -1      1884 7.45558E-01 1.46942E-01-6.44597E-03-3.17232E-01 1.40641E-01-1.94199E-01
 -1      1885 5.07537E-01 6.66386E-01 3.29840E-01 3.89075E-01-2.68924E-01-2.84875E-01
 -1      1886 4.21533E-01 5.12821E-01 2.08316E-01 3.71419E-01-3.40481E-01-2.75653E-01
 -1      1887 7.04082E-01 8.01401E-01 1.59469E-01-6.28506E-01 8.85764E-02-1.53311E-01
 -1      1888 6.03916E-01 7.28984E-01-1.64888E-03-5.16619E-01 1.89165E-01-9.67734E-02
 -1      1889-5.05477E-01-2.64339E-01-3.50610E-01 1.51116E-01 2.38865E-02-4.04044E-01
 -1      1890-5.40690E-01-5.77741E-01-4.83913E-01-1.01144E-01-7.53738E-02-4.38417E-01
 -1      1891-3.61718E-01-4.56801E-01-7.28316E-01-2.99928E-01-2.15231E-01-4.26320E-01
 -1      1892-9.23657E-01-7.39280E-01-6.36587E-01 8.21228E-03 6.87780E-02-4.94687E-01
 -1      1893 7.88393E-01 6.14623E-02 9.39845E-02-2.67761E-01-5.99106E-02-3.29188E-01
 -1      1894 2.85546E-01 5.57464E-02 3.97433E-01-2.21338E-02 3.80873E-02-6.57217E-01
 -1      1895 3.05522E-01 6.42183E-02 3.82850E-01 1.18224E-02 3.07048E-02-7.06464E-01
 -1      1896 2.74490E-01 1.25702E+00 5.13519E-01 2.17402E-01-1.18622E-01-1.10904E-01
 -1      1897 1.28614E-01 9.54579E-01 2.59026E-01 1.73141E-01-1.12588E-01-9.45261E-02
 -1      1898-4.59044E-01-3.58857E-01 1.64730E-02-1.89390E-01-1.18159E-02-1.40178E-01
 -1      1899 3.45324E-01 3.17651E-02 2.46904E-01-1.15784E-01-5.52194E-02-7.47898E-01
 -1      1900 1.79729E-01-4.37197E-02 4.12371E-02-1.77859E-01-8.38950E-02-6.91230E-01
 -1      1901 2.09348E-01 9.36522E-01 2.90870E-01 1.42464E-01-1.21726E-01-1.15457E-01
 -1      1902 4.52315E-01 1.47624E+00 6.21354E-01 2.53309E-01-1.31850E-01-1.32484E-01
 -1      1903 3.16798E-01-9.87082E-02-9.32510E-02 1.43771E-01 6.79635E-02-2.98072E-01
 -1      1904 9.67377E-01 2.70456E-01 2.32172E-01-2.93626E-01 3.90669E-02-2.12048E-01
 -1      1905 7.18483E-01 4.00239E-01 5.51614E-01 2.16458E-01-8.19110E-02-5.72096E-01
 -1      1906-1.32171E-01-5.36481E-01 8.27589E-02-7.34368E-02-8.47210E-03-6.83299E-02
 -1      1907 1.28158E-01 9.77716E-01 4.30892E-01 1.94912E-01-9.49244E-02-1.33072E-01
 -1      1908-3.25572E-02 8.04330E-01 3.02223E-01 1.71350E-01-9.81949E-02-1.09894E-01
 -1      1909-1.09525E-01-1.25878E+00-4.13688E-02-3.11438E-01-7.01993E-03-9.56896E-02
 -1      1910-9.32052E-03-2.36769E-01 2.30235E-02-2.35613E-01 1.03215E-02-6.41261E-02
 -1      1911 2.82567E-01 4.54183E-01 3.90230E-01 1.39796E-02 6.02647E-02-7.63381E-02
 -1      1912 2.23465E-01 3.89220E-01 2.54550E-01-4.63834E-02-1.20549E-02-1.47335E-05
 -1      1913 6.95950E-01 7.85932E-01 2.37157E-01 6.89584E-01-5.20539E-02-1.90610E-01
 -1      1914 6.15258E-01 7.16246E-01 1.56204E-01 5.17116E-01-1.01556E-01-1.67078E-01
 -1      1915 4.44657E-01 5.74014E-01 7.87547E-03 4.30125E-01-1.42338E-01-1.24786E-01
 -1      1916-2.41934E-01-9.68755E-03-2.18935E-01 2.59208E-01-6.88634E-03-1.28461E-01
 -1      1917-2.57733E-01-1.33560E+00-3.46728E-01-2.89235E-01-7.29263E-02-1.40651E-01
 -1      1918-2.57578E-01-1.03431E+00-1.75039E-01-2.24038E-01-8.54380E-02-8.06690E-02
 -1      1919-6.57469E-01-6.52927E-01 3.96637E-02-6.83698E-01-4.33773E-02-8.34965E-02
 -1      1920 2.75041E-01 1.43980E-01 8.28671E-02-2.62888E-01-5.77924E-02-4.16201E-01
 -1      1921-1.25743E-01-1.00126E-01 3.45532E-02-9.77600E-02-8.18513E-02 1.07631E-02
 -1      1922-9.46609E-02-1.86492E-01-1.24155E-01-8.35448E-02-8.91855E-02-6.50787E-02
 -1      1923-5.42045E-02-3.29253E-02 2.32875E-02 1.31375E-02 8.90791E-02-1.16022E-01
 -1      1924-1.57963E-01-1.53053E-01-2.47308E-01-4.56230E-02-4.38798E-02-1.88477E-01
 -1      1925-4.75883E-01-3.29046E-03-5.92165E-03 2.16610E-01-6.18927E-02-2.84056E-01
 -1      1926-4.54148E-01 4.67247E-02-1.50473E-02 1.80988E-01-8.01379E-02-3.27836E-01
 -1      1927 4.54282E-01 9.05627E-01 7.10391E-02 4.76626E-01-1.24915E-01-1.55037E-01
 -1      1928-3.69149E-01 1.93935E-01 1.16335E-02 1.63821E-01-5.80750E-02-2.57241E-01
 -1      1929 2.70148E-01 2.16089E-01 1.81263E-01-5.59907E-02 1.64288E-02-1.45421E-01
 -1      1930 2.25126E-01 6.14035E-02-7.06856E-02-5.28762E-02 8.47593E-02-1.17284E-01
 -1      1931-4.36915E-01 5.88501E-02 8.77436E-03 1.63529E-01-5.48403E-02-3.19123E-01
 -1      1932 7.54030E-01 5.21175E-01 4.85596E-01 6.45607E-02 2.76153E-02-5.48959E-01
 -1      1933-1.06563E+00-4.57112E-01-2.56108E-01-5.18577E-02 4.36785E-02-2.75816E-01
 -1      1934-5.27658E-01-9.11434E-01-1.64027E-01-5.27794E-01-1.95144E-01-1.91354E-01
 -1      1935-3.00537E-01-1.59257E+00-1.43476E-01-1.80644E-01-7.24432E-02-5.05920E-02
 -1      1936 8.06722E-01 8.31006E-01 2.86597E-01-6.36194E-01 1.55908E-01-2.56660E-01
 -1      1937 4.59820E-01 5.00272E-01-1.96138E-02-4.12009E-01 2.12029E-01-1.60337E-01
 -1      1938-6.57579E-02-8.59873E-01-3.94499E-01 7.71711E-04 1.79651E-01-1.49817E-01
 -1      1939 1.76475E-01 9.33350E-01 6.31598E-01-1.66407E-01 1.32766E-01-3.11085E-01
 -1      1940 1.81677E-02 6.94366E-01 4.61618E-01-1.14256E-01 1.31580E-01-2.16167E-01
 -1      1941-3.36809E-01-1.43010E+00-1.17956E-01-3.09218E-01-4.40984E-02-5.73034E-02
 -1      1942-2.31080E-01-9.74140E-01 1.23829E-01-1.93785E-01-3.03108E-02-1.99129E-02
 -1      1943 2.97562E-01 4.60873E-01 2.72686E-01 1.54544E-02-5.80776E-02-8.83448E-02
 -1      1944 2.09212E-01 4.37178E-01 1.46767E-01 5.16871E-02-2.11570E-02-1.99099E-02
 -1      1945-9.41308E-01-1.74298E-02-3.80468E-02 2.54428E-01 1.31179E-01-2.08016E-01
 -1      1946-4.80193E-01-7.65769E-01-2.98421E-01 4.20975E-01 1.16386E-01-2.22004E-01
 -1      1947-2.13173E-01-1.00412E-01-7.26973E-02 1.78542E-01-1.25928E-02-3.47862E-01
 -1      1948-4.59965E-02 4.24650E-01 2.88066E-01-4.43736E-01 2.63736E-02-1.44903E-01
 -1      1949 1.01050E-01 5.34126E-02 2.40989E-02 2.25545E-01-2.28233E-02-4.33327E-01
 -1      1950 9.62911E-01 8.86801E-01 3.46622E-01 6.81699E-01-1.16395E-01-1.83461E-01
 -1      1951-2.01286E-01-2.06033E-01-2.22914E-01 7.47437E-03 2.31781E-02-1.55780E-01
 -1      1952-2.50549E-01-6.48052E-02 8.94539E-03 6.05824E-02 1.08116E-01-1.33364E-01
 -1      1953-1.29910E-01-1.25236E-01 5.69829E-02 1.14603E-01 1.02328E-01-3.15440E-02
 -1      1954-2.77588E-01-3.80051E-01-2.70535E-01 1.03483E-01 1.03094E-01-9.12906E-02
 -1      1955-2.49317E-01-2.39920E-01-2.42894E-01-3.80719E-02-4.25524E-03-1.48874E-01
 -1      1956-1.88177E-01-9.42029E-02 1.38040E-02-2.02676E-02-5.41766E-02-9.50601E-02
 -1      1957 4.26924E-02 2.15436E-02-6.48420E-02 8.64717E-03 4.53346E-02-1.23944E-01
 -1      1958 1.75765E-01 1.79638E-01 1.93509E-01 2.05835E-02-3.67197E-02-1.66523E-01
 -1      1959 6.07030E-02 7.10980E-01 3.14258E-01 7.28724E-02-1.20327E-01-1.92586E-01
 -1      1960-4.07379E-01-1.36442E+00-6.25504E-02-4.97008E-01 1.17078E-02-4.36216E-02
 -1      1961-3.77028E-01-1.40207E+00-1.95394E-01-3.51963E-01-6.31307E-02-1.42279E-01
 -1      1962-7.62489E-03-4.69605E-02-1.48460E-01 8.98856E-03-6.83092E-02-1.39833E-01
 -1      1963 1.23202E-01 1.29015E-01 1.66180E-01-1.38169E-02 1.99464E-02-1.89536E-01
 -1      1964 9.82424E-01 6.50722E-01 1.93798E-01 3.75351E-01-1.59800E-02-2.39793E-01
 -1      1965-2.08048E-01-8.40760E-02-4.44838E-02-3.80648E-02 1.07500E-01-4.13385E-03
 -1      1966 6.77835E-02 9.00790E-02 6.85600E-02 1.39854E-02 2.84153E-02-8.27525E-02
 -1      1967-1.70770E-01-1.16048E-01 8.59193E-03-2.61549E-02-2.14494E-01 1.47609E-01
 -1      1968-5.63491E-02-6.17872E-02-6.38830E-02-3.36509E-02 1.11262E-02-8.13041E-02
 -1      1969 2.38855E-01 1.32352E-01 1.08029E-01-5.42772E-02-4.85625E-02-5.59841E-02
 -1      1970-1.24776E-01-1.59361E-01-1.20710E-01 5.60157E-02 1.22366E-01 2.07347E-01
 -1      1971 4.28263E-02 6.34573E-02-5.38152E-02 2.48877E-02 1.53293E-01 1.87503E-01
 -1      1972 2.61580E-01 1.68212E-01 1.81832E-01 6.54121E-03-8.28921E-02 9.89620E-02
 -1      1973-3.99484E-03-1.50847E-02-8.56577E-02 4.79161E-03 2.28620E-01 3.18753E-01
 -1      1974-4.50408E-02-3.11149E-02-2.60492E-02 1.84152E-02-9.23507E-02 5.07913E-03
 -1      1975 1.51560E-01 1.38220E-01 1.34391E-01 4.19289E-02 2.77219E-01 2.22534E-01
 -1      1976 8.30109E-03 1.39886E-01 7.55794E-02 5.18480E-02 1.90033E-01 1.46058E-01
 -1      1977-3.40348E-02 3.95840E-02-2.91563E-02-1.18648E-02 1.53534E-01 5.05835E-02
 -1      1978 2.86692E-02 6.79993E-02 2.93908E-02-4.44919E-02 7.79252E-02-2.97401E-02
 -1      1979 3.09936E-02 1.98231E-02 4.54681E-02-3.56446E-02 2.68885E-03-2.81703E-02
 -1      1980 2.04708E-02-6.20974E-02-4.50184E-02-3.35508E-02-1.08128E-01-1.33796E-03
 -1      1981-6.35783E-03-1.81746E-02 3.30774E-02-3.74328E-03-1.58502E-01 4.45136E-02
 -1      1982 7.27353E-02 7.50193E-03-4.73047E-03-3.59273E-02-7.52530E-02-3.39580E-02
 -1      1983-4.98686E-02-1.61956E-01-1.63101E-01 2.35305E-02-2.37402E-01 1.17108E-01
 -1      1984 2.69604E-01 2.17008E-01 5.80800E-02 4.49725E-02 1.41963E-01 3.47635E-01
 -1      1985 2.92721E-02 4.03884E-02-7.37029E-02 7.86955E-02 1.93178E-01 2.97546E-01
 -1      1986 1.19548E-01 1.24250E-01 2.20718E-01-2.51106E-02-2.70071E-02 5.72825E-01
 -1      1987 1.72628E-01 3.12665E-02 6.07103E-02-2.17831E-02-9.58369E-02 4.23947E-01
 -1      1988 1.93010E-01 6.99439E-02 2.03947E-01 4.46611E-02 8.89736E-02 3.87553E-01
 -1      1989 2.73081E-01 2.62829E-01 1.93375E-01-1.79721E-02-2.25988E-01 4.96167E-01
 -1      1990 1.25390E-02 9.57215E-04 6.78972E-02-4.84941E-02-2.15806E-01 2.43262E-01
 -1      1991 1.33705E-01 1.50294E-01 1.77392E-01-1.77059E-02-2.68167E-01 2.60343E-01
 -1      1992-2.25134E-01-2.05525E-01-2.45455E-01-8.01802E-02 2.47286E-01 3.13645E-01
 -1      1993-1.64401E-02 7.03462E-02 9.76039E-02-2.46035E-02-2.29678E-01 1.17587E-01
 -1      1994 9.12540E-02 1.99403E-01 8.59609E-02 2.93408E-02-1.42897E-01 2.93966E-02
 -1      1995 3.31906E-02 5.55665E-03-3.97577E-02 3.30928E-02 9.85728E-02-1.07647E-02
 -1      1996 4.78913E-02 1.05326E-01 8.93838E-02 3.61248E-02-8.00871E-02 1.03239E-02
 -1      1997 1.70033E-01 1.83412E-01 7.76542E-02 3.82751E-02 9.98608E-02 2.45929E-03
 -1      1998 2.73846E-02 1.69140E-02 1.72648E-03 1.64998E-02-1.99239E-04-2.24171E-02
 -1      1999-3.34845E-03-2.27808E-02-1.04985E-01 3.80138E-02 1.15053E-01 1.78859E-02
 -1      2000 5.61782E-02-1.53334E-02 5.15435E-02 2.61987E-02 1.84570E-01 6.37181E-02
 -1      2001-6.19536E-03-1.14106E-01-4.93572E-02-4.81829E-02 1.97779E-01 1.25498E-01
 -1      2002-7.18062E-02-1.67274E-01-1.77861E-02-2.21096E-02 2.16559E-01 2.34363E-01
 -1      2003 4.67761E-02 3.11848E-02 1.18702E-01-4.61077E-03-2.14989E-01 1.65840E-01
 -1      2004-9.99681E-02-1.07633E-01-5.55789E-02-8.87898E-03 1.91995E-01 3.63142E-01
 -1      2005-1.71658E-01-1.80514E-01-1.03566E-01 3.97111E-02-2.69218E-01 2.06071E-01
 -1      2006-3.23618E-02-2.25517E-02-5.17827E-02-6.14794E-03 2.91942E-01 3.85835E-01
 -1      2007-5.97172E-02-6.94513E-02-1.38039E-01 3.29689E-02-2.68301E-01 3.46703E-01
 -1      2008-2.12321E-01-1.75859E-01-9.86695E-02 3.57431E-02-1.61728E-01 3.44502E-01
 -1      2009-8.05471E-02-9.69017E-03-2.69371E-01 2.90599E-02 7.81403E-02 4.14626E-01
 -1      2010-1.94448E-01-1.23851E-01-7.98134E-02-8.14962E-04-2.27818E-02 4.48023E-01
 -1      2011 2.17370E-01 1.66455E-01 1.91785E-01-2.03230E-02 5.54678E-02 2.30360E-01
 -1      2012-2.85115E-01-2.13393E-01-3.55517E-01 2.56074E-02-3.57501E-02 5.58081E-01
 -1      2013-2.52845E-02-1.75867E-02 1.10675E-03-6.21363E-03-2.49487E-03-2.16797E-01
 -1      2014 7.21839E-02 4.57892E-02 7.94904E-02-3.77667E-02-1.60005E-01 6.24590E-02
 -1      2015 1.00756E-01 1.85172E-01 1.70196E-01-3.11953E-03-1.89169E-01 5.19101E-02
 -1      2016 7.23169E-02 5.83036E-02 3.61118E-02-2.94045E-02-7.55092E-02-6.06375E-03
 -1      2017-3.02970E-01-2.47849E-01-2.55688E-01 3.94176E-02-2.60637E-01 4.58040E-01
 -1      2018-2.05488E-01-1.44483E-01-5.63558E-02 4.09113E-02 5.14073E-02 5.61517E-02
 -1      2019-8.59130E-02-2.73025E-02-6.24774E-03 1.12360E-02 6.94391E-02-1.36114E-02
 -1      2020-1.85275E-02-1.34262E-01 7.11122E-02-2.33640E-02-8.33097E-02-9.43963E-03
 -1      2021-8.80220E-02-2.34143E-01-5.73119E-02-1.83347E-03 3.06365E-02 7.72656E-02
 -1      2022-1.19660E-01-2.00776E-02 2.02295E-02 6.39431E-04-8.86494E-02-9.33933E-03
 -1      2023-1.10442E-01-1.91737E-01-1.17493E-01 1.25379E-03 1.69640E-01 8.91987E-02
 -1      2024 1.69391E-01 2.29792E-01 2.79779E-01-8.55960E-03-3.14577E-01 2.40781E-01
 -1      2025 9.72919E-02 1.17274E-02-3.09032E-02-6.21535E-02-2.57679E-01 3.12662E-01
 -1      2026-2.46449E-01-1.28979E-01-6.03523E-02 1.35913E-01-6.17022E-03-5.48395E-02
 -1      2027-1.35018E-01-4.93244E-02-1.17764E-01 4.78561E-02-1.68901E-01 4.40929E-01
 -1      2028-6.72652E-03 8.38847E-02 4.01153E-02-1.18793E-02-1.38392E-01 4.04797E-01
 -1      2029-1.53615E-01-4.62242E-02 1.00359E-02-7.43439E-03 1.18597E-01 3.78646E-01
 -1      2030-1.06110E-01-1.11137E-01-1.03818E-01 1.66742E-02 1.15259E-03 3.14239E-01
 -1      2031 3.51231E-01 2.63388E-01 1.40104E-01 4.99716E-02 9.15637E-02 4.05993E-01
 -1      2032-1.77490E-02-4.19005E-02-1.86167E-02 2.36859E-02 1.51383E-01 9.06525E-03
 -1      2033 1.32185E-02 4.46194E-02-1.57098E-01 3.32582E-02 4.79803E-02 3.53504E-01
 -1      2034 8.02350E-02 1.36146E-01 1.21907E-01 8.89478E-03-1.59146E-01 1.39651E-02
 -1      2035-4.66732E-02-4.33467E-02-8.45644E-02-3.66670E-02-1.95374E-01 3.23099E-01
 -1      2036 7.33069E-02 9.94191E-02 1.27011E-01 1.19383E-02-9.72812E-02-1.82003E-02
 -1      2037-7.07851E-02-7.21827E-02-7.20971E-02 3.89589E-02-1.70243E-01 1.56414E-01
 -1      2038 4.39936E-01 3.26311E-01 3.93999E-01 1.94678E-03-6.73674E-02 6.14253E-01
 -1      2039 6.25095E-02 1.00694E-01-2.76236E-02-1.69046E-02-2.54510E-01 8.32556E-02
 -1      2040 8.75181E-02 8.41564E-02-4.98460E-02-4.96975E-02 2.35256E-01 2.79695E-01
 -1      2041 2.71634E-01 1.22446E-01 3.82533E-02 8.48748E-02 1.77489E-01 3.97129E-01
 -1      2042-9.25026E-02-1.31793E-01-1.33187E-01 1.29947E-03 1.73456E-01 4.43382E-02
 -1      2043 5.37077E-03-2.07913E-02-7.47152E-02 3.73083E-03-1.91392E-01 2.05447E-02
 -1      2044 1.10898E-01 8.31892E-03-3.51309E-02-1.64623E-02-2.70180E-02 5.03740E-01
 -1      2045-9.38732E-02-7.24824E-02-5.74602E-03-3.77745E-02-1.33688E-01 1.09510E-01
 -1      2046-4.15669E-01-1.73134E-01-1.06892E-01-4.84590E-02 1.61177E-02-1.00188E-01
 -1      2047 1.13242E-01 1.31144E-02 2.95520E-02 3.46739E-02 6.74051E-02-2.42263E-02
 -1      2048 2.94899E-02 4.93194E-03-8.63213E-03-7.67165E-03-2.59891E-01 1.44370E-01
 -1      2049-7.77722E-03-1.33362E-01-1.18188E-01 6.72620E-02-2.42870E-01 2.56826E-01
 -1      2050-3.87033E-02-5.16746E-03-3.12449E-03 7.91553E-03-2.08870E-01 1.40559E-01
 -1      2051 7.96314E-02 6.89334E-02 1.98560E-02-3.43294E-02 1.49233E-01 1.42650E-01
 -1      2052-4.94622E-02 5.50624E-02 7.34586E-02 2.14975E-02-2.43774E-01 2.18744E-01
 -1      2053-1.07028E-01-2.43503E-03-2.28158E-02-5.18935E-03 1.30866E-01 4.29877E-02
 -1      2054 2.11068E-01 1.72881E-01 4.66084E-03 3.46673E-02-7.69992E-02-2.23753E-02
 -1      2055 1.89927E-01 2.10266E-01 7.93681E-02 2.28656E-02 1.50237E-02 7.54293E-02
 -1      2056 2.38856E-01 3.02798E-01 2.73251E-01-3.66468E-02-3.26769E-01 3.33576E-01
 -1      2057 8.57761E-02 1.15760E-01-2.25185E-02 4.78387E-02-5.49230E-02 3.75274E-01
 -1      2058-3.96535E-01-4.69469E-01-4.24385E-01 6.93492E-02-3.19884E-01 3.63394E-01
 -1      2059 4.24203E-02 5.42503E-02 4.27346E-02 6.81498E-02 1.10026E-02-2.96889E-02
 -1      2060-7.06848E-02-7.56342E-02-2.79106E-02-1.26943E-02 2.32068E-01 1.70240E-01
 -1      2061 7.47042E-01 4.81247E-01 1.02541E-02 6.68425E-02 8.11558E-03-1.05557E-01
 -1      2062-4.39015E-02-7.06868E-02-5.70122E-03 1.37155E-02-2.49313E-01 2.77587E-01
 -1      2063-3.25718E-02 4.46025E-02-1.58361E-02-1.65838E-02 8.69045E-02 1.74997E-02
 -1      2064-1.73466E-02-5.50739E-02-3.00562E-02-3.46394E-02-7.33501E-02-2.14244E-02
 -1      2065-1.36323E-01-1.24853E-01-9.86986E-02-7.73485E-02-4.49080E-02 4.77198E-01
 -1      2066 3.06619E-01 3.87484E-01 2.76923E-01 6.77510E-02 3.06875E-01 3.58130E-01
 -1      2067-4.56926E-02-5.59897E-02 4.31718E-02-3.66952E-03-8.54553E-02 2.35620E-01
 -1      2068-3.71807E-01-2.44199E-01-2.31925E-01 9.19653E-03-1.16326E-02-5.60172E-02
 -1      2069-4.13960E-02 1.71628E-02 9.85271E-03-1.02829E-02-2.14378E-01 8.45089E-02
 -1      2070 1.59204E-02-6.59686E-02-7.37935E-02-3.41097E-02 2.28272E-01 1.44949E-01
 -1      2071 1.22900E-01 1.69421E-01 1.70196E-01-4.17555E-02-3.08559E-02 3.10122E-01
 -1      2072-6.26368E-02 2.50069E-02 1.74187E-02-3.34164E-02 1.53479E-01-5.18567E-02
 -1      2073-1.31637E-02 2.85004E-02 2.35128E-03-1.68321E-02 8.06549E-02-4.52401E-02
 -1      2074-1.24114E-01-8.01256E-02 3.22096E-02-8.36903E-02-1.04832E-03-5.63600E-02
 -1      2075-3.87659E-02-4.02799E-03 1.50619E-02 3.66465E-02-5.33825E-03-2.89990E-02
 -1      2076-7.72447E-02-4.51519E-02-9.70117E-02 1.01747E-02 1.96744E-01 7.61688E-02
 -1      2077 1.12510E-01 4.81985E-02 1.31616E-01-3.89197E-02-6.99592E-02 5.01821E-01
 -1      2078 3.41068E-01 3.20835E-01 3.95822E-01-5.67497E-02-2.50195E-01 5.56636E-01
 -1      2079-2.48060E-01-1.28964E-01-9.35348E-02-3.16366E-02 5.09203E-03-5.11659E-02
 -1      2080 4.51661E-02 1.72669E-03-8.77332E-04 9.65300E-03-1.25962E-01 7.80611E-03
 -1      2081 4.76106E-02 4.27877E-02 5.67244E-02-1.68461E-02-8.93027E-02-1.00170E-02
 -1      2082-8.09789E-02-3.95477E-02 2.93053E-04-3.38506E-02 5.27201E-02-3.58092E-02
 -1      2083-1.51397E-01-9.78845E-03 7.60089E-03-4.40559E-02 2.71714E-02 3.81936E-01
 -1      2084-9.66548E-02-1.21294E-01-3.56973E-02 7.39965E-03 1.83036E-01 1.24345E-01
 -1      2085-3.72667E-02-4.05387E-02-5.47187E-02 1.32370E-04-2.38008E-01 7.92383E-02
 -1      2086 8.55982E-03 8.66621E-03-3.07366E-02-3.39805E-02 8.90525E-03-3.55063E-02
 -1      2087 4.63522E-02 1.04508E-01 3.87527E-02 4.14025E-02 2.71775E-01 1.49706E-01
 -1      2088 3.24188E-01 1.81371E-01 2.29929E-01-3.73000E-02-1.07589E-01 5.47027E-01
 -1      2089 1.25011E-01-2.17948E-02-5.98206E-02-2.07674E-04-1.27652E-01 5.97003E-02
 -1      2090 1.94833E-01 1.16232E-01 1.32581E-01-2.19677E-02-3.54318E-01 4.02722E-01
 -1      2091-2.29480E-01-1.52883E-02 6.41985E-02-2.97684E-02-3.73387E-02 4.45345E-01
 -1      2092-4.84513E-02-1.56504E-02 1.93967E-02-1.46082E-02 1.34000E-01 7.11370E-02
 -1      2093-2.53389E-02-9.97516E-02 5.14163E-03-4.91525E-03-9.27902E-02 2.44491E-02
 -1      2094 1.42539E-02 4.54231E-02-8.45027E-02-8.00784E-03-2.33549E-01 3.20531E-01
 -1      2095-4.77215E-02-3.24165E-02-2.45095E-02 4.35092E-02-5.99103E-02-4.64438E-03
 -1      2096 6.13296E-02 3.83795E-02 3.85479E-02 1.90277E-02-7.19290E-02-6.66724E-03
 -1      2097-3.98500E-01-3.10921E-01-2.08037E-01 6.06085E-02-2.93625E-01 3.66895E-01
 -1      2098 2.51871E-03 4.49386E-02 3.11636E-02-3.92628E-02-3.12231E-01 2.42136E-01
 -1      2099-5.93975E-01-4.34660E-01-4.25649E-01 8.23565E-02-1.85248E-01 5.59976E-01
 -1      2100-1.41973E-01-4.02774E-02-1.56355E-01 2.90230E-02-2.19267E-01 3.29883E-01
 -1      2101 2.78334E-01 2.72341E-01 2.95068E-01 5.65220E-02 2.63352E-01 4.58956E-01
 -1      2102 1.71143E-01 2.92319E-01 8.49545E-02 4.07596E-02 2.85699E-01 2.10755E-01
 -1      2103-4.77495E-02 2.96555E-02 7.11411E-03 6.56477E-02-1.08640E-01-2.95683E-02
 -1      2104-3.81097E-02-6.93141E-02-4.98062E-02 2.02616E-02 4.28779E-03-2.20331E-02
 -1      2105 3.27849E-01 1.88249E-01 1.07981E-01 4.76502E-02-1.56730E-03-7.82361E-02
 -1      2106-1.67000E-01-1.97744E-01-1.02389E-01 6.11421E-02-3.27335E-01 1.62870E-01
 -1      2107-2.45000E-01-2.12061E-01-2.00016E-02 6.44944E-03-6.77772E-02 2.59876E-02
 -1      2108-3.82914E-01-3.19198E-01-3.19000E-01-6.91577E-02 2.44197E-01 4.73898E-01
 -1      2109-1.42828E-01-6.29731E-02-1.40738E-02 3.61282E-03-8.91429E-02 5.12082E-01
 -1      2110-2.00417E-02 1.15262E-01-6.28299E-02-1.71393E-02 4.09439E-02 2.04443E-01
 -1      2111 3.27768E-01 2.28450E-01 1.75781E-01 1.79199E-02-1.83514E-03 6.59473E-01
 -1      2112 4.60765E-01 4.29360E-01 2.95797E-01-7.39464E-02-2.33545E-01 4.23425E-01
 -1      2113 7.44729E-02-2.34837E-02-1.35968E-02-3.88642E-02-5.32424E-02 3.54079E-01
 -1      2114 6.84666E-02 8.40352E-02 8.76775E-02 3.57535E-02-7.80373E-02-1.53669E-02
 -1      2115 6.91770E-02 1.24344E-01 3.38692E-03-1.49973E-02 1.24492E-01 3.96852E-02
 -1      2116-4.08822E-01-2.47912E-01-1.85668E-01 4.41681E-02 4.31516E-02 3.07264E-02
 -1      2117-3.34694E-01-2.41365E-01-3.71420E-01 1.75169E-02-1.52036E-02 5.87914E-01
 -1      2118-7.04640E-02-9.87563E-03 1.47552E-02-6.77638E-02 1.77232E-01 4.16891E-01
 -1      2119-2.20592E-02-5.28705E-02-2.13392E-02-1.51039E-02-7.29019E-02-1.23421E-02
 -1      2120 3.91358E-01 3.25196E-01 3.78822E-01 1.79495E-02-1.45658E-01 5.22601E-01
 -1      2121-6.36440E-01-4.52061E-01-3.60417E-01 7.18591E-02-1.50104E-01 5.55048E-01
 -1      2122-4.68001E-01-3.65016E-01-3.38454E-01-1.18381E-02-7.27755E-02 6.36275E-01
 -1      2123 3.25021E-01 4.23027E-01 4.39355E-01-4.66135E-02-2.61866E-01 4.09880E-01
 -1      2124 5.09523E-02-6.16534E-04-1.49284E-01 5.49339E-02 1.30069E-01 3.86701E-01
 -1      2125 1.51015E-01 1.92822E-01 1.00415E-01-6.45218E-02-3.01882E-01 1.68532E-01
 -1      2126-2.25013E-01-1.93383E-01-2.53311E-01 4.86279E-02 1.01625E-01 2.74320E-01
 -1      2127-8.29777E-02-1.20972E-01-1.81311E-01 8.27681E-03 2.37522E-01 1.22856E-01
 -1      2128 7.95627E-02-5.49367E-03-3.30995E-02-2.74574E-02 9.95890E-02 2.86903E-02
 -1      2129-3.63188E-02-3.05017E-03-6.57029E-02 1.54178E-02 7.27112E-02-9.39902E-03
 -1      2130 3.07571E-02 3.00840E-02 5.07045E-02 2.08640E-02 8.54065E-02-1.88102E-02
 -1      2131-3.52181E-02-1.53904E-02-3.36726E-02 3.69751E-02-4.57931E-02-5.23323E-02
 -1      2132 3.98408E-02 2.87712E-02 3.42225E-02-4.69099E-03-8.62931E-02-1.81060E-02
 -1      2133-7.41166E-02-2.19255E-03 3.39604E-02 4.04637E-02-4.58131E-02-3.23996E-02
 -1      2134-4.74909E-01-3.51431E-01 9.09248E-02 2.05998E-02-6.85888E-02-1.90315E-01
 -1      2135 4.50579E-01 3.16036E-01 9.21254E-02-2.78972E-02 1.47460E-02-4.97888E-02
 -1      2136 1.17273E-01 1.71276E-01 1.48291E-01 2.37221E-02 2.14849E-01 6.02644E-02
 -1      2137-2.32309E-01-2.73738E-01-2.21971E-01 2.43124E-02-3.10662E-01 2.16161E-01
 -1      2138 8.50131E-02 6.29522E-03-2.57221E-02 1.29679E-01 4.25104E-02-1.64722E-01
 -1      2139-6.27022E-03-4.46893E-02 6.93943E-02-8.76806E-02-5.33293E-02 4.65395E-01
 -1      2140 2.38956E-01 3.20313E-01 2.65703E-01-2.69212E-02-3.32640E-01 2.34276E-01
 -1      2141-2.66132E-01-6.61173E-02-2.77807E-02 6.78649E-02-3.86143E-02-6.22872E-02
 -1      2142 4.36419E-01 2.89346E-01 2.80390E-01-2.59460E-02-6.32070E-02 6.54774E-01
 -1      2143-1.83080E-01-4.44982E-02-8.99522E-03 8.29730E-02-8.80690E-02-1.67841E-01
 -1      2144 1.32313E-01 1.14047E-01 1.36532E-01 1.20726E-02-3.51472E-01 1.70076E-01
 -1      2145-2.58781E-01-1.28747E-01-5.91859E-02 7.54482E-02-1.99894E-02-7.20457E-02
 -1      2146 3.36965E-02 4.59318E-02 7.78830E-02-4.40509E-02-2.13532E-01 3.63263E-01
 -1      2147-3.85727E-01-2.25041E-01-2.81292E-01-1.18254E-02 8.45439E-02 5.76870E-01
 -1      2148 3.25328E-02 1.22612E-01 7.06889E-03-7.69821E-03 8.42129E-02-1.77317E-02
 -1      2149 1.95962E-03 3.65064E-02 1.94194E-02-3.84113E-02 7.99512E-02-3.21457E-02
 -1      2150 4.51037E-01 1.89288E-01 3.26518E-01-1.72896E-02 1.45786E-01 5.63617E-01
 -1      2151 1.43948E-01 1.67119E-01 2.38047E-01 5.64977E-02 3.49759E-01 2.91164E-01
 -1      2152-5.54864E-01-3.67312E-01-3.61363E-01-3.07109E-02 1.60816E-01 5.77047E-01
 -1      2153-3.70678E-01-1.24523E-01-8.55744E-02-1.62634E-02-2.74167E-03-7.49197E-02
 -1      2154 1.71600E-01 9.24591E-02 9.48339E-02-7.63832E-02-2.60443E-02-2.51438E-02
 -1      2155 2.44641E-01 3.15257E-01 2.28964E-01 9.12562E-02 2.61494E-01 4.24258E-01
 -1      2156-3.13210E-01-5.17041E-02-1.28490E-01 2.50705E-02 3.28718E-01 5.36308E-01
 -1      2157-1.02089E-01-2.19422E-01-2.03311E-01-5.99754E-03-3.10075E-01 1.12045E-01
 -1      2158 1.01289E-01 7.81276E-02 8.93640E-02 1.08578E-01 4.30684E-02-8.02284E-02
 -1      2159 1.17908E-01 2.14772E-01 1.26460E-01-1.45209E-02-6.76378E-03 2.51670E-02
 -1      2160-4.01651E-02-3.47231E-02-3.87434E-02 7.06465E-02 1.81315E-02-6.95276E-02
 -1      2161 3.92299E-02 2.99286E-02 1.83088E-02 2.67911E-02 3.77861E-03-2.04955E-01
 -1      2162-2.95534E-01-1.62680E-01 7.05345E-02 9.73148E-02-4.27952E-02-1.87603E-01
 -1      2163 1.62287E-02 9.42431E-03-2.37479E-02-3.75118E-02-3.85524E-02-2.82961E-02
 -1      2164-8.22172E-02-1.92260E-02 3.01395E-02-1.93677E-02-1.73653E-01 7.44343E-02
 -1      2165 7.67265E-02 3.10302E-02 1.30776E-01-2.31214E-02-8.77827E-02 4.65817E-01
 -1      2166 1.49791E-01 1.79525E-01 1.77210E-01 1.63711E-02 3.13431E-01 2.01834E-01
 -1      2167 4.72147E-01 4.30660E-01 2.77455E-01 1.02347E-01 3.10231E-01 4.07487E-01
 -1      2168-2.27848E-01-2.87164E-01-2.62008E-01-5.19591E-02 3.22269E-01 3.55171E-01
 -1      2169-4.40883E-01-2.63617E-01-1.51528E-01-1.38421E-02-6.36055E-04 6.46369E-02
 -1      2170 4.16961E-01 1.91983E-01 1.04845E-01-3.19958E-02 1.22159E-03-4.77478E-02
 -1      2171-2.43601E-01-3.08071E-01-8.15222E-02-8.60979E-02 1.71161E-01 5.64707E-01
 -1      2172-1.45792E-01-2.45768E-01-1.02398E-01-3.30462E-02-1.04667E-01 1.48482E-01
 -1      2173-3.78612E-01-3.30048E-01-3.63071E-01-4.28266E-02 2.38007E-01 5.36777E-01
 -1      2174 9.14003E-03-3.81104E-02-5.37403E-02-5.87411E-02-3.56767E-02-2.34672E-02
 -1      2175 2.03748E-01 5.72928E-02 1.72308E-02-1.22953E-01-1.94476E-02-9.57928E-02
 -1      2176-2.01366E-01-1.97133E-01 1.09529E-02 1.29271E-02 1.09330E-04 2.33678E-01
 -1      2177-2.38575E-01-1.31267E-01-8.26203E-02-2.37565E-02 2.60088E-02 7.55042E-02
 -1      2178 6.89956E-02 3.71740E-02 8.64487E-02 6.02513E-03 8.32278E-02 4.00286E-01
 -1      2179 3.61940E-02 1.09067E-01 7.21364E-02-2.34854E-02 1.50774E-01 3.27686E-03
 -1      2180-2.10269E-02-4.30088E-02-4.65551E-03-2.23118E-02-1.11133E-01-1.68563E-02
 -1      2181 2.86393E-02-1.47584E-02-3.56993E-02 4.08055E-02 2.19919E-01 2.82312E-01
 -1      2182-1.95972E-01-1.44022E-01-1.40640E-01 3.75699E-02-2.83913E-01 1.21971E-01
 -1      2183-4.42336E-01-3.06095E-01-2.16584E-01 8.63307E-03-8.90466E-02 6.35219E-01
 -1      2184 1.35356E-01 1.66629E-01 2.05611E-01 8.69606E-03-1.39916E-01 2.86817E-02
 -1      2185-6.70070E-03-1.97811E-02-2.19860E-02 1.88533E-03 2.90170E-03-2.01140E-01
 -1      2186 9.71805E-02 9.51356E-02 1.30320E-01 2.22763E-02-1.00901E-01 1.11430E-02
 -1      2187-9.51701E-02-1.12971E-01-1.04804E-01-3.74303E-02 3.31554E-01 2.48410E-01
 -1      2188-2.00367E-01-1.96673E-01-7.67700E-02 1.53005E-02-1.43592E-02 1.06660E-01
 -1      2189-9.82415E-03-2.33809E-02-1.37857E-02 1.50950E-01 5.90529E-03-1.02818E-01
 -1      2190 6.21885E-02 4.11626E-02-1.08974E-01 4.12423E-02-1.80144E-01 1.71266E-01
 -1      2191-4.30169E-02-9.36738E-02 2.31381E-02-4.16016E-03 1.07630E-01-8.15596E-03
 -1      2192-2.99159E-02-2.94736E-02-7.40164E-02-3.07476E-02 7.16366E-02-2.65931E-02
 -1      2193-2.25098E-02-4.94160E-02-6.69768E-02-2.03057E-02-7.27779E-02-1.06992E-02
 -1      2194 4.99083E-01 2.33303E-01-2.30371E-02-7.07718E-02-1.03074E-01-9.61996E-02
 -1      2195-2.07635E-01-1.97542E-01-1.13101E-01-2.87006E-02 6.09144E-02-2.80702E-03
 -1      2196-2.86311E-01-1.25047E-01-1.34369E-01 1.42377E-03 6.63487E-02 5.57299E-02
 -1      2197-7.23006E-02-1.12957E-01 2.24745E-02-2.81385E-02-2.12633E-01 1.03911E-01
 -1      2198 2.03925E-01 1.68557E-01 4.53111E-02-2.53225E-02 2.15383E-02 1.03646E-02
 -1      2199 5.66357E-02-8.49908E-03 8.08257E-03 5.35588E-02 7.39386E-02 2.74449E-02
 -1      2200 3.69406E-01 2.72911E-01 2.73621E-01 3.54804E-02 2.99925E-01 3.91830E-01
 -1      2201 2.11725E-01 1.15609E-01 6.21379E-02 1.11997E-01 3.64375E-03-9.84324E-02
 -1      2202-2.60212E-02-6.50368E-02-9.82573E-02 2.67747E-02 7.63348E-02-3.21724E-02
 -1      2203 9.98843E-02 8.41430E-02 8.95694E-02-9.42259E-03-4.40774E-02-1.70312E-02
 -1      2204 1.46502E-02-3.33048E-02-4.30552E-02 1.37991E-01 2.12682E-02-9.19104E-02
 -1      2205-3.49753E-02 5.82237E-03 7.42221E-03 1.43618E-01-1.88277E-02-2.18946E-01
 -1      2206-1.48158E-01-1.26241E-01-7.58848E-02 8.64720E-02-1.97754E-02-7.47360E-02
 -1      2207 1.36916E-01 1.46141E-01 1.38335E-01-3.54183E-02-2.75443E-01 1.30343E-01
 -1      2208-4.50206E-01-2.48113E-01-1.12925E-02 6.03165E-02-4.16151E-02-5.02956E-02
 -1      2209-4.26615E-01-2.31867E-01-4.12855E-02-2.20748E-02-5.76640E-02 3.54191E-02
 -1      2210 8.70719E-02 2.51135E-02-1.43646E-02 3.43845E-02 5.48950E-02-4.36803E-02
 -1      2211-4.58493E-01-3.45049E-01-2.20697E-01 3.49370E-02-1.13358E-02 1.99339E-02
 -1      2212-3.11775E-01-2.28840E-01-2.51594E-01-2.25497E-02 3.30089E-01 3.43828E-01
 -1      2213 5.23336E-02-2.67804E-03-7.39085E-02-1.44805E-02-2.30450E-01 8.11867E-02
 -1      2214-4.47747E-01-2.66866E-01-1.36988E-01-4.13433E-02 2.76281E-02-5.26821E-02
 -1      2215 2.24506E-01 1.72477E-01 1.25586E-01 4.24258E-03-2.70678E-02 8.21390E-02
 -1      2216-5.41270E-01-3.44031E-01-1.66312E-01-2.08183E-04 7.15596E-03-2.85203E-02
 -1      2217-3.05257E-02 6.31030E-02 4.42492E-02-1.36734E-02 1.55288E-01 1.99837E-02
 -1      2218-5.38333E-01-2.79576E-01 1.87639E-02-8.94734E-03 7.63843E-02-5.72506E-02
 -1      2219 1.70934E-01 1.03318E-01 5.07782E-02-6.32457E-02 8.50683E-03-1.60459E-02
 -1      2220 2.87477E-01 8.44078E-02 5.89980E-02 4.19415E-02 4.65693E-02-8.54228E-02
 -1      2221-1.36342E-01-1.84143E-01-1.71201E-01 4.65394E-02-8.68563E-02-3.55623E-02
 -1      2222-1.64352E-02-1.42294E-02 1.39831E-02-2.58407E-02-8.74715E-03-1.98519E-01
 -1      2223-1.61975E-01-1.98936E-01-1.93865E-01 4.01045E-02 1.13880E-01 1.59686E-01
 -1      2224-2.15299E-02-2.51959E-02 4.14322E-02-2.96224E-02 7.30689E-02-3.66710E-02
 -1      2225-1.00425E-01-3.89323E-02-1.03036E-01 4.58329E-03-1.32985E-01 1.10597E-01
 -1      2226 1.96323E-01 2.28409E-01 9.03456E-02-1.07161E-02 6.66609E-02 1.42928E-02
 -1      2227-2.30949E-01-2.00571E-01-1.64222E-01 5.44968E-02-3.21056E-01 3.54749E-01
 -1      2228-7.11662E-02-6.29102E-02-8.30303E-02 1.77969E-02-9.24832E-03-2.06509E-01
 -1      2229-3.77546E-02-2.67150E-02-8.65922E-03-4.83737E-02 8.23192E-03-7.66758E-02
 -1      2230 3.63232E-01 1.34028E-01 9.46412E-02 3.77000E-02 1.07597E-02-4.09063E-02
 -1      2231 4.88844E-02-7.09419E-02-9.53286E-02-2.37068E-02 2.21127E-01 3.39922E-01
 -1      2232 8.12960E-01 5.13713E-01 9.58967E-02-2.96412E-02-1.03400E-03-2.61385E-02
 -1      2233-1.47245E-01-9.76279E-02-9.92145E-02-7.47778E-02 3.19478E-02-8.30256E-02
 -1      2234-3.38633E-01-2.02371E-01-1.23803E-01-1.79315E-02 3.61671E-02 2.00558E-02
 -1      2235-3.16528E-01-1.85520E-01-1.85088E-01 1.05737E-02 4.97507E-02 2.16360E-01
 -1      2236-1.00814E-01-1.71141E-01-7.22393E-02-2.49162E-02-4.04974E-02 3.50668E-02
 -1      2237 3.84145E-01 2.15209E-01 1.19069E-01 1.27244E-02-3.08762E-03-3.21485E-02
 -1      2238-5.64873E-02-4.01411E-02-8.36670E-03-2.73670E-02-8.25251E-03-4.05033E-02
 -1      2239 2.92401E-02-3.88804E-02-1.87951E-02 3.94537E-02 8.52345E-02 3.86446E-01
 -1      2240-2.50901E-01-2.12661E-01-3.93656E-02-5.04475E-02-2.19923E-02 2.58242E-01
 -1      2241 2.24105E-01 1.00370E-01 6.81165E-02-1.56560E-01-3.88063E-02-2.20591E-01
 -1      2242-5.02016E-01-2.60117E-01-7.08108E-02-1.87481E-03-1.61441E-02-5.18174E-02
 -1      2243-3.00252E-01-1.09494E-01 1.27265E-02-4.77732E-03-5.06985E-02-6.19856E-02
 -1      2244-8.30116E-02 8.48864E-03-1.58966E-01-7.40896E-03 2.27646E-01 8.60271E-02
 -1      2245 8.47910E-02 8.56799E-02 4.98053E-02 4.40062E-02 1.58529E-01 7.68606E-02
 -1      2246 7.97787E-02 6.11109E-02 5.67226E-02-6.89249E-03-5.97382E-03-2.12431E-01
 -1      2247-1.81652E-01-1.32089E-01-5.88769E-02 4.16682E-03-7.16385E-03-1.97398E-01
 -1      2248 4.43868E-01 2.42331E-01 2.34277E-02-1.11596E-02-4.25539E-03-3.93771E-02
 -1      2249 2.90009E-01 9.48725E-02 6.22942E-02 5.54599E-02-3.41671E-03-3.26331E-02
 -1      2250-4.40227E-01-2.03469E-01 5.71265E-02-1.12648E-01 1.29402E-01-1.78200E-01
 -1      2251 5.42029E-01 4.26489E-01 1.74795E-01-1.44440E-02-1.98157E-03 9.32395E-02
 -1      2252-3.08191E-01-2.60902E-01-6.85193E-02-1.09104E-02-2.42260E-02 4.73822E-02
 -1      2253-2.76799E-01-1.64890E-01-7.44667E-02 6.14818E-02-3.70687E-02 2.54479E-02
 -1      2254 2.12203E-01 1.23659E-01-6.86553E-03-5.34563E-03-1.31844E-01 6.23126E-02
 -1      2255 4.01379E-01 2.21272E-01 1.03437E-01-1.69794E-02-8.90386E-03-5.91714E-02
 -1      2256 4.33627E-01 3.71076E-01 2.67792E-01 6.08016E-02 1.54667E-01 5.47769E-01
 -1      2257 1.66916E-01 3.54743E-02-4.15046E-02-7.14656E-02-7.77024E-02-1.47753E-01
 -1      2258 3.73521E-01 1.25599E-01 9.70177E-02-6.10024E-02-4.73042E-02-1.09148E-01
 -1      2259-9.08016E-02-8.23954E-02-7.00626E-02 6.11598E-02 1.18131E-02-7.54708E-02
 -1      2260 5.65312E-01 2.89951E-01 6.98727E-02 3.10298E-02-7.43938E-03 4.55931E-01
 -1      2261 4.47865E-01 2.03833E-01 4.52733E-02-1.07044E-01-3.77861E-02-5.78135E-02
 -1      2262-9.52481E-02-1.02943E-01-1.22502E-01-2.78021E-02 1.17649E-01 4.52345E-02
 -1      2263 6.85653E-02 1.72852E-02-1.53514E-02 3.56308E-02 1.51909E-02-5.10775E-02
 -1      2264 4.61323E-02 1.30740E-01 8.22111E-02 4.11238E-02 2.41126E-01 2.59335E-01
 -1      2265-2.52224E-01-1.61750E-01-1.48820E-03 2.40339E-02 1.36210E-01 6.72206E-02
 -1      2266-2.60873E-01-2.08641E-01-1.37441E-01-4.29532E-03 1.72306E-02 1.12102E-01
 -1      2267 1.18561E-01 1.19839E-01 1.09166E-01 2.20989E-02-9.13427E-02 2.04215E-01
 -1      2268 5.01428E-01 3.08417E-01 8.73677E-02 1.85930E-02-1.85560E-03-2.05957E-02
 -1      2269 4.05080E-01 2.97800E-01 2.91879E-01 5.27115E-02 5.90131E-02-5.86391E-02
 -1      2270-3.27745E-01-2.00402E-01-1.35113E-01 5.55034E-02-2.86204E-02-5.90207E-02
 -1      2271-3.78480E-01-2.32861E-01-7.84294E-02 3.70185E-02 2.59246E-03-2.17025E-02
 -1      2272-1.71135E-01-8.85238E-02-3.63199E-02-5.86509E-02 5.28201E-02-9.17067E-02
 -1      2273-6.72697E-02-1.93290E-02 8.17221E-03-1.27764E-01 1.79431E-02-1.15854E-01
 -1      2274-2.73494E-01-1.26476E-01-2.21030E-01 1.06920E-02 4.47381E-01 5.39666E-01
 -1      2275 1.61831E-01 1.28114E-01 1.66902E-02 8.03280E-02-1.06026E-03-7.01244E-02
 -1      2276 3.73444E-01 3.05021E-01 1.42025E-01 5.45086E-02-2.85233E-02 1.04697E-02
 -1      2277 3.16180E-02 1.24941E-02 4.08189E-02-2.78013E-02 4.22715E-02-4.03413E-02
 -1      2278-2.29175E-01-1.33156E-01-3.17263E-02 8.69208E-02-1.81621E-02-7.70393E-02
 -1      2279-9.90702E-02-2.88975E-02-2.78882E-02 4.25909E-02-7.20594E-02-2.87413E-02
 -1      2280-7.36306E-03-1.31755E-03-7.48416E-02 7.58497E-02 3.75145E-02-8.84732E-02
 -1      2281-4.19921E-01-2.59789E-01-2.29178E-01 3.76872E-02-7.50992E-02-1.51141E-02
 -1      2282 3.83225E-01 2.05236E-01 5.64735E-02 1.49342E-02 3.65411E-02-5.03210E-02
 -1      2283 9.66396E-02 8.98304E-02 5.61010E-02-5.23462E-02 4.79156E-03-5.52718E-02
 -1      2284 4.73887E-01 2.76366E-01 1.46769E-01-4.55383E-02-4.00447E-02-6.45042E-02
 -1      2285 4.90481E-01 2.62833E-01-5.06635E-03 8.00777E-02 9.17319E-02-9.05740E-02
 -1      2286 4.63327E-02-5.36376E-02-1.97225E-02-3.30257E-02 2.30746E-01 1.81355E-01
 -1      2287 9.67605E-03 5.53002E-02 7.36836E-02-1.12226E-03-8.40919E-02 4.50244E-01
 -1      2288-2.06349E-01-1.79590E-01-9.98699E-02 8.23530E-03-1.78136E-02-1.83082E-01
 -1      2289-1.81311E-01-2.15548E-01-1.79447E-01 1.43065E-03 2.57382E-01 1.53527E-01
 -1      2290 2.79107E-01 5.50524E-02-1.23627E-02 8.64322E-02 7.46084E-02-1.35604E-01
 -1      2291 1.69477E-01 4.96436E-02 1.14061E-02 1.27624E-01 1.18335E-02-8.07413E-02
 -1      2292-6.28431E-01-4.20677E-01-1.03760E-01-2.05792E-03-3.37661E-02-4.67528E-02
 -1      2293-2.26621E-01-2.25891E-01-1.43501E-01-2.32404E-02-2.39420E-02 3.82912E-02
 -1      2294-1.43427E-01-8.56574E-02-1.22478E-01 4.82237E-02 2.23693E-01 2.64208E-01
 -1      2295-2.79377E-01-1.38823E-01-3.77632E-02 6.24473E-02-2.02218E-01 4.13432E-01
 -1      2296-4.58812E-02-6.56605E-02-7.49589E-02 1.64840E-02 2.22387E-01 2.67224E-01
 -1      2297-2.44266E-01-1.37361E-01-2.47397E-02 4.47710E-02 1.56319E-02-5.61520E-02
 -1      2298-1.95997E-01-1.70194E-01-1.33155E-01-3.04796E-02 1.63177E-01 1.74497E-01
 -1      2299-1.71599E-01-1.91993E-01-2.27379E-01-9.39893E-03 3.22098E-01 2.38969E-01
 -1      2300-2.28737E-01-1.49059E-01-8.26920E-02-6.68069E-02 5.41472E-02-5.53275E-02
 -1      2301-2.78595E-02 1.31714E-02-7.63640E-03 1.81331E-02 1.38410E-02-4.22708E-02
 -1      2302 5.65083E-02 1.79481E-02 2.56898E-02-3.81382E-02-2.01828E-02-2.31362E-02
 -1      2303 1.97331E-01 1.61081E-01 1.79045E-01 4.69486E-02 4.11834E-02-3.06478E-02
 -1      2304-5.97661E-01-3.47647E-01-1.87738E-01-4.00788E-02-5.72050E-03-2.24888E-02
 -1      2305 1.74563E-02 9.83234E-02-1.95195E-03 3.11095E-02 2.07224E-01 7.14731E-02
 -1      2306 1.16770E-01 1.30109E-01 1.03605E-01 2.37504E-02 5.73033E-02 1.93671E-03
 -1      2307 4.87776E-02 3.00370E-02-4.36801E-02 1.90812E-03 7.87317E-02-2.23452E-03
 -1      2308 1.88993E-01 2.93876E-01-3.19609E-02 1.05212E-01 2.20958E-01 1.79665E-01
 -1      2309-2.42690E-01-1.98369E-01-1.34754E-01-5.54043E-02 1.09304E-02-7.30463E-03
 -1      2310 9.65420E-03 7.98370E-02-6.20170E-02-1.02238E-02 9.88117E-04 4.28901E-01
 -1      2311 1.41218E-02-1.03965E-02-5.68747E-02-1.99700E-02 2.62133E-01 1.51195E-01
 -1      2312-1.70980E-01-5.54148E-02 4.11060E-02 8.12072E-02-6.16232E-02-7.67049E-02
 -1      2313 4.16311E-01 3.25503E-01 4.09955E-01 5.28050E-02 1.39527E-01 5.93996E-01
 -1      2314 3.51818E-01 1.58611E-01 9.33750E-02-2.75027E-02-6.21416E-02-5.42682E-02
 -1      2315 1.50276E-01 3.61951E-01 2.21771E-01-1.69262E-02-2.98099E-01 1.27227E-01
 -1      2316-4.02197E-01-2.72760E-01-1.91600E-01 2.86153E-02-2.24411E-02-4.42595E-02
 -1      2317-3.83861E-01-1.55967E-01-9.69787E-02 1.19305E-02-4.44669E-03-8.32777E-02
 -1      2318 2.09877E-01 9.79070E-02 1.25552E-01-3.11669E-03 4.71411E-02 1.62079E-02
 -1      2319-3.94258E-01-1.61365E-01-9.72242E-02 6.22398E-02-2.42250E-02-5.44408E-02
 -1      2320-2.92481E-01-1.34639E-01-5.71841E-02 3.82136E-02-5.52014E-02-2.81163E-02
 -1      2321 5.07833E-02 4.80692E-02 1.00062E-02 7.34519E-02 1.41570E-02-4.82977E-02
 -1      2322 2.45352E-01 1.72867E-01 9.82638E-02 3.98449E-02 9.97140E-03-2.23879E-01
 -1      2323-8.15774E-02 7.01159E-02 6.27434E-02 1.69532E-02-1.67694E-01 2.47453E-02
 -1      2324 1.51227E-02 2.82837E-02 2.04149E-02 4.51693E-02-1.77266E-04-8.62236E-02
 -1      2325 3.37862E-01 2.94525E-01 3.62759E-01-2.98437E-02-2.73020E-01 5.36843E-01
 -1      2326 1.64025E-01 6.95477E-02 1.01987E-01 1.83947E-02-6.19144E-02-1.61133E-02
 -1      2327-1.24703E-01-8.84270E-02 3.93595E-02 6.90964E-03-9.54595E-02 5.18689E-02
 -1      2328 1.00781E-01 1.89401E-01 8.61606E-02 5.68960E-02-1.77042E-01 3.25915E-01
 -1      2329 1.36537E-01 1.03424E-01 7.58457E-02-1.59805E-02 1.40743E-02-3.46016E-02
 -1      2330 3.52609E-01 4.60115E-01 4.01052E-01-3.25905E-02-3.38791E-01 2.58978E-01
 -1      2331-2.71229E-01-1.98231E-01-3.97863E-02-3.44977E-02 8.01012E-02-8.45450E-03
 -1      2332 2.20508E-01 2.27187E-01 1.56332E-01-2.72898E-02-1.47517E-01 1.45625E-01
 -1      2333 8.99522E-02 1.45117E-01 1.46575E-01 2.95275E-02-1.32777E-01 2.49641E-02
 -1      2334 2.00127E-01 3.95085E-01 2.58079E-01-8.42588E-02-2.68654E-01 4.15723E-01
 -1      2335 1.88847E-01 1.03434E-01 6.25036E-02-8.45143E-02-1.68897E-03-8.01790E-02
 -1      2336 1.20190E-01 2.94833E-02-9.96857E-03-2.88926E-02-1.30271E-02 4.60095E-01
 -1      2337-2.29443E-01-1.74065E-01-1.63281E-01 7.68243E-02-2.60194E-02-6.48377E-02
 -1      2338-2.16563E-01-1.89637E-01-8.78635E-02 3.45783E-02-1.58638E-01 6.85409E-01
 -1      2339-3.14904E-01-2.06169E-01 5.69902E-02 5.20799E-02 7.22666E-03-7.26870E-02
 -1      2340 3.38024E-01 1.97094E-01 5.49072E-02 2.92093E-02 9.27290E-03-7.14969E-02
 -1      2341-2.13070E-01-2.41720E-01-1.78964E-01 3.80374E-02-3.26403E-01 2.80399E-01
 -1      2342-1.74658E-01-4.06214E-02-3.22732E-02-1.19069E-01 5.61975E-02-1.56704E-01
 -1      2343-1.54279E-01-1.04359E-01-2.08052E-02 6.50065E-02-4.37584E-02-5.72696E-02
 -1      2344-1.48691E-01 1.12968E-01-1.60452E-02-1.43082E-02 8.52603E-02 3.64326E-01
 -1      2345 2.45660E-01 2.80317E-01 3.16983E-01-7.03999E-02-7.70962E-02 5.96512E-01
 -1      2346 1.49133E-01 1.35986E-01 1.57427E-01 1.17537E-02-2.54054E-01 6.35966E-01
 -1      2347 2.69749E-01 1.57793E-01 9.85073E-02 3.50365E-02-7.21967E-02 2.08366E-01
 -1      2348-4.46855E-01-3.04898E-01-1.28921E-01-3.96316E-02 3.20462E-02-4.70078E-02
 -1      2349 1.19221E-01 4.99003E-02 5.43161E-02-2.39760E-02-7.15607E-02 2.44282E-02
 -1      2350-2.28580E-01-1.29207E-01-1.16091E-01 2.94264E-02-6.27602E-02 1.96247E-02
 -1      2351-4.02489E-01-2.28250E-01-1.49126E-01-1.44719E-02-1.02489E-01 5.33984E-02
 -1      2352 4.75171E-01 3.40619E-01 4.78181E-01 5.53351E-04 2.29505E-01 5.65779E-01
 -1      2353-5.18932E-01-4.39198E-01-5.66698E-01-5.14402E-02 1.28485E-01 6.65023E-01
 -1      2354 1.82508E-01 1.18022E-01 9.42744E-02 1.79005E-03 1.66665E-01 2.22205E-01
 -1      2355 1.34760E-02-1.13043E-02 1.41449E-02-1.12707E-01-3.19389E-02-1.59566E-01
 -1      2356 7.75324E-01 4.71339E-01 2.13183E-01 5.85495E-02 5.53861E-02-5.16048E-03
 -1      2357 1.01694E-01-2.93066E-02-7.51672E-02 9.36260E-03 2.16421E-01 9.97612E-02
 -1      2358-1.15352E-01-1.67888E-01-1.59932E-01 3.47638E-02 1.23821E-01-2.21058E-03
 -1      2359 4.20304E-01 2.86667E-01 1.55330E-01-4.89818E-02-2.39416E-03-2.73590E-02
 -1      2360-2.39389E-02-4.02516E-02-1.24439E-01-3.28488E-03-2.00659E-01 9.72469E-02
 -1      2361-2.78825E-01-1.68587E-01-1.46943E-01-3.96110E-02 2.46033E-02-5.72005E-02
 -1      2362 9.59322E-02 2.61381E-02-4.20468E-03 2.44075E-02 3.42803E-02-3.83333E-02
 -1      2363 4.73084E-01 2.85287E-01 1.45885E-01 8.51560E-03 6.04585E-03-3.83290E-02
 -1      2364 1.33391E-02-1.45408E-02-4.60828E-02-7.59146E-02-1.00294E-02-8.98097E-02
 -1      2365-3.55111E-01-1.87221E-01 3.94860E-02-2.37727E-02 2.65775E-02-1.34150E-02
 -1      2366-2.39390E-01-2.30141E-01-2.67497E-01 1.70841E-02-3.48329E-01 1.87585E-01
 -1      2367-8.94805E-02-4.05280E-02-4.68630E-02-1.97119E-01 1.04244E-02-2.23854E-01
 -1      2368 9.86852E-02 2.42556E-01 3.51628E-02 6.49289E-02 1.44631E-01 1.44127E-01
 -1      2369 1.16586E-01 6.48364E-02 6.33966E-02-1.24402E-01 8.54801E-03-1.16654E-01
 -1      2370 7.27892E-01 3.67226E-01 6.06228E-02 4.19067E-02 6.89844E-03-2.88289E-02
 -1      2371 4.86144E-01 3.24034E-01 2.32301E-01-2.32634E-02-2.37493E-02 4.56792E-02
 -1      2372 1.02531E-01 9.29651E-02 7.93815E-02-2.52535E-02-7.54225E-02-3.67842E-03
 -1      2373 5.83166E-03-6.41183E-04-8.51312E-03-2.45442E-02 7.14382E-02 1.54521E-02
 -1      2374-4.25712E-02 9.42832E-02 1.01589E-01 1.32745E-02-1.10960E-01-2.20517E-02
 -1      2375 2.44081E-02-2.13771E-03-2.17537E-02-1.22076E-01-1.84149E-02-1.07751E-01
 -1      2376-8.20301E-02-1.15071E-01-8.21943E-02-3.81705E-03 9.83803E-02 1.28056E-02
 -1      2377 1.75962E-01 1.26437E-01 7.62767E-02-8.55261E-02 2.19064E-02-5.01636E-02
 -1      2378 4.27329E-01 3.49590E-01 1.81084E-01-2.71268E-02-5.00698E-02 8.51267E-02
 -1      2379 1.53189E-01 3.10871E-02 1.53346E-02 8.41219E-03-2.04303E-01 1.07222E-01
 -1      2380-3.82557E-01-2.54697E-01-1.09719E-01 1.25170E-02 7.57787E-02 1.60615E-02
 -1      2381-2.75728E-01-1.80852E-01 5.31295E-02-4.23876E-02 6.00097E-02-5.88393E-02
 -1      2382 1.69192E-01 1.64979E-01 9.74025E-02 1.64665E-04 5.27781E-02 1.85137E-01
 -1      2383 3.58865E-01 1.96511E-01 8.74978E-02 9.42625E-02 2.90235E-02-5.63193E-02
 -1      2384-1.32824E-01-1.37138E-01-4.49508E-03 4.71419E-02-4.67740E-02-2.40146E-02
 -1      2385 1.25227E-02 3.93604E-04-2.74321E-02 6.01136E-02-2.33843E-02-8.91891E-02
 -1      2386-9.35700E-02-1.11510E-02 1.49110E-03 1.20183E-01-2.81911E-02-1.20507E-01
 -1      2387 1.00530E-01 4.27151E-02-2.67558E-02 1.57649E-01 2.23945E-02-1.90468E-01
 -1      2388-4.11739E-01-2.27223E-01-8.51586E-02-4.61664E-03 3.55934E-02-6.49570E-02
 -1      2389 4.28060E-01 2.18520E-01 1.96942E-01 1.22398E-02 4.21737E-02 8.28997E-02
 -1      2390-4.94473E-01-2.85446E-01-2.23816E-01 1.12594E-02-2.07954E-03-2.20867E-02
 -1      2391 2.48144E-01 1.68765E-01 4.03786E-02 1.74460E-02 5.07128E-02-3.34920E-02
 -1      2392 2.82613E-02 1.02717E-02 2.36474E-02-9.17204E-04 2.59093E-01 2.26258E-01
 -1      2393-2.73407E-01-3.58658E-01-3.24302E-01-5.24267E-02 3.44110E-01 2.70081E-01
 -1      2394 3.25920E-02-1.39468E-02 8.70110E-02-3.95093E-04 1.29039E-01-1.29544E-02
 -1      2395-2.14540E-01-1.36436E-01-9.15655E-02 7.12407E-02-2.85240E-02-7.76658E-02
 -1      2396-3.29139E-01-1.00143E-01 3.50191E-02-6.03028E-02 1.22114E-01-1.10153E-01
 -1      2397 2.15375E-01 1.16248E-01 7.05911E-02 7.88103E-02 1.09419E-02-8.83348E-02
 -1      2398-1.06345E-01-9.47774E-02-9.76869E-02-6.91469E-02-2.69409E-02-5.28904E-02
 -1      2399-2.62751E-01-1.81395E-01-2.06890E-01-3.79649E-02-1.28596E-02-4.58235E-02
 -1      2400-1.23043E-01-1.25475E-01-1.04700E-01-8.02492E-02 5.16161E-02 2.04035E-02
 -1      2401 6.03798E-02 4.88499E-02 2.57351E-02 7.86518E-02-1.91045E-01 1.79528E-01
 -1      2402 1.60230E-01 2.04805E-01 1.02079E-01 4.35408E-02 2.44217E-01 1.38033E-01
 -1      2403 4.51190E-01 1.96510E-01-2.88868E-03 1.15006E-01-1.88231E-02-1.18857E-01
 -1      2404-1.79543E-01-2.22131E-01-1.39021E-01-1.01654E-02 1.78716E-02 2.25966E-02
 -1      2405-1.66812E-01-1.26528E-01-4.07779E-02-8.26980E-02 4.62590E-03-7.35015E-02
 -1      2406-2.88145E-01-1.13627E-01-2.65724E-02 4.23049E-02-1.06664E-01-8.96017E-02
 -1      2407-5.25125E-02-8.08771E-02-2.31758E-02-9.06911E-03-1.38779E-02-1.97841E-01
 -1      2408-7.42442E-02-6.87799E-02-3.89998E-02-7.63018E-02 4.85562E-03-8.02264E-02
 -1      2409 2.01292E-01 1.51442E-01 1.54633E-01 8.90826E-02-1.12269E-02-8.27535E-02
 -1      2410 7.49541E-02 4.80465E-02-4.86904E-03 3.67878E-02 5.08553E-02-4.42109E-02
 -1      2411 3.31302E-02 4.04009E-02 4.17351E-02 2.85948E-02-1.11254E-01 3.76207E-01
 -1      2412-8.38499E-02-4.93957E-02-6.31212E-02 6.97330E-02-1.53942E-02-8.97422E-02
 -1      2413 5.85010E-02 8.46206E-02 1.25293E-01 2.21212E-02 1.44548E-01 2.50292E-02
 -1      2414-1.24936E-02-1.27309E-01 1.76470E-02 1.46685E-02-2.38276E-01 1.67996E-01
 -1      2415 3.13369E-01 2.24979E-01 3.41189E-02-9.45644E-02-2.86446E-02-7.01767E-02
 -1      2416 2.22215E-01 7.75408E-02-2.42041E-02-4.30735E-02 6.59610E-03-7.28236E-02
 -1      2417 3.62494E-01 2.07853E-01 1.54231E-01 3.69029E-02 4.95906E-03-6.58963E-02
 -1      2418-8.89736E-02-4.05875E-02 5.25214E-02-1.16201E-01 1.05401E-02-8.88603E-02
 -1      2419-9.90547E-02-8.01842E-02-7.87890E-02-4.52302E-02 9.82828E-03-6.18048E-02
 -1      2420 3.09236E-01 2.00420E-01 1.58292E-01 1.10940E-02 6.02089E-02-1.07865E-02
 -1      2421 1.22395E-01 9.81516E-02 2.81257E-02 3.97356E-02 4.95859E-02-9.01139E-02
 -1      2422 4.30388E-01 2.36151E-01 5.12735E-02-7.10394E-02-4.40182E-02-7.48247E-02
 -1      2423 3.84151E-01 2.16826E-01 1.49761E-01-3.26466E-02-1.15633E-02-3.95752E-02
 -1      2424 3.20091E-01 2.20095E-01 1.64732E-01 4.99776E-03-7.74613E-02 4.54809E-02
 -1      2425 5.04077E-01 2.16099E-01 7.78213E-02 2.39122E-02 8.21708E-03-7.29213E-02
 -1      2426 4.63090E-01 2.74919E-01 1.61992E-01-1.27124E-02-1.31007E-02-3.66104E-03
 -1      2427 1.39375E-01 1.20336E-01 7.32805E-02-1.62891E-02-2.36653E-02-2.31258E-02
 -1      2428 5.32666E-01 3.27993E-01 2.19374E-01-5.72686E-02-1.74536E-02 1.97645E-02
 -1      2429-7.98502E-02-3.34014E-02 4.26210E-03 1.85142E-01-2.44921E-02-1.07035E-01
 -1      2430-4.75862E-02 5.79755E-02 4.64105E-02 8.02325E-03-2.13904E-01 5.44391E-01
 -1      2431-2.66727E-01-1.63194E-01 1.34594E-02 5.00162E-02-2.83902E-02-7.60051E-02
 -1      2432 4.65909E-01 2.91920E-01 2.01006E-01-5.70674E-02-4.23207E-02-2.84437E-02
 -1      2433-1.76791E-01-1.50900E-01-3.27630E-01 1.59020E-02 2.51875E-01 1.44760E-01
 -1      2434-1.61798E-01-2.05662E-01-6.25273E-02 9.50240E-02-2.53864E-01 2.17137E-01
 -1      2435 1.02940E-01 6.33662E-02 4.21913E-02-1.69174E-02-2.03748E-01 2.31777E-01
 -1      2436 2.58708E-01 5.41324E-01-6.67891E-02 1.15176E-01 1.75634E-01 8.41923E-02
 -1      2437 2.10271E-01 1.46907E-01-1.71289E-02 6.64306E-02 1.12517E-01 1.00072E-01
 -1      2438 2.85114E-02 9.91428E-02-9.84141E-03-2.96359E-02 1.85474E-01 8.63429E-02
 -1      2439-4.85529E-01-2.97895E-01-1.45578E-01-1.44552E-02-2.45262E-02 5.00615E-02
 -1      2440 3.28914E-01 1.59813E-01 7.56510E-02 4.59220E-04-1.37927E-02-5.50727E-02
 -1      2441 1.01339E+00 5.04374E-01 1.37633E-02-6.07866E-02-4.55935E-02-1.48522E-01
 -1      2442-1.71232E-01-9.56798E-02 2.06836E-02-7.22857E-02 9.20886E-03-6.44288E-02
 -1      2443-6.96347E-01-4.10966E-01-2.35300E-01 5.60727E-02 3.61011E-02-4.97308E-02
 -1      2444-7.27961E-03 2.09926E-02-4.14189E-03 3.30842E-02-6.37804E-03-2.78383E-02
 -1      2445 5.75097E-03 1.67813E-02-2.28195E-02-7.36549E-02-8.31420E-03-1.48596E-02
 -1      2446-2.71976E-01-1.63352E-01-1.38886E-01-9.46252E-02 1.61404E-02-5.62534E-02
 -1      2447 4.45566E-01 2.35963E-01 1.25830E-01 7.02946E-02 3.12213E-02-1.01864E-01
 -1      2448-1.47321E-01-1.19606E-01-1.81047E-01-9.81452E-03 2.17014E-01 8.27623E-02
 -1      2449-2.32715E-01-2.32681E-01-7.98653E-02 5.36281E-02 6.40589E-02 3.11378E-01
 -1      2450-1.56128E-01-1.28656E-01-1.22649E-01-8.94583E-02 6.19997E-03-8.70007E-02
 -1      2451-4.23597E-01-2.16414E-01-2.53119E-01-1.12181E-02-2.98915E-01 4.15742E-01
 -1      2452 2.38620E-01 1.46696E-01 7.10691E-02-9.30741E-02-1.86136E-03-6.46583E-02
 -1      2453 1.35870E-01 2.90984E-02-3.95599E-02-4.56458E-02-3.06159E-02-4.71339E-02
 -1      2454 3.59756E-01 1.93277E-01 6.86559E-02-1.42301E-01-3.20914E-02-6.50488E-02
 -1      2455 4.43816E-01 2.92687E-01 2.57105E-01-4.87729E-02-5.42354E-02 6.25546E-02
 -1      2456 2.42837E-01 3.09335E-01 2.66716E-01-1.58923E-02-6.46538E-02 2.10002E-01
 -1      2457 2.59210E-01 2.87779E-01 1.81258E-01-2.88611E-03-2.27030E-02 3.51827E-01
 -1      2458 4.86546E-01 2.77320E-01 1.70470E-01 1.65150E-02 1.01511E-02-4.42090E-02
 -1      2459 6.55785E-02 1.14366E-01 5.12845E-02-8.90197E-03 1.13840E-01 2.72356E-02
 -1      2460-1.04049E-01-1.13922E-01-8.12400E-02 3.62108E-02-1.06349E-01 6.28633E-02
 -1      2461 1.42258E-01 7.17864E-02 3.48165E-02 4.36944E-02-4.37508E-02-1.12131E-01
 -1      2462 4.61080E-01 2.51793E-01 1.91597E-01-5.08654E-02 3.53697E-02-5.12524E-02
 -1      2463-1.04087E-02-4.92385E-02-3.59116E-02-1.58408E-02 6.85569E-02 5.79493E-03
 -1      2464 2.35194E-02 1.78580E-02-3.29794E-02-8.31991E-02-1.24718E-02-1.04797E-01
 -1      2465-2.03935E-01-1.84429E-01-7.59640E-02-1.01121E-01-3.45861E-03-6.17059E-02
 -1      2466-2.07506E-01-1.27120E-01 5.64430E-02-7.75887E-02-6.27499E-03-4.30840E-02
 -1      2467-1.15976E-01-1.11409E-01-3.05318E-02-7.12410E-02-1.17904E-03-5.42408E-02
 -1      2468 1.98804E-01 9.01107E-02 2.70062E-02-5.73576E-02-5.33601E-02-5.03778E-02
 -1      2469-2.68092E-01-1.59134E-01-1.00601E-01-1.48910E-02 9.35665E-02-9.04020E-03
 -1      2470 1.55680E-01 1.25866E-01 1.48722E-01 6.57291E-02 1.52042E-02-8.75289E-02
 -1      2471-2.82393E-01-1.03308E-01-7.39711E-02-7.93137E-02 1.07174E-02-6.40693E-02
 -1      2472 1.83355E-01 1.64358E-01 1.08048E-01 2.74952E-02 3.83101E-01 2.83403E-01
 -1      2473 9.80724E-02 8.32304E-02 3.86986E-02-7.60570E-02-1.48852E-02-1.36133E-02
 -1      2474-3.08191E-01-1.97168E-01-1.65962E-01-2.34513E-02 6.54993E-02-1.64091E-02
 -1      2475 4.37601E-01 2.39496E-01 5.42192E-02-9.84525E-02-4.35227E-02-8.31283E-02
 -1      2476 3.36100E-01 1.38325E-01 6.12579E-02-3.19531E-02-3.78908E-03-6.08686E-02
 -1      2477 1.61870E-01 1.59190E-01 1.33411E-01-4.41469E-02-1.06228E-02-9.74686E-03
 -1      2478-2.40459E-01-1.08567E-01-4.73341E-02-1.16062E-01 3.59857E-02-7.27801E-02
 -1      2479-4.86332E-01-2.92316E-01-1.77360E-01-9.75014E-02 1.52510E-02-6.05070E-02
 -1      2480 3.63274E-01 2.16244E-01 1.36603E-01-9.40866E-02-3.13126E-02-3.39062E-02
 -1      2481 2.41713E-01 2.25165E-01 1.59100E-01 4.01044E-02 5.70719E-02 3.94625E-02
 -1      2482-3.89527E-01-2.50311E-01-1.77591E-01-4.64542E-02 3.62511E-03-3.72063E-02
 -1      2483 2.20853E-01 5.24505E-02-4.19452E-02-1.64583E-01 8.56050E-03-1.12448E-01
 -1      2484 2.11523E-01 1.17401E-01 5.32247E-02-6.31804E-02-3.31452E-02-4.66291E-02
 -1      2485 1.33036E-01 6.84999E-02 4.99772E-02 1.08843E-01 1.07559E-02-1.21909E-01
 -1      2486 2.74540E-01 1.34673E-01 5.12601E-02-4.89257E-02-6.08741E-02-1.28542E-02
 -1      2487-2.82326E-02 3.16898E-02 4.45348E-02 1.24452E-01-3.37898E-02-2.27623E-01
 -1      2488-4.79201E-01-2.30572E-01-4.50706E-02 7.26073E-02-2.06953E-02-7.40350E-02
 -1      2489 1.71913E-01 2.30462E-01 2.25594E-01 1.81797E-01-1.33425E-01-4.35690E-01
 -1      2490 4.85110E-01 6.20041E-01 3.83760E-01 2.47129E-01-1.27230E-01-2.41841E-01
 -1      2491 1.99341E-01 1.65843E-01 6.18316E-02-2.75275E-02-1.58781E-02-2.08788E-01
 -1      2492-2.88255E-01-5.49344E-01-1.57583E-01 3.53576E-01 1.54805E-01-1.80815E-01
 -1      2493 1.88717E-01 7.95961E-02 1.51086E-01-1.48972E-01 1.09988E-01-3.83676E-01
 -1      2494 3.19848E-01 1.31370E-01 2.10213E-01-1.59408E-01 7.35681E-02-3.21383E-01
 -1      2495-2.87286E-01-4.06725E-01-3.10910E-01 2.33584E-01 2.03224E-01-3.13753E-01
 -1      2496-2.71443E-01-3.27667E-01-2.65673E-01 1.68264E-01 8.71766E-02-2.69043E-01
 -1      2497 2.91012E-01 3.11134E-01 8.64203E-02 1.24609E-01-5.92042E-02-6.58536E-02
 -1      2498-5.15360E-01-3.30843E-01-1.42131E-01-1.47353E-02 1.15797E-02-5.24770E-02
 -1      2499-3.39604E-01-6.97713E-01-5.82161E-01 1.36661E-01 1.19715E-01-2.52217E-01
 -1      2500 4.51861E-01 2.05808E-01 1.10590E-01-5.58791E-02-2.06725E-02-6.98861E-02
 -1      2501 2.19660E-01 1.38192E-01 2.09715E-02-3.28720E-02-2.28202E-02-1.71013E-01
 -1      2502 4.30123E-01 2.83846E-01 8.54901E-02 4.96936E-02 9.08935E-03-1.79113E-01
 -1      2503 2.68047E-01 9.68873E-02 1.00758E-01 3.46791E-02-6.00741E-02-1.27180E-01
 -1      2504 9.81443E-02 7.09376E-02 4.48623E-02-1.51061E-01-1.71042E-02-1.28046E-01
 -1      2505-9.55498E-02-1.66833E-01-1.48015E-01 1.36610E-01 1.45582E-01-3.87149E-01
 -1      2506 2.57241E-01 1.65332E-01 8.84529E-02 1.49171E-01-9.40981E-02-3.59158E-01
 -1      2507-2.56645E-01-1.36909E-01-1.89239E-01 8.04076E-02-5.68302E-02-5.54932E-02
 -1      2508-2.23334E-01-3.60542E-01-2.48992E-01-1.90985E-01-1.56039E-01-2.49456E-01
 -1      2509 2.26312E-01 3.51344E-01 3.12751E-01 2.11941E-01-1.64413E-01-3.48521E-01
 -1      2510 2.10928E-01 1.05795E-01-1.78501E-02-5.71829E-02 4.68987E-02-1.79932E-01
 -1      2511-1.42712E-01-1.09026E-01 2.68497E-02-1.33271E-01 4.10362E-02-2.09367E-01
 -1      2512-1.13274E-01-1.05455E-01 3.41683E-02-8.67513E-02-6.35337E-02-1.15674E-01
 -1      2513 3.33148E-01 2.40925E-01 1.97498E-01 2.41811E-01-1.83772E-01-4.17927E-01
 -1      2514 3.07416E-01 2.12143E-01 9.41047E-03 6.90456E-02 4.44527E-02-1.75506E-01
 -1      2515-3.69665E-01-2.35884E-01-3.73247E-01-1.41570E-01-1.37356E-01-4.53033E-01
 -1      2516-4.42838E-01-2.51774E-01 1.04510E-02-2.60920E-02-6.79499E-02-8.27621E-02
 -1      2517-2.14464E-01-7.41455E-01-1.63407E-01-2.49792E-01-7.53173E-02-1.18892E-01
 -1      2518-5.70206E-02-3.00640E-03 1.27065E-02 7.23190E-02 2.04519E-03-3.33216E-01
 -1      2519-1.65696E-01-3.07906E-01-3.91625E-01-2.00866E-01-1.36051E-01-3.02753E-01
 -1      2520-6.67094E-01-4.25112E-01-2.79973E-02-2.53654E-02 7.06338E-03-1.30854E-01
 -1      2521 3.73515E-01 4.91970E-01 1.16466E-01 3.95626E-01-7.82887E-02-1.37803E-01
 -1      2522 4.23584E-01 2.34858E-01-1.19619E-01 1.52464E-02 6.70816E-02-1.23653E-01
 -1      2523 1.16673E-01 1.48510E-01 1.61084E-01 1.46966E-01-1.04878E-01-4.07698E-01
 -1      2524 8.80870E-02 1.66290E-01 8.86428E-02 6.30242E-02-6.06958E-02-1.04631E-01
 -1      2525 6.41497E-01 3.06242E-01 1.51108E-01-6.02057E-02-3.92286E-02-1.47519E-02
 -1      2526 1.78315E-01 1.34619E-01 1.38330E-01-6.89138E-02 1.57524E-02-4.19264E-01
 -1      2527-2.90963E-01-5.64818E-01-2.58019E-01 3.45592E-01 2.08888E-01-2.01394E-01
 -1      2528 2.58435E-01 7.89603E-01 2.80728E-01-1.93287E-01 7.76593E-02-1.49076E-01
 -1      2529 4.87156E-02 1.19190E-02 2.44697E-02-1.12059E-01 1.08477E-02-3.55873E-01
 -1      2530-3.26625E-01-1.93247E-01-2.64541E-01-2.14533E-01-8.22800E-02-2.96352E-01
 -1      2531-9.22572E-02-1.41117E-01-3.94087E-02 3.96513E-02 3.69545E-02-9.96523E-02
 -1      2532-3.51539E-01-1.59807E-01 4.45402E-03-1.85760E-01 7.40223E-02-1.81658E-01
 -1      2533-2.44715E-01-7.96895E-01-2.99264E-01 2.51413E-01 8.46294E-02-1.63221E-01
 -1      2534 4.11224E-01 5.28598E-01 2.74660E-01 2.79942E-01-2.29013E-01-2.52096E-01
 -1      2535 2.41735E-01 3.33140E-01 3.15723E-01-1.68408E-01 1.58621E-01-3.60394E-01
 -1      2536 3.28665E-01 8.18101E-02-3.44387E-02-7.40123E-02 4.17862E-02-1.99178E-01
 -1      2537-1.94228E-01-7.10814E-01-4.94067E-01-1.94221E-02-7.01857E-02-1.47661E-01
 -1      2538-2.11467E-01-8.55407E-01-4.16445E-01-2.00516E-02-3.09988E-02-1.00983E-01
 -1      2539 4.68307E-01 2.23610E-01-2.82147E-03 1.60043E-01 1.00520E-01-1.18637E-01
 -1      2540 1.79225E-01 2.03914E-01 9.09746E-02 3.85860E-02-9.43798E-02-2.24225E-01
 -1      2541-1.59088E-01-1.61394E-01-3.36917E-01-1.21998E-01-1.76418E-01-4.21933E-01
 -1      2542 6.51736E-02-1.44364E-02 5.26719E-02-1.24473E-01 2.35940E-02-4.60055E-01
 -1      2543-6.43422E-01-4.07533E-01-1.99990E-01-7.66955E-02 2.37977E-02-6.60438E-02
 -1      2544-1.09624E-02 5.49165E-03-7.04506E-02-3.50911E-02 3.27609E-02-8.21221E-02
 -1      2545-9.30889E-03 5.14192E-02-1.03141E-02-3.98494E-02 2.79197E-02-1.31980E-01
 -1      2546 4.03948E-01 2.80487E-01 2.47202E-01 9.22383E-02 5.41429E-02-8.73483E-02
 -1      2547 5.02400E-01 3.03906E-01-9.46257E-03 1.36766E-02 8.07225E-02-1.53603E-02
 -1      2548-7.10766E-01-3.73142E-01-1.41086E-01 1.02490E-01-3.51112E-02-6.26622E-02
 -1      2549 1.58915E-01 7.24941E-01 2.46273E-01 1.49295E-01-1.15620E-01-1.22509E-01
 -1      2550-1.73309E-01-3.66911E-01-3.50949E-01 1.87606E-01 1.52702E-01-3.42348E-01
 -1      2551 5.34865E-01 1.47770E-01 2.50735E-01 2.44556E-01-2.30460E-01-3.90867E-01
 -1      2552 2.81288E-01 4.68915E-01 9.06467E-02 6.61026E-02-4.26622E-02-8.00338E-02
 -1      2553-8.31648E-02-4.52927E-02-4.09835E-02-6.59029E-02-2.31255E-02-2.17346E-01
 -1      2554 1.98395E-01 3.13792E-01 6.16717E-02 1.41327E-01-1.02651E-01-1.10668E-01
 -1      2555 4.03171E-01 1.65271E-01 1.15816E-01 6.40285E-02 3.27823E-02-6.93215E-02
 -1      2556 2.96970E-01 8.76725E-02-2.12683E-02 1.87924E-02 1.18239E-02-1.90463E-01
 -1      2557 5.39907E-01 7.87032E-01 3.96190E-01 4.86477E-01-2.63951E-01-1.78625E-01
 -1      2558-6.19983E-01-3.78717E-01-1.80868E-01 7.19060E-02-7.09714E-02-5.18291E-02
 -1      2559 2.07237E-01 1.67749E-01 3.18272E-02-8.49017E-02 7.82584E-02-1.24141E-01
 -1      2560 7.26896E-01 5.45394E-01 2.40651E-01 3.18954E-01-1.19918E-01-3.05372E-01
 -1      2561 3.23731E-01 9.42902E-01 2.12098E-01-3.22084E-01 1.15552E-01-1.19479E-01
 -1      2562-2.83343E-01-9.72283E-02-9.04561E-03-7.71032E-02-5.85428E-02-1.91890E-01
 -1      2563-2.00806E-01-1.25098E-01-1.12181E-01 2.26420E-02 4.80566E-03-1.91052E-01
 -1      2564-1.39241E-01-7.10048E-01-3.24341E-01 1.75296E-01 1.17777E-01-1.60471E-01
 -1      2565-3.04314E-01-9.92691E-02-4.36995E-02 1.49624E-01 1.15634E-01-3.49919E-01
 -1      2566-2.92883E-02-2.53181E-02 5.66665E-02-4.79081E-02-4.17930E-02-6.00779E-02
 -1      2567-2.02924E-01-8.48135E-02-1.24162E-01-7.81680E-02-1.10869E-01-4.12519E-01
 -1      2568-2.37019E-01-1.27216E-01-2.15870E-01-3.34499E-02-1.16644E-03-3.66164E-01
 -1      2569-3.42521E-02-3.62659E-02 8.54559E-02 5.85101E-03-2.87250E-02-8.53252E-02
 -1      2570-1.60131E-01-1.17048E-01-6.91467E-02-3.77486E-02-6.18589E-03-2.05079E-01
 -1      2571 4.75675E-01 5.77004E-01 2.37179E-01 4.10088E-01-3.45797E-01-2.15221E-01
 -1      2572 8.18006E-01 1.87403E-01 3.79453E-01 2.63900E-01-3.30744E-01-4.86049E-01
 -1      2573 1.21889E-02-7.86232E-02-1.24079E-01 7.55529E-02-2.53981E-02-1.63792E-01
 -1      2574 1.99826E-01 1.30330E-01 2.83312E-02-8.29859E-02-2.58505E-02-2.01500E-01
 -1      2575 5.66326E-01 3.64158E-01 1.59558E-01-2.52634E-02-2.07801E-02-4.86838E-02
 -1      2576-1.85848E-01-5.49598E-01-4.38815E-01-1.14862E-01-9.61303E-02-1.95041E-01
 -1      2577 3.38132E-01 4.94659E-01 5.07895E-01-7.30372E-02 4.80595E-02-2.82675E-01
 -1      2578-2.42243E-01-1.19460E-01-2.52551E-02-1.65159E-01-1.08061E-02-7.25505E-02
 -1      2579-4.16174E-01-5.78868E-01-4.91326E-01 4.11577E-01 2.84019E-01-3.56916E-01
 -1      2580 1.38291E-01 9.54571E-01 2.33729E-01-7.55759E-03-4.72825E-02-5.09629E-02
 -1      2581-4.30866E-01-6.42181E-01-1.53340E-01 5.56436E-01 1.16702E-01-1.72965E-01
 -1      2582-1.18352E-01-2.52287E-01-1.04656E-01 6.93941E-02 9.49508E-02-1.38683E-01
 -1      2583-4.35996E-01-4.19067E-01-8.72698E-02 2.42577E-01 4.30016E-02-1.69137E-01
 -1      2584-2.40598E-01-3.33960E-02 6.53255E-02 1.58616E-01-8.27375E-02-2.06352E-01
 -1      2585-2.75940E-04-8.46582E-02 1.88889E-02 1.89076E-01 3.91324E-02-8.32910E-02
 -1      2586 4.40727E-01 3.26724E-01 2.46058E-01 1.63014E-02 1.93160E-02-2.03739E-01
 -1      2587 4.19702E-01 1.91726E-01 3.36184E-01-2.55068E-01 1.82776E-01-3.66039E-01
 -1      2588 1.43758E-01 1.53228E-01 2.16856E-02 2.96675E-02-5.54905E-02-1.42156E-01
 -1      2589 3.39374E-01 1.01794E+00 2.50930E-01 2.10592E-01-6.49454E-02-1.23781E-01
 -1      2590 2.09127E-01 8.07484E-01 1.00600E-01 2.10960E-01-1.03268E-01-1.78501E-01
 -1      2591 7.86721E-01 5.44805E-01 3.10344E-01 1.00042E-02 4.81778E-02 1.11643E-02
 -1      2592-3.86767E-01-8.35867E-01-6.35373E-01 1.90634E-01 1.45127E-01-1.78299E-01
 -1      2593-1.92985E-01-8.73165E-01-4.65668E-01 8.96174E-02 1.59377E-02-1.35582E-01
 -1      2594-1.07359E-01-8.00940E-02 4.57490E-02 8.46598E-02 7.89205E-02-1.13966E-01
 -1      2595-7.87565E-02 4.69596E-02-5.35883E-04-7.89430E-03-4.66230E-04-2.50062E-01
 -1      2596-3.61610E-01-6.65524E-01-4.43764E-01 1.82530E-01 9.20422E-02-1.87190E-01
 -1      2597-3.51351E-01-1.73371E-01-1.72393E-01-1.66477E-01-1.49581E-01-4.21421E-01
 -1      2598 5.15791E-02 2.11714E-02 5.76935E-02 2.30896E-03 4.34519E-02-1.21688E-01
 -1      2599-8.01471E-01-5.73995E-01-1.85227E-01 3.22952E-02-2.56858E-02 2.78652E-02
 -1      2600 3.91326E-01 1.52421E-01 2.32513E-02-1.42418E-01-1.20982E-01-2.04218E-01
 -1      2601 6.01869E-01 4.06012E-01 2.20004E-01 9.38005E-02-1.89623E-02-4.01991E-02
 -1      2602 3.99681E-01 4.88749E-01 1.76719E-01-2.52352E-01 1.56591E-01-2.81301E-01
 -1      2603 4.29152E-02-8.17388E-03-5.89373E-02-6.13465E-02 1.23632E-02-9.61627E-02
 -1      2604-3.57000E-01-1.89631E-01-1.12118E-01 3.95155E-02 2.96957E-02-1.28331E-01
 -1      2605 3.60439E-01 1.86322E-01 9.93659E-02 3.52476E-02 8.33723E-04-1.37239E-01
 -1      2606-4.47233E-01-6.70624E-01-6.26493E-01-8.97290E-02-7.03802E-02-3.47358E-01
 -1      2607 2.50206E-01 6.88821E-02 8.29795E-02-7.09790E-02 6.29472E-02-5.37549E-01
 -1      2608-2.74165E-02-1.98088E-02-6.36445E-02 1.03317E-01 1.70417E-03-9.08623E-02
 -1      2609 4.17175E-02 3.32258E-02-4.19917E-03 1.38498E-01-1.77197E-02-1.08907E-01
 -1      2610-7.25848E-01-4.34407E-01-1.43318E-01 1.38968E-01 4.30753E-02-2.60669E-01
 -1      2611 3.54551E-01 6.26084E-01 4.43603E-01 2.63474E-01-1.32051E-01-2.48572E-01
 -1      2612-2.77018E-01-1.51665E-01-9.29551E-02-6.69229E-02 2.51230E-02-7.63476E-02
 -1      2613 6.08141E-01 2.84795E-01 5.91475E-02-1.49654E-01-6.06537E-02-7.45124E-02
 -1      2614 2.18372E-01 1.05546E-01-1.82238E-02-1.17334E-01-5.23227E-02-9.16464E-02
 -1      2615 1.10364E-02 1.99460E-03-4.76004E-03-9.96217E-02 2.76645E-03-8.54269E-02
 -1      2616 2.64860E-01 3.30573E-01 1.66133E-01-1.15392E-01 1.60434E-02-5.79791E-02
 -1      2617 3.53451E-01 8.73382E-02 9.51451E-02-8.00617E-02-5.02823E-02-9.59334E-02
 -1      2618-3.34499E-01-1.09647E-01-4.34825E-02-1.39896E-01 4.39479E-02-1.07582E-01
 -1      2619-3.94631E-01-3.37885E-01-3.88043E-01-5.95324E-02-4.42585E-02-4.61047E-01
 -1      2620-3.52744E-01-8.11645E-01-1.04879E-01-3.09278E-01-6.50919E-02-1.80498E-01
 -1      2621-3.36074E-01-4.50461E-01-2.20360E-01-2.79823E-01-9.99831E-02-2.35653E-01
 -1      2622-3.69931E-01-1.18109E-01-2.02859E-01-4.35994E-02 5.54863E-02-3.60481E-01
 -1      2623-2.82535E-01-1.09368E-01-3.73899E-03 7.53075E-02 6.34476E-02-1.86884E-01
 -1      2624-3.07068E-01-9.16129E-01-5.37363E-01 2.19847E-01 1.74559E-01-1.55888E-01
 -1      2625-6.65398E-02 5.12323E-02 7.16010E-02-3.00282E-02-3.81141E-02-4.69860E-01
 -1      2626-2.75504E-01-1.85609E-01-8.92112E-02-1.06148E-01 2.44575E-02-2.31258E-01
 -1      2627-1.86015E-01-1.02846E+00-4.50685E-01 3.32895E-02 2.04521E-02-1.24929E-01
 -1      2628-6.45861E-01-7.88164E-01-7.16866E-01 1.20387E-01 8.83277E-02-3.30000E-01
 -1      2629 1.57878E-01-6.66285E-02 4.39834E-02 5.41452E-02-7.99842E-02-2.26646E-01
 -1      2630 9.28807E-02 2.53843E-01 1.17676E-01-5.59367E-02 8.22018E-02-1.42581E-01
 -1      2631-6.45491E-01-2.00462E-01-2.92411E-01-1.88516E-01-2.87875E-01-4.13717E-01
 -1      2632-3.27867E-01-8.47071E-02 6.09471E-04-4.86346E-03-1.20597E-02-2.16905E-01
 -1      2633 2.23192E-01-5.12682E-02 7.19009E-02-1.01385E-01 2.75738E-02-3.64412E-01
 -1      2634 1.01447E-01 1.06592E-01-4.68068E-02-4.34878E-02 7.69235E-02-1.32969E-01
 -1      2635-2.71807E-01-2.73433E-01-1.37766E-01-1.59206E-01-1.05392E-01-2.97029E-01
 -1      2636 4.37682E-01 4.25427E-01 9.11347E-02-3.28267E-01 8.76897E-02-1.95336E-01
 -1      2637-1.94289E-01-1.91978E-01-1.33172E-01-7.31487E-02-6.61670E-02-2.07811E-01
 -1      2638-3.35431E-01-1.52718E-01-1.12331E-01 1.33083E-01 1.63125E-01-4.56695E-01
 -1      2639-3.59138E-01-4.10697E-01-3.53451E-01-3.49501E-01-2.90918E-01-2.70183E-01
 -1      2640 1.61442E-01 2.43285E-01 2.91934E-01-1.50196E-02 8.60620E-02-2.54826E-01
 -1      2641-1.16952E-01-9.49861E-02-2.80759E-02 1.00391E-01 6.98563E-02-1.35956E-01
 -1      2642 2.92494E-01 3.13706E-01 4.21670E-01 5.90983E-02-6.83756E-02-3.92421E-01
 -1      2643 1.34100E-01 7.60035E-01 4.10835E-01-3.40228E-02-7.02913E-02-1.27831E-01
 -1      2644-4.96287E-02-1.08252E-01-6.17193E-02 2.72565E-02 2.06281E-02-6.06593E-02
 -1      2645 1.78201E-01 5.93214E-01 4.32951E-01-1.81241E-01 1.44859E-01-2.41551E-01
 -1      2646-4.77002E-01-6.44696E-01-6.05876E-01 4.71662E-02 3.20246E-02-3.37394E-01
 -1      2647-3.37428E-01-4.96321E-01-5.06030E-01 1.68921E-01 1.08994E-01-2.59421E-01
 -1      2648-3.62029E-01-5.18935E-01-4.41790E-01 1.57665E-01 5.36822E-02-3.41930E-01
 -1      2649-3.70682E-01-1.54488E-01-1.21336E-01 1.22499E-01-6.02529E-02-6.82461E-02
 -1      2650 1.39133E-01 1.21643E+00 2.29854E-01 9.65705E-02-3.89337E-02-1.07140E-01
 -1      2651-4.25081E-01-1.55441E-01-2.20683E-02 8.27690E-02-9.63357E-02-1.86904E-01
 -1      2652 3.72126E-01 2.79113E-01 3.23425E-01-1.04817E-01 9.34074E-02-4.53488E-01
 -1      2653-3.00329E-01-2.07622E-01-2.71253E-01 9.68699E-02 4.86651E-02-4.45977E-01
 -1      2654 1.43313E-02-2.23377E-01-1.74606E-01-5.36803E-02 5.17117E-02-1.78640E-01
 -1      2655-7.58924E-02-2.02949E-01-1.03643E-01-8.63989E-02-5.44455E-02-1.12165E-01
 -1      2656-3.74005E-01-2.21995E-01-2.91537E-01-2.52184E-02-5.42900E-02-3.19231E-01
 -1      2657-7.64254E-02-1.45615E-01-1.39825E-02 2.72490E-02 1.83596E-02-1.26998E-01
 -1      2658 6.37734E-02 1.81468E-01 1.99988E-01 3.28187E-02-4.99996E-02-4.45749E-01
 -1      2659 6.27787E-01 2.87363E-01 1.51788E-01 2.37870E-01-1.32176E-01-3.66286E-01
 -1      2660-1.12887E-02-8.15639E-03 6.17846E-02-1.78886E-02 1.37760E-02-1.16894E-01
 -1      2661 1.93632E-01 3.79564E-02-1.31272E-02-2.08613E-01-1.72195E-02-1.03825E-01
 -1      2662-1.79658E-01 1.75603E-02-3.77461E-02-1.12337E-01-9.47178E-02-5.05778E-01
 -1      2663 3.56980E-01 2.80714E-01 3.23010E-01 9.34298E-02-1.31125E-01-4.82763E-01
 -1      2664 4.87197E-01 2.82676E-01 4.64691E-02 2.03872E-01-8.09190E-02-3.89947E-01
 -1      2665 4.10806E-02 2.89281E-02 3.08416E-02-1.72152E-02-3.00446E-03-7.39806E-02
 -1      2666-3.62584E-01-3.99314E-01-4.01939E-01 1.25685E-01 1.27133E-01-3.74321E-01
 -1      2667 2.93336E-01 9.72230E-02-1.38251E-02 8.05488E-02-5.02848E-02-1.88913E-01
 -1      2668-2.55253E-01-1.07113E-01-1.05468E-01-2.23399E-01-6.17170E-02-2.23650E-01
 -1      2669 1.13986E-01 1.53599E-02-3.24023E-02-2.08750E-02 4.75323E-02-5.78646E-01
 -1      2670 2.32975E-01 2.18173E-01 7.68765E-02-6.94052E-02 7.54584E-02-1.85285E-01
 -1      2671 4.91383E-01 5.82794E-01 5.39322E-01-1.80271E-01 1.32660E-01-4.20026E-01
 -1      2672-1.65462E-01-8.43226E-01-4.76845E-01-1.09267E-01-2.28715E-02-1.44747E-01
 -1      2673-8.98930E-01-6.34340E-01-1.21762E-01 1.52722E-02-8.34460E-02-1.69922E-02
 -1      2674 3.08377E-01 1.67818E-01 7.89299E-02-9.14666E-02 2.61097E-02-2.40620E-01
 -1      2675-8.22696E-01-2.46355E-01-4.78346E-01 1.86434E-01 2.79299E-01-4.53833E-01
 -1      2676 1.33870E-01 1.56308E+00 2.48633E-01 1.33803E-01-5.89983E-02-8.26236E-02
 -1      2677 2.74677E-01 1.00599E+00 1.94717E-01-1.23589E-01-1.50110E-03-1.49478E-01
 -1      2678 3.94163E-01 2.27032E-01 4.16311E-01-9.41534E-02 5.07162E-03-5.00560E-01
 -1      2679 1.48945E-01 6.57358E-02 3.06915E-02-1.94697E-02 1.77482E-02-8.23240E-02
 -1      2680 1.81352E-01-2.87422E-01-2.34083E-02-3.11538E-02-1.15322E-01-2.20078E-01
 -1      2681-5.99921E-05 5.49464E-03-4.02543E-02 5.22706E-03-1.99938E-02-9.33777E-02
 -1      2682 5.19125E-02 6.65776E-02-6.99831E-02 3.35408E-02-7.84994E-02-2.35346E-01
 -1      2683 3.19075E-01 3.30288E-01 1.81226E-01 1.73759E-01-1.01175E-01-2.57337E-01
 -1      2684 1.83630E-01 2.83056E-01 3.73924E-01 1.04768E-01-9.21534E-02-5.70894E-01
 -1      2685-4.74994E-01-1.04842E-01-7.99812E-02 1.64362E-01 6.36145E-02-2.64118E-01
 -1      2686 6.30877E-02-1.20369E-02-2.13421E-02-2.21258E-01-1.78616E-02-2.59951E-01
 -1      2687 5.48399E-04-4.55703E-03 6.59074E-02 3.95427E-02 1.74477E-03-1.53904E-01
 -1      2688 6.07544E-01 2.48121E-01 4.44268E-01-3.04817E-01 2.90227E-01-5.22448E-01
 -1      2689 8.91580E-01 5.24262E-01 2.17585E-01 6.82036E-03-8.16325E-04-1.19096E-02
 -1      2690 3.15894E-01 5.40918E-01 2.50810E-01-6.36185E-02 3.06674E-02-7.06124E-02
 -1      2691-1.24595E-03-2.08128E-01-1.06433E-01 8.69545E-02-3.75430E-02-7.71781E-02
 -1      2692 6.87684E-01 2.41366E-01 3.03993E-01-2.95739E-01 3.21601E-01-4.21433E-01
 -1      2693-2.71871E-01-5.88056E-01-6.46178E-01 4.19726E-01 3.07334E-01-3.35287E-01
 -1      2694 2.80545E-01 9.08157E-01 1.20747E-01-2.69901E-01 7.45988E-02-1.27406E-01
 -1      2695 8.06666E-02 1.06295E+00 2.59558E-01-1.01549E-01-9.22843E-02-5.57558E-02
 -1      2696 5.64854E-01 1.37262E-01 1.32336E-01 3.16510E-01-1.26098E-01-3.08784E-01
 -1      2697 4.03883E-01 1.95533E-01-8.98031E-02-8.28808E-02-7.69592E-02-1.78877E-01
 -1      2698 3.50898E-01 2.75490E-01 2.57425E-01-3.85703E-02 1.94449E-02-3.94440E-01
 -1      2699 2.54454E-01 2.39512E-01 4.55893E-01-1.13414E-01 1.55992E-01-4.50433E-01
 -1      2700-8.09676E-03-4.71523E-03 2.35643E-02 5.56446E-02-1.68330E-02-6.04814E-02
 -1      2701 5.54137E-01 7.80480E-01 7.75226E-01-6.02238E-02 8.74789E-02-3.40721E-01
 -1      2702-4.39463E-01 9.77750E-02 3.05665E-02-9.18825E-02 6.26936E-02-2.48886E-01
 -1      2703-1.18601E-02 2.14256E-01 1.07793E-01 9.41351E-02 1.82146E-02-7.88948E-02
 -1      2704-5.19318E-01-6.27704E-01-2.99015E-01 5.07155E-01 2.27912E-01-2.30487E-01
 -1      2705 2.00901E-01 7.26967E-01 6.34939E-01-2.81631E-02-7.28248E-02-2.10305E-01
 -1      2706 3.34857E-01 3.45612E-01 2.55247E-01-1.37461E-01 1.05715E-01-2.90422E-01
 -1      2707 7.00319E-02 2.13738E-01 1.53483E-01 4.05225E-02 5.19768E-02-1.74557E-01
 -1      2708 1.38982E-02 1.05406E-01 1.23517E-01 1.54233E-02-4.49590E-02-6.07720E-02
 -1      2709-4.70582E-01-1.83835E-01-2.06467E-01-2.50682E-01-1.51453E-01-4.43428E-01
 -1      2710-3.61016E-01-2.22880E-01-9.66059E-02 1.29851E-01 1.05145E-01-1.98701E-01
 -1      2711-4.20625E-01-6.85678E-01-3.57751E-01 2.86871E-01 5.31484E-02-2.19953E-01
 -1      2712 5.18326E-01 2.12013E-01 2.80158E-01 2.30761E-01-2.80688E-01-4.69314E-01
 -1      2713-3.00136E-01-2.49855E-01-3.65199E-01 1.33349E-01 6.26747E-02-3.47012E-01
 -1      2714-4.92824E-01-4.46180E-01-4.78447E-01 1.55308E-02 1.50984E-02-4.29390E-01
 -1      2715-3.99996E-01-2.15755E-01-2.59277E-01-1.74970E-02 1.48812E-02-3.92563E-01
 -1      2716-2.66447E-01-1.18877E-01-2.97082E-01-2.81948E-02-2.82611E-02-4.12388E-01
 -1      2717-2.41156E-01-3.64724E-01-9.44635E-02 1.22812E-01 8.50146E-02-2.09956E-01
 -1      2718 3.87198E-01 4.57165E-01 4.04329E-01 1.26224E-01-1.35646E-01-3.32410E-01
 -1      2719 2.53068E-01 5.16193E-01 5.28394E-01 1.67696E-01-1.62223E-01-2.39457E-01
 -1      2720-3.02776E-01-7.07216E-02 1.33147E-02-2.78864E-04-3.21391E-02-2.56671E-01
 -1      2721 2.89072E-02 5.90602E-02-2.96914E-03 2.92882E-02-5.13587E-02-7.67576E-02
 -1      2722 1.51889E-02 1.49551E-01-9.65763E-02-1.77753E-02 1.01830E-02-1.33866E-01
 -1      2723 3.58690E-01 3.23022E-01 3.67740E-01 1.24811E-01-9.48768E-02-3.03407E-01
 -1      2724 3.83134E-01 2.36612E-01 4.05855E-01-1.46604E-01 1.81030E-01-4.81860E-01
 -1      2725 2.76478E-01 2.31135E-01 8.24882E-02 1.48998E-01-8.04211E-02-1.86619E-01
 -1      2726 2.43428E-01 2.45168E-01 1.57292E-01-3.74386E-02 8.54369E-02-2.39307E-01
 -1      2727 2.98395E-01 7.97728E-01 4.21083E-01-3.64063E-01 2.12548E-01-2.31318E-01
 -1      2728 2.80735E-01 2.02252E-01 1.67219E-01 3.47822E-03 3.64324E-02-2.45891E-01
 -1      2729 1.32509E-01 3.11569E-01 1.68261E-01-1.39395E-02 1.22477E-02-1.91144E-01
 -1      2730-1.41631E-01-3.04385E-01-2.71070E-01 3.66726E-02 6.95698E-02-2.23690E-01
 -1      2731-2.66423E-02 1.99927E-02-2.90513E-02 4.04101E-02 1.71646E-03-4.24681E-01
 -1      2732 1.13930E-01 9.34367E-01 4.73506E-01-1.68351E-01-4.37916E-02-1.29421E-01
 -1      2733-1.66202E-01-1.47333E-01-8.56106E-02 3.56523E-02 1.90812E-02-2.62483E-01
 -1      2734-6.78942E-01-4.55568E-01-2.55126E-02 1.08924E-01-7.41985E-02-1.27839E-01
 -1      2735-5.63033E-01-3.14490E-01-3.34051E-01 1.59957E-01 2.01332E-01-5.85183E-01
 -1      2736 1.14998E-01-4.69361E-02 5.46490E-04-1.01354E-01 4.01350E-02-4.69196E-01
 -1      2737-2.69863E-01-2.63624E-01-2.91792E-01-2.10491E-01-2.36214E-01-3.93371E-01
 -1      2738-2.87110E-01-2.23001E-01-1.38217E-01-1.98606E-01-2.15883E-01-3.10593E-01
 -1      2739-2.33640E-01-1.25361E-01-2.27606E-01-1.68378E-01-2.21386E-01-4.70131E-01
 -1      2740-2.75582E-01-3.91790E-01-3.62938E-01 1.06453E-01 1.42956E-01-3.09075E-01
 -1      2741-5.77374E-01-4.76985E-01-1.31389E-01-2.05655E-01-1.59798E-02-1.68345E-01
 -1      2742 6.33943E-01 2.86995E-01 5.23383E-01 2.10339E-01-1.85125E-01-5.68891E-01
 -1      2743 7.82438E-03 4.89821E-02 2.13053E-02 1.23565E-01-1.46650E-02-5.11095E-01
 -1      2744-1.97646E-01-2.68346E-01-1.96174E-01 1.31485E-01 1.53694E-01-4.25968E-01
 -1      2745 5.38427E-02 1.13462E-01-1.35805E-01 4.58003E-02-3.60781E-02-1.74591E-01
 -1      2746 2.88956E-01 4.95445E-01 1.21109E-01-3.98488E-01 5.81889E-02-1.73959E-01
 -1      2747 3.30711E-01 5.94074E-01 1.98224E-01-2.84107E-01 1.40516E-01-2.15069E-01
 -1      2748 1.94071E-01 7.66799E-01 3.95141E-01-2.53727E-01 1.44545E-01-1.77061E-01
 -1      2749-2.18623E-02-4.88509E-02 1.22698E-01-6.47068E-03-5.63196E-03-1.29077E-01
 -1      2750 3.38362E-01 5.20112E-01 4.66625E-01 3.58461E-01-3.01076E-01-3.30296E-01
 -1      2751 2.98243E-01 2.75099E-02 7.37582E-02-3.11060E-02 9.00879E-02-5.96392E-01
 -1      2752-7.86554E-01-4.47522E-01 1.05165E-02-1.21892E-01 9.17460E-02-1.64702E-01
 -1      2753-2.44642E-01-2.48271E-01-1.78511E-01-4.15067E-02-6.59238E-02-2.72346E-01
 -1      2754-4.41773E-01-3.20930E-01-1.57306E-01 1.88016E-01 4.84828E-02-3.86817E-01
 -1      2755 3.38037E-01-5.41213E-02 1.53100E-01 3.28066E-02-1.38456E-01-4.29569E-01
 -1      2756 3.28237E-01 1.47843E-01 2.90594E-02 2.25788E-01-1.02707E-01-3.15254E-01
 -1      2757 2.83666E-01-4.55109E-02 1.14327E-01-3.48118E-02 8.69317E-02-6.69967E-01
 -1      2758 3.21923E-01 2.12848E-01 2.26482E-01-4.55392E-02 7.60991E-02-2.91638E-01
 -1      2759 3.30638E-01 2.16373E-01-1.00016E-02-3.17601E-02 2.59645E-02-1.38200E-01
 -1      2760-3.75783E-01-5.03168E-01-1.48104E-01-2.80267E-01-1.49701E-01-2.55698E-01
 -1      2761 4.20390E-01 4.98157E-01 3.51232E-01-2.34833E-01 1.81004E-01-3.15455E-01
 -1      2762-3.86023E-01-3.68033E-01-5.82459E-01 9.67632E-02 5.40771E-02-3.69098E-01
 -1      2763 5.44099E-01 2.38562E-01 9.78683E-02 9.04396E-02 1.20078E-03-3.48790E-01
 -1      2764-2.41575E-01-7.97001E-01-6.81584E-01 1.79101E-01 1.62525E-01-2.54735E-01
 -1      2765-2.14931E-02-1.49116E-01-7.99719E-02 1.56819E-01-7.89795E-02-1.75493E-01
 -1      2766 7.80245E-01 4.86802E-01 2.03239E-01-6.14719E-02-7.29515E-02-6.08707E-02
 -1      2767-7.09813E-01-6.85452E-01-4.37183E-01 5.11530E-01 2.72265E-01-2.08190E-01
 -1      2768 1.49483E-01 2.68503E-01 2.87461E-01-3.55068E-02 7.86876E-02-4.67604E-01
 -1      2769 3.15829E-01 4.66126E-03 9.42442E-02-2.59469E-02 1.18524E-01-6.19314E-01
 -1      2770 1.05396E-01 2.18224E-01 1.63257E-01 4.30075E-02-5.85620E-02-2.35726E-01
 -1      2771 2.49530E-01 1.46656E-01 4.07450E-02 1.23163E-01-5.80905E-02-2.41082E-01
 -1      2772 6.98208E-02 3.22330E-02-2.83458E-02-1.92801E-01-5.09972E-02-2.44232E-01
 -1      2773-3.62716E-01-1.01112E-02-1.34491E-01-2.29298E-02-6.72382E-02-5.87648E-01
 -1      2774-2.14019E-02-1.26831E-01-1.05729E-01-3.00195E-02-2.45312E-02-8.32114E-02
 -1      2775 4.50581E-01 3.17407E-01 2.11218E-01 1.98508E-01-1.63251E-01-4.64062E-01
 -1      2776-4.33179E-01-6.14194E-01-6.27225E-01 2.04342E-01 1.15210E-01-2.73644E-01
 -1      2777-1.17278E-01-1.07513E-01 2.79741E-02-3.82723E-02 4.68311E-02-1.91233E-01
 -1      2778 1.99267E-02-4.84195E-03 3.14118E-02 3.40416E-02-1.45681E-01-6.39533E-01
 -1      2779 5.54333E-01 3.93871E-01 5.42279E-01-1.55377E-01 1.82695E-01-4.93122E-01
 -1      2780-7.39492E-01-4.34662E-01-2.17258E-01-1.55030E-01-4.77327E-03-2.90826E-01
 -1      2781-1.76748E-01-1.53149E-01-6.44524E-02 3.31796E-02 7.44790E-02-2.26188E-01
 -1      2782 3.60180E-01 2.63508E-01 1.69370E-01 8.87369E-02 6.52665E-04-2.19859E-01
 -1      2783-2.82262E-01 1.56391E-01-1.27818E-01-4.47937E-02-1.41019E-01-4.27621E-01
 -1      2784 2.59211E-02 3.37575E-01 1.53042E-01 3.16905E-02-9.90752E-02-8.76146E-02
 -1      2785-6.90992E-01-1.15440E-01-1.35477E-01 3.08946E-01 2.04415E-01-4.34188E-01
 -1      2786-3.05808E-01-2.11782E-01-2.43997E-01 9.30569E-02 7.13285E-02-2.80847E-01
 -1      2787 5.10745E-01 5.15081E-01 3.41520E-01-2.78372E-01 1.44267E-01-3.60559E-01
 -1      2788-2.79675E-01-1.85454E-01-2.33902E-02-2.14076E-02-1.14398E-03-2.07166E-01
 -1      2789 4.20137E-01-2.06832E-01 1.59923E-01-9.91451E-02-1.33496E-01-3.50045E-01
 -1      2790 4.90821E-02 1.34332E-01 1.73494E-01-5.48015E-02-3.67330E-02-2.48343E-01
 -1      2791-1.93948E-01-8.76632E-01-2.81438E-01 3.23035E-02-2.93072E-03-9.90009E-02
 -1      2792-3.90104E-01-6.22593E-01-6.79540E-01 2.15745E-01 1.00206E-01-3.52426E-01
 -1      2793-3.11344E-01-4.00612E-02-8.06896E-02-5.93340E-02 8.96556E-02-5.22348E-01
 -1      2794 6.49934E-02 2.02168E-01 4.91234E-02-2.36691E-02 3.06458E-03-6.79208E-02
 -1      2795 2.86143E-01-6.61887E-02 8.04638E-02 2.72671E-01-1.96304E-01-2.00536E-01
 -1      2796-1.75102E-01-1.78887E-01-8.49327E-02-2.59249E-02-6.48968E-02-2.17615E-01
 -1      2797-1.12274E-01-1.15431E+00-1.10550E-01 4.15868E-02-1.22899E-02-1.16301E-01
 -1      2798 3.44746E-01 2.38708E-01 6.64491E-02-8.21111E-02 4.52440E-02-2.75109E-01
 -1      2799 1.32971E-01-5.58783E-02-7.07353E-02-5.41717E-03 1.18342E-02-4.48067E-01
 -1      2800 4.81652E-01 7.85129E-01 7.05099E-01-2.25287E-01 1.34496E-01-2.57353E-01
 -1      2801 1.44523E-01 1.21074E-01 2.20528E-01-7.57389E-02-1.37376E-02-1.75010E-01
 -1      2802 1.07177E-01 2.20087E-01 1.86163E-01-1.02261E-01-2.53057E-02-6.59981E-02
 -1      2803 3.59264E-02 1.33727E-01 8.37495E-02-1.18912E-01-9.49487E-02-1.94190E-01
 -1      2804-2.38821E-01 9.75407E-02-1.18018E-02 2.75632E-02 1.12947E-01-6.38771E-01
 -1      2805-4.53405E-01-5.34603E-01-2.91676E-01 4.45738E-01 2.57483E-01-2.31109E-01
 -1      2806 7.66877E-02-1.02628E-01 3.64143E-02 1.57492E-01 9.30015E-02-1.37564E-01
 -1      2807-3.94807E-01-2.03191E-01-2.64792E-01 2.39824E-01 2.37387E-01-4.28401E-01
 -1      2808 5.70326E-01 2.18507E-01 4.50542E-01-2.23647E-01 2.43925E-01-5.29959E-01
 -1      2809 4.41699E-01 3.41251E-01 1.70829E-01-1.41696E-01 9.07934E-02-3.01266E-01
 -1      2810-1.99882E-01-1.88162E-01-3.31008E-01 9.97123E-02 1.24819E-01-5.30643E-01
 -1      2811-8.06513E-02-7.58507E-02 5.26017E-02 8.85634E-02 1.39999E-01-4.37208E-01
 -1      2812-1.91085E-01-8.56022E-02-5.06119E-03 7.88561E-02 2.30618E-02-2.82996E-01
 -1      2813 2.87974E-01 3.20140E-01 4.84410E-01 1.40252E-01-4.91045E-02-3.73480E-01
 -1      2814 5.32907E-01 2.67299E-01 1.17863E-02 2.23438E-01-1.00905E-01-3.58140E-01
 -1      2815-8.54449E-01-1.30334E-01-4.53506E-02 2.42754E-01 1.94988E-01-2.75570E-01
 -1      2816-1.71046E-01-7.67301E-01-5.61077E-01-7.85371E-02-5.09834E-02-1.69456E-01
 -1      2817 2.31738E-01 1.51673E-01-2.65647E-02-8.50482E-02 7.05584E-02-1.35934E-01
 -1      2818 6.63061E-01 2.82336E-01-1.95074E-02 1.02495E-01 1.36649E-02-1.53994E-01
 -1      2819 2.03299E-01 1.36499E-01 7.35361E-02 1.06446E-01 2.97952E-02-2.12926E-01
 -1      2820 1.03223E-01 1.31763E-01-3.16704E-02 2.05818E-02 1.64944E-02-1.86507E-01
 -1      2821 3.31089E-01 5.42175E-01 4.73305E-01 2.63078E-01-1.91034E-01-3.04381E-01
 -1      2822-3.27726E-01-2.43315E-01-5.42798E-01 5.36251E-02 2.34132E-02-4.61246E-01
 -1      2823-6.59834E-01-6.99681E-01-1.60031E-01 3.56360E-01 3.20115E-02-2.04641E-01
 -1      2824-5.54523E-01-9.96475E-01-3.36506E-01 3.78062E-01 1.32755E-01-1.46943E-01
 -1      2825 4.55616E-01 2.17736E-01 3.10427E-01 7.05106E-02-1.25683E-01-4.87230E-01
 -1      2826 3.92608E-01 1.17590E+00 4.66847E-01-3.08337E-01 2.86609E-02-1.83367E-01
 -1      2827 3.36882E-01 4.85989E-01 4.89443E-01-3.20233E-01 2.92701E-01-3.51184E-01
 -1      2828-9.97463E-02-7.78615E-02 9.51942E-04-5.23103E-02-2.64866E-02-7.30720E-02
 -1      2829-9.31535E-02 4.58918E-02-2.18114E-03 1.11168E-01-4.51331E-03-4.53053E-01
 -1      2830 6.10222E-01 4.27718E-01 2.84365E-01 8.84788E-02-4.43387E-03-2.21647E-01
 -1      2831 2.80257E-01 4.68898E-02-6.17920E-02 1.33567E-02-5.91597E-02-2.41648E-01
 -1      2832 6.22581E-01 3.21911E-01 6.16044E-01-9.76115E-02 6.05884E-02-5.66401E-01
 -1      2833 2.17378E-02 2.34687E-01 1.98306E-01-1.68391E-02-4.60319E-02-1.49098E-01
 -1      2834-8.04868E-01-3.60688E-01-4.24046E-02-1.44005E-01-5.86722E-02-2.54737E-01
 -1      2835-1.50903E-01 8.60022E-02-3.78247E-02-9.81534E-02-7.75597E-02-4.03933E-01
 -1      2836-1.18948E-01-5.86861E-02-9.37092E-02 6.04775E-02-1.64120E-02-4.60709E-01
 -1      2837-3.03396E-01 5.99103E-02-1.50311E-01 3.26498E-02-7.86271E-02-6.12332E-01
 -1      2838-8.95106E-02-1.33062E-01-2.39589E-01-3.93214E-03-4.85672E-02-4.76478E-01
 -1      2839 7.72478E-03 6.63575E-02 1.07238E-01-4.23461E-03-2.48959E-02-6.03933E-01
 -1      2840 3.60789E-01 8.88888E-01 4.45378E-01-3.91882E-01 2.48203E-01-2.12609E-01
 -1      2841-3.11870E-02-4.40843E-02-2.68276E-02-7.00878E-02-1.65411E-02-1.80657E-01
 -1      2842 1.05371E-02 1.94346E-01 4.68976E-03 7.36326E-02-3.45584E-02-1.33947E-01
 -1      2843-5.39189E-01-2.81844E-01-3.71115E-01 1.55539E-01 1.39863E-01-6.31842E-01
 -1      2844-2.00008E-01-3.67635E-01-2.49883E-01-2.70003E-01-1.76695E-01-2.27330E-01
 -1      2845-4.92604E-01-4.81641E-01-3.56264E-01-4.05219E-01-2.91413E-01-2.87411E-01
 -1      2846-1.97030E-01-1.58882E-01-5.25308E-02-1.11739E-01 1.26976E-02-2.17137E-01
 -1      2847-1.46496E-01-1.49112E-01-7.39128E-02 5.96177E-02 4.66545E-02-4.10128E-01
 -1      2848 2.91536E-01 1.25988E+00 2.77011E-01 2.51157E-01 2.12136E-03-1.15016E-01
 -1      2849-6.00228E-01-4.08018E-01-3.72148E-02-9.64820E-02-2.62141E-02-1.70212E-01
 -1      2850 2.94775E-01 1.88503E-01 1.57063E-01 1.65715E-02-5.81284E-02-2.98773E-01
 -1      2851-3.27415E-01-1.12819E+00-2.94087E-01 3.60076E-01 1.37554E-01-8.86631E-02
 -1      2852-6.89001E-01-4.28393E-01-3.79300E-02-3.92963E-03-8.08792E-02-8.82421E-02
 -1      2853 3.18434E-01 5.03705E-02 2.95798E-02-2.32391E-01 8.06310E-02-1.48614E-01
 -1      2854-7.91947E-01-1.29198E-01-9.04405E-02 2.29110E-01 1.86234E-01-3.84934E-01
 -1      2855 4.66263E-01-4.92366E-03 2.24841E-01-1.80881E-02 3.17741E-02-3.38151E-01
 -1      2856-7.36668E-01-7.76904E-01-3.22062E-01 6.58927E-01 2.48917E-01-2.22311E-01
 -1      2857-5.15438E-01-3.14971E-01-4.70887E-01-2.63415E-02-4.67193E-02-5.01775E-01
 -1      2858-6.46810E-01-1.39414E-01-3.22945E-01 2.01745E-01 2.63610E-01-4.88410E-01
 -1      2859-3.79305E-01-3.26242E-01-3.60650E-01-9.05852E-03-3.87923E-02-4.23133E-01
 -1      2860-2.55380E-01-1.10995E-01-1.38241E-01 1.05693E-01-4.56504E-02-5.48548E-01
 -1      2861 1.82864E-01 7.05163E-02-6.05302E-02 7.62583E-02-7.39957E-03-1.66296E-01
 -1      2862-1.33008E-01-2.97620E-01-7.46464E-02-1.62418E-01-9.82744E-02-1.60480E-01
 -1      2863-1.04813E-01-6.40712E-02-1.04916E-01 3.53470E-02 1.50801E-01-5.65798E-01
 -1      2864-9.36060E-02 2.81355E-02-9.41857E-03 6.70582E-03 1.08018E-01-5.58854E-01
 -1      2865-1.29500E-01-3.04808E-01-2.27881E-01-8.14681E-02-1.16435E-01-2.94359E-01
 -1      2866 2.06561E-01 1.60696E+00 9.25908E-02 2.29542E-01-3.42484E-02-9.41456E-02
 -1      2867-3.65561E-01-8.89167E-01-5.96037E-01 2.55445E-01 1.85732E-01-1.31493E-01
 -1      2868-2.69151E-01-1.13621E+00-5.10260E-01 1.05404E-01-3.20816E-02-1.32009E-01
 -1      2869 2.69745E-01 6.39553E-02 8.31252E-02 5.13299E-02 1.80985E-02-5.91373E-01
 -1      2870 3.73477E-01 4.40865E-02 3.05293E-01-1.85553E-02 4.37676E-02-7.42831E-01
 -1      2871-1.17814E-01-6.92520E-01-6.38638E-01 7.96089E-02-4.10490E-02-2.38155E-01
 -1      2872 1.72701E-01 1.36378E-01 1.30561E-02 5.59843E-02-3.58956E-02-1.05805E-01
 -1      2873-3.67829E-02-1.79165E-02-9.71249E-02-5.67703E-02 3.77515E-02-1.54874E-01
 -1      2874 2.17326E-01-3.62461E-02 8.29476E-03-7.14763E-03 9.69392E-02-5.32962E-01
 -1      2875 5.65274E-01 1.50527E-01 3.41371E-01-2.13386E-01 3.38404E-01-5.15886E-01
 -1      2876 4.24936E-01 8.25362E-01 1.26555E-01-3.66820E-01 7.53360E-02-2.00940E-01
 -1      2877-3.57114E-01-6.38258E-01-3.15439E-01 4.62008E-01 2.47259E-01-1.76465E-01
 -1      2878-2.96035E-02-6.93404E-02-7.40100E-02-6.93099E-02-3.05097E-02-8.67440E-02
 -1      2879-1.13578E-01-1.07935E-01-2.29792E-01-4.90566E-02-8.94858E-02-4.50505E-01
 -1      2880 3.41622E-01 1.11909E-01 1.29475E-01-3.04934E-01 2.36896E-01-2.82770E-01
 -1      2881 2.51032E-01 1.57300E-01 5.49018E-02 8.38175E-02 4.29809E-03-1.92028E-01
 -1      2882 1.64119E-01 1.14424E-02 1.14654E-01-4.39083E-02-9.82103E-03-7.17957E-02
 -1      2883 4.32583E-02-1.15833E-01-4.02806E-02-1.91097E-01 1.44942E-01-2.15972E-01
 -1      2884-4.78391E-01-7.39487E-01-6.85676E-01-2.18551E-02-6.04036E-02-2.96258E-01
 -1      2885 2.08231E-02 2.55433E-01 1.98900E-01 1.78734E-01 1.23697E-01-1.77817E-01
 -1      2886-3.76674E-01-1.48855E-01-2.91375E-01 1.14566E-01 9.98009E-02-5.24380E-01
 -1      2887-5.93956E-01-6.24135E-01-5.60451E-01 4.30121E-01 2.98475E-01-2.97420E-01
 -1      2888 2.28831E-01 1.62358E-01 7.80364E-02 6.49976E-02 1.64161E-02-3.96487E-01
 -1      2889-6.01678E-01-9.93689E-01-2.49671E-01 4.17968E-01 1.21438E-01-2.51310E-01
 -1      2890 3.41221E-01 1.45642E+00 1.97142E-01-4.37069E-01 8.83853E-03-4.98019E-02
 -1      2891 2.51888E-01 1.78255E-01 6.39148E-02 1.11434E-02 1.53760E-02-5.91819E-01
 -1      2892-4.63439E-01-5.26348E-01-2.87343E-01 4.99637E-01 2.98284E-01-1.95786E-01
 -1      2893-3.98083E-01-6.56296E-01-4.16365E-01 2.61145E-01 1.00815E-01-2.98401E-01
 -1      2894 3.31201E-01 7.45516E-01 1.45622E-01-3.72980E-01 6.08558E-02-1.48324E-01
 -1      2895 7.26394E-01 7.32200E-01 3.65534E-01-5.89417E-01 1.92027E-01-2.42089E-01
 -1      2896 1.18099E-01-1.66399E-01 8.42642E-03-1.52307E-01-1.42723E-01-9.98230E-02
 -1      2897 1.76940E-01 1.42921E-01-5.63983E-02 5.01129E-02-3.48457E-02-1.06769E-01
 -1      2898 7.50651E-01 2.15303E-01 4.69830E-01 3.42315E-01-1.74680E-01-4.01377E-01
 -1      2899-2.76502E-01-2.86198E-01-1.77378E-01 6.35565E-03-3.51363E-02-2.70532E-01
 -1      2900 1.96105E-01 1.05939E+00 2.53977E-01-1.65376E-01-1.14194E-02-6.00588E-02
 -1      2901 3.45067E-01-2.97606E-02 3.02675E-02 1.44708E-02 9.22657E-02-6.72778E-01
 -1      2902-1.20857E-01-8.40034E-01-2.68906E-01 7.54742E-02-1.58068E-02-1.26688E-01
 -1      2903 4.18418E-01 2.54896E-01 1.26647E-02 2.21314E-01-9.67789E-02-4.34115E-01
 -1      2904 3.51378E-01 1.17345E-01 3.89900E-01-1.14947E-01 1.70002E-01-5.09161E-01
 -1      2905 3.24848E-01 1.47003E-01 2.42703E-02 2.16512E-03 2.46719E-02-1.72602E-01
 -1      2906 3.72130E-01 5.10482E-01 5.57127E-01-3.81877E-01 2.66678E-01-4.25253E-01
 -1      2907 4.73258E-01 2.54643E-01-4.44699E-02-3.39376E-01 1.39091E-01-2.33620E-01
 -1      2908 3.29709E-01 1.62510E-01 4.52985E-02-3.14334E-05 3.19353E-03-1.95575E-01
 -1      2909-2.79751E-01 1.04785E-02-1.24008E-01 2.33495E-02 7.40820E-02-6.51285E-01
 -1      2910 2.32921E-01 1.41156E-01 8.85935E-02-4.78270E-02 2.88244E-02-2.66581E-01
 -1      2911 7.79625E-01 8.56994E-02 1.14686E-02 3.10682E-01-1.00355E-01-1.67079E-01
 -1      2912-2.92068E-01-1.43326E-01-1.91300E-01 5.47422E-02 3.21376E-02-2.86328E-01
 -1      2913-1.48122E-01-8.96543E-02-3.42837E-01 8.73283E-03 9.16946E-02-6.49065E-01
 -1      2914 4.33560E-01 1.53450E+00 4.40747E-01-1.97594E-01 8.50193E-02-8.62652E-02
 -1      2915 3.18379E-01 1.65918E+00 3.33980E-01-2.53096E-01-6.06112E-03-1.44037E-01
 -1      2916 4.26654E-01 1.12131E+00 4.94256E-01-2.25640E-01 8.57116E-02-1.26056E-01
 -1      2917-2.54614E-01-8.60986E-02-1.22385E-02-5.79613E-02 4.17986E-02-4.96737E-01
 -1      2918-4.20424E-01-8.89318E-02-1.07165E-01-1.12502E-01-1.92386E-01-4.91281E-01
 -1      2919-2.25895E-01-1.56785E-01 5.80153E-03-2.18637E-01-1.06527E-01-2.35612E-01
 -1      2920 7.76547E-01 1.04279E+00 9.41103E-01-3.37218E-03 3.84033E-02-3.94890E-01
 -1      2921 1.78446E-01 9.38005E-01 7.74018E-01-1.35679E-01 2.51438E-01-3.03332E-01
 -1      2922-1.76293E-01-1.99588E-01-2.26616E-01 2.28495E-02-6.47661E-02-5.34477E-01
 -1      2923 5.84616E-01 2.48556E-02 1.53279E-01-3.01157E-01 2.58814E-01-3.30238E-01
 -1      2924-1.86453E-01-9.55976E-01-3.48644E-01 1.13122E-01 3.14901E-02-1.35534E-01
 -1      2925 1.63893E-02 4.52363E-01 1.31620E-01 6.51985E-02 1.60007E-01-1.64775E-01
 -1      2926-5.62378E-01-3.90930E-01-3.72955E-01 8.76544E-02 4.00939E-02-4.83776E-01
 -1      2927-7.88652E-01-5.25303E-01-2.26720E-01 6.30379E-04 6.31518E-03-1.93422E-01
 -1      2928-6.24398E-01-2.34125E-01-7.14006E-02 2.06180E-01 1.44993E-01-3.95045E-01
 -1      2929-1.49208E-01-7.40345E-02-1.12610E-01 3.09902E-02 5.38780E-02-4.75225E-01
 -1      2930-3.26744E-01-1.41839E-01-2.02216E-01-4.16448E-02 9.31319E-02-6.17701E-01
 -1      2931 3.24389E-01 1.90164E-01 2.78083E-03 7.56787E-03-9.54192E-03-1.80042E-01
 -1      2932 3.00306E-01 1.93089E-01 4.74781E-01 1.51012E-01-1.05118E-01-5.13508E-01
 -1      2933 3.68889E-01 2.24082E-01 1.37509E-01-1.00932E-01 1.54139E-01-4.16391E-01
 -1      2934 4.72357E-01 2.99104E-01 4.77442E-01 8.76028E-02-1.14245E-01-5.10095E-01
 -1      2935 3.84427E-01 8.19593E-01 8.60969E-01 8.86950E-02-2.16121E-02-3.00033E-01
 -1      2936 2.76287E-01 9.44917E-01 8.77495E-01-7.59644E-02-4.88848E-02-2.82945E-01
 -1      2937 3.84588E-01 1.17899E+00 5.46714E-01-3.57136E-01 7.88848E-02-1.23320E-01
 -1      2938 3.30711E-01 1.02354E+00 4.89019E-01-3.91556E-01 1.68579E-01-1.28778E-01
 -1      2939 1.78158E-01 1.28207E-01-5.77428E-02-8.14532E-02 4.17115E-02-3.91466E-01
 -1      2940 8.08189E-02-1.58688E-01 7.12833E-02 9.96192E-02 8.43518E-02-1.83702E-01
 -1      2941-1.42063E-01-1.31365E-01 3.90205E-03-5.22036E-02-2.70499E-02-1.98938E-01
 -1      2942-1.73747E-01-1.26857E+00-4.57041E-01 3.62158E-01 7.78184E-02-1.21290E-01
 -1      2943 1.08578E-01 6.15307E-02 2.29824E-01-1.59180E-02-3.10169E-02-5.83780E-01
 -1      2944 7.10803E-01 2.27002E-01 5.69260E-01-2.68320E-01 3.48937E-01-5.90298E-01
 -1      2945-3.67373E-01-5.22912E-01-4.41755E-01 2.61553E-01 2.01626E-01-2.92731E-01
 -1      2946 3.18941E-01 1.48733E-01-3.14600E-02 6.31971E-02-2.19952E-02-1.55279E-01
 -1      2947-2.87398E-01-9.86277E-02 3.92414E-03 3.49698E-02-1.42569E-02-2.02939E-01
 -1      2948 4.77712E-01 6.99961E-01 4.06186E-01-3.19443E-01 2.49775E-01-2.56144E-01
 -1      2949 3.36615E-01 6.57784E-01 3.90443E-01-2.62560E-01 1.05873E-01-2.60850E-01
 -1      2950 6.19666E-01 3.93792E-01 2.62299E-01-1.67117E-01 1.37370E-01-3.70913E-01
 -1      2951 3.87240E-01 2.48999E-01 3.57041E-01 9.87289E-03-1.54317E-02-3.66292E-01
 -1      2952 5.21241E-01 3.10698E-01 3.72714E-01 1.06840E-01-9.32232E-02-4.82696E-01
 -1      2953-6.29609E-01-1.78613E-01-2.51359E-01-3.91923E-01-2.45897E-01-2.77432E-01
 -1      2954-9.93220E-02-3.70042E-01-1.60679E-01 1.50047E-01 3.26345E-02-2.26787E-01
 -1      2955 6.13111E-02-2.86747E-01-1.31699E-01-5.85423E-02 2.77077E-01-3.83617E-01
 -1      2956-4.28283E-01-8.00596E-01-2.98074E-01 3.27301E-01 1.08930E-01-2.38839E-01
 -1      2957 4.80085E-01 1.00033E-01 1.39300E-01 2.47537E-01-3.37018E-01-4.07508E-01
 -1      2958 6.44573E-01 1.95592E-01 4.09073E-01 1.91913E-01-2.82305E-01-5.51256E-01
 -1      2959-4.30091E-02-1.21353E-01-5.92297E-02-2.24786E-01 2.29036E-01-2.70886E-01
 -1      2960-3.23911E-01-1.93879E-01-1.03787E-01-1.25108E-01-9.26281E-02-1.55475E-01
 -1      2961-3.78718E-01-2.33424E-01-2.85373E-01-9.11415E-02-1.85912E-01-4.74718E-01
 -1      2962-2.95525E-01-1.72049E-01-1.92115E-01 9.08547E-02 1.06815E-01-2.69330E-01
 -1      2963 5.79558E-03-1.69781E-01-5.99135E-02-6.38002E-02-5.14380E-02-2.07778E-01
 -1      2964-6.88633E-01-4.29700E-01-3.83685E-01 4.30830E-02 2.23431E-03-3.85788E-01
 -1      2965 5.68108E-01 3.69522E-01 1.86137E-01-2.01096E-02-3.03886E-03-2.42158E-02
 -1      2966 3.25428E-02 3.35832E-01 4.64004E-02 2.66369E-01-1.42174E-02-1.92594E-01
 -1      2967-8.24550E-01-1.96879E-01-2.80082E-01-3.21972E-01-9.38242E-02-2.52471E-01
 -1      2968 2.54885E-01 4.84856E-01 6.21477E-01 1.77994E-01-2.10311E-01-2.90552E-01
 -1      2969-3.14486E-01-2.05469E-01-1.99579E-01-6.81801E-03-4.02331E-02-2.94262E-01
 -1      2970-1.53210E-01-6.17586E-02-1.94229E-01 8.00088E-02-3.27675E-03-5.07916E-01
 -1      2971 8.77608E-01 5.84799E-01 2.34431E-01-9.13774E-02-2.96543E-02-2.31592E-01
 -1      2972-4.39805E-01-4.66511E-01-4.65458E-01 1.68399E-01 1.03209E-01-3.46088E-01
 -1      2973 1.94679E-01 6.14488E-01 3.36778E-01 1.29145E-01-1.09488E-01-1.44833E-01
 -1      2974 2.47444E-01 3.67489E-01 1.20222E-01 1.76850E-01-1.60475E-01-3.04041E-01
 -1      2975-3.09283E-01-2.99631E-01-3.65394E-01 1.37417E-02-1.03306E-03-3.25550E-01
 -1      2976-9.81283E-01-1.06219E+00-1.08558E+00-1.00510E-02-8.26403E-02-5.04922E-01
 -1      2977-1.53396E-01-5.07339E-01-3.13023E-01-1.53352E-01-1.12888E-01-1.79294E-01
 -1      2978-4.37423E-01-5.16864E-01-5.62156E-01 2.28140E-01 1.56582E-01-3.13187E-01
 -1      2979 1.41479E-01 2.24302E-01 2.39590E-01-4.68026E-02 4.76279E-02-2.45893E-01
 -1      2980 1.83921E-01 8.71061E-01 9.43635E-02 1.21997E-01 9.67636E-03-1.27129E-01
 -1      2981 6.79859E-01 7.29147E-01 2.22803E-01-4.22844E-01 4.08271E-02-2.51416E-01
 -1      2982-5.97538E-01-7.81902E-01-3.93733E-01-4.34761E-01-2.81807E-01-2.25180E-01
 -1      2983 1.68304E-01 1.76561E-01 9.79814E-02 3.68765E-02-4.07642E-02-2.33547E-01
 -1      2984-7.66225E-02-8.06269E-02 3.57566E-02-9.18250E-03 1.71281E-02-1.03915E-01
 -1      2985 1.21894E-01 7.94867E-01 6.01914E-01-2.10165E-01 1.32467E-01-1.92835E-01
 -1      2986 1.13576E-01 1.01584E+00 4.38900E-01-1.23931E-01-1.20125E-03-1.35995E-01
 -1      2987-5.83412E-01-2.36495E-01-3.15410E-01-2.78773E-01-2.25433E-01-3.79131E-01
 -1      2988-5.44692E-01-6.50455E-01-4.65364E-01-4.09184E-01-2.73187E-01-3.11398E-01
 -1      2989 2.06141E-01 8.91313E-01 5.88068E-01-1.53323E-01-5.97517E-02-1.56020E-01
 -1      2990 3.43230E-01 5.82496E-01 1.73118E-01-3.61490E-01 2.21885E-01-1.98792E-01
 -1      2991 5.74332E-01 1.95096E-01 2.56078E-02-1.13506E-01 1.06990E-01-2.36253E-01
 -1      2992 3.49480E-01 1.25226E+00 4.89209E-01-2.06866E-01-6.50867E-02-8.34753E-02
 -1      2993-6.17210E-01-2.59307E-02-4.72330E-01 7.62994E-02-1.79361E-01-6.65145E-01
 -1      2994-1.21212E-01 3.56411E-01 1.79532E-01-3.68758E-02-1.45631E-01-3.62232E-01
 -1      2995-1.03262E-01 6.82404E-02-1.03066E-01-1.28111E-01 3.20438E-02-5.80346E-02
 -1      2996-1.82815E-01 1.12199E-01 1.33956E-01-2.47001E-01-2.34296E-01-1.72139E-01
 -1      2997-1.71525E-02-2.79116E-01-1.48360E-01 2.33887E-01-9.64889E-02-5.85861E-02
 -1      2998-2.63556E-01-3.31255E-01-2.24369E-01 1.15020E-01-1.37380E-02-3.19271E-01
 -1      2999-1.71168E-01-1.07386E+00-3.73466E-01 3.17746E-01 1.70806E-01-1.79273E-01
 -1      3000 1.53475E-02 7.63874E-01 1.37213E-01-7.78437E-02 3.26148E-02-1.70347E-01
 -1      3001-3.60443E-01-6.66394E-01-2.67923E-01 2.73315E-01 9.06825E-02-2.33400E-01
 -1      3002 1.93491E-01 2.02037E-04 8.72814E-03 1.82785E-02-1.11159E-01-5.12672E-01
 -1      3003-2.30379E-01 1.31298E-01-3.99571E-02-3.73279E-01-1.33642E-01-1.94372E-01
 -1      3004 5.85654E-01 4.02032E-01 1.96465E-01 1.28800E-03-4.00551E-02-1.70517E-01
 -1      3005 4.46088E-01 4.91959E-01 4.07940E-01 3.71175E-01-2.67014E-01-3.07765E-01
 -1      3006 8.28855E-02 3.21480E-02 1.62991E-02 1.07372E-01-7.96409E-02-4.72593E-01
 -1      3007-4.65521E-01-2.90828E-01-4.71026E-01-1.55445E-01-2.16466E-01-5.35894E-01
 -1      3008 4.31639E-01-2.36641E-01 1.18804E-01-4.88954E-02-1.74874E-01-4.19613E-01
 -1      3009 1.27351E-01 4.84475E-01 5.31021E-01 1.09670E-01-1.28617E-01-2.67145E-01
 -1      3010 2.53227E-01 3.39170E-01-3.95004E-02-1.17607E-01-1.12259E-02-1.35927E-01
 -1      3011 2.33823E-01 6.00630E-01 4.44313E-01 1.72678E-01-1.86675E-01-1.36814E-01
 -1      3012-4.81702E-01-5.57167E-01-1.65504E-01-3.94263E-01-5.69644E-02-1.49165E-01
 -1      3013-1.77578E-01 1.15221E-01-3.83161E-03 2.85951E-01 1.79351E-01-1.57454E-01
 -1      3014-4.89545E-01-3.92359E-01-2.72369E-01 1.32637E-01 1.30548E-01-4.49263E-01
 -1      3015-6.46213E-02-2.67430E-01-1.36633E-01-2.49129E-02 7.13396E-02-1.05789E-01
 -1      3016 3.55383E-01 1.57398E-01-8.08164E-02-1.15476E-01 3.42669E-02-4.02252E-01
 -1      3017 6.81058E-01 1.93448E-01 4.27641E-01 4.41715E-01-2.40435E-01-3.12244E-01
 -1      3018 3.41107E-01 3.11648E-01 1.11695E-02 2.01911E-02 1.15719E-03-1.65766E-01
 -1      3019 2.43343E-03-6.21058E-01-5.71010E-01-4.11578E-02 3.22832E-02-1.71789E-01
 -1      3020-3.92706E-01-1.64849E-01-2.61277E-01 1.93719E-01 2.12274E-01-5.10613E-01
 -1      3021 1.39941E-01-6.19361E-02-8.76171E-02 9.72095E-02-1.13252E-01-5.64214E-01
 -1      3022 4.24048E-01 2.19428E-01 2.77911E-01 1.54017E-01-2.15679E-01-5.84553E-01
 -1      3023-5.42616E-01-5.87611E-01-3.56754E-01-4.22751E-01-2.99973E-01-2.40329E-01
 -1      3024 1.14874E-01-3.08962E-03-2.99922E-02 4.54349E-02-7.45726E-02-6.12998E-01
 -1      3025 3.13176E-01 2.55049E-01 2.49120E-01-6.33251E-02 2.82244E-02-5.68877E-01
 -1      3026-2.28200E-01 1.71284E-03-1.86580E-01-2.84467E-02-5.10719E-02-2.47544E-01
 -1      3027-3.51366E-01-2.89418E-01-5.19399E-01 1.08011E-01 6.68496E-02-6.10695E-01
 -1      3028 5.77139E-01 3.58557E-01 2.33667E-01-3.17059E-01 1.85130E-01-3.75453E-01
 -1      3029 6.38552E-01 5.85874E-01 6.57895E-01-1.19136E-01-3.60348E-02-4.43586E-01
 -1      3030 2.56270E-01 1.56220E-01 1.03809E-01-7.72778E-02-1.63414E-02-2.05947E-01
 -1      3031 1.58687E-01 1.89836E-01 8.01154E-02-6.94384E-03 3.78262E-02-2.36256E-01
 -1      3032-2.59259E-01 4.83833E-02-8.87541E-02-3.97310E-03 1.11960E-01-6.84437E-01
 -1      3033 4.52604E-01 4.03462E-01 3.85391E-01-2.64559E-02-9.97763E-03-3.42047E-01
 -1      3034 4.13329E-01 4.88836E-01 4.50843E-01 3.86621E-01-3.41976E-01-3.12764E-01
 -1      3035-2.80613E-02-3.63304E-01-1.21428E-01-9.96006E-02 1.65687E-01-2.28180E-01
 -1      3036-7.87290E-01-2.17800E-01-2.93540E-01-2.85515E-01-2.95274E-01-4.05480E-01
 -1      3037-8.88394E-01-5.05121E-02-2.30461E-01-3.83515E-01-1.99632E-01-2.92949E-01
 -1      3038 2.48300E-01 9.47189E-01 5.44404E-01-3.06473E-01 9.29619E-02-1.31277E-01
 -1      3039 6.25982E-01 4.23570E-01 1.31248E-01 1.43875E-02 6.93968E-02-3.50960E-02
 -1      3040 2.11393E-01 2.41436E-01 2.33166E-01 2.78782E-02-8.54790E-02-4.73235E-01
 -1      3041-8.02998E-02-3.98241E-01-2.55565E-01 2.67150E-01 1.80464E-01-2.74338E-01
 -1      3042 2.78771E-01 5.29752E-01 4.81207E-01 3.66795E-01-3.74041E-01-3.79721E-01
 -1      3043-2.24417E-01-5.25156E-02-5.44220E-02 2.17224E-02 1.56719E-02-4.82963E-01
 -1      3044 7.54986E-04 2.46384E-01 1.51225E-01 2.27931E-01 1.00145E-01-3.73708E-02
 -1      3045-7.53033E-01-4.66929E-01-2.63274E-01 1.03359E-02-1.00204E-02-5.45602E-02
 -1      3046 2.45701E-01 1.80848E-01 1.69354E-01 4.72418E-02-8.96207E-03-6.31948E-01
 -1      3047-2.26653E-01-7.09714E-02 2.74610E-02 6.72474E-02 4.57351E-02-2.04432E-01
 -1      3048-4.04334E-01-3.97012E-01-2.24907E-01 1.72814E-01 1.10185E-02-2.49727E-01
 -1      3049 6.89791E-01 1.58980E-01 3.24647E-01 2.60512E-01-2.13848E-01-3.23254E-01
 -1      3050-3.19066E-01-2.39847E-01-1.64818E-01 1.00429E-01 2.56280E-02-4.16784E-01
 -1      3051 1.65305E-01 9.31741E-01 7.06841E-01-1.87483E-01 1.93566E-01-2.58847E-01
 -1      3052 1.16852E-01 4.31639E-01 2.54676E-01-2.12961E-01 1.68219E-01-2.97656E-01
 -1      3053-2.73195E-02 2.59549E-01 5.97153E-02 1.32321E-02-7.21760E-02-2.36276E-01
 -1      3054 4.52667E-03-3.57633E-01-2.48327E-02-3.93101E-01-1.53587E-01-1.28654E-01
 -1      3055-2.87544E-01-6.59330E-01-2.68617E-01-3.34602E-01-1.51015E-01-1.99286E-01
 -1      3056-6.05382E-02-1.16226E+00-2.61041E-01 1.20016E-01 1.69771E-02-2.04102E-01
 -1      3057-2.61519E-01-1.86421E-01-1.59147E-02-1.45638E-02-3.35713E-02-1.04726E-01
 -1      3058 3.47661E-01-3.71685E-03 1.66114E-01 1.07334E-02 8.36993E-02-7.72645E-01
 -1      3059 9.39730E-01 6.77385E-01 2.68934E-01 5.45289E-02-3.08914E-02-2.20051E-01
 -1      3060 2.13200E-01 7.16986E-01 3.71598E-01-3.33883E-01 2.30247E-01-2.37112E-01
 -1      3061 8.92284E-02 1.41726E+00 1.21706E-01 3.07951E-01 5.05195E-02-1.68794E-01
 -1      3062 2.94623E-01 6.15054E-01 2.01634E-01-2.39836E-01 3.80891E-02-1.36590E-01
 -1      3063-3.48276E-01-7.42657E-01-3.67851E-01 3.07123E-01 7.08749E-02-2.77649E-01
 -1      3064 1.55634E-01 2.99222E-01 2.70109E-02-6.99240E-02 9.94615E-02-2.15785E-01
 -1      3065 3.62756E-01-3.44633E-06 1.24340E-01 3.44483E-01-3.03528E-01-3.42879E-01
 -1      3066 2.79523E-01 3.47431E-01 6.22653E-02-1.30506E-01 8.35492E-02-2.95076E-01
 -1      3067 3.16290E-01 4.78023E-01 3.01670E-01-2.80381E-01 1.88131E-01-2.00654E-01
 -1      3068-2.95446E-01-4.73513E-01-3.86530E-02 3.56563E-01 4.93946E-02-1.09539E-01
 -1      3069-5.21555E-01-6.87993E-01-4.53149E-01 2.58616E-01 5.93099E-02-3.14611E-01
 -1      3070-1.59206E-01-1.11620E-01 1.01268E-01-6.79769E-02-5.19336E-02-1.74274E-01
 -1      3071-1.78541E-01 4.49238E-01-1.70488E-01 5.02622E-02-4.66640E-03-1.85929E-01
 -1      3072-1.31887E-01 6.13860E-03-2.13829E-01 4.49573E-02 9.72968E-02-5.68098E-01
 -1      3073-5.01320E-01-7.59210E-01-7.03630E-01 6.93911E-02 3.63776E-02-3.08380E-01
 -1      3074-5.75231E-01-6.12265E-01-5.94435E-01-2.18969E-01-1.83078E-01-4.73593E-01
 -1      3075-1.22640E-02-3.08952E-01-1.55292E-01-5.27854E-02-9.32448E-02-1.95228E-01
 -1      3076 7.31963E-01-3.97530E-02 9.78880E-02-3.91304E-01 1.88315E-01-2.59170E-01
 -1      3077-1.28364E-01-1.40900E+00-2.33989E-01 5.88372E-02 2.49841E-02-8.07863E-02
 -1      3078-1.01795E+00-6.07233E-01-5.11958E-01-1.58863E-01-4.76516E-02-3.76654E-01
 -1      3079-1.19312E-02 3.03255E-01 1.59252E-01 2.29819E-01-1.66002E-01-2.20665E-01
 -1      3080 4.97774E-01 3.33430E-01 1.87104E-01 2.30490E-02-1.70728E-02-3.38514E-01
 -1      3081-1.80504E-01-8.71343E-01-4.55707E-01-2.31996E-01-2.01485E-01-8.38044E-02
 -1      3082-1.20856E-01-1.01679E-01-1.36058E-01 4.90764E-02-5.00045E-02-4.90311E-01
 -1      3083-4.78319E-01 1.35748E-02-2.94281E-03 2.69089E-01 7.37533E-02-1.47787E-01
 -1      3084-8.74247E-01-9.29584E-02-1.21605E-01 2.72758E-01 1.26087E-01-2.46308E-01
 -1      3085 1.00988E+00 1.41688E+00 1.39386E+00 1.78621E-01-3.66053E-02-4.80215E-01
 -1      3086 3.93132E-01 1.51714E-01 7.56446E-02-1.64049E-01-5.47222E-02-3.20598E-01
 -1      3087-3.04666E-01-2.28534E-01-3.14692E-01-1.49762E-01-2.28424E-01-4.35293E-01
 -1      3088-9.18775E-02-1.42334E-01-2.27454E-01 4.03176E-02-4.75418E-02-4.67990E-01
 -1      3089 2.64390E-02-3.56036E-01-1.45911E-02 3.67257E-01 1.84701E-01-1.31326E-01
 -1      3090 2.69391E-01 4.63158E-01-2.58092E-02 2.32903E-01 1.29603E-03-2.35864E-01
 -1      3091 9.31226E-01 6.55500E-01 3.67953E-01-1.90603E-02-1.22060E-02-1.94446E-01
 -1      3092 5.85302E-01 5.87391E-02 3.16456E-01 5.65077E-02 1.66623E-02-5.22625E-01
 -1      3093-2.07392E-01-4.23121E-01-6.06426E-01-1.15729E-01-5.03782E-02-3.54514E-01
 -1      3094-4.32277E-02-3.26126E-01-1.08738E-01-1.57977E-02-9.57582E-02-9.19221E-02
 -1      3095-4.84575E-01-5.29998E-01-7.27619E-01-1.46874E-01-6.82100E-02-4.48162E-01
 -1      3096-5.01030E-02-9.89914E-02-1.06038E-01 2.37097E-02-2.68707E-02-1.95568E-01
 -1      3097-2.82547E-01-1.02641E+00-1.66093E-01-6.94370E-02-1.70213E-02-1.33202E-01
 -1      3098 1.76911E-01 2.93075E-02 3.53409E-01-2.19648E-03-1.15511E-02-5.78112E-01
 -1      3099-1.20029E-01-8.01177E-01-2.82695E-01-1.30343E-01-2.00292E-02-8.19082E-02
 -1      3100-4.68352E-01-5.62174E-01-6.18937E-01-3.97096E-01-3.21450E-01-4.26238E-01
 -1      3101-4.93304E-01-3.05138E-01-1.85878E-01-1.59610E-01-4.35288E-02-3.13972E-01
 -1      3102 1.70386E-01 3.37852E-01 2.15115E-01-8.40049E-02 1.58356E-01-3.92554E-01
 -1      3103 1.35285E-01-7.45993E-02-5.56596E-02-2.78520E-03-1.27907E-01-6.70638E-01
 -1      3104 2.02113E-01 1.62234E-01 4.10958E-01 4.02126E-02-8.55531E-02-5.66666E-01
 -1      3105 8.22544E-01 5.05551E-01 7.99256E-03-1.98621E-02-3.30964E-02-9.91003E-02
 -1      3106 2.55224E-01 1.01032E+00 6.48013E-01-2.31938E-01 1.57584E-01-1.82128E-01
 -1      3107 4.45204E-01 1.23245E-01 2.82152E-01-1.45029E-01 2.55568E-01-5.19823E-01
 -1      3108 3.24142E-01 3.55833E-01 1.82585E-01-7.95191E-02 9.24894E-02-5.11686E-01
 -1      3109 1.37307E-02 3.52519E-01 5.73344E-03-2.73581E-01 1.22056E-01-7.65873E-02
 -1      3110-2.22876E-02-1.04522E+00-1.81682E-01-1.51211E-01-7.09355E-02-1.15987E-01
 -1      3111-6.73542E-01-7.45846E-01-1.15290E-01 6.50218E-01 9.23404E-02-9.22944E-02
 -1      3112-2.26974E-01-9.97012E-01-1.57027E-01 2.47157E-01 5.24906E-02-1.04189E-01
 -1      3113 3.58511E-01 9.41859E-02 7.75388E-03 8.92402E-02 4.32939E-02-3.14188E-01
 -1      3114 1.17793E+00 9.37914E-01 6.15379E-01 5.44421E-02-5.46483E-02-3.28819E-01
 -1      3115-4.50778E-01-2.94077E-01-3.93446E-01 6.73236E-02 7.30214E-02-5.70807E-01
 -1      3116 4.41677E-01 4.81490E-01 3.95952E-01-3.05928E-01 2.70061E-01-2.52585E-01
 -1      3117-5.95571E-01-2.98113E-01-5.46474E-02-1.32763E-01-1.01596E-01-3.10750E-01
 -1      3118 9.44309E-01 8.31665E-01 8.53489E-01-1.96256E-01 1.01453E-01-5.59405E-01
 -1      3119-4.59533E-01-2.56759E-01-2.28125E-01 8.84883E-03-3.46897E-02-3.85368E-01
 -1      3120 4.31131E-01 2.12279E-01 2.10858E-01 7.49633E-02 1.55261E-02-3.57453E-01
 -1      3121-9.19203E-02-3.19946E-02-1.73257E-02 2.32751E-02-4.25377E-02-1.67640E-01
 -1      3122 6.08672E-01 6.79504E-01 5.87377E-01-2.01263E-01 3.73817E-02-3.57574E-01
 -1      3123-5.68444E-01-3.43919E-01-5.33356E-01 1.01592E-01 3.49240E-02-5.52002E-01
 -1      3124-2.10512E-01-4.90293E-02-4.33898E-02 2.09366E-01 2.06000E-01-3.56516E-01
 -1      3125-5.13375E-01-4.54389E-01-2.44622E-01 2.37586E-01 9.15308E-02-3.08418E-01
 -1      3126 2.98322E-01 1.34259E-02 2.63480E-02-2.34099E-01 1.51822E-02-1.59049E-01
 -1      3127 4.23902E-01 5.60169E-02 1.23012E-01-2.68481E-01 4.80427E-02-1.75291E-01
 -1      3128 2.06370E-01 1.01812E+00 7.04674E-01 1.50463E-01-1.30358E-01-1.54928E-01
 -1      3129-5.75484E-01-9.53448E-02-3.24266E-01 2.25698E-01 2.84335E-01-4.84314E-01
 -1      3130 2.93085E-01 1.01491E+00 1.67154E-01-2.82441E-01-2.17659E-02-1.82904E-01
 -1      3131 1.72347E-01 1.02901E+00 3.17715E-01 1.94346E-01-1.54597E-01-7.32277E-02
 -1      3132-1.56793E-01-7.66801E-02-1.74902E-01 5.59899E-02 1.28615E-01-5.66157E-01
 -1      3133-4.07263E-01-4.79332E-03-3.03309E-01 2.96746E-02 1.51901E-01-6.05546E-01
 -1      3134-1.87987E-01-1.99868E-01-6.82390E-02-1.79288E-01-1.11749E-02-2.97440E-01
 -1      3135-3.23308E-01-1.53688E-01-9.24626E-02 6.56615E-02 3.10310E-03-2.10421E-01
 -1      3136 3.02098E-01 7.00916E-01 4.25849E-01 2.98406E-01-2.22416E-01-3.27860E-01
 -1      3137 2.72703E-01 1.23873E+00 3.93054E-01 2.69588E-01-7.18191E-02-7.92332E-02
 -1      3138-2.58779E-01-4.64930E-01-3.52993E-01-1.44751E-01-1.10631E-01-2.30276E-01
 -1      3139 5.35861E-01 5.22355E-01 3.90558E-01 3.73283E-01-3.61965E-01-2.49579E-01
 -1      3140 4.18988E-01 6.39690E-01 1.26672E-01-4.98962E-01-2.80524E-03-1.37719E-01
 -1      3141-4.00656E-01-6.15181E-02-1.29818E-01-5.45643E-02 5.54853E-02-6.56614E-01
 -1      3142 1.71356E-01-2.81578E-01-1.00262E-01 6.62406E-02 5.83485E-02-1.67792E-01
 -1      3143 2.31138E-01 6.76835E-01 2.12782E-02-1.06066E-01 3.17790E-02-1.56748E-01
 -1      3144-4.57006E-01 2.06526E-02-2.72300E-02 7.91153E-02-9.04953E-02-4.46721E-01
 -1      3145 1.18636E-01 2.73399E-01 1.60446E-01-1.56340E-01-3.24895E-03-2.07623E-01
 -1      3146 8.56750E-01 4.19581E-01 1.16449E-01 2.55507E-01-6.22790E-02-1.92228E-01
 -1      3147 5.39351E-01 5.87075E-01 5.34433E-01 1.50224E-01-2.07874E-01-3.71932E-01
 -1      3148-3.78666E-01 1.22927E-01-1.93240E-01 8.64796E-02-1.70517E-01-6.91265E-01
 -1      3149-4.47495E-01-3.00553E-01-3.27629E-02-4.50631E-02 3.87232E-02-1.30631E-01
 -1      3150 3.85932E-01 1.27713E+00 2.87826E-01-5.19071E-01 1.22061E-01-1.40127E-01
 -1      3151-1.92470E-01 3.30805E-01-6.52124E-03-2.04744E-02-1.66416E-01-3.86434E-01
 -1      3152 3.62496E-01 5.32493E-01 4.00867E-01 2.34139E-01-2.10861E-01-3.53379E-01
 -1      3153-2.71299E-01-5.93161E-01-3.04283E-01-2.97032E-01-2.76900E-01-2.85522E-01
 -1      3154-2.60147E-01-1.07178E+00-1.01834E-01 1.89919E-01-2.63472E-02-1.45931E-01
 -1      3155-1.21820E-01-7.86161E-02-2.76669E-01 7.83115E-02 7.76153E-04-4.97119E-01
 -1      3156 5.15883E-02-4.31592E-01-1.62547E-01-1.69599E-02 2.73653E-01-2.97475E-01
 -1      3157 8.97152E-01 1.30870E-01 1.51219E-01-3.61538E-01 1.30841E-01-2.40108E-01
 -1      3158-3.50091E-01-1.39157E-01-3.81021E-02-2.37793E-02 4.44454E-02-3.70868E-01
 -1      3159 3.63276E-01 1.45649E-01 1.67066E-01 8.22981E-02-1.60506E-03-4.45970E-01
 -1      3160-1.91579E-01-1.13100E+00 1.11584E-02 2.97520E-01 4.72338E-03-8.42530E-02
 -1      3161-6.20034E-01-2.94228E-01-4.25292E-02 1.00367E-01-2.58170E-02-1.63555E-01
 -1      3162-3.16571E-01 2.94208E-01 9.92682E-02 4.83942E-02-1.94832E-01-5.17162E-01
 -1      3163 3.75782E-01 9.96875E-01 8.01286E-01 1.95342E-01-6.09586E-02-2.39294E-01
 -1      3164-6.11277E-01-8.99987E-02-2.04586E-01 2.64726E-01 1.96176E-01-3.52248E-01
 -1      3165-2.66048E-01-3.26060E-01-4.45510E-01 1.00768E-01 6.55578E-02-4.15964E-01
 -1      3166 2.03943E-01 9.45144E-01 5.37462E-01-1.93674E-01-8.14333E-04-1.04835E-01
 -1      3167-3.80963E-01-5.85478E-01-5.55379E-01 4.46400E-01 3.11630E-01-3.05486E-01
 -1      3168-5.04149E-01-5.74995E-01-2.71184E-01-4.61354E-01-1.47898E-01-1.72181E-01
 -1      3169-3.72550E-02-7.96494E-01-1.01316E-01 9.91724E-02 2.81704E-03-1.17210E-01
 -1      3170 2.14939E-01 1.14042E-02 2.27534E-01 2.96199E-02-2.22318E-02-3.51630E-01
 -1      3171-4.84534E-01-3.07093E-01-3.26328E-01-7.16911E-02-2.86717E-02-3.41520E-01
 -1      3172-1.89695E-01-3.17350E-01-2.39460E-01 1.27602E-01 1.53082E-01-3.24714E-01
 -1      3173-3.43566E-01-2.70451E-01-9.68884E-03 1.56440E-01 2.31139E-02-1.99059E-01
 -1      3174 3.02516E-01 2.55685E-01 1.74787E-01-1.71422E-02-1.98461E-02-2.93428E-01
 -1      3175-6.38193E-01-5.37129E-01-3.61674E-01-1.61199E-01-4.66142E-02-3.16097E-01
 -1      3176-3.67015E-01 5.74367E-02-5.26059E-02 7.08561E-02-2.12657E-01-6.64550E-01
 -1      3177 7.03913E-01 7.01603E-02 1.57936E-01-3.07943E-01 3.66056E-01-3.94494E-01
 -1      3178 2.52991E-01 1.28307E+00 3.12077E-01-2.27658E-01 6.70199E-02-6.56368E-02
 -1      3179 2.10068E-01 2.31033E-02 1.78893E-01 2.09181E-02 7.82557E-04-5.85837E-01
 -1      3180-2.65398E-01-1.21024E+00-4.27858E-01 3.54863E-01 1.85390E-01-1.55666E-01
 -1      3181 5.10546E-01 9.24383E-01 3.47800E-01-4.21968E-01 8.58916E-02-2.47625E-01
 -1      3182-5.47357E-01-4.95002E-01-6.05699E-01 1.81987E-01 8.12924E-02-3.93859E-01
 -1      3183 8.45129E-01 7.87225E-01 2.41261E-01-6.62155E-01 3.99622E-02-1.27205E-01
 -1      3184-9.06342E-02 2.34276E-01 1.06327E-01 3.87917E-02 1.56177E-01-4.40442E-01
 -1      3185 4.07375E-01 3.99372E-01 4.94216E-01 2.31838E-01-1.41108E-01-4.47400E-01
 -1      3186 3.34137E-01 7.46053E-01 5.24466E-01-2.72278E-01 1.02070E-03-1.84901E-01
 -1      3187-4.20175E-02-5.51876E-01-1.49927E-01 8.00825E-02 6.17213E-02-1.74736E-01
 -1      3188-3.02721E-01 2.75342E-01-6.97966E-03-2.15565E-02 4.07517E-02-2.23823E-01
 -1      3189-1.68348E-01-1.76923E-01-2.08136E-02-1.74758E-01 2.99407E-02-3.16141E-01
 -1      3190 4.35924E-01 1.51628E+00 1.85097E-01 5.22828E-01 3.37403E-02-1.31450E-01
 -1      3191 6.28058E-01 3.68280E-01 1.99454E-01 2.29578E-01 1.17429E-02-2.53838E-01
 -1      3192-2.61890E-01-1.20834E+00-2.80644E-01 3.85184E-01 9.42138E-02-4.92911E-02
 -1      3193 1.29101E-01 4.03163E-01 2.29712E-01 2.47216E-01-2.26751E-01-2.68312E-01
 -1      3194-3.46189E-01-3.62077E-01-2.40308E-01-7.13887E-02-5.72644E-02-3.66421E-01
 -1      3195 7.33141E-02-8.64867E-01-1.36929E-01 1.71667E-01 1.08078E-01-1.73376E-01
 -1      3196 5.62509E-01 4.78188E-01 5.86842E-01-2.30342E-02 1.04141E-01-5.34347E-01
 -1      3197-1.10087E+00-7.16450E-01-2.35136E-01-9.82570E-02-2.94108E-02-2.36685E-01
 -1      3198 7.96088E-01 3.00467E-01 8.48763E-02-1.47815E-01 4.35495E-02-1.74497E-01
 -1      3199 4.54880E-01 2.38705E-01-8.35066E-02-3.16657E-01 8.75420E-02-1.58726E-01
 -1      3200 7.44838E-02 1.23976E+00 6.95034E-02-2.52566E-01-1.75627E-02-1.38241E-01
 -1      3201 7.78924E-01 5.38248E-01 4.14796E-01 7.45205E-02 1.91375E-02-2.70719E-01
 -1      3202 4.04284E-01 1.54003E-01 1.11650E-01-1.21437E-01-8.49580E-02-3.28465E-01
 -1      3203-3.66149E-01-2.12604E-01-3.89773E-01-4.00081E-02-1.51848E-01-4.90156E-01
 -1      3204-1.79408E-01-1.41667E-01-5.82369E-02 8.55393E-02-5.96845E-03-2.22118E-01
 -1      3205-4.35582E-01-3.57178E-01-3.82973E-01-6.28289E-02-7.42920E-02-4.69805E-01
 -1      3206-1.83630E-01 6.87983E-01 1.67051E-01-9.42927E-02-1.13986E-02-1.22801E-01
 -1      3207-4.63416E-01-4.60116E-01-3.26917E-01-3.76530E-01-3.59360E-01-3.52247E-01
 -1      3208-4.79170E-01-1.27056E-02-2.19530E-01 3.24539E-01 2.93212E-01-4.31125E-01
 -1      3209 2.56503E-01 9.99676E-01 4.91706E-01-3.55708E-01 1.47631E-01-1.59051E-01
 -1      3210 6.67960E-01 2.54765E-01-1.40401E-03-3.46446E-01 1.19559E-01-2.05235E-01
 -1      3211 6.13166E-01 1.94937E-01-8.96164E-02-3.46033E-01 1.70885E-01-2.20736E-01
 -1      3212-1.20741E-01-8.87887E-02-1.57624E-01-3.88677E-03 5.37608E-02-5.46907E-01
 -1      3213-4.05107E-01-7.15284E-01-2.69991E-01 3.04184E-01 1.73574E-01-2.64254E-01
 -1      3214-2.58676E-01-9.65986E-01-5.01946E-01-9.72810E-02-4.69827E-02-1.42452E-01
 -1      3215-1.21646E-01-7.66479E-01-5.79333E-01 1.15491E-01 3.97909E-02-1.92472E-01
 -1      3216-3.81680E-01-4.46001E-02-2.13061E-01 7.36642E-02-1.03651E-01-6.45581E-01
 -1      3217 7.99628E-01 5.17287E-01 3.62939E-01 1.69369E-01-4.41534E-03-3.53706E-01
 -1      3218-1.25231E-02-3.05325E-01-4.85970E-02-1.59625E-01-1.82943E-01-1.65217E-01
 -1      3219 1.04862E+00 7.11465E-01 3.97216E-01-4.86494E-02-7.17756E-02-1.74272E-01
 -1      3220-2.96833E-01-3.33029E-01-4.59821E-01-1.58408E-01-1.16251E-01-2.83044E-01
 -1      3221 7.60343E-02-1.27053E-01-6.85274E-02-1.99140E-01 4.62806E-02-9.79153E-02
 -1      3222-7.65995E-01-4.91413E-01-4.03761E-01-7.26120E-02-2.55517E-02-2.19306E-01
 -1      3223 1.41969E-02-4.22286E-01-5.05844E-02 8.42858E-03 1.30423E-01-1.36884E-01
 -1      3224 2.80149E-02 7.48419E-01 4.24092E-01-1.20259E-01-3.12718E-02-7.70217E-02
 -1      3225-4.49162E-01-2.97386E-01-1.94128E-01-1.68399E-02-1.12049E-02-1.37126E-01
 -1      3226-4.82115E-02-7.58887E-01-4.75542E-01 1.24630E-01 1.11349E-01-1.93234E-01
 -1      3227 2.36195E-01 1.50391E-01 9.54740E-02-8.31507E-02 3.71619E-02-7.24126E-01
 -1      3228 3.76427E-01 5.52700E-01 4.90114E-01-2.21215E-01 1.78975E-02-3.12791E-01
 -1      3229 8.50144E-02-1.98999E-01 1.57016E-01 2.58748E-01 6.44005E-02-4.72803E-02
 -1      3230-2.38689E-01-7.84499E-01-2.38531E-01 2.33765E-01 1.03765E-03-2.21698E-01
 -1      3231-9.39775E-01-6.87507E-01-5.68273E-01 4.73945E-02 4.83901E-03-2.06950E-01
 -1      3232 6.51884E-01 1.03771E+00 2.51409E-01-5.49981E-01 1.29186E-01-2.41382E-01
 -1      3233 2.37607E-02-6.05805E-02-1.15089E-03 8.67706E-02-5.26877E-02-4.08579E-01
 -1      3234-9.58314E-01-3.89349E-01-1.62328E-01 1.64387E-01 3.94168E-02-2.34218E-01
 -1      3235 6.89065E-01 7.20150E-01 3.44025E-01-7.13643E-01 1.45857E-01-2.19375E-01
 -1      3236-1.23127E-01-7.50797E-01-3.51902E-01-2.19829E-01-1.26898E-01-1.33651E-01
 -1      3237-1.32527E-01-1.07969E+00-2.73890E-01 1.58877E-01 2.10533E-02-2.08728E-01
 -1      3238-5.24026E-01-6.14238E-02-1.62332E-01 1.24482E-01-6.34355E-02-2.83932E-01
 -1      3239-2.40492E-01-4.93776E-01-2.31742E-01-3.25728E-01-2.21189E-01-2.23557E-01
 -1      3240 2.35545E-01 6.91269E-02 9.33210E-02-1.17166E-01-1.18974E-01-5.73458E-01
 -1      3241 4.06303E-01 4.92733E-02 1.12789E-01 2.31438E-02 9.82243E-02-6.64752E-01
 -1      3242 4.75078E-01 4.51092E-03 1.17720E-01 8.03304E-02 7.64797E-02-3.47521E-01
 -1      3243-1.72812E-02-2.18401E-02-5.95379E-02 6.74428E-02 2.78241E-03-1.97629E-01
 -1      3244-5.01586E-01-3.21702E-01-4.39974E-01-1.60017E-01-1.79395E-01-5.16161E-01
 -1      3245-3.77504E-01-2.96626E-01-4.47267E-01-2.20295E-01-1.83090E-01-5.64592E-01
 -1      3246 9.59297E-01 6.64791E-01 5.04062E-01 1.13210E-01-6.38490E-03-4.11561E-01
 -1      3247 1.59725E-01 1.04642E+00 5.64143E-01 8.13968E-02-1.17142E-01-1.26754E-01
 -1      3248 3.81811E-01 2.58486E-02 3.29378E-02 2.31296E-01-6.29599E-02-1.39454E-01
 -1      3249 1.06209E+00 4.55778E-01 2.97886E-01 7.57915E-02 4.20401E-02-2.84573E-01
 -1      3250 1.07525E-01 5.76916E-01 5.62755E-01 1.17655E-01-1.34099E-01-2.06661E-01
 -1      3251-6.76032E-01-5.95777E-01-2.98491E-01-4.94048E-01-2.55776E-01-2.37359E-01
 -1      3252-3.50178E-02-5.98001E-01-9.59421E-02-2.36701E-01-7.40370E-02-2.22369E-01
 -1      3253 1.43606E-01-2.73110E-01-4.88974E-02 1.33803E-02-2.08706E-01-3.96106E-01
 -1      3254 4.04241E-01 6.29454E-01 3.72225E-01 2.99663E-01-2.28970E-01-3.48762E-01
 -1      3255-1.33914E-01-1.27833E-01-2.73346E-01-5.31728E-02 9.07392E-02-6.90279E-01
 -1      3256-4.26933E-01-7.17628E-01-1.85569E-01-2.56188E-01-8.67910E-02-2.21774E-01
 -1      3257-1.38453E-01-1.04307E+00-3.02762E-01-2.49493E-01-1.18195E-01-1.52541E-01
 -1      3258-5.01588E-01-1.47136E-01-2.29277E-01-2.20127E-01-1.75976E-01-4.60460E-01
 -1      3259 1.47807E-01 1.51301E-01 3.03654E-01-8.06760E-02-6.48637E-02-5.93443E-01
 -1      3260 1.50078E-01 7.50932E-01 4.98853E-01-1.21601E-01 3.81854E-03-1.57901E-01
 -1      3261-7.70332E-01-6.84675E-01-2.77504E-01-6.30076E-01-2.13794E-01-1.63106E-01
 -1      3262-2.25199E-01-1.68011E-01-1.59988E-01-1.85171E-01-1.99594E-01-4.55666E-01
 -1      3263-4.55517E-01-1.93027E-01-3.34775E-01-1.59972E-01-2.23146E-01-5.34197E-01
 -1      3264 1.54691E-01-6.41497E-02 1.53020E-01-3.56992E-02-1.08053E-02-5.67865E-01
 -1      3265-1.53643E-01-7.82092E-01-4.71837E-01-8.98416E-02-3.44144E-02-1.27732E-01
 -1      3266 2.48636E-01 7.46675E-01 2.21801E-01 3.35271E-01-2.61353E-01-2.12520E-01
 -1      3267-4.17083E-01-2.30937E-01-8.35426E-02 1.43492E-01 1.28616E-01-5.49249E-01
 -1      3268-3.80583E-01-4.23141E-01-2.84821E-01-2.25007E-01-1.59970E-01-3.07941E-01
 -1      3269 9.13674E-01 5.69064E-01 2.09368E-01-1.00101E-01-2.69948E-02-2.08954E-01
 -1      3270 1.48679E+00 1.06638E+00 7.86879E-01-1.07876E-01 1.55117E-02-3.83651E-01
 -1      3271-7.64956E-01-4.10273E-01-2.08385E-01 5.81421E-02-2.73040E-02-2.88706E-01
 -1      3272 2.75661E-01 2.28494E-01 3.25475E-01 4.29821E-02-3.78923E-02-4.32890E-01
 -1      3273 5.59234E-01 2.40319E-01 4.93037E-01 1.25674E-01-1.75182E-01-6.11328E-01
 -1      3274-2.27284E-01-8.16562E-01-6.02335E-01-8.72896E-02-6.06516E-02-1.11605E-01
 -1      3275 4.73797E-01 3.26627E-02 1.54321E-01 6.94374E-02 6.09514E-02-4.69336E-01
 -1      3276-2.92634E-01-8.07415E-01-8.27602E-01 1.05967E-01 1.00076E-02-2.38142E-01
 -1      3277-1.03526E-01-1.02522E+00-2.89053E-01-1.12940E-01-9.58269E-02-1.00390E-01
 -1      3278-5.27610E-01-4.91098E-01-4.57030E-01-1.85247E-01-1.03127E-01-3.42584E-01
 -1      3279-3.34566E-02-1.15707E-01-5.01737E-02-1.65352E-01 1.06446E-01-1.77716E-01
 -1      3280-3.36314E-01-1.32161E-01-9.14046E-02-1.02269E-02-4.58129E-03-2.40043E-02
 -1      3281 5.20757E-01 1.52816E+00 4.45015E-01 4.66005E-01-3.25579E-02-4.56926E-02
 -1      3282 4.41784E-02 4.54418E-01 1.37782E-01 1.30683E-02-1.35941E-01-1.19082E-01
 -1      3283 3.52086E-01 1.52768E+00 2.56056E-01-5.19435E-01-5.31541E-03-7.18667E-02
 -1      3284-1.07313E+00-6.80019E-01-6.10422E-01-1.88523E-01-1.18675E-01-4.24318E-01
 -1      3285 5.76440E-02-1.95691E-02 5.88277E-02-4.53132E-02 1.68317E-02-6.90675E-01
 -1      3286-9.53817E-02-2.60361E-01-2.30773E-01 1.92938E-01 1.35588E-02-2.81588E-01
 -1      3287 4.88388E-01 6.49012E-01 1.97199E-01-5.06016E-01 2.55071E-01-1.37448E-01
 -1      3288-1.62052E-01-2.35181E-01-1.58618E-01-7.88314E-02-3.11917E-02-2.64933E-01
 -1      3289 3.01652E-01 1.55294E-02 1.49469E-01-2.78185E-01 2.71567E-01-4.06796E-01
 -1      3290 5.63707E-01 4.29364E-01 5.53000E-01 4.58152E-02-1.78380E-02-5.27500E-01
 -1      3291-1.23309E-01-1.32490E-01-1.79342E-01 8.23930E-02-2.15115E-02-4.97578E-01
 -1      3292 4.79112E-01 1.32507E+00 4.13506E-01-3.35644E-01 6.95130E-02-9.70958E-02
 -1      3293-2.01314E-01-1.01177E+00-4.57473E-01-2.98563E-01-2.02967E-01-9.69175E-02
 -1      3294 4.14959E-01 3.37699E-01 1.59157E-01 1.48206E-01-7.53800E-02-2.88374E-01
 -1      3295 3.52697E-01 3.55551E-01 1.49802E-01 1.00809E-01-9.19475E-02-5.14261E-01
 -1      3296 7.81760E-02-1.84725E-01-1.21494E-01 2.83028E-02-1.92285E-01-4.39718E-01
 -1      3297 2.47689E-01 4.25633E-01 4.68896E-01 2.73447E-01-1.93283E-01-3.44221E-01
 -1      3298 2.99939E-01-3.42193E-02 5.03245E-02-7.32179E-03-1.47266E-01-5.90610E-01
 -1      3299 1.82917E-01 6.36107E-01 3.20164E-01 1.58379E-01-1.11561E-01-1.56129E-01
 -1      3300 4.56411E-01 1.35571E+00 3.74886E-01-3.92760E-01-2.97285E-02-1.96648E-01
 -1      3301-4.98492E-01-6.75231E-01-3.68250E-01-2.75179E-01-1.32482E-01-3.02060E-01
 -1      3302 7.45183E-01 1.74135E-01 1.95511E-01 3.26019E-01-2.04015E-01-3.42710E-01
 -1      3303-7.16928E-01-4.86223E-01-3.35955E-01 2.18374E-01 5.10805E-02-3.41154E-01
 -1      3304 3.50925E-01-5.12097E-02 1.53586E-01-7.56142E-02-1.80149E-01-5.98977E-01
 -1      3305 9.99428E-02 4.59335E-01 1.05504E-01-3.99896E-01 5.04461E-02-1.44418E-01
 -1      3306-1.42020E-01-7.46496E-01-3.50247E-01-2.96974E-01-2.02767E-01-9.91531E-02
 -1      3307-5.72526E-01-9.24088E-01-2.12619E-01-4.22419E-01-1.58816E-01-2.72221E-01
 -1      3308-3.47924E-01 6.92943E-02 1.07363E-01-4.07956E-02 8.41495E-02-2.74110E-01
 -1      3309-1.85633E-01-1.69076E+00-2.22738E-01 5.74730E-02 1.36311E-02-4.79087E-02
 -1      3310 6.34726E-01 2.56165E-01 7.70637E-02 1.87865E-01-8.54609E-02-2.05115E-01
 -1      3311-1.06553E+00-6.19887E-01-4.76195E-01 1.90850E-01 6.42279E-02-4.13241E-01
 -1      3312-8.28117E-01-4.19231E-01-1.93072E-01-1.63364E-02 1.12664E-03-2.93171E-01
 -1      3313-5.32091E-01-6.27980E-01-1.53523E-01-3.09903E-01-5.00610E-02-2.24202E-01
 -1      3314 2.01309E-01 7.31964E-01 4.25132E-01 2.01147E-01-1.11013E-01-1.41169E-01
 -1      3315-2.47225E-01-5.68290E-01-3.52394E-01-4.67576E-02-4.97372E-02-2.70897E-01
 -1      3316 2.65779E-01-4.03618E-02-4.47215E-02-2.23048E-02-1.94430E-01-6.50453E-01
 -1      3317-1.63474E-01-1.46114E-01 2.18392E-03 3.77371E-02 2.85908E-02-1.60303E-01
 -1      3318-1.46780E-02-2.13830E-01-1.74960E-02-3.11217E-03 3.99079E-03-1.64253E-01
 -1      3319-5.45844E-01-6.62797E-01-3.23657E-01 3.33125E-01 7.90400E-02-2.95809E-01
 -1      3320-7.46012E-02 5.83897E-01 1.81040E-02 3.85910E-02 1.85490E-03-1.17869E-01
 -1      3321-1.87364E-01-2.52628E-01-2.18922E-01 9.23784E-02 9.05762E-02-4.18075E-01
 -1      3322 1.24189E-01-7.94499E-01-2.41451E-01-1.07448E-01-1.41280E-01-1.24723E-01
 -1      3323-3.64700E-01-1.21290E+00-3.67579E-01 4.50660E-01 1.49306E-01-9.56411E-02
 -1      3324 2.02625E-02-6.36239E-02-1.75491E-01 1.48523E-01-1.09977E-01-2.33420E-01
 -1      3325-2.49944E-01-5.62462E-01-2.18302E-01 4.92186E-01 1.93321E-01-1.66576E-01
 -1      3326-1.55162E-01-1.74926E-01-4.02909E-01-2.26469E-01-8.35958E-02-2.88499E-01
 -1      3327-7.02546E-01-4.91312E-01-3.44361E-01 3.37395E-02-7.90203E-03-4.75851E-01
 -1      3328-7.25384E-02 5.23750E-01 1.65148E-01-3.64752E-02-1.95814E-01-3.28565E-01
 -1      3329-2.06231E-01-7.97972E-01-4.74939E-01 2.04425E-01 1.19250E-02-2.24220E-01
 -1      3330-3.09584E-01-5.40024E-01-2.29241E-01-2.65598E-01-1.81575E-01-2.66886E-01
 -1      3331-3.56786E-01-1.19914E-01 5.76612E-02 6.38488E-03-2.75290E-02-1.57335E-01
 -1      3332 5.40959E-02-4.33840E-01-2.06198E-01-8.61632E-02 3.39310E-01-3.32016E-01
 -1      3333 5.15937E-02-2.61973E-01-2.31896E-01 2.82195E-02-1.87364E-01-4.43808E-01
 -1      3334 2.62567E-01 2.10414E-02 6.24041E-02 2.50031E-02-1.35522E-01-6.72144E-01
 -1      3335 1.60170E-01 9.03143E-01 3.50414E-01 2.40773E-01-2.05433E-01-1.05140E-01
 -1      3336-8.01263E-01-1.17573E+00-1.83099E-01 5.86531E-01 4.99630E-02-2.06256E-01
 -1      3337-1.45981E-01-2.02622E-01-1.57313E-01 9.07303E-02 1.90849E-02-4.55589E-01
 -1      3338-2.94349E-01-2.41085E-02 3.93108E-02-7.75223E-02 1.07670E-01-1.58340E-01
 -1      3339 2.10397E-01-1.78415E-02-2.29067E-02 2.81444E-01-2.45586E-01-3.13069E-01
 -1      3340 2.11337E-01 9.03587E-01 1.92071E-01 3.13119E-01-2.18703E-02-1.81728E-01
 -1      3341-2.06620E-01-5.91501E-01-4.61009E-01-1.30925E-01-7.23266E-02-2.22528E-01
 -1      3342-1.58653E-01-1.25866E+00-3.58245E-01 1.24781E-01 1.05485E-01-1.83295E-01
 -1      3343 1.43046E+00 9.83218E-01 8.26557E-01 1.05631E-01-3.42863E-02-4.31121E-01
 -1      3344-7.49389E-01-3.23050E-01 9.25716E-03 2.48352E-01 9.26229E-02-2.52966E-01
 -1      3345-1.20282E-01-7.24191E-01-6.29993E-01-2.05200E-01-2.13596E-01-1.88799E-01
 -1      3346-2.87097E-01-8.04533E-02 4.26176E-02 1.36010E-01-2.96780E-02-3.42527E-01
 -1      3347 3.92594E-01 7.40142E-02 2.63254E-01 5.25395E-03 4.91718E-02-8.12686E-01
 -1      3348-2.23243E-01-9.54370E-01-4.65094E-01-1.02318E-01-1.06925E-01-1.29665E-01
 -1      3349-2.98487E-01 4.12595E-02-1.60558E-02-2.68257E-01-2.65362E-02-1.60982E-01
 -1      3350-5.05082E-02-1.22351E+00-6.47761E-02-2.73787E-02 2.64426E-04-8.29840E-02
 -1      3351-2.47936E-01-1.16362E+00-1.57990E-01-2.42179E-01-8.49633E-02-8.70491E-02
 -1      3352 1.28840E+00 9.33406E-01 7.55383E-01-6.95985E-02-2.63753E-02-3.81625E-01
 -1      3353-3.91211E-03-1.36124E-01 1.90771E-02-4.71907E-03 2.71229E-02-6.10314E-01
 -1      3354 2.48904E-01 1.48870E-02 1.00344E-01-7.87202E-03-1.65598E-01-5.45421E-01
 -1      3355 1.51331E-01 1.47001E+00 4.05770E-01 2.34829E-01-6.35245E-02-9.55500E-02
 -1      3356-1.43488E-01-7.72771E-01-3.16742E-01-1.98530E-01-7.18259E-02-1.45004E-01
 -1      3357-4.04193E-01-8.43735E-02-2.59356E-02 1.34853E-02 3.72566E-02-2.05001E-01
 -1      3358 1.09814E-01 8.70403E-01 3.22837E-01 4.49552E-03-6.14061E-02-9.17917E-02
 -1      3359-5.48577E-01-5.35486E-02-2.20403E-01 2.00064E-01 3.02759E-01-5.15920E-01
 -1      3360 4.05933E-01 6.70392E-01 7.62767E-01 9.89678E-02 4.99675E-02-3.50123E-01
 -1      3361 1.36300E-01 1.04109E+00 4.05672E-01 2.52599E-01-1.71571E-01-7.13473E-02
 -1      3362 6.73684E-02 1.24758E+00 2.90169E-01 6.22137E-02 2.93261E-03-4.31769E-02
 -1      3363 8.83307E-02 9.00624E-02 4.66878E-02-1.29092E-01 1.11871E-02-2.22618E-01
 -1      3364 3.39311E-01 7.18498E-01 3.64688E-01 3.50945E-01-2.98427E-01-3.23579E-01
 -1      3365 1.17661E-02 4.49331E-01 1.83728E-01 5.12029E-02 2.03880E-01-3.32403E-01
 -1      3366-2.40008E-01 6.36601E-02-1.78621E-02 2.74358E-02 5.12820E-02-6.33175E-01
 -1      3367-3.28835E-01-2.05080E-01-5.25686E-02-5.23012E-02-1.78962E-02-2.07062E-01
 -1      3368 2.02789E-01 1.47236E+00 4.48361E-01 1.18666E-01-1.29528E-01-1.00601E-01
 -1      3369 1.78135E-01-3.88526E-01-2.26062E-02 4.02314E-02-1.92660E-01-3.14343E-01
 -1      3370 8.69444E-01 6.16555E-01 4.13654E-01 1.74885E-01-5.26485E-02-2.97175E-01
 -1      3371-3.61900E-01-1.27973E+00-4.21197E-01-3.29524E-01-1.68310E-01-1.37327E-01
 -1      3372-2.34859E-01 2.69004E-01 9.69236E-03-2.55214E-02-2.01109E-01-4.93763E-01
 -1      3373 1.10581E+00 7.97058E-01 6.10915E-01-4.63462E-02-5.62238E-02-2.68852E-01
 -1      3374 2.97500E-01 1.26206E+00 4.47051E-01 3.07962E-01-2.00232E-01-1.04171E-01
 -1      3375-9.39761E-02 3.02708E-01-1.64655E-02 4.17771E-02-3.33605E-02-1.39756E-01
 -1      3376-2.93752E-01-1.16715E+00-3.82816E-01-3.39739E-01-1.71132E-01-1.20125E-01
 -1      3377 3.15191E-01 3.35410E-01 3.21363E-01-5.37687E-02 1.44110E-01-5.57642E-01
 -1      3378 1.51919E-01 1.30680E+00 4.06783E-01 9.85757E-03-1.50201E-02-4.04527E-02
 -1      3379 3.60287E-02 6.19722E-01 3.64770E-01 1.69906E-01-3.61272E-02-1.79638E-01
 -1      3380 1.46917E-01-4.33257E-01 1.82833E-03 1.15342E-03-8.25812E-02-1.38455E-01
 -1      3381-3.11147E-01-2.40971E-01-1.27225E-01 2.28540E-01 3.23135E-02-3.40523E-01
 -1      3382-8.32980E-01-8.42054E-01-3.65618E-01 3.75022E-01 9.13269E-02-2.83158E-01
 -1      3383 4.52329E-01 3.53130E-03 1.72036E-01 5.09256E-02 3.82907E-02-6.34726E-01
 -1      3384-2.40642E-01-5.17550E-01-2.99701E-01-3.74038E-01-2.57092E-01-2.14448E-01
 -1      3385 2.85210E-01 1.59925E+00 1.37054E-01 2.60607E-01-6.82786E-02-6.68003E-02
 -1      3386 2.26973E-01 4.63929E-01 4.18399E-01 1.59067E-01-3.99070E-02-3.00995E-01
 -1      3387-2.76518E-01-1.31618E+00-1.23081E-01-1.58153E-01-4.40905E-02-1.29957E-01
 -1      3388 7.63025E-01 4.72181E-01 3.75367E-01-1.22306E-01-2.14350E-02-2.55124E-01
 -1      3389-3.95267E-01-1.65121E-01-2.04860E-01 1.87964E-01 3.39070E-02-3.24850E-01
 -1      3390 5.19859E-02 3.77127E-01 1.58818E-02 3.76574E-01-2.55834E-01-1.32904E-01
 -1      3391 1.36727E-01 4.43440E-01 2.16948E-01-1.85225E-01 1.23501E-01-1.95834E-01
 -1      3392-9.57444E-02-9.07507E-02-4.00186E-02-1.82789E-01 1.57135E-02-1.03718E-01
 -1      3393-2.30531E-01-5.06590E-01-6.01486E-01 3.95786E-01 3.66761E-01-4.05520E-01
 -1      3394-1.42926E-01-7.20517E-01-6.61387E-01-1.92863E-01-2.26436E-01-2.51461E-01
 -1      3395-1.85859E-01-1.06454E+00-5.88018E-02-2.34644E-01-2.07581E-02-8.17834E-02
 -1      3396-6.29100E-01-2.05666E-01-3.98666E-01-2.09274E-01-2.64343E-01-4.68081E-01
 -1      3397-3.16800E-01-1.20082E+00-2.29421E-01-3.61194E-01-4.60049E-02-8.77037E-02
 -1      3398-3.15795E-01-7.35675E-01-1.08287E-03-9.61706E-02-2.76498E-02-1.42013E-01
 -1      3399-6.60085E-01-4.50468E-01-2.53354E-01-3.99435E-03-2.86700E-02-1.32917E-02
 -1      3400 2.74359E-01 5.01746E-01 1.84813E-01 3.54374E-01-1.52171E-01-1.83220E-01
 -1      3401 3.46352E-01-1.46678E-01-1.79815E-02-3.59157E-01 2.15412E-01-2.37960E-01
 -1      3402-6.08328E-02-6.80064E-02-9.54924E-03 1.16798E-02-8.87935E-03-1.88854E-01
 -1      3403-2.67225E-01-4.71430E-01-1.35704E-01 5.14777E-02 4.65315E-02-6.68443E-02
 -1      3404-3.43151E-01-5.33900E-01-3.64504E-02-4.79238E-01-2.57886E-02-1.25041E-01
 -1      3405 5.32995E-01 6.41342E-01 2.92856E-01 4.86941E-01-3.22942E-01-1.81822E-01
 -1      3406 2.08884E-01 3.67416E-01 2.26286E-01 1.68482E-01-2.63102E-02-2.28345E-01
 -1      3407-3.16915E-02 9.67658E-02-1.69728E-02 1.14197E-02-2.50853E-02-1.38752E-01
 -1      3408 4.69397E-02 5.24414E-01 1.84720E-01 6.13895E-02-4.87634E-02-1.68633E-01
 -1      3409 5.77449E-01 6.31871E-01 3.19523E-01 5.89165E-01-1.97705E-01-1.92239E-01
 -1      3410-4.27517E-01-1.68930E-01-1.13279E-01 7.65079E-03-2.87658E-02-5.05787E-02
 -1      3411 1.27503E-01-1.23070E-02-5.27547E-02 2.10732E-01-1.00620E-02-1.07459E-01
 -1      3412-3.38232E-01-4.18999E-01-1.61328E-01 1.09619E-01 5.29007E-02-9.45105E-02
 -1      3413 3.00639E-02-2.78821E-02 6.11584E-02-1.83145E-01 1.82876E-02-2.80853E-01
 -1      3414 4.16666E-01 2.50885E-01 5.43228E-02-2.17520E-01 1.82523E-02-2.74433E-01
 -1      3415-6.99877E-02-7.76871E-01-5.94937E-02-1.03675E-01-1.52571E-02-9.35590E-02
 -1      3416-4.60717E-01-2.29590E-01-1.02775E-01-1.38601E-01 5.40665E-02-6.69718E-02
 -1      3417 6.46086E-01 7.34222E-01 4.17518E-01 5.89149E-01-2.91103E-01-2.19985E-01
 -1      3418 1.69023E-01 8.69127E-01 3.75534E-01 2.59901E-01-1.32502E-01-1.59286E-01
 -1      3419 8.71372E-02 3.39078E-02 8.73800E-02 1.59074E-02-1.20643E-01-7.41512E-01
 -1      3420-2.16465E-01-2.32524E-01 9.82680E-02 2.03260E-01-4.72812E-02-2.07044E-01
 -1      3421 4.03560E-01 2.11365E-01 9.61044E-02-2.32604E-01 1.25027E-02-3.02660E-01
 -1      3422 5.02636E-01 6.42904E-01 1.94835E-02 3.29511E-01-5.36448E-02-1.27694E-01
 -1      3423-2.90656E-01-7.86665E-02-2.97273E-01 9.40177E-02 2.14436E-01-5.62147E-01
 -1      3424 9.05725E-02-1.67692E-02-3.83470E-02-1.70435E-02-1.52024E-02-1.23447E-01
 -1      3425 6.89648E-01 3.91855E-01 7.52991E-02-5.44320E-02-8.89096E-03-5.86328E-02
 -1      3426 1.10740E-01 9.34803E-01 3.48814E-01 2.76207E-01-1.82550E-01-9.57153E-02
 -1      3427-1.82172E-01-1.31167E-01-1.55615E-01 1.62513E-01-2.98585E-02-8.25444E-02
 -1      3428-7.89125E-01-8.25339E-01-2.67251E-01-6.79667E-01-1.14388E-01-1.45066E-01
 -1      3429 8.98799E-02 2.75108E-01 2.99278E-02 2.40483E-01-6.93554E-02-1.26893E-01
 -1      3430-2.28131E-01-1.05460E-01-1.42936E-01-7.98143E-02-6.09119E-02-1.36088E-01
 -1      3431 1.25937E-01 5.06494E-02-2.13800E-03-2.36471E-01-7.69472E-04-2.93123E-01
 -1      3432 8.60522E-02 1.26314E+00 4.61657E-01 4.24046E-02-5.71411E-02-1.01135E-01
 -1      3433 7.01020E-01 4.43569E-01 2.35177E-01 9.72297E-02 8.60132E-02-5.54145E-02
 -1      3434 5.86650E-02 9.74142E-01 3.37290E-01 1.14596E-01-1.47229E-01-6.56566E-02
 -1      3435-2.44511E-01-6.93922E-01-6.76959E-02-2.23163E-01-2.05504E-02-1.81375E-01
 -1      3436 3.32746E-01-2.17706E-01-6.97938E-02-4.11219E-01 1.07915E-01-1.95594E-01
 -1      3437 4.45137E-01 2.13832E-01 8.13130E-02-3.83903E-02-7.76605E-02-2.66095E-02
 -1      3438 4.79162E-01 2.79895E-01 1.92635E-01 1.37839E-01-4.28219E-02-4.28820E-01
 -1      3439-1.19093E+00-8.01094E-01-2.07404E-01-8.50161E-02 4.27023E-02-2.69804E-01
 -1      3440-6.36553E-01-6.22737E-01-2.32739E-01-2.77341E-01-5.18670E-02-2.86483E-01
 -1      3441 7.87835E-01 5.00911E-01 4.06887E-01-1.81625E-01-9.62760E-03-3.31924E-01
 -1      3442 2.93559E-01 9.48378E-01 3.65335E-02 2.09353E-01-1.05599E-02-1.87243E-01
 -1      3443 6.34802E-01 1.17084E+00 1.23242E+00-4.50715E-02-1.30851E-01-4.03460E-01
 -1      3444 2.06017E-01-3.19085E-01-2.87467E-02-2.69043E-02-6.20003E-02-1.66075E-01
 -1      3445-4.24787E-01-3.88309E-01-3.62161E-01 1.34140E-01 8.77633E-02-4.11524E-01
 -1      3446 5.15247E-01 1.71983E+00 4.60561E-01-4.87933E-01 1.34620E-01-9.54722E-02
 -1      3447-1.21320E+00-8.51906E-01-5.59910E-01-4.34051E-02 4.90213E-02-2.40772E-01
 -1      3448 3.93332E-01 9.44193E-01 4.14274E-02 4.49874E-01-8.61641E-02-1.65593E-01
 -1      3449 5.82412E-01 5.05025E-01 4.00371E-01 2.31468E-01-1.07693E-01-4.36980E-01
 -1      3450-4.06969E-01-1.13746E-01-2.06603E-01-1.85142E-01-2.41344E-01-4.73306E-01
 -1      3451 2.94110E-01 7.77008E-01-3.40830E-03 4.20360E-01-1.39812E-01-1.85361E-01
 -1      3452 3.29396E-01 8.83715E-01 2.03700E-01 3.69817E-01-2.20485E-01-2.11385E-01
 -1      3453-3.61202E-01-8.67757E-01-1.67256E-01-4.42930E-01-1.75847E-01-2.38401E-01
 -1      3454-1.99177E-01-1.27771E+00-3.95165E-01-1.85849E-01-8.10185E-02-1.43108E-01
 -1      3455-4.35339E-01-3.12874E-01-1.66520E-01-1.71611E-01-1.10971E-02-3.09368E-01
 -1      3456 3.07481E-01-8.73721E-02-6.85438E-02-3.47922E-01 3.21614E-01-2.77435E-01
 -1      3457 2.50993E-01 5.59511E-01 4.39113E-01-2.08895E-01 3.31012E-02-2.37093E-01
 -1      3458-2.38495E-01-8.22369E-01-4.75263E-01-1.79963E-01-6.62564E-02-1.88132E-01
 -1      3459-1.72408E-01-7.82014E-01-4.70962E-01-2.66917E-01-2.66156E-01-1.66231E-01
 -1      3460-9.51873E-01-9.51617E-01-9.83898E-01-9.70737E-02-1.63518E-02-5.11475E-01
 -1      3461 5.52166E-01 7.91786E-01 6.23204E-02 4.51653E-01-9.50250E-02-1.41382E-01
 -1      3462 2.38095E-01-1.76640E-01 3.61041E-02 1.19945E-02-2.12861E-01-5.14912E-01
 -1      3463-2.76957E-01-2.43653E-01-5.84874E-02 2.72249E-02-3.63191E-02-1.84838E-01
 -1      3464 1.11272E+00 7.46318E-01 5.98025E-01 6.61290E-03-2.03160E-02-3.74547E-01
 -1      3465-8.83814E-02-1.29048E+00-1.86702E-01-8.51419E-02-8.38329E-02-1.52849E-01
 -1      3466 9.54902E-01 6.59813E-01 5.40168E-01-2.46995E-01 3.33646E-02-3.70067E-01
 -1      3467 3.23941E-01 2.15659E-01 1.58652E-01 1.10740E-01 6.26328E-02-2.53864E-01
 -1      3468 1.26415E-01 1.06075E-01 4.63233E-02 1.94725E-01 3.73762E-02-2.87166E-01
 -1      3469 5.18820E-01 7.92544E-01 6.68469E-01 1.50228E-01-3.22959E-02-3.38946E-01
 -1      3470 2.20921E-01 7.94020E-01 5.72551E-01 1.19185E-01-7.32246E-02-1.85232E-01
 -1      3471-1.92978E-01-1.01961E+00-3.64445E-01-3.81316E-01-1.69187E-01-1.08255E-01
 -1      3472 1.30264E-01 1.26455E+00 3.36219E-01 1.32228E-01-6.78370E-02-9.60328E-02
 -1      3473-1.26889E+00-8.12663E-01-5.39185E-01-1.71542E-02-5.88930E-02-3.34816E-01
 -1      3474-7.08299E-02 7.86867E-02 9.52623E-02-1.69311E-01-1.74832E-01-3.39174E-01
 -1      3475-2.38979E-01-4.47096E-01-9.02656E-02-4.26693E-01-8.60926E-02-1.15885E-01
 -1      3476 3.79848E-01 5.28154E-01 1.20476E-01 4.50757E-01-5.11135E-02-1.29880E-01
 -1      3477 6.02068E-01 2.33892E-01 4.19720E-02-1.20189E-01-7.76790E-02-7.60165E-02
 -1      3478 6.73704E-01 6.48566E-01 2.10312E-01 6.27783E-01-9.53921E-02-1.57468E-01
 -1      3479-2.17109E-01-3.70299E-01-5.55104E-02-4.81358E-02-2.17271E-02-5.67533E-02
 -1      3480 1.32183E-01 8.33980E-01 3.62242E-01 3.00417E-01-9.53753E-02-1.50742E-01
 -1      3481 3.70652E-01 2.07947E-01 4.88594E-02-4.53696E-02 4.78335E-02-1.30968E-01
 -1      3482-4.07089E-01-4.01649E-01-2.07163E-01-1.21124E-01-2.99428E-02-6.03838E-02
 -1      3483 1.73357E-01 4.56659E-01 1.08109E-01 4.75487E-01-2.26093E-01-1.48022E-01
 -1      3484 5.70980E-01 3.72353E-01 4.33194E-01-4.43760E-02 1.01744E-01-6.08655E-01
 -1      3485-1.53572E+00-1.22512E+00-7.93415E-01-1.74812E-01-6.74673E-02-2.96571E-01
 -1      3486-9.21452E-01-6.28647E-01-4.87404E-01 1.02234E-01-1.60296E-02-2.54661E-01
 -1      3487 7.11845E-01 6.61201E-01 3.14747E-01-3.87577E-01 3.40635E-02-2.88937E-01
 -1      3488 2.82653E-01 6.44692E-01 2.22754E-01-4.90537E-01 1.54952E-01-1.65731E-01
 -1      3489 2.91386E-01 8.87577E-01 6.12281E-01-3.87559E-02 8.34182E-02-2.92523E-01
 -1      3490-3.52472E-01-1.34259E-01-2.09043E-01-1.78028E-01-2.48468E-01-4.65398E-01
 -1      3491-9.01758E-01-6.77925E-01-4.99169E-01 1.84700E-01 1.45132E-02-3.39311E-01
 -1      3492-2.84424E-01-8.42487E-02-1.95177E-01-2.44460E-01-2.40720E-01-3.18754E-01
 -1      3493 6.58234E-01 1.99104E-01 1.84615E-02 8.51915E-02 4.74881E-02-2.73751E-01
 -1      3494-3.18969E-01-7.88844E-02 2.67966E-02 8.92099E-02 3.34114E-02-1.63422E-01
 -1      3495 2.31213E-01 6.55847E-01-2.44173E-01 4.61606E-01-1.05412E-01-1.05022E-01
 -1      3496-1.20334E+00-8.09168E-01-6.84895E-01 1.37653E-02 3.11605E-02-2.94367E-01
 -1      3497 5.74392E-01 4.05762E-01 4.12311E-01 2.26006E-01 2.01178E-02-3.54291E-01
 -1      3498-5.13338E-01-5.18119E-01-1.54791E-01 2.29388E-01 4.11356E-02-3.27299E-01
 -1      3499-1.13372E-01-3.35229E-02-1.08373E-01 1.98375E-01 1.65962E-02-2.41471E-01
 -1      3500 1.66671E-01 7.98329E-02-8.80235E-02-2.36913E-02-7.68650E-03-1.50690E-01
 -1      3501-6.54368E-02-7.55205E-02-1.58722E-01 3.32551E-02-9.44599E-02-1.78638E-01
 -1      3502 1.96850E-01 3.59971E-01 3.66692E-01-4.02764E-02 4.19254E-02 6.73452E-03
 -1      3503-2.43931E-01-1.01513E-01 5.60787E-02-8.45320E-02 1.25925E-01-1.93150E-01
 -1      3504-5.69839E-02 7.06751E-03 1.59636E-01-2.29838E-02 3.06812E-02-1.15603E-01
 -1      3505-1.21427E-01-1.42550E-01-1.52051E-01 1.06367E-02-1.08909E-01-9.85288E-02
 -1      3506 2.04589E-02-2.92174E-02-4.25137E-02 1.84490E-02 4.79865E-02-2.57962E-01
 -1      3507-1.94744E-01-2.39055E-01-1.21042E-01 1.52557E-02-1.05311E-01-1.46470E-01
 -1      3508-7.00400E-02-1.03397E-01-1.37381E-01-9.15635E-02-6.51099E-02-2.59210E-02
 -1      3509-1.92536E-02-5.03759E-02-1.81066E-02 8.22028E-03-1.03926E-03-2.74044E-01
 -1      3510 2.69708E-02 8.89957E-03-1.66992E-02 7.03685E-02 3.20669E-02-1.61253E-01
 -1      3511-5.30907E-02-9.79007E-02-2.31710E-01 5.93118E-03 7.08550E-02-1.11578E-01
 -1      3512-1.17277E-01-1.99358E-01-1.15344E-01 1.35021E-02 6.12127E-02-1.79350E-01
 -1      3513-5.55118E-01-4.39189E-01-4.94291E-01-2.87113E-02 2.59081E-02-2.24943E-01
 -1      3514-2.12573E-02-1.35295E-01-1.69321E-01 5.14755E-03 8.09769E-02-9.81625E-02
 -1      3515 1.92473E-01 1.81006E-01 2.10579E-01-1.89506E-02-1.83611E-02-9.95554E-02
 -1      3516-7.66735E-02-1.13022E-01-1.09346E-01 1.06696E-02-7.16124E-02-2.28121E-01
 -1      3517-1.02594E-01-3.31301E-02-7.36279E-02-1.89095E-02 4.85947E-02-2.11713E-01
 -1      3518 9.02012E-02 7.28623E-03 4.75902E-02 2.38440E-02-9.79517E-02-1.14659E-01
 -1      3519-3.10444E-02-2.57448E-02-1.41421E-02-1.83006E-05-1.47002E-02-2.90069E-01
 -1      3520-1.38247E-02 3.10087E-02 1.21495E-01-5.07685E-02 7.82827E-02-2.25124E-01
 -1      3521-9.01491E-03-3.20390E-02-9.62203E-02 9.25027E-02 1.69785E-02-1.19936E-01
 -1      3522 9.85774E-02 1.35600E-01 2.19419E-01-1.36817E-02 9.00425E-02-2.01886E-01
 -1      3523-1.02775E-01-4.52030E-02 1.40691E-01 6.13841E-02-1.01007E-01-2.20726E-01
 -1      3524-1.42860E-01-1.55276E-03 1.61946E-02 7.36048E-02-7.88133E-02-7.33061E-02
 -1      3525-4.24731E-01-2.58276E-01-2.12460E-01-7.22522E-02 2.99742E-02-2.74686E-01
 -1      3526-1.71263E-01-1.76667E-02 4.68235E-02-9.91750E-02 1.96088E-02-7.84889E-02
 -1      3527-1.31955E-01-2.40681E-01-4.33823E-02 1.11403E-01 3.31207E-02-1.57355E-01
 -1      3528 2.19753E-01-2.81176E-02-8.51530E-02-5.48461E-02-4.65210E-02-3.62156E-02
 -1      3529 5.74888E-02 3.14937E-02-1.36843E-02-8.44215E-02-2.76627E-02-1.53317E-01
 -1      3530 3.22888E-02 3.14390E-02-3.54462E-02-5.30787E-02-1.09803E-02-1.73205E-01
 -1      3531 1.64742E-01 2.27314E-01 9.11945E-02-4.85111E-02 9.88230E-03-2.22441E-01
 -1      3532-2.29842E-02 4.37916E-02 3.34800E-02-4.23230E-02 7.02746E-02-2.56339E-01
 -1      3533 9.66451E-02 1.13941E-01 1.80490E-02 4.94694E-02 1.00719E-03-1.82004E-01
 -1      3534-1.80338E-01-7.94190E-02 5.40286E-02 4.77744E-02-7.02763E-02-1.94587E-01
 -1      3535-2.77201E-01-3.48649E-01-3.17606E-01 6.69096E-02 2.76994E-02-2.70428E-01
 -1      3536-1.49473E-02 5.50883E-02 7.12522E-02-2.99793E-03-7.73942E-02-6.85250E-02
 -1      3537 2.39078E-01 2.58741E-01 2.83031E-01-2.67053E-02 5.35312E-02-3.10454E-01
 -1      3538-3.56728E-02-5.21329E-02-5.06970E-02 9.52888E-03-2.26538E-03-3.72142E-01
 -1      3539-1.21654E-01-9.45931E-02-2.58606E-02-6.25319E-02 1.11788E-02-3.08038E-01
 -1      3540-3.71745E-03-1.55432E-02 3.36126E-02 5.64396E-02-6.77413E-02-9.65080E-02
 -1      3541 2.00069E-01-2.70472E-02-1.15341E-02 3.81949E-02 3.74954E-02-1.95243E-02
 -1      3542 6.89908E-02 1.11482E-01 5.93792E-02 3.12723E-02 2.53585E-04-1.76792E-01
 -1      3543 3.40386E-01 2.54975E-01 4.03843E-02 1.21009E-01-3.28155E-02-2.36471E-01
 -1      3544 5.49997E-03-1.01051E-03-2.95765E-02-1.15325E-01-9.73148E-03-2.52806E-01
 -1      3545 5.25662E-04-1.62836E-02-6.27250E-02-1.62925E-04 1.38621E-02-2.45532E-01
 -1      3546-3.14921E-01-1.80381E-01-1.48302E-01 5.15784E-02-1.44364E-02-2.28883E-01
 -1      3547 5.86628E-02 4.10997E-02 2.48086E-01 3.91530E-03-8.09573E-02-1.66012E-01
 -1      3548-3.11641E-01-4.02619E-01-4.94255E-01-1.57795E-02 5.81404E-02-2.07294E-01
 -1      3549-1.54819E-01-2.16825E-01-7.73886E-02 1.04020E-02 5.75642E-02-2.77585E-01
 -1      3550-7.13704E-02 8.32899E-02 4.49453E-02 7.44174E-02-5.33939E-02-8.14295E-02
 -1      3551-1.20636E-01-1.64789E-01-1.80688E-01-9.45113E-03 1.73305E-03-3.15422E-01
 -1      3552 6.51937E-02-2.66907E-02-2.32334E-01-2.18521E-03 7.13464E-02-1.00896E-01
 -1      3553-1.26056E-01-7.87434E-02-1.47183E-02 4.77763E-02-1.49809E-03-1.71561E-01
 -1      3554 3.69780E-01 3.09247E-01 1.53614E-01-2.74545E-02-3.35513E-02-9.83493E-02
 -1      3555-1.94710E-01-2.27038E-01-1.52624E-01 8.70657E-03 7.37154E-03-2.73125E-01
 -1      3556 7.13523E-01 6.00390E-01 3.91431E-01 2.58675E-02-1.61226E-02-1.93551E-01
 -1      3557 1.15311E-01-1.75797E-02-5.03823E-02-1.38073E-02-1.50949E-01-1.76531E-01
 -1      3558-1.99956E-01-2.26538E-01-4.54446E-02-5.58081E-02 9.51958E-03-1.51710E-01
 -1      3559 2.19476E-01 3.47194E-01 2.26319E-02-5.96677E-02-5.84105E-03-1.77816E-01
 -1      3560 4.17026E-01 2.96865E-01 3.02953E-01 2.21400E-02-1.48888E-01-2.31468E-01
 -1      3561 1.51730E-01 1.99189E-01 1.21046E-01 8.16740E-03-6.89419E-02-2.33263E-01
 -1      3562 4.04297E-01 3.26737E-01 2.15851E-01-4.46620E-03 8.05706E-02-3.24895E-01
 -1      3563 5.05361E-01 4.15706E-01 3.18355E-01-2.46944E-02 2.95870E-02-2.25784E-01
 -1      3564 1.66739E-01 2.58665E-01 1.19661E-01 1.70201E-02-1.88708E-02-1.60520E-01
 -1      3565 1.76840E-01 1.09386E-01 4.83060E-02-3.42415E-02 6.81928E-03-2.75614E-01
 -1      3566-1.70840E-01-1.94246E-01-1.10993E-01-3.13589E-02-3.42415E-02-2.07410E-01
 -1      3567-1.71346E-01 9.44986E-02 7.43075E-03-6.60747E-02-9.41270E-02-4.50998E-01
 -1      3568-8.41143E-02-1.25509E-01-1.00217E-01-2.71723E-02 2.60330E-02-2.56219E-01
 -1      3569 9.20716E-02 8.80728E-02 6.21408E-02 1.38499E-01-8.50512E-02-2.80642E-01
 -1      3570 1.87294E-01 2.38829E-01 1.97272E-01 5.34488E-02-3.03263E-02-2.54704E-01
 -1      3571-3.89070E-01-2.83359E-01-2.28441E-01 7.77476E-02-7.63300E-02-2.66314E-01
 -1      3572 1.62041E-01-1.46616E-01-2.03446E-02-6.22522E-02 1.47315E-01-4.15404E-01
 -1      3573-3.82866E-01-3.09826E-01-3.21614E-01 8.10925E-03 9.72459E-03-1.64883E-01
 -1      3574 2.98976E-01 2.16874E-01 2.74136E-01-4.50263E-04 5.73513E-02-1.92896E-01
 -1      3575-4.82419E-01-4.95550E-01-3.63670E-01 5.55870E-04 1.52108E-02-2.16151E-01
 -1      3576-2.07716E-03 4.95571E-02 1.93656E-01-2.09381E-03-6.05949E-02-8.55074E-02
 -1      3577 1.91091E-01 1.60041E-01 1.64207E-01 1.86141E-02-1.35742E-01-2.74735E-01
 -1      3578 2.59208E-01 1.36309E-02 3.43249E-03 5.34032E-02 4.00583E-02-2.97000E-02
 -1      3579 9.58629E-03 1.08363E-01 4.80639E-02 1.10803E-01-8.87686E-02-2.72793E-01
 -1      3580 8.50763E-02 1.54685E-01 1.73143E-01 4.02503E-02-2.43604E-02-4.95004E-01
 -1      3581-1.44105E-01-4.08999E-01-1.70606E-01-2.83814E-01-1.70365E-01-1.91894E-01
 -1      3582-1.32985E-01 6.36309E-03 2.04210E-02-8.32926E-02 1.46685E-02-5.05720E-02
 -1      3583-6.16719E-01-4.19140E-01-3.43412E-01-8.89419E-02 2.13277E-02-3.37462E-01
 -1      3584 1.65883E-01-1.79909E-02 4.05380E-02-5.17604E-02 7.76323E-02-5.00292E-01
 -1      3585 1.33005E-01 1.09684E+00 1.87470E-01-2.11042E-01 4.40269E-02-1.57433E-01
 -1      3586 6.56904E-01 5.19541E-01 3.78551E-01 6.96463E-02 3.47016E-02-2.93371E-01
 -1      3587 1.64699E-01 1.15006E-01 1.59976E-01 7.16222E-02 6.73375E-02-2.87173E-01
 -1      3588 1.43676E-01 3.44308E-02-8.46375E-02-4.16385E-03 1.98842E-02-5.94105E-03
 -1      3589-6.44237E-02 7.45281E-02-1.07695E-02 1.97513E-02 1.19017E-02-1.77796E-01
 -1      3590-4.55019E-01-7.68749E-02-7.83087E-02 2.40815E-01 1.08049E-01-2.41031E-01
 -1      3591-1.83468E-01-3.74209E-02-4.88062E-02-2.04580E-01-1.60883E-01-2.64922E-01
 -1      3592-5.21555E-01-4.85306E-01-3.19583E-01-1.33758E-02-1.61757E-02-1.40745E-01
 -1      3593-3.46661E-03 2.15622E-04-3.23667E-02-2.80508E-02 1.34153E-02-3.46513E-01
 -1      3594 6.93799E-01 4.99239E-01 3.66677E-01-3.33496E-02-5.13872E-02-1.36076E-01
 -1      3595 1.76386E-01 3.75257E-01 2.96430E-01-1.95019E-01 1.58191E-01-2.81986E-01
 -1      3596 2.48918E-01 2.90718E-01 8.69149E-02-1.22951E-01 5.12690E-02-2.11060E-01
 -1      3597 2.90207E-01 4.66429E-01 3.79614E-01 5.01300E-02-5.42149E-02-2.21979E-01
 -1      3598 1.33636E-01 3.85787E-01 1.50360E-01 2.79682E-01-2.01274E-01-1.90126E-01
 -1      3599 3.74971E-01 2.76547E-01 1.59660E-01-5.52754E-02-2.54804E-02-2.05228E-01
 -1      3600-5.34905E-01-5.11865E-01-5.17036E-01-1.03067E-02 3.75486E-02-2.91576E-01
 -1      3601 1.46419E-01 1.12540E-01 1.41767E-01-5.08916E-03-2.78911E-02-1.63500E-01
 -1      3602-7.46173E-02 3.88709E-02 7.31396E-02-1.27913E-03 1.52321E-01-8.67039E-02
 -1      3603 7.88925E-01 6.23254E-01 4.86401E-01-5.45640E-02-8.42769E-02-3.08856E-01
 -1      3604-2.98439E-01-2.51408E-01-2.81622E-01-5.12627E-02-9.63116E-02-3.35482E-01
 -1      3605-1.67069E-01-9.91747E-02-3.14203E-02 7.05623E-02-4.17793E-03-3.18479E-01
 -1      3606-1.28376E-01-3.44248E-01-1.85324E-01 2.51898E-01 1.62394E-01-2.41525E-01
 -1      3607-1.15159E-01-1.63115E-01-1.34279E-01 2.94566E-02 4.83867E-02-3.78004E-01
 -1      3608-4.95765E-03-7.15442E-02-1.73205E-01-3.42432E-02-2.64857E-02-1.25934E-01
 -1      3609-4.07514E-01-2.49967E-01-1.99311E-01-1.12856E-01-6.89304E-02-3.47556E-01
 -1      3610-2.79890E-01-2.49668E-01-1.95103E-01 1.31135E-02-6.36403E-02-1.16657E-01
 -1      3611 2.01433E-02 3.17814E-02 1.29862E-03 1.08099E-02-7.83672E-02-2.82066E-01
 -1      3612 2.65161E-01-1.08954E-01 7.08562E-02-2.72362E-02 8.26017E-02-3.56366E-01
 -1      3613 1.03537E+00 7.58670E-01 5.52064E-01-3.66428E-02-6.42660E-02-3.20079E-01
 -1      3614-2.73066E-01-3.71375E-02-1.28002E-01 2.14523E-01 1.65946E-01-3.24988E-01
 -1      3615 3.77580E-01 3.01737E-01 2.34372E-01 4.87703E-02 8.21058E-02-3.28922E-01
 -1      3616-4.39088E-01-3.40303E-01-2.12430E-01 1.08754E-01-1.52378E-02-3.16158E-01
 -1      3617 2.60896E-01 1.84537E-01 2.29274E-01-4.44077E-02-7.52853E-02-2.56812E-01
 -1      3618-1.79011E-01-2.05442E-01-1.90949E-01 4.00533E-02 6.71395E-02-4.29679E-01
 -1      3619 1.40110E-01 1.77253E-01 1.47342E-01 1.17753E-02 3.98929E-02-4.76455E-01
 -1      3620 5.65117E-02 5.12653E-01 6.36785E-02 5.02520E-02-4.12843E-02-1.06882E-01
 -1      3621 4.26626E-02-6.93392E-03 2.67129E-03 1.12719E-01 5.71290E-02-2.54481E-01
 -1      3622-3.20784E-01-4.18960E-01-2.40953E-01-1.49738E-01-7.86049E-02-2.31633E-01
 -1      3623 5.68211E-01 4.35409E-01 2.73536E-01-1.20454E-02-1.08421E-01-2.53129E-01
 -1      3624-4.02587E-02-8.90387E-01-1.78172E-01 2.38185E-01 7.95852E-02-1.38751E-01
 -1      3625-1.98208E-01-4.77734E-01-3.47391E-01 6.35798E-02 5.21154E-02-2.31346E-01
 -1      3626-5.51791E-01-4.20460E-01-2.66231E-01-8.49733E-02-7.07954E-03-3.34990E-01
 -1      3627-3.14941E-01-3.60279E-01-3.86336E-01-5.10507E-02-3.01330E-02-2.93549E-01
 -1      3628-1.13376E-01-1.33110E-01-9.23768E-02-1.05220E-02 6.03246E-02-2.33828E-01
 -1      3629-1.93935E-01-1.49775E-01-6.13122E-02-7.49027E-02 2.50987E-02-3.36014E-01
 -1      3630-5.02883E-01-3.38851E-01-2.79237E-01 8.22809E-02-7.15532E-02-3.25380E-01
 -1      3631 7.40781E-01 5.01314E-01 3.91206E-01 3.89243E-02 3.21880E-02-2.44411E-01
 -1      3632-5.02845E-02 9.02195E-02 7.40280E-02 2.13748E-02 3.77834E-02 3.58976E-03
 -1      3633-6.95278E-02-5.00045E-02-5.25334E-02 6.79930E-03-1.27833E-02-3.11321E-01
 -1      3634 2.06345E-01 2.74715E-01 1.39565E-01-1.14910E-02 9.97354E-02-2.34415E-01
 -1      3635-1.91138E-01-2.39015E-01-1.22005E-01-1.54144E-02-5.64612E-02-2.82548E-01
 -1      3636-2.70272E-01-5.01817E-01-3.82138E-01 6.58088E-02-1.69313E-02-2.45486E-01
 -1      3637 2.77585E-01 9.68979E-02 1.89028E-01-2.10872E-01 1.81684E-01-3.34958E-01
 -1      3638 2.30343E-02-4.38638E-03-8.93936E-02-7.69550E-03 8.43160E-03-1.85392E-01
 -1      3639-1.32436E-01-9.18990E-02-9.93768E-02-1.28912E-01-1.06485E-01-3.51319E-01
 -1      3640 9.70230E-02-8.43197E-02-6.28030E-02 5.82694E-02-1.36224E-01-4.83381E-01
 -1      3641-1.18827E-01-4.15989E-01-1.77669E-01-4.79548E-02-2.49731E-02-1.67401E-01
 -1      3642 8.01058E-02 5.06052E-01 3.44713E-01-1.34323E-01-2.11439E-02-1.69700E-01
 -1      3643 3.76701E-01 4.80817E-02 7.91993E-02 2.81211E-01-1.10543E-01-2.04782E-01
 -1      3644 4.38547E-01 4.30078E-01 3.28489E-01 2.51736E-02 4.85243E-03-2.11015E-01
 -1      3645 4.59646E-01 4.61340E-01 2.33120E-01-4.66597E-03 3.55220E-02-2.60566E-01
 -1      3646-1.35219E-01-6.24797E-01-3.00194E-01 1.10221E-01-1.92919E-02-1.56916E-01
 -1      3647 9.20521E-02 3.33663E-01 5.36302E-02-2.02576E-01 1.16824E-01-1.74248E-01
 -1      3648-2.54380E-01-2.43314E-01-2.59384E-01-1.47412E-02 1.10580E-01 3.23328E-02
 -1      3649 6.50289E-01 4.18254E-01 4.21996E-01-1.25908E-01-2.61297E-02-3.56719E-01
 -1      3650-2.87047E-02-8.13175E-02-2.54674E-01-5.56428E-03 3.53986E-02-5.65465E-02
 -1      3651 5.48572E-02 4.88320E-01 3.10692E-01-9.56794E-02 5.62832E-02-2.27655E-01
 -1      3652 2.43952E-01 1.48585E-01 1.34512E-01 1.51961E-01-1.32758E-01-3.76804E-01
 -1      3653 5.73133E-01 3.26354E-01 4.90486E-02-2.12478E-01 6.17290E-02-1.80913E-01
 -1      3654-1.32413E-01-4.77625E-01-3.46547E-01-5.64140E-02-4.23492E-02-2.01698E-01
 -1      3655-1.41484E-02-4.04142E-02-8.21728E-04-5.99881E-02 1.67718E-02-1.66833E-01
 -1      3656-7.68725E-01-6.20085E-01-4.66093E-01-9.17173E-02 1.33900E-02-1.52853E-01
 -1      3657-2.36742E-01-3.51023E-01-6.79065E-02 1.05312E-01 2.29699E-02-1.79194E-01
 -1      3658 5.62523E-01 4.54820E-01 3.14868E-01-2.84144E-02-2.09173E-03-2.31009E-01
 -1      3659 1.83485E-01 8.33685E-01 3.39311E-01-1.83597E-01-3.10360E-02-1.28430E-01
 -1      3660 6.65299E-01 5.18732E-01 3.02786E-01-8.17842E-04-2.80592E-02-3.11008E-01
 -1      3661-4.73546E-02-8.03004E-02-2.33395E-02-7.39916E-02-4.83159E-02-2.82484E-01
 -1      3662-4.86013E-01-3.70784E-01-2.79603E-01-1.07531E-02 1.57735E-02-2.25504E-01
 -1      3663 7.65985E-02-4.50747E-02-4.75604E-02 7.41084E-02 1.21323E-01-1.93247E-01
 -1      3664-6.06096E-01-4.09593E-01-2.37342E-01-2.55768E-02-6.55617E-03-1.19434E-01
 -1      3665-9.28537E-02 4.94291E-02 1.87595E-02-6.17202E-02 1.36176E-01-2.29969E-01
 -1      3666 1.12585E-01-2.12192E-02-1.15122E-01-6.36495E-02-9.53150E-02-3.43042E-01
 -1      3667 4.74493E-02 6.41869E-01 2.27744E-01-1.40812E-01 5.65604E-02-1.74304E-01
 -1      3668 2.75432E-01 3.32702E-01 3.30464E-01 9.36623E-02-7.08742E-02-2.67489E-01
 -1      3669 1.79192E-01 1.49074E-01 2.88693E-01-2.55045E-02-1.07770E-02-4.06017E-01
 -1      3670-6.21280E-02-8.07014E-01-2.95869E-01-1.59284E-01-1.25759E-01-1.32024E-01
 -1      3671 3.34322E-01 4.57426E-01 1.95511E-01 1.78137E-01-8.80237E-02-2.55840E-01
 -1      3672 6.40691E-02 3.57494E-02-3.16338E-02-3.31843E-02-4.29433E-02-3.05009E-01
 -1      3673-1.45658E-01 8.96852E-02-2.68386E-02 6.28892E-02 7.11412E-02-4.32747E-01
 -1      3674 1.14363E-01-1.70183E-01-6.29142E-02-8.02767E-02 1.14565E-01-4.28960E-01
 -1      3675 2.55618E-01 4.03242E-01 2.53730E-01-1.17808E-01 4.39622E-02-2.61194E-01
 -1      3676 5.49195E-01 4.18530E-01 2.83593E-01 6.49717E-02 1.88506E-02-4.13550E-01
 -1      3677 1.50702E-01 1.01836E+00 9.55216E-02 2.59961E-01-4.80742E-02-1.72061E-01
 -1      3678 1.11612E-01 8.52242E-01 2.74239E-01 1.72838E-01-4.18340E-02-1.11738E-01
 -1      3679-4.17136E-01-3.56700E-01-1.85030E-01 8.51062E-03-6.25720E-02-1.49857E-01
 -1      3680-2.41379E-01-6.01977E-01-1.11277E-01 5.05843E-01 1.44331E-01-1.37228E-01
 -1      3681 6.32216E-01 3.93048E-01 2.96206E-01-4.40558E-02-2.18598E-02-2.96303E-01
 -1      3682 3.52237E-02 1.07583E-01 7.04933E-02-4.87864E-02-2.31304E-02-1.53368E-01
 -1      3683 7.39940E-02 5.72307E-02 6.12487E-02 3.16528E-02 3.45481E-02-3.24430E-01
 -1      3684-1.80050E-01 7.62338E-02 2.96882E-02 6.59773E-02-5.08105E-02-3.84590E-02
 -1      3685 5.97861E-01 4.11879E-01 4.03980E-01-8.41646E-02-7.00807E-02-3.50545E-01
 -1      3686 2.51946E-01 4.05636E-03-4.40787E-02-6.48565E-02-3.62455E-02-4.69687E-02
 -1      3687-8.32495E-02-6.36091E-02-4.95907E-03-6.34236E-02 1.72341E-02-2.50530E-01
 -1      3688 7.66460E-02 7.59372E-02 4.04287E-02 6.75356E-02 4.46874E-02-1.57289E-01
 -1      3689 9.84281E-02-1.02949E-03-1.11522E-01-3.61664E-02-6.67902E-02-3.66796E-01
 -1      3690 4.71033E-02-9.03455E-02-7.35277E-02 9.84753E-02 8.73026E-02-4.65126E-02
 -1      3691 1.82337E-01 6.57699E-01 1.08140E-01 6.04647E-03-2.27880E-02-1.06557E-01
 -1      3692 1.81468E-01 1.99487E-01 1.68805E-01 8.27921E-03-7.82856E-02-3.45725E-01
 -1      3693-6.48989E-01-4.50095E-01-1.83503E-01 7.14319E-02-1.00249E-01-1.51534E-01
 -1      3694-3.38159E-02-3.00179E-03 3.11193E-03-9.25515E-02 5.65075E-02-1.15238E-01
 -1      3695 1.49057E-01 8.83666E-01 4.47472E-01 1.30931E-01-7.54298E-02-1.49254E-01
 -1      3696-6.39531E-02-5.04320E-02-5.42544E-02-8.48627E-02 5.73771E-02-1.16571E-01
 -1      3697 9.06876E-02 3.12934E-02-3.66557E-02-8.62860E-02-5.53525E-02-1.00774E-01
 -1      3698-9.99243E-02-1.15643E-01-8.41619E-02-6.88406E-02 1.79054E-02-1.25896E-01
 -1      3699 1.24650E-01-2.86689E-02-2.17501E-02 9.11297E-02 7.17483E-02-6.05038E-02
 -1      3700 1.23433E-01 1.13697E-02 1.34977E-03-1.23820E-01 2.11111E-03-2.82220E-01
 -1      3701-1.75003E-01 2.51223E-01 3.27931E-02 7.48843E-04-9.20247E-02-2.56747E-01
 -1      3702 1.04750E-01 6.20382E-01 2.33778E-01 1.13801E-01-7.50647E-02-1.37795E-01
 -1      3703-2.06797E-01-8.71625E-01-1.89557E-01 1.52503E-01-1.78098E-02-1.64497E-01
 -1      3704-9.62426E-03-3.72477E-02-1.17472E-02 6.81073E-02-2.84586E-02-1.26200E-01
 -1      3705-1.00054E-01-1.34680E-01-1.71063E-01-1.65203E-02-2.11042E-02-3.80484E-01
 -1      3706-1.72544E-01-5.59536E-02-5.60633E-02 9.93442E-02-1.30315E-02-3.21084E-01
 -1      3707-2.10494E-01 1.02424E-01-5.49543E-02 4.14771E-02 7.56378E-02-4.04309E-01
 -1      3708-1.30542E-01-8.86715E-01-1.58109E-01-1.70672E-01-4.60923E-02-1.58958E-01
 -1      3709-7.10024E-02-6.45264E-03-1.98069E-02 1.28645E-01 1.36517E-02-2.70498E-01
 -1      3710 4.69170E-01 6.50874E-01 3.35681E-01-3.09362E-01 8.77123E-02-2.56078E-01
 -1      3711 3.47304E-01 2.07315E-01 1.71730E-01 3.97817E-02 2.89660E-02-2.50580E-01
 -1      3712-7.96496E-01-6.06447E-01-4.16699E-01 9.54977E-02-1.10725E-01-2.30874E-01
 -1      3713-2.09957E-01-3.98783E-01-2.55754E-01-2.00678E-01-1.78759E-01-2.31557E-01
 -1      3714-8.19796E-02-6.32483E-01-3.49889E-01-1.30917E-01-1.24865E-01-1.60948E-01
 -1      3715 4.76595E-02 1.12749E-02 3.11145E-02 4.88660E-02 3.26434E-02-2.15805E-01
 -1      3716 2.02234E-01-1.68232E-01 4.27821E-02-2.20039E-04 4.55956E-02-2.36206E-01
 -1      3717 4.17065E-01 5.88320E-01 5.59484E-01-4.00160E-02-2.33268E-02-3.00030E-01
 -1      3718-9.07109E-01-5.26198E-01-3.83087E-01-2.04607E-02 2.44807E-02-1.89610E-01
 -1      3719-8.22741E-01-5.77719E-01-4.40696E-01 3.45948E-02-5.43357E-02-1.62993E-01
 -1      3720 2.53894E-01 1.55449E-01 1.86598E-01 1.32374E-01 2.49331E-02-4.04276E-01
 -1      3721-5.75855E-01-4.93105E-01-3.61559E-01-3.13821E-02 8.14750E-02-1.07446E-01
 -1      3722 1.34979E-01 5.48628E-01 4.10166E-01 1.02762E-01-5.36945E-02-2.20648E-01
 -1      3723-2.66469E-02-3.47200E-02 2.37118E-02-6.28269E-02 2.35261E-02-1.23792E-01
 -1      3724-6.74773E-02-1.09573E-02 2.83652E-02-1.23112E-01 6.49016E-02-2.68563E-01
 -1      3725-1.42715E-01 6.80160E-02 4.31844E-02-3.61306E-02 1.15805E-02-2.10893E-02
 -1      3726-1.59624E-01 7.05188E-02-9.97349E-03 5.94515E-02-5.47266E-02-3.69756E-02
 -1      3727 6.45689E-02 3.64691E-02 4.96545E-03 8.14133E-02 3.28034E-02-1.19823E-01
 -1      3728 7.76085E-02-1.50267E-02-5.05089E-02-9.56990E-02-5.51391E-02-6.47051E-02
 -1      3729-3.38189E-02-4.80753E-02-3.28400E-02 7.37315E-02-3.60853E-02-1.58163E-01
 -1      3730 1.46461E-02-4.15480E-02-5.17945E-03 6.05404E-02-2.91134E-02-2.37887E-01
 -1      3731 1.07271E-02-1.39351E-02 6.09831E-02-1.46803E-03-3.89473E-02-1.76466E-01
 -1      3732 2.31291E-01 1.16625E-01 8.81660E-02-1.27398E-01-1.42331E-02-2.31146E-01
 -1      3733 1.03014E-01 4.99428E-02-4.06134E-02-1.02153E-01-6.05486E-02-1.11088E-01
 -1      3734 2.50310E-01 1.77792E-01 9.24564E-02-4.80397E-02 7.46256E-02-3.61506E-01
 -1      3735-4.14388E-01-2.95536E-01-1.84234E-01-4.41168E-02 3.07914E-03-1.92168E-01
 -1      3736-1.79044E-01-4.87546E-01-3.93399E-02-7.59230E-02-3.64539E-02-1.25352E-01
 -1      3737 4.48287E-01 6.02841E-01 4.42113E-02 2.59519E-01-5.06258E-02-1.88822E-01
 -3
 9999
