    1C
    1U meshsolid_t.inp                                                  
    1UUSER                                                              
    1UDATE              03.july.2016                                    
    1UTIME              00:38:23                                        
    1UHOST                                                              
    1UPGM               CalculiX                                        
    1UVERSION           Version 2.10                             
    1UCOMPILETIME       Sa 5. MÃ¤r 12:23:33 CET 2016                    
    1UDIR                                                               
    1UDBN                                                               
    1UMAT    1PDMS                                                      
    2C                          3154                                     1
 -1         1 2.63013E+00-4.74999E-01 3.49999E-01
 -1         2 2.63013E+00 4.74999E-01 3.49999E-01
 -1         3 2.63013E+00-4.74999E-01 1.70000E+00
 -1         4 9.21869E+00 9.50000E-01 1.70000E+00
 -1         5 5.98657E+00 4.74999E-01 1.70000E+00
 -1         6 9.21869E+00-9.50000E-01 1.70000E+00
 -1         7 9.21869E+00 4.74999E-01 1.70000E+00
 -1         8 9.21869E+00-4.74999E-01 1.70000E+00
 -1         9 1.25751E+01 4.74999E-01 3.49999E-01
 -1        10 1.25751E+01-4.74999E-01 1.70000E+00
 -1        11 5.98657E+00-4.74999E-01 1.70000E+00
 -1        12 9.21869E+00-4.74999E-01 3.49999E-01
 -1        13 1.25751E+01 4.74999E-01 1.70000E+00
 -1        14 2.63013E+00 4.74999E-01 1.70000E+00
 -1        15 5.98657E+00-4.74999E-01 3.49999E-01
 -1        16 5.98657E+00-9.50000E-01 1.70000E+00
 -1        17 5.98657E+00 9.50000E-01 1.70000E+00
 -1        18 2.61170E+00 5.67665E-01 1.70000E+00
 -1        19 8.69874E+00 3.08900E+00 1.70000E+00
 -1        20 5.34909E+00 2.72980E+00 1.70000E+00
 -1        21 5.71264E+00 1.85212E+00 1.70000E+00
 -1        22 8.15341E+00 4.40553E+00 1.70000E+00
 -1        23 1.14361E+01 5.25114E+00 3.49999E-01
 -1        24 1.17997E+01 4.37345E+00 1.70000E+00
 -1        25 1.14361E+01 5.25114E+00 1.70000E+00
 -1        26 8.33519E+00 3.96668E+00 1.70000E+00
 -1        27 8.33519E+00 3.96668E+00 3.49999E-01
 -1        28 2.24815E+00 1.44535E+00 1.70000E+00
 -1        29 5.71264E+00 1.85212E+00 3.49999E-01
 -1        30 5.89442E+00 1.41328E+00 1.70000E+00
 -1        31 5.16732E+00 3.16865E+00 1.70000E+00
 -1        32 5.34909E+00 2.72980E+00 3.49999E-01
 -1        33 8.69874E+00 3.08900E+00 3.49999E-01
 -1        34 8.88051E+00 2.65016E+00 1.70000E+00
 -1        35 8.88051E+00 2.65016E+00 3.49999E-01
 -1        36 8.15341E+00 4.40553E+00 3.49999E-01
 -1        37 5.89442E+00 1.41328E+00 3.49999E-01
 -1        38 5.16732E+00 3.16865E+00 3.49999E-01
 -1        39 2.19566E+00 1.52391E+00 3.49999E-01
 -1        40 6.18273E+00 6.85448E+00 1.70000E+00
 -1        41 6.85448E+00 6.18273E+00 1.70000E+00
 -1        42 2.19566E+00 1.52391E+00 1.70000E+00
 -1        43 9.22784E+00 8.55608E+00 1.70000E+00
 -1        44 8.55608E+00 9.22784E+00 1.70000E+00
 -1        45 4.56902E+00 3.89727E+00 3.49999E-01
 -1        46 6.18273E+00 6.85448E+00 3.49999E-01
 -1        47 1.52391E+00 2.19566E+00 1.70000E+00
 -1        48 4.56902E+00 3.89727E+00 1.70000E+00
 -1        49 4.90489E+00 3.56139E+00 1.70000E+00
 -1        50 3.56139E+00 4.90489E+00 1.70000E+00
 -1        51 3.89727E+00 4.56902E+00 1.70000E+00
 -1        52 7.19035E+00 5.84685E+00 1.70000E+00
 -1        53 5.84685E+00 7.19035E+00 1.70000E+00
 -1        54 4.90489E+00 3.56139E+00 3.49999E-01
 -1        55 5.84685E+00 7.19035E+00 3.49999E-01
 -1        56 5.67665E-01 2.61170E+00 1.70000E+00
 -1        57 2.65016E+00 8.88051E+00 1.70000E+00
 -1        58 1.41328E+00 5.89442E+00 1.70000E+00
 -1        59 3.08900E+00 8.69874E+00 1.70000E+00
 -1        60 1.44535E+00 2.24815E+00 1.70000E+00
 -1        61 4.37345E+00 1.17997E+01 1.70000E+00
 -1        62 2.72980E+00 5.34909E+00 1.70000E+00
 -1        63 5.25114E+00 1.14361E+01 1.70000E+00
 -1        64 3.96668E+00 8.33519E+00 1.70000E+00
 -1        65 1.85212E+00 5.71264E+00 1.70000E+00
 -1        66 2.72980E+00 5.34909E+00 3.49999E-01
 -1        67 1.41328E+00 5.89442E+00 3.49999E-01
 -1        68 1.85212E+00 5.71264E+00 3.49999E-01
 -1        69 4.40553E+00 8.15341E+00 1.70000E+00
 -1        70 3.96668E+00 8.33519E+00 3.49999E-01
 -1        71 4.40553E+00 8.15341E+00 3.49999E-01
 -1        72 3.16865E+00 5.16732E+00 1.70000E+00
 -1        73 4.74999E-01 2.63013E+00 1.70000E+00
 -1        74-4.74999E-01 2.63013E+00 1.70000E+00
 -1        75-4.74999E-01 9.21869E+00 1.70000E+00
 -1        76 4.74999E-01 1.25751E+01 1.70000E+00
 -1        77-4.74999E-01 1.25751E+01 1.70000E+00
 -1        78 4.74999E-01 2.63013E+00 3.49999E-01
 -1        79 4.74999E-01 9.21869E+00 1.70000E+00
 -1        80-4.74999E-01 9.21869E+00 3.49999E-01
 -1        81-4.74999E-01 5.98657E+00 1.70000E+00
 -1        82-4.74999E-01 5.98657E+00 3.49999E-01
 -1        83 4.74999E-01 5.98657E+00 1.70000E+00
 -1        84 9.50000E-01 5.98657E+00 3.49999E-01
 -1        85-9.50000E-01 5.98657E+00 1.70000E+00
 -1        86 9.50000E-01 9.21869E+00 3.49999E-01
 -1        87 9.50000E-01 9.21869E+00 1.70000E+00
 -1        88 9.50000E-01 5.98657E+00 1.70000E+00
 -1        89-9.50000E-01 9.21869E+00 3.49999E-01
 -1        90-9.50000E-01 9.21869E+00 1.70000E+00
 -1        91-1.44535E+00 2.24815E+00 3.49999E-01
 -1        92-1.41328E+00 5.89442E+00 1.70000E+00
 -1        93-1.44535E+00 2.24815E+00 1.70000E+00
 -1        94-1.85212E+00 5.71264E+00 1.70000E+00
 -1        95-2.65016E+00 8.88051E+00 1.70000E+00
 -1        96-2.72980E+00 5.34909E+00 1.70000E+00
 -1        97-3.96668E+00 8.33519E+00 1.70000E+00
 -1        98-3.16865E+00 5.16732E+00 1.70000E+00
 -1        99-4.37345E+00 1.17997E+01 1.70000E+00
 -1       100-4.40553E+00 8.15341E+00 1.70000E+00
 -1       101-4.37345E+00 1.17997E+01 3.49999E-01
 -1       102-5.25114E+00 1.14361E+01 1.70000E+00
 -1       103-5.67665E-01 2.61170E+00 1.70000E+00
 -1       104-3.08900E+00 8.69874E+00 1.70000E+00
 -1       105-3.08900E+00 8.69874E+00 3.49999E-01
 -1       106-1.85212E+00 5.71264E+00 3.49999E-01
 -1       107-3.16865E+00 5.16732E+00 3.49999E-01
 -1       108-2.19566E+00 1.52391E+00 1.70000E+00
 -1       109-6.18273E+00 6.85448E+00 1.70000E+00
 -1       110-6.85448E+00 6.18273E+00 1.70000E+00
 -1       111-4.90489E+00 3.56139E+00 1.70000E+00
 -1       112-3.89727E+00 4.56902E+00 1.70000E+00
 -1       113-8.55608E+00 9.22784E+00 1.70000E+00
 -1       114-1.52391E+00 2.19566E+00 1.70000E+00
 -1       115-9.22784E+00 8.55608E+00 1.70000E+00
 -1       116-6.85448E+00 6.18273E+00 3.49999E-01
 -1       117-2.19566E+00 1.52391E+00 3.49999E-01
 -1       118-3.56139E+00 4.90489E+00 1.70000E+00
 -1       119-3.89727E+00 4.56902E+00 3.49999E-01
 -1       120-4.56902E+00 3.89727E+00 3.49999E-01
 -1       121-4.56902E+00 3.89727E+00 1.70000E+00
 -1       122-6.18273E+00 6.85448E+00 3.49999E-01
 -1       123-5.84685E+00 7.19035E+00 1.70000E+00
 -1       124-5.84685E+00 7.19035E+00 3.49999E-01
 -1       125-4.90489E+00 3.56139E+00 3.49999E-01
 -1       126-7.19035E+00 5.84685E+00 1.70000E+00
 -1       127-2.24815E+00 1.44535E+00 1.70000E+00
 -1       128-1.17997E+01 4.37345E+00 1.70000E+00
 -1       129-8.15341E+00 4.40553E+00 1.70000E+00
 -1       130-5.34909E+00 2.72980E+00 1.70000E+00
 -1       131-8.33519E+00 3.96668E+00 1.70000E+00
 -1       132-2.61170E+00 5.67665E-01 1.70000E+00
 -1       133-1.14361E+01 5.25114E+00 3.49999E-01
 -1       134-5.34909E+00 2.72980E+00 3.49999E-01
 -1       135-1.14361E+01 5.25114E+00 1.70000E+00
 -1       136-8.69874E+00 3.08900E+00 3.49999E-01
 -1       137-5.16732E+00 3.16865E+00 1.70000E+00
 -1       138-5.71264E+00 1.85212E+00 1.70000E+00
 -1       139-5.71264E+00 1.85212E+00 3.49999E-01
 -1       140-5.89442E+00 1.41328E+00 3.49999E-01
 -1       141-8.33519E+00 3.96668E+00 3.49999E-01
 -1       142-8.88051E+00 2.65016E+00 3.49999E-01
 -1       143-8.69874E+00 3.08900E+00 1.70000E+00
 -1       144-8.88051E+00 2.65016E+00 1.70000E+00
 -1       145-5.89442E+00 1.41328E+00 1.70000E+00
 -1       146-2.63013E+00-4.74999E-01 1.70000E+00
 -1       147-1.25751E+01-4.74999E-01 1.70000E+00
 -1       148-5.98657E+00 4.74999E-01 1.70000E+00
 -1       149-5.98657E+00-4.74999E-01 1.70000E+00
 -1       150-9.21869E+00 4.74999E-01 1.70000E+00
 -1       151-5.98657E+00 9.50000E-01 1.70000E+00
 -1       152-9.21869E+00-4.74999E-01 1.70000E+00
 -1       153-5.98657E+00-9.50000E-01 1.70000E+00
 -1       154-2.63013E+00 4.74999E-01 1.70000E+00
 -1       155-1.25751E+01 4.74999E-01 1.70000E+00
 -1       156-5.98657E+00 4.74999E-01 3.49999E-01
 -1       157-9.21869E+00 4.74999E-01 3.49999E-01
 -1       158-5.98657E+00-4.74999E-01 3.49999E-01
 -1       159-9.21869E+00 9.50000E-01 1.70000E+00
 -1       160-9.21869E+00-4.74999E-01 3.49999E-01
 -1       161-9.21869E+00 9.50000E-01 3.49999E-01
 -1       162-9.21869E+00-9.50000E-01 1.70000E+00
 -1       163-2.61170E+00-5.67665E-01 1.70000E+00
 -1       164-5.34909E+00-2.72980E+00 1.70000E+00
 -1       165-5.16732E+00-3.16865E+00 1.70000E+00
 -1       166-8.15341E+00-4.40553E+00 1.70000E+00
 -1       167-8.33519E+00-3.96668E+00 1.70000E+00
 -1       168-5.89442E+00-1.41328E+00 1.70000E+00
 -1       169-8.88051E+00-2.65016E+00 1.70000E+00
 -1       170-1.17997E+01-4.37345E+00 1.70000E+00
 -1       171-1.14361E+01-5.25114E+00 1.70000E+00
 -1       172-5.71264E+00-1.85212E+00 1.70000E+00
 -1       173-8.69874E+00-3.08900E+00 3.49999E-01
 -1       174-8.69874E+00-3.08900E+00 1.70000E+00
 -1       175-8.33519E+00-3.96668E+00 3.49999E-01
 -1       176-2.24815E+00-1.44535E+00 1.70000E+00
 -1       177-5.34909E+00-2.72980E+00 3.49999E-01
 -1       178-5.16732E+00-3.16865E+00 3.49999E-01
 -1       179-1.52391E+00-2.19566E+00 1.70000E+00
 -1       180-2.19566E+00-1.52391E+00 1.70000E+00
 -1       181-4.90489E+00-3.56139E+00 1.70000E+00
 -1       182-5.84685E+00-7.19035E+00 1.70000E+00
 -1       183-7.19035E+00-5.84685E+00 1.70000E+00
 -1       184-6.18273E+00-6.85448E+00 1.70000E+00
 -1       185-8.55608E+00-9.22784E+00 3.49999E-01
 -1       186-8.55608E+00-9.22784E+00 1.70000E+00
 -1       187-4.56902E+00-3.89727E+00 3.49999E-01
 -1       188-6.85448E+00-6.18273E+00 1.70000E+00
 -1       189-9.22784E+00-8.55608E+00 1.70000E+00
 -1       190-6.18273E+00-6.85448E+00 3.49999E-01
 -1       191-1.52391E+00-2.19566E+00 3.49999E-01
 -1       192-3.89727E+00-4.56902E+00 1.70000E+00
 -1       193-3.89727E+00-4.56902E+00 3.49999E-01
 -1       194-4.56902E+00-3.89727E+00 1.70000E+00
 -1       195-3.56139E+00-4.90489E+00 3.49999E-01
 -1       196-6.85448E+00-6.18273E+00 3.49999E-01
 -1       197-5.84685E+00-7.19035E+00 3.49999E-01
 -1       198-3.56139E+00-4.90489E+00 1.70000E+00
 -1       199-1.44535E+00-2.24815E+00 3.49999E-01
 -1       200-3.16865E+00-5.16732E+00 1.70000E+00
 -1       201-1.85212E+00-5.71264E+00 1.70000E+00
 -1       202-5.67665E-01-2.61170E+00 1.70000E+00
 -1       203-2.72980E+00-5.34909E+00 1.70000E+00
 -1       204-1.44535E+00-2.24815E+00 1.70000E+00
 -1       205-3.08900E+00-8.69874E+00 1.70000E+00
 -1       206-4.37345E+00-1.17997E+01 1.70000E+00
 -1       207-1.41328E+00-5.89442E+00 1.70000E+00
 -1       208-5.25114E+00-1.14361E+01 3.49999E-01
 -1       209-3.96668E+00-8.33519E+00 1.70000E+00
 -1       210-5.25114E+00-1.14361E+01 1.70000E+00
 -1       211-1.85212E+00-5.71264E+00 3.49999E-01
 -1       212-1.41328E+00-5.89442E+00 3.49999E-01
 -1       213-2.65016E+00-8.88051E+00 1.70000E+00
 -1       214-3.16865E+00-5.16732E+00 3.49999E-01
 -1       215-4.40553E+00-8.15341E+00 1.70000E+00
 -1       216-2.65016E+00-8.88051E+00 3.49999E-01
 -1       217-4.74999E-01-2.63013E+00 1.70000E+00
 -1       218-4.74999E-01-5.98657E+00 1.70000E+00
 -1       219 4.74999E-01-2.63013E+00 1.70000E+00
 -1       220 4.74999E-01-9.21869E+00 1.70000E+00
 -1       221-4.74999E-01-1.25751E+01 1.70000E+00
 -1       222 4.74999E-01-1.25751E+01 1.70000E+00
 -1       223-4.74999E-01-9.21869E+00 3.49999E-01
 -1       224-4.74999E-01-1.25751E+01 3.49999E-01
 -1       225 4.74999E-01-9.21869E+00 3.49999E-01
 -1       226 4.74999E-01-2.63013E+00 3.49999E-01
 -1       227 4.74999E-01-5.98657E+00 1.70000E+00
 -1       228-4.74999E-01-5.98657E+00 3.49999E-01
 -1       229-9.50000E-01-5.98657E+00 1.70000E+00
 -1       230 4.74999E-01-5.98657E+00 3.49999E-01
 -1       231-4.74999E-01-9.21869E+00 1.70000E+00
 -1       232-9.50000E-01-9.21869E+00 1.70000E+00
 -1       233 9.50000E-01-9.21869E+00 1.70000E+00
 -1       234 9.50000E-01-5.98657E+00 1.70000E+00
 -1       235 4.37345E+00-1.17997E+01 1.70000E+00
 -1       236 5.25114E+00-1.14361E+01 1.70000E+00
 -1       237 3.16865E+00-5.16732E+00 1.70000E+00
 -1       238 3.96668E+00-8.33519E+00 1.70000E+00
 -1       239 3.08900E+00-8.69874E+00 1.70000E+00
 -1       240 1.85212E+00-5.71264E+00 1.70000E+00
 -1       241 1.44535E+00-2.24815E+00 1.70000E+00
 -1       242 2.65016E+00-8.88051E+00 1.70000E+00
 -1       243 5.25114E+00-1.14361E+01 3.49999E-01
 -1       244 5.67665E-01-2.61170E+00 3.49999E-01
 -1       245 5.67665E-01-2.61170E+00 1.70000E+00
 -1       246 4.37345E+00-1.17997E+01 3.49999E-01
 -1       247 2.72980E+00-5.34909E+00 1.70000E+00
 -1       248 1.85212E+00-5.71264E+00 3.49999E-01
 -1       249 1.41328E+00-5.89442E+00 1.70000E+00
 -1       250 2.65016E+00-8.88051E+00 3.49999E-01
 -1       251 3.96668E+00-8.33519E+00 3.49999E-01
 -1       252 1.41328E+00-5.89442E+00 3.49999E-01
 -1       253 4.40553E+00-8.15341E+00 1.70000E+00
 -1       254 2.19566E+00-1.52391E+00 1.70000E+00
 -1       255 7.19035E+00-5.84685E+00 1.70000E+00
 -1       256 6.85448E+00-6.18273E+00 1.70000E+00
 -1       257 8.55608E+00-9.22784E+00 1.70000E+00
 -1       258 9.22784E+00-8.55608E+00 1.70000E+00
 -1       259 3.89727E+00-4.56902E+00 3.49999E-01
 -1       260 1.52391E+00-2.19566E+00 1.70000E+00
 -1       261 8.55608E+00-9.22784E+00 3.49999E-01
 -1       262 6.18273E+00-6.85448E+00 1.70000E+00
 -1       263 6.85448E+00-6.18273E+00 3.49999E-01
 -1       264 4.56902E+00-3.89727E+00 1.70000E+00
 -1       265 3.89727E+00-4.56902E+00 1.70000E+00
 -1       266 3.56139E+00-4.90489E+00 3.49999E-01
 -1       267 4.90489E+00-3.56139E+00 1.70000E+00
 -1       268 6.18273E+00-6.85448E+00 3.49999E-01
 -1       269 5.84685E+00-7.19035E+00 1.70000E+00
 -1       270 7.19035E+00-5.84685E+00 3.49999E-01
 -1       271 3.56139E+00-4.90489E+00 1.70000E+00
 -1       272 5.84685E+00-7.19035E+00 3.49999E-01
 -1       273 4.90489E+00-3.56139E+00 3.49999E-01
 -1       274 2.61170E+00-5.67665E-01 3.49999E-01
 -1       275 2.61170E+00-5.67665E-01 1.70000E+00
 -1       276 2.24815E+00-1.44535E+00 1.70000E+00
 -1       277 5.71264E+00-1.85212E+00 1.70000E+00
 -1       278 8.15341E+00-4.40553E+00 1.70000E+00
 -1       279 5.16732E+00-3.16865E+00 1.70000E+00
 -1       280 1.17997E+01-4.37345E+00 1.70000E+00
 -1       281 8.69874E+00-3.08900E+00 1.70000E+00
 -1       282 1.14361E+01-5.25114E+00 1.70000E+00
 -1       283 5.34909E+00-2.72980E+00 1.70000E+00
 -1       284 5.34909E+00-2.72980E+00 3.49999E-01
 -1       285 5.16732E+00-3.16865E+00 3.49999E-01
 -1       286 5.71264E+00-1.85212E+00 3.49999E-01
 -1       287 8.33519E+00-3.96668E+00 3.49999E-01
 -1       288 8.33519E+00-3.96668E+00 1.70000E+00
 -1       289 8.88051E+00-2.65016E+00 1.70000E+00
 -1       290 8.69874E+00-3.08900E+00 3.49999E-01
 -1       291 8.88051E+00-2.65016E+00 3.49999E-01
 -1       292 5.89442E+00-1.41328E+00 1.70000E+00
 -1       293 9.44469E+00 1.41350E+01 3.49999E-01
 -1       294 1.70000E+01 0.00000E+00-3.49999E-01
 -1       295-6.50562E+00-1.57060E+01-3.49999E-01
 -1       296 1.57060E+01 6.50562E+00-3.49999E-01
 -1       297-1.41350E+01 9.44469E+00 3.49999E-01
 -1       298-1.57060E+01 6.50562E+00-3.49999E-01
 -1       299 1.41350E+01-9.44469E+00 3.49999E-01
 -1       300 1.20208E+01-1.20208E+01-3.49999E-01
 -1       301-1.57060E+01-6.50562E+00 3.49999E-01
 -1       302 6.50562E+00 1.57060E+01 3.49999E-01
 -1       303 3.31653E+00 1.66733E+01-3.49999E-01
 -1       304 3.31653E+00 1.66733E+01 3.49999E-01
 -1       305 6.50562E+00 1.57060E+01-3.49999E-01
 -1       306-1.66733E+01 3.31653E+00 3.49999E-01
 -1       307-1.20208E+01 1.20208E+01-3.49999E-01
 -1       308-3.31653E+00 1.66733E+01 3.49999E-01
 -1       309 0.00000E+00 1.70000E+01-3.49999E-01
 -1       310-3.31653E+00 1.66733E+01-3.49999E-01
 -1       311-1.20208E+01 1.20208E+01 3.49999E-01
 -1       312-9.44469E+00 1.41350E+01-3.49999E-01
 -1       313 1.66733E+01 3.31653E+00-3.49999E-01
 -1       314 1.70000E+01 0.00000E+00 3.49999E-01
 -1       315 9.44469E+00-1.41350E+01 3.49999E-01
 -1       316 1.57060E+01-6.50562E+00-3.49999E-01
 -1       317 1.66733E+01-3.31653E+00-3.49999E-01
 -1       318 9.44469E+00-1.41350E+01-3.49999E-01
 -1       319 1.41350E+01-9.44469E+00-3.49999E-01
 -1       320 1.41350E+01 9.44469E+00-3.49999E-01
 -1       321 1.20208E+01 1.20208E+01-3.49999E-01
 -1       322 9.44469E+00 1.41350E+01-3.49999E-01
 -1       323-3.31653E+00-1.66733E+01-3.49999E-01
 -1       324-6.50562E+00 1.57060E+01-3.49999E-01
 -1       325-1.41350E+01-9.44469E+00-3.49999E-01
 -1       326-1.41350E+01 9.44469E+00-3.49999E-01
 -1       327-1.66733E+01 3.31653E+00-3.49999E-01
 -1       328-1.66733E+01-3.31653E+00-3.49999E-01
 -1       329-1.70000E+01 0.00000E+00-3.49999E-01
 -1       330-1.25751E+01 4.74999E-01 3.49999E-01
 -1       331-1.17997E+01 4.37345E+00 3.49999E-01
 -1       332-9.21869E+00-9.50000E-01 3.49999E-01
 -1       333-1.25751E+01-4.74999E-01 3.49999E-01
 -1       334-1.66733E+01-3.31653E+00 3.49999E-01
 -1       335-1.70000E+01 0.00000E+00 3.49999E-01
 -1       336-8.15341E+00 4.40553E+00 3.49999E-01
 -1       337-7.19035E+00 5.84685E+00 3.49999E-01
 -1       338-9.22784E+00 8.55608E+00 3.49999E-01
 -1       339-9.22784E+00-8.55608E+00 3.49999E-01
 -1       340-8.15341E+00-4.40553E+00 3.49999E-01
 -1       341-1.20208E+01-1.20208E+01 3.49999E-01
 -1       342-1.14361E+01-5.25114E+00 3.49999E-01
 -1       343-1.17997E+01-4.37345E+00 3.49999E-01
 -1       344-5.16732E+00 3.16865E+00 3.49999E-01
 -1       345-3.96668E+00-8.33519E+00 3.49999E-01
 -1       346-7.19035E+00-5.84685E+00 3.49999E-01
 -1       347-4.90489E+00-3.56139E+00 3.49999E-01
 -1       348-3.96668E+00 8.33519E+00 3.49999E-01
 -1       349-5.25114E+00 1.14361E+01 3.49999E-01
 -1       350-3.56139E+00 4.90489E+00 3.49999E-01
 -1       351-4.40553E+00 8.15341E+00 3.49999E-01
 -1       352-2.61170E+00 5.67665E-01 3.49999E-01
 -1       353-5.98657E+00 9.50000E-01 3.49999E-01
 -1       354-2.63013E+00 4.74999E-01 3.49999E-01
 -1       355-2.19566E+00-1.52391E+00 3.49999E-01
 -1       356-2.24815E+00 1.44535E+00 3.49999E-01
 -1       357-2.72980E+00 5.34909E+00 3.49999E-01
 -1       358-1.52391E+00 2.19566E+00 3.49999E-01
 -1       359-9.50000E-01-5.98657E+00 3.49999E-01
 -1       360-5.67665E-01-2.61170E+00 3.49999E-01
 -1       361-2.72980E+00-5.34909E+00 3.49999E-01
 -1       362-2.24815E+00-1.44535E+00 3.49999E-01
 -1       363-2.63013E+00-4.74999E-01 3.49999E-01
 -1       364-2.61170E+00-5.67665E-01 3.49999E-01
 -1       365-5.71264E+00-1.85212E+00 3.49999E-01
 -1       366-5.98657E+00-9.50000E-01 3.49999E-01
 -1       367-8.88051E+00-2.65016E+00 3.49999E-01
 -1       368-5.89442E+00-1.41328E+00 3.49999E-01
 -1       369-4.40553E+00-8.15341E+00 3.49999E-01
 -1       370-9.50000E-01 5.98657E+00 3.49999E-01
 -1       371-4.74999E-01 2.63013E+00 3.49999E-01
 -1       372-5.67665E-01 2.61170E+00 3.49999E-01
 -1       373-1.41328E+00 5.89442E+00 3.49999E-01
 -1       374-4.74999E-01-2.63013E+00 3.49999E-01
 -1       375 4.74999E-01 9.21869E+00 3.49999E-01
 -1       376 9.50000E-01-5.98657E+00 3.49999E-01
 -1       377 5.67665E-01 2.61170E+00 3.49999E-01
 -1       378 4.74999E-01 5.98657E+00 3.49999E-01
 -1       379 2.24815E+00-1.44535E+00 3.49999E-01
 -1       380 4.56902E+00-3.89727E+00 3.49999E-01
 -1       381 1.52391E+00 2.19566E+00 3.49999E-01
 -1       382 2.19566E+00-1.52391E+00 3.49999E-01
 -1       383 4.40553E+00-8.15341E+00 3.49999E-01
 -1       384 3.56139E+00 4.90489E+00 3.49999E-01
 -1       385 3.89727E+00 4.56902E+00 3.49999E-01
 -1       386 5.89442E+00-1.41328E+00 3.49999E-01
 -1       387 2.61170E+00 5.67665E-01 3.49999E-01
 -1       388 2.24815E+00 1.44535E+00 3.49999E-01
 -1       389 5.98657E+00-9.50000E-01 3.49999E-01
 -1       390 1.20208E+01 1.20208E+01 3.49999E-01
 -1       391 9.22784E+00 8.55608E+00 3.49999E-01
 -1       392 5.25114E+00 1.14361E+01 3.49999E-01
 -1       393 8.55608E+00 9.22784E+00 3.49999E-01
 -1       394 4.37345E+00 1.17997E+01 3.49999E-01
 -1       395 2.65016E+00 8.88051E+00 3.49999E-01
 -1       396 3.08900E+00 8.69874E+00 3.49999E-01
 -1       397 0.00000E+00 1.70000E+01 3.49999E-01
 -1       398-4.74999E-01 1.25751E+01 3.49999E-01
 -1       399 4.74999E-01 1.25751E+01 3.49999E-01
 -1       400-2.65016E+00 8.88051E+00 3.49999E-01
 -1       401-6.50562E+00 1.57060E+01 3.49999E-01
 -1       402-9.44469E+00 1.41350E+01 3.49999E-01
 -1       403-8.55608E+00 9.22784E+00 3.49999E-01
 -1       404 1.41350E+01 9.44469E+00 3.49999E-01
 -1       405 7.19035E+00 5.84685E+00 3.49999E-01
 -1       406 6.85448E+00 6.18273E+00 3.49999E-01
 -1       407 1.66733E+01 3.31653E+00 3.49999E-01
 -1       408 1.57060E+01 6.50562E+00 3.49999E-01
 -1       409 1.66733E+01-3.31653E+00 3.49999E-01
 -1       410 1.25751E+01-4.74999E-01 3.49999E-01
 -1       411 1.17997E+01 4.37345E+00 3.49999E-01
 -1       412 9.21869E+00 9.50000E-01 3.49999E-01
 -1       413 9.21869E+00 4.74999E-01 3.49999E-01
 -1       414 1.57060E+01-6.50562E+00 3.49999E-01
 -1       415 9.21869E+00-9.50000E-01 3.49999E-01
 -1       416 1.17997E+01-4.37345E+00 3.49999E-01
 -1       417 1.20208E+01-1.20208E+01 3.49999E-01
 -1       418 1.14361E+01-5.25114E+00 3.49999E-01
 -1       419 9.22784E+00-8.55608E+00 3.49999E-01
 -1       420 8.15341E+00-4.40553E+00 3.49999E-01
 -1       421 3.08900E+00-8.69874E+00 3.49999E-01
 -1       422 9.50000E-01-9.21869E+00 3.49999E-01
 -1       423 4.74999E-01-1.25751E+01 3.49999E-01
 -1       424-4.37345E+00-1.17997E+01 3.49999E-01
 -1       425-9.50000E-01-9.21869E+00 3.49999E-01
 -1       426-3.08900E+00-8.69874E+00 3.49999E-01
 -1       427-3.31653E+00-1.66733E+01 3.49999E-01
 -1       428 0.00000E+00-1.70000E+01 3.49999E-01
 -1       429-9.44469E+00-1.41350E+01 3.49999E-01
 -1       430 5.98657E+00 9.50000E-01 3.49999E-01
 -1       431 5.98657E+00 4.74999E-01 3.49999E-01
 -1       432 3.16865E+00 5.16732E+00 3.49999E-01
 -1       433 3.16865E+00-5.16732E+00 3.49999E-01
 -1       434 1.44535E+00-2.24815E+00 3.49999E-01
 -1       435 2.72980E+00-5.34909E+00 3.49999E-01
 -1       436 1.52391E+00-2.19566E+00 3.49999E-01
 -1       437 1.44535E+00 2.24815E+00 3.49999E-01
 -1       438-1.57060E+01 6.50562E+00 3.49999E-01
 -1       439 0.00000E+00-1.70000E+01-3.49999E-01
 -1       440 3.31653E+00-1.66733E+01-3.49999E-01
 -1       441 6.50562E+00-1.57060E+01 3.49999E-01
 -1       442 3.31653E+00-1.66733E+01 3.49999E-01
 -1       443 6.50562E+00-1.57060E+01-3.49999E-01
 -1       444-9.44469E+00-1.41350E+01-3.49999E-01
 -1       445-6.50562E+00-1.57060E+01 3.49999E-01
 -1       446-1.57060E+01-6.50562E+00-3.49999E-01
 -1       447-1.41350E+01-9.44469E+00 3.49999E-01
 -1       448-1.20208E+01-1.20208E+01-3.49999E-01
 -1       449 2.63013E+00 4.74999E-01 1.02500E+00
 -1       450 2.63013E+00-4.74999E-01 1.02500E+00
 -1       451 4.30835E+00 4.74999E-01 1.70000E+00
 -1       452 4.30835E+00-4.74999E-01 1.70000E+00
 -1       453 7.60263E+00 9.50000E-01 1.70000E+00
 -1       454 7.60263E+00-9.50000E-01 1.70000E+00
 -1       455 1.08969E+01 4.74999E-01 1.70000E+00
 -1       456 1.08969E+01-4.74999E-01 1.70000E+00
 -1       457 1.25751E+01 4.74999E-01 1.02500E+00
 -1       458 1.25751E+01-4.74999E-01 1.02500E+00
 -1       459 4.30835E+00-4.74999E-01 3.49999E-01
 -1       460 5.98657E+00-4.74999E-01 1.02500E+00
 -1       461 9.21869E+00-4.74999E-01 1.02500E+00
 -1       462 1.08969E+01-4.74999E-01 3.49999E-01
 -1       463 1.08969E+01 4.74999E-01 3.49999E-01
 -1       464 9.21869E+00 4.74999E-01 1.02500E+00
 -1       465 5.98657E+00 4.74999E-01 1.02500E+00
 -1       466 4.30835E+00 4.74999E-01 3.49999E-01
 -1       467 5.98657E+00-9.50000E-01 1.02500E+00
 -1       468 5.98657E+00 9.50000E-01 1.02500E+00
 -1       469 9.21869E+00-9.50000E-01 1.02500E+00
 -1       470 9.21869E+00 9.50000E-01 1.02500E+00
 -1       471 7.60263E+00-9.50000E-01 3.49999E-01
 -1       472 7.60263E+00 9.50000E-01 3.49999E-01
 -1       473 2.24815E+00 1.44535E+00 1.02500E+00
 -1       474 2.61170E+00 5.67665E-01 1.02500E+00
 -1       475 1.02492E+01 3.73123E+00 1.70000E+00
 -1       476 9.88564E+00 4.60891E+00 1.70000E+00
 -1       477 7.38747E+00 2.03172E+00 1.70000E+00
 -1       478 6.66037E+00 3.78709E+00 1.70000E+00
 -1       479 4.16217E+00 1.20989E+00 1.70000E+00
 -1       480 3.79862E+00 2.08757E+00 1.70000E+00
 -1       481 1.14361E+01 5.25114E+00 1.02500E+00
 -1       482 1.17997E+01 4.37345E+00 1.02500E+00
 -1       483 4.16217E+00 1.20989E+00 3.49999E-01
 -1       484 5.71264E+00 1.85212E+00 1.02500E+00
 -1       485 8.69874E+00 3.08900E+00 1.02500E+00
 -1       486 1.02492E+01 3.73123E+00 3.49999E-01
 -1       487 9.88564E+00 4.60891E+00 3.49999E-01
 -1       488 8.33519E+00 3.96668E+00 1.02500E+00
 -1       489 5.34909E+00 2.72980E+00 1.02500E+00
 -1       490 3.79862E+00 2.08757E+00 3.49999E-01
 -1       491 5.89442E+00 1.41328E+00 1.02500E+00
 -1       492 5.16732E+00 3.16865E+00 1.02500E+00
 -1       493 8.88051E+00 2.65016E+00 1.02500E+00
 -1       494 8.15341E+00 4.40553E+00 1.02500E+00
 -1       495 7.38747E+00 2.03172E+00 3.49999E-01
 -1       496 6.66037E+00 3.78709E+00 3.49999E-01
 -1       497 1.52391E+00 2.19566E+00 1.02500E+00
 -1       498 2.19566E+00 1.52391E+00 1.02500E+00
 -1       499 8.04116E+00 7.36940E+00 1.70000E+00
 -1       500 7.36940E+00 8.04116E+00 1.70000E+00
 -1       501 6.04762E+00 4.70412E+00 1.70000E+00
 -1       502 4.70412E+00 6.04762E+00 1.70000E+00
 -1       503 3.38234E+00 2.71059E+00 1.70000E+00
 -1       504 2.71059E+00 3.38234E+00 1.70000E+00
 -1       505 8.55608E+00 9.22784E+00 1.02500E+00
 -1       506 9.22784E+00 8.55608E+00 1.02500E+00
 -1       507 4.56902E+00 3.89727E+00 1.02500E+00
 -1       508 3.38234E+00 2.71059E+00 3.49999E-01
 -1       509 6.85448E+00 6.18273E+00 1.02500E+00
 -1       510 8.04116E+00 7.36940E+00 3.49999E-01
 -1       511 7.36940E+00 8.04116E+00 3.49999E-01
 -1       512 6.18273E+00 6.85448E+00 1.02500E+00
 -1       513 3.89727E+00 4.56902E+00 1.02500E+00
 -1       514 2.71059E+00 3.38234E+00 3.49999E-01
 -1       515 4.90489E+00 3.56139E+00 1.02500E+00
 -1       516 3.56139E+00 4.90489E+00 1.02500E+00
 -1       517 7.19035E+00 5.84685E+00 1.02500E+00
 -1       518 5.84685E+00 7.19035E+00 1.02500E+00
 -1       519 6.04762E+00 4.70412E+00 3.49999E-01
 -1       520 4.70412E+00 6.04762E+00 3.49999E-01
 -1       521 5.67665E-01 2.61170E+00 1.02500E+00
 -1       522 1.44535E+00 2.24815E+00 1.02500E+00
 -1       523 2.03172E+00 7.38747E+00 1.70000E+00
 -1       524 4.60891E+00 9.88564E+00 1.70000E+00
 -1       525 3.73123E+00 1.02492E+01 1.70000E+00
 -1       526 2.08757E+00 3.79862E+00 1.70000E+00
 -1       527 1.20989E+00 4.16217E+00 1.70000E+00
 -1       528 3.78709E+00 6.66037E+00 1.70000E+00
 -1       529 5.25114E+00 1.14361E+01 1.02500E+00
 -1       530 4.37345E+00 1.17997E+01 1.02500E+00
 -1       531 2.72980E+00 5.34909E+00 1.02500E+00
 -1       532 2.08757E+00 3.79862E+00 3.49999E-01
 -1       533 3.96668E+00 8.33519E+00 1.02500E+00
 -1       534 4.60891E+00 9.88564E+00 3.49999E-01
 -1       535 3.73123E+00 1.02492E+01 3.49999E-01
 -1       536 3.08900E+00 8.69874E+00 1.02500E+00
 -1       537 1.85212E+00 5.71264E+00 1.02500E+00
 -1       538 1.20989E+00 4.16217E+00 3.49999E-01
 -1       539 3.16865E+00 5.16732E+00 1.02500E+00
 -1       540 1.41328E+00 5.89442E+00 1.02500E+00
 -1       541 4.40553E+00 8.15341E+00 1.02500E+00
 -1       542 2.65016E+00 8.88051E+00 1.02500E+00
 -1       543 3.78709E+00 6.66037E+00 3.49999E-01
 -1       544 2.03172E+00 7.38747E+00 3.49999E-01
 -1       545-4.74999E-01 2.63013E+00 1.02500E+00
 -1       546 4.74999E-01 2.63013E+00 1.02500E+00
 -1       547-9.50000E-01 7.60263E+00 1.70000E+00
 -1       548 4.74999E-01 1.08969E+01 1.70000E+00
 -1       549-4.74999E-01 1.08969E+01 1.70000E+00
 -1       550 4.74999E-01 4.30835E+00 1.70000E+00
 -1       551-4.74999E-01 4.30835E+00 1.70000E+00
 -1       552 9.50000E-01 7.60263E+00 1.70000E+00
 -1       553 4.74999E-01 1.25751E+01 1.02500E+00
 -1       554-4.74999E-01 1.25751E+01 1.02500E+00
 -1       555 4.74999E-01 5.98657E+00 1.02500E+00
 -1       556 4.74999E-01 4.30835E+00 3.49999E-01
 -1       557 4.74999E-01 9.21869E+00 1.02500E+00
 -1       558 4.74999E-01 1.08969E+01 3.49999E-01
 -1       559-4.74999E-01 1.08969E+01 3.49999E-01
 -1       560-4.74999E-01 9.21869E+00 1.02500E+00
 -1       561-4.74999E-01 5.98657E+00 1.02500E+00
 -1       562-4.74999E-01 4.30835E+00 3.49999E-01
 -1       563 9.50000E-01 5.98657E+00 1.02500E+00
 -1       564-9.50000E-01 5.98657E+00 1.02500E+00
 -1       565 9.50000E-01 9.21869E+00 1.02500E+00
 -1       566-9.50000E-01 9.21869E+00 1.02500E+00
 -1       567 9.50000E-01 7.60263E+00 3.49999E-01
 -1       568-9.50000E-01 7.60263E+00 3.49999E-01
 -1       569-1.44535E+00 2.24815E+00 1.02500E+00
 -1       570-5.67665E-01 2.61170E+00 1.02500E+00
 -1       571-2.03172E+00 7.38747E+00 1.70000E+00
 -1       572-1.20989E+00 4.16217E+00 1.70000E+00
 -1       573-2.08757E+00 3.79862E+00 1.70000E+00
 -1       574-3.73123E+00 1.02492E+01 1.70000E+00
 -1       575-4.60891E+00 9.88564E+00 1.70000E+00
 -1       576-3.78709E+00 6.66037E+00 1.70000E+00
 -1       577-4.37345E+00 1.17997E+01 1.02500E+00
 -1       578-5.25114E+00 1.14361E+01 1.02500E+00
 -1       579-1.85212E+00 5.71264E+00 1.02500E+00
 -1       580-1.20989E+00 4.16217E+00 3.49999E-01
 -1       581-3.08900E+00 8.69874E+00 1.02500E+00
 -1       582-3.73123E+00 1.02492E+01 3.49999E-01
 -1       583-4.60891E+00 9.88564E+00 3.49999E-01
 -1       584-3.96668E+00 8.33519E+00 1.02500E+00
 -1       585-2.72980E+00 5.34909E+00 1.02500E+00
 -1       586-2.08757E+00 3.79862E+00 3.49999E-01
 -1       587-1.41328E+00 5.89442E+00 1.02500E+00
 -1       588-3.16865E+00 5.16732E+00 1.02500E+00
 -1       589-2.65016E+00 8.88051E+00 1.02500E+00
 -1       590-4.40553E+00 8.15341E+00 1.02500E+00
 -1       591-2.03172E+00 7.38747E+00 3.49999E-01
 -1       592-3.78709E+00 6.66037E+00 3.49999E-01
 -1       593-1.52391E+00 2.19566E+00 1.02500E+00
 -1       594-2.19566E+00 1.52391E+00 1.02500E+00
 -1       595-7.36940E+00 8.04116E+00 1.70000E+00
 -1       596-8.04116E+00 7.36940E+00 1.70000E+00
 -1       597-4.70412E+00 6.04762E+00 1.70000E+00
 -1       598-6.04762E+00 4.70412E+00 1.70000E+00
 -1       599-2.71059E+00 3.38234E+00 1.70000E+00
 -1       600-3.38234E+00 2.71059E+00 1.70000E+00
 -1       601-8.55608E+00 9.22784E+00 1.02500E+00
 -1       602-9.22784E+00 8.55608E+00 1.02500E+00
 -1       603-3.89727E+00 4.56902E+00 1.02500E+00
 -1       604-2.71059E+00 3.38234E+00 3.49999E-01
 -1       605-6.18273E+00 6.85448E+00 1.02500E+00
 -1       606-7.36940E+00 8.04116E+00 3.49999E-01
 -1       607-8.04116E+00 7.36940E+00 3.49999E-01
 -1       608-6.85448E+00 6.18273E+00 1.02500E+00
 -1       609-4.56902E+00 3.89727E+00 1.02500E+00
 -1       610-3.38234E+00 2.71059E+00 3.49999E-01
 -1       611-3.56139E+00 4.90489E+00 1.02500E+00
 -1       612-4.90489E+00 3.56139E+00 1.02500E+00
 -1       613-5.84685E+00 7.19035E+00 1.02500E+00
 -1       614-7.19035E+00 5.84685E+00 1.02500E+00
 -1       615-4.70412E+00 6.04762E+00 3.49999E-01
 -1       616-6.04762E+00 4.70412E+00 3.49999E-01
 -1       617-2.24815E+00 1.44535E+00 1.02500E+00
 -1       618-2.61170E+00 5.67665E-01 1.02500E+00
 -1       619-9.88564E+00 4.60891E+00 1.70000E+00
 -1       620-1.02492E+01 3.73123E+00 1.70000E+00
 -1       621-6.66037E+00 3.78709E+00 1.70000E+00
 -1       622-7.38747E+00 2.03172E+00 1.70000E+00
 -1       623-3.79862E+00 2.08757E+00 1.70000E+00
 -1       624-4.16217E+00 1.20989E+00 1.70000E+00
 -1       625-1.14361E+01 5.25114E+00 1.02500E+00
 -1       626-1.17997E+01 4.37345E+00 1.02500E+00
 -1       627-3.79862E+00 2.08757E+00 3.49999E-01
 -1       628-5.34909E+00 2.72980E+00 1.02500E+00
 -1       629-8.33519E+00 3.96668E+00 1.02500E+00
 -1       630-9.88564E+00 4.60891E+00 3.49999E-01
 -1       631-1.02492E+01 3.73123E+00 3.49999E-01
 -1       632-8.69874E+00 3.08900E+00 1.02500E+00
 -1       633-5.71264E+00 1.85212E+00 1.02500E+00
 -1       634-4.16217E+00 1.20989E+00 3.49999E-01
 -1       635-5.16732E+00 3.16865E+00 1.02500E+00
 -1       636-5.89442E+00 1.41328E+00 1.02500E+00
 -1       637-8.15341E+00 4.40553E+00 1.02500E+00
 -1       638-8.88051E+00 2.65016E+00 1.02500E+00
 -1       639-6.66037E+00 3.78709E+00 3.49999E-01
 -1       640-7.38747E+00 2.03172E+00 3.49999E-01
 -1       641-2.63013E+00 4.74999E-01 1.02500E+00
 -1       642-2.63013E+00-4.74999E-01 1.02500E+00
 -1       643-1.08969E+01 4.74999E-01 1.70000E+00
 -1       644-1.08969E+01-4.74999E-01 1.70000E+00
 -1       645-7.60263E+00 9.50000E-01 1.70000E+00
 -1       646-7.60263E+00-9.50000E-01 1.70000E+00
 -1       647-4.30835E+00 4.74999E-01 1.70000E+00
 -1       648-4.30835E+00-4.74999E-01 1.70000E+00
 -1       649-1.25751E+01 4.74999E-01 1.02500E+00
 -1       650-1.25751E+01-4.74999E-01 1.02500E+00
 -1       651-4.30835E+00 4.74999E-01 3.49999E-01
 -1       652-5.98657E+00 4.74999E-01 1.02500E+00
 -1       653-9.21869E+00 4.74999E-01 1.02500E+00
 -1       654-1.08969E+01 4.74999E-01 3.49999E-01
 -1       655-1.08969E+01-4.74999E-01 3.49999E-01
 -1       656-9.21869E+00-4.74999E-01 1.02500E+00
 -1       657-5.98657E+00-4.74999E-01 1.02500E+00
 -1       658-4.30835E+00-4.74999E-01 3.49999E-01
 -1       659-5.98657E+00 9.50000E-01 1.02500E+00
 -1       660-5.98657E+00-9.50000E-01 1.02500E+00
 -1       661-9.21869E+00 9.50000E-01 1.02500E+00
 -1       662-9.21869E+00-9.50000E-01 1.02500E+00
 -1       663-7.60263E+00 9.50000E-01 3.49999E-01
 -1       664-7.60263E+00-9.50000E-01 3.49999E-01
 -1       665-2.61170E+00-5.67665E-01 1.02500E+00
 -1       666-2.24815E+00-1.44535E+00 1.02500E+00
 -1       667-3.79862E+00-2.08757E+00 1.70000E+00
 -1       668-4.16217E+00-1.20989E+00 1.70000E+00
 -1       669-6.66037E+00-3.78709E+00 1.70000E+00
 -1       670-7.38747E+00-2.03172E+00 1.70000E+00
 -1       671-9.88564E+00-4.60891E+00 1.70000E+00
 -1       672-1.02492E+01-3.73123E+00 1.70000E+00
 -1       673-1.17997E+01-4.37345E+00 1.02500E+00
 -1       674-1.14361E+01-5.25114E+00 1.02500E+00
 -1       675-4.16217E+00-1.20989E+00 3.49999E-01
 -1       676-5.71264E+00-1.85212E+00 1.02500E+00
 -1       677-8.69874E+00-3.08900E+00 1.02500E+00
 -1       678-1.02492E+01-3.73123E+00 3.49999E-01
 -1       679-9.88564E+00-4.60891E+00 3.49999E-01
 -1       680-8.33519E+00-3.96668E+00 1.02500E+00
 -1       681-5.34909E+00-2.72980E+00 1.02500E+00
 -1       682-3.79862E+00-2.08757E+00 3.49999E-01
 -1       683-5.89442E+00-1.41328E+00 1.02500E+00
 -1       684-5.16732E+00-3.16865E+00 1.02500E+00
 -1       685-8.88051E+00-2.65016E+00 1.02500E+00
 -1       686-8.15341E+00-4.40553E+00 1.02500E+00
 -1       687-7.38747E+00-2.03172E+00 3.49999E-01
 -1       688-6.66037E+00-3.78709E+00 3.49999E-01
 -1       689-2.19566E+00-1.52391E+00 1.02500E+00
 -1       690-1.52391E+00-2.19566E+00 1.02500E+00
 -1       691-2.71059E+00-3.38234E+00 1.70000E+00
 -1       692-3.38234E+00-2.71059E+00 1.70000E+00
 -1       693-4.70412E+00-6.04762E+00 1.70000E+00
 -1       694-6.04762E+00-4.70412E+00 1.70000E+00
 -1       695-7.36940E+00-8.04116E+00 1.70000E+00
 -1       696-8.04116E+00-7.36940E+00 1.70000E+00
 -1       697-9.22784E+00-8.55608E+00 1.02500E+00
 -1       698-8.55608E+00-9.22784E+00 1.02500E+00
 -1       699-3.38234E+00-2.71059E+00 3.49999E-01
 -1       700-4.56902E+00-3.89727E+00 1.02500E+00
 -1       701-6.85448E+00-6.18273E+00 1.02500E+00
 -1       702-8.04116E+00-7.36940E+00 3.49999E-01
 -1       703-6.18273E+00-6.85448E+00 1.02500E+00
 -1       704-7.36940E+00-8.04116E+00 3.49999E-01
 -1       705-3.89727E+00-4.56902E+00 1.02500E+00
 -1       706-2.71059E+00-3.38234E+00 3.49999E-01
 -1       707-4.90489E+00-3.56139E+00 1.02500E+00
 -1       708-3.56139E+00-4.90489E+00 1.02500E+00
 -1       709-7.19035E+00-5.84685E+00 1.02500E+00
 -1       710-5.84685E+00-7.19035E+00 1.02500E+00
 -1       711-6.04762E+00-4.70412E+00 3.49999E-01
 -1       712-4.70412E+00-6.04762E+00 3.49999E-01
 -1       713-5.67665E-01-2.61170E+00 1.02500E+00
 -1       714-1.44535E+00-2.24815E+00 1.02500E+00
 -1       715-3.78709E+00-6.66037E+00 1.70000E+00
 -1       716-1.20989E+00-4.16217E+00 1.70000E+00
 -1       717-2.08757E+00-3.79862E+00 1.70000E+00
 -1       718-3.73123E+00-1.02492E+01 1.70000E+00
 -1       719-4.60891E+00-9.88564E+00 1.70000E+00
 -1       720-2.03172E+00-7.38747E+00 1.70000E+00
 -1       721-5.25114E+00-1.14361E+01 1.02500E+00
 -1       722-4.37345E+00-1.17997E+01 1.02500E+00
 -1       723-2.08757E+00-3.79862E+00 3.49999E-01
 -1       724-2.72980E+00-5.34909E+00 1.02500E+00
 -1       725-3.96668E+00-8.33519E+00 1.02500E+00
 -1       726-4.60891E+00-9.88564E+00 3.49999E-01
 -1       727-3.08900E+00-8.69874E+00 1.02500E+00
 -1       728-3.73123E+00-1.02492E+01 3.49999E-01
 -1       729-1.85212E+00-5.71264E+00 1.02500E+00
 -1       730-1.20989E+00-4.16217E+00 3.49999E-01
 -1       731-3.16865E+00-5.16732E+00 1.02500E+00
 -1       732-1.41328E+00-5.89442E+00 1.02500E+00
 -1       733-4.40553E+00-8.15341E+00 1.02500E+00
 -1       734-2.65016E+00-8.88051E+00 1.02500E+00
 -1       735-3.78709E+00-6.66037E+00 3.49999E-01
 -1       736-2.03172E+00-7.38747E+00 3.49999E-01
 -1       737 4.74999E-01-2.63013E+00 1.02500E+00
 -1       738-4.74999E-01-2.63013E+00 1.02500E+00
 -1       739-9.50000E-01-7.60263E+00 1.70000E+00
 -1       740 4.74999E-01-4.30835E+00 1.70000E+00
 -1       741-4.74999E-01-4.30835E+00 1.70000E+00
 -1       742 4.74999E-01-1.08969E+01 1.70000E+00
 -1       743-4.74999E-01-1.08969E+01 1.70000E+00
 -1       744 9.50000E-01-7.60263E+00 1.70000E+00
 -1       745-4.74999E-01-1.25751E+01 1.02500E+00
 -1       746 4.74999E-01-1.25751E+01 1.02500E+00
 -1       747-4.74999E-01-4.30835E+00 3.49999E-01
 -1       748-4.74999E-01-5.98657E+00 1.02500E+00
 -1       749-4.74999E-01-9.21869E+00 1.02500E+00
 -1       750-4.74999E-01-1.08969E+01 3.49999E-01
 -1       751 4.74999E-01-9.21869E+00 1.02500E+00
 -1       752 4.74999E-01-1.08969E+01 3.49999E-01
 -1       753 4.74999E-01-5.98657E+00 1.02500E+00
 -1       754 4.74999E-01-4.30835E+00 3.49999E-01
 -1       755-9.50000E-01-5.98657E+00 1.02500E+00
 -1       756 9.50000E-01-5.98657E+00 1.02500E+00
 -1       757-9.50000E-01-9.21869E+00 1.02500E+00
 -1       758 9.50000E-01-9.21869E+00 1.02500E+00
 -1       759-9.50000E-01-7.60263E+00 3.49999E-01
 -1       760 9.50000E-01-7.60263E+00 3.49999E-01
 -1       761 1.44535E+00-2.24815E+00 1.02500E+00
 -1       762 5.67665E-01-2.61170E+00 1.02500E+00
 -1       763 3.78709E+00-6.66037E+00 1.70000E+00
 -1       764 4.60891E+00-9.88564E+00 1.70000E+00
 -1       765 3.73123E+00-1.02492E+01 1.70000E+00
 -1       766 2.08757E+00-3.79862E+00 1.70000E+00
 -1       767 1.20989E+00-4.16217E+00 1.70000E+00
 -1       768 2.03172E+00-7.38747E+00 1.70000E+00
 -1       769 4.37345E+00-1.17997E+01 1.02500E+00
 -1       770 5.25114E+00-1.14361E+01 1.02500E+00
 -1       771 1.20989E+00-4.16217E+00 3.49999E-01
 -1       772 1.85212E+00-5.71264E+00 1.02500E+00
 -1       773 3.08900E+00-8.69874E+00 1.02500E+00
 -1       774 3.73123E+00-1.02492E+01 3.49999E-01
 -1       775 3.96668E+00-8.33519E+00 1.02500E+00
 -1       776 4.60891E+00-9.88564E+00 3.49999E-01
 -1       777 2.72980E+00-5.34909E+00 1.02500E+00
 -1       778 2.08757E+00-3.79862E+00 3.49999E-01
 -1       779 1.41328E+00-5.89442E+00 1.02500E+00
 -1       780 3.16865E+00-5.16732E+00 1.02500E+00
 -1       781 2.65016E+00-8.88051E+00 1.02500E+00
 -1       782 4.40553E+00-8.15341E+00 1.02500E+00
 -1       783 2.03172E+00-7.38747E+00 3.49999E-01
 -1       784 3.78709E+00-6.66037E+00 3.49999E-01
 -1       785 2.19566E+00-1.52391E+00 1.02500E+00
 -1       786 1.52391E+00-2.19566E+00 1.02500E+00
 -1       787 3.38234E+00-2.71059E+00 1.70000E+00
 -1       788 2.71059E+00-3.38234E+00 1.70000E+00
 -1       789 6.04762E+00-4.70412E+00 1.70000E+00
 -1       790 4.70412E+00-6.04762E+00 1.70000E+00
 -1       791 8.04116E+00-7.36940E+00 1.70000E+00
 -1       792 7.36940E+00-8.04116E+00 1.70000E+00
 -1       793 9.22784E+00-8.55608E+00 1.02500E+00
 -1       794 8.55608E+00-9.22784E+00 1.02500E+00
 -1       795 2.71059E+00-3.38234E+00 3.49999E-01
 -1       796 3.89727E+00-4.56902E+00 1.02500E+00
 -1       797 6.18273E+00-6.85448E+00 1.02500E+00
 -1       798 7.36940E+00-8.04116E+00 3.49999E-01
 -1       799 8.04116E+00-7.36940E+00 3.49999E-01
 -1       800 6.85448E+00-6.18273E+00 1.02500E+00
 -1       801 4.56902E+00-3.89727E+00 1.02500E+00
 -1       802 3.38234E+00-2.71059E+00 3.49999E-01
 -1       803 3.56139E+00-4.90489E+00 1.02500E+00
 -1       804 4.90489E+00-3.56139E+00 1.02500E+00
 -1       805 5.84685E+00-7.19035E+00 1.02500E+00
 -1       806 7.19035E+00-5.84685E+00 1.02500E+00
 -1       807 4.70412E+00-6.04762E+00 3.49999E-01
 -1       808 6.04762E+00-4.70412E+00 3.49999E-01
 -1       809 2.61170E+00-5.67665E-01 1.02500E+00
 -1       810 2.24815E+00-1.44535E+00 1.02500E+00
 -1       811 4.16217E+00-1.20989E+00 1.70000E+00
 -1       812 3.79862E+00-2.08757E+00 1.70000E+00
 -1       813 7.38747E+00-2.03172E+00 1.70000E+00
 -1       814 6.66037E+00-3.78709E+00 1.70000E+00
 -1       815 1.02492E+01-3.73123E+00 1.70000E+00
 -1       816 9.88564E+00-4.60891E+00 1.70000E+00
 -1       817 1.17997E+01-4.37345E+00 1.02500E+00
 -1       818 1.14361E+01-5.25114E+00 1.02500E+00
 -1       819 3.79862E+00-2.08757E+00 3.49999E-01
 -1       820 5.34909E+00-2.72980E+00 1.02500E+00
 -1       821 8.33519E+00-3.96668E+00 1.02500E+00
 -1       822 9.88564E+00-4.60891E+00 3.49999E-01
 -1       823 1.02492E+01-3.73123E+00 3.49999E-01
 -1       824 8.69874E+00-3.08900E+00 1.02500E+00
 -1       825 5.71264E+00-1.85212E+00 1.02500E+00
 -1       826 4.16217E+00-1.20989E+00 3.49999E-01
 -1       827 5.16732E+00-3.16865E+00 1.02500E+00
 -1       828 5.89442E+00-1.41328E+00 1.02500E+00
 -1       829 8.15341E+00-4.40553E+00 1.02500E+00
 -1       830 8.88051E+00-2.65016E+00 1.02500E+00
 -1       831 6.66037E+00-3.78709E+00 3.49999E-01
 -1       832 7.38747E+00-2.03172E+00 3.49999E-01
 -1       833 1.07327E+01 1.30779E+01 3.49999E-01
 -1       834 1.07327E+01 1.30779E+01-3.49999E-01
 -1       835 1.68367E+01-1.65826E+00 3.49999E-01
 -1       836 1.68367E+01-1.65826E+00-3.49999E-01
 -1       837-4.91108E+00-1.61896E+01 3.49999E-01
 -1       838-4.91108E+00-1.61896E+01-3.49999E-01
 -1       839 1.61896E+01 4.91108E+00 3.49999E-01
 -1       840 1.61896E+01 4.91108E+00-3.49999E-01
 -1       841-4.91108E+00 1.61896E+01 3.49999E-01
 -1       842-4.91108E+00 1.61896E+01-3.49999E-01
 -1       843-1.49205E+01 7.97515E+00-3.49999E-01
 -1       844-1.49205E+01 7.97515E+00 3.49999E-01
 -1       845 1.30779E+01-1.07327E+01 3.49999E-01
 -1       846 1.30779E+01-1.07327E+01-3.49999E-01
 -1       847-1.49205E+01-7.97515E+00-3.49999E-01
 -1       848-1.49205E+01-7.97515E+00 3.49999E-01
 -1       849 1.49205E+01 7.97515E+00 3.49999E-01
 -1       850 1.49205E+01 7.97515E+00-3.49999E-01
 -1       851 1.30779E+01 1.07327E+01 3.49999E-01
 -1       852 1.30779E+01 1.07327E+01-3.49999E-01
 -1       853 7.97515E+00 1.49205E+01 3.49999E-01
 -1       854 7.97515E+00 1.49205E+01-3.49999E-01
 -1       855 1.65826E+00 1.68367E+01 3.49999E-01
 -1       856 1.65826E+00 1.68367E+01-3.49999E-01
 -1       857 4.91108E+00 1.61896E+01 3.49999E-01
 -1       858 4.91108E+00 1.61896E+01-3.49999E-01
 -1       859-1.68367E+01 1.65826E+00-3.49999E-01
 -1       860-1.68367E+01 1.65826E+00 3.49999E-01
 -1       861-1.30779E+01 1.07327E+01-3.49999E-01
 -1       862-1.30779E+01 1.07327E+01 3.49999E-01
 -1       863-7.97515E+00 1.49205E+01 3.49999E-01
 -1       864-7.97515E+00 1.49205E+01-3.49999E-01
 -1       865-1.65826E+00 1.68367E+01 3.49999E-01
 -1       866-1.65826E+00 1.68367E+01-3.49999E-01
 -1       867-1.07327E+01 1.30779E+01 3.49999E-01
 -1       868-1.07327E+01 1.30779E+01-3.49999E-01
 -1       869 1.68367E+01 1.65826E+00 3.49999E-01
 -1       870 1.68367E+01 1.65826E+00-3.49999E-01
 -1       871 7.97515E+00-1.49205E+01 3.49999E-01
 -1       872 7.97515E+00-1.49205E+01-3.49999E-01
 -1       873 1.49205E+01-7.97515E+00 3.49999E-01
 -1       874 1.49205E+01-7.97515E+00-3.49999E-01
 -1       875 1.61896E+01-4.91108E+00 3.49999E-01
 -1       876 1.61896E+01-4.91108E+00-3.49999E-01
 -1       877 1.07327E+01-1.30779E+01 3.49999E-01
 -1       878 1.07327E+01-1.30779E+01-3.49999E-01
 -1       879-1.65826E+00-1.68367E+01 3.49999E-01
 -1       880-1.65826E+00-1.68367E+01-3.49999E-01
 -1       881-1.07327E+01-1.30779E+01 3.49999E-01
 -1       882-1.07327E+01-1.30779E+01-3.49999E-01
 -1       883-1.68367E+01-1.65826E+00-3.49999E-01
 -1       884-1.68367E+01-1.65826E+00 3.49999E-01
 -1       885 4.91108E+00-1.61896E+01-3.49999E-01
 -1       886 1.65826E+00-1.68367E+01-3.49999E-01
 -1       887-7.97515E+00-1.49205E+01-3.49999E-01
 -1       888-1.30779E+01-1.07327E+01-3.49999E-01
 -1       889-1.61896E+01-4.91108E+00-3.49999E-01
 -1       890-1.61896E+01 4.91108E+00-3.49999E-01
 -1       891-1.61896E+01 4.91108E+00 3.49999E-01
 -1       892-1.30779E+01-1.07327E+01 3.49999E-01
 -1       893-1.61896E+01-4.91108E+00 3.49999E-01
 -1       894 4.91108E+00-1.61896E+01 3.49999E-01
 -1       895 1.65826E+00-1.68367E+01 3.49999E-01
 -1       896-7.97515E+00-1.49205E+01 3.49999E-01
 -1       897 5.14746E+00 4.74999E-01 1.70000E+00
 -1       898 3.46924E+00 4.74999E-01 1.70000E+00
 -1       899 5.14746E+00-4.74999E-01 1.70000E+00
 -1       900 6.79460E+00 9.50000E-01 1.70000E+00
 -1       901 1.00578E+01 4.74999E-01 1.70000E+00
 -1       902 1.17360E+01-4.74999E-01 1.70000E+00
 -1       903 1.00578E+01-4.74999E-01 3.49999E-01
 -1       904 1.17360E+01-4.74999E-01 3.49999E-01
 -1       905 1.00578E+01 4.74999E-01 3.49999E-01
 -1       906 3.46924E+00 4.74999E-01 3.49999E-01
 -1       907 8.41066E+00-9.50000E-01 3.49999E-01
 -1       908 8.41066E+00 9.50000E-01 3.49999E-01
 -1       909 6.79460E+00 9.50000E-01 3.49999E-01
 -1       910 3.38693E+00 8.88779E-01 1.70000E+00
 -1       911 4.93741E+00 1.53101E+00 1.70000E+00
 -1       912 3.02339E+00 1.76646E+00 1.70000E+00
 -1       913 9.47398E+00 3.41011E+00 3.49999E-01
 -1       914 1.10245E+01 4.05234E+00 3.49999E-01
 -1       915 9.11042E+00 4.28780E+00 3.49999E-01
 -1       916 3.02339E+00 1.76646E+00 3.49999E-01
 -1       917 8.13399E+00 2.34094E+00 3.49999E-01
 -1       918 7.40689E+00 4.09631E+00 3.49999E-01
 -1       919 5.91384E+00 3.47787E+00 3.49999E-01
 -1       920 5.27549E+00 6.61899E+00 1.70000E+00
 -1       921 4.13275E+00 5.47625E+00 1.70000E+00
 -1       922 2.78900E+00 2.11725E+00 1.70000E+00
 -1       923 3.97568E+00 3.30393E+00 1.70000E+00
 -1       924 2.11725E+00 2.78900E+00 1.70000E+00
 -1       925 3.97568E+00 3.30393E+00 3.49999E-01
 -1       926 7.44782E+00 6.77607E+00 3.49999E-01
 -1       927 8.63450E+00 7.96274E+00 3.49999E-01
 -1       928 6.77607E+00 7.44782E+00 3.49999E-01
 -1       929 2.11725E+00 2.78900E+00 3.49999E-01
 -1       930 6.61899E+00 5.27549E+00 3.49999E-01
 -1       931 5.27549E+00 6.61899E+00 3.49999E-01
 -1       932 4.13275E+00 5.47625E+00 3.49999E-01
 -1       933 1.72250E+00 6.64094E+00 1.70000E+00
 -1       934 3.41011E+00 9.47398E+00 1.70000E+00
 -1       935 3.47787E+00 5.91384E+00 1.70000E+00
 -1       936 4.09631E+00 7.40689E+00 1.70000E+00
 -1       937 2.40869E+00 4.57385E+00 3.49999E-01
 -1       938 4.93003E+00 1.06609E+01 3.49999E-01
 -1       939 3.41011E+00 9.47398E+00 3.49999E-01
 -1       940 8.88779E-01 3.38693E+00 3.49999E-01
 -1       941 4.09631E+00 7.40689E+00 3.49999E-01
 -1       942 2.34094E+00 8.13399E+00 3.49999E-01
 -1       943 1.72250E+00 6.64094E+00 3.49999E-01
 -1       944-9.50000E-01 6.79460E+00 1.70000E+00
 -1       945 4.74999E-01 3.46924E+00 1.70000E+00
 -1       946 4.74999E-01 5.14746E+00 1.70000E+00
 -1       947-4.74999E-01 3.46924E+00 1.70000E+00
 -1       948 9.50000E-01 8.41066E+00 1.70000E+00
 -1       949 4.74999E-01 5.14746E+00 3.49999E-01
 -1       950 4.74999E-01 1.00578E+01 3.49999E-01
 -1       951 4.74999E-01 1.17360E+01 3.49999E-01
 -1       952-4.74999E-01 1.00578E+01 3.49999E-01
 -1       953-4.74999E-01 3.46924E+00 3.49999E-01
 -1       954 9.50000E-01 6.79460E+00 3.49999E-01
 -1       955 9.50000E-01 8.41066E+00 3.49999E-01
 -1       956-9.50000E-01 8.41066E+00 3.49999E-01
 -1       957-9.50000E-01 6.79460E+00 3.49999E-01
 -1       958-2.34094E+00 8.13399E+00 1.70000E+00
 -1       959-4.09631E+00 7.40689E+00 1.70000E+00
 -1       960-3.47787E+00 5.91384E+00 1.70000E+00
 -1       961-1.53101E+00 4.93741E+00 3.49999E-01
 -1       962-4.05234E+00 1.10245E+01 3.49999E-01
 -1       963-4.28780E+00 9.11042E+00 3.49999E-01
 -1       964-1.76646E+00 3.02339E+00 3.49999E-01
 -1       965-1.72250E+00 6.64094E+00 3.49999E-01
 -1       966-2.34094E+00 8.13399E+00 3.49999E-01
 -1       967-4.09631E+00 7.40689E+00 3.49999E-01
 -1       968-3.47787E+00 5.91384E+00 3.49999E-01
 -1       969-5.27549E+00 6.61899E+00 1.70000E+00
 -1       970-2.11725E+00 2.78900E+00 1.70000E+00
 -1       971-3.30393E+00 3.97568E+00 1.70000E+00
 -1       972-2.78900E+00 2.11725E+00 1.70000E+00
 -1       973-3.30393E+00 3.97568E+00 3.49999E-01
 -1       974-6.77607E+00 7.44782E+00 3.49999E-01
 -1       975-7.96274E+00 8.63450E+00 3.49999E-01
 -1       976-7.44782E+00 6.77607E+00 3.49999E-01
 -1       977-2.78900E+00 2.11725E+00 3.49999E-01
 -1       978-4.13275E+00 5.47625E+00 3.49999E-01
 -1       979-5.27549E+00 6.61899E+00 3.49999E-01
 -1       980-6.61899E+00 5.27549E+00 3.49999E-01
 -1       981-5.47625E+00 4.13275E+00 3.49999E-01
 -1       982-9.47398E+00 3.41011E+00 1.70000E+00
 -1       983-7.40689E+00 4.09631E+00 1.70000E+00
 -1       984-3.02339E+00 1.76646E+00 1.70000E+00
 -1       985-4.57385E+00 2.40869E+00 1.70000E+00
 -1       986-3.38693E+00 8.88779E-01 1.70000E+00
 -1       987-4.57385E+00 2.40869E+00 3.49999E-01
 -1       988-1.06609E+01 4.93003E+00 3.49999E-01
 -1       989-9.47398E+00 3.41011E+00 3.49999E-01
 -1       990-3.38693E+00 8.88779E-01 3.49999E-01
 -1       991-5.91384E+00 3.47787E+00 3.49999E-01
 -1       992-7.40689E+00 4.09631E+00 3.49999E-01
 -1       993-8.13399E+00 2.34094E+00 3.49999E-01
 -1       994-6.64094E+00 1.72250E+00 3.49999E-01
 -1       995-8.41066E+00 9.50000E-01 1.70000E+00
 -1       996-3.46924E+00 4.74999E-01 1.70000E+00
 -1       997-5.14746E+00 4.74999E-01 1.70000E+00
 -1       998-3.46924E+00-4.74999E-01 1.70000E+00
 -1       999-5.14746E+00 4.74999E-01 3.49999E-01
 -1      1000-1.17360E+01 4.74999E-01 3.49999E-01
 -1      1001-1.00578E+01-4.74999E-01 3.49999E-01
 -1      1002-3.46924E+00-4.74999E-01 3.49999E-01
 -1      1003-6.79460E+00 9.50000E-01 3.49999E-01
 -1      1004-8.41066E+00 9.50000E-01 3.49999E-01
 -1      1005-8.41066E+00-9.50000E-01 3.49999E-01
 -1      1006-6.79460E+00-9.50000E-01 3.49999E-01
 -1      1007-3.02339E+00-1.76646E+00 1.70000E+00
 -1      1008-4.93741E+00-1.53101E+00 1.70000E+00
 -1      1009-6.64094E+00-1.72250E+00 1.70000E+00
 -1      1010-8.13399E+00-2.34094E+00 1.70000E+00
 -1      1011-1.10245E+01-4.05234E+00 1.70000E+00
 -1      1012-4.93741E+00-1.53101E+00 3.49999E-01
 -1      1013-9.47398E+00-3.41011E+00 3.49999E-01
 -1      1014-1.10245E+01-4.05234E+00 3.49999E-01
 -1      1015-9.11042E+00-4.28780E+00 3.49999E-01
 -1      1016-3.02339E+00-1.76646E+00 3.49999E-01
 -1      1017-6.64094E+00-1.72250E+00 3.49999E-01
 -1      1018-8.13399E+00-2.34094E+00 3.49999E-01
 -1      1019-7.40689E+00-4.09631E+00 3.49999E-01
 -1      1020-5.91384E+00-3.47787E+00 3.49999E-01
 -1      1021-3.30393E+00-3.97568E+00 1.70000E+00
 -1      1022-2.11725E+00-2.78900E+00 1.70000E+00
 -1      1023-3.97568E+00-3.30393E+00 1.70000E+00
 -1      1024-5.47625E+00-4.13275E+00 1.70000E+00
 -1      1025-6.61899E+00-5.27549E+00 1.70000E+00
 -1      1026-8.63450E+00-7.96274E+00 1.70000E+00
 -1      1027-3.97568E+00-3.30393E+00 3.49999E-01
 -1      1028-7.44782E+00-6.77607E+00 3.49999E-01
 -1      1029-8.63450E+00-7.96274E+00 3.49999E-01
 -1      1030-6.77607E+00-7.44782E+00 3.49999E-01
 -1      1031-2.11725E+00-2.78900E+00 3.49999E-01
 -1      1032-5.47625E+00-4.13275E+00 3.49999E-01
 -1      1033-6.61899E+00-5.27549E+00 3.49999E-01
 -1      1034-5.27549E+00-6.61899E+00 3.49999E-01
 -1      1035-4.13275E+00-5.47625E+00 3.49999E-01
 -1      1036-4.09631E+00-7.40689E+00 1.70000E+00
 -1      1037-8.88779E-01-3.38693E+00 1.70000E+00
 -1      1038-2.40869E+00-4.57385E+00 1.70000E+00
 -1      1039-1.72250E+00-6.64094E+00 1.70000E+00
 -1      1040-2.40869E+00-4.57385E+00 3.49999E-01
 -1      1041-4.93003E+00-1.06609E+01 3.49999E-01
 -1      1042-3.41011E+00-9.47398E+00 3.49999E-01
 -1      1043-8.88779E-01-3.38693E+00 3.49999E-01
 -1      1044-3.47787E+00-5.91384E+00 3.49999E-01
 -1      1045-4.09631E+00-7.40689E+00 3.49999E-01
 -1      1046-2.34094E+00-8.13399E+00 3.49999E-01
 -1      1047-1.72250E+00-6.64094E+00 3.49999E-01
 -1      1048-9.50000E-01-8.41066E+00 1.70000E+00
 -1      1049-4.74999E-01-5.14746E+00 1.70000E+00
 -1      1050 4.74999E-01-1.00578E+01 1.70000E+00
 -1      1051-4.74999E-01-1.17360E+01 1.70000E+00
 -1      1052-4.74999E-01-5.14746E+00 3.49999E-01
 -1      1053-4.74999E-01-1.17360E+01 3.49999E-01
 -1      1054 4.74999E-01-1.00578E+01 3.49999E-01
 -1      1055 4.74999E-01-3.46924E+00 3.49999E-01
 -1      1056-9.50000E-01-6.79460E+00 3.49999E-01
 -1      1057-9.50000E-01-8.41066E+00 3.49999E-01
 -1      1058 9.50000E-01-8.41066E+00 3.49999E-01
 -1      1059 9.50000E-01-6.79460E+00 3.49999E-01
 -1      1060 3.47787E+00-5.91384E+00 1.70000E+00
 -1      1061 1.76646E+00-3.02339E+00 1.70000E+00
 -1      1062 1.53101E+00-4.93741E+00 1.70000E+00
 -1      1063 1.72250E+00-6.64094E+00 1.70000E+00
 -1      1064 2.34094E+00-8.13399E+00 1.70000E+00
 -1      1065 1.53101E+00-4.93741E+00 3.49999E-01
 -1      1066 3.41011E+00-9.47398E+00 3.49999E-01
 -1      1067 4.05234E+00-1.10245E+01 3.49999E-01
 -1      1068 4.28780E+00-9.11042E+00 3.49999E-01
 -1      1069 1.76646E+00-3.02339E+00 3.49999E-01
 -1      1070 1.72250E+00-6.64094E+00 3.49999E-01
 -1      1071 2.34094E+00-8.13399E+00 3.49999E-01
 -1      1072 4.09631E+00-7.40689E+00 3.49999E-01
 -1      1073 3.47787E+00-5.91384E+00 3.49999E-01
 -1      1074 2.78900E+00-2.11725E+00 1.70000E+00
 -1      1075 3.30393E+00-3.97568E+00 1.70000E+00
 -1      1076 5.47625E+00-4.13275E+00 1.70000E+00
 -1      1077 7.44782E+00-6.77607E+00 1.70000E+00
 -1      1078 7.96274E+00-8.63450E+00 1.70000E+00
 -1      1079 6.77607E+00-7.44782E+00 3.49999E-01
 -1      1080 7.96274E+00-8.63450E+00 3.49999E-01
 -1      1081 7.44782E+00-6.77607E+00 3.49999E-01
 -1      1082 2.78900E+00-2.11725E+00 3.49999E-01
 -1      1083 5.27549E+00-6.61899E+00 3.49999E-01
 -1      1084 6.61899E+00-5.27549E+00 3.49999E-01
 -1      1085 5.47625E+00-4.13275E+00 3.49999E-01
 -1      1086 3.38693E+00-8.88779E-01 1.70000E+00
 -1      1087 4.57385E+00-2.40869E+00 1.70000E+00
 -1      1088 6.64094E+00-1.72250E+00 1.70000E+00
 -1      1089 9.47398E+00-3.41011E+00 1.70000E+00
 -1      1090 1.06609E+01-4.93003E+00 1.70000E+00
 -1      1091 9.11042E+00-4.28780E+00 3.49999E-01
 -1      1092 1.06609E+01-4.93003E+00 3.49999E-01
 -1      1093 9.47398E+00-3.41011E+00 3.49999E-01
 -1      1094 3.38693E+00-8.88779E-01 3.49999E-01
 -1      1095 7.40689E+00-4.09631E+00 3.49999E-01
 -1      1096 8.13399E+00-2.34094E+00 3.49999E-01
 -1      1097 6.64094E+00-1.72250E+00 3.49999E-01
 -1      1098 1.13768E+01 1.25493E+01 3.49999E-01
 -1      1099-5.70835E+00-1.59478E+01 3.49999E-01
 -1      1100-4.11380E+00 1.64315E+01 3.49999E-01
 -1      1101 1.25493E+01-1.13768E+01 3.49999E-01
 -1      1102-1.45278E+01-8.70992E+00-3.49999E-01
 -1      1103 1.53132E+01 7.24039E+00 3.49999E-01
 -1      1104 1.45278E+01 8.70992E+00-3.49999E-01
 -1      1105 1.25493E+01 1.13768E+01 3.49999E-01
 -1      1106 1.36065E+01 1.00887E+01 3.49999E-01
 -1      1107 1.25493E+01 1.13768E+01-3.49999E-01
 -1      1108 7.24039E+00 1.53132E+01 3.49999E-01
 -1      1109 8.70992E+00 1.45278E+01 3.49999E-01
 -1      1110 7.24039E+00 1.53132E+01-3.49999E-01
 -1      1111 4.11380E+00 1.64315E+01 3.49999E-01
 -1      1112 5.70835E+00 1.59478E+01 3.49999E-01
 -1      1113 4.11380E+00 1.64315E+01-3.49999E-01
 -1      1114-1.69183E+01 8.29132E-01-3.49999E-01
 -1      1115-1.36065E+01 1.00887E+01-3.49999E-01
 -1      1116-1.25493E+01 1.13768E+01 3.49999E-01
 -1      1117-8.70992E+00 1.45278E+01 3.49999E-01
 -1      1118-7.24039E+00 1.53132E+01 3.49999E-01
 -1      1119-8.70992E+00 1.45278E+01-3.49999E-01
 -1      1120-8.29132E-01 1.69183E+01 3.49999E-01
 -1      1121-2.48740E+00 1.67550E+01-3.49999E-01
 -1      1122-1.13768E+01 1.25493E+01 3.49999E-01
 -1      1123-1.00887E+01 1.36065E+01 3.49999E-01
 -1      1124-1.13768E+01 1.25493E+01-3.49999E-01
 -1      1125 1.67550E+01 2.48740E+00 3.49999E-01
 -1      1126 1.69183E+01 8.29132E-01 3.49999E-01
 -1      1127 1.67550E+01 2.48740E+00-3.49999E-01
 -1      1128 7.24039E+00-1.53132E+01 3.49999E-01
 -1      1129 1.53132E+01-7.24039E+00-3.49999E-01
 -1      1130 1.64315E+01-4.11380E+00 3.49999E-01
 -1      1131 1.59478E+01-5.70835E+00 3.49999E-01
 -1      1132 1.64315E+01-4.11380E+00-3.49999E-01
 -1      1133 1.13768E+01-1.25493E+01 3.49999E-01
 -1      1134 1.00887E+01-1.36065E+01 3.49999E-01
 -1      1135 1.13768E+01-1.25493E+01-3.49999E-01
 -1      1136-8.29132E-01-1.69183E+01 3.49999E-01
 -1      1137-2.48740E+00-1.67550E+01 3.49999E-01
 -1      1138-8.29132E-01-1.69183E+01-3.49999E-01
 -1      1139 4.11380E+00-1.64315E+01-3.49999E-01
 -1      1140 2.48740E+00-1.67550E+01-3.49999E-01
 -1      1141 8.29132E-01-1.69183E+01-3.49999E-01
 -1      1142-7.24039E+00-1.53132E+01-3.49999E-01
 -1      1143-8.70992E+00-1.45278E+01-3.49999E-01
 -1      1144-1.36065E+01-1.00887E+01-3.49999E-01
 -1      1145-1.64315E+01-4.11380E+00-3.49999E-01
 -1      1146-1.59478E+01 5.70835E+00-3.49999E-01
 -1      1147-1.64315E+01 4.11380E+00 3.49999E-01
 -1      1148-1.25493E+01-1.13768E+01 3.49999E-01
 -1      1149-1.59478E+01-5.70835E+00 3.49999E-01
 -1      1150 5.70835E+00-1.59478E+01 3.49999E-01
 -1      1151 2.48740E+00-1.67550E+01 3.49999E-01
 -1      1152-7.24039E+00-1.53132E+01 3.49999E-01
 -1      1153 3.46924E+00-4.74999E-01 1.70000E+00
 -1      1154 8.41066E+00 9.50000E-01 1.70000E+00
 -1      1155 8.41066E+00-9.50000E-01 1.70000E+00
 -1      1156 6.79460E+00-9.50000E-01 1.70000E+00
 -1      1157 1.17360E+01 4.74999E-01 1.70000E+00
 -1      1158 1.00578E+01-4.74999E-01 1.70000E+00
 -1      1159 5.14746E+00-4.74999E-01 3.49999E-01
 -1      1160 3.46924E+00-4.74999E-01 3.49999E-01
 -1      1161 1.17360E+01 4.74999E-01 3.49999E-01
 -1      1162 5.14746E+00 4.74999E-01 3.49999E-01
 -1      1163 6.79460E+00-9.50000E-01 3.49999E-01
 -1      1164 1.10245E+01 4.05234E+00 1.70000E+00
 -1      1165 9.47398E+00 3.41011E+00 1.70000E+00
 -1      1166 9.11042E+00 4.28780E+00 1.70000E+00
 -1      1167 1.06609E+01 4.93003E+00 1.70000E+00
 -1      1168 8.13399E+00 2.34094E+00 1.70000E+00
 -1      1169 6.64094E+00 1.72250E+00 1.70000E+00
 -1      1170 5.91384E+00 3.47787E+00 1.70000E+00
 -1      1171 7.40689E+00 4.09631E+00 1.70000E+00
 -1      1172 4.57385E+00 2.40869E+00 1.70000E+00
 -1      1173 4.93741E+00 1.53101E+00 3.49999E-01
 -1      1174 3.38693E+00 8.88779E-01 3.49999E-01
 -1      1175 1.06609E+01 4.93003E+00 3.49999E-01
 -1      1176 4.57385E+00 2.40869E+00 3.49999E-01
 -1      1177 6.64094E+00 1.72250E+00 3.49999E-01
 -1      1178 8.63450E+00 7.96274E+00 1.70000E+00
 -1      1179 7.44782E+00 6.77607E+00 1.70000E+00
 -1      1180 6.77607E+00 7.44782E+00 1.70000E+00
 -1      1181 7.96274E+00 8.63450E+00 1.70000E+00
 -1      1182 6.61899E+00 5.27549E+00 1.70000E+00
 -1      1183 5.47625E+00 4.13275E+00 1.70000E+00
 -1      1184 3.30393E+00 3.97568E+00 1.70000E+00
 -1      1185 2.78900E+00 2.11725E+00 3.49999E-01
 -1      1186 7.96274E+00 8.63450E+00 3.49999E-01
 -1      1187 3.30393E+00 3.97568E+00 3.49999E-01
 -1      1188 5.47625E+00 4.13275E+00 3.49999E-01
 -1      1189 2.34094E+00 8.13399E+00 1.70000E+00
 -1      1190 4.93003E+00 1.06609E+01 1.70000E+00
 -1      1191 4.28780E+00 9.11042E+00 1.70000E+00
 -1      1192 4.05234E+00 1.10245E+01 1.70000E+00
 -1      1193 8.88779E-01 3.38693E+00 1.70000E+00
 -1      1194 2.40869E+00 4.57385E+00 1.70000E+00
 -1      1195 1.76646E+00 3.02339E+00 1.70000E+00
 -1      1196 1.53101E+00 4.93741E+00 1.70000E+00
 -1      1197 1.76646E+00 3.02339E+00 3.49999E-01
 -1      1198 4.28780E+00 9.11042E+00 3.49999E-01
 -1      1199 4.05234E+00 1.10245E+01 3.49999E-01
 -1      1200 1.53101E+00 4.93741E+00 3.49999E-01
 -1      1201 3.47787E+00 5.91384E+00 3.49999E-01
 -1      1202-9.50000E-01 8.41066E+00 1.70000E+00
 -1      1203 4.74999E-01 1.17360E+01 1.70000E+00
 -1      1204 4.74999E-01 1.00578E+01 1.70000E+00
 -1      1205-4.74999E-01 1.00578E+01 1.70000E+00
 -1      1206-4.74999E-01 1.17360E+01 1.70000E+00
 -1      1207-4.74999E-01 5.14746E+00 1.70000E+00
 -1      1208 9.50000E-01 6.79460E+00 1.70000E+00
 -1      1209 4.74999E-01 3.46924E+00 3.49999E-01
 -1      1210-4.74999E-01 1.17360E+01 3.49999E-01
 -1      1211-4.74999E-01 5.14746E+00 3.49999E-01
 -1      1212-1.72250E+00 6.64094E+00 1.70000E+00
 -1      1213-1.53101E+00 4.93741E+00 1.70000E+00
 -1      1214-8.88779E-01 3.38693E+00 1.70000E+00
 -1      1215-1.76646E+00 3.02339E+00 1.70000E+00
 -1      1216-2.40869E+00 4.57385E+00 1.70000E+00
 -1      1217-4.05234E+00 1.10245E+01 1.70000E+00
 -1      1218-3.41011E+00 9.47398E+00 1.70000E+00
 -1      1219-4.28780E+00 9.11042E+00 1.70000E+00
 -1      1220-4.93003E+00 1.06609E+01 1.70000E+00
 -1      1221-8.88779E-01 3.38693E+00 3.49999E-01
 -1      1222-3.41011E+00 9.47398E+00 3.49999E-01
 -1      1223-4.93003E+00 1.06609E+01 3.49999E-01
 -1      1224-2.40869E+00 4.57385E+00 3.49999E-01
 -1      1225-7.96274E+00 8.63450E+00 1.70000E+00
 -1      1226-6.77607E+00 7.44782E+00 1.70000E+00
 -1      1227-7.44782E+00 6.77607E+00 1.70000E+00
 -1      1228-8.63450E+00 7.96274E+00 1.70000E+00
 -1      1229-4.13275E+00 5.47625E+00 1.70000E+00
 -1      1230-5.47625E+00 4.13275E+00 1.70000E+00
 -1      1231-6.61899E+00 5.27549E+00 1.70000E+00
 -1      1232-3.97568E+00 3.30393E+00 1.70000E+00
 -1      1233-2.11725E+00 2.78900E+00 3.49999E-01
 -1      1234-8.63450E+00 7.96274E+00 3.49999E-01
 -1      1235-3.97568E+00 3.30393E+00 3.49999E-01
 -1      1236-1.06609E+01 4.93003E+00 1.70000E+00
 -1      1237-9.11042E+00 4.28780E+00 1.70000E+00
 -1      1238-1.10245E+01 4.05234E+00 1.70000E+00
 -1      1239-5.91384E+00 3.47787E+00 1.70000E+00
 -1      1240-6.64094E+00 1.72250E+00 1.70000E+00
 -1      1241-8.13399E+00 2.34094E+00 1.70000E+00
 -1      1242-4.93741E+00 1.53101E+00 1.70000E+00
 -1      1243-3.02339E+00 1.76646E+00 3.49999E-01
 -1      1244-9.11042E+00 4.28780E+00 3.49999E-01
 -1      1245-1.10245E+01 4.05234E+00 3.49999E-01
 -1      1246-4.93741E+00 1.53101E+00 3.49999E-01
 -1      1247-1.17360E+01 4.74999E-01 1.70000E+00
 -1      1248-1.00578E+01 4.74999E-01 1.70000E+00
 -1      1249-1.00578E+01-4.74999E-01 1.70000E+00
 -1      1250-1.17360E+01-4.74999E-01 1.70000E+00
 -1      1251-6.79460E+00 9.50000E-01 1.70000E+00
 -1      1252-6.79460E+00-9.50000E-01 1.70000E+00
 -1      1253-8.41066E+00-9.50000E-01 1.70000E+00
 -1      1254-5.14746E+00-4.74999E-01 1.70000E+00
 -1      1255-3.46924E+00 4.74999E-01 3.49999E-01
 -1      1256-1.00578E+01 4.74999E-01 3.49999E-01
 -1      1257-1.17360E+01-4.74999E-01 3.49999E-01
 -1      1258-5.14746E+00-4.74999E-01 3.49999E-01
 -1      1259-4.57385E+00-2.40869E+00 1.70000E+00
 -1      1260-3.38693E+00-8.88779E-01 1.70000E+00
 -1      1261-5.91384E+00-3.47787E+00 1.70000E+00
 -1      1262-7.40689E+00-4.09631E+00 1.70000E+00
 -1      1263-9.11042E+00-4.28780E+00 1.70000E+00
 -1      1264-1.06609E+01-4.93003E+00 1.70000E+00
 -1      1265-9.47398E+00-3.41011E+00 1.70000E+00
 -1      1266-3.38693E+00-8.88779E-01 3.49999E-01
 -1      1267-1.06609E+01-4.93003E+00 3.49999E-01
 -1      1268-4.57385E+00-2.40869E+00 3.49999E-01
 -1      1269-2.78900E+00-2.11725E+00 1.70000E+00
 -1      1270-4.13275E+00-5.47625E+00 1.70000E+00
 -1      1271-5.27549E+00-6.61899E+00 1.70000E+00
 -1      1272-6.77607E+00-7.44782E+00 1.70000E+00
 -1      1273-7.96274E+00-8.63450E+00 1.70000E+00
 -1      1274-7.44782E+00-6.77607E+00 1.70000E+00
 -1      1275-2.78900E+00-2.11725E+00 3.49999E-01
 -1      1276-7.96274E+00-8.63450E+00 3.49999E-01
 -1      1277-3.30393E+00-3.97568E+00 3.49999E-01
 -1      1278-3.47787E+00-5.91384E+00 1.70000E+00
 -1      1279-1.53101E+00-4.93741E+00 1.70000E+00
 -1      1280-1.76646E+00-3.02339E+00 1.70000E+00
 -1      1281-4.93003E+00-1.06609E+01 1.70000E+00
 -1      1282-3.41011E+00-9.47398E+00 1.70000E+00
 -1      1283-4.05234E+00-1.10245E+01 1.70000E+00
 -1      1284-4.28780E+00-9.11042E+00 1.70000E+00
 -1      1285-2.34094E+00-8.13399E+00 1.70000E+00
 -1      1286-1.76646E+00-3.02339E+00 3.49999E-01
 -1      1287-4.28780E+00-9.11042E+00 3.49999E-01
 -1      1288-4.05234E+00-1.10245E+01 3.49999E-01
 -1      1289-1.53101E+00-4.93741E+00 3.49999E-01
 -1      1290-9.50000E-01-6.79460E+00 1.70000E+00
 -1      1291 4.74999E-01-3.46924E+00 1.70000E+00
 -1      1292 4.74999E-01-5.14746E+00 1.70000E+00
 -1      1293-4.74999E-01-3.46924E+00 1.70000E+00
 -1      1294 4.74999E-01-1.17360E+01 1.70000E+00
 -1      1295-4.74999E-01-1.00578E+01 1.70000E+00
 -1      1296 9.50000E-01-6.79460E+00 1.70000E+00
 -1      1297 9.50000E-01-8.41066E+00 1.70000E+00
 -1      1298-4.74999E-01-3.46924E+00 3.49999E-01
 -1      1299-4.74999E-01-1.00578E+01 3.49999E-01
 -1      1300 4.74999E-01-1.17360E+01 3.49999E-01
 -1      1301 4.74999E-01-5.14746E+00 3.49999E-01
 -1      1302 4.09631E+00-7.40689E+00 1.70000E+00
 -1      1303 4.28780E+00-9.11042E+00 1.70000E+00
 -1      1304 4.93003E+00-1.06609E+01 1.70000E+00
 -1      1305 4.05234E+00-1.10245E+01 1.70000E+00
 -1      1306 3.41011E+00-9.47398E+00 1.70000E+00
 -1      1307 2.40869E+00-4.57385E+00 1.70000E+00
 -1      1308 8.88779E-01-3.38693E+00 1.70000E+00
 -1      1309 8.88779E-01-3.38693E+00 3.49999E-01
 -1      1310 4.93003E+00-1.06609E+01 3.49999E-01
 -1      1311 2.40869E+00-4.57385E+00 3.49999E-01
 -1      1312 3.97568E+00-3.30393E+00 1.70000E+00
 -1      1313 2.11725E+00-2.78900E+00 1.70000E+00
 -1      1314 6.61899E+00-5.27549E+00 1.70000E+00
 -1      1315 5.27549E+00-6.61899E+00 1.70000E+00
 -1      1316 4.13275E+00-5.47625E+00 1.70000E+00
 -1      1317 8.63450E+00-7.96274E+00 1.70000E+00
 -1      1318 6.77607E+00-7.44782E+00 1.70000E+00
 -1      1319 3.30393E+00-3.97568E+00 3.49999E-01
 -1      1320 2.11725E+00-2.78900E+00 3.49999E-01
 -1      1321 8.63450E+00-7.96274E+00 3.49999E-01
 -1      1322 3.97568E+00-3.30393E+00 3.49999E-01
 -1      1323 4.13275E+00-5.47625E+00 3.49999E-01
 -1      1324 4.93741E+00-1.53101E+00 1.70000E+00
 -1      1325 3.02339E+00-1.76646E+00 1.70000E+00
 -1      1326 8.13399E+00-2.34094E+00 1.70000E+00
 -1      1327 7.40689E+00-4.09631E+00 1.70000E+00
 -1      1328 5.91384E+00-3.47787E+00 1.70000E+00
 -1      1329 1.10245E+01-4.05234E+00 1.70000E+00
 -1      1330 9.11042E+00-4.28780E+00 1.70000E+00
 -1      1331 4.57385E+00-2.40869E+00 3.49999E-01
 -1      1332 3.02339E+00-1.76646E+00 3.49999E-01
 -1      1333 1.10245E+01-4.05234E+00 3.49999E-01
 -1      1334 4.93741E+00-1.53101E+00 3.49999E-01
 -1      1335 5.91384E+00-3.47787E+00 3.49999E-01
 -1      1336 1.00887E+01 1.36065E+01 3.49999E-01
 -1      1337 1.00887E+01 1.36065E+01-3.49999E-01
 -1      1338 1.13768E+01 1.25493E+01-3.49999E-01
 -1      1339 1.67550E+01-2.48740E+00 3.49999E-01
 -1      1340 1.69183E+01-8.29132E-01 3.49999E-01
 -1      1341 1.69183E+01-8.29132E-01-3.49999E-01
 -1      1342 1.67550E+01-2.48740E+00-3.49999E-01
 -1      1343-4.11380E+00-1.64315E+01 3.49999E-01
 -1      1344-4.11380E+00-1.64315E+01-3.49999E-01
 -1      1345-5.70835E+00-1.59478E+01-3.49999E-01
 -1      1346 1.64315E+01 4.11380E+00 3.49999E-01
 -1      1347 1.59478E+01 5.70835E+00 3.49999E-01
 -1      1348 1.59478E+01 5.70835E+00-3.49999E-01
 -1      1349 1.64315E+01 4.11380E+00-3.49999E-01
 -1      1350-5.70835E+00 1.59478E+01 3.49999E-01
 -1      1351-5.70835E+00 1.59478E+01-3.49999E-01
 -1      1352-4.11380E+00 1.64315E+01-3.49999E-01
 -1      1353-1.53132E+01 7.24039E+00-3.49999E-01
 -1      1354-1.45278E+01 8.70992E+00-3.49999E-01
 -1      1355-1.45278E+01 8.70992E+00 3.49999E-01
 -1      1356-1.53132E+01 7.24039E+00 3.49999E-01
 -1      1357 1.36065E+01-1.00887E+01 3.49999E-01
 -1      1358 1.36065E+01-1.00887E+01-3.49999E-01
 -1      1359 1.25493E+01-1.13768E+01-3.49999E-01
 -1      1360-1.53132E+01-7.24039E+00-3.49999E-01
 -1      1361-1.53132E+01-7.24039E+00 3.49999E-01
 -1      1362-1.45278E+01-8.70992E+00 3.49999E-01
 -1      1363 1.45278E+01 8.70992E+00 3.49999E-01
 -1      1364 1.53132E+01 7.24039E+00-3.49999E-01
 -1      1365 1.36065E+01 1.00887E+01-3.49999E-01
 -1      1366 8.70992E+00 1.45278E+01-3.49999E-01
 -1      1367 2.48740E+00 1.67550E+01 3.49999E-01
 -1      1368 8.29132E-01 1.69183E+01 3.49999E-01
 -1      1369 8.29132E-01 1.69183E+01-3.49999E-01
 -1      1370 2.48740E+00 1.67550E+01-3.49999E-01
 -1      1371 5.70835E+00 1.59478E+01-3.49999E-01
 -1      1372-1.67550E+01 2.48740E+00-3.49999E-01
 -1      1373-1.67550E+01 2.48740E+00 3.49999E-01
 -1      1374-1.69183E+01 8.29132E-01 3.49999E-01
 -1      1375-1.25493E+01 1.13768E+01-3.49999E-01
 -1      1376-1.36065E+01 1.00887E+01 3.49999E-01
 -1      1377-7.24039E+00 1.53132E+01-3.49999E-01
 -1      1378-2.48740E+00 1.67550E+01 3.49999E-01
 -1      1379-8.29132E-01 1.69183E+01-3.49999E-01
 -1      1380-1.00887E+01 1.36065E+01-3.49999E-01
 -1      1381 1.69183E+01 8.29132E-01-3.49999E-01
 -1      1382 8.70992E+00-1.45278E+01 3.49999E-01
 -1      1383 8.70992E+00-1.45278E+01-3.49999E-01
 -1      1384 7.24039E+00-1.53132E+01-3.49999E-01
 -1      1385 1.45278E+01-8.70992E+00 3.49999E-01
 -1      1386 1.53132E+01-7.24039E+00 3.49999E-01
 -1      1387 1.45278E+01-8.70992E+00-3.49999E-01
 -1      1388 1.59478E+01-5.70835E+00-3.49999E-01
 -1      1389 1.00887E+01-1.36065E+01-3.49999E-01
 -1      1390-2.48740E+00-1.67550E+01-3.49999E-01
 -1      1391-1.13768E+01-1.25493E+01 3.49999E-01
 -1      1392-1.00887E+01-1.36065E+01 3.49999E-01
 -1      1393-1.00887E+01-1.36065E+01-3.49999E-01
 -1      1394-1.13768E+01-1.25493E+01-3.49999E-01
 -1      1395-1.67550E+01-2.48740E+00-3.49999E-01
 -1      1396-1.69183E+01-8.29132E-01-3.49999E-01
 -1      1397-1.69183E+01-8.29132E-01 3.49999E-01
 -1      1398-1.67550E+01-2.48740E+00 3.49999E-01
 -1      1399 5.70835E+00-1.59478E+01-3.49999E-01
 -1      1400-1.25493E+01-1.13768E+01-3.49999E-01
 -1      1401-1.59478E+01-5.70835E+00-3.49999E-01
 -1      1402-1.64315E+01 4.11380E+00-3.49999E-01
 -1      1403-1.59478E+01 5.70835E+00 3.49999E-01
 -1      1404-1.36065E+01-1.00887E+01 3.49999E-01
 -1      1405-1.64315E+01-4.11380E+00 3.49999E-01
 -1      1406 4.11380E+00-1.64315E+01 3.49999E-01
 -1      1407 8.29132E-01-1.69183E+01 3.49999E-01
 -1      1408-8.70992E+00-1.45278E+01 3.49999E-01
 -1      1409 2.49233E+00-1.82058E+00 3.49999E-01
 -1      1410 2.58923E+00-1.58663E+00 3.49999E-01
 -1      1411-7.28222E-01 2.99932E+00 3.49999E-01
 -1      1412-4.74999E-01 2.99932E+00 3.49999E-01
 -1      1413 7.28222E-01 2.99932E+00 3.49999E-01
 -1      1414 4.74999E-01 2.99932E+00 3.49999E-01
 -1      1415-1.00651E+00 2.42992E+00 3.49999E-01
 -1      1416 2.63577E+00 1.60591E+00 3.49999E-01
 -1      1417 2.45671E+00 1.78496E+00 3.49999E-01
 -1      1418 1.82058E+00 2.49233E+00 3.49999E-01
 -1      1419 1.58663E+00 2.58923E+00 3.49999E-01
 -1      1420-2.99932E+00 7.28222E-01 3.49999E-01
 -1      1421-2.99932E+00 4.74999E-01 3.49999E-01
 -1      1422-2.49233E+00-1.82058E+00 3.49999E-01
 -1      1423-2.58923E+00-1.58663E+00 3.49999E-01
 -1      1424 1.82058E+00-2.49233E+00 3.49999E-01
 -1      1425 1.58663E+00-2.58923E+00 3.49999E-01
 -1      1426-1.82058E+00-2.49233E+00 3.49999E-01
 -1      1427-1.58663E+00-2.58923E+00 3.49999E-01
 -1      1428 2.99932E+00 7.28222E-01 3.49999E-01
 -1      1429 2.99932E+00 4.74999E-01 3.49999E-01
 -1      1430-2.99932E+00-7.28222E-01 3.49999E-01
 -1      1431-2.99932E+00-4.74999E-01 3.49999E-01
 -1      1432 2.99932E+00-7.28222E-01 3.49999E-01
 -1      1433 2.99932E+00-4.74999E-01 3.49999E-01
 -1      1434-7.28222E-01-2.99932E+00 3.49999E-01
 -1      1435-4.74999E-01-2.99932E+00 3.49999E-01
 -1      1436-1.00651E+00-2.42992E+00 3.49999E-01
 -1      1437-1.82058E+00 2.49233E+00 3.49999E-01
 -1      1438-1.58663E+00 2.58923E+00 3.49999E-01
 -1      1439 7.28222E-01-2.99932E+00 3.49999E-01
 -1      1440 4.74999E-01-2.99932E+00 3.49999E-01
 -1      1441 1.67225E+00 2.34400E+00 3.49999E-01
 -1      1442 1.51246E+00 2.41018E+00 3.49999E-01
 -1      1443 1.00651E+00 2.42992E+00 3.49999E-01
 -1      1444-2.49233E+00 1.82058E+00 3.49999E-01
 -1      1445-2.58923E+00 1.58663E+00 3.49999E-01
 -1      1446-2.42992E+00-1.00651E+00 3.49999E-01
 -1      1447-1.85978E+00-1.85978E+00 3.49999E-01
 -1      1448 1.85978E+00 1.85978E+00 3.49999E-01
 -1      1449-2.63013E+00 0.00000E+00 3.49999E-01
 -1      1450 1.67225E+00-2.34400E+00 3.49999E-01
 -1      1451 1.51246E+00-2.41018E+00 3.49999E-01
 -1      1452-2.42992E+00 1.00651E+00 3.49999E-01
 -1      1453 1.00651E+00-2.42992E+00 3.49999E-01
 -1      1454 1.85978E+00-1.85978E+00 3.49999E-01
 -1      1455-2.80551E+00-6.47943E-01 3.49999E-01
 -1      1456-2.80551E+00-4.74999E-01 3.49999E-01
 -1      1457 0.00000E+00-2.63013E+00 3.49999E-01
 -1      1458-6.47943E-01 2.80551E+00 3.49999E-01
 -1      1459-4.74999E-01 2.80551E+00 3.49999E-01
 -1      1460 0.00000E+00 2.63013E+00 3.49999E-01
 -1      1461 2.42992E+00 1.00651E+00 3.49999E-01
 -1      1462-2.63013E+00-4.74999E-01 6.87499E-01
 -1      1463-2.34400E+00-1.67225E+00 3.49999E-01
 -1      1464-2.41018E+00-1.51246E+00 3.49999E-01
 -1      1465 1.44535E+00-2.24815E+00 6.87499E-01
 -1      1466 1.44535E+00 2.24815E+00 6.87499E-01
 -1      1467 2.63013E+00 0.00000E+00 3.49999E-01
 -1      1468 2.80551E+00-6.47943E-01 3.49999E-01
 -1      1469 2.80551E+00-4.74999E-01 3.49999E-01
 -1      1470-1.85978E+00 1.85978E+00 3.49999E-01
 -1      1471-2.61170E+00-5.67665E-01 6.87499E-01
 -1      1472 2.42992E+00-1.00651E+00 3.49999E-01
 -1      1473-2.34400E+00 1.67225E+00 3.49999E-01
 -1      1474-2.41018E+00 1.51246E+00 3.49999E-01
 -1      1475 2.63013E+00-4.74999E-01 6.87499E-01
 -1      1476 2.34400E+00-1.67225E+00 3.49999E-01
 -1      1477 2.41018E+00-1.51246E+00 3.49999E-01
 -1      1478-4.74999E-01 2.63013E+00 6.87499E-01
 -1      1479 1.52391E+00 2.19566E+00 6.87499E-01
 -1      1480-1.67225E+00 2.34400E+00 3.49999E-01
 -1      1481-1.51246E+00 2.41018E+00 3.49999E-01
 -1      1482 6.47943E-01-2.80551E+00 3.49999E-01
 -1      1483 4.74999E-01-2.80551E+00 3.49999E-01
 -1      1484-5.67665E-01 2.61170E+00 6.87499E-01
 -1      1485 6.47943E-01 2.80551E+00 3.49999E-01
 -1      1486 4.74999E-01 2.80551E+00 3.49999E-01
 -1      1487 5.67665E-01 2.61170E+00 6.87499E-01
 -1      1488 2.44196E+00 1.52563E+00 3.49999E-01
 -1      1489 2.31967E+00 1.64792E+00 3.49999E-01
 -1      1490-2.24815E+00-1.44535E+00 6.87499E-01
 -1      1491-2.19566E+00-1.52391E+00 6.87499E-01
 -1      1492 2.24815E+00 1.44535E+00 6.87499E-01
 -1      1493-2.19566E+00 1.52391E+00 6.87499E-01
 -1      1494 1.52391E+00-2.19566E+00 6.87499E-01
 -1      1495 2.80551E+00 6.47943E-01 3.49999E-01
 -1      1496 2.80551E+00 4.74999E-01 3.49999E-01
 -1      1497-6.47943E-01-2.80551E+00 3.49999E-01
 -1      1498-4.74999E-01-2.80551E+00 3.49999E-01
 -1      1499 5.67665E-01-2.61170E+00 6.87499E-01
 -1      1500-1.44535E+00 2.24815E+00 6.87499E-01
 -1      1501-2.24815E+00 1.44535E+00 6.87499E-01
 -1      1502-1.52391E+00 2.19566E+00 6.87499E-01
 -1      1503-2.80551E+00 6.47943E-01 3.49999E-01
 -1      1504-2.80551E+00 4.74999E-01 3.49999E-01
 -1      1505-2.63013E+00 4.74999E-01 6.87499E-01
 -1      1506-1.67225E+00-2.34400E+00 3.49999E-01
 -1      1507-1.51246E+00-2.41018E+00 3.49999E-01
 -1      1508 2.63013E+00 4.74999E-01 6.87499E-01
 -1      1509 4.74999E-01 2.63013E+00 6.87499E-01
 -1      1510 2.19566E+00-1.52391E+00 6.87499E-01
 -1      1511 4.74999E-01-2.63013E+00 6.87499E-01
 -1      1512 2.61170E+00 5.67665E-01 6.87499E-01
 -1      1513-2.61170E+00 5.67665E-01 6.87499E-01
 -1      1514 2.02772E+00-1.69185E+00 3.49999E-01
 -1      1515 2.61170E+00-5.67665E-01 6.87499E-01
 -1      1516 2.24815E+00-1.44535E+00 6.87499E-01
 -1      1517-5.67665E-01-2.61170E+00 6.87499E-01
 -1      1518 2.19566E+00 1.52391E+00 6.87499E-01
 -1      1519-1.52391E+00-2.19566E+00 6.87499E-01
 -1      1520-1.44535E+00-2.24815E+00 6.87499E-01
 -1      1521-4.74999E-01-2.63013E+00 6.87499E-01
 -1      1522-1.21556E+01 2.41790E+00 3.49999E-01
 -1      1523-6.88558E+00-1.03050E+01 3.49999E-01
 -1      1524 1.47836E+01-2.00254E-01 3.49999E-01
 -1      1525-4.67924E+00-1.39901E+01 3.49999E-01
 -1      1526-2.61794E+00-1.31613E+01 3.49999E-01
 -1      1527-1.04186E+00-1.47128E+01 3.49999E-01
 -1      1528 7.08348E+00-1.06013E+01-3.49999E-01
 -1      1529 1.39901E+01 4.67924E+00 3.49999E-01
 -1      1530-5.47244E+00 1.37349E+01 3.49999E-01
 -1      1531 1.15508E+01 8.94056E+00 3.49999E-01
 -1      1532 1.11346E+01-9.67677E+00 3.49999E-01
 -1      1533 2.64492E+00 1.41048E+01 3.49999E-01
 -1      1534 5.47244E+00 1.37349E+01 3.49999E-01
 -1      1535-1.17803E+01-4.87957E+00-3.49999E-01
 -1      1536-1.11346E+01 9.67677E+00 3.49999E-01
 -1      1537 0.00000E+00 1.27506E+01-3.49999E-01
 -1      1538-1.84565E+00 1.44896E+01 3.49999E-01
 -1      1539-1.03038E+00 1.47120E+01-3.49999E-01
 -1      1540 5.84244E+00-1.35816E+01 3.49999E-01
 -1      1541 1.40929E+01-3.83980E+00 3.49999E-01
 -1      1542 7.39061E+00-1.14636E+00-3.49999E-01
 -1      1543 8.10328E+00-1.18439E+01 3.49999E-01
 -1      1544-1.37515E+01-2.61012E+00-3.49999E-01
 -1      1545-1.47836E+01-2.00254E-01 3.49999E-01
 -1      1546-9.01529E+00-9.01529E+00-3.49999E-01
 -1      1547-7.96950E+00-1.16809E+01-3.49999E-01
 -1      1548 5.46806E+00 8.18367E+00-3.49999E-01
 -1      1549 1.31613E+01 2.61794E+00 3.49999E-01
 -1      1550-1.06013E+01 7.08348E+00-3.49999E-01
 -1      1551 1.29843E+01 3.88641E+00 3.49999E-01
 -1      1552-1.18333E+01-7.74205E+00-3.49999E-01
 -1      1553-1.33989E+01-6.28128E+00-3.49999E-01
 -1      1554-1.36384E+01 5.64931E+00 3.49999E-01
 -1      1555-1.03050E+01-6.88556E+00 3.49999E-01
 -1      1556 5.87143E+00 1.18685E+01-3.49999E-01
 -1      1557-8.32454E+00-1.21135E+01 3.49999E-01
 -1      1558-1.22519E+01 8.43811E+00-3.49999E-01
 -1      1559 9.26224E+00 9.21796E+00-3.49999E-01
 -1      1560 6.90186E+00-1.02887E+01 3.49999E-01
 -1      1561 2.64242E+00 1.03575E+01-3.49999E-01
 -1      1562-1.36384E+01-5.64931E+00 3.49999E-01
 -1      1563-9.59363E+00 6.41027E+00 3.49999E-01
 -1      1564 0.00000E+00 0.00000E+00 3.49999E-01
 -1      1565-1.03547E+01 1.01146E+01-3.49999E-01
 -1      1566 7.93427E+00 1.18745E+01 3.49999E-01
 -1      1567 1.06585E+01 7.12181E+00 3.49999E-01
 -1      1568 1.01563E+01 1.01563E+01 3.49999E-01
 -1      1569 1.38753E+01-1.91322E+00 3.49999E-01
 -1      1570-7.93427E+00 1.18745E+01 3.49999E-01
 -1      1571 1.23592E+01-7.53712E+00 3.49999E-01
 -1      1572-6.64386E+00-1.33276E+01 3.49999E-01
 -1      1573 3.43449E+00-1.40702E+01 3.49999E-01
 -1      1574 8.21490E+00-1.05160E+01 3.49999E-01
 -1      1575-1.42008E+01 1.84275E+00 3.49999E-01
 -1      1576-4.90242E-01-9.22869E+00-3.49999E-01
 -1      1577-1.04384E+01-1.04384E+01 3.49999E-01
 -1      1578-4.32865E+00 8.09882E+00-3.49999E-01
 -1      1579-1.07223E+01 8.61889E+00-3.49999E-01
 -1      1580-7.62229E+00 1.16093E+01-3.49999E-01
 -1      1581-1.18391E+01 9.88269E+00-3.49999E-01
 -1      1582-1.44541E+01 3.82501E+00 3.49999E-01
 -1      1583-6.33714E+00 6.23622E-01-3.49999E-01
 -1      1584-1.42115E+01 1.43906E-01-3.49999E-01
 -1      1585 8.66307E-01 2.37234E+00-3.49999E-01
 -1      1586-1.30012E+01 5.84212E+00-3.49999E-01
 -1      1587 9.92710E+00-1.13286E+01 3.49999E-01
 -1      1588 1.03521E+01 8.97323E+00 3.49999E-01
 -1      1589 1.17740E+01 7.71035E+00-3.49999E-01
 -1      1590 5.93493E+00 8.88226E+00 3.49999E-01
 -1      1591 2.08407E+00 1.04773E+01 3.49999E-01
 -1      1592-2.41790E+00 1.21556E+01 3.49999E-01
 -1      1593 6.75071E+00 1.35135E+01-3.49999E-01
 -1      1594-1.43360E+01 6.24567E+00-3.49999E-01
 -1      1595 2.41790E+00-1.21556E+01 3.49999E-01
 -1      1596 1.03050E+01-6.88558E+00 3.49999E-01
 -1      1597 4.71672E+00 1.01304E+01-3.49999E-01
 -1      1598 1.28659E+01 7.16714E+00 3.49999E-01
 -1      1599 9.51793E+00-1.09410E+01-3.49999E-01
 -1      1600 1.26994E+01 4.28773E+00-3.49999E-01
 -1      1601 1.12508E+01 9.77212E+00-3.49999E-01
 -1      1602-8.36305E+00 1.29951E+01-3.49999E-01
 -1      1603 1.27506E+01 0.00000E+00-3.49999E-01
 -1      1604-1.39152E+01 2.91526E+00-3.49999E-01
 -1      1605 4.04777E+00-5.77022E+00-3.49999E-01
 -1      1606 1.83538E+00 1.43853E+01-3.49999E-01
 -1      1607 8.78425E+00 1.06778E+01 3.49999E-01
 -1      1608 0.00000E+00 1.43631E+01 3.49999E-01
 -1      1609 1.18311E+01 1.02484E+01 3.49999E-01
 -1      1610 4.16431E+00 1.47273E+01 3.49999E-01
 -1      1611-6.72040E+00-1.18127E+01 3.49999E-01
 -1      1612-1.39834E+01-2.78144E+00 3.49999E-01
 -1      1613 1.27874E+01 5.29677E+00 3.49999E-01
 -1      1614 1.40143E+01 1.23294E+00 3.49999E-01
 -1      1615 2.71019E-01 1.55019E+01-3.49999E-01
 -1      1616-1.09836E+01 7.75129E+00 3.49999E-01
 -1      1617-1.47902E+01 5.79253E+00 3.49999E-01
 -1      1618-4.65050E+00-5.03653E+00-3.49999E-01
 -1      1619 1.34200E+01-5.77938E+00 3.49999E-01
 -1      1620 4.47832E-01 1.40955E+01-3.49999E-01
 -1      1621 1.44076E+01 4.80587E+00-3.49999E-01
 -1      1622 1.25103E+01-9.04389E+00 3.49999E-01
 -1      1623 3.49301E+00 8.53975E+00-3.49999E-01
 -1      1624-1.25805E+01-5.21106E+00 3.49999E-01
 -1      1625-3.12151E+00-1.48866E+01 3.49999E-01
 -1      1626-1.11910E+00 1.56126E+01 3.49999E-01
 -1      1627-1.39590E+01 6.98886E+00 3.49999E-01
 -1      1628 1.06620E+01-8.29834E+00 3.49999E-01
 -1      1629 2.48724E+00-1.25040E+01-3.49999E-01
 -1      1630-1.03198E+01 1.12928E+00-3.49999E-01
 -1      1631-5.37343E+00-1.28045E+01 3.49999E-01
 -1      1632 1.52079E+01-2.73829E+00 3.49999E-01
 -1      1633-1.46160E+01-5.73970E+00-3.49999E-01
 -1      1634 1.37292E+01-7.38482E-01 3.49999E-01
 -1      1635-8.41144E+00-1.30857E+01-3.49999E-01
 -1      1636 4.50839E+00-1.31849E+01 3.49999E-01
 -1      1637 1.54847E+01-1.38752E+00 3.49999E-01
 -1      1638-1.20682E+01 6.97895E+00-3.49999E-01
 -1      1639 1.51775E+00 1.55944E+01-3.49999E-01
 -1      1640 1.10963E+01-1.07231E+01-3.49999E-01
 -1      1641-1.36221E+01-4.19266E+00 3.49999E-01
 -1      1642-6.84535E+00 1.02448E+01 3.49999E-01
 -1      1643-3.66898E+00 1.34794E+01 3.49999E-01
 -1      1644 4.70597E+00 1.40783E+01-3.49999E-01
 -1      1645-2.09392E+00 1.05268E+01 3.49999E-01
 -1      1646 3.35161E+00 1.49886E+01-3.49999E-01
 -1      1647-1.53449E-01 1.47342E+01-3.49999E-01
 -1      1648-2.43129E+00 1.33960E+01 3.49999E-01
 -1      1649-4.66927E+00 1.29114E+01 3.49999E-01
 -1      1650-1.04774E+01 2.08408E+00 3.49999E-01
 -1      1651 9.96256E+00 1.17122E+01 3.49999E-01
 -1      1652 2.02209E+00 1.23279E+01-3.49999E-01
 -1      1653 6.97410E+00 9.88329E+00-3.49999E-01
 -1      1654-5.23945E+00-1.29668E+01-3.49999E-01
 -1      1655-1.95445E+00 1.55940E+01-3.49999E-01
 -1      1656 3.82996E+00 4.75319E+00-3.49999E-01
 -1      1657-1.09016E+01 6.44542E+00 3.49999E-01
 -1      1658 2.87791E+00 1.01485E+01 3.49999E-01
 -1      1659 2.77669E+00 1.54424E+01 3.49999E-01
 -1      1660-1.34959E+01 7.68600E+00-3.49999E-01
 -1      1661-9.97525E+00-1.09299E+01-3.49999E-01
 -1      1662-3.29776E+00 3.81440E+00-3.49999E-01
 -1      1663-8.93314E+00-1.07102E+01 3.49999E-01
 -1      1664-2.26216E+00-1.13727E+01 3.49999E-01
 -1      1665-3.88641E+00-1.29843E+01 3.49999E-01
 -1      1666 9.24904E+00 6.18001E+00 3.49999E-01
 -1      1667 9.47951E+00 9.47951E+00 3.49999E-01
 -1      1668-7.67411E+00-1.11543E+01 3.49999E-01
 -1      1669 5.90932E+00 1.05907E+01-3.49999E-01
 -1      1670 2.39760E+00 1.51792E+01-3.49999E-01
 -1      1671 1.15463E+01-6.53602E+00 3.49999E-01
 -1      1672-8.92619E+00 1.28466E+01 3.49999E-01
 -1      1673 1.05357E+01 8.49333E+00-3.49999E-01
 -1      1674-1.24825E+01-7.64474E+00 3.49999E-01
 -1      1675-1.49016E+01 4.08507E+00-3.49999E-01
 -1      1676-1.24480E+01 1.35685E+00-3.49999E-01
 -1      1677 9.43727E+00-1.01505E+01 3.49999E-01
 -1      1678 3.62084E+00 9.70745E+00-3.49999E-01
 -1      1679 1.51566E+01 4.16242E+00 3.49999E-01
 -1      1680 1.14041E+01 1.09758E+01-3.49999E-01
 -1      1681 1.21966E+01 1.05484E+01-3.49999E-01
 -1      1682-1.48955E+01 5.23780E+00-3.49999E-01
 -1      1683-8.92417E+00-5.96294E+00 3.49999E-01
 -1      1684 1.16355E+01 1.11657E+01 3.49999E-01
 -1      1685 9.10105E+00-5.90322E+00-3.49999E-01
 -1      1686 2.59758E+00 9.22862E+00-3.49999E-01
 -1      1687 1.09286E+01 8.11757E+00 3.49999E-01
 -1      1688 1.46729E+01 5.75697E+00 3.49999E-01
 -1      1689-1.38829E+01 5.33494E+00-3.49999E-01
 -1      1690-1.39590E+01-6.98886E+00 3.49999E-01
 -1      1691 6.94093E+00 1.38693E+01 3.49999E-01
 -1      1692-1.35228E+01-7.70038E+00-3.49999E-01
 -1      1693-1.14617E+01 3.75525E+00-3.49999E-01
 -1      1694 1.27468E+00 1.37446E+01 3.49999E-01
 -1      1695-9.06984E+00-1.30216E+01 3.49999E-01
 -1      1696-1.27127E+01 8.31239E+00 3.49999E-01
 -1      1697 7.01741E+00 1.03230E+01 3.49999E-01
 -1      1698-1.07705E+01 1.11540E+01 3.49999E-01
 -1      1699-6.45796E+00 1.24800E+01 3.49999E-01
 -1      1700-2.77736E+00 1.54492E+01 3.49999E-01
 -1      1701-1.38003E+01-1.31006E+00 3.49999E-01
 -1      1702 5.38721E+00 8.06253E+00 3.49999E-01
 -1      1703 1.20366E+01 7.92653E+00 3.49999E-01
 -1      1704-1.37279E+01 8.01975E+00 3.49999E-01
 -1      1705 1.09712E+01 9.68344E+00 3.49999E-01
 -1      1706-5.03944E+00-8.99337E+00-3.49999E-01
 -1      1707-7.07340E+00 5.17216E+00-3.49999E-01
 -1      1708 1.48753E+01 2.09295E-01-3.49999E-01
 -1      1709-1.53374E+01 2.71680E+00-3.49999E-01
 -1      1710-1.10166E+01 9.48422E+00-3.49999E-01
 -1      1711-1.43576E+01 7.20190E+00-3.49999E-01
 -1      1712 1.54751E+01 1.09394E+00 3.49999E-01
 -1      1713-1.43483E+01-6.77642E+00-3.49999E-01
 -1      1714-1.43213E+01 4.86016E+00 3.49999E-01
 -1      1715-8.63487E+00-1.04040E+01-3.49999E-01
 -1      1716 1.35656E+01 6.20094E+00 3.49999E-01
 -1      1717 2.09392E+00-1.05268E+01 3.49999E-01
 -1      1718 1.23749E+00 1.52908E+01 3.49999E-01
 -1      1719 3.96808E+00 1.22769E+01-3.49999E-01
 -1      1720-2.12846E+00-1.42403E+01 3.49999E-01
 -1      1721-1.55326E+01 1.94839E+00 3.49999E-01
 -1      1722 5.96048E+00-8.92048E+00 3.49999E-01
 -1      1723 6.66693E+00-1.17119E+01 3.49999E-01
 -1      1724 3.88062E+00-1.42275E+01-3.49999E-01
 -1      1725-1.54098E+01 1.09913E+00-3.49999E-01
 -1      1726-8.22723E+00-5.49630E+00-3.49999E-01
 -1      1727-1.13070E+01-1.08961E+01-3.49999E-01
 -1      1728 8.91843E+00-1.12438E+01 3.49999E-01
 -1      1729 1.11998E+01-1.09917E+01 3.49999E-01
 -1      1730 1.13255E+00 1.31205E+01-3.49999E-01
 -1      1731 5.66436E+00 9.90258E+00 3.49999E-01
 -1      1732-9.75009E-01 1.36650E+01 3.49999E-01
 -1      1733-3.95228E+00-1.44638E+01-3.49999E-01
 -1      1734-9.93987E+00 1.21000E+01 3.49999E-01
 -1      1735 8.94043E+00 1.15506E+01-3.49999E-01
 -1      1736 9.69933E+00 1.24753E+01-3.49999E-01
 -1      1737 7.44557E+00-1.11200E+01 3.49999E-01
 -1      1738-1.12548E+01 1.10091E+01-3.49999E-01
 -1      1739-1.55254E+01 3.40367E+00 3.49999E-01
 -1      1740-9.01251E+00-1.14126E+01-3.49999E-01
 -1      1741-4.09331E+00 1.26130E+01-3.49999E-01
 -1      1742-1.34090E+01 2.95124E+00 3.49999E-01
 -1      1743 2.99493E+00-1.48877E+00-3.49999E-01
 -1      1744 1.37399E+01-7.17136E+00 3.49999E-01
 -1      1745 2.49812E-01 6.17473E+00-3.49999E-01
 -1      1746 4.51627E+00 9.01858E+00-3.49999E-01
 -1      1747-7.03505E+00-7.61102E+00-3.49999E-01
 -1      1748 7.44481E+00 1.20850E+01-3.49999E-01
 -1      1749-1.02038E+01-6.34054E+00-3.49999E-01
 -1      1750-1.52970E+01-1.08801E+00-3.49999E-01
 -1      1751-2.39163E+00 6.29866E+00-3.49999E-01
 -1      1752 4.98794E+00 1.12028E+01-3.49999E-01
 -1      1753 1.20936E+01-9.38602E+00-3.49999E-01
 -1      1754 1.02106E+00 1.48177E+01-3.49999E-01
 -1      1755 1.74346E+00-1.37409E+01 3.49999E-01
 -1      1756 1.21183E+00 1.39041E+01-3.49999E-01
 -1      1757-1.39050E+01-1.22033E+00-3.49999E-01
 -1      1758-5.95228E+00-1.09391E+01-3.49999E-01
 -1      1759-1.00164E+01-5.82289E+00 3.49999E-01
 -1      1760-8.88227E-01 4.03905E+00-3.49999E-01
 -1      1761 1.54916E+01-1.10718E+00-3.49999E-01
 -1      1762 1.31423E+01-8.44171E+00-3.49999E-01
 -1      1763 1.57119E+01 1.12888E+00-3.49999E-01
 -1      1764-2.33683E+00-1.43913E-01-3.49999E-01
 -1      1765-1.30671E+00 1.84166E+00-3.49999E-01
 -1      1766 5.33806E+00-3.18275E+00-3.49999E-01
 -1      1767 9.73325E+00-8.38706E+00-3.49999E-01
 -1      1768-1.47209E+01-4.03026E+00-3.49999E-01
 -1      1769 3.28114E+00 1.47174E+01 3.49999E-01
 -1      1770-1.47902E+01-5.79253E+00 3.49999E-01
 -1      1771-2.33479E+00-1.17712E+01-3.49999E-01
 -1      1772-9.10580E-01 1.46050E+01 3.49999E-01
 -1      1773-1.73231E-01 9.90398E+00-3.49999E-01
 -1      1774 1.53365E+01 4.21699E+00-3.49999E-01
 -1      1775-1.50912E+01 6.00568E+00-3.49999E-01
 -1      1776 8.50212E+00 1.26841E+01-3.49999E-01
 -1      1777-1.43290E+01 4.65843E+00-3.49999E-01
 -1      1778 1.39255E+01-1.03780E+00-3.49999E-01
 -1      1779-3.43430E+00 1.68546E+00-3.49999E-01
 -1      1780-1.24180E+01 6.78634E+00 3.49999E-01
 -1      1781-1.02218E+01-1.17987E+01 3.49999E-01
 -1      1782 3.35810E+00-1.28836E+01 3.49999E-01
 -1      1783 2.43829E+00-1.31004E+01 3.49999E-01
 -1      1784-8.65930E-01 1.58093E+01-3.49999E-01
 -1      1785-1.31299E+01 4.25707E+00 3.49999E-01
 -1      1786 4.80287E+00-1.46361E+01 3.49999E-01
 -1      1787 3.16845E+00-3.71628E+00-3.49999E-01
 -1      1788-1.13569E+01 5.44388E+00-3.49999E-01
 -1      1789-1.19595E+01-6.30798E+00-3.49999E-01
 -1      1790-1.16416E+01 8.66835E+00 3.49999E-01
 -1      1791-1.31285E+01 7.34402E+00 3.49999E-01
 -1      1792 1.47267E+01-6.62754E-01-3.49999E-01
 -1      1793-1.07088E+01-1.95808E+00-3.49999E-01
 -1      1794-2.82164E+00 1.58987E+01-3.49999E-01
 -1      1795 1.25633E+01 4.54657E+00 3.49999E-01
 -1      1796-1.56712E+01-1.12487E+00 3.49999E-01
 -1      1797-1.58551E+01 3.05809E-01 3.49999E-01
 -1      1798-1.36373E+01 0.00000E+00 3.49999E-01
 -1      1799-3.90855E-01 2.80578E+00-3.49999E-01
 -1      1800-4.73950E+00 5.73373E+00-3.49999E-01
 -1      1801 5.16454E+00-9.55247E-01-3.49999E-01
 -1      1802-1.10933E+01-6.95436E+00-3.49999E-01
 -1      1803 7.13130E-01 3.96794E+00-3.49999E-01
 -1      1804-1.30260E+01 1.58909E+00 3.49999E-01
 -1      1805 4.26932E+00-1.39889E+01 3.49999E-01
 -1      1806 7.46916E+00-1.33584E+01 3.49999E-01
 -1      1807 5.61753E+00-1.42132E+01-3.49999E-01
 -1      1808 1.47962E+01 4.92373E+00 3.49999E-01
 -1      1809 5.67810E+00 9.38310E+00-3.49999E-01
 -1      1810 2.21482E+00 1.22436E+01 3.49999E-01
 -1      1811-1.38500E+01 1.50677E+00-3.49999E-01
 -1      1812-1.48050E+01 2.67247E+00 3.49999E-01
 -1      1813-1.26934E+01-6.43442E+00 3.49999E-01
 -1      1814 1.25529E+01 9.00533E+00-3.49999E-01
 -1      1815-9.59398E+00 1.17174E+01-3.49999E-01
 -1      1816 1.32504E+01 8.41945E+00 3.49999E-01
 -1      1817-5.87551E-01 1.36933E+01-3.49999E-01
 -1      1818-1.49013E+01 9.37957E-01 3.49999E-01
 -1      1819-4.16632E+00 1.48912E+01 3.49999E-01
 -1      1820 1.52580E+01 5.12015E+00-3.49999E-01
 -1      1821 2.01154E+00 5.39258E+00-3.49999E-01
 -1      1822-9.97788E+00-1.21365E+01-3.49999E-01
 -1      1823-1.17420E+01 1.06100E+01 3.49999E-01
 -1      1824-1.33184E+01-8.53584E+00 3.49999E-01
 -1      1825-1.31391E+01-4.06904E+00-3.49999E-01
 -1      1826-2.02846E+00 1.21407E+01-3.49999E-01
 -1      1827-1.30616E+01 2.24900E+00-3.49999E-01
 -1      1828 7.84615E+00 1.08480E+01-3.49999E-01
 -1      1829-1.10700E+01-5.69416E+00-3.49999E-01
 -1      1830-1.54654E+00 1.14823E+01 3.49999E-01
 -1      1831 1.59023E+01-3.40232E-01 3.49999E-01
 -1      1832 6.19648E+00-1.99537E+00-3.49999E-01
 -1      1833 4.89451E+00-1.18163E+01-3.49999E-01
 -1      1834-1.12734E+01 2.27584E+00-3.49999E-01
 -1      1835-3.98691E+00-1.06742E+01-3.49999E-01
 -1      1836-8.29932E-01-3.84987E+00-3.49999E-01
 -1      1837 9.85940E+00 1.26704E+01 3.49999E-01
 -1      1838 8.94004E+00 1.16887E+01 3.49999E-01
 -1      1839 9.49779E+00 2.10527E+00-3.49999E-01
 -1      1840-1.17665E+01 3.35725E+00 3.49999E-01
 -1      1841 1.13727E+01 2.26216E+00 3.49999E-01
 -1      1842 6.98235E+00-1.39468E+01-3.49999E-01
 -1      1843 4.02687E+00-2.52890E+00-3.49999E-01
 -1      1844-1.35622E+01-8.66615E+00-3.49999E-01
 -1      1845 6.37643E+00-1.45806E+01 3.49999E-01
 -1      1846-8.68938E+00-7.15025E+00-3.49999E-01
 -1      1847 1.17692E+01 6.80208E+00 3.49999E-01
 -1      1848 4.24776E+00 1.54380E+01-3.49999E-01
 -1      1849-1.21555E+01 1.29307E+00 3.49999E-01
 -1      1850-9.78705E+00 9.78705E+00 3.49999E-01
 -1      1851 7.82173E+00 1.08943E+01 3.49999E-01
 -1      1852-1.12019E+01-1.12573E+01 3.49999E-01
 -1      1853 2.43799E+00 3.69991E+00-3.49999E-01
 -1      1854-1.43021E+01 4.24734E-01 3.49999E-01
 -1      1855-3.53121E+00 1.03205E+01-3.49999E-01
 -1      1856 8.12239E+00 1.16212E+01-3.49999E-01
 -1      1857-5.47913E+00 3.67697E+00-3.49999E-01
 -1      1858 4.38971E-01-3.80556E-01-3.49999E-01
 -1      1859 9.82476E+00-7.75845E+00 3.49999E-01
 -1      1860-4.04421E+00 1.47669E+01-3.49999E-01
 -1      1861 1.66431E+00 4.40504E+00-3.49999E-01
 -1      1862-1.04067E+01-2.07002E+00 3.49999E-01
 -1      1863-1.32929E+01 8.75523E+00-3.49999E-01
 -1      1864-5.96296E+00-8.92419E+00 3.49999E-01
 -1      1865-5.94623E+00-1.06941E+01 3.49999E-01
 -1      1866-5.93841E+00-1.44798E+01 3.49999E-01
 -1      1867 1.26940E+01-3.02224E+00 3.49999E-01
 -1      1868 3.38078E+00 1.35693E+01-3.49999E-01
 -1      1869 4.29204E+00 1.55839E+01 3.49999E-01
 -1      1870-1.92946E+00 1.53403E+01 3.49999E-01
 -1      1871-5.05502E+00-1.01731E+01-3.49999E-01
 -1      1872 5.53737E+00 1.31045E+01-3.49999E-01
 -1      1873-1.27130E+01-4.30478E+00 3.49999E-01
 -1      1874-1.50168E+01-3.79786E+00 3.49999E-01
 -1      1875 1.28041E+00 9.84625E+00-3.49999E-01
 -1      1876 1.10962E+01-3.05692E+00-3.49999E-01
 -1      1877 1.52554E-01-1.16354E+01-3.49999E-01
 -1      1878 1.01821E+01 1.13054E+01-3.49999E-01
 -1      1879 3.70812E-01 1.35045E+01 3.49999E-01
 -1      1880-6.33378E+00 7.22891E+00-3.49999E-01
 -1      1881-1.25201E+01 9.52230E+00 3.49999E-01
 -1      1882-8.09466E+00-8.21517E+00-3.49999E-01
 -1      1883 1.41724E+00 1.27890E+01 3.49999E-01
 -1      1884-1.39991E+01-7.91159E+00 3.49999E-01
 -1      1885-4.85038E+00-1.16909E+01-3.49999E-01
 -1      1886-9.59682E+00 1.09611E+01 3.49999E-01
 -1      1887 8.33039E+00-1.25116E+01-3.49999E-01
 -1      1888 4.12371E+00-1.40084E+00-3.49999E-01
 -1      1889-1.27316E+01 9.90967E+00-3.49999E-01
 -1      1890-1.03824E+01 8.77407E+00 3.49999E-01
 -1      1891 1.34766E+01-8.62039E+00 3.49999E-01
 -1      1892-1.02284E+01 7.14319E+00 3.49999E-01
 -1      1893 8.95598E+00-1.28829E+01 3.49999E-01
 -1      1894 5.14608E+00-1.24236E+01 3.49999E-01
 -1      1895 6.46780E+00-1.47516E+01-3.49999E-01
 -1      1896-1.29235E+01 2.35286E+00 3.49999E-01
 -1      1897 1.21629E+01-1.01004E+01 3.49999E-01
 -1      1898-1.17255E+01 9.06898E+00-3.49999E-01
 -1      1899 4.29723E+00-3.62835E+00-3.49999E-01
 -1      1900-9.62868E+00-9.62868E+00 3.49999E-01
 -1      1901 6.32658E+00 1.24926E+01 3.49999E-01
 -1      1902-1.13873E+01 1.21123E+00-3.49999E-01
 -1      1903 6.57959E+00 1.25474E+01-3.49999E-01
 -1      1904 2.78522E+00 4.68744E+00-3.49999E-01
 -1      1905 1.15386E+01 8.77183E+00-3.49999E-01
 -1      1906 8.82239E+00-5.89493E+00 3.49999E-01
 -1      1907 7.60995E+00 7.80280E+00-3.49999E-01
 -1      1908-8.68272E+00 1.03029E+01-3.49999E-01
 -1      1909 4.09282E+00 1.46287E+01-3.49999E-01
 -1      1910 1.43880E+01 6.16666E+00-3.49999E-01
 -1      1911 1.44258E+01 6.74353E+00 3.49999E-01
 -1      1912 7.64877E+00-3.94929E+00-3.49999E-01
 -1      1913-9.27369E+00-1.32700E+01-3.49999E-01
 -1      1914 1.00407E+01-5.55163E-01-3.49999E-01
 -1      1915-1.45530E+01-6.49372E-01-3.49999E-01
 -1      1916-1.54379E+01 1.20092E-03-3.49999E-01
 -1      1917-3.32189E-01 1.61229E+01 3.49999E-01
 -1      1918 1.12157E+01-2.49430E+00 3.49999E-01
 -1      1919-3.12078E+00-1.21316E+01 3.49999E-01
 -1      1920 3.88800E+00 1.32363E+01 3.49999E-01
 -1      1921 4.29413E-01 1.33547E+01-3.49999E-01
 -1      1922-5.14666E+00-9.20878E+00 3.49999E-01
 -1      1923 6.09582E-01 1.12849E+01-3.49999E-01
 -1      1924-1.52530E+01 4.97568E+00 3.49999E-01
 -1      1925-4.74640E+00-1.09042E+01-3.49999E-01
 -1      1926 4.17961E+00 6.69257E+00-3.49999E-01
 -1      1927 8.55766E+00 1.30928E+01 3.49999E-01
 -1      1928-9.94183E+00-7.67165E+00-3.49999E-01
 -1      1929 3.35531E+00 1.17414E+00-3.49999E-01
 -1      1930-7.47272E+00 4.99312E+00 3.49999E-01
 -1      1931 5.58102E+00-1.43636E+01 3.49999E-01
 -1      1932-1.02803E+01 1.04694E+01 3.49999E-01
 -1      1933-7.08488E+00-9.62546E+00-3.49999E-01
 -1      1934-2.78085E+00 1.46285E+01-3.49999E-01
 -1      1935 4.63542E+00-8.77026E+00-3.49999E-01
 -1      1936-9.58605E+00-7.60453E+00 3.49999E-01
 -1      1937-9.04736E+00-8.04869E+00-3.49999E-01
 -1      1938-1.21632E+01-5.04603E-01-3.49999E-01
 -1      1939 3.35723E+00 3.93150E+00-3.49999E-01
 -1      1940 8.08664E+00-1.27269E+01 3.49999E-01
 -1      1941 7.42568E-01-1.11129E+00 3.49999E-01
 -1      1942 1.31086E+00 2.60780E-01 3.49999E-01
 -1      1943-1.31086E+00-2.60780E-01 3.49999E-01
 -1      1944 7.42555E-01-3.07557E-01 3.49999E-01
 -1      1945-7.42568E-01 1.11129E+00 3.49999E-01
 -1      1946-1.35324E+01 6.74215E+00-3.49999E-01
 -1      1947-1.14015E+01 7.80400E+00-3.49999E-01
 -1      1948-1.47253E+01-6.63437E+00 3.49999E-01
 -1      1949-7.90278E+00-1.35388E+01 3.49999E-01
 -1      1950-9.91438E+00-1.26631E+01 3.49999E-01
 -1      1951 7.90402E+00 1.36851E+01-3.49999E-01
 -1      1952 7.38503E+00 1.28457E+01 3.49999E-01
 -1      1953-9.85048E+00 1.26595E+01-3.49999E-01
 -1      1954-4.13237E+00-9.59530E+00-3.49999E-01
 -1      1955 1.02586E+01 9.48761E+00-3.49999E-01
 -1      1956-1.12486E+01 2.59245E+00 3.49999E-01
 -1      1957-8.49664E+00 8.01066E+00-3.49999E-01
 -1      1958-7.92273E+00-1.39387E+01-3.49999E-01
 -1      1959-1.41796E+01-8.05149E+00-3.49999E-01
 -1      1960-1.07594E+01-9.22670E+00-3.49999E-01
 -1      1961-9.20634E+00 5.44674E+00-3.49999E-01
 -1      1962-8.66758E+00-1.22332E+01-3.49999E-01
 -1      1963-1.56763E+01 3.57830E+00-3.49999E-01
 -1      1964-1.47125E+00 1.24802E+01 3.49999E-01
 -1      1965 2.29805E+00 1.33901E+01-3.49999E-01
 -1      1966-6.02787E+00 5.95754E+00-3.49999E-01
 -1      1967 6.50650E+00 9.57987E+00 3.49999E-01
 -1      1968-8.02814E+00-1.01513E+01 3.49999E-01
 -1      1969 1.03091E+01-1.19050E+01-3.49999E-01
 -1      1970 1.24165E+01 8.73192E+00 3.49999E-01
 -1      1971 1.18235E+01 2.13309E+00-3.49999E-01
 -1      1972 4.82684E-01 8.08977E+00-3.49999E-01
 -1      1973-1.60930E+01 5.67240E-01-3.49999E-01
 -1      1974 6.56293E+00-6.27304E+00-3.49999E-01
 -1      1975 8.63217E+00-1.34986E+01-3.49999E-01
 -1      1976 1.07415E+01-1.18326E+01 3.49999E-01
 -1      1977-6.80738E+00 9.30147E+00-3.49999E-01
 -1      1978 1.48275E+00 3.23667E+00-3.49999E-01
 -1      1979 6.41575E+00 1.13262E+01 3.49999E-01
 -1      1980-7.86426E+00-7.38798E+00-3.49999E-01
 -1      1981-7.43840E+00 1.03764E+01-3.49999E-01
 -1      1982-8.84052E+00 1.02361E+01 3.49999E-01
 -1      1983-7.54251E+00-1.06466E+01-3.49999E-01
 -1      1984-3.62548E+00-1.27617E+01-3.49999E-01
 -1      1985 2.45900E+00 7.10422E+00-3.49999E-01
 -1      1986 4.38274E+00 7.81927E+00-3.49999E-01
 -1      1987-5.91247E+00-1.20643E+01-3.49999E-01
 -1      1988-1.32932E+01-7.48002E+00 3.49999E-01
 -1      1989 2.10303E+00 1.33797E+01 3.49999E-01
 -1      1990-3.52427E+00 1.36775E+01-3.49999E-01
 -1      1991-6.84571E+00 1.36912E+01-3.49999E-01
 -1      1992-8.59063E+00 1.19826E+01-3.49999E-01
 -1      1993-1.02994E+01 1.10703E+01-3.49999E-01
 -1      1994 1.33663E+01 7.61675E+00-3.49999E-01
 -1      1995 9.42228E+00-1.27174E+01-3.49999E-01
 -1      1996-6.78284E+00-2.59056E+00-3.49999E-01
 -1      1997-1.59470E+01 1.98922E+00-3.49999E-01
 -1      1998 1.36595E+01 1.66307E+00-3.49999E-01
 -1      1999 5.84167E+00 1.42061E+01-3.49999E-01
 -1      2000-1.86149E+00 1.37451E+01-3.49999E-01
 -1      2001-1.33056E+01 9.02708E+00 3.49999E-01
 -1      2002-1.18575E+01 9.87046E+00 3.49999E-01
 -1      2003 2.24108E+00 2.04384E+00-3.49999E-01
 -1      2004 9.36221E+00 1.04203E+01-3.49999E-01
 -1      2005 1.06110E+01 1.04652E+01-3.49999E-01
 -1      2006 1.54583E-01-1.43199E+01-3.49999E-01
 -1      2007-1.14626E+00-1.06931E+01-3.49999E-01
 -1      2008 0.00000E+00-1.38450E+01 3.49999E-01
 -1      2009 1.30414E+01-5.26209E+00-3.49999E-01
 -1      2010-9.91137E+00-1.28807E+01-3.49999E-01
 -1      2011 1.22772E+01-1.71993E+00-3.49999E-01
 -1      2012-2.19293E+00-1.23162E+01 3.49999E-01
 -1      2013 1.25161E+01-5.18441E+00 3.49999E-01
 -1      2014-1.52034E+01 4.15747E+00 3.49999E-01
 -1      2015-1.53787E+01-2.46985E+00 3.49999E-01
 -1      2016-1.45340E+01-4.75321E+00 3.49999E-01
 -1      2017 8.86376E-01 5.23339E+00-3.49999E-01
 -1      2018-5.17456E+00 1.94416E+00-3.49999E-01
 -1      2019-4.43359E+00 4.46235E+00-3.49999E-01
 -1      2020-2.10130E+00 8.55328E+00-3.49999E-01
 -1      2021-1.81255E+00 1.04321E+01-3.49999E-01
 -1      2022 6.77031E-01 3.15932E+00-3.49999E-01
 -1      2023-1.37469E+01 1.09767E+00 3.49999E-01
 -1      2024-8.46984E+00 5.79647E+00 3.49999E-01
 -1      2025-1.19609E+01-1.03549E+01 3.49999E-01
 -1      2026 5.87973E+00 1.18719E+01 3.49999E-01
 -1      2027 7.27491E+00-1.42844E+01 3.49999E-01
 -1      2028-9.23522E+00 6.83492E+00-3.49999E-01
 -1      2029-1.02804E+01 4.52947E+00-3.49999E-01
 -1      2030-1.02823E+01 5.94256E+00-3.49999E-01
 -1      2031-1.26903E+01-8.21804E+00-3.49999E-01
 -1      2032 5.06770E+00-2.08330E+00-3.49999E-01
 -1      2033 6.57257E+00-1.22601E+01-3.49999E-01
 -1      2034 1.00556E+01 2.00018E+00 3.49999E-01
 -1      2035 1.24204E+01 1.66899E+00 3.49999E-01
 -1      2036-1.02276E+01 3.16062E+00-3.49999E-01
 -1      2037 9.66255E+00 5.30310E+00-3.49999E-01
 -1      2038-6.37336E+00-1.40262E+01-3.49999E-01
 -1      2039 6.51621E+00 1.72886E+00-3.49999E-01
 -1      2040 1.14620E+01-6.90362E+00-3.49999E-01
 -1      2041 5.23336E+00 7.08425E+00-3.49999E-01
 -1      2042-9.54176E+00 6.13415E+00-3.49999E-01
 -1      2043 1.32735E+01 5.47001E+00-3.49999E-01
 -1      2044 9.19343E+00 1.82869E+00 3.49999E-01
 -1      2045-1.03618E+01-7.06298E+00-3.49999E-01
 -1      2046-1.22757E+01-2.07157E+00-3.49999E-01
 -1      2047 9.68617E-01-6.43643E+00-3.49999E-01
 -1      2048 1.13488E+00-2.75418E+00-3.49999E-01
 -1      2049 2.42687E+00-2.65353E+00-3.49999E-01
 -1      2050-3.28511E+00-2.68884E+00-3.49999E-01
 -1      2051 9.82317E-01-1.29770E+01-3.49999E-01
 -1      2052-1.21773E+01 2.91250E+00-3.49999E-01
 -1      2053-1.45404E+01 9.60535E-01-3.49999E-01
 -1      2054-1.32364E+01 6.14621E-01-3.49999E-01
 -1      2055-1.23141E+01 4.24823E-01-3.49999E-01
 -1      2056 1.99022E+00 1.59572E+01 3.49999E-01
 -1      2057 1.34959E+00 9.99889E+00 3.49999E-01
 -1      2058-1.10209E+01-8.58683E+00 3.49999E-01
 -1      2059 3.87556E+00-1.28066E+01-3.49999E-01
 -1      2060 6.29333E+00-8.67316E-01-3.49999E-01
 -1      2061 7.55606E+00-1.16549E+01-3.49999E-01
 -1      2062-9.76416E+00-3.93490E+00-3.49999E-01
 -1      2063 6.21345E+00 1.05229E+01 3.49999E-01
 -1      2064-4.34045E+00 2.98394E+00-3.49999E-01
 -1      2065-1.09709E+00 1.27213E+01-3.49999E-01
 -1      2066-1.39494E+01-4.84087E+00-3.49999E-01
 -1      2067 2.82495E+00-7.56732E+00-3.49999E-01
 -1      2068 1.69291E+00-1.57468E+00-3.49999E-01
 -1      2069 5.08642E+00 1.26745E+01 3.49999E-01
 -1      2070 1.29345E+01-9.75751E-01-3.49999E-01
 -1      2071-1.07690E+00-1.19638E+01-3.49999E-01
 -1      2072-8.00055E+00 9.32375E+00-3.49999E-01
 -1      2073-4.35107E+00-1.35048E+01-3.49999E-01
 -1      2074-1.48169E+01-4.89408E+00-3.49999E-01
 -1      2075 9.09418E+00-2.42801E+00-3.49999E-01
 -1      2076-1.06568E+01-1.15317E+01-3.49999E-01
 -1      2077 1.50015E+01 2.60941E+00-3.49999E-01
 -1      2078 1.12157E+01 6.00878E-01-3.49999E-01
 -1      2079 6.61435E+00-3.20146E+00-3.49999E-01
 -1      2080 1.35073E+01 8.63683E+00-3.49999E-01
 -1      2081-1.14652E+01-6.47987E+00 3.49999E-01
 -1      2082-1.45376E+01 2.18071E+00-3.49999E-01
 -1      2083 3.25073E+00 1.18106E+01 3.49999E-01
 -1      2084 8.39575E+00 9.89533E+00-3.49999E-01
 -1      2085 4.75564E+00-1.50196E+01-3.49999E-01
 -1      2086-1.26665E+01-7.25154E+00-3.49999E-01
 -1      2087 6.56141E+00-1.27820E+01 3.49999E-01
 -1      2088-9.70859E+00 7.95213E+00-3.49999E-01
 -1      2089-3.23677E+00 1.16078E+01-3.49999E-01
 -1      2090-1.03756E-01 3.63849E+00-3.49999E-01
 -1      2091-8.89877E+00-6.92741E+00 3.49999E-01
 -1      2092 1.30523E+01-6.85315E+00-3.49999E-01
 -1      2093-3.74934E+00 6.77995E+00-3.49999E-01
 -1      2094-3.18048E+00 1.44450E+01 3.49999E-01
 -1      2095-1.19354E+01 7.76289E+00 3.49999E-01
 -1      2096 1.38675E+01-3.23034E+00-3.49999E-01
 -1      2097-1.24166E+01 4.66211E+00-3.49999E-01
 -1      2098-5.92556E+00 8.86823E+00 3.49999E-01
 -1      2099-2.66470E+00 1.30178E+01-3.49999E-01
 -1      2100-1.26643E+01-5.49408E+00-3.49999E-01
 -1      2101-1.00098E+01 1.28537E+01 3.49999E-01
 -1      2102-3.01624E+00 1.09995E+01 3.49999E-01
 -1      2103-1.40474E+01 3.80458E+00-3.49999E-01
 -1      2104-1.33725E+01 4.50054E+00-3.49999E-01
 -1      2105-1.90330E+00 1.46217E+01-3.49999E-01
 -1      2106 7.20174E+00 1.43573E+01-3.49999E-01
 -1      2107 1.77917E+00 8.21529E+00-3.49999E-01
 -1      2108 1.20884E+01-1.04596E+01-3.49999E-01
 -1      2109-1.46823E+01-2.00957E+00-3.49999E-01
 -1      2110-7.14827E+00 6.36044E+00-3.49999E-01
 -1      2111 1.50745E+00-1.26479E+01 3.49999E-01
 -1      2112 1.45439E+01-1.23359E+00 3.49999E-01
 -1      2113-8.31096E+00-1.28845E+01 3.49999E-01
 -1      2114 1.03620E+01-1.89315E+00-3.49999E-01
 -1      2115 1.42169E+01-2.85022E+00 3.49999E-01
 -1      2116-1.21655E+01-1.05229E+01-3.49999E-01
 -1      2117-2.84530E-01-1.56391E+01-3.49999E-01
 -1      2118-2.73392E+00 7.48874E+00-3.49999E-01
 -1      2119 9.57885E-01-1.52351E+01 3.49999E-01
 -1      2120 1.30005E+01 2.90996E+00-3.49999E-01
 -1      2121-1.41504E+01 6.23490E+00 3.49999E-01
 -1      2122-1.73987E+00 1.37293E+01 3.49999E-01
 -1      2123 7.46772E+00 9.46626E+00 3.49999E-01
 -1      2124-2.01861E+00-1.55541E+01 3.49999E-01
 -1      2125-4.30506E+00-1.51416E+01 3.49999E-01
 -1      2126 1.43213E+01-6.23782E+00-3.49999E-01
 -1      2127-7.60883E+00 9.58175E+00 3.49999E-01
 -1      2128-9.42521E+00 1.08253E+01-3.49999E-01
 -1      2129 1.22313E+01-6.06321E+00-3.49999E-01
 -1      2130-1.02653E+01 5.76968E+00 3.49999E-01
 -1      2131-9.30305E+00 7.30326E+00 3.49999E-01
 -1      2132 7.82868E+00 1.36463E+01 3.49999E-01
 -1      2133-3.09523E+00 1.27686E+01 3.49999E-01
 -1      2134 1.46844E+01-5.76043E+00 3.49999E-01
 -1      2135-1.12903E+01 6.40710E+00-3.49999E-01
 -1      2136 1.28605E+01-6.64070E+00 3.49999E-01
 -1      2137-2.01736E+00 3.11554E+00-3.49999E-01
 -1      2138 1.38727E+01-7.60350E+00-3.49999E-01
 -1      2139 2.01096E+00 1.61677E+01-3.49999E-01
 -1      2140 1.62025E+00 2.48662E+00-3.49999E-01
 -1      2141 1.80049E+00 1.45308E+01 3.49999E-01
 -1      2142 1.09040E+01-3.24680E+00 3.49999E-01
 -1      2143-9.59760E+00-9.92127E+00-3.49999E-01
 -1      2144-5.04541E+00 7.00510E+00-3.49999E-01
 -1      2145-1.02652E+01 2.14456E+00-3.49999E-01
 -1      2146-1.08701E+01-8.17604E+00-3.49999E-01
 -1      2147-1.47282E+01-1.14172E+00 3.49999E-01
 -1      2148 4.74848E+00-1.41482E+01-3.49999E-01
 -1      2149-3.41879E+00 1.18678E+01 3.49999E-01
 -1      2150 1.46845E+01-1.61583E+00-3.49999E-01
 -1      2151-9.48909E+00 9.94572E+00-3.49999E-01
 -1      2152 2.74452E-02 1.09294E+00-3.49999E-01
 -1      2153 9.41289E+00-1.41346E+00-3.49999E-01
 -1      2154 1.46984E+01 6.77082E-01 3.49999E-01
 -1      2155 5.30447E+00 1.48718E+01 3.49999E-01
 -1      2156 1.05982E+00 8.88704E+00-3.49999E-01
 -1      2157 8.37780E+00-1.36372E+01 3.49999E-01
 -1      2158 2.48203E-01 1.53212E+01 3.49999E-01
 -1      2159-2.68963E+00-4.60606E+00-3.49999E-01
 -1      2160 7.36939E+00-1.29597E+01-3.49999E-01
 -1      2161 5.96455E+00-1.11648E+01-3.49999E-01
 -1      2162-9.76788E+00-1.10290E+01 3.49999E-01
 -1      2163 1.26770E+01 9.70370E+00 3.49999E-01
 -1      2164-1.25788E+01-4.67396E+00-3.49999E-01
 -1      2165-1.34630E+01-6.39945E+00 3.49999E-01
 -1      2166-8.24585E+00 1.52697E+00-3.49999E-01
 -1      2167 9.39909E+00-4.16502E+00-3.49999E-01
 -1      2168 1.46491E+01 1.25539E+00-3.49999E-01
 -1      2169 1.27816E+01 9.95066E+00-3.49999E-01
 -1      2170 4.28309E+00 1.31997E+01-3.49999E-01
 -1      2171 2.76078E+00 1.42665E+01-3.49999E-01
 -1      2172 6.64610E+00 8.59548E+00-3.49999E-01
 -1      2173-6.99597E+00-9.00794E+00 3.49999E-01
 -1      2174 8.41466E+00 4.98599E-01-3.49999E-01
 -1      2175-8.81452E+00 3.90050E+00-3.49999E-01
 -1      2176-1.54940E+00-6.89809E+00-3.49999E-01
 -1      2177 1.49972E+01-4.11408E+00-3.49999E-01
 -1      2178 1.59262E+00 8.00665E+00 3.49999E-01
 -1      2179-9.76694E+00 8.96743E+00-3.49999E-01
 -1      2180 8.57752E-01 1.45081E+01 3.49999E-01
 -1      2181-7.23697E+00 8.11291E+00-3.49999E-01
 -1      2182-5.87146E+00-1.20703E+01 3.49999E-01
 -1      2183 4.80816E+00 1.42176E+01 3.49999E-01
 -1      2184 1.29642E+01-1.43011E+00 3.49999E-01
 -1      2185-7.19747E+00 3.03304E+00-3.49999E-01
 -1      2186-8.90989E+00-6.16560E-01-3.49999E-01
 -1      2187 1.38429E+00 1.49915E+00-3.49999E-01
 -1      2188-9.89445E+00 7.96743E+00 3.49999E-01
 -1      2189-9.12178E+00-6.13788E+00-3.49999E-01
 -1      2190 4.25292E+00-1.54550E+01 3.49999E-01
 -1      2191-1.25418E+01 5.19503E+00 3.49999E-01
 -1      2192-1.17296E+01-8.79778E+00-3.49999E-01
 -1      2193-3.54310E-01 1.63475E+01-3.49999E-01
 -1      2194 1.49059E+01-1.97267E+00 3.49999E-01
 -1      2195 4.06564E+00-1.25289E+01 3.49999E-01
 -1      2196-1.17717E+01 6.11809E+00 3.49999E-01
 -1      2197-2.32242E+00 1.10861E+00-3.49999E-01
 -1      2198-1.22144E+01 5.49713E+00-3.49999E-01
 -1      2199-3.44037E+00 5.49587E+00-3.49999E-01
 -1      2200-6.72198E+00 9.33165E+00 3.49999E-01
 -1      2201-1.25239E+00 2.70713E+00-3.49999E-01
 -1      2202-1.22636E+01-2.24831E+00 3.49999E-01
 -1      2203 1.45491E+01-6.69149E+00 3.49999E-01
 -1      2204-1.04773E+01 1.22484E+00 3.49999E-01
 -1      2205-1.30453E+01 3.49903E+00-3.49999E-01
 -1      2206-7.21131E+00 7.23573E+00-3.49999E-01
 -1      2207 9.86829E+00 7.95264E-01-3.49999E-01
 -1      2208 1.16247E+01-6.15191E-01-3.49999E-01
 -1      2209-1.15591E+01 4.60887E+00-3.49999E-01
 -1      2210 3.64540E+00-1.53667E+01-3.49999E-01
 -1      2211-1.31375E+01 1.53974E+00-3.49999E-01
 -1      2212-2.56419E+00-1.03241E+01-3.49999E-01
 -1      2213 1.37794E+01 3.80201E+00-3.49999E-01
 -1      2214-1.42541E+00-1.93266E+00-3.49999E-01
 -1      2215-1.56076E+01-3.42860E+00-3.49999E-01
 -1      2216 1.37722E+01 5.18236E-01-3.49999E-01
 -1      2217 1.01520E+01-9.70842E+00-3.49999E-01
 -1      2218-1.32458E+01 6.45142E+00 3.49999E-01
 -1      2219-2.76446E+00-1.53182E+01-3.49999E-01
 -1      2220 1.59357E+01 8.49470E-02-3.49999E-01
 -1      2221-8.11132E+00-9.51410E+00-3.49999E-01
 -1      2222-4.97554E-01-5.53734E+00-3.49999E-01
 -1      2223-1.01485E+01 2.87791E+00 3.49999E-01
 -1      2224 1.30234E+01-9.36413E+00-3.49999E-01
 -1      2225 1.09850E+01-8.71741E+00-3.49999E-01
 -1      2226-7.52241E+00-8.87208E+00-3.49999E-01
 -1      2227-1.10429E+00 5.52523E+00-3.49999E-01
 -1      2228-1.13164E+01-1.47678E+00 3.49999E-01
 -1      2229 8.03718E+00-7.49637E+00-3.49999E-01
 -1      2230 3.28032E-02-1.78846E+00-3.49999E-01
 -1      2231 1.18458E+01 3.37936E+00-3.49999E-01
 -1      2232 5.22123E+00 5.50357E+00-3.49999E-01
 -1      2233 9.64735E+00 1.08829E+01 3.49999E-01
 -1      2234-1.57613E+01-2.06347E+00-3.49999E-01
 -1      2235 1.28813E+01 1.00844E+00-3.49999E-01
 -1      2236 3.74948E+00 1.09624E+01-3.49999E-01
 -1      2237-2.10701E+00-3.37401E+00-3.49999E-01
 -1      2238-8.08899E+00 5.70468E+00-3.49999E-01
 -1      2239-1.61416E+01-1.17121E+00-3.49999E-01
 -1      2240 6.75738E+00 1.12553E+01-3.49999E-01
 -1      2241-5.12642E+00-6.98728E+00-3.49999E-01
 -1      2242 4.94310E+00 1.21815E+01-3.49999E-01
 -1      2243-9.27050E+00-4.98610E+00-3.49999E-01
 -1      2244 1.22830E+01-7.69356E+00-3.49999E-01
 -1      2245-9.05997E+00 1.26199E+01-3.49999E-01
 -1      2246 8.42104E+00-4.89197E+00-3.49999E-01
 -1      2247 9.26692E+00 3.22406E-02-3.49999E-01
 -1      2248 1.34085E+01-2.12116E+00-3.49999E-01
 -1      2249-1.53855E+00-1.55873E+01-3.49999E-01
 -1      2250 7.69285E+00 1.28797E+01-3.49999E-01
 -1      2251-1.26672E+01 3.47542E+00 3.49999E-01
 -1      2252 1.11269E+00-8.28893E+00-3.49999E-01
 -1      2253 4.70369E+00-1.02985E+01-3.49999E-01
 -1      2254-8.95535E+00 1.18247E+01 3.49999E-01
 -1      2255 5.30469E+00 3.35792E+00-3.49999E-01
 -1      2256-1.21316E+01 7.71211E+00-3.49999E-01
 -1      2257 7.98895E-01 1.22233E+01-3.49999E-01
 -1      2258 7.13688E+00 1.52837E-01-3.49999E-01
 -1      2259 8.36412E-03 1.18945E+01-3.49999E-01
 -1      2260 4.39982E+00 3.87851E+00-3.49999E-01
 -1      2261-4.99048E+00-1.50163E+01-3.49999E-01
 -1      2262 8.60967E+00 1.06536E+01-3.49999E-01
 -1      2263-3.64313E+00-1.39914E+01 3.49999E-01
 -1      2264-2.30691E+00-1.01033E+01 3.49999E-01
 -1      2265 1.20151E+01-5.84864E+00 3.49999E-01
 -1      2266-4.86153E+00 1.37080E+01-3.49999E-01
 -1      2267 8.29581E+00 5.54309E+00 3.49999E-01
 -1      2268 9.95013E+00 5.54956E+00 3.49999E-01
 -1      2269 7.69233E+00 9.01469E+00-3.49999E-01
 -1      2270 6.90040E+00 8.78946E+00 3.49999E-01
 -1      2271-7.11732E+00-6.26400E+00-3.49999E-01
 -1      2272 1.04137E+01-1.03716E+01 3.49999E-01
 -1      2273 4.13748E+00 5.40642E-03-3.49999E-01
 -1      2274-2.64112E+00-8.43799E+00-3.49999E-01
 -1      2275 1.43051E+00-1.17724E+01-3.49999E-01
 -1      2276-1.20414E+01 1.07024E+01-3.49999E-01
 -1      2277 6.09300E+00-1.08862E+01 3.49999E-01
 -1      2278 5.09098E+00-8.72348E+00 3.49999E-01
 -1      2279-4.51881E+00 1.39736E+01 3.49999E-01
 -1      2280-1.72755E+00-4.30724E+00-3.49999E-01
 -1      2281 5.39159E-01 9.51175E+00-3.49999E-01
 -1      2282-8.39223E+00 2.74679E+00-3.49999E-01
 -1      2283 1.00909E+01-2.46918E+00 3.49999E-01
 -1      2284-7.90543E+00 8.53756E+00-3.49999E-01
 -1      2285 1.54654E+00-1.14823E+01 3.49999E-01
 -1      2286 1.35946E+01 5.38896E+00 3.49999E-01
 -1      2287 3.02262E+00 1.58244E+01-3.49999E-01
 -1      2288 2.19716E+00 2.98001E+00-3.49999E-01
 -1      2289-9.75762E-01-5.76980E-01-3.49999E-01
 -1      2290 5.43444E+00-4.84626E+00-3.49999E-01
 -1      2291-3.33319E+00-6.35584E+00-3.49999E-01
 -1      2292 1.11482E+01-9.70019E+00-3.49999E-01
 -1      2293 7.40175E+00 4.51393E+00-3.49999E-01
 -1      2294 8.35441E+00-1.63829E+00-3.49999E-01
 -1      2295-1.39300E+01-4.04999E+00-3.49999E-01
 -1      2296 4.92591E+00 7.37214E+00 3.49999E-01
 -1      2297-1.15782E+01 6.97885E+00 3.49999E-01
 -1      2298-7.61322E+00 1.31942E+01 3.49999E-01
 -1      2299-6.87801E+00 1.14016E+01 3.49999E-01
 -1      2300-2.92795E+00-1.58117E+01 3.49999E-01
 -1      2301-9.33212E+00 1.58533E+00-3.49999E-01
 -1      2302-2.83927E+00-1.60777E+01-3.49999E-01
 -1      2303 8.43464E+00-9.52561E+00-3.49999E-01
 -1      2304 8.31945E-02-1.03647E+01-3.49999E-01
 -1      2305-7.63412E+00 2.21907E+00-3.49999E-01
 -1      2306-1.15413E+01-1.33676E+00-3.49999E-01
 -1      2307 7.30327E+00 1.45472E+01 3.49999E-01
 -1      2308 2.18509E+00-1.41733E+01-3.49999E-01
 -1      2309 2.49142E+00-6.02579E+00-3.49999E-01
 -1      2310 1.00433E+01-2.90769E+00-3.49999E-01
 -1      2311-1.81369E-02-1.48826E+01 3.49999E-01
 -1      2312 1.13390E+01-7.53500E+00 3.49999E-01
 -1      2313-4.41067E+00-1.44166E-01-3.49999E-01
 -1      2314 4.22651E+00 5.68291E+00-3.49999E-01
 -1      2315-1.07939E+01-5.70511E+00 3.49999E-01
 -1      2316 1.06585E+01 1.10088E+01 3.49999E-01
 -1      2317-8.09066E+00-5.40601E+00 3.49999E-01
 -1      2318 1.53742E+01 2.76998E+00 3.49999E-01
 -1      2319 1.41494E+01 3.40248E+00 3.49999E-01
 -1      2320 1.00934E+01-9.25335E+00 3.49999E-01
 -1      2321-7.78256E+00 1.07972E+01 3.49999E-01
 -1      2322-2.18529E+00-5.78479E+00-3.49999E-01
 -1      2323-9.20878E+00-5.14666E+00 3.49999E-01
 -1      2324 4.32506E+00-7.27348E+00-3.49999E-01
 -1      2325 5.97674E+00-9.79628E+00-3.49999E-01
 -1      2326-2.90738E-01-7.73206E+00-3.49999E-01
 -1      2327 8.50606E-01-1.34394E+01 3.49999E-01
 -1      2328-3.42578E+00-1.36824E+01-3.49999E-01
 -1      2329-9.78837E+00-8.55711E+00-3.49999E-01
 -1      2330-1.54390E+01 4.66429E+00-3.49999E-01
 -1      2331 9.25142E+00-3.29567E+00-3.49999E-01
 -1      2332 5.87308E+00-7.73307E+00-3.49999E-01
 -1      2333-6.25196E+00-1.30196E+01-3.49999E-01
 -1      2334-7.38504E+00-9.69427E+00 3.49999E-01
 -1      2335-9.12742E+00 8.49486E+00-3.49999E-01
 -1      2336 6.53995E+00-4.39370E+00-3.49999E-01
 -1      2337-5.81664E+00-5.78546E+00-3.49999E-01
 -1      2338-4.99312E+00-7.47272E+00 3.49999E-01
 -1      2339 3.72355E+00-8.17877E+00-3.49999E-01
 -1      2340-6.96202E+00-1.43144E+01 3.49999E-01
 -1      2341-1.38348E+01-5.62248E+00-3.49999E-01
 -1      2342 1.37130E+01 3.99635E+00 3.49999E-01
 -1      2343 1.43561E+01 2.30062E+00 3.49999E-01
 -1      2344-3.34683E+00 4.94049E-01-3.49999E-01
 -1      2345-5.51929E+00 8.09738E+00-3.49999E-01
 -1      2346-5.10297E+00-1.47644E+01 3.49999E-01
 -1      2347 3.45685E+00-9.58856E+00-3.49999E-01
 -1      2348 8.21097E+00-3.03615E+00-3.49999E-01
 -1      2349-1.75335E+00 8.81468E+00 3.49999E-01
 -1      2350-8.04515E+00-3.76914E+00-3.49999E-01
 -1      2351-6.67889E+00-1.04205E+01-3.49999E-01
 -1      2352 9.29060E-01 5.50534E-01-3.49999E-01
 -1      2353-1.18530E+01-3.43965E+00-3.49999E-01
 -1      2354 3.80955E+00-4.65701E+00-3.49999E-01
 -1      2355 1.40552E+01-7.97711E+00 3.49999E-01
 -1      2356 1.32343E+01-9.38173E+00 3.49999E-01
 -1      2357 1.25111E+00-1.53723E+01-3.49999E-01
 -1      2358 1.43560E+00-1.43560E+00 3.49999E-01
 -1      2359 9.87615E+00-1.26908E+01 3.49999E-01
 -1      2360 1.18456E+01-9.41074E+00 3.49999E-01
 -1      2361-5.84408E+00-8.02332E+00-3.49999E-01
 -1      2362 9.95077E+00-5.81096E+00 3.49999E-01
 -1      2363 8.02143E+00-5.35975E+00 3.49999E-01
 -1      2364 1.39408E+01 7.65349E+00 3.49999E-01
 -1      2365 8.54669E+00-3.87248E+00-3.49999E-01
 -1      2366-5.46032E+00-9.99778E+00 3.49999E-01
 -1      2367-7.95557E+00 3.56076E+00-3.49999E-01
 -1      2368 7.53393E+00 1.21943E+00-3.49999E-01
 -1      2369 1.78538E+00 1.11705E+01-3.49999E-01
 -1      2370-1.57671E+01-3.28901E+00 3.49999E-01
 -1      2371-1.60190E+01-1.90482E+00 3.49999E-01
 -1      2372 1.24698E+00 1.24698E+00 3.49999E-01
 -1      2373-8.61588E-01-1.28942E+00 3.49999E-01
 -1      2374 0.00000E+00 1.76346E+00 3.49999E-01
 -1      2375-9.27179E+00-1.19477E+01 3.49999E-01
 -1      2376 8.78471E+00 1.35321E+01-3.49999E-01
 -1      2377 6.47265E+00-1.31775E+01-3.49999E-01
 -1      2378-2.69989E+00 1.08077E+01-3.49999E-01
 -1      2379-4.66610E+00 1.12574E+01-3.49999E-01
 -1      2380 3.46309E+00-1.13628E+01-3.49999E-01
 -1      2381 1.03504E+01 6.82945E+00-3.49999E-01
 -1      2382 1.33791E+01 6.54082E+00-3.49999E-01
 -1      2383 1.19299E+01 1.64257E-01-3.49999E-01
 -1      2384 1.11870E+01-1.16367E+01-3.49999E-01
 -1      2385 3.18340E+00-5.37310E+00-3.49999E-01
 -1      2386-4.74276E+00-1.42301E+01-3.49999E-01
 -1      2387-7.85756E+00 1.38950E+01-3.49999E-01
 -1      2388 2.42587E+00-1.14637E+01-3.49999E-01
 -1      2389-7.29734E+00 1.26739E+01-3.49999E-01
 -1      2390 8.47835E+00 9.10810E+00-3.49999E-01
 -1      2391-4.84006E+00-6.02371E+00-3.49999E-01
 -1      2392 1.15780E+01-4.59243E+00-3.49999E-01
 -1      2393-1.05703E+01 1.20048E+01-3.49999E-01
 -1      2394 1.42856E+01 7.17947E+00-3.49999E-01
 -1      2395 1.40949E+01 8.00621E+00-3.49999E-01
 -1      2396-1.20300E+01-5.85180E+00 3.49999E-01
 -1      2397 9.02881E+00-1.18055E+01-3.49999E-01
 -1      2398 4.27801E+00 1.15499E+01-3.49999E-01
 -1      2399 1.23123E+00 7.11650E+00-3.49999E-01
 -1      2400 5.17788E+00 1.49944E+01-3.49999E-01
 -1      2401 1.27644E+01 1.98761E+00-3.49999E-01
 -1      2402 1.96948E+00-1.57466E+01 3.49999E-01
 -1      2403-3.25417E+00 8.51815E+00-3.49999E-01
 -1      2404-1.18666E+00 7.28949E+00-3.49999E-01
 -1      2405 1.46903E+01 3.51296E+00-3.49999E-01
 -1      2406-2.70249E+00-1.45680E+00-3.49999E-01
 -1      2407-3.07005E+00-1.44902E+01-3.49999E-01
 -1      2408-8.21959E+00 7.01677E+00-3.49999E-01
 -1      2409 7.30302E+00-2.28743E+00-3.49999E-01
 -1      2410-1.29024E+00-1.21555E+01 3.49999E-01
 -1      2411-1.38038E+01-4.91904E+00 3.49999E-01
 -1      2412-1.91721E+00 7.72364E+00-3.49999E-01
 -1      2413-7.46619E-01 8.67100E+00-3.49999E-01
 -1      2414 1.56045E+01 3.32245E+00-3.49999E-01
 -1      2415 1.40027E+01 2.77077E+00-3.49999E-01
 -1      2416-3.98173E-01-1.10282E+01-3.49999E-01
 -1      2417-2.62114E+00 9.59475E+00-3.49999E-01
 -1      2418-9.18298E+00 5.20894E+00 3.49999E-01
 -1      2419 6.61984E+00-1.38083E+01 3.49999E-01
 -1      2420-4.03941E+00 1.17914E+01-3.49999E-01
 -1      2421 1.18653E+01 6.14951E+00-3.49999E-01
 -1      2422 4.92661E+00 6.29622E+00-3.49999E-01
 -1      2423-1.06072E+01 5.23558E+00-3.49999E-01
 -1      2424 5.69389E+00-8.77628E+00-3.49999E-01
 -1      2425-3.08858E+00-9.40085E+00-3.49999E-01
 -1      2426-1.28058E+01 7.28452E+00-3.49999E-01
 -1      2427 1.00337E+01-6.98821E+00-3.49999E-01
 -1      2428 9.35218E+00 1.02065E+01 3.49999E-01
 -1      2429 1.25352E+01 7.06881E+00-3.49999E-01
 -1      2430 1.75129E+00-2.32405E+00-3.49999E-01
 -1      2431 1.04391E+01-3.90417E+00-3.49999E-01
 -1      2432 3.20513E+00-2.31219E+00-3.49999E-01
 -1      2433 7.80060E+00-1.36982E+01-3.49999E-01
 -1      2434-5.05064E+00-3.23292E+00-3.49999E-01
 -1      2435 3.08545E+00 5.79387E+00-3.49999E-01
 -1      2436 1.70862E+00-7.31073E+00-3.49999E-01
 -1      2437-1.20778E+01 2.09381E+00-3.49999E-01
 -1      2438 3.81800E+00 1.24123E+01 3.49999E-01
 -1      2439-1.32101E+01-4.34263E-01-3.49999E-01
 -1      2440-1.12579E+01 1.19366E-01-3.49999E-01
 -1      2441-1.21817E+01-9.10364E+00 3.49999E-01
 -1      2442-1.11586E+01-9.64756E+00 3.49999E-01
 -1      2443 1.08479E+01 7.61631E+00-3.49999E-01
 -1      2444-3.90836E+00 1.25522E+01 3.49999E-01
 -1      2445 5.76625E+00-1.39025E+00-3.49999E-01
 -1      2446 8.71417E-01-1.09589E+01-3.49999E-01
 -1      2447-4.68210E+00 3.70456E+00-3.49999E-01
 -1      2448-3.29857E+00 2.74560E+00-3.49999E-01
 -1      2449-4.26647E+00 2.07015E+00-3.49999E-01
 -1      2450 5.32102E+00 4.43300E+00-3.49999E-01
 -1      2451 6.56163E-01-7.39258E+00-3.49999E-01
 -1      2452 8.73909E+00 6.63739E+00-3.49999E-01
 -1      2453 5.13972E+00-1.10146E+01-3.49999E-01
 -1      2454 1.12476E+01-3.85276E+00-3.49999E-01
 -1      2455 5.77132E+00 1.30256E+01 3.49999E-01
 -1      2456 8.81468E+00-1.75335E+00 3.49999E-01
 -1      2457-1.11777E+01-7.51958E+00 3.49999E-01
 -1      2458-1.26830E+01-6.50249E+00-3.49999E-01
 -1      2459-3.06162E+00-5.46248E+00-3.49999E-01
 -1      2460-3.27372E+00 1.24439E+01-3.49999E-01
 -1      2461 6.87143E+00-1.68040E+00-3.49999E-01
 -1      2462 2.70420E+00 8.01777E+00-3.49999E-01
 -1      2463 3.23343E-01-1.60331E+01 3.49999E-01
 -1      2464-1.45912E+00 6.39272E+00-3.49999E-01
 -1      2465 2.43850E+00-1.46782E+01 3.49999E-01
 -1      2466-1.48469E+00-1.38946E+01-3.49999E-01
 -1      2467-6.21609E+00-6.88498E+00-3.49999E-01
 -1      2468 8.16212E+00 1.00328E+01 3.49999E-01
 -1      2469-1.15766E+00-1.60041E+01 3.49999E-01
 -1      2470 4.30394E+00-9.55072E+00-3.49999E-01
 -1      2471-8.63808E+00 6.68721E+00 3.49999E-01
 -1      2472-2.13859E+00 4.41579E+00-3.49999E-01
 -1      2473 1.45000E+01-7.05305E+00-3.49999E-01
 -1      2474 1.56409E+01-2.23881E+00-3.49999E-01
 -1      2475 6.15049E+00 1.44159E+01 3.49999E-01
 -1      2476 1.15265E+00-1.40086E+01-3.49999E-01
 -1      2477-1.09097E+01-4.11383E+00-3.49999E-01
 -1      2478-1.26943E+01-9.40514E+00-3.49999E-01
 -1      2479-1.20223E+01 6.22631E+00-3.49999E-01
 -1      2480-3.58114E+00 4.63715E+00-3.49999E-01
 -1      2481-1.21815E+01-3.34359E+00 3.49999E-01
 -1      2482-9.72419E+00 1.65448E+00 3.49999E-01
 -1      2483-1.13004E+01 1.65444E+00 3.49999E-01
 -1      2484 1.35019E+01 4.62856E+00-3.49999E-01
 -1      2485-6.92021E+00-4.79284E+00-3.49999E-01
 -1      2486 7.85127E+00-6.22043E+00-3.49999E-01
 -1      2487-1.45479E+00-8.12210E+00-3.49999E-01
 -1      2488-3.10132E-02-2.97300E+00-3.49999E-01
 -1      2489 1.06528E+01 2.77739E+00-3.49999E-01
 -1      2490 2.98100E+00 1.17656E+01-3.49999E-01
 -1      2491 1.67455E+00-1.25489E+01-3.49999E-01
 -1      2492-1.04830E+01-7.87116E-01-3.49999E-01
 -1      2493 1.12518E+01 6.81021E+00-3.49999E-01
 -1      2494 1.24265E+00-9.64657E+00-3.49999E-01
 -1      2495-2.43318E+00 2.15210E+00-3.49999E-01
 -1      2496-4.57781E+00 9.78569E-01-3.49999E-01
 -1      2497 6.33827E+00 5.06775E+00-3.49999E-01
 -1      2498 8.87739E+00 7.90110E+00-3.49999E-01
 -1      2499 4.30314E+00-1.11971E+01-3.49999E-01
 -1      2500 1.25940E+01-3.69492E+00-3.49999E-01
 -1      2501 9.68914E+00-1.68986E+00 3.49999E-01
 -1      2502-1.27334E+01-9.91112E+00 3.49999E-01
 -1      2503-4.13429E+00 5.16873E+00-3.49999E-01
 -1      2504-2.79500E+00 4.94917E+00-3.49999E-01
 -1      2505-6.63043E+00-5.58045E+00-3.49999E-01
 -1      2506-6.94132E+00-3.68610E+00-3.49999E-01
 -1      2507-5.72238E+00-4.32814E+00-3.49999E-01
 -1      2508 1.05151E+01 1.68559E+00-3.49999E-01
 -1      2509 3.80068E+00-1.04346E+01-3.49999E-01
 -1      2510 1.30348E+01-2.92539E+00-3.49999E-01
 -1      2511 1.07468E+01-1.53352E+00 3.49999E-01
 -1      2512 1.18603E+01-1.58486E+00 3.49999E-01
 -1      2513 5.24436E+00-6.32670E+00-3.49999E-01
 -1      2514-2.32303E+00-2.39002E+00-3.49999E-01
 -1      2515 7.07013E+00 1.20267E+01 3.49999E-01
 -1      2516 2.08888E+00-8.21301E+00-3.49999E-01
 -1      2517-8.09418E+00 1.09088E+01-3.49999E-01
 -1      2518-1.05228E+01-1.01498E+01-3.49999E-01
 -1      2519 8.62643E+00-8.43450E+00-3.49999E-01
 -1      2520-1.02485E+00-7.47321E+00-3.49999E-01
 -1      2521 1.09830E+01 6.15972E+00 3.49999E-01
 -1      2522-6.66817E+00-8.47752E+00-3.49999E-01
 -1      2523-1.41661E+01 3.10761E+00 3.49999E-01
 -1      2524-1.13234E+00-1.35448E+01 3.49999E-01
 -1      2525-1.57159E+01 1.13143E+00 3.49999E-01
 -1      2526-1.97598E+00-1.09725E+01-3.49999E-01
 -1      2527-1.61929E+00-9.60205E+00-3.49999E-01
 -1      2528 2.12360E+00-1.33002E+01-3.49999E-01
 -1      2529-2.14455E+00 9.62680E+00 3.49999E-01
 -1      2530 1.09603E+01 3.11090E+00 3.49999E-01
 -1      2531-5.41087E+00-1.54760E+00-3.49999E-01
 -1      2532-8.84371E+00 5.37558E-01-3.49999E-01
 -1      2533 1.08788E+00-4.59693E+00-3.49999E-01
 -1      2534-5.66575E-02 4.69919E+00-3.49999E-01
 -1      2535-2.65171E-01 5.51210E+00-3.49999E-01
 -1      2536-3.96995E+00-5.67432E+00-3.49999E-01
 -1      2537 6.17030E+00 6.28668E+00-3.49999E-01
 -1      2538-5.55399E+00 4.86526E+00-3.49999E-01
 -1      2539 1.17780E+01 5.98895E+00 3.49999E-01
 -1      2540-1.04773E+01-1.21890E+00 3.49999E-01
 -1      2541 3.43871E+00 1.39171E+01 3.49999E-01
 -1      2542 1.34489E+01-6.05487E+00-3.49999E-01
 -1      2543 1.51071E+01-5.88865E+00-3.49999E-01
 -1      2544-6.11074E+00-8.04349E+00 3.49999E-01
 -1      2545-7.02031E+00 4.09592E+00-3.49999E-01
 -1      2546-5.89778E+00-1.00945E+01-3.49999E-01
 -1      2547-8.83667E+00 1.75773E+00 3.49999E-01
 -1      2548-1.01199E+01-8.83392E+00 3.49999E-01
 -1      2549-9.72846E+00 9.07116E+00 3.49999E-01
 -1      2550 1.20495E+01 3.29703E+00 3.49999E-01
 -1      2551-7.29480E+00 1.24178E+01 3.49999E-01
 -1      2552 9.01602E+00 1.26162E+00-3.49999E-01
 -1      2553 8.79996E+00-5.06153E+00 3.49999E-01
 -1      2554 8.93489E+00 7.06901E+00 3.49999E-01
 -1      2555 6.44190E+00 9.33317E+00-3.49999E-01
 -1      2556-7.26008E+00-1.44664E+01-3.49999E-01
 -1      2557 6.78770E+00-4.53540E+00 3.49999E-01
 -1      2558-6.08438E+00 2.67742E+00-3.49999E-01
 -1      2559 9.09716E+00-7.48472E+00-3.49999E-01
 -1      2560-3.86773E+00-3.92089E+00-3.49999E-01
 -1      2561 1.38557E+01-4.40936E+00-3.49999E-01
 -1      2562-7.18984E+00-8.96131E-01-3.49999E-01
 -1      2563 8.07194E-01-1.24933E+00-3.49999E-01
 -1      2564 1.56440E+01-2.12392E+00 3.49999E-01
 -1      2565 1.34749E+01-4.71190E+00 3.49999E-01
 -1      2566 5.68765E+00 4.92339E-01-3.49999E-01
 -1      2567 1.44363E+00 1.13164E+01 3.49999E-01
 -1      2568 7.16949E+00-5.32581E+00-3.49999E-01
 -1      2569 1.31013E+01-2.27237E+00 3.49999E-01
 -1      2570 1.07784E+01 5.75536E+00-3.49999E-01
 -1      2571-1.18548E+01-8.27579E+00 3.49999E-01
 -1      2572 3.65253E-01 8.81730E-01 3.49999E-01
 -1      2573 3.63533E-01-1.82750E+00 3.49999E-01
 -1      2574 9.36364E+00-1.19896E+01 3.49999E-01
 -1      2575-3.55528E+00-4.73906E+00-3.49999E-01
 -1      2576 1.05495E+01-7.83070E+00-3.49999E-01
 -1      2577 2.31200E+00 9.86094E-01-3.49999E-01
 -1      2578-2.23784E+00-7.56696E+00-3.49999E-01
 -1      2579-4.14468E+00-3.03614E+00-3.49999E-01
 -1      2580-4.32414E+00 7.31413E+00-3.49999E-01
 -1      2581-9.37128E+00 2.57804E+00-3.49999E-01
 -1      2582-2.75874E+00 3.27959E+00-3.49999E-01
 -1      2583 3.32122E+00-6.21238E+00-3.49999E-01
 -1      2584 1.21830E+01-5.20419E+00-3.49999E-01
 -1      2585 1.01381E+01 6.41058E+00 3.49999E-01
 -1      2586 1.08473E+01-1.99844E-01-3.49999E-01
 -1      2587 3.05318E+00-1.32437E+01-3.49999E-01
 -1      2588 5.08580E+00-4.03191E+00-3.49999E-01
 -1      2589-4.15834E+00-1.76496E+00-3.49999E-01
 -1      2590-4.77369E+00-4.11766E+00-3.49999E-01
 -1      2591-8.26001E+00-2.04928E+00-3.49999E-01
 -1      2592 2.34219E+00-9.32909E+00-3.49999E-01
 -1      2593 9.63624E+00 8.39400E+00-3.49999E-01
 -1      2594-6.87810E+00-1.15352E+01-3.49999E-01
 -1      2595-3.44858E+00-1.16560E+01-3.49999E-01
 -1      2596 1.06638E+01 4.23870E+00-3.49999E-01
 -1      2597-1.40662E+00-5.21634E+00-3.49999E-01
 -1      2598-4.13856E+00-1.21126E+01-3.49999E-01
 -1      2599 4.62152E+00 1.17544E+00-3.49999E-01
 -1      2600 9.29111E+00-5.04115E+00-3.49999E-01
 -1      2601 3.03613E+00-1.40979E+01-3.49999E-01
 -1      2602 3.53479E+00 2.55270E+00-3.49999E-01
 -1      2603 6.74132E+00 9.07289E-01-3.49999E-01
 -1      2604 6.49062E+00 7.42410E+00-3.49999E-01
 -1      2605-6.01909E-01 6.30523E+00-3.49999E-01
 -1      2606-8.43584E+00-4.60113E+00-3.49999E-01
 -1      2607-3.78531E+00 1.10559E+01-3.49999E-01
 -1      2608-1.62475E+00 9.44162E+00-3.49999E-01
 -1      2609 1.08508E+01 1.44418E+00 3.49999E-01
 -1      2610-1.97709E+00 1.12793E+01-3.49999E-01
 -1      2611 1.32984E+01 1.74718E+00 3.49999E-01
 -1      2612-4.15096E+00-6.48168E+00-3.49999E-01
 -1      2613-3.48787E-01-1.30831E+01-3.49999E-01
 -1      2614 4.86887E+00 3.87971E-01-3.49999E-01
 -1      2615 3.98778E+00 1.79276E+00-3.49999E-01
 -1      2616 1.12967E+01-1.55394E+00-3.49999E-01
 -1      2617 8.28822E+00-1.17715E+01-3.49999E-01
 -1      2618-3.98868E-01 1.89633E+00-3.49999E-01
 -1      2619-5.05963E+00 3.08427E+00-3.49999E-01
 -1      2620-5.38085E+00 8.05300E+00 3.49999E-01
 -1      2621-1.18207E+00-1.62519E+01-3.49999E-01
 -1      2622-7.11729E+00 1.41993E+01 3.49999E-01
 -1      2623 1.10723E+01-5.69751E+00-3.49999E-01
 -1      2624-4.80259E+00-7.97817E+00-3.49999E-01
 -1      2625 3.41595E-01-1.62184E+01-3.49999E-01
 -1      2626 8.69265E+00-1.10446E+01-3.49999E-01
 -1      2627 1.47737E+01 1.46868E+00 3.49999E-01
 -1      2628 9.00698E+00-1.02098E+01-3.49999E-01
 -1      2629-1.39239E+00-1.00231E+01 3.49999E-01
 -1      2630 1.34922E+01-3.26202E+00 3.49999E-01
 -1      2631 1.60393E+00-3.99217E-01-3.49999E-01
 -1      2632 1.85805E+00-3.69460E+00-3.49999E-01
 -1      2633 1.56296E+01-3.28302E+00-3.49999E-01
 -1      2634 1.50243E+01-4.60438E+00 3.49999E-01
 -1      2635-6.70541E+00 1.33711E+01 3.49999E-01
 -1      2636 5.05091E+00-1.29966E+01-3.49999E-01
 -1      2637-1.44015E+01-1.98234E+00 3.49999E-01
 -1      2638-3.61271E-01 1.90164E-01-3.49999E-01
 -1      2639-3.01068E+00-3.57240E+00-3.49999E-01
 -1      2640 1.39350E+01 1.60192E-01 3.49999E-01
 -1      2641-8.80510E+00 9.49045E+00-3.49999E-01
 -1      2642-7.34140E+00-1.82863E+00-3.49999E-01
 -1      2643 6.74929E+00-1.14456E+01-3.49999E-01
 -1      2644 7.23629E+00-6.96155E+00-3.49999E-01
 -1      2645 1.43553E+01-5.25565E+00-3.49999E-01
 -1      2646-7.58157E+00 3.22751E-01-3.49999E-01
 -1      2647 5.69632E+00-8.06903E+00 3.49999E-01
 -1      2648 5.64664E+00-9.90991E+00 3.49999E-01
 -1      2649-3.37032E+00-1.89477E+00-3.49999E-01
 -1      2650-3.35792E+00-1.01644E+01-3.49999E-01
 -1      2651 7.02367E-01-3.66512E+00-3.49999E-01
 -1      2652-8.00665E+00 1.59262E+00 3.49999E-01
 -1      2653-6.27697E+00 5.20053E+00-3.49999E-01
 -1      2654-6.15611E+00 4.23082E+00-3.49999E-01
 -1      2655-7.92421E+00 4.59076E+00-3.49999E-01
 -1      2656-7.96657E+00-1.24845E+00-3.49999E-01
 -1      2657-1.59262E+00-8.00665E+00 3.49999E-01
 -1      2658-9.39217E+00 4.57688E+00-3.49999E-01
 -1      2659 2.21264E+00-4.77711E+00-3.49999E-01
 -1      2660 5.96789E+00-3.75956E+00-3.49999E-01
 -1      2661 2.36870E+00-1.13188E+01 3.49999E-01
 -1      2662-6.12664E+00-1.27795E+01 3.49999E-01
 -1      2663-2.95257E+00-1.23023E+01-3.49999E-01
 -1      2664-4.17783E+00 9.29862E+00-3.49999E-01
 -1      2665-1.15729E+01-9.75502E+00-3.49999E-01
 -1      2666 3.33129E+00-1.19471E+01 3.49999E-01
 -1      2667-5.51148E+00 1.06874E+00-3.49999E-01
 -1      2668-1.57824E+00-2.74223E+00-3.49999E-01
 -1      2669-6.64894E-01-1.00296E+01-3.49999E-01
 -1      2670-8.86479E-01 3.32282E+00-3.49999E-01
 -1      2671-1.85515E+00-9.85432E-01-3.49999E-01
 -1      2672 4.32783E+00-1.57019E+01-3.49999E-01
 -1      2673 1.16632E+01-2.36771E+00-3.49999E-01
 -1      2674-6.36839E+00 1.66992E+00-3.49999E-01
 -1      2675 1.04272E+01 5.01923E+00-3.49999E-01
 -1      2676 1.02678E+01-1.05474E+01-3.49999E-01
 -1      2677-1.29330E+01 5.80125E+00 3.49999E-01
 -1      2678-3.77406E+00-1.54689E+01-3.49999E-01
 -1      2679-5.91762E-01-6.55143E+00-3.49999E-01
 -1      2680 5.85370E-01 1.03979E+01-3.49999E-01
 -1      2681 1.61126E+01 5.03141E-01 3.49999E-01
 -1      2682 9.48975E+00 7.19466E+00-3.49999E-01
 -1      2683 1.07757E+01-5.74922E+00 3.49999E-01
 -1      2684-4.67334E+00-1.01510E+00-3.49999E-01
 -1      2685 8.71954E+00-7.53249E-01-3.49999E-01
 -1      2686 8.28442E+00 7.32658E+00-3.49999E-01
 -1      2687-1.51891E+01-2.69027E+00-3.49999E-01
 -1      2688 4.47199E+00-8.02358E+00-3.49999E-01
 -1      2689 1.79834E+00-6.48447E+00-3.49999E-01
 -1      2690 8.36376E+00 5.39092E+00-3.49999E-01
 -1      2691-1.01569E+01-5.37410E+00-3.49999E-01
 -1      2692 3.26857E+00 6.68634E+00-3.49999E-01
 -1      2693 1.43945E+01 2.04235E+00-3.49999E-01
 -1      2694 1.04764E+00-1.43287E+01 3.49999E-01
 -1      2695 9.60256E+00 6.24829E+00-3.49999E-01
 -1      2696 2.69116E+00-1.50442E+01-3.49999E-01
 -1      2697 1.67931E+00-5.55164E+00-3.49999E-01
 -1      2698 1.42637E+01-2.41684E+00-3.49999E-01
 -1      2699-9.60298E+00-1.56403E+00-3.49999E-01
 -1      2700 8.24593E+00 2.26076E+00-3.49999E-01
 -1      2701-5.95608E+00-1.49042E+01-3.49999E-01
 -1      2702 8.20518E+00 8.34832E+00-3.49999E-01
 -1      2703 1.20755E+01-2.42053E+00 3.49999E-01
 -1      2704 5.43155E-01-5.48523E+00-3.49999E-01
 -1      2705 7.34374E+00 6.57003E+00-3.49999E-01
 -1      2706 6.03507E+00 1.15540E+00-3.49999E-01
 -1      2707-5.75057E+00 1.46519E+01-3.49999E-01
 -1      2708 1.28416E+01-3.97930E+00 3.49999E-01
 -1      2709 1.00845E+01-4.69422E+00-3.49999E-01
 -1      2710 6.21929E+00-5.38517E+00-3.49999E-01
 -1      2711-2.95911E+00-1.07618E+01 3.49999E-01
 -1      2712-7.38072E-01 1.09591E+01-3.49999E-01
 -1      2713-1.16738E+00-5.98653E+00-3.49999E-01
 -1      2714-1.32292E+00-1.29203E+01-3.49999E-01
 -1      2715 9.12437E+00 5.18881E+00 3.49999E-01
 -1      2716 3.50064E+00-6.91553E-01-3.49999E-01
 -1      2717 4.43979E+00-7.00744E-01-3.49999E-01
 -1      2718-3.60265E+00-8.48409E-01-3.49999E-01
 -1      2719 4.66013E-01-2.40579E+00-3.49999E-01
 -1      2720-1.02908E+01 1.61657E-01-3.49999E-01
 -1      2721-5.22517E+00 1.47714E+01 3.49999E-01
 -1      2722-7.41133E-01-1.40721E+00-3.49999E-01
 -1      2723 1.68502E-01-6.22356E+00-3.49999E-01
 -1      2724 6.76892E+00 3.18183E+00-3.49999E-01
 -1      2725 7.47272E+00 4.99312E+00 3.49999E-01
 -1      2726-3.73292E+00-1.57159E+01 3.49999E-01
 -1      2727 1.01057E+01-5.98295E+00-3.49999E-01
 -1      2728 9.79449E+00-7.66852E+00-3.49999E-01
 -1      2729-8.10290E-01 1.16320E+00-3.49999E-01
 -1      2730-1.84050E+00-9.25282E+00 3.49999E-01
 -1      2731 1.36667E+00-1.00086E+01 3.49999E-01
 -1      2732 3.03813E+00 1.91640E+00-3.49999E-01
 -1      2733-1.09864E+01-4.90434E+00-3.49999E-01
 -1      2734-8.76341E-01-1.47612E+01-3.49999E-01
 -1      2735-9.09770E+00-4.26344E+00-3.49999E-01
 -1      2736 1.49311E+01 3.41394E+00 3.49999E-01
 -1      2737 1.58329E+01 3.49693E+00 3.49999E-01
 -1      2738 7.16830E+00-9.32137E+00-3.49999E-01
 -1      2739-7.11663E+00-1.34260E+01-3.49999E-01
 -1      2740-3.09876E+00-1.09287E+01-3.49999E-01
 -1      2741 7.02171E+00-9.19829E+00 3.49999E-01
 -1      2742-8.61796E+00 6.31457E+00-3.49999E-01
 -1      2743-4.54597E+00 1.02471E+01-3.49999E-01
 -1      2744-6.37369E+00-1.70491E+00-3.49999E-01
 -1      2745 4.37699E+00-1.34351E+01-3.49999E-01
 -1      2746-1.34391E+00-1.12274E+01 3.49999E-01
 -1      2747-7.01250E-01-8.43895E+00-3.49999E-01
 -1      2748 7.95294E+00 3.43571E+00-3.49999E-01
 -1      2749-6.78771E+00-4.53540E+00 3.49999E-01
 -1      2750 2.56747E+00-9.76970E+00 3.49999E-01
 -1      2751-6.37480E+00 8.47321E+00-3.49999E-01
 -1      2752-2.64545E+00 4.85982E-01-3.49999E-01
 -1      2753 5.71867E+00-1.34259E+01-3.49999E-01
 -1      2754-3.59541E+00-7.61371E+00-3.49999E-01
 -1      2755-5.47035E+00 9.37042E+00-3.49999E-01
 -1      2756-5.74551E+00 1.24044E+01-3.49999E-01
 -1      2757-7.21732E+00 1.44598E+01-3.49999E-01
 -1      2758 1.57586E+00-5.72512E-01 3.49999E-01
 -1      2759 1.99007E+00-1.59556E+01-3.49999E-01
 -1      2760 2.05845E+00-1.04092E+01-3.49999E-01
 -1      2761 3.05689E+00-8.78277E+00-3.49999E-01
 -1      2762-1.27814E+01-2.97717E+00-3.49999E-01
 -1      2763-4.16621E+00-8.66187E+00-3.49999E-01
 -1      2764 1.12384E+01-8.87097E+00 3.49999E-01
 -1      2765 8.04385E+00-6.19315E+00 3.49999E-01
 -1      2766-5.57615E+00-2.67736E-01-3.49999E-01
 -1      2767 1.85491E+00 1.03856E+01-3.49999E-01
 -1      2768 7.91787E+00-5.46258E+00-3.49999E-01
 -1      2769-1.58922E+00-1.06190E+00 3.49999E-01
 -1      2770-5.74935E+00-2.50111E+00-3.49999E-01
 -1      2771-5.48794E+00 1.23819E+01 3.49999E-01
 -1      2772 1.29112E+01 1.12558E+00 3.49999E-01
 -1      2773-2.29266E+00 1.12752E+01 3.49999E-01
 -1      2774 3.28162E+00-1.21955E+01-3.49999E-01
 -1      2775-1.07642E+01 1.19861E+01 3.49999E-01
 -1      2776 1.22061E+00 6.14531E+00-3.49999E-01
 -1      2777-2.44935E+00-1.37346E+01-3.49999E-01
 -1      2778-1.86241E+00 5.72145E+00-3.49999E-01
 -1      2779-8.97083E+00-3.16581E+00-3.49999E-01
 -1      2780 1.21954E+01 1.42310E+00-3.49999E-01
 -1      2781-1.99192E+00-1.47257E+01-3.49999E-01
 -1      2782-7.45398E+00-4.24945E+00-3.49999E-01
 -1      2783 8.04477E+00-2.31280E+00-3.49999E-01
 -1      2784-4.05644E-01 7.80156E+00-3.49999E-01
 -1      2785-1.25911E+01-8.38045E+00 3.49999E-01
 -1      2786 1.22847E+01 5.21965E+00-3.49999E-01
 -1      2787-7.71743E+00-2.85485E+00-3.49999E-01
 -1      2788-6.19295E+00 1.03848E+01-3.49999E-01
 -1      2789 9.04619E+00-6.95771E+00 3.49999E-01
 -1      2790-1.33154E+01-7.05223E-01 3.49999E-01
 -1      2791 2.76922E+00-1.00186E+01-3.49999E-01
 -1      2792 4.24638E-03-4.54359E+00-3.49999E-01
 -1      2793-4.09446E-01-1.56247E+01 3.49999E-01
 -1      2794-1.04026E+01-7.95085E+00 3.49999E-01
 -1      2795-4.95904E+00 1.28226E+01-3.49999E-01
 -1      2796 3.13306E+00-1.55633E+01 3.49999E-01
 -1      2797 1.43133E+01-3.82439E+00-3.49999E-01
 -1      2798-1.36230E+00 4.72893E+00-3.49999E-01
 -1      2799 1.40448E+01-5.27638E+00 3.49999E-01
 -1      2800 6.46091E+00 1.48289E+01-3.49999E-01
 -1      2801-1.04866E+01-3.06602E+00-3.49999E-01
 -1      2802-1.31639E+01-3.32350E+00 3.49999E-01
 -1      2803-1.11332E+01-2.93103E+00 3.49999E-01
 -1      2804-6.48325E-01-2.34575E+00-3.49999E-01
 -1      2805-9.74081E+00-1.58625E+00 3.49999E-01
 -1      2806 8.42536E+00 4.35721E+00-3.49999E-01
 -1      2807 4.73252E-01-9.03518E+00-3.49999E-01
 -1      2808 5.68322E+00-3.24368E-01-3.49999E-01
 -1      2809-6.16543E+00-4.96226E+00-3.49999E-01
 -1      2810-5.34028E+00 1.06649E+01-3.49999E-01
 -1      2811 5.92666E+00-6.86540E+00-3.49999E-01
 -1      2812 3.19797E+00-1.10998E+01 3.49999E-01
 -1      2813-5.90307E+00-8.89100E+00-3.49999E-01
 -1      2814-1.62394E+00-1.28971E+01 3.49999E-01
 -1      2815-1.90384E+00-8.82131E+00-3.49999E-01
 -1      2816 6.91637E+00 5.76845E+00-3.49999E-01
 -1      2817 1.52760E+01-4.98750E+00-3.49999E-01
 -1      2818-6.23067E+00 3.44902E+00-3.49999E-01
 -1      2819 8.98355E+00 4.90916E+00-3.49999E-01
 -1      2820 9.27808E+00-6.69441E+00-3.49999E-01
 -1      2821 8.28559E+00 6.44416E+00 3.49999E-01
 -1      2822 9.77895E+00 7.67512E+00 3.49999E-01
 -1      2823-6.22174E+00 8.08074E+00 3.49999E-01
 -1      2824 1.08507E+01-4.92784E+00-3.49999E-01
 -1      2825 5.95327E+00 2.57523E+00-3.49999E-01
 -1      2826 1.15112E+01 5.43033E+00-3.49999E-01
 -1      2827 1.14310E+01-7.94812E+00-3.49999E-01
 -1      2828 2.51864E+00-3.37960E+00-3.49999E-01
 -1      2829-9.44652E+00 3.38815E+00-3.49999E-01
 -1      2830-4.75568E+00-2.40704E+00-3.49999E-01
 -1      2831 3.50184E+00-7.04689E+00-3.49999E-01
 -1      2832 3.84746E+00 3.29380E+00-3.49999E-01
 -1      2833-7.11670E+00 1.12396E+00-3.49999E-01
 -1      2834-1.34782E+01-3.35340E+00-3.49999E-01
 -1      2835 1.10339E+01 3.50520E+00-3.49999E-01
 -1      2836-4.35423E+00-7.28329E+00-3.49999E-01
 -1      2837-5.85332E+00 1.36644E+01-3.49999E-01
 -1      2838-1.02530E+01-4.57654E+00-3.49999E-01
 -1      2839 7.89112E+00-8.86767E+00-3.49999E-01
 -1      2840-8.31266E-01 9.46018E+00-3.49999E-01
 -1      2841 1.13289E+01 1.44263E+00-3.49999E-01
 -1      2842 2.73563E-01-1.24880E+01-3.49999E-01
 -1      2843-4.92171E+00 7.36586E+00 3.49999E-01
 -1      2844-7.97936E+00 1.40447E+01 3.49999E-01
 -1      2845 6.04143E+00 3.30836E+00-3.49999E-01
 -1      2846 8.13472E+00-1.03580E+01-3.49999E-01
 -1      2847 2.30470E+00-9.37264E-01-3.49999E-01
 -1      2848 1.57636E+01-3.47592E+00 3.49999E-01
 -1      2849 5.66024E+00-1.23154E+01-3.49999E-01
 -1      2850 9.75871E+00 4.39041E+00-3.49999E-01
 -1      2851-2.90926E+00-1.30884E+01-3.49999E-01
 -1      2852-3.37407E+00 9.31305E+00-3.49999E-01
 -1      2853-5.13956E+00 9.21172E+00 3.49999E-01
 -1      2854 8.06277E+00 6.16129E+00-3.49999E-01
 -1      2855 5.78558E+00 1.85330E+00-3.49999E-01
 -1      2856 1.00672E+01 7.73274E+00-3.49999E-01
 -1      2857 3.71952E+00 7.35718E+00-3.49999E-01
 -1      2858 2.93909E+00-1.58836E+01-3.49999E-01
 -1      2859-1.16330E+00 1.17901E+01-3.49999E-01
 -1      2860-5.06998E+00 1.52784E+01-3.49999E-01
 -1      2861 1.50074E+01-2.75408E+00-3.49999E-01
 -1      2862 7.34478E+00 2.11284E+00-3.49999E-01
 -1      2863 1.16545E+01 4.43134E+00-3.49999E-01
 -1      2864-3.38243E+00-1.14063E+01 3.49999E-01
 -1      2865-2.14139E+00-1.26209E+01-3.49999E-01
 -1      2866 3.19903E+00 2.23460E-01-3.49999E-01
 -1      2867-2.85195E+00-7.07808E-01-3.49999E-01
 -1      2868-9.72408E+00-4.47045E-01-3.49999E-01
 -1      2869-6.15950E+00 1.44465E+01 3.49999E-01
 -1      2870-4.76152E+00 1.54126E+01 3.49999E-01
 -1      2871-1.43204E+00 3.44366E-01-3.49999E-01
 -1      2872-6.63422E+00 1.18896E+01-3.49999E-01
 -1      2873-6.45707E+00 1.29098E+01-3.49999E-01
 -1      2874 8.98181E+00 3.06827E+00-3.49999E-01
 -1      2875 1.84067E+00-9.25368E+00 3.49999E-01
 -1      2876-6.45740E+00 1.43531E+01-3.49999E-01
 -1      2877 1.01355E+01 3.51200E+00-3.49999E-01
 -1      2878 1.18476E+01-8.24507E+00 3.49999E-01
 -1      2879-3.38490E+00-8.67774E+00-3.49999E-01
 -1      2880-5.05070E+00 3.34361E-01-3.49999E-01
 -1      2881-6.29460E+00-8.08921E-01-3.49999E-01
 -1      2882 4.08807E+00-1.20059E+01-3.49999E-01
 -1      2883-6.02200E+00-3.41885E+00-3.49999E-01
 -1      2884-9.10765E+00-2.29418E+00-3.49999E-01
 -1      2885 2.10483E+00 6.28250E+00-3.49999E-01
 -1      2886 1.20678E+01-8.52630E+00-3.49999E-01
 -1      2887 6.55020E+00-7.33939E+00-3.49999E-01
 -1      2888-6.05243E+00 1.08460E+01 3.49999E-01
 -1      2889-1.13321E+01-2.65931E+00-3.49999E-01
 -1      2890-1.01463E+01-2.88340E+00 3.49999E-01
 -1      2891-8.84649E-01-3.08024E+00-3.49999E-01
 -1      2892 2.81936E+00-4.08905E-01-3.49999E-01
 -1      2893-5.51324E+00 1.15416E+01-3.49999E-01
 -1      2894 7.56685E+00 5.29896E+00-3.49999E-01
 -1      2895 7.25297E+00-7.80366E+00-3.49999E-01
 -1      2896 4.08395E+00-6.54075E+00-3.49999E-01
 -1      2897 4.46947E+00 2.59487E+00-3.49999E-01
 -1      2898 1.16716E+01 1.30504E+00 3.49999E-01
 -1      2899-4.51084E-01-1.23532E+01-3.49999E-01
 -1      2900 6.55392E+00 4.10033E+00-3.49999E-01
 -1      2901 1.49479E+01-3.74791E+00 3.49999E-01
 -1      2902 5.87569E+00-1.20019E+01 3.49999E-01
 -1      2903-5.88688E+00 9.85077E+00 3.49999E-01
 -1      2904-1.62926E+00 6.74859E-01 3.49999E-01
 -1      2905-6.93866E+00 1.10811E+01-3.49999E-01
 -1      2906 9.10419E+00 3.88569E+00-3.49999E-01
 -1      2907 1.62976E+00-8.92448E+00-3.49999E-01
 -1      2908 4.96168E+00 1.92974E+00-3.49999E-01
 -1      2909 5.21561E+00 2.62403E+00-3.49999E-01
 -1      2910-8.17411E-01-1.97341E+00 3.49999E-01
 -1      2911 2.21221E+00-3.32339E-01-3.49999E-01
 -1      2912-1.78473E+00 2.30610E+00-3.49999E-01
 -1      2913-1.66022E+00-3.15243E-01-3.49999E-01
 -1      2914 2.55905E-01 2.64179E+00-3.49999E-01
 -1      2915 5.78632E-01-3.00584E+00-3.49999E-01
 -1      2916 2.36815E+00-1.89904E+00-3.49999E-01
 -1      2917-1.11406E+00 1.66729E+00 3.49999E-01
 -1      2918-2.04446E+00-1.64241E+00-3.49999E-01
 -1      2919-7.75586E-01 2.35441E+00-3.49999E-01
 -1      2920 2.86706E-01-2.75003E+00-3.49999E-01
 -1      2921-2.30898E+00-6.86584E-01-3.49999E-01
 -1      2922 3.08657E-01 1.93516E+00-3.49999E-01
 -1      2923-1.90678E+00-1.27408E+00 3.49999E-01
 -1      2924 1.05235E+00-1.95021E+00-3.49999E-01
 -1      2925 8.74859E-01 1.78718E+00-3.49999E-01
 -1      2926 7.71061E-01 1.86151E+00 3.49999E-01
 -1      2927 1.34813E+00 2.02972E+00-3.49999E-01
 -1      2928-2.59095E+00-4.29005E-01-3.49999E-01
 -1      2929 1.84645E+00-1.05943E+00 3.49999E-01
 -1      2930 1.85749E+00 7.91356E-01 3.49999E-01
 -1      2931 1.73405E+00 4.07888E-01-3.49999E-01
 -1      2932 4.42702E-01-2.22556E+00 3.49999E-01
 -1      2933-2.77943E+00 1.58772E+00-3.49999E-01
 -1      2934-4.17373E-01 2.09821E+00 3.49999E-01
 -1      2935 3.44088E-01 2.13838E+00 3.49999E-01
 -1      2936 1.98807E+00 1.49563E+00-3.49999E-01
 -1      2937-1.81457E+00-2.27840E+00-3.49999E-01
 -1      2938-3.13668E-01 2.35034E+00-3.49999E-01
 -1      2939-1.77878E+00 1.18856E+00 3.49999E-01
 -1      2940-1.56472E+00 1.09058E+00-3.49999E-01
 -1      2941 2.50104E+00 3.08794E-01-3.49999E-01
 -1      2942-2.04153E+00 3.91321E-01-3.49999E-01
 -1      2943-4.85890E-01-2.80328E+00-3.49999E-01
 -1      2944-4.36067E-01-2.19220E+00 3.49999E-01
 -1      2945-1.30377E+00-1.66140E+00 3.49999E-01
 -1      2946 2.05455E+00 0.00000E+00 3.49999E-01
 -1      2947 2.48688E+00-5.99879E-01-3.49999E-01
 -1      2948-1.34680E+00 2.27861E+00-3.49999E-01
 -1      2949-1.96671E+00-3.91219E-01 3.49999E-01
 -1      2950-1.24357E-01-2.41733E+00-3.49999E-01
 -1      2951-2.28014E+00-1.21874E+00-3.49999E-01
 -1      2952 2.49423E+00-1.40774E+00-3.49999E-01
 -1      2953-1.10844E+00 2.05540E+00 3.49999E-01
 -1      2954 1.83642E+00-3.00685E+00-3.49999E-01
 -1      2955 2.05600E+00-1.31086E+00-3.49999E-01
 -1      2956-2.47453E+00-1.90787E+00-3.49999E-01
 -1      2957 6.63889E-01 2.73991E+00-3.49999E-01
 -1      2958 5.95536E-01-2.69207E+00-3.49999E-01
 -1      2959-2.38138E+00-1.57766E+00-3.49999E-01
 -1      2960 4.70829E-01 2.30255E+00-3.49999E-01
 -1      2961 1.23050E+00 1.84155E+00 3.49999E-01
 -1      2962 2.09394E+00-6.03251E-01 3.49999E-01
 -1      2963 2.57220E+00 1.55854E+00-3.49999E-01
 -1      2964 2.91031E+00 7.59106E-01-3.49999E-01
 -1      2965 9.78479E-01-1.84742E+00 3.49999E-01
 -1      2966 1.49269E+00-1.96723E+00-3.49999E-01
 -1      2967-1.39625E+00-2.35737E+00-3.49999E-01
 -1      2968-2.99024E+00 1.00307E+00-3.49999E-01
 -1      2969-2.23973E+00 1.64501E+00-3.49999E-01
 -1      2970 2.86507E+00 3.89084E-01-3.49999E-01
 -1      2971 1.75064E+00 1.28501E+00 3.49999E-01
 -1      2972-2.29545E+00-4.56602E-01 3.49999E-01
 -1      2973-1.71309E+00 2.76484E+00-3.49999E-01
 -1      2974-2.46148E+00-4.89623E-01 3.49999E-01
 -1      2975 2.16592E+00 4.47944E-01 3.49999E-01
 -1      2976-1.17899E+00-2.00196E+00 3.49999E-01
 -1      2977-2.06231E+00 2.37500E-01 3.49999E-01
 -1      2978 1.96891E+00-2.64067E+00 9.48279E-01
 -1      2979-2.30357E+00 4.58217E-01 3.49999E-01
 -1      2980 4.82557E-01-2.42595E+00 3.49999E-01
 -1      2981 1.97967E+00-1.32278E+00 3.49999E-01
 -1      2982-4.69761E-01 2.36162E+00 3.49999E-01
 -1      2983 1.67655E+00-2.80631E+00 9.16972E-01
 -1      2984 1.35892E+00 2.03376E+00 3.49999E-01
 -1      2985 1.67655E+00 2.80631E+00 9.16972E-01
 -1      2986 1.19031E+00 2.79544E+00-3.49999E-01
 -1      2987 2.07899E+00 1.11821E+00 3.49999E-01
 -1      2988 3.19313E+00-8.08500E-01 9.48278E-01
 -1      2989 2.80631E+00-1.67655E+00 9.16972E-01
 -1      2990-2.80631E+00-1.67655E+00 9.16972E-01
 -1      2991-1.93823E+00 1.32396E+00-3.49999E-01
 -1      2992-2.06679E+00-1.38099E+00 3.49999E-01
 -1      2993-4.79198E-01-2.40906E+00 3.49999E-01
 -1      2994-8.08500E-01 3.19313E+00 9.48278E-01
 -1      2995-3.32118E+00-4.74999E-01 1.02500E+00
 -1      2996 2.39713E+00 4.76824E-01 3.49999E-01
 -1      2997-3.05634E+00-7.51840E-01 8.56249E-01
 -1      2998-2.42963E+00-1.00722E+00 8.54088E-01
 -1      2999 2.30167E+00-2.86777E-01 3.49999E-01
 -1      3000-1.40393E+00 1.86558E+00 3.49999E-01
 -1      3001 1.37488E+00-1.82782E+00 3.49999E-01
 -1      3002-4.74999E-01 3.23428E+00 9.16972E-01
 -1      3003 1.96891E+00 2.64067E+00 9.48279E-01
 -1      3004-2.64067E+00-1.96891E+00 9.48279E-01
 -1      3005 1.18842E+00-2.07515E+00 3.49999E-01
 -1      3006-1.45708E+00-1.91071E+00 3.49999E-01
 -1      3007 1.85978E+00-1.85978E+00 8.54628E-01
 -1      3008-3.00171E+00 5.64603E-03-3.49999E-01
 -1      3009 6.82386E-01 2.26805E+00 3.49999E-01
 -1      3010 1.00580E+00-2.43022E+00 8.54088E-01
 -1      3011-2.46563E+00 4.90447E-01 3.49999E-01
 -1      3012-1.96891E+00 2.64067E+00 9.48279E-01
 -1      3013 1.99612E+00 1.36167E+00 3.49999E-01
 -1      3014-2.63013E+00 7.67997E-04 8.54088E-01
 -1      3015 2.35003E+00-5.44939E-01 3.49999E-01
 -1      3016 1.00651E+00 2.42992E+00 8.53008E-01
 -1      3017-1.67655E+00 2.80631E+00 9.16972E-01
 -1      3018 8.08500E-01-3.19313E+00 9.48278E-01
 -1      3019-4.74999E-01-3.23428E+00 9.16972E-01
 -1      3020 2.42992E+00-1.00651E+00 8.54629E-01
 -1      3021 3.23428E+00 4.74999E-01 9.16972E-01
 -1      3022 7.67997E-04 2.63013E+00 8.54088E-01
 -1      3023-2.00209E+00 1.33776E+00 3.49999E-01
 -1      3024 1.86033E+00 1.85924E+00 8.54088E-01
 -1      3025 7.05744E-01-2.94505E+00 7.06511E-01
 -1      3026 2.81639E+00-1.00455E+00-3.49999E-01
 -1      3027 2.63013E+00 7.67997E-04 8.54088E-01
 -1      3028-1.32502E+00 2.06765E+00 3.49999E-01
 -1      3029 1.39228E+00-2.03488E+00 3.49999E-01
 -1      3030-1.85978E+00 1.85978E+00 8.53007E-01
 -1      3031-3.23428E+00 4.74999E-01 9.16972E-01
 -1      3032-2.97379E+00 4.74999E-01 6.92750E-01
 -1      3033-1.35736E+00-2.07617E+00 3.49999E-01
 -1      3034 3.23428E+00-4.74999E-01 9.16972E-01
 -1      3035 4.74999E-01 3.23428E+00 9.16972E-01
 -1      3036-3.19313E+00 8.08500E-01 9.48278E-01
 -1      3037 2.64067E+00-1.96891E+00 9.48279E-01
 -1      3038 1.77905E+00-2.45080E+00 7.06511E-01
 -1      3039 4.47742E-01 2.37408E+00 3.49999E-01
 -1      3040 8.08500E-01 3.19313E+00 9.48278E-01
 -1      3041 3.19313E+00 8.08500E-01 9.48278E-01
 -1      3042 1.57686E+00-2.56565E+00 6.92750E-01
 -1      3043 2.10397E+00-1.40583E+00 3.49999E-01
 -1      3044-1.00651E+00 2.42992E+00 8.53008E-01
 -1      3045-4.74999E-01 2.97379E+00 6.92750E-01
 -1      3046-1.57686E+00 2.56565E+00 6.92750E-01
 -1      3047 2.42992E+00 1.00651E+00 8.53008E-01
 -1      3048-3.02705E+00-4.74999E-01 7.51012E-01
 -1      3049-1.85924E+00-1.86033E+00 8.54088E-01
 -1      3050 1.57686E+00 2.56565E+00 6.92750E-01
 -1      3051 7.05744E-01 2.94505E+00 7.06511E-01
 -1      3052 2.94505E+00-7.05744E-01 7.06511E-01
 -1      3053 2.56565E+00-1.57686E+00 6.92750E-01
 -1      3054-7.67997E-04-2.63013E+00 8.54088E-01
 -1      3055-1.96891E+00-2.64067E+00 9.48279E-01
 -1      3056 2.45080E+00-1.77905E+00 7.06511E-01
 -1      3057-2.42992E+00 1.00651E+00 8.53008E-01
 -1      3058-1.01793E+00-2.63210E+00-3.49999E-01
 -1      3059-8.08500E-01-3.19313E+00 9.48278E-01
 -1      3060 4.74999E-01 2.97379E+00 6.92750E-01
 -1      3061 1.77905E+00 2.45080E+00 7.06511E-01
 -1      3062 2.62286E+00 1.95111E+00 9.16969E-01
 -1      3063 2.97379E+00-4.74999E-01 6.92750E-01
 -1      3064 2.97379E+00 4.74999E-01 6.92750E-01
 -1      3065-7.05744E-01 2.94505E+00 7.06511E-01
 -1      3066-2.80631E+00 1.67655E+00 9.16972E-01
 -1      3067-2.64067E+00 1.96891E+00 9.48279E-01
 -1      3068-1.77905E+00 2.45080E+00 7.06511E-01
 -1      3069-2.45080E+00 1.77905E+00 7.06511E-01
 -1      3070-1.77905E+00-2.45080E+00 7.06511E-01
 -1      3071-1.63406E+00-2.70374E+00 8.56249E-01
 -1      3072 2.94505E+00 7.05744E-01 7.06511E-01
 -1      3073 2.82958E+00 1.68618E+00 9.48278E-01
 -1      3074 2.43866E+00 1.76691E+00 6.92749E-01
 -1      3075 2.58150E+00 1.58343E+00 7.06511E-01
 -1      3076 4.74999E-01-3.23428E+00 9.16972E-01
 -1      3077-2.45080E+00-1.77905E+00 7.06511E-01
 -1      3078-1.00651E+00-2.42992E+00 8.53008E-01
 -1      3079-2.94505E+00 7.05744E-01 7.06511E-01
 -1      3080 4.74999E-01-2.97379E+00 6.92750E-01
 -1      3081-4.74999E-01-2.97379E+00 6.92750E-01
 -1      3082-2.56565E+00 1.57686E+00 6.92750E-01
 -1      3083-1.55737E+00-2.51858E+00 6.37018E-01
 -1      3084-7.05744E-01-2.94505E+00 7.06511E-01
 -1      3085 1.59441E+00 2.38621E+00 2.18069E-02
 -1      3086-2.37131E+00-4.71688E-01 1.20975E-02
 -1      3087-5.59878E-01 2.81472E+00 9.02174E-03
 -1      3088 5.08977E-01-2.55879E+00-1.35805E-02
 -1      3089-4.81604E-01 2.42116E+00 7.49505E-03
 -1      3090-2.06679E+00-1.38099E+00-2.27204E-02
 -1      3091 1.35892E+00 2.03376E+00 3.80725E-02
 -1      3092-2.37726E+00-1.58843E+00 2.64336E-02
 -1      3093 2.66826E+00-5.30748E-01-2.36546E-02
 -1      3094 1.59441E+00-2.38621E+00 9.14668E-03
 -1      3095-2.20820E+00-1.47547E+00 1.28201E-01
 -1      3096 2.00714E+00 1.34114E+00 3.19380E-02
 -1      3097 1.47866E+00 2.21296E+00 1.23339E-01
 -1      3098 1.37658E+00-2.06019E+00 1.28116E-02
 -1      3099 2.38621E+00-1.59441E+00-3.73915E-03
 -1      3100-5.07925E-01-2.55351E+00-3.99413E-02
 -1      3101-1.59441E+00 2.38621E+00-9.71723E-04
 -1      3102-2.81472E+00-5.59878E-01 1.28644E-02
 -1      3103-2.54793E+00-5.06816E-01 1.44556E-01
 -1      3104 2.39713E+00 4.76824E-01 1.09006E-02
 -1      3105-1.36622E+00 2.04469E+00 2.06654E-03
 -1      3106 1.97986E+00 2.18471E+00 8.05159E-02
 -1      3107 5.59878E-01-2.81472E+00 1.31336E-01
 -1      3108 4.71009E-01 2.36789E+00 4.60830E-02
 -1      3109 5.59878E-01 2.81472E+00 1.77600E-02
 -1      3110-5.20655E-01 2.61751E+00 1.23514E-01
 -1      3111-2.46563E+00 4.90447E-01-3.61052E-03
 -1      3112 5.23011E-01-2.62936E+00 1.64262E-01
 -1      3113 2.38621E+00 1.59441E+00 3.85912E-03
 -1      3114-1.59441E+00-2.38621E+00 8.42415E-04
 -1      3115-1.48080E+00 2.21617E+00 1.18184E-01
 -1      3116-2.18471E+00-1.97986E+00 7.95924E-02
 -1      3117 1.48610E+00-2.22410E+00 1.27098E-01
 -1      3118-2.77607E+00-9.93097E-01 7.88388E-02
 -1      3119 1.81341E-01-2.77288E+00 3.08031E-02
 -1      3120 1.26716E+00-2.61668E+00 9.53837E-02
 -1      3121-2.38621E+00 1.59441E+00 1.23305E-02
 -1      3122 2.81472E+00 5.59878E-01 6.83850E-03
 -1      3123-5.59878E-01-2.81472E+00 1.17004E-01
 -1      3124 2.51382E+00 5.00032E-01 1.80450E-01
 -1      3125-2.61668E+00 1.26716E+00 9.61818E-02
 -1      3126 2.71782E+00-5.40605E-01 1.75804E-01
 -1      3127-2.18471E+00 1.97986E+00 7.87353E-02
 -1      3128 1.26716E+00 2.61668E+00 9.84662E-02
 -1      3129-1.69344E-01 2.90241E+00 9.53541E-02
 -1      3130-2.00209E+00 1.33776E+00 4.84688E-02
 -1      3131-9.93097E-01 2.77607E+00 7.80737E-02
 -1      3132 1.97986E+00-2.18471E+00 7.81001E-02
 -1      3133-1.37471E+00-2.05739E+00 1.66074E-02
 -1      3134 8.86358E-01-2.61878E+00 3.63095E-02
 -1      3135 2.42005E+00-1.25949E+00 1.03553E-01
 -1      3136 5.16433E-01 2.59628E+00 1.13537E-01
 -1      3137-1.48714E+00-2.22566E+00 1.25257E-01
 -1      3138 2.20138E+00 1.47091E+00 1.09652E-01
 -1      3139 2.10397E+00-1.40583E+00 4.18599E-02
 -1      3140-2.77607E+00-9.93097E-01 6.02265E-01
 -1      3141-2.81472E+00 5.59878E-01 5.24245E-02
 -1      3142-2.55018E+00 5.07264E-01 1.73194E-01
 -1      3143 2.91562E+00-1.59083E-01 3.93787E-02
 -1      3144 2.48623E+00-4.94545E-01 1.63398E-01
 -1      3145 2.71086E+00 5.39220E-01 1.77583E-01
 -1      3146-5.01272E-01-2.52006E+00 1.69959E-01
 -1      3147 2.25929E+00-1.50961E+00 1.46210E-01
 -1      3148 2.66520E+00 1.26075E+00 7.70162E-02
 -1      3149-2.30406E+00 1.53952E+00 1.84469E-01
 -1      3150-2.13307E+00 1.42527E+00 1.80715E-01
 -1      3151-2.90241E+00-1.69344E-01 9.63162E-02
 -1      3152-1.78511E-01-2.90241E+00 1.13682E-01
 -1      3153-9.93097E-01-2.77607E+00 8.50536E-02
 -1      3154 2.71469E+00-9.39903E-01 5.07177E-02
 -3
    3C                          9558                                     1
 -1         1    3    0    1
 -2       460        15       909      1163
 -1         2    3    0    1
 -2      1738      1698      1993      2393
 -1         3    3    0    1
 -2      1731      1590      1809      1967
 -1         4    3    0    1
 -2       535       534       939      1678
 -1         5    3    0    1
 -2      2048      1069      2954      3120
 -1         6    3    0    1
 -2       742      1054       752       750
 -1         7    3    0    1
 -2      1347       296      1348      1688
 -1         8    3    0    1
 -2       559      1923      2680      2712
 -1         9    3    0    1
 -2      1320      2049      2828      2954
 -1        10    3    0    1
 -2      2352      1564      2572      2638
 -1        11    3    0    1
 -2       933       531      1201       935
 -1        12    3    0    1
 -2      1288      1835      1885      1925
 -1        13    3    0    1
 -2      1477      1472      1516      3053
 -1        14    3    0    1
 -2      1635      1695      1949      2113
 -1        15    3    0    1
 -2      1354      1355      1704      1863
 -1        16    3    0    1
 -2       684       164       681      1261
 -1        17    3    0    1
 -2       882      1394      1781      1822
 -1        18    3    0    1
 -2       604       610      1235      1662
 -1        19    3    0    1
 -2       528      1201       943       543
 -1        20    3    0    1
 -2      2255        54      2260      2897
 -1        21    3    0    1
 -2      1467         2      1496      3145
 -1        22    3    0    1
 -2       384       385      1187      1656
 -1        23    3    0    1
 -2       309       397      1120      2193
 -1        24    3    0    1
 -2       950        86      1875      2057
 -1        25    3    0    1
 -2       501      1188       932       519
 -1        26    3    0    1
 -2      1682      1689      1714      1777
 -1        27    3    0    1
 -2       644      1257       643       655
 -1        28    3    0    1
 -2       174       677      1263      1265
 -1        29    3    0    1
 -2      1686      1875      2057      2767
 -1        30    3    0    1
 -2        12       413       905      2247
 -1        31    3    0    1
 -2       431       430       465       909
 -1        32    3    0    1
 -2      2241      2338      2361      2624
 -1        33    3    0    1
 -2       745      1294       221       746
 -1        34    3    0    1
 -2       460        15       465       909
 -1        35    3    0    1
 -2       820       277       825      1324
 -1        36    3    0    1
 -2       492       489       919      1170
 -1        37    3    0    1
 -2       536        57       542      1189
 -1        38    3    0    1
 -2      1804      1676      2054      2211
 -1        39    3    0    1
 -2      1069      1439      3025      3042
 -1        40    3    0    1
 -2      1246       985       628      1242
 -1        41    3    0    1
 -2       567       957       547       568
 -1        42    3    0    1
 -2      1626      1539      1647      1772
 -1        43    3    0    1
 -2        20       484       489      1169
 -1        44    3    0    1
 -2        40       518       512       920
 -1        45    3    0    1
 -2      3044      1415      3046      3065
 -1        46    3    0    1
 -2      2037      1666      2690      2715
 -1        47    3    0    1
 -2        46       509       512       931
 -1        48    3    0    1
 -2       329      1397      1396      1797
 -1        49    3    0    1
 -2      1117       402      1602      2844
 -1        50    3    0    1
 -2      1041      1758      1871      1925
 -1        51    3    0    1
 -2      1568      1588      1667      1955
 -1        52    3    0    1
 -2       711      1032      1035      1618
 -1        53    3    0    1
 -2      1758       208      1865      2182
 -1        54    3    0    1
 -2      1908      1982      2128      2151
 -1        55    3    0    1
 -2      1054       752      2446      2731
 -1        56    3    0    1
 -2      1758       208      1885      1925
 -1        57    3    0    1
 -2        75        79       557      1204
 -1        58    3    0    1
 -2       622       992       640       993
 -1        59    3    0    1
 -2      1977      2098      2751      2755
 -1        60    3    0    1
 -2       578        99       102      1217
 -1        61    3    0    1
 -2        46       406       509       930
 -1        62    3    0    1
 -2       890      1146      1924      2330
 -1        63    3    0    1
 -2      3090      3095      1447      2992
 -1        64    3    0    1
 -2       708       705      1035      1270
 -1        65    3    0    1
 -2      1712      1708      2154      2168
 -1        66    3    0    1
 -2      2201       964      2670      2973
 -1        67    3    0    1
 -2      1383       315       318      1975
 -1        68    3    0    1
 -2       112      1232       121       609
 -1        69    3    0    1
 -2        40        41       509      1179
 -1        70    3    0    1
 -2      1094      1332      1743      1888
 -1        71    3    0    1
 -2      1097       832       831      2079
 -1        72    3    0    1
 -2       480       910       912      3041
 -1        73    3    0    1
 -2       772       247       777      1062
 -1        74    3    0    1
 -2       375        80       950      1773
 -1        75    3    0    1
 -2       173       175      2350      2787
 -1        76    3    0    1
 -2      1675      1582      1714      2014
 -1        77    3    0    1
 -2       605      1227       608       109
 -1        78    3    0    1
 -2        94        92       579      1212
 -1        79    3    0    1
 -2      1876      2142      2310      2431
 -1        80    3    0    1
 -2      1198       934       536      1191
 -1        81    3    0    1
 -2      1420      1421      3141      1503
 -1        82    3    0    1
 -2      1668      1547      1715      1983
 -1        83    3    0    1
 -2      1889      1823      2002      2276
 -1        84    3    0    1
 -2       502       932       501       921
 -1        85    3    0    1
 -2       525       939       535       524
 -1        86    3    0    1
 -2       856       855      1639      2139
 -1        87    3    0    1
 -2       228       230       753      1059
 -1        88    3    0    1
 -2       926      1180       509      1179
 -1        89    3    0    1
 -2       981      1857      2019      2447
 -1        90    3    0    1
 -2       529       938      1192      1199
 -1        91    3    0    1
 -2      1243       990      1420      3079
 -1        92    3    0    1
 -2       678      2801      2803      2890
 -1        93    3    0    1
 -2      2006      2051      2327      2476
 -1        94    3    0    1
 -2       532       514       929      2288
 -1        95    3    0    1
 -2       721       206       722      1283
 -1        96    3    0    1
 -2       652       659      1003      1251
 -1        97    3    0    1
 -2      1663      1661      1715      1740
 -1        98    3    0    1
 -2       748      1292       218       753
 -1        99    3    0    1
 -2      2025      2441      2442      2665
 -1       100    3    0    1
 -2      1683      1726      2189      2243
 -1       101    3    0    1
 -2       284       286      1097      1832
 -1       102    3    0    1
 -2      1531      1703      1905      1970
 -1       103    3    0    1
 -2       739       744       760      1059
 -1       104    3    0    1
 -2         7       461       464       901
 -1       105    3    0    1
 -2       729       732      1039      1047
 -1       106    3    0    1
 -2       586      1221       580      2994
 -1       107    3    0    1
 -2      1047       361       729       211
 -1       108    3    0    1
 -2      1881      1558      1889      1898
 -1       109    3    0    1
 -2       719       718      1042      1282
 -1       110    3    0    1
 -2      1867      2500      2510      2630
 -1       111    3    0    1
 -2      3091      2961      2971      1448
 -1       112    3    0    1
 -2       471       832      1542      2294
 -1       113    3    0    1
 -2       883      1398      1395      2371
 -1       114    3    0    1
 -2       315      1893      1975      2157
 -1       115    3    0    1
 -2        78       377      3136      1486
 -1       116    3    0    1
 -2      1395       328      2215      2370
 -1       117    3    0    1
 -2       559      1210      2259      2712
 -1       118    3    0    1
 -2      1629      1783      2528      2587
 -1       119    3    0    1
 -2       335      1374      1797      1973
 -1       120    3    0    1
 -2       386       389      2060      2445
 -1       121    3    0    1
 -2      1920      1868      1989      2541
 -1       122    3    0    1
 -2       820       284       825      1097
 -1       123    3    0    1
 -2      1461      1428      3148      3072
 -1       124    3    0    1
 -2      1186      1907       510       511
 -1       125    3    0    1
 -2      1669      1979      2063      2240
 -1       126    3    0    1
 -2        97       584       958       959
 -1       127    3    0    1
 -2       555       561       944       957
 -1       128    3    0    1
 -2      1338      1098      1651      1878
 -1       129    3    0    1
 -2       705       700      1021      1277
 -1       130    3    0    1
 -2      1276      1026       697      1273
 -1       131    3    0    1
 -2       509        46       512       928
 -1       132    3    0    1
 -2      1786      1724      1805      2148
 -1       133    3    0    1
 -2      1589      1567      1687      2443
 -1       134    3    0    1
 -2      2463      2117      2625      2793
 -1       135    3    0    1
 -2      1334      1331       826      1888
 -1       136    3    0    1
 -2      2938      1799      3089      3129
 -1       137    3    0    1
 -2      1029       702      1846      2091
 -1       138    3    0    1
 -2      2949      1764      3086      2977
 -1       139    3    0    1
 -2      1366      1109      1951      2376
 -1       140    3    0    1
 -2      1585      2926      3091      3009
 -1       141    3    0    1
 -2       813       814      1095      1327
 -1       142    3    0    1
 -2       528       941       543       523
 -1       143    3    0    1
 -2       703       701      1030      1272
 -1       144    3    0    1
 -2       175       173       680      1018
 -1       145    3    0    1
 -2        27        33       485       917
 -1       146    3    0    1
 -2      1420      1243      3079      3082
 -1       147    3    0    1
 -2       991       621       994      1240
 -1       148    3    0    1
 -2       533       541       936       941
 -1       149    3    0    1
 -2      1461       387      2996      3124
 -1       150    3    0    1
 -2      1267       679      2691      2838
 -1       151    3    0    1
 -2       607       606       976      2206
 -1       152    3    0    1
 -2       918        36      2293      2725
 -1       153    3    0    1
 -2       550       556       562      1211
 -1       154    3    0    1
 -2       585       961      1216      1224
 -1       155    3    0    1
 -2       700       192      1024      1270
 -1       156    3    0    1
 -2        48       507       921      1183
 -1       157    3    0    1
 -2      2034      1839      2489      2508
 -1       158    3    0    1
 -2       371       372      1459      3110
 -1       159    3    0    1
 -2       615       597       616       981
 -1       160    3    0    1
 -2      1438      1415      3131      3046
 -1       161    3    0    1
 -2      1688       296      1820      1910
 -1       162    3    0    1
 -2       934      1198       939       524
 -1       163    3    0    1
 -2      1452      1445      1474      3125
 -1       164    3    0    1
 -2       501       920       930       931
 -1       165    3    0    1
 -2      1112      1371      2155      2400
 -1       166    3    0    1
 -2      1798      1584      1854      2054
 -1       167    3    0    1
 -2       362      1446      1464      1490
 -1       168    3    0    1
 -2        45       507       513      1187
 -1       169    3    0    1
 -2        21        20       484       911
 -1       170    3    0    1
 -2       396       939      1198      1623
 -1       171    3    0    1
 -2       633       991       994      1240
 -1       172    3    0    1
 -2      1604      1709      1812      2523
 -1       173    3    0    1
 -2      1197      1413      1419      3050
 -1       174    3    0    1
 -2      1994      2364      2394      2395
 -1       175    3    0    1
 -2      2152      2352      2572      2638
 -1       176    3    0    1
 -2       839      1348       840      1820
 -1       177    3    0    1
 -2      1581      1881      1889      1898
 -1       178    3    0    1
 -2       416       418      2392      2584
 -1       179    3    0    1
 -2      1337      1736      1837      2376
 -1       180    3    0    1
 -2      1450      3094      1451      3117
 -1       181    3    0    1
 -2       149       660       153      1252
 -1       182    3    0    1
 -2      2187      2372      2930      2971
 -1       183    3    0    1
 -2      1425      1453      3120      3042
 -1       184    3    0    1
 -2       653      1249       656       150
 -1       185    3    0    1
 -2      1134      1389      1893      1995
 -1       186    3    0    1
 -2      1460      3089      3110      3129
 -1       187    3    0    1
 -2       104        97       581       958
 -1       188    3    0    1
 -2      1715      1663      1900      2143
 -1       189    3    0    1
 -2      1868      1719      1920      2438
 -1       190    3    0    1
 -2      1116       861      1375      2276
 -1       191    3    0    1
 -2       633       991       134       994
 -1       192    3    0    1
 -2      1341      1761      1831      2220
 -1       193    3    0    1
 -2       605      1227       976       608
 -1       194    3    0    1
 -2       963       581      1218      1219
 -1       195    3    0    1
 -2       357       107      2199      2504
 -1       196    3    0    1
 -2      2043      1613      2421      2786
 -1       197    3    0    1
 -2        71      1198      1702      1746
 -1       198    3    0    1
 -2       375        86       955      2156
 -1       199    3    0    1
 -2      1562      2100      2341      2411
 -1       200    3    0    1
 -2       625       988      1238      1245
 -1       201    3    0    1
 -2       736      2176      2520      2578
 -1       202    3    0    1
 -2      1467      3122      3124      3145
 -1       203    3    0    1
 -2      1246      2018      2449      2496
 -1       204    3    0    1
 -2      1771      1664      1919      2012
 -1       205    3    0    1
 -2      2983      1309       778      3018
 -1       206    3    0    1
 -2       907       461       908      1154
 -1       207    3    0    1
 -2       380       259      1322      1899
 -1       208    3    0    1
 -2       529        61       530      1192
 -1       209    3    0    1
 -2        80       955       956      1972
 -1       210    3    0    1
 -2      1619      2013      2129      2265
 -1       211    3    0    1
 -2      1257       655      2306      2440
 -1       212    3    0    1
 -2       991       633       134       628
 -1       213    3    0    1
 -2      2446      2494      2731      2760
 -1       214    3    0    1
 -2      1615      1639      1718      1754
 -1       215    3    0    1
 -2       584       581       958       966
 -1       216    3    0    1
 -2       985      1246       628       987
 -1       217    3    0    1
 -2      1680      1609      1681      1684
 -1       218    3    0    1
 -2       824       830      1096      1326
 -1       219    3    0    1
 -2       457         9       904      1161
 -1       220    3    0    1
 -2      1669      1556      1979      2240
 -1       221    3    0    1
 -2       843      1356      1353      1711
 -1       222    3    0    1
 -2      2671      2913      2921      3086
 -1       223    3    0    1
 -2      2022      1413      3109      2986
 -1       224    3    0    1
 -2      1504      1449      1505      3032
 -1       225    3    0    1
 -2       909       472      2258      2603
 -1       226    3    0    1
 -2       477       917       918      1171
 -1       227    3    0    1
 -2       109      1227       608       110
 -1       228    3    0    1
 -2       826      1094       819      2988
 -1       229    3    0    1
 -2      1084       268       263       797
 -1       230    3    0    1
 -2       105       348       584       963
 -1       231    3    0    1
 -2       896      1958      2340      2556
 -1       232    3    0    1
 -2      1597       534      1746      1809
 -1       233    3    0    1
 -2      1003      1252       645      1006
 -1       234    3    0    1
 -2      1665      1525      2073      2263
 -1       235    3    0    1
 -2       750      1300      1053      1877
 -1       236    3    0    1
 -2       661       150       653       995
 -1       237    3    0    1
 -2       133       331      2097      2209
 -1       238    3    0    1
 -2      1579      1616      1790      1947
 -1       239    3    0    1
 -2       696      1029       695      1026
 -1       240    3    0    1
 -2       112      1230       609       121
 -1       241    3    0    1
 -2       291      1093      2075      2283
 -1       242    3    0    1
 -2      3132      1454      3038      3056
 -1       243    3    0    1
 -2      1804      1575      1811      2023
 -1       244    3    0    1
 -2      1032       693       711      1035
 -1       245    3    0    1
 -2        36      2690      2806      2894
 -1       246    3    0    1
 -2       629       131       632      1241
 -1       247    3    0    1
 -2       953      1221      2670      1411
 -1       248    3    0    1
 -2       471      1097      1163      1542
 -1       249    3    0    1
 -2      3099      1477      3135      3147
 -1       250    3    0    1
 -2       575      1222       583       574
 -1       251    3    0    1
 -2      1107       321      1680      1684
 -1       252    3    0    1
 -2       308      1352       310      1794
 -1       253    3    0    1
 -2       555       563       954      1208
 -1       254    3    0    1
 -2      3099      1476      1477      3147
 -1       255    3    0    1
 -2      1539      1626      1655      1870
 -1       256    3    0    1
 -2       480      1176      1172       479
 -1       257    3    0    1
 -2       680       677      1015      1263
 -1       258    3    0    1
 -2       557        75       560      1202
 -1       259    3    0    1
 -2      1532      1640      1729      2272
 -1       260    3    0    1
 -2       943        67      2776      2885
 -1       261    3    0    1
 -2       480      1176       479       490
 -1       262    3    0    1
 -2       485        27       488       915
 -1       263    3    0    1
 -2       724       200       731      1278
 -1       264    3    0    1
 -2       603      1232       112       609
 -1       265    3    0    1
 -2      1055      1309      2651      2915
 -1       266    3    0    1
 -2      2967      1436      3137      3153
 -1       267    3    0    1
 -2       603       611       978      1229
 -1       268    3    0    1
 -2       116       122       979      1966
 -1       269    3    0    1
 -2        33        27       485       915
 -1       270    3    0    1
 -2       150      1253       152       656
 -1       271    3    0    1
 -2       578       962      1217      1220
 -1       272    3    0    1
 -2       461       464       908      1154
 -1       273    3    0    1
 -2       677      1013      1015      1263
 -1       274    3    0    1
 -2      1825      1873      2353      2481
 -1       275    3    0    1
 -2       431       430       909      2603
 -1       276    3    0    1
 -2      1587      1599      1969      2397
 -1       277    3    0    1
 -2      1666      2037      2690      2695
 -1       278    3    0    1
 -2       455       905       903       901
 -1       279    3    0    1
 -2        70       533       536       942
 -1       280    3    0    1
 -2       719      1287      1042       726
 -1       281    3    0    1
 -2        51        48       513       921
 -1       282    3    0    1
 -2      1424      2430      3094      3132
 -1       283    3    0    1
 -2       706      1031      2237      2514
 -1       284    3    0    1
 -2       629       637       983       992
 -1       285    3    0    1
 -2      1415       372      3110      3131
 -1       286    3    0    1
 -2       510       926      1907      2686
 -1       287    3    0    1
 -2      1049      1301       748      1052
 -1       288    3    0    1
 -2       342       343       673      1014
 -1       289    3    0    1
 -2       173       677       680      1018
 -1       290    3    0    1
 -2      1813      1789      2081      2086
 -1       291    3    0    1
 -2      1470      1473      1493      3069
 -1       292    3    0    1
 -2      1706      1871      2366      2546
 -1       293    3    0    1
 -2      1695      1635      1913      1962
 -1       294    3    0    1
 -2       652      1254       148       657
 -1       295    3    0    1
 -2       408       296      1910      1911
 -1       296    3    0    1
 -2       447      1362      1824      1844
 -1       297    3    0    1
 -2       139       134       633      1246
 -1       298    3    0    1
 -2       717      1040       723       716
 -1       299    3    0    1
 -2      1470      1437      3127      3068
 -1       300    3    0    1
 -2       853      1951      2132      2307
 -1       301    3    0    1
 -2      1100       308      1700      1794
 -1       302    3    0    1
 -2       919       484        32      1177
 -1       303    3    0    1
 -2       426       345       727      1046
 -1       304    3    0    1
 -2      1923       951      2257      2259
 -1       305    3    0    1
 -2       453      1155       907      1154
 -1       306    3    0    1
 -2       674       170       171      1011
 -1       307    3    0    1
 -2       452      1159       459       451
 -1       308    3    0    1
 -2       465       430       468       909
 -1       309    3    0    1
 -2      1436      2967      3058      3153
 -1       310    3    0    1
 -2        58        65       537       933
 -1       311    3    0    1
 -2      1082      1409      3038      3056
 -1       312    3    0    1
 -2      1679      1774      1808      1820
 -1       313    3    0    1
 -2      1713      1690      1884      1959
 -1       314    3    0    1
 -2        93      1215      2994      3044
 -1       315    3    0    1
 -2       633      1239       130       628
 -1       316    3    0    1
 -2      1146      1682      1924      2330
 -1       317    3    0    1
 -2       478       477       918      1171
 -1       318    3    0    1
 -2      1595      1629      1783      2111
 -1       319    3    0    1
 -2      1446      1423      1464      3140
 -1       320    3    0    1
 -2       492        20       489      1170
 -1       321    3    0    1
 -2      1416      1461      3148      3075
 -1       322    3    0    1
 -2      1633      1562      2165      2341
 -1       323    3    0    1
 -2      1602      1570      2389      2551
 -1       324    3    0    1
 -2      1553      1562      2100      2341
 -1       325    3    0    1
 -2      1334      1801      1888      2717
 -1       326    3    0    1
 -2      1439      1453      3025      3042
 -1       327    3    0    1
 -2      1414      2022      3109      3129
 -1       328    3    0    1
 -2      1709      1373      1721      1739
 -1       329    3    0    1
 -2      1003       156      1006      1583
 -1       330    3    0    1
 -2      1198        70      1623      1746
 -1       331    3    0    1
 -2       675      1266      2649      2718
 -1       332    3    0    1
 -2      1125      1127      1763      2318
 -1       333    3    0    1
 -2      2947      2892      3093      3026
 -1       334    3    0    1
 -2       287       290       824      1091
 -1       335    3    0    1
 -2       824      1089      1091      1093
 -1       336    3    0    1
 -2        84       378       954      1745
 -1       337    3    0    1
 -2      1639      1368      1718      2056
 -1       338    3    0    1
 -2      2418      1961      2655      2658
 -1       339    3    0    1
 -2      2016      1633      2066      2341
 -1       340    3    0    1
 -2      1978      1197      2140      2288
 -1       341    3    0    1
 -2       807       789      1083      1084
 -1       342    3    0    1
 -2      1043      1286      3059      3071
 -1       343    3    0    1
 -2      1532      2225      2292      2320
 -1       344    3    0    1
 -2      1963      1402      2014      2330
 -1       345    3    0    1
 -2      1771      2012      2663      2865
 -1       346    3    0    1
 -2       775       773      1068      1303
 -1       347    3    0    1
 -2      1992      1672      2245      2254
 -1       348    3    0    1
 -2       978       615      1800      2538
 -1       349    3    0    1
 -2       697       185      1029      1276
 -1       350    3    0    1
 -2       460       465       900       909
 -1       351    3    0    1
 -2       509        40       512       920
 -1       352    3    0    1
 -2      1041      1758      1865      1871
 -1       353    3    0    1
 -2        20       492        31      1170
 -1       354    3    0    1
 -2      2524       224      2613      2714
 -1       355    3    0    1
 -2      1090      1333      1092       815
 -1       356    3    0    1
 -2      1714      1582      1777      2103
 -1       357    3    0    1
 -2      1405      1874      2215      2370
 -1       358    3    0    1
 -2      1661      1663      1715      2143
 -1       359    3    0    1
 -2       619      1244       989       630
 -1       360    3    0    1
 -2      1461       387      3124      3145
 -1       361    3    0    1
 -2       264       796      1075      1312
 -1       362    3    0    1
 -2       826      1334      1888      2717
 -1       363    3    0    1
 -2      1571      2040      2092      2244
 -1       364    3    0    1
 -2      1719      2069      2170      2438
 -1       365    3    0    1
 -2       319       299      1891      2356
 -1       366    3    0    1
 -2      1597       938      1669      1752
 -1       367    3    0    1
 -2        64        59       533      1189
 -1       368    3    0    1
 -2       456       904       462       455
 -1       369    3    0    1
 -2       285       284      1335      1766
 -1       370    3    0    1
 -2      1773       950      2281      2680
 -1       371    3    0    1
 -2       509       920       930      1182
 -1       372    3    0    1
 -2       122       979      1966      2144
 -1       373    3    0    1
 -2      1136      1138      2117      2625
 -1       374    3    0    1
 -2      1575      1604      1811      2082
 -1       375    3    0    1
 -2      1199      1752      2236      2398
 -1       376    3    0    1
 -2       726       728      1041      1835
 -1       377    3    0    1
 -2      1790      1558      1898      1947
 -1       378    3    0    1
 -2       866      1626      1655      1784
 -1       379    3    0    1
 -2      2246       420      2363      2553
 -1       380    3    0    1
 -2      1610      1646      1769      1869
 -1       381    3    0    1
 -2       547       948       956      1202
 -1       382    3    0    1
 -2       476       913      1165      1166
 -1       383    3    0    1
 -2      1429      1433      1467      3143
 -1       384    3    0    1
 -2       475       476       913      1165
 -1       385    3    0    1
 -2      1612      1544      2202      2802
 -1       386    3    0    1
 -2      1854      1818      2023      2053
 -1       387    3    0    1
 -2       621       622       640       994
 -1       388    3    0    1
 -2       527       526       937      1194
 -1       389    3    0    1
 -2       908      2174      2368      2552
 -1       390    3    0    1
 -2      1920      1719      2170      2438
 -1       391    3    0    1
 -2       771       778      1309      3018
 -1       392    3    0    1
 -2       274         1      3126      3144
 -1       393    3    0    1
 -2      1416       916      1428      3148
 -1       394    3    0    1
 -2       677      1013      1263      1265
 -1       395    3    0    1
 -2      1412      1460      3129      3045
 -1       396    3    0    1
 -2       461         7       464      1154
 -1       397    3    0    1
 -2       226      1457      3119      1483
 -1       398    3    0    1
 -2       413        12       464       908
 -1       399    3    0    1
 -2      1862      2801      2884      2890
 -1       400    3    0    1
 -2       536       542       942      1189
 -1       401    3    0    1
 -2       488        22       494      1171
 -1       402    3    0    1
 -2        41       517        52      1182
 -1       403    3    0    1
 -2       672       671       678      1013
 -1       404    3    0    1
 -2       462      1161       463       455
 -1       405    3    0    1
 -2      1646      1659      1769      1869
 -1       406    3    0    1
 -2       507        45       513       932
 -1       407    3    0    1
 -2      2372      2925      2926      2961
 -1       408    3    0    1
 -2      1276      1546      2221       185
 -1       409    3    0    1
 -2       164       681      1008      1259
 -1       410    3    0    1
 -2       775       251      1071      1072
 -1       411    3    0    1
 -2       357       107       585       968
 -1       412    3    0    1
 -2        83        81       555       946
 -1       413    3    0    1
 -2        50       513       516       921
 -1       414    3    0    1
 -2         5       460       465       900
 -1       415    3    0    1
 -2       528       943       933       523
 -1       416    3    0    1
 -2      2273       459      2716      2717
 -1       417    3    0    1
 -2      2006      2008      2051      2613
 -1       418    3    0    1
 -2      1177       478       919      1169
 -1       419    3    0    1
 -2      1188       919      2255      2845
 -1       420    3    0    1
 -2       917       488       918      1171
 -1       421    3    0    1
 -2      1554      1946      2121      2218
 -1       422    3    0    1
 -2      1465       761      3010      3042
 -1       423    3    0    1
 -2      1378      1121      1655      1794
 -1       424    3    0    1
 -2       525       524       938      1190
 -1       425    3    0    1
 -2       813      1095      1326      1327
 -1       426    3    0    1
 -2       266      1323      1605      2354
 -1       427    3    0    1
 -2      2926      2961      3091      1443
 -1       428    3    0    1
 -2      1832      1097      2409      2461
 -1       429    3    0    1
 -2       590        97       100       959
 -1       430    3    0    1
 -2      1705      1609      2005      2316
 -1       431    3    0    1
 -2       601       338       975      1234
 -1       432    3    0    1
 -2      2222       228      2679      2723
 -1       433    3    0    1
 -2      1016       682      1266      2649
 -1       434    3    0    1
 -2      1098      1651      1878      2316
 -1       435    3    0    1
 -2       467        11        16      1156
 -1       436    3    0    1
 -2       485       913       915      1166
 -1       437    3    0    1
 -2       990      1243       627      3036
 -1       438    3    0    1
 -2       348       105       584       966
 -1       439    3    0    1
 -2       573      1224      1216       572
 -1       440    3    0    1
 -2       984       132       986      3036
 -1       441    3    0    1
 -2       730      1043       723      3059
 -1       442    3    0    1
 -2       940      1803      1978      2022
 -1       443    3    0    1
 -2       699       682      2050      2579
 -1       444    3    0    1
 -2      1663      1547      1557      1740
 -1       445    3    0    1
 -2       525       939       524       934
 -1       446    3    0    1
 -2       581       963      1218      1222
 -1       447    3    0    1
 -2       461        12       464       905
 -1       448    3    0    1
 -2       471       453       907       908
 -1       449    3    0    1
 -2      1428      1929      2964      3148
 -1       450    3    0    1
 -2      1946      1627      2121      2218
 -1       451    3    0    1
 -2       548      1205       549       952
 -1       452    3    0    1
 -2      1581      1536      1823      2002
 -1       453    3    0    1
 -2       583       574       582      1223
 -1       454    3    0    1
 -2      3049       690      3055      3070
 -1       455    3    0    1
 -2       391       393      1559      2390
 -1       456    3    0    1
 -2      2969      2991      3127      3130
 -1       457    3    0    1
 -2      1553      1988      2086      2165
 -1       458    3    0    1
 -2       926      1180       499       928
 -1       459    3    0    1
 -2       377      1443      1485      1487
 -1       460    3    0    1
 -2       933      1201       943       528
 -1       461    3    0    1
 -2       557        80       560       952
 -1       462    3    0    1
 -2      1897      1357      2224      2356
 -1       463    3    0    1
 -2       985      1246       987       624
 -1       464    3    0    1
 -2      1454      1409      3132      1514
 -1       465    3    0    1
 -2      1593      1691      2106      2475
 -1       466    3    0    1
 -2       499       500       511       928
 -1       467    3    0    1
 -2       603       119       609       981
 -1       468    3    0    1
 -2       653       157       656      1001
 -1       469    3    0    1
 -2       958       584       966       967
 -1       470    3    0    1
 -2      1796      1750      2234      2239
 -1       471    3    0    1
 -2       507      1184       923        48
 -1       472    3    0    1
 -2        48      1184        51       513
 -1       473    3    0    1
 -2        65        62       537       933
 -1       474    3    0    1
 -2       457       458       902       904
 -1       475    3    0    1
 -2      1688      1347      1808      1820
 -1       476    3    0    1
 -2       397       309      1368      2193
 -1       477    3    0    1
 -2      1870      1538      1934      2105
 -1       478    3    0    1
 -2      2345       351      2843      1578
 -1       479    3    0    1
 -2       902      1161       904       455
 -1       480    3    0    1
 -2      1828      1653      2084      2468
 -1       481    3    0    1
 -2      1288      1885       208      1925
 -1       482    3    0    1
 -2        80       557       950       952
 -1       483    3    0    1
 -2       871      1384      1128      2027
 -1       484    3    0    1
 -2       487       915      2819      2850
 -1       485    3    0    1
 -2      1577      1661      1727      2518
 -1       486    3    0    1
 -2       396        70       536       942
 -1       487    3    0    1
 -2       136       141       629       993
 -1       488    3    0    1
 -2      1381       869       870      1763
 -1       489    3    0    1
 -2       539        62        72       935
 -1       490    3    0    1
 -2       907       461      1154      1155
 -1       491    3    0    1
 -2      1977      2098      2200      2751
 -1       492    3    0    1
 -2      1309      2983       778      1069
 -1       493    3    0    1
 -2       513       516       921       932
 -1       494    3    0    1
 -2       869      1125      1763      2318
 -1       495    3    0    1
 -2       823      1093      2310      2331
 -1       496    3    0    1
 -2       393      2084      2123      2468
 -1       497    3    0    1
 -2       682       699      2050      2649
 -1       498    3    0    1
 -2      1097      1335      1832      2079
 -1       499    3    0    1
 -2       403      2072      2284      2641
 -1       500    3    0    1
 -2      1659      1670      2056      2139
 -1       501    3    0    1
 -2       626       625      1238      1245
 -1       502    3    0    1
 -2       796       801      1076      1085
 -1       503    3    0    1
 -2        95       104       581       958
 -1       504    3    0    1
 -2        70       396      1198      1623
 -1       505    3    0    1
 -2      1626      1539      1772      1870
 -1       506    3    0    1
 -2      2192      2441      2478      2665
 -1       507    3    0    1
 -2      2474      1339      2564      2633
 -1       508    3    0    1
 -2       906      1429      3063      3064
 -1       509    3    0    1
 -2      1807      1399      1931      2085
 -1       510    3    0    1
 -2       509        40      1179      1180
 -1       511    3    0    1
 -2       109      1231       110       608
 -1       512    3    0    1
 -2       318       315      1893      1975
 -1       513    3    0    1
 -2      1350       324      1351      2707
 -1       514    3    0    1
 -2       825       828      1088      1097
 -1       515    3    0    1
 -2       768      1070      1063       763
 -1       516    3    0    1
 -2      1735      1607      1838      1856
 -1       517    3    0    1
 -2      1646      1610      1769      1909
 -1       518    3    0    1
 -2       621       622       994      1240
 -1       519    3    0    1
 -2       585       961      1213      1216
 -1       520    3    0    1
 -2      2994      1215      3017      3044
 -1       521    3    0    1
 -2         6       461       469      1155
 -1       522    3    0    1
 -2        11       467       460      1156
 -1       523    3    0    1
 -2      2709      1092      2727      2824
 -1       524    3    0    1
 -2       821       281       824      1326
 -1       525    3    0    1
 -2      1394       448      1852      2076
 -1       526    3    0    1
 -2        10       457       458       902
 -1       527    3    0    1
 -2      1332       819      2988      2989
 -1       528    3    0    1
 -2       488       917      1168      1171
 -1       529    3    0    1
 -2       533        70       941       942
 -1       530    3    0    1
 -2       429      1393      1392      1913
 -1       531    3    0    1
 -2       379      1472      3135      3043
 -1       532    3    0    1
 -2       955       567      1972      2178
 -1       533    3    0    1
 -2       290       824      1091      1093
 -1       534    3    0    1
 -2      1425      1451      1453      3042
 -1       535    3    0    1
 -2      3014      3031      3032      3048
 -1       536    3    0    1
 -2       259       380       801      1085
 -1       537    3    0    1
 -2      1709      1721      1997      2082
 -1       538    3    0    1
 -2      2155      1999      2400      2800
 -1       539    3    0    1
 -2       543       520      1201      2314
 -1       540    3    0    1
 -2       628       130       633      1242
 -1       541    3    0    1
 -2      1670      1639      2056      2139
 -1       542    3    0    1
 -2      3123      1434      1497      3153
 -1       543    3    0    1
 -2       392      1669      1979      2063
 -1       544    3    0    1
 -2      1768      1612      1874      2295
 -1       545    3    0    1
 -2      1453      1451      1465      3042
 -1       546    3    0    1
 -2       265       803       796      1316
 -1       547    3    0    1
 -2       484        32        29      1173
 -1       548    3    0    1
 -2       156       158      1006      1583
 -1       549    3    0    1
 -2      1340      1341      1761      1831
 -1       550    3    0    1
 -2      1443      3016      3050      3051
 -1       551    3    0    1
 -2      1584      1798      1915      2439
 -1       552    3    0    1
 -2      1721      1725      1997      2082
 -1       553    3    0    1
 -2       815      1093       823       822
 -1       554    3    0    1
 -2      1634      1603      1778      2070
 -1       555    3    0    1
 -2       380       259       801      1322
 -1       556    3    0    1
 -2      1945      2618      2729      2917
 -1       557    3    0    1
 -2       936       533       942      1189
 -1       558    3    0    1
 -2      1445      3121      1474      3125
 -1       559    3    0    1
 -2       136       629       632       993
 -1       560    3    0    1
 -2       238       775      1064      1302
 -1       561    3    0    1
 -2       535      1597      1678      2236
 -1       562    3    0    1
 -2      1776      1566      1927      1952
 -1       563    3    0    1
 -2       331       133      1245      2209
 -1       564    3    0    1
 -2         7      1155       461         8
 -1       565    3    0    1
 -2      2302      2300      2678      2726
 -1       566    3    0    1
 -2      1604      1742      1827      2205
 -1       567    3    0    1
 -2       512       509       920       931
 -1       568    3    0    1
 -2      1560      1528      1574      1737
 -1       569    3    0    1
 -2      1175      2268      2570      2675
 -1       570    3    0    1
 -2      1629      1595      2388      2491
 -1       571    3    0    1
 -2       509        46       930       931
 -1       572    3    0    1
 -2       702      1028      1747      1980
 -1       573    3    0    1
 -2       557        75      1204      1205
 -1       574    3    0    1
 -2      2366      1922      2546      2813
 -1       575    3    0    1
 -2      1063       247       772       240
 -1       576    3    0    1
 -2       344       134       991      2619
 -1       577    3    0    1
 -2      1764      1449      2977      3111
 -1       578    3    0    1
 -2       977      1444      3068      3069
 -1       579    3    0    1
 -2       518       512       920       931
 -1       580    3    0    1
 -2       557        80       955       956
 -1       581    3    0    1
 -2       777      1070      1060       772
 -1       582    3    0    1
 -2       208      1041      1758      1865
 -1       583    3    0    1
 -2      2570      2268      2585      2695
 -1       584    3    0    1
 -2       187       193       705      1035
 -1       585    3    0    1
 -2      1637      1340      1761      1831
 -1       586    3    0    1
 -2       264      1316       265       796
 -1       587    3    0    1
 -2      2106      1691      2307      2475
 -1       588    3    0    1
 -2      1601      1531      1705      1905
 -1       589    3    0    1
 -2       850       849      1104      2395
 -1       590    3    0    1
 -2       627       987      2064      2449
 -1       591    3    0    1
 -2      1749      1555      1802      2045
 -1       592    3    0    1
 -2      1030       197      2361      2467
 -1       593    3    0    1
 -2      2788      1642      2888      2905
 -1       594    3    0    1
 -2       360      1436      2993      3146
 -1       595    3    0    1
 -2       773      1066      1068      1303
 -1       596    3    0    1
 -2      1580      1570      1992      2517
 -1       597    3    0    1
 -2       758       220       233      1297
 -1       598    3    0    1
 -2       264       796       801      1076
 -1       599    3    0    1
 -2      1432      1468      1472      3052
 -1       600    3    0    1
 -2      1084       808      2336      2710
 -1       601    3    0    1
 -2       579       585       961      1213
 -1       602    3    0    1
 -2       902      1161       455      1157
 -1       603    3    0    1
 -2       574      1222       583       582
 -1       604    3    0    1
 -2      1289      1038       724      1279
 -1       605    3    0    1
 -2       221      1294       222       746
 -1       606    3    0    1
 -2       962       574      1220      1223
 -1       607    3    0    1
 -2      1354       297      1355      1863
 -1       608    3    0    1
 -2      1539      1538      1772      1870
 -1       609    3    0    1
 -2      1028       695      1030      1272
 -1       610    3    0    1
 -2       171       674      1011      1264
 -1       611    3    0    1
 -2       595      1227       596       976
 -1       612    3    0    1
 -2       605      1227       109      1226
 -1       613    3    0    1
 -2       481       914      1167      1175
 -1       614    3    0    1
 -2       584       348       966       967
 -1       615    3    0    1
 -2       283       277       820      1324
 -1       616    3    0    1
 -2      1450      3094      3117      3132
 -1       617    3    0    1
 -2       154       146      2995      3014
 -1       618    3    0    1
 -2      2364      1911      2382      2394
 -1       619    3    0    1
 -2      1056       759      2176      2520
 -1       620    3    0    1
 -2      1557      1695      1962      2113
 -1       621    3    0    1
 -2      3116      1422      3070      3077
 -1       622    3    0    1
 -2       504      1187      1184       503
 -1       623    3    0    1
 -2      1064       775      1072      1302
 -1       624    3    0    1
 -2       843      1660      1704      1711
 -1       625    3    0    1
 -2       532      1197      1978      2288
 -1       626    3    0    1
 -2       501       519       520       931
 -1       627    3    0    1
 -2      1054       750      1299      2304
 -1       628    3    0    1
 -2       453       471       472       908
 -1       629    3    0    1
 -2      1722      2332      2424      2647
 -1       630    3    0    1
 -2       938      1597      1669      1731
 -1       631    3    0    1
 -2      1708      1524      2154      2640
 -1       632    3    0    1
 -2      1556       392      1669      1979
 -1       633    3    0    1
 -2      2690        36      2806      2819
 -1       634    3    0    1
 -2       238       782       775      1302
 -1       635    3    0    1
 -2      3095       355      1447      2992
 -1       636    3    0    1
 -2         7      1158         8       461
 -1       637    3    0    1
 -2       435       248       777      1065
 -1       638    3    0    1
 -2        95       581       589       958
 -1       639    3    0    1
 -2      1338      1651      1736      1878
 -1       640    3    0    1
 -2       250      1066      2592      2761
 -1       641    3    0    1
 -2       701       184       703      1271
 -1       642    3    0    1
 -2       209       725      1036      1285
 -1       643    3    0    1
 -2       798      1321       799       791
 -1       644    3    0    1
 -2      1120      1626      1784      1917
 -1       645    3    0    1
 -2      1244       336      2175      2658
 -1       646    3    0    1
 -2       805       262       797      1315
 -1       647    3    0    1
 -2       603      1232       971       112
 -1       648    3    0    1
 -2      1806      2087      2377      2419
 -1       649    3    0    1
 -2       749       757      1048      1057
 -1       650    3    0    1
 -2       106       357       965      1751
 -1       651    3    0    1
 -2      1013       671      1015      1263
 -1       652    3    0    1
 -2      1977      1642      1981      2127
 -1       653    3    0    1
 -2       431        15       465      1162
 -1       654    3    0    1
 -2      1249       653      1001      1248
 -1       655    3    0    1
 -2       733       209       725      1036
 -1       656    3    0    1
 -2      1821       937      1861      1904
 -1       657    3    0    1
 -2       634       627       990      1779
 -1       658    3    0    1
 -2      1636      2059      2195      2636
 -1       659    3    0    1
 -2       461       901       903       905
 -1       660    3    0    1
 -2       677       167       680      1010
 -1       661    3    0    1
 -2       418      2392      2623      2824
 -1       662    3    0    1
 -2       476      1175      1167       475
 -1       663    3    0    1
 -2      1961      1563      2024      2042
 -1       664    3    0    1
 -2      1833       243      2161      2453
 -1       665    3    0    1
 -2      1068      2339      2347      2761
 -1       666    3    0    1
 -2       296      1348      1688      1820
 -1       667    3    0    1
 -2      1566      1748      1776      1856
 -1       668    3    0    1
 -2       643      1249      1001      1248
 -1       669    3    0    1
 -2      1427      1436      1507      3083
 -1       670    3    0    1
 -2      1789      1813      2396      2458
 -1       671    3    0    1
 -2       702      1028      1030      1747
 -1       672    3    0    1
 -2       920       501       930      1182
 -1       673    3    0    1
 -2      1652      2257      2369      2567
 -1       674    3    0    1
 -2       223       225      1054      1576
 -1       675    3    0    1
 -2      1640      1532      2108      2292
 -1       676    3    0    1
 -2        82       378       555       949
 -1       677    3    0    1
 -2      1026      1276      1029       695
 -1       678    3    0    1
 -2      1403      1146      1775      1924
 -1       679    3    0    1
 -2       676       164       681      1008
 -1       680    3    0    1
 -2       653      1249       150      1248
 -1       681    3    0    1
 -2       385        45      1187      2260
 -1       682    3    0    1
 -2      1115      1863      1889      2001
 -1       683    3    0    1
 -2      1761      1637      1792      2112
 -1       684    3    0    1
 -2       645       646       664      1006
 -1       685    3    0    1
 -2       660       657      1006      1252
 -1       686    3    0    1
 -2       111       121       609      1230
 -1       687    3    0    1
 -2      1356       843       844      1711
 -1       688    3    0    1
 -2      1408       429      1695      1913
 -1       689    3    0    1
 -2       119       973      1235      1662
 -1       690    3    0    1
 -2      1805      1636      2148      2745
 -1       691    3    0    1
 -2      1049      1301      1052       740
 -1       692    3    0    1
 -2       777       433       780      1073
 -1       693    3    0    1
 -2      1211       961      2227      2798
 -1       694    3    0    1
 -2       789      1315       790      1083
 -1       695    3    0    1
 -2       656       662      1005      1253
 -1       696    3    0    1
 -2       888       892      2116      2502
 -1       697    3    0    1
 -2       131       629       632      1237
 -1       698    3    0    1
 -2      1568      1705      1955      2005
 -1       699    3    0    1
 -2       524       534       535       938
 -1       700    3    0    1
 -2      1084      2336      2568      2710
 -1       701    3    0    1
 -2       826       459      1334      2717
 -1       702    3    0    1
 -2       560       557       952      1205
 -1       703    3    0    1
 -2      1824       447      1844      2478
 -1       704    3    0    1
 -2       581       105       584       963
 -1       705    3    0    1
 -2       534      1597      1731      1809
 -1       706    3    0    1
 -2       584       581       963      1219
 -1       707    3    0    1
 -2      1415      1438      3131      1481
 -1       708    3    0    1
 -2       437      1442      1443      1466
 -1       709    3    0    1
 -2       489       484       911      1173
 -1       710    3    0    1
 -2      1227       974       605       976
 -1       711    3    0    1
 -2      2944      2804      3100      3146
 -1       712    3    0    1
 -2        43      1181        44       505
 -1       713    3    0    1
 -2        80       557       560       956
 -1       714    3    0    1
 -2      1927      1776      1951      2376
 -1       715    3    0    1
 -2       192      1023      1021       700
 -1       716    3    0    1
 -2      1188       921       507      1183
 -1       717    3    0    1
 -2      1099      1866      2346      2701
 -1       718    3    0    1
 -2      1085       808       807      2290
 -1       719    3    0    1
 -2      2904      2939      2940      3130
 -1       720    3    0    1
 -2      1277       699       706      2639
 -1       721    3    0    1
 -2      1079       268      2644      2887
 -1       722    3    0    1
 -2       535       939      1658      1678
 -1       723    3    0    1
 -2      2274       426      2754      2879
 -1       724    3    0    1
 -2       584       958       959       967
 -1       725    3    0    1
 -2      2135      2196      2297      2479
 -1       726    3    0    1
 -2      1532      1897      2292      2360
 -1       727    3    0    1
 -2      1892      2028      2088      2131
 -1       728    3    0    1
 -2      1433      3093      3126      3143
 -1       729    3    0    1
 -2      3122      1496      1495      3145
 -1       730    3    0    1
 -2       832       813      1095      1096
 -1       731    3    0    1
 -2       770      1067      1304      1310
 -1       732    3    0    1
 -2       608       614       980      1231
 -1       733    3    0    1
 -2       284       286       825      1097
 -1       734    3    0    1
 -2        71        70      1198      1746
 -1       735    3    0    1
 -2       131       629       983      1241
 -1       736    3    0    1
 -2       595       596       607       976
 -1       737    3    0    1
 -2       980       616      1707      2653
 -1       738    3    0    1
 -2      1005      2186      2591      2699
 -1       739    3    0    1
 -2      1587      1599      2272      2676
 -1       740    3    0    1
 -2      1609      1601      1705      2005
 -1       741    3    0    1
 -2       553      1206       951      1203
 -1       742    3    0    1
 -2       627       634       990      3036
 -1       743    3    0    1
 -2       653       661       995      1004
 -1       744    3    0    1
 -2       663       645       664      1006
 -1       745    3    0    1
 -2       193       187      2560      2590
 -1       746    3    0    1
 -2       965       585       960       968
 -1       747    3    0    1
 -2      2488      1055      3119      3152
 -1       748    3    0    1
 -2        82       555       561      1211
 -1       749    3    0    1
 -2      1244       982       632      1237
 -1       750    3    0    1
 -2       575      1223      1220       574
 -1       751    3    0    1
 -2       130       138       633      1242
 -1       752    3    0    1
 -2       991       633      1239      1240
 -1       753    3    0    1
 -2       178       347      2434      2579
 -1       754    3    0    1
 -2       111       609       612      1230
 -1       755    3    0    1
 -2       465       460       897      1162
 -1       756    3    0    1
 -2      1796      2015      2109      2147
 -1       757    3    0    1
 -2       693       711       712      1034
 -1       758    3    0    1
 -2      1041       726      1835      1925
 -1       759    3    0    1
 -2      1143      1408      1635      1913
 -1       760    3    0    1
 -2       779       772      1063      1070
 -1       761    3    0    1
 -2       157       160       656      1001
 -1       762    3    0    1
 -2      2358      2924      3098      3001
 -1       763    3    0    1
 -2       374       360      2993      3146
 -1       764    3    0    1
 -2       844       843      1704      1711
 -1       765    3    0    1
 -2        82       564       561       957
 -1       766    3    0    1
 -2       621       992       639       640
 -1       767    3    0    1
 -2       601      1228       113       602
 -1       768    3    0    1
 -2      1608      1732      1817      1879
 -1       769    3    0    1
 -2      2109      1757      2147      2637
 -1       770    3    0    1
 -2      1239       633       130      1240
 -1       771    3    0    1
 -2       688       687      1017      1996
 -1       772    3    0    1
 -2      1632      2474      2633      2861
 -1       773    3    0    1
 -2       680       175      1018      1019
 -1       774    3    0    1
 -2       978      1230       597       981
 -1       775    3    0    1
 -2      1648      1643      1990      2099
 -1       776    3    0    1
 -2       462      1161       455       904
 -1       777    3    0    1
 -2      1453      3098      3117      3120
 -1       778    3    0    1
 -2        75       557       560      1205
 -1       779    3    0    1
 -2       662       152       162      1253
 -1       780    3    0    1
 -2       605      1231       109       608
 -1       781    3    0    1
 -2      1599      1587      1677      1728
 -1       782    3    0    1
 -2      1751       357      2199      2504
 -1       783    3    0    1
 -2       500      1186       499       511
 -1       784    3    0    1
 -2        80       375       557       955
 -1       785    3    0    1
 -2        81       564        85       944
 -1       786    3    0    1
 -2      1243      3066      3079      3082
 -1       787    3    0    1
 -2       604       973      1224      1662
 -1       788    3    0    1
 -2      1322       802      1331      1843
 -1       789    3    0    1
 -2      1732       398      1964      2065
 -1       790    3    0    1
 -2       913      2034      2489      2530
 -1       791    3    0    1
 -2       597       598       616       981
 -1       792    3    0    1
 -2        63        61       529      1192
 -1       793    3    0    1
 -2       605       116       979       980
 -1       794    3    0    1
 -2      3087      1459      3110      3129
 -1       795    3    0    1
 -2        99       578       577      1217
 -1       796    3    0    1
 -2       560       566       956      1202
 -1       797    3    0    1
 -2       143       638       632      1241
 -1       798    3    0    1
 -2      1224       586      1662      2472
 -1       799    3    0    1
 -2      1590      1548      1702      1746
 -1       800    3    0    1
 -2       531        66       537       943
 -1       801    3    0    1
 -2      2039      1177      2724      2825
 -1       802    3    0    1
 -2      1568      1955      2004      2005
 -1       803    3    0    1
 -2       950      1205       557      1204
 -1       804    3    0    1
 -2      1436      2967      3133      3058
 -1       805    3    0    1
 -2      1646      1610      1848      1869
 -1       806    3    0    1
 -2      1567      1589      1687      1847
 -1       807    3    0    1
 -2        81      1208       555       944
 -1       808    3    0    1
 -2       553      1206      1203        76
 -1       809    3    0    1
 -2       555        82       561       957
 -1       810    3    0    1
 -2      1601      1673      1705      1955
 -1       811    3    0    1
 -2       638       143       144      1241
 -1       812    3    0    1
 -2      1671      2040      2129      2136
 -1       813    3    0    1
 -2      1008      1268       681      1012
 -1       814    3    0    1
 -2      1095       287      1912      2348
 -1       815    3    0    1
 -2      1620      1608      1879      2180
 -1       816    3    0    1
 -2       164       172       676      1009
 -1       817    3    0    1
 -2        80       375       955      1972
 -1       818    3    0    1
 -2       122       116       605       974
 -1       819    3    0    1
 -2      1922      1706      2366      2546
 -1       820    3    0    1
 -2      1187       925      1939      2260
 -1       821    3    0    1
 -2       223       225       751      1054
 -1       822    3    0    1
 -2      3057      3036      3066      3079
 -1       823    3    0    1
 -2      1791      1696      2256      2426
 -1       824    3    0    1
 -2      1657      2135      2196      2297
 -1       825    3    0    1
 -2      1674      1988      2031      2785
 -1       826    3    0    1
 -2      1830      2021      2610      2712
 -1       827    3    0    1
 -2       555       944       954       957
 -1       828    3    0    1
 -2      2989       810      3020      3053
 -1       829    3    0    1
 -2      1039       715      1044      1047
 -1       830    3    0    1
 -2      1823      1581      2002      2276
 -1       831    3    0    1
 -2      1038      1289      1040       716
 -1       832    3    0    1
 -2       720      1047       736       715
 -1       833    3    0    1
 -2      1630       161      2301      2482
 -1       834    3    0    1
 -2       702      1276       704       695
 -1       835    3    0    1
 -2       507       513       921       932
 -1       836    3    0    1
 -2      1543      1887      2397      2574
 -1       837    3    0    1
 -2      2020       956      2349      2412
 -1       838    3    0    1
 -2      1560      1528      1737      2277
 -1       839    3    0    1
 -2       507      1184        48       513
 -1       840    3    0    1
 -2       515        45       507      1188
 -1       841    3    0    1
 -2       148      1254       149       657
 -1       842    3    0    1
 -2       639       621       640       994
 -1       843    3    0    1
 -2       533       536       942      1189
 -1       844    3    0    1
 -2      1091      1093      2167      2331
 -1       845    3    0    1
 -2       660       149       657      1252
 -1       846    3    0    1
 -2      1254       652       997      1258
 -1       847    3    0    1
 -2       765      1067      1304      1305
 -1       848    3    0    1
 -2       184       701      1025      1271
 -1       849    3    0    1
 -2       695      1274      1028       696
 -1       850    3    0    1
 -2      1816      1598      1994      2364
 -1       851    3    0    1
 -2      2912      1233      1437      2973
 -1       852    3    0    1
 -2       116       979       980      1966
 -1       853    3    0    1
 -2       700       192       194      1024
 -1       854    3    0    1
 -2       741      1052       740      1049
 -1       855    3    0    1
 -2      1637      1524      1761      1792
 -1       856    3    0    1
 -2       270      2486      2568      2768
 -1       857    3    0    1
 -2       920       509       930       931
 -1       858    3    0    1
 -2      2981      3139      3043      1514
 -1       859    3    0    1
 -2       387      1495      1496      3145
 -1       860    3    0    1
 -2       906      1160      1433      3143
 -1       861    3    0    1
 -2       525      1199      1192       938
 -1       862    3    0    1
 -2       555        81       561      1207
 -1       863    3    0    1
 -2      1148      1400      1727      1852
 -1       864    3    0    1
 -2      3100      2804      3058      3153
 -1       865    3    0    1
 -2       133      2191      2196      2198
 -1       866    3    0    1
 -2       772      1060       247      1063
 -1       867    3    0    1
 -2      3104      2946      1467      2996
 -1       868    3    0    1
 -2       454      1163      1156       453
 -1       869    3    0    1
 -2      1698       311      1738      1823
 -1       870    3    0    1
 -2       944       555       954      1208
 -1       871    3    0    1
 -2       881      1394      1391      1781
 -1       872    3    0    1
 -2      1332      1094       819      1888
 -1       873    3    0    1
 -2      1654      1866      2038      2386
 -1       874    3    0    1
 -2      1033       711      2337      2809
 -1       875    3    0    1
 -2      1842      1806      2027      2433
 -1       876    3    0    1
 -2       975      1977      2181      2284
 -1       877    3    0    1
 -2      1600      1613      1795      2484
 -1       878    3    0    1
 -2      1651      1735      1736      1878
 -1       879    3    0    1
 -2      1913      1392      1950      2010
 -1       880    3    0    1
 -2      2278      1722      2424      2647
 -1       881    3    0    1
 -2       825       820      1324      1334
 -1       882    3    0    1
 -2      1972       956      2413      2784
 -1       883    3    0    1
 -2       212       211      2597      2713
 -1       884    3    0    1
 -2      2096      1541      2115      2630
 -1       885    3    0    1
 -2       682      2050      2579      2589
 -1       886    3    0    1
 -2       453       909       471      1163
 -1       887    3    0    1
 -2       683       676      1009      1017
 -1       888    3    0    1
 -2      1579      1790      1898      1947
 -1       889    3    0    1
 -2       521        56      3016      3040
 -1       890    3    0    1
 -2       812      1325      2988      2989
 -1       891    3    0    1
 -2      2092      1744      2126      2542
 -1       892    3    0    1
 -2      1880       974      2181      2206
 -1       893    3    0    1
 -2        24        25       481      1164
 -1       894    3    0    1
 -2       469       461       907      1155
 -1       895    3    0    1
 -2       561       564       944       957
 -1       896    3    0    1
 -2       770       243      1067      1310
 -1       897    3    0    1
 -2      1135      1969      1976      2384
 -1       898    3    0    1
 -2       385        45       513      1187
 -1       899    3    0    1
 -2       506       505       927      1178
 -1       900    3    0    1
 -2       129       131       629       983
 -1       901    3    0    1
 -2      1876      2142      2431      2454
 -1       902    3    0    1
 -2       564        81       561       944
 -1       903    3    0    1
 -2      1797      1725      1916      1973
 -1       904    3    0    1
 -2       620       989       619       982
 -1       905    3    0    1
 -2      1298      1434      1435      3123
 -1       906    3    0    1
 -2      2230      2719      2932      2950
 -1       907    3    0    1
 -2       615       616      1966      2538
 -1       908    3    0    1
 -2      1088       820      1335      1328
 -1       909    3    0    1
 -2       487      2037      2268      2675
 -1       910    3    0    1
 -2      1197       940       532      1978
 -1       911    3    0    1
 -2      2277      2161      2453      2648
 -1       912    3    0    1
 -2       399      1730      1879      1883
 -1       913    3    0    1
 -2        20        21       484      1169
 -1       914    3    0    1
 -2       461       464       901       905
 -1       915    3    0    1
 -2        79        75       557       948
 -1       916    3    0    1
 -2      1588      1559      1667      1955
 -1       917    3    0    1
 -2        96       585      1213      1216
 -1       918    3    0    1
 -2        19       485       488      1166
 -1       919    3    0    1
 -2       605       613       969       979
 -1       920    3    0    1
 -2        86      1875      2156      2281
 -1       921    3    0    1
 -2      1968      1523      1983      2334
 -1       922    3    0    1
 -2       116       122       605       979
 -1       923    3    0    1
 -2      1410      3099      1477      3135
 -1       924    3    0    1
 -2      3014      2995      3031      3048
 -1       925    3    0    1
 -2       523       943       544       543
 -1       926    3    0    1
 -2       517       509       930      1182
 -1       927    3    0    1
 -2       797       800      1077      1081
 -1       928    3    0    1
 -2       488       494       918      1171
 -1       929    3    0    1
 -2       421       251      1068      2761
 -1       930    3    0    1
 -2      1368      1615      1639      1718
 -1       931    3    0    1
 -2       372       371      2982      3110
 -1       932    3    0    1
 -2       624       987       985       623
 -1       933    3    0    1
 -2      2577      3113      3138      3148
 -1       934    3    0    1
 -2       109       613       123       969
 -1       935    3    0    1
 -2       348       590       351       967
 -1       936    3    0    1
 -2       557       565       948       955
 -1       937    3    0    1
 -2       955       567       547       956
 -1       938    3    0    1
 -2       960       579        96       585
 -1       939    3    0    1
 -2       612       609       981      1230
 -1       940    3    0    1
 -2      1679      1621      1774      2405
 -1       941    3    0    1
 -2       773      1066      1303      1306
 -1       942    3    0    1
 -2      1205       950       557       952
 -1       943    3    0    1
 -2      3105      2953      3115      3028
 -1       944    3    0    1
 -2         2      1467      3124      3145
 -1       945    3    0    1
 -2       702       704      1882      1980
 -1       946    3    0    1
 -2      2938      3089      1460      3129
 -1       947    3    0    1
 -2       404      1363      1816      2080
 -1       948    3    0    1
 -2      2732       916      2963      3148
 -1       949    3    0    1
 -2      1450      1424      1454      3038
 -1       950    3    0    1
 -2      1599      1587      1969      2676
 -1       951    3    0    1
 -2       484        20       489       911
 -1       952    3    0    1
 -2       539        66       531      1201
 -1       953    3    0    1
 -2       482       481       914      1164
 -1       954    3    0    1
 -2       950      1205       548       952
 -1       955    3    0    1
 -2       581       589       958       966
 -1       956    3    0    1
 -2      1991      2298      2387      2389
 -1       957    3    0    1
 -2       585       965       960       579
 -1       958    3    0    1
 -2        83       563       555      1208
 -1       959    3    0    1
 -2        97       590       584       959
 -1       960    3    0    1
 -2      3096      2577      3138      3148
 -1       961    3    0    1
 -2       357       106       585       961
 -1       962    3    0    1
 -2       489        20      1169      1170
 -1       963    3    0    1
 -2       116       605       608       980
 -1       964    3    0    1
 -2       597       615       616       980
 -1       965    3    0    1
 -2      1891      2224      1622      1762
 -1       966    3    0    1
 -2        76      1206        77       554
 -1       967    3    0    1
 -2      1862      2699      2805      2884
 -1       968    3    0    1
 -2       950      1205      1204       548
 -1       969    3    0    1
 -2      2487       759      2520      2657
 -1       970    3    0    1
 -2      1003       994      2674      2833
 -1       971    3    0    1
 -2       862      1881      1889      2002
 -1       972    3    0    1
 -2      3098      2358      1454      2068
 -1       973    3    0    1
 -2       495       917      2368      2700
 -1       974    3    0    1
 -2       579       106       585       965
 -1       975    3    0    1
 -2      2072      1977      2127      2284
 -1       976    3    0    1
 -2        66       937      1821      1904
 -1       977    3    0    1
 -2      2048      1439      3120      3134
 -1       978    3    0    1
 -2       983       629       993      1241
 -1       979    3    0    1
 -2       677       173       680      1015
 -1       980    3    0    1
 -2      1890      2088      2179      2188
 -1       981    3    0    1
 -2       283       820      1087      1324
 -1       982    3    0    1
 -2       802      2049      2432      2828
 -1       983    3    0    1
 -2       728      1288      1835      2740
 -1       984    3    0    1
 -2       502       931       920       501
 -1       985    3    0    1
 -2      1169       489       919       484
 -1       986    3    0    1
 -2       130       628       985      1242
 -1       987    3    0    1
 -2      1347       839      1808      1820
 -1       988    3    0    1
 -2       913       476       915      1166
 -1       989    3    0    1
 -2       625       128       626      1238
 -1       990    3    0    1
 -2       592       967      2580      2843
 -1       991    3    0    1
 -2       579       960        96      1212
 -1       992    3    0    1
 -2      1676      1804      1849      2437
 -1       993    3    0    1
 -2      2293       930      2725      2894
 -1       994    3    0    1
 -2      2015      1796      2234      2371
 -1       995    3    0    1
 -2      1928      1846      1936      1937
 -1       996    3    0    1
 -2      1765      2940      3000      3130
 -1       997    3    0    1
 -2      2217       261      2303      2628
 -1       998    3    0    1
 -2        40      1182       509        41
 -1       999    3    0    1
 -2       525       524       535       938
 -1      1000    3    0    1
 -2       571       591       592       967
 -1      1001    3    0    1
 -2      1594      1554      1946      2121
 -1      1002    3    0    1
 -2       502       932       520       501
 -1      1003    3    0    1
 -2        81       555       946      1207
 -1      1004    3    0    1
 -2       105       581       584       966
 -1      1005    3    0    1
 -2       547       567       568       956
 -1      1006    3    0    1
 -2      1333      1092      2431      2824
 -1      1007    3    0    1
 -2       692      1027       691      1023
 -1      1008    3    0    1
 -2       789      1085       807      1323
 -1      1009    3    0    1
 -2       357       585       965       968
 -1      1010    3    0    1
 -2       378        82       555       954
 -1      1011    3    0    1
 -2       133       626       331      1245
 -1      1012    3    0    1
 -2       512       509       928      1180
 -1      1013    3    0    1
 -2      1571      1762      2878      2886
 -1      1014    3    0    1
 -2        62       531       933       935
 -1      1015    3    0    1
 -2       418      2623      2683      2824
 -1      1016    3    0    1
 -2      2577      2963      3113      3148
 -1      1017    3    0    1
 -2      2035      2401      2611      2772
 -1      1018    3    0    1
 -2      1543      1887      1940      2061
 -1      1019    3    0    1
 -2      1751       968      2093      2199
 -1      1020    3    0    1
 -2      1544      1701      1757      2637
 -1      1021    3    0    1
 -2       548       549       559       952
 -1      1022    3    0    1
 -2      1866      2038      2386      2701
 -1      1023    3    0    1
 -2       821       824      1096      1326
 -1      1024    3    0    1
 -2       921      1188       507       932
 -1      1025    3    0    1
 -2       669       687       688      1019
 -1      1026    3    0    1
 -2      1699      2389      2551      2635
 -1      1027    3    0    1
 -2      1627      1660      1704      1791
 -1      1028    3    0    1
 -2       266       433      2354      2385
 -1      1029    3    0    1
 -2        71        70      1746      1986
 -1      1030    3    0    1
 -2      1017       681      1009      1020
 -1      1031    3    0    1
 -2       327       306      1739      1963
 -1      1032    3    0    1
 -2      2117      2006      2311      2357
 -1      1033    3    0    1
 -2        48       507       513       921
 -1      1034    3    0    1
 -2      1750      1545      1915      1916
 -1      1035    3    0    1
 -2       524      1198       939       534
 -1      1036    3    0    1
 -2      1059       230      2047      2723
 -1      1037    3    0    1
 -2       312      1123      1380      1672
 -1      1038    3    0    1
 -2       383      2324      2647      2688
 -1      1039    3    0    1
 -2      1410      1743      3099      3135
 -1      1040    3    0    1
 -2       220       749       751      1050
 -1      1041    3    0    1
 -2       938       525      1190      1192
 -1      1042    3    0    1
 -2      1849      1676      1902      2055
 -1      1043    3    0    1
 -2       797       800      1084      1314
 -1      1044    3    0    1
 -2       566        75        90      1202
 -1      1045    3    0    1
 -2      3089      1799      3110      3129
 -1      1046    3    0    1
 -2       120       119       609      1235
 -1      1047    3    0    1
 -2      3114      1436      1507      3153
 -1      1048    3    0    1
 -2      1356       844      1627      1711
 -1      1049    3    0    1
 -2       347       187      2434      2579
 -1      1050    3    0    1
 -2       749       220       751      1297
 -1      1051    3    0    1
 -2        59        57       536      1189
 -1      1052    3    0    1
 -2       585       107       588       968
 -1      1053    3    0    1
 -2      2847      1472      3135      3154
 -1      1054    3    0    1
 -2      1298      2943      3123      3152
 -1      1055    3    0    1
 -2       847      1361       848      1713
 -1      1056    3    0    1
 -2       952       950      1773      2680
 -1      1057    3    0    1
 -2      1403       438      1617      1775
 -1      1058    3    0    1
 -2       119       120       609       981
 -1      1059    3    0    1
 -2      1623       939      1678      1686
 -1      1060    3    0    1
 -2      2924      2932      3088      3134
 -1      1061    3    0    1
 -2      1593      1951      2132      2250
 -1      1062    3    0    1
 -2      1615      1784      1917      2193
 -1      1063    3    0    1
 -2       888      1404       892      2502
 -1      1064    3    0    1
 -2      2049      1320      2430      2954
 -1      1065    3    0    1
 -2       813      1097       832       831
 -1      1066    3    0    1
 -2       466       459       451      3021
 -1      1067    3    0    1
 -2      2955      2916      3099      3139
 -1      1068    3    0    1
 -2       814      1097      1088       813
 -1      1069    3    0    1
 -2       982      1244       989       619
 -1      1070    3    0    1
 -2       556       940      1209      1803
 -1      1071    3    0    1
 -2       256       797       800      1077
 -1      1072    3    0    1
 -2       764      1310       774       776
 -1      1073    3    0    1
 -2       119       603       609      1235
 -1      1074    3    0    1
 -2       771      2533      2632      2659
 -1      1075    3    0    1
 -2       765      1310       774       764
 -1      1076    3    0    1
 -2      1093       291      2075      2331
 -1      1077    3    0    1
 -2       712      2391      2536      2612
 -1      1078    3    0    1
 -2       596      1234       595       607
 -1      1079    3    0    1
 -2      2016      1768      2066      2074
 -1      1080    3    0    1
 -2       819       812       811      2988
 -1      1081    3    0    1
 -2       885      1150      1399      2085
 -1      1082    3    0    1
 -2      2043      1621      2286      2484
 -1      1083    3    0    1
 -2       863       864      2757      2844
 -1      1084    3    0    1
 -2       239       773      1303      1306
 -1      1085    3    0    1
 -2       627      2064      2448      2449
 -1      1086    3    0    1
 -2       821       287       824      1091
 -1      1087    3    0    1
 -2      1576       425      2527      2669
 -1      1088    3    0    1
 -2      1871       726      1922      2366
 -1      1089    3    0    1
 -2      2248      2011      2510      2569
 -1      1090    3    0    1
 -2       152       662       656      1253
 -1      1091    3    0    1
 -2       284       820       825      1334
 -1      1092    3    0    1
 -2       485       488       917      1168
 -1      1093    3    0    1
 -2       476       487       913       915
 -1      1094    3    0    1
 -2       720      1036      1046      1285
 -1      1095    3    0    1
 -2      1124       867      1122      2775
 -1      1096    3    0    1
 -2      1765      2917      2953      3105
 -1      1097    3    0    1
 -2       765       764      1066      1306
 -1      1098    3    0    1
 -2       805       797      1083      1315
 -1      1099    3    0    1
 -2       284      1331      1334      2032
 -1      1100    3    0    1
 -2       227       756       234      1296
 -1      1101    3    0    1
 -2      1796      1397      1797      2239
 -1      1102    3    0    1
 -2       288       281       821      1326
 -1      1103    3    0    1
 -2        25       481      1164      1167
 -1      1104    3    0    1
 -2      1524      1761      1792      1831
 -1      1105    3    0    1
 -2       867       868      2101      2393
 -1      1106    3    0    1
 -2         7      1155      1154       461
 -1      1107    3    0    1
 -2       926      1180      1179       499
 -1      1108    3    0    1
 -2       564        82       370       957
 -1      1109    3    0    1
 -2      1364      1910      1911      2394
 -1      1110    3    0    1
 -2       138       130       633      1240
 -1      1111    3    0    1
 -2       652      1252       148      1251
 -1      1112    3    0    1
 -2      1627      1594      1946      2121
 -1      1113    3    0    1
 -2      1212        96       579        94
 -1      1114    3    0    1
 -2      1598      2382      2421      2429
 -1      1115    3    0    1
 -2       287       420      1095      1912
 -1      1116    3    0    1
 -2       966       591      2118      2412
 -1      1117    3    0    1
 -2      1945      2152      2638      2729
 -1      1118    3    0    1
 -2      1677      1599      1728      2628
 -1      1119    3    0    1
 -2         7      1158       461       901
 -1      1120    3    0    1
 -2      1704      1696      1863      2001
 -1      1121    3    0    1
 -2      1235      1662      2064      2447
 -1      1122    3    0    1
 -2       256      1318       797      1077
 -1      1123    3    0    1
 -2       460         5       465       897
 -1      1124    3    0    1
 -2      1734      1672      1953      2101
 -1      1125    3    0    1
 -2       989      1244      2175      2829
 -1      1126    3    0    1
 -2       965       576       960      1212
 -1      1127    3    0    1
 -2       581       104      1218      1219
 -1      1128    3    0    1
 -2       600      1235      1232       599
 -1      1129    3    0    1
 -2      2253      1310      2453      2648
 -1      1130    3    0    1
 -2      1524      1634      1792      2112
 -1      1131    3    0    1
 -2       636       633       994      1240
 -1      1132    3    0    1
 -2      1758      1611      1865      2594
 -1      1133    3    0    1
 -2      1320      2049      2430      3132
 -1      1134    3    0    1
 -2      2756      2771      2837      2873
 -1      1135    3    0    1
 -2       954        82       957      1745
 -1      1136    3    0    1
 -2       667      1268       675       682
 -1      1137    3    0    1
 -2       793       261       794      1080
 -1      1138    3    0    1
 -2      2184      2011      2248      2569
 -1      1139    3    0    1
 -2       273       285      1085      1766
 -1      1140    3    0    1
 -2      2114      1914      2511      2616
 -1      1141    3    0    1
 -2       456       904       455       902
 -1      1142    3    0    1
 -2        45       385       513       932
 -1      1143    3    0    1
 -2        62        65       537      1196
 -1      1144    3    0    1
 -2       762      3010      3018      3025
 -1      1145    3    0    1
 -2      1276       702       704      1882
 -1      1146    3    0    1
 -2       295      1099      1345      2701
 -1      1147    3    0    1
 -2       770       236      1304      1305
 -1      1148    3    0    1
 -2      1757      1701      2147      2637
 -1      1149    3    0    1
 -2      1853       532      1861      1978
 -1      1150    3    0    1
 -2       613       109       605       969
 -1      1151    3    0    1
 -2      1369      1368      1615      1639
 -1      1152    3    0    1
 -2      2033      1723      2087      2160
 -1      1153    3    0    1
 -2      1400      1148      1727      2116
 -1      1154    3    0    1
 -2      1700      1378      1655      1794
 -1      1155    3    0    1
 -2      2498      2554      2682      2822
 -1      1156    3    0    1
 -2       745      1294       746      1300
 -1      1157    3    0    1
 -2       629       632       993      1241
 -1      1158    3    0    1
 -2      3094      1425      1451      3120
 -1      1159    3    0    1
 -2        97       104       581      1219
 -1      1160    3    0    1
 -2      1563      2024      2042      2742
 -1      1161    3    0    1
 -2      1013       671      1263      1265
 -1      1162    3    0    1
 -2       670      1017       669       687
 -1      1163    3    0    1
 -2      1398       883       884      2371
 -1      1164    3    0    1
 -2       281       821       824      1330
 -1      1165    3    0    1
 -2       729      1039      1044      1047
 -1      1166    3    0    1
 -2      1430      2867      3102      3118
 -1      1167    3    0    1
 -2       974       606      2181      2206
 -1      1168    3    0    1
 -2      1926       520      2314      2422
 -1      1169    3    0    1
 -2      1321       798       799      2229
 -1      1170    3    0    1
 -2      1299       223      1576      2669
 -1      1171    3    0    1
 -2      1401       301       446      1770
 -1      1172    3    0    1
 -2       777       435      1065      1311
 -1      1173    3    0    1
 -2       770       235       236      1305
 -1      1174    3    0    1
 -2       119       603       978       981
 -1      1175    3    0    1
 -2       135       128       625      1238
 -1      1176    3    0    1
 -2       532       526       538      3040
 -1      1177    3    0    1
 -2       102       578      1217      1220
 -1      1178    3    0    1
 -2      1114      1374      1973      2525
 -1      1179    3    0    1
 -2      1374       329      1114      1973
 -1      1180    3    0    1
 -2       585       588       960       968
 -1      1181    3    0    1
 -2      1404      1144      2478      2502
 -1      1182    3    0    1
 -2       419      1767      2217      2303
 -1      1183    3    0    1
 -2       819       826      1331      1888
 -1      1184    3    0    1
 -2       337       116      1707      2110
 -1      1185    3    0    1
 -2       712      1034      2241      2612
 -1      1186    3    0    1
 -2       671      1267       678       679
 -1      1187    3    0    1
 -2      1523      1933      1983      2334
 -1      1188    3    0    1
 -2       748       228       753      1059
 -1      1189    3    0    1
 -2       797      1077      1079      1081
 -1      1190    3    0    1
 -2      1551      1600      1795      2484
 -1      1191    3    0    1
 -2        64       533       936      1189
 -1      1192    3    0    1
 -2       531       943       933      1201
 -1      1193    3    0    1
 -2       484        32      1173       489
 -1      1194    3    0    1
 -2        59        64       533      1191
 -1      1195    3    0    1
 -2      1604      1575      1811      1827
 -1      1196    3    0    1
 -2      1448      3106      3061      3074
 -1      1197    3    0    1
 -2      1525      1733      2073      2263
 -1      1198    3    0    1
 -2      1071       783      1072      2067
 -1      1199    3    0    1
 -2       284       285      1331      1766
 -1      1200    3    0    1
 -2      2125       838      2261      2678
 -1      1201    3    0    1
 -2       594       108      3030      3067
 -1      1202    3    0    1
 -2       653      1253       150       656
 -1      1203    3    0    1
 -2      1716      1598      2364      2382
 -1      1204    3    0    1
 -2      1461       387      1495      1512
 -1      1205    3    0    1
 -2      1728      1599      2397      2626
 -1      1206    3    0    1
 -2      2231      2489      2530      2835
 -1      1207    3    0    1
 -2      1642      2200      2788      2903
 -1      1208    3    0    1
 -2      2925      2926      2961      3091
 -1      1209    3    0    1
 -2      1732       398      1817      1879
 -1      1210    3    0    1
 -2       424      1288      2595      2598
 -1      1211    3    0    1
 -2      2023      1584      2053      2054
 -1      1212    3    0    1
 -2       905       413      2207      2247
 -1      1213    3    0    1
 -2       764       776      1066      1068
 -1      1214    3    0    1
 -2       211      2322      2597      2713
 -1      1215    3    0    1
 -2       430       431      2566      2706
 -1      1216    3    0    1
 -2      1754      1606      2141      2180
 -1      1217    3    0    1
 -2       906      1929      2273      2866
 -1      1218    3    0    1
 -2      1113       857      1111      1869
 -1      1219    3    0    1
 -2       792      1080       791      1078
 -1      1220    3    0    1
 -2      2015      2109      2147      2637
 -1      1221    3    0    1
 -2       193       187       705      1277
 -1      1222    3    0    1
 -2      3114      2967      3137      3153
 -1      1223    3    0    1
 -2       680       686      1019      1262
 -1      1224    3    0    1
 -2       674       673      1011      1014
 -1      1225    3    0    1
 -2       669       670      1019      1262
 -1      1226    3    0    1
 -2        26        19       488      1166
 -1      1227    3    0    1
 -2       576       967       959       571
 -1      1228    3    0    1
 -2       402       312      1602      1672
 -1      1229    3    0    1
 -2      1842      1806      2377      2419
 -1      1230    3    0    1
 -2      2234      2015      2370      2687
 -1      1231    3    0    1
 -2       622       992       983       621
 -1      1232    3    0    1
 -2       698       697      1273      1276
 -1      1233    3    0    1
 -2      1691      1593      1951      2132
 -1      1234    3    0    1
 -2      2623      1596      2683      2727
 -1      1235    3    0    1
 -2       160       157       656      1005
 -1      1236    3    0    1
 -2       643      1249       644      1001
 -1      1237    3    0    1
 -2        82       957      1745      2605
 -1      1238    3    0    1
 -2       729       361       724      1289
 -1      1239    3    0    1
 -2      1872      1556      2069      2242
 -1      1240    3    0    1
 -2      1575      1811      2053      2082
 -1      1241    3    0    1
 -2      1470      1765      3000      3130
 -1      1242    3    0    1
 -2       393       391      1559      1667
 -1      1243    3    0    1
 -2       332      2186      2699      2868
 -1      1244    3    0    1
 -2      1556      1901      1979      2515
 -1      1245    3    0    1
 -2      1414      1460      3129      1486
 -1      1246    3    0    1
 -2      2452      1666      2821      2854
 -1      1247    3    0    1
 -2      2406      1423      3092      3118
 -1      1248    3    0    1
 -2       116       605       974       976
 -1      1249    3    0    1
 -2         5       899       460        11
 -1      1250    3    0    1
 -2      2837      2635      2869      2876
 -1      1251    3    0    1
 -2      2051      1755      2476      2528
 -1      1252    3    0    1
 -2       394      1719      2083      2438
 -1      1253    3    0    1
 -2      2804      1436      3100      3146
 -1      1254    3    0    1
 -2       576       967       571       592
 -1      1255    3    0    1
 -2      1432      1332      3052      3053
 -1      1256    3    0    1
 -2      1356      1594      1711      2121
 -1      1257    3    0    1
 -2       106       579       585       961
 -1      1258    3    0    1
 -2      2299      1642      2321      2905
 -1      1259    3    0    1
 -2      1622      1897      2224      2356
 -1      1260    3    0    1
 -2        12       907      2174      2685
 -1      1261    3    0    1
 -2      1547      1663      1715      1740
 -1      1262    3    0    1
 -2      1890      1579      2088      2188
 -1      1263    3    0    1
 -2      1047      2291      2322      2578
 -1      1264    3    0    1
 -2      1034       197      2241      2338
 -1      1265    3    0    1
 -2      1321      1078       793      1317
 -1      1266    3    0    1
 -2       553       398       951      1210
 -1      1267    3    0    1
 -2       605       116       608       976
 -1      1268    3    0    1
 -2       295      1152       445      2701
 -1      1269    3    0    1
 -2       257       793       794      1078
 -1      1270    3    0    1
 -2       695      1274      1272      1028
 -1      1271    3    0    1
 -2      3095      3090      1446      2992
 -1      1272    3    0    1
 -2       694      1033       693      1025
 -1      1273    3    0    1
 -2      1045       369      2338      2624
 -1      1274    3    0    1
 -2      1561      1591      2369      2767
 -1      1275    3    0    1
 -2       729       724      1279      1289
 -1      1276    3    0    1
 -2       704      1747      1882      1980
 -1      1277    3    0    1
 -2      1011      1267       674      1014
 -1      1278    3    0    1
 -2      1534      1593      1999      2475
 -1      1279    3    0    1
 -2      1536      1579      1710      1890
 -1      1280    3    0    1
 -2      2028      1563      2042      2742
 -1      1281    3    0    1
 -2      1413      3109      3128      1485
 -1      1282    3    0    1
 -2       978      1230       603      1229
 -1      1283    3    0    1
 -2      1460      1478      3022      3045
 -1      1284    3    0    1
 -2       488       485       915      1166
 -1      1285    3    0    1
 -2         6         8       461      1155
 -1      1286    3    0    1
 -2       575       963      1218      1219
 -1      1287    3    0    1
 -2       718      1288      1283      1041
 -1      1288    3    0    1
 -2      2222       359      2597      2713
 -1      1289    3    0    1
 -2       306      1373      1709      1739
 -1      1290    3    0    1
 -2       134       139       633       994
 -1      1291    3    0    1
 -2       945        73      3022      3035
 -1      1292    3    0    1
 -2       619       630       631       988
 -1      1293    3    0    1
 -2      1545      1750      1915      2147
 -1      1294    3    0    1
 -2      1145      1405      2215      2370
 -1      1295    3    0    1
 -2      1421      1449      1504      3032
 -1      1296    3    0    1
 -2       890      1403       891      1924
 -1      1297    3    0    1
 -2       603      1230       112      1229
 -1      1298    3    0    1
 -2      2011       410      2208      2512
 -1      1299    3    0    1
 -2       248      2309      2689      2697
 -1      1300    3    0    1
 -2       228      2222      2679      2713
 -1      1301    3    0    1
 -2      1675      1582      1739      1812
 -1      1302    3    0    1
 -2      1806      1842      2027      2419
 -1      1303    3    0    1
 -2       954      1745      2399      2776
 -1      1304    3    0    1
 -2      1729      1640      2108      2384
 -1      1305    3    0    1
 -2      1453       244      3134      1482
 -1      1306    3    0    1
 -2       263       797       800      1084
 -1      1307    3    0    1
 -2      1021       700      1027      1277
 -1      1308    3    0    1
 -2      2804      1436      3058      3153
 -1      1309    3    0    1
 -2       520      2232      2314      2422
 -1      1310    3    0    1
 -2      1373      1372      1709      1997
 -1      1311    3    0    1
 -2       251      1071      1072      2067
 -1      1312    3    0    1
 -2      1600      1551      2120      2213
 -1      1313    3    0    1
 -2       653      1249      1001       656
 -1      1314    3    0    1
 -2      1721      1709      1739      1812
 -1      1315    3    0    1
 -2      1415      1438      1481      3046
 -1      1316    3    0    1
 -2      1953      1734      2101      2393
 -1      1317    3    0    1
 -2      3114      3137      1506      1507
 -1      1318    3    0    1
 -2       692      1027       699       691
 -1      1319    3    0    1
 -2      1788      2030      2130      2423
 -1      1320    3    0    1
 -2       377        78      3136      3039
 -1      1321    3    0    1
 -2       757       231       749      1048
 -1      1322    3    0    1
 -2      1051      1300      1053       742
 -1      1323    3    0    1
 -2      1593      1534      1691      2475
 -1      1324    3    0    1
 -2       489      1169       919      1170
 -1      1325    3    0    1
 -2      1590       534      1731      1809
 -1      1326    3    0    1
 -2       797       263       800      1081
 -1      1327    3    0    1
 -2      2022      2914      3109      3129
 -1      1328    3    0    1
 -2        12       413       464       905
 -1      1329    3    0    1
 -2       278       821       829      1327
 -1      1330    3    0    1
 -2      1672      1602      1992      2245
 -1      1331    3    0    1
 -2       514       508       929      2288
 -1      1332    3    0    1
 -2        58       537       540       933
 -1      1333    3    0    1
 -2      1442      1443      1466      3050
 -1      1334    3    0    1
 -2       527      1200      1196       937
 -1      1335    3    0    1
 -2       894      1406      2190      2672
 -1      1336    3    0    1
 -2       750      2304      2416      2669
 -1      1337    3    0    1
 -2       533        70       536      1198
 -1      1338    3    0    1
 -2      1982       403      2072      2127
 -1      1339    3    0    1
 -2         9       410       904      2383
 -1      1340    3    0    1
 -2      1161       902       457      1157
 -1      1341    3    0    1
 -2      1156       460       900      1163
 -1      1342    3    0    1
 -2      2215      2234      2370      2687
 -1      1343    3    0    1
 -2      2185       993      2282      2305
 -1      1344    3    0    1
 -2      2236      2083      2398      2490
 -1      1345    3    0    1
 -2       535      1561      1658      2236
 -1      1346    3    0    1
 -2      1666      2452      2682      2695
 -1      1347    3    0    1
 -2      1452      2904      3111      3130
 -1      1348    3    0    1
 -2       173      2350      2779      2787
 -1      1349    3    0    1
 -2        81      1208        83       555
 -1      1350    3    0    1
 -2       803       259       796      1323
 -1      1351    3    0    1
 -2      1547      1557      1611      1668
 -1      1352    3    0    1
 -2       458         9       410       904
 -1      1353    3    0    1
 -2      1070       777      1060      1073
 -1      1354    3    0    1
 -2       885       894      2085      2672
 -1      1355    3    0    1
 -2      2577      2931      2941      3104
 -1      1356    3    0    1
 -2       941       523       936       942
 -1      1357    3    0    1
 -2      1003      1252       652      1251
 -1      1358    3    0    1
 -2       802      1082      2978      3037
 -1      1359    3    0    1
 -2       398      1537      1817      1879
 -1      1360    3    0    1
 -2       141       136       629      1244
 -1      1361    3    0    1
 -2       375        80       557       950
 -1      1362    3    0    1
 -2      1319      1311      1787      2354
 -1      1363    3    0    1
 -2      1453      1465      3010      3042
 -1      1364    3    0    1
 -2       671       679      1013      1015
 -1      1365    3    0    1
 -2       177       365       676      1012
 -1      1366    3    0    1
 -2       110       614       608      1231
 -1      1367    3    0    1
 -2      1459       371      1460      1478
 -1      1368    3    0    1
 -2      1525      1631      1654      1866
 -1      1369    3    0    1
 -2       156       652       657      1258
 -1      1370    3    0    1
 -2       703       182       710      1271
 -1      1371    3    0    1
 -2      2098      2200      2751      2823
 -1      1372    3    0    1
 -2      1575      1811      2023      2053
 -1      1373    3    0    1
 -2       418      1092      2392      2824
 -1      1374    3    0    1
 -2      2202      2046      2228      2889
 -1      1375    3    0    1
 -2       256      1315      1314       797
 -1      1376    3    0    1
 -2      1768      2016      2066      2295
 -1      1377    3    0    1
 -2       777       772      1062      1065
 -1      1378    3    0    1
 -2       477      1177       496       495
 -1      1379    3    0    1
 -2      1978       940      2022      2986
 -1      1380    3    0    1
 -2      1887      1893      1940      1975
 -1      1381    3    0    1
 -2        46       509       926       928
 -1      1382    3    0    1
 -2      1661      1577      2143      2518
 -1      1383    3    0    1
 -2      1602      1570      1672      1992
 -1      1384    3    0    1
 -2       413        12      2174      2247
 -1      1385    3    0    1
 -2      1719       394      2069      2438
 -1      1386    3    0    1
 -2       518        40        53       920
 -1      1387    3    0    1
 -2       156       652      1003      1006
 -1      1388    3    0    1
 -2      2176      1056      2520      2679
 -1      1389    3    0    1
 -2       765       764       774      1066
 -1      1390    3    0    1
 -2       156       158       657      1006
 -1      1391    3    0    1
 -2      1551      2120      2213      2319
 -1      1392    3    0    1
 -2      1464      1446      3140      1490
 -1      1393    3    0    1
 -2      1449      1421      1504      3151
 -1      1394    3    0    1
 -2       158       156       657      1258
 -1      1395    3    0    1
 -2       185      1715      1900      2143
 -1      1396    3    0    1
 -2       208      1758      1987      2182
 -1      1397    3    0    1
 -2      1552      1674      2081      2086
 -1      1398    3    0    1
 -2      2022      1413      1414      3109
 -1      1399    3    0    1
 -2       652       156       999      1258
 -1      1400    3    0    1
 -2      1085       273      1766      2588
 -1      1401    3    0    1
 -2      1644      1534      1872      1999
 -1      1402    3    0    1
 -2      1496      3122      1495      1429
 -1      1403    3    0    1
 -2        91      1415      1481      1500
 -1      1404    3    0    1
 -2      1761      1792      1831      2220
 -1      1405    3    0    1
 -2       684       177       178      1020
 -1      1406    3    0    1
 -2       652      1254       997       148
 -1      1407    3    0    1
 -2      1010       680      1019      1262
 -1      1408    3    0    1
 -2       681      1017      1009       676
 -1      1409    3    0    1
 -2       148      1252       657       149
 -1      1410    3    0    1
 -2      1816      1994      2080      2395
 -1      1411    3    0    1
 -2      1045       720      1036      1046
 -1      1412    3    0    1
 -2      1444      1445      3121      1473
 -1      1413    3    0    1
 -2      1738      1698      2393      2775
 -1      1414    3    0    1
 -2      3105      3115      3000      3028
 -1      1415    3    0    1
 -2       678       671       679      1013
 -1      1416    3    0    1
 -2       670      1017      1009       669
 -1      1417    3    0    1
 -2       167       680      1010      1262
 -1      1418    3    0    1
 -2      1106      1365      2163      2169
 -1      1419    3    0    1
 -2       383      1068      1935      2278
 -1      1420    3    0    1
 -2      1033       711       693      1034
 -1      1421    3    0    1
 -2       616      1966      2538      2653
 -1      1422    3    0    1
 -2      3099      1409      1476      3132
 -1      1423    3    0    1
 -2       660       158       366      1006
 -1      1424    3    0    1
 -2       652       156       657      1006
 -1      1425    3    0    1
 -2      1017      1009       669      1020
 -1      1426    3    0    1
 -2       672       671      1013      1265
 -1      1427    3    0    1
 -2       670      1010      1019      1262
 -1      1428    3    0    1
 -2      2267       405      2821      2854
 -1      1429    3    0    1
 -2      2361      2338      2544      2624
 -1      1430    3    0    1
 -2      1536      1581      1898      2002
 -1      1431    3    0    1
 -2      1009       669      1020      1261
 -1      1432    3    0    1
 -2      2020      2349      2413      2608
 -1      1433    3    0    1
 -2       172       164       676      1008
 -1      1434    3    0    1
 -2       326       297      1354      1863
 -1      1435    3    0    1
 -2       164       676       681      1009
 -1      1436    3    0    1
 -2       387      1461      1495      3145
 -1      1437    3    0    1
 -2      1708      1524      1792      1831
 -1      1438    3    0    1
 -2       384       932      1656      2314
 -1      1439    3    0    1
 -2       177       676       681      1012
 -1      1440    3    0    1
 -2      1738      1581      1823      2276
 -1      1441    3    0    1
 -2      1610      1644      2400      2183
 -1      1442    3    0    1
 -2      1844      1362      1884      1959
 -1      1443    3    0    1
 -2      1431      1421      3032      3151
 -1      1444    3    0    1
 -2      1267      1011       674      1264
 -1      1445    3    0    1
 -2       964      1233      2137      2973
 -1      1446    3    0    1
 -2       173       175       680      1015
 -1      1447    3    0    1
 -2       677       685      1010      1018
 -1      1448    3    0    1
 -2      1776      1566      1838      1927
 -1      1449    3    0    1
 -2      1701      1545      1798      1915
 -1      1450    3    0    1
 -2       353       156      1003      1583
 -1      1451    3    0    1
 -2       919      2724      2825      2845
 -1      1452    3    0    1
 -2      1107      1680      1681      1684
 -1      1453    3    0    1
 -2      1132      1130      2177      2634
 -1      1454    3    0    1
 -2       192      1023       700       194
 -1      1455    3    0    1
 -2       365       177       676      1017
 -1      1456    3    0    1
 -2      1804       330      2023      2054
 -1      1457    3    0    1
 -2       343      1535      2353      2477
 -1      1458    3    0    1
 -2       170       674       673      1011
 -1      1459    3    0    1
 -2      1115       326      1863      2001
 -1      1460    3    0    1
 -2      1766      1085      2588      2660
 -1      1461    3    0    1
 -2      1448      3024      1518      3074
 -1      1462    3    0    1
 -2       514       532      1853      2288
 -1      1463    3    0    1
 -2      1908      1982      2127      2321
 -1      1464    3    0    1
 -2       174       167       677      1010
 -1      1465    3    0    1
 -2       606       607      1234      1957
 -1      1466    3    0    1
 -2      1159      1801      2614      2808
 -1      1467    3    0    1
 -2       381       437      1442      3097
 -1      1468    3    0    1
 -2       669       670       687      1019
 -1      1469    3    0    1
 -2      2126      2134      2203      2543
 -1      1470    3    0    1
 -2      1577      1781      1852      2076
 -1      1471    3    0    1
 -2       680       677      1010      1018
 -1      1472    3    0    1
 -2       833      1337       834      1837
 -1      1473    3    0    1
 -2       196       190       701      1028
 -1      1474    3    0    1
 -2      2381      2682      2822      2856
 -1      1475    3    0    1
 -2      2512      1918      2616      2673
 -1      1476    3    0    1
 -2      1424      1450      1454      3132
 -1      1477    3    0    1
 -2      1025       701      1034      1271
 -1      1478    3    0    1
 -2       184      1274       701      1272
 -1      1479    3    0    1
 -2        68        66      1200      1821
 -1      1480    3    0    1
 -2      1024       693      1035      1270
 -1      1481    3    0    1
 -2       701      1028      1030      1272
 -1      1482    3    0    1
 -2        66        68       537       943
 -1      1483    3    0    1
 -2      1380       867       868      2101
 -1      1484    3    0    1
 -2       321      1338      1680      1684
 -1      1485    3    0    1
 -2       696       695       702      1028
 -1      1486    3    0    1
 -2      2176      1047      2322      2578
 -1      1487    3    0    1
 -2        81       555       561       944
 -1      1488    3    0    1
 -2      1696      1558      1863      1881
 -1      1489    3    0    1
 -2      2040      1571      2092      2136
 -1      1490    3    0    1
 -2       669       688      1017      1020
 -1      1491    3    0    1
 -2      1558      1863      1881      1889
 -1      1492    3    0    1
 -2      1540      2087      2753      2849
 -1      1493    3    0    1
 -2       701       703      1034      1271
 -1      1494    3    0    1
 -2      1725      1721      1818      2082
 -1      1495    3    0    1
 -2       681       164      1009      1261
 -1      1496    3    0    1
 -2       697       186       698      1273
 -1      1497    3    0    1
 -2       726      1041      1871      1925
 -1      1498    3    0    1
 -2       696      1029       702       695
 -1      1499    3    0    1
 -2       909       471      1163      2258
 -1      1500    3    0    1
 -2      2243      1759      2323      2691
 -1      1501    3    0    1
 -2       408       296      1347      1688
 -1      1502    3    0    1
 -2      1685      1906      2246      2768
 -1      1503    3    0    1
 -2      1767       419      2217      2320
 -1      1504    3    0    1
 -2      1908       403      1982      2641
 -1      1505    3    0    1
 -2      1687      1589      1703      1847
 -1      1506    3    0    1
 -2      1409      1082      1424      3132
 -1      1507    3    0    1
 -2       701       190       703      1030
 -1      1508    3    0    1
 -2       190       701      1028      1030
 -1      1509    3    0    1
 -2      1468       274      1469      3126
 -1      1510    3    0    1
 -2       855      1368      1639      2056
 -1      1511    3    0    1
 -2      1041       718      1281      1283
 -1      1512    3    0    1
 -2      2319      2077      2405      2736
 -1      1513    3    0    1
 -2      1409      1454      3132      3056
 -1      1514    3    0    1
 -2       735       715       736      1047
 -1      1515    3    0    1
 -2      1536      1565      1710      1738
 -1      1516    3    0    1
 -2       487       913       915      2850
 -1      1517    3    0    1
 -2      1566      1776      1838      1856
 -1      1518    3    0    1
 -2       707       700      1024      1032
 -1      1519    3    0    1
 -2      2401      2235      2611      2772
 -1      1520    3    0    1
 -2       724       201       729      1279
 -1      1521    3    0    1
 -2      1734      1815      1993      2393
 -1      1522    3    0    1
 -2       201       724       729      1039
 -1      1523    3    0    1
 -2      1825      1873      2481      2802
 -1      1524    3    0    1
 -2      1693      1245      1840      1956
 -1      1525    3    0    1
 -2       694      1033       711       693
 -1      1526    3    0    1
 -2       189       186       697      1026
 -1      1527    3    0    1
 -2       188       184       701      1025
 -1      1528    3    0    1
 -2      1933      2173      2226      2334
 -1      1529    3    0    1
 -2      2077      2318      2414      2736
 -1      1530    3    0    1
 -2       201       203       724      1039
 -1      1531    3    0    1
 -2       739      1296       744      1059
 -1      1532    3    0    1
 -2       251       773       775      1071
 -1      1533    3    0    1
 -2      1143       429      1408      1913
 -1      1534    3    0    1
 -2       701       190      1033      1034
 -1      1535    3    0    1
 -2       190       196       701      1033
 -1      1536    3    0    1
 -2       184      1274       188       701
 -1      1537    3    0    1
 -2       700       187       705      1035
 -1      1538    3    0    1
 -2       929      1185      2003      2288
 -1      1539    3    0    1
 -2       703       710      1034      1271
 -1      1540    3    0    1
 -2       205       209       725      1284
 -1      1541    3    0    1
 -2      1643      1649      1741      2444
 -1      1542    3    0    1
 -2       403       975      2072      2127
 -1      1543    3    0    1
 -2       187       700      1032      1035
 -1      1544    3    0    1
 -2       726       718       728      1042
 -1      1545    3    0    1
 -2      1803       538      1861      2017
 -1      1546    3    0    1
 -2       220       749      1048      1297
 -1      1547    3    0    1
 -2      1436       360      1497      3153
 -1      1548    3    0    1
 -2       939       395      1658      1686
 -1      1549    3    0    1
 -2       311      1116      1738      1823
 -1      1550    3    0    1
 -2      1818      1575      2023      2053
 -1      1551    3    0    1
 -2       647       651       658      1258
 -1      1552    3    0    1
 -2      1999      2155      2475      2800
 -1      1553    3    0    1
 -2       727       734      1046      1285
 -1      1554    3    0    1
 -2       711       693       712      1035
 -1      1555    3    0    1
 -2       808       831      2336      2660
 -1      1556    3    0    1
 -2       718       719      1041      1281
 -1      1557    3    0    1
 -2      1593      1901      1903      1952
 -1      1558    3    0    1
 -2       284      1335      1766      2079
 -1      1559    3    0    1
 -2      2526      2007      2629      2746
 -1      1560    3    0    1
 -2       556       538       940      1803
 -1      1561    3    0    1
 -2      1177       919      2724      2825
 -1      1562    3    0    1
 -2      1922      2361      2544      2624
 -1      1563    3    0    1
 -2       745      1294      1051       221
 -1      1564    3    0    1
 -2       543      1201      1926      2314
 -1      1565    3    0    1
 -2      1676      1849      1902      2437
 -1      1566    3    0    1
 -2       751       758      1058      1297
 -1      1567    3    0    1
 -2       847      1362      1102      1959
 -1      1568    3    0    1
 -2      1603         9      2216      2235
 -1      1569    3    0    1
 -2       749       751      1058      1297
 -1      1570    3    0    1
 -2       187       700       705      1277
 -1      1571    3    0    1
 -2       810       276      2989      3020
 -1      1572    3    0    1
 -2       247       777      1062      1307
 -1      1573    3    0    1
 -2       718       719       726      1041
 -1      1574    3    0    1
 -2       220      1295       231       749
 -1      1575    3    0    1
 -2       208      1041      1288      1925
 -1      1576    3    0    1
 -2       701      1028      1272      1274
 -1      1577    3    0    1
 -2       177       681      1017      1020
 -1      1578    3    0    1
 -2      1865      1758      2351      2546
 -1      1579    3    0    1
 -2      2943      3100      3123      3152
 -1      1580    3    0    1
 -2       743      1299       742       750
 -1      1581    3    0    1
 -2      1301      1049       748      1292
 -1      1582    3    0    1
 -2      1809      1731      1967      2555
 -1      1583    3    0    1
 -2      2935      2938      3089      1460
 -1      1584    3    0    1
 -2       977      1779      2495      2933
 -1      1585    3    0    1
 -2       720      1045       736      1046
 -1      1586    3    0    1
 -2       725       345      1045      1046
 -1      1587    3    0    1
 -2      1309      2048      2651      2915
 -1      1588    3    0    1
 -2      2771      1530      2795      2837
 -1      1589    3    0    1
 -2       275       809      2988      3020
 -1      1590    3    0    1
 -2       729      1044       361      1047
 -1      1591    3    0    1
 -2       743      1299      1295       742
 -1      1592    3    0    1
 -2      1323       259      2290      2354
 -1      1593    3    0    1
 -2       748      1292      1049       218
 -1      1594    3    0    1
 -2       756       227       753      1296
 -1      1595    3    0    1
 -2      1562      1553      1813      2165
 -1      1596    3    0    1
 -2      1048       749      1058      1297
 -1      1597    3    0    1
 -2      1835      1288      1885      2598
 -1      1598    3    0    1
 -2      1617      1682      1689      1714
 -1      1599    3    0    1
 -2      1002      1255       651      2995
 -1      1600    3    0    1
 -2      1188       932       519      2232
 -1      1601    3    0    1
 -2      1325      2988      2989      3020
 -1      1602    3    0    1
 -2       741      1052       747       740
 -1      1603    3    0    1
 -2      1708      1712      2154      2681
 -1      1604    3    0    1
 -2       712       711      1035      1618
 -1      1605    3    0    1
 -2      1447      3116      3070      3077
 -1      1606    3    0    1
 -2      1397       329       335      1797
 -1      1607    3    0    1
 -2      1467         1      2999      3144
 -1      1608    3    0    1
 -2      1646      1659      1670      1769
 -1      1609    3    0    1
 -2      1669      1731      1967      2063
 -1      1610    3    0    1
 -2      2083      1199      2236      2398
 -1      1611    3    0    1
 -2      1855      1222      2664      2852
 -1      1612    3    0    1
 -2       763       768      1072      1302
 -1      1613    3    0    1
 -2      1645      1830      2021      2610
 -1      1614    3    0    1
 -2      1719       394      2083      2398
 -1      1615    3    0    1
 -2       338      2179      2188      2549
 -1      1616    3    0    1
 -2       651       634      2344      2496
 -1      1617    3    0    1
 -2      3100      3123      3146      3153
 -1      1618    3    0    1
 -2      1300      1051       745      1294
 -1      1619    3    0    1
 -2       749       223      1054      1299
 -1      1620    3    0    1
 -2      1067       770      1304      1305
 -1      1621    3    0    1
 -2      1310       765      1067      1304
 -1      1622    3    0    1
 -2       743      1053       750       742
 -1      1623    3    0    1
 -2      1851      1748      2240      2515
 -1      1624    3    0    1
 -2      1641      1825      2066      2295
 -1      1625    3    0    1
 -2      1663      1661      1740      2162
 -1      1626    3    0    1
 -2       230       228       753      1301
 -1      1627    3    0    1
 -2      1422      1447      1463      3077
 -1      1628    3    0    1
 -2       749       223       751      1054
 -1      1629    3    0    1
 -2      1461      3096      2987      3138
 -1      1630    3    0    1
 -2       775       773      1064      1071
 -1      1631    3    0    1
 -2       308       310      1121      1794
 -1      1632    3    0    1
 -2       385       384       932      1656
 -1      1633    3    0    1
 -2       218      1292       227       753
 -1      1634    3    0    1
 -2       717      1040       716      1038
 -1      1635    3    0    1
 -2       916      1416      1428      3072
 -1      1636    3    0    1
 -2       775       782      1072      1302
 -1      1637    3    0    1
 -2      1410      1332      1432      3053
 -1      1638    3    0    1
 -2      1452      1445      3125      3082
 -1      1639    3    0    1
 -2       773       781      1064      1071
 -1      1640    3    0    1
 -2       256      1315       797       262
 -1      1641    3    0    1
 -2      1912      1095      2336      2557
 -1      1642    3    0    1
 -2      2915      2958      3107      3134
 -1      1643    3    0    1
 -2        82      1211      2227      2535
 -1      1644    3    0    1
 -2       435       777      1070      1073
 -1      1645    3    0    1
 -2      2175       336      2655      2658
 -1      1646    3    0    1
 -2       756       230       376      1059
 -1      1647    3    0    1
 -2      2062       678      2477      2838
 -1      1648    3    0    1
 -2       237       777       780      1060
 -1      1649    3    0    1
 -2       435       433       777      1073
 -1      1650    3    0    1
 -2      1421      1449      3032      3151
 -1      1651    3    0    1
 -2       759       739       760      1059
 -1      1652    3    0    1
 -2       248       772       777      1065
 -1      1653    3    0    1
 -2       777       780      1060      1073
 -1      1654    3    0    1
 -2      1028       702      1846      1980
 -1      1655    3    0    1
 -2       239       781       242      1064
 -1      1656    3    0    1
 -2       789      1315      1083      1314
 -1      1657    3    0    1
 -2      1062      1311       777      1065
 -1      1658    3    0    1
 -2       235       770       769      1305
 -1      1659    3    0    1
 -2      1781       881      1822      1950
 -1      1660    3    0    1
 -2       774       764       776      1066
 -1      1661    3    0    1
 -2      1064       775      1071      1072
 -1      1662    3    0    1
 -2       125      1235      2064      2447
 -1      1663    3    0    1
 -2       177       178      2434      2830
 -1      1664    3    0    1
 -2      1732      1539      2000      2122
 -1      1665    3    0    1
 -2       568       956      2404      2412
 -1      1666    3    0    1
 -2       196      2337      2467      2505
 -1      1667    3    0    1
 -2      1872      1556      1901      2455
 -1      1668    3    0    1
 -2      1066       764      1068      1303
 -1      1669    3    0    1
 -2      1796       884      2239      2371
 -1      1670    3    0    1
 -2      1716      1910      2043      2382
 -1      1671    3    0    1
 -2       323      1137      1390      2302
 -1      1672    3    0    1
 -2      1093       823       822      2167
 -1      1673    3    0    1
 -2       773       251       775      1068
 -1      1674    3    0    1
 -2      1201       943       543      2692
 -1      1675    3    0    1
 -2      1736      1651      1837      1838
 -1      1676    3    0    1
 -2      1790      1536      1898      2002
 -1      1677    3    0    1
 -2       728      2650      2711      2740
 -1      1678    3    0    1
 -2      1035       712      1618      2391
 -1      1679    3    0    1
 -2      1650      1630      2204      2483
 -1      1680    3    0    1
 -2      1660      1558      1696      2426
 -1      1681    3    0    1
 -2      1593      1691      1901      1952
 -1      1682    3    0    1
 -2       793       794      1078      1080
 -1      1683    3    0    1
 -2       965       591      2404      2412
 -1      1684    3    0    1
 -2      1060       772       247       777
 -1      1685    3    0    1
 -2       721      1041      1283      1288
 -1      1686    3    0    1
 -2       788      1319       787      1075
 -1      1687    3    0    1
 -2      1078      1321       793      1080
 -1      1688    3    0    1
 -2       248       435       777      1070
 -1      1689    3    0    1
 -2       772       248       777      1070
 -1      1690    3    0    1
 -2      1041       208      1758      1925
 -1      1691    3    0    1
 -2      2988      1332      3052      1094
 -1      1692    3    0    1
 -2      1621      1529      2286      2484
 -1      1693    3    0    1
 -2       829       821      1095      1327
 -1      1694    3    0    1
 -2      1624      1535      2100      2164
 -1      1695    3    0    1
 -2       238       239       773      1303
 -1      1696    3    0    1
 -2      1054      1299      1576      2304
 -1      1697    3    0    1
 -2      2142       823      2310      2431
 -1      1698    3    0    1
 -2       256      1318       262       797
 -1      1699    3    0    1
 -2      1316       796      1076      1323
 -1      1700    3    0    1
 -2      2912      1765      2948      3105
 -1      1701    3    0    1
 -2        66       432      1904      2435
 -1      1702    3    0    1
 -2       763       768       783      1072
 -1      1703    3    0    1
 -2       124       979      2144      2843
 -1      1704    3    0    1
 -2      1744      1619      2126      2542
 -1      1705    3    0    1
 -2       268       263       797      1079
 -1      1706    3    0    1
 -2      1076       796      1085      1323
 -1      1707    3    0    1
 -2       793       261      1080      1321
 -1      1708    3    0    1
 -2       790      1323      1316       789
 -1      1709    3    0    1
 -2      1680      1609      1684      2316
 -1      1710    3    0    1
 -2       800       806      1084      1314
 -1      1711    3    0    1
 -2      1582      1675      1714      1777
 -1      1712    3    0    1
 -2       265       264       796      1075
 -1      1713    3    0    1
 -2       788      1319       795       787
 -1      1714    3    0    1
 -2       803       265       271      1316
 -1      1715    3    0    1
 -2       257      1317       258       793
 -1      1716    3    0    1
 -2       262       805       269      1315
 -1      1717    3    0    1
 -2       263       797      1079      1081
 -1      1718    3    0    1
 -2       812      1331       819       811
 -1      1719    3    0    1
 -2      2983      1061      3010      3018
 -1      1720    3    0    1
 -2      1762      1744      1891      2355
 -1      1721    3    0    1
 -2       259       796       801      1322
 -1      1722    3    0    1
 -2      1579      1550      1616      1947
 -1      1723    3    0    1
 -2      2172      1590      2270      2555
 -1      1724    3    0    1
 -2      2914      2957      3109      3136
 -1      1725    3    0    1
 -2      1546       339      1937      2329
 -1      1726    3    0    1
 -2      2034       905      2207      2609
 -1      1727    3    0    1
 -2       792      1080       798       791
 -1      1728    3    0    1
 -2       722       721      1283      1288
 -1      1729    3    0    1
 -2      2181       974      2751      2823
 -1      1730    3    0    1
 -2      2318      2077      2343      2736
 -1      1731    3    0    1
 -2       579        96      1213        94
 -1      1732    3    0    1
 -2       853       854      1951      2307
 -1      1733    3    0    1
 -2       645       663       664      1005
 -1      1734    3    0    1
 -2      1810      1652      1883      1989
 -1      1735    3    0    1
 -2      2469      2117      1136      2621
 -1      1736    3    0    1
 -2       682      1016      1266      2990
 -1      1737    3    0    1
 -2      2592      2347      2750      2791
 -1      1738    3    0    1
 -2       228       748      1056      1059
 -1      1739    3    0    1
 -2       534       535       938      1597
 -1      1740    3    0    1
 -2      1078      1321      1080       791
 -1      1741    3    0    1
 -2      1223       349      2379      2810
 -1      1742    3    0    1
 -2       337       116       980      1707
 -1      1743    3    0    1
 -2       821       287      1095      1096
 -1      1744    3    0    1
 -2      1887      1893      1975      1995
 -1      1745    3    0    1
 -2      1100      1352      1794      1819
 -1      1746    3    0    1
 -2      2953      3105      3000      3028
 -1      1747    3    0    1
 -2       818       280       817      1329
 -1      1748    3    0    1
 -2       771       766       778      3018
 -1      1749    3    0    1
 -2       277       820       825      1088
 -1      1750    3    0    1
 -2       425      1299      2629      2669
 -1      1751    3    0    1
 -2       789       807       808      1084
 -1      1752    3    0    1
 -2       380       273       801      1085
 -1      1753    3    0    1
 -2       796       259       801      1085
 -1      1754    3    0    1
 -2      1551      1795      2342      2484
 -1      1755    3    0    1
 -2      1088      1335      1097       814
 -1      1756    3    0    1
 -2       278       288       821      1327
 -1      1757    3    0    1
 -2       704       702      1030      1747
 -1      1758    3    0    1
 -2       817       818      1329      1333
 -1      1759    3    0    1
 -2       821       288      1326      1327
 -1      1760    3    0    1
 -2      2357      2308      2465      2696
 -1      1761    3    0    1
 -2       453      1155       454       907
 -1      1762    3    0    1
 -2      1590      1548      1746      1809
 -1      1763    3    0    1
 -2      1610      1769      1909      2541
 -1      1764    3    0    1
 -2       533        59       536      1189
 -1      1765    3    0    1
 -2      2941      2964      3104      3122
 -1      1766    3    0    1
 -2      1712      1763      2077      2318
 -1      1767    3    0    1
 -2      1908      1982      2072      2127
 -1      1768    3    0    1
 -2        39      1448      3138      3013
 -1      1769    3    0    1
 -2       791      1081      1079      1077
 -1      1770    3    0    1
 -2      2078      2508      2609      2841
 -1      1771    3    0    1
 -2      1652      1810      2369      2490
 -1      1772    3    0    1
 -2       816      1092       822       815
 -1      1773    3    0    1
 -2       849      1103      1911      2394
 -1      1774    3    0    1
 -2      1748      1566      1776      2250
 -1      1775    3    0    1
 -2       801       796      1312      1322
 -1      1776    3    0    1
 -2       814      1335      1097       831
 -1      1777    3    0    1
 -2      3122      1467      1496      3145
 -1      1778    3    0    1
 -2       280       818       282      1329
 -1      1779    3    0    1
 -2      1452      1420      3125      1503
 -1      1780    3    0    1
 -2      1097       820      1088       825
 -1      1781    3    0    1
 -2      1280       204      3059      3078
 -1      1782    3    0    1
 -2       772       247      1062       240
 -1      1783    3    0    1
 -2       534      1198      1746      1809
 -1      1784    3    0    1
 -2       839      1346      1679      1774
 -1      1785    3    0    1
 -2       629       141       992       993
 -1      1786    3    0    1
 -2       826      1888      2716      2717
 -1      1787    3    0    1
 -2       208      1758      1885      1987
 -1      1788    3    0    1
 -2      1095       821      1326      1327
 -1      1789    3    0    1
 -2      1581      1536      1710      1738
 -1      1790    3    0    1
 -2       499      1180       500       928
 -1      1791    3    0    1
 -2      1333      1090       818      1329
 -1      1792    3    0    1
 -2      1581      1881      1898      2002
 -1      1793    3    0    1
 -2      1792      1708      1831      2220
 -1      1794    3    0    1
 -2      3010       762      1499      3025
 -1      1795    3    0    1
 -2       693      1025      1034      1271
 -1      1796    3    0    1
 -2       816      1093      1089       815
 -1      1797    3    0    1
 -2      1458      3087      3110      3131
 -1      1798    3    0    1
 -2      1116       311      1738      2276
 -1      1799    3    0    1
 -2      1771      1664      2012      2410
 -1      1800    3    0    1
 -2      1162       466      2599      2614
 -1      1801    3    0    1
 -2       290       287       824      1096
 -1      1802    3    0    1
 -2       287       821       824      1096
 -1      1803    3    0    1
 -2      1934      1538      2000      2105
 -1      1804    3    0    1
 -2      2310       823      2331      2431
 -1      1805    3    0    1
 -2      1666      2452      2690      2854
 -1      1806    3    0    1
 -2      2009      2561      2565      2799
 -1      1807    3    0    1
 -2       544       523       941       942
 -1      1808    3    0    1
 -2       720      1045      1036       715
 -1      1809    3    0    1
 -2      1387       874      2138      2355
 -1      1810    3    0    1
 -2       311       307      1738      2276
 -1      1811    3    0    1
 -2        75       566       560      1202
 -1      1812    3    0    1
 -2      1865      1523      2351      2594
 -1      1813    3    0    1
 -2      2591       173      2779      2787
 -1      1814    3    0    1
 -2      2591       687      2642      2656
 -1      1815    3    0    1
 -2       190       701       703      1034
 -1      1816    3    0    1
 -2         5       899       897       460
 -1      1817    3    0    1
 -2      2227      1211      2534      2535
 -1      1818    3    0    1
 -2      2382      1598      2421      2539
 -1      1819    3    0    1
 -2       464       470       908      1154
 -1      1820    3    0    1
 -2       982      1244       632       989
 -1      1821    3    0    1
 -2      1593      1691      1951      2106
 -1      1822    3    0    1
 -2      1797      1725      1818      1916
 -1      1823    3    0    1
 -2        15       431       465       909
 -1      1824    3    0    1
 -2      2102      2089      2378      2607
 -1      1825    3    0    1
 -2      1553      1690      1988      2165
 -1      1826    3    0    1
 -2      1097       832      2409      2461
 -1      1827    3    0    1
 -2      1403       890      1146      1924
 -1      1828    3    0    1
 -2       720      1047       715      1039
 -1      1829    3    0    1
 -2      1727      2025      2442      2665
 -1      1830    3    0    1
 -2      2466      2524      2613      2714
 -1      1831    3    0    1
 -2       867      1380      1123      2101
 -1      1832    3    0    1
 -2      3003       922      3024      3062
 -1      1833    3    0    1
 -2      1660      1696      1704      1791
 -1      1834    3    0    1
 -2        35      1839      2034      2044
 -1      1835    3    0    1
 -2      1752       394      2242      2398
 -1      1836    3    0    1
 -2      1598      1994      2382      2429
 -1      1837    3    0    1
 -2       718       726       728      1041
 -1      1838    3    0    1
 -2       420      1912      2246      2568
 -1      1839    3    0    1
 -2       739       759       760      1058
 -1      1840    3    0    1
 -2      1044       729       361       724
 -1      1841    3    0    1
 -2      2013      2009      2584      2708
 -1      1842    3    0    1
 -2      1929      1174      1428      2964
 -1      1843    3    0    1
 -2       499      1181      1178       927
 -1      1844    3    0    1
 -2       865      1120      1626      1784
 -1      1845    3    0    1
 -2      2227       961      2778      2798
 -1      1846    3    0    1
 -2       586      1760      2137      2472
 -1      1847    3    0    1
 -2      1593      1691      1952      2132
 -1      1848    3    0    1
 -2      2328      1526      2777      2851
 -1      1849    3    0    1
 -2      1373      1709      1721      1997
 -1      1850    3    0    1
 -2       505       927      1181      1186
 -1      1851    3    0    1
 -2       133       988      1245      2209
 -1      1852    3    0    1
 -2      1527      2249      2734      2793
 -1      1853    3    0    1
 -2      1617      1682      1714      1924
 -1      1854    3    0    1
 -2      1626      1784      1917      2158
 -1      1855    3    0    1
 -2        62       531       537       933
 -1      1856    3    0    1
 -2         2       387      1496      3145
 -1      1857    3    0    1
 -2      1884       847      1362       848
 -1      1858    3    0    1
 -2      1348      1347      1688      1820
 -1      1859    3    0    1
 -2      1696      1660      1704      1863
 -1      1860    3    0    1
 -2      1441      1418      1448      3106
 -1      1861    3    0    1
 -2       243      2161      2277      2902
 -1      1862    3    0    1
 -2      1563      1550      1892      2028
 -1      1863    3    0    1
 -2      1876      1867      2500      2703
 -1      1864    3    0    1
 -2       119       973      1662      2480
 -1      1865    3    0    1
 -2       209       733       215      1036
 -1      1866    3    0    1
 -2       558       951      1923      2259
 -1      1867    3    0    1
 -2      1790      1558      1881      1898
 -1      1868    3    0    1
 -2       420      2363      2568      2768
 -1      1869    3    0    1
 -2        43      1181       505      1178
 -1      1870    3    0    1
 -2      2197      1452      3111      3130
 -1      1871    3    0    1
 -2        40       509       512      1180
 -1      1872    3    0    1
 -2        40      1182       920       509
 -1      1873    3    0    1
 -2      1985       942      2107       544
 -1      1874    3    0    1
 -2       406        46       509       926
 -1      1875    3    0    1
 -2      1344       323      2678      2726
 -1      1876    3    0    1
 -2        68        66       537      1200
 -1      1877    3    0    1
 -2       185       339       697      1029
 -1      1878    3    0    1
 -2      1581      1536      1738      1823
 -1      1879    3    0    1
 -2       750      1300       752       742
 -1      1880    3    0    1
 -2       465       468       900       909
 -1      1881    3    0    1
 -2      1467      3027      3063      3064
 -1      1882    3    0    1
 -2       377      1443      3136      1485
 -1      1883    3    0    1
 -2      1628      1767      2225      2320
 -1      1884    3    0    1
 -2       797       256       800      1314
 -1      1885    3    0    1
 -2      1742      1575      1827      1896
 -1      1886    3    0    1
 -2       301      1401      1149      1770
 -1      1887    3    0    1
 -2      2622       863      2757      2844
 -1      1888    3    0    1
 -2       129       629       637       983
 -1      1889    3    0    1
 -2      3102      2928      3008      3151
 -1      1890    3    0    1
 -2       555        82       949      1211
 -1      1891    3    0    1
 -2      1739      1675      1963      2014
 -1      1892    3    0    1
 -2      2090      3087       953      2670
 -1      1893    3    0    1
 -2       726      1287      1706      1922
 -1      1894    3    0    1
 -2       974      1227       595       976
 -1      1895    3    0    1
 -2      1737      1543      2061      2617
 -1      1896    3    0    1
 -2      1641      1768      1874      2295
 -1      1897    3    0    1
 -2       974      1227      1226       595
 -1      1898    3    0    1
 -2      1887      1893      2397      2574
 -1      1899    3    0    1
 -2       601      1228       975      1225
 -1      1900    3    0    1
 -2       150       661       159       995
 -1      1901    3    0    1
 -2      1198      1590      1746      1809
 -1      1902    3    0    1
 -2      2150      1637      2194      2474
 -1      1903    3    0    1
 -2       763       783       784      1072
 -1      1904    3    0    1
 -2       712       711      1618      2337
 -1      1905    3    0    1
 -2      1349       839       840      1774
 -1      1906    3    0    1
 -2       581        97       584       958
 -1      1907    3    0    1
 -2      2238       976      2408      2742
 -1      1908    3    0    1
 -2       477       495       496       918
 -1      1909    3    0    1
 -2       488        27       917       918
 -1      1910    3    0    1
 -2        24       481       482      1164
 -1      1911    3    0    1
 -2        68        67       943      2885
 -1      1912    3    0    1
 -2      1662       120      2019      2447
 -1      1913    3    0    1
 -2      1139      1406      2796      2858
 -1      1914    3    0    1
 -2      1977       975      2181      2200
 -1      1915    3    0    1
 -2      1811      2023      2053      2054
 -1      1916    3    0    1
 -2      2750      1717      2760      2791
 -1      1917    3    0    1
 -2       225       223       751      1058
 -1      1918    3    0    1
 -2       342       343      1535      1624
 -1      1919    3    0    1
 -2      1554      1594      1689      2121
 -1      1920    3    0    1
 -2       419      1628      1767      1859
 -1      1921    3    0    1
 -2      2097      1785      2104      2205
 -1      1922    3    0    1
 -2       283       820      1088      1328
 -1      1923    3    0    1
 -2       452      1159       451       899
 -1      1924    3    0    1
 -2      1945      2729      2904      2940
 -1      1925    3    0    1
 -2      1914       462      2511      2586
 -1      1926    3    0    1
 -2      1010       680      1018      1019
 -1      1927    3    0    1
 -2       766      1311       771       778
 -1      1928    3    0    1
 -2      1188      2255      2450      2845
 -1      1929    3    0    1
 -2       556      3002       953      3035
 -1      1930    3    0    1
 -2       796       264       801      1312
 -1      1931    3    0    1
 -2      2228      1793      2306      2540
 -1      1932    3    0    1
 -2      2126      2134      2543      2645
 -1      1933    3    0    1
 -2       343      1014      2353      2481
 -1      1934    3    0    1
 -2       704       702      1747      1980
 -1      1935    3    0    1
 -2      1796      1797      1916      2239
 -1      1936    3    0    1
 -2      1671      1571      2040      2136
 -1      1937    3    0    1
 -2      1134      1389      1995      2359
 -1      1938    3    0    1
 -2      1658      1561      1678      1686
 -1      1939    3    0    1
 -2      1051      1300       745      1053
 -1      1940    3    0    1
 -2       865       866      1626      1655
 -1      1941    3    0    1
 -2      2507       711      2749      2809
 -1      1942    3    0    1
 -2      1837      1776      2376      1736
 -1      1943    3    0    1
 -2       849      1364      1103      2394
 -1      1944    3    0    1
 -2       391      1559      1667      2593
 -1      1945    3    0    1
 -2      3101      1415      3131      1481
 -1      1946    3    0    1
 -2      1408      1635      1949      1958
 -1      1947    3    0    1
 -2      1009      1020       681      1261
 -1      1948    3    0    1
 -2      1116      1738      1823      2276
 -1      1949    3    0    1
 -2       676       168       683      1009
 -1      1950    3    0    1
 -2      1676       330      1804      2054
 -1      1951    3    0    1
 -2      2972      1446      2974      3103
 -1      1952    3    0    1
 -2       432      1656      1904      2435
 -1      1953    3    0    1
 -2      1575      1604      1742      1827
 -1      1954    3    0    1
 -2      1361       848      1713      1948
 -1      1955    3    0    1
 -2      1908      1982      2321      2517
 -1      1956    3    0    1
 -2       211       212      1047      2322
 -1      1957    3    0    1
 -2       750      1299      2304      2669
 -1      1958    3    0    1
 -2      2125      1733      2261      2386
 -1      1959    3    0    1
 -2      1637      1524      1792      2112
 -1      1960    3    0    1
 -2       237       247       777      1060
 -1      1961    3    0    1
 -2      1199       394      1752      2398
 -1      1962    3    0    1
 -2       648      1258      1254       647
 -1      1963    3    0    1
 -2      3010      2983      3025      3042
 -1      1964    3    0    1
 -2       902      1161       457       904
 -1      1965    3    0    1
 -2         5      1156        11       460
 -1      1966    3    0    1
 -2         5      1156       460       900
 -1      1967    3    0    1
 -2       454      1163       453       471
 -1      1968    3    0    1
 -2       453       909       472       471
 -1      1969    3    0    1
 -2         5       468        17       900
 -1      1970    3    0    1
 -2       468         5       465       900
 -1      1971    3    0    1
 -2       901       461       903      1158
 -1      1972    3    0    1
 -2        10      1157        13       457
 -1      1973    3    0    1
 -2      1841      2231      2530      2550
 -1      1974    3    0    1
 -2      2944      1457      2993      3146
 -1      1975    3    0    1
 -2       435       433      1073      2385
 -1      1976    3    0    1
 -2       455      1158       903       456
 -1      1977    3    0    1
 -2      1093       816      1091       822
 -1      1978    3    0    1
 -2       802      1322      1787      1843
 -1      1979    3    0    1
 -2      1847      1589      2429      2493
 -1      1980    3    0    1
 -2       462       905       903       455
 -1      1981    3    0    1
 -2       456       455       462       903
 -1      1982    3    0    1
 -2      1806      1842      2160      2433
 -1      1983    3    0    1
 -2       390       321      1105      1684
 -1      1984    3    0    1
 -2      1639       855      2056      2139
 -1      1985    3    0    1
 -2       455      1158       901       903
 -1      1986    3    0    1
 -2         9       458       457       904
 -1      1987    3    0    1
 -2       897       460      1159      1162
 -1      1988    3    0    1
 -2        10      1157       457       902
 -1      1989    3    0    1
 -2      1777      1675      1924      2330
 -1      1990    3    0    1
 -2      1043      1298      2891      1434
 -1      1991    3    0    1
 -2       462       905       455       463
 -1      1992    3    0    1
 -2        12       461       903       905
 -1      1993    3    0    1
 -2      2910      2804      2944      3146
 -1      1994    3    0    1
 -2       453       454       471       907
 -1      1995    3    0    1
 -2      1180       926       509       928
 -1      1996    3    0    1
 -2       393      1186      2269      2390
 -1      1997    3    0    1
 -2       505       927      1178      1181
 -1      1998    3    0    1
 -2      1719      2083      2438      2490
 -1      1999    3    0    1
 -2       469        12       415       907
 -1      2000    3    0    1
 -2        12       469       461       907
 -1      2001    3    0    1
 -2       481       914      1164      1167
 -1      2002    3    0    1
 -2      1397      1396      1797      2239
 -1      2003    3    0    1
 -2       461        12       907       908
 -1      2004    3    0    1
 -2        12       461       464       908
 -1      2005    3    0    1
 -2       412       464       470       908
 -1      2006    3    0    1
 -2       412       413       464       908
 -1      2007    3    0    1
 -2      1352       308      1100      1794
 -1      2008    3    0    1
 -2      1887      1893      1995      2397
 -1      2009    3    0    1
 -2       728      1835      2650      2740
 -1      2010    3    0    1
 -2       486       475       487       913
 -1      2011    3    0    1
 -2      1653      1669      1967      2063
 -1      2012    3    0    1
 -2      1587      1640      1729      1976
 -1      2013    3    0    1
 -2      1332       819      1743      1888
 -1      2014    3    0    1
 -2       855      1370      1367      2139
 -1      2015    3    0    1
 -2       475       476       487       913
 -1      2016    3    0    1
 -2       807      1073      1323      1605
 -1      2017    3    0    1
 -2       308      1121      1378      1794
 -1      2018    3    0    1
 -2       815      1333      1092       823
 -1      2019    3    0    1
 -2       383      1072      2324      2688
 -1      2020    3    0    1
 -2      1420      2968      3125      3141
 -1      2021    3    0    1
 -2      1439      1425      3120      3042
 -1      2022    3    0    1
 -2       482        23       411       914
 -1      2023    3    0    1
 -2        23       482       481       914
 -1      2024    3    0    1
 -2       493       485       917      1168
 -1      2025    3    0    1
 -2      1590      1548      1809      2172
 -1      2026    3    0    1
 -2        33       485       913       915
 -1      2027    3    0    1
 -2      1714      1785      2103      2104
 -1      2028    3    0    1
 -2      1418      1185      3061      3074
 -1      2029    3    0    1
 -2       938       534      1597      1731
 -1      2030    3    0    1
 -2        26       488      1168      1171
 -1      2031    3    0    1
 -2        27       485       488       917
 -1      2032    3    0    1
 -2      1556      1872      1901      1903
 -1      2033    3    0    1
 -2       493        33        35       917
 -1      2034    3    0    1
 -2        33       493       485       917
 -1      2035    3    0    1
 -2       478       477       496       918
 -1      2036    3    0    1
 -2        27       494        36       918
 -1      2037    3    0    1
 -2       494        27       488       918
 -1      2038    3    0    1
 -2       495       477       917       918
 -1      2039    3    0    1
 -2       478       919      1169      1170
 -1      2040    3    0    1
 -2       492        32        38       919
 -1      2041    3    0    1
 -2        32       492       489       919
 -1      2042    3    0    1
 -2        50        51       513       921
 -1      2043    3    0    1
 -2       395      1591      1686      2057
 -1      2044    3    0    1
 -2       887      1408       896      1958
 -1      2045    3    0    1
 -2      2031      1824      2478      2785
 -1      2046    3    0    1
 -2       296       408      1103      1911
 -1      2047    3    0    1
 -2      2404       957      2464      2605
 -1      2048    3    0    1
 -2      1537       398      2065      2259
 -1      2049    3    0    1
 -2      1845      1128      1895      2027
 -1      2050    3    0    1
 -2       504      1187       503       514
 -1      2051    3    0    1
 -2        32      1177       484        29
 -1      2052    3    0    1
 -2      1723      2161      2277      2643
 -1      2053    3    0    1
 -2      1582      1675      1739      2014
 -1      2054    3    0    1
 -2       491        29       484      1177
 -1      2055    3    0    1
 -2       484       919        32       489
 -1      2056    3    0    1
 -2       921      1188       501      1183
 -1      2057    3    0    1
 -2      2161      1723      2277      2902
 -1      2058    3    0    1
 -2      2252       422      2807      2907
 -1      2059    3    0    1
 -2      1605      1323      2290      2354
 -1      2060    3    0    1
 -2      2962      2999      3015      3144
 -1      2061    3    0    1
 -2      1826      1830      2610      2859
 -1      2062    3    0    1
 -2      1625      2125      2678      2726
 -1      2063    3    0    1
 -2        27      2748      2806      2906
 -1      2064    3    0    1
 -2       505       391       506       927
 -1      2065    3    0    1
 -2      1184       507       923      1187
 -1      2066    3    0    1
 -2       507      1184       513      1187
 -1      2067    3    0    1
 -2       500      1186      1181       499
 -1      2068    3    0    1
 -2      1938      1000       330      1257
 -1      2069    3    0    1
 -2       510       499       511       928
 -1      2070    3    0    1
 -2      1831       314      2220      2681
 -1      2071    3    0    1
 -2       499       510       926       928
 -1      2072    3    0    1
 -2       505       391       927      1186
 -1      2073    3    0    1
 -2      1765      1470      3000      3105
 -1      2074    3    0    1
 -2      1309      1069      1439      3025
 -1      2075    3    0    1
 -2      2904      2940      2942      3130
 -1      2076    3    0    1
 -2      1708      2154      2216      2640
 -1      2077    3    0    1
 -2        70       396       536      1198
 -1      2078    3    0    1
 -2       557       560       956      1202
 -1      2079    3    0    1
 -2       948       557       956      1202
 -1      2080    3    0    1
 -2      2241      1034      2337      2467
 -1      2081    3    0    1
 -2       502       931       501       520
 -1      2082    3    0    1
 -2      1969      1640      1976      2384
 -1      2083    3    0    1
 -2       406       405       509       930
 -1      2084    3    0    1
 -2       509       405       517       930
 -1      2085    3    0    1
 -2        46       518        55       931
 -1      2086    3    0    1
 -2       518        46       512       931
 -1      2087    3    0    1
 -2       519       501       930       931
 -1      2088    3    0    1
 -2       519       501       520       932
 -1      2089    3    0    1
 -2       385       384       513       932
 -1      2090    3    0    1
 -2       513       384       516       932
 -1      2091    3    0    1
 -2        62       539       531       935
 -1      2092    3    0    1
 -2       528       941       523       936
 -1      2093    3    0    1
 -2        64       541        69       936
 -1      2094    3    0    1
 -2       541        64       533       936
 -1      2095    3    0    1
 -2       526       532       538       937
 -1      2096    3    0    1
 -2      1707       116      1966      2110
 -1      2097    3    0    1
 -2       527       526       538       937
 -1      2098    3    0    1
 -2      2022       940      1413      2986
 -1      2099    3    0    1
 -2       515       507      1183      1188
 -1      2100    3    0    1
 -2      1653      1697      1967      2123
 -1      2101    3    0    1
 -2        45       515        54      1188
 -1      2102    3    0    1
 -2       507        45       932      1188
 -1      2103    3    0    1
 -2       943       531       933       537
 -1      2104    3    0    1
 -2      1710      1850      2179      1565
 -1      2105    3    0    1
 -2       525      1199       938       535
 -1      2106    3    0    1
 -2       185      1029      1276      1546
 -1      2107    3    0    1
 -2       185       339      1029      1546
 -1      2108    3    0    1
 -2       534       524       535       939
 -1      2109    3    0    1
 -2      1579      1536      1710      1790
 -1      2110    3    0    1
 -2      1571      1744      1762      2138
 -1      2111    3    0    1
 -2       616       980      1966      2653
 -1      2112    3    0    1
 -2      1835       726      1871      1925
 -1      2113    3    0    1
 -2       627       610      1779      2448
 -1      2114    3    0    1
 -2      1713      1633      1948      2165
 -1      2115    3    0    1
 -2      1310       774       776      2253
 -1      2116    3    0    1
 -2       537       540       933       943
 -1      2117    3    0    1
 -2       523       543       544       941
 -1      2118    3    0    1
 -2      1735      1736      1776      1838
 -1      2119    3    0    1
 -2        82       555       954       957
 -1      2120    3    0    1
 -2       541        70        71       941
 -1      2121    3    0    1
 -2        70       541       533       941
 -1      2122    3    0    1
 -2       936       533       941       942
 -1      2123    3    0    1
 -2       395       396       536       942
 -1      2124    3    0    1
 -2       395       536       542       942
 -1      2125    3    0    1
 -2       943      1985      2692      2885
 -1      2126    3    0    1
 -2        68        67       537       943
 -1      2127    3    0    1
 -2       537        67       540       943
 -1      2128    3    0    1
 -2       528       943       523       543
 -1      2129    3    0    1
 -2       563        83        88      1208
 -1      2130    3    0    1
 -2       552       955       567       547
 -1      2131    3    0    1
 -2       590       584       959       967
 -1      2132    3    0    1
 -2       548      1206      1203       951
 -1      2133    3    0    1
 -2       552       955       547       948
 -1      2134    3    0    1
 -2        79       565        87       948
 -1      2135    3    0    1
 -2       565        79       557       948
 -1      2136    3    0    1
 -2       960       579       965      1212
 -1      2137    3    0    1
 -2      2777      1526      2814      2865
 -1      2138    3    0    1
 -2      1174       916       490      1929
 -1      2139    3    0    1
 -2       551      1211      1207       550
 -1      2140    3    0    1
 -2        66       539       432      1201
 -1      2141    3    0    1
 -2       539       531       935      1201
 -1      2142    3    0    1
 -2       396       395       939      1686
 -1      2143    3    0    1
 -2      3102      3103      1455      3118
 -1      2144    3    0    1
 -2       581       105       963      1222
 -1      2145    3    0    1
 -2      2030      1961      2130      2423
 -1      2146    3    0    1
 -2      3089      2934      1460      2982
 -1      2147    3    0    1
 -2       549      1210       548       559
 -1      2148    3    0    1
 -2       398       399       553       951
 -1      2149    3    0    1
 -2      2560       187      2579      2590
 -1      2150    3    0    1
 -2       549      1210      1206       548
 -1      2151    3    0    1
 -2      1769      1533      2171      2541
 -1      2152    3    0    1
 -2       378        82       954      1745
 -1      2153    3    0    1
 -2       558       548       559       952
 -1      2154    3    0    1
 -2       343      1535      1624      2164
 -1      2155    3    0    1
 -2      1603         9      2235      2383
 -1      2156    3    0    1
 -2       548       558       950       952
 -1      2157    3    0    1
 -2       953      1412      3087      3129
 -1      2158    3    0    1
 -2       953      1209      1414      3129
 -1      2159    3    0    1
 -2       167       677       680      1263
 -1      2160    3    0    1
 -2       552       547       567       954
 -1      2161    3    0    1
 -2       567       957       954       547
 -1      2162    3    0    1
 -2       547       957       954       944
 -1      2163    3    0    1
 -2        84       378       555       954
 -1      2164    3    0    1
 -2        84       555       563       954
 -1      2165    3    0    1
 -2       547      1208       944       954
 -1      2166    3    0    1
 -2      2353      2481      2803      2889
 -1      2167    3    0    1
 -2       375        86       557       955
 -1      2168    3    0    1
 -2       557        86       565       955
 -1      2169    3    0    1
 -2      2009      2013      2565      2708
 -1      2170    3    0    1
 -2       579        92       587      1212
 -1      2171    3    0    1
 -2       955       547       948       956
 -1      2172    3    0    1
 -2       948       557       955       956
 -1      2173    3    0    1
 -2        80       566        89       956
 -1      2174    3    0    1
 -2       566        80       560       956
 -1      2175    3    0    1
 -2      1105       851      1609      1681
 -1      2176    3    0    1
 -2        96       588        98       960
 -1      2177    3    0    1
 -2       588        96       585       960
 -1      2178    3    0    1
 -2      1059      1070      2436      2689
 -1      2179    3    0    1
 -2       603      1230       609       112
 -1      2180    3    0    1
 -2       113      1228       115       602
 -1      2181    3    0    1
 -2       577       578       962      1217
 -1      2182    3    0    1
 -2      2217      1532      2272      2292
 -1      2183    3    0    1
 -2       571       576       965      1212
 -1      2184    3    0    1
 -2      1906      2486      2765      2768
 -1      2185    3    0    1
 -2       101       578       349       962
 -1      2186    3    0    1
 -2       578       101       577       962
 -1      2187    3    0    1
 -2      1028      1683      1726      1846
 -1      2188    3    0    1
 -2       306      1402      1147      1963
 -1      2189    3    0    1
 -2        97       581       584      1219
 -1      2190    3    0    1
 -2      1030      1747      2361      2544
 -1      2191    3    0    1
 -2      1822      1950      2010      2375
 -1      2192    3    0    1
 -2      2891      1298      2943      3123
 -1      2193    3    0    1
 -2      1586      2191      2198      2677
 -1      2194    3    0    1
 -2       106       357       585       965
 -1      2195    3    0    1
 -2      1201      2314      2435      2692
 -1      2196    3    0    1
 -2       605      1231       969       109
 -1      2197    3    0    1
 -2       591       571       592       965
 -1      2198    3    0    1
 -2       576       968       965       960
 -1      2199    3    0    1
 -2       571       576       592       965
 -1      2200    3    0    1
 -2       106       587       373       965
 -1      2201    3    0    1
 -2       587       106       579       965
 -1      2202    3    0    1
 -2       576       968       592       965
 -1      2203    3    0    1
 -2       579        96       585      1213
 -1      2204    3    0    1
 -2       425      2527      2730      2815
 -1      2205    3    0    1
 -2       589       105       400       966
 -1      2206    3    0    1
 -2       105       589       581       966
 -1      2207    3    0    1
 -2      2124      2249      2469      2621
 -1      2208    3    0    1
 -2       590       348       584       967
 -1      2209    3    0    1
 -2       958       571       959       967
 -1      2210    3    0    1
 -2       571       966       591       967
 -1      2211    3    0    1
 -2       966       571       958       967
 -1      2212    3    0    1
 -2       606       975      2181      2284
 -1      2213    3    0    1
 -2      1523      1983      2351      2594
 -1      2214    3    0    1
 -2      2006      2117      2311      2734
 -1      2215    3    0    1
 -2       625       988      1236      1238
 -1      2216    3    0    1
 -2       620       619       988      1236
 -1      2217    3    0    1
 -2       601      1228      1225       113
 -1      2218    3    0    1
 -2       349       101      2379      2893
 -1      2219    3    0    1
 -2       633       628       991      1239
 -1      2220    3    0    1
 -2       600      1235       599       610
 -1      2221    3    0    1
 -2       974      1227       605      1226
 -1      2222    3    0    1
 -2      1594      1356      1775      2121
 -1      2223    3    0    1
 -2       622       983       993      1241
 -1      2224    3    0    1
 -2       993       142      2282      2547
 -1      2225    3    0    1
 -2       927       391      2498      2702
 -1      2226    3    0    1
 -2       134      2018      2558      2619
 -1      2227    3    0    1
 -2       787       802      2978      3037
 -1      2228    3    0    1
 -2      1423      1464      3140      1490
 -1      2229    3    0    1
 -2       851      1107       852      1681
 -1      2230    3    0    1
 -2       329       335      1797      1973
 -1      2231    3    0    1
 -2       338       403       601       975
 -1      2232    3    0    1
 -2       416      1333      2142      2454
 -1      2233    3    0    1
 -2       603      1232       609      1235
 -1      2234    3    0    1
 -2       596      1234      1228       595
 -1      2235    3    0    1
 -2      1533      1868      1965      2171
 -1      2236    3    0    1
 -2      1745        84      2017      2776
 -1      2237    3    0    1
 -2       606       595       607       976
 -1      2238    3    0    1
 -2      1185       929      2003      3106
 -1      2239    3    0    1
 -2      1878      2004      2005      2233
 -1      2240    3    0    1
 -2       595       606       974       976
 -1      2241    3    0    1
 -2      1682      1777      1924      2330
 -1      2242    3    0    1
 -2      2990      1423      3140      1490
 -1      2243    3    0    1
 -2       400      1222      2417      2852
 -1      2244    3    0    1
 -2       620      1245      1238       988
 -1      2245    3    0    1
 -2       620       989       631       619
 -1      2246    3    0    1
 -2       988       620      1236      1238
 -1      2247    3    0    1
 -2       119       611       350       978
 -1      2248    3    0    1
 -2       611       119       603       978
 -1      2249    3    0    1
 -2      2265       418      2623      2683
 -1      2250    3    0    1
 -2       613       122       124       979
 -1      2251    3    0    1
 -2       122       613       605       979
 -1      2252    3    0    1
 -2       614       110       126      1231
 -1      2253    3    0    1
 -2       598       597       616       980
 -1      2254    3    0    1
 -2      1231       605       980       608
 -1      2255    3    0    1
 -2       605      1231       980       969
 -1      2256    3    0    1
 -2       969       605       979       980
 -1      2257    3    0    1
 -2       116       614       337       980
 -1      2258    3    0    1
 -2       614       116       608       980
 -1      2259    3    0    1
 -2       597       979       615       980
 -1      2260    3    0    1
 -2       979       597       969       980
 -1      2261    3    0    1
 -2       597      1231       969       980
 -1      2262    3    0    1
 -2       612       120       125       981
 -1      2263    3    0    1
 -2       120       612       609       981
 -1      2264    3    0    1
 -2       597       615       978       981
 -1      2265    3    0    1
 -2       623       987       627       634
 -1      2266    3    0    1
 -2       108       972      3012      3067
 -1      2267    3    0    1
 -2      1532      2225      2320      2764
 -1      2268    3    0    1
 -2       785       254      3007      3037
 -1      2269    3    0    1
 -2      1982      1850      2151      2641
 -1      2270    3    0    1
 -2       143       632       982      1237
 -1      2271    3    0    1
 -2       143       131       632      1237
 -1      2272    3    0    1
 -2       135       625      1236      1238
 -1      2273    3    0    1
 -2       624       987       623       634
 -1      2274    3    0    1
 -2       150      1249       656       152
 -1      2275    3    0    1
 -2       993      2166      2282      2305
 -1      2276    3    0    1
 -2       620       619       631       988
 -1      2277    3    0    1
 -2       620      1245       988       631
 -1      2278    3    0    1
 -2       327       306      1709      1739
 -1      2279    3    0    1
 -2      1723      2033      2087      2902
 -1      2280    3    0    1
 -2      1823       862      1889      2002
 -1      2281    3    0    1
 -2       630       619       631       989
 -1      2282    3    0    1
 -2       643      1256      1001       654
 -1      2283    3    0    1
 -2      2229       799      2559      2789
 -1      2284    3    0    1
 -2       977      1233      1437      3127
 -1      2285    3    0    1
 -2       653       157      1001      1256
 -1      2286    3    0    1
 -2      3007       786      1494      3038
 -1      2287    3    0    1
 -2      1094       826       819      1888
 -1      2288    3    0    1
 -2       984       127      3036      3057
 -1      2289    3    0    1
 -2       223      1054      1299      1576
 -1      2290    3    0    1
 -2       668      1268       675       667
 -1      2291    3    0    1
 -2       653      1253       995       150
 -1      2292    3    0    1
 -2       134       635       344       991
 -1      2293    3    0    1
 -2       635       134       628       991
 -1      2294    3    0    1
 -2       637       141       336       992
 -1      2295    3    0    1
 -2       141       637       629       992
 -1      2296    3    0    1
 -2       622       992       621       640
 -1      2297    3    0    1
 -2      1187      1853      1904      1939
 -1      2298    3    0    1
 -2      1960      2058      2442      2548
 -1      2299    3    0    1
 -2       983       629       992       993
 -1      2300    3    0    1
 -2       992       622       983       993
 -1      2301    3    0    1
 -2       136       638       142       993
 -1      2302    3    0    1
 -2      1754      1620      1756      2180
 -1      2303    3    0    1
 -2       638       136       632       993
 -1      2304    3    0    1
 -2       636       139       140       994
 -1      2305    3    0    1
 -2       139       636       633       994
 -1      2306    3    0    1
 -2       621       639       991       994
 -1      2307    3    0    1
 -2      1673      1588      1705      1955
 -1      2308    3    0    1
 -2       648      1258       647       658
 -1      2309    3    0    1
 -2       164       684       165      1261
 -1      2310    3    0    1
 -2       155       147       649      1247
 -1      2311    3    0    1
 -2       624      1246       987       634
 -1      2312    3    0    1
 -2       643      1256      1248      1001
 -1      2313    3    0    1
 -2       643      1250      1247      1000
 -1      2314    3    0    1
 -2      1941      2230      2563      2573
 -1      2315    3    0    1
 -2       649      1250       147       650
 -1      2316    3    0    1
 -2       652      1254       657      1258
 -1      2317    3    0    1
 -2       644      1257      1250       643
 -1      2318    3    0    1
 -2       643       644       655      1001
 -1      2319    3    0    1
 -2       654       643       655      1001
 -1      2320    3    0    1
 -2      2579       682      2589      2830
 -1      2321    3    0    1
 -2       357       107       968      2199
 -1      2322    3    0    1
 -2      2975      3104      1461      2996
 -1      2323    3    0    1
 -2       274         1      1469      3126
 -1      2324    3    0    1
 -2      1952      1593      2132      2250
 -1      2325    3    0    1
 -2       684       681      1020      1261
 -1      2326    3    0    1
 -2      1221       964      2670      3131
 -1      2327    3    0    1
 -2      1570      1580      2389      2551
 -1      2328    3    0    1
 -2      3101      1415      3115      3131
 -1      2329    3    0    1
 -2       156       659       353      1003
 -1      2330    3    0    1
 -2       659       156       652      1003
 -1      2331    3    0    1
 -2      2217      1532      2292      2320
 -1      2332    3    0    1
 -2       661       157       161      1004
 -1      2333    3    0    1
 -2       157       661       653      1004
 -1      2334    3    0    1
 -2       701       709      1025      1033
 -1      2335    3    0    1
 -2       646       645       664      1005
 -1      2336    3    0    1
 -2      1253       653      1005       656
 -1      2337    3    0    1
 -2       653       157      1004      1005
 -1      2338    3    0    1
 -2       157       653       656      1005
 -1      2339    3    0    1
 -2       653      1253      1005       995
 -1      2340    3    0    1
 -2       995       653      1004      1005
 -1      2341    3    0    1
 -2       160       662       332      1005
 -1      2342    3    0    1
 -2       662       160       656      1005
 -1      2343    3    0    1
 -2      1901      1556      1979      2026
 -1      2344    3    0    1
 -2       645      1004       663      1005
 -1      2345    3    0    1
 -2      1004       645       995      1005
 -1      2346    3    0    1
 -2       645      1253       995      1005
 -1      2347    3    0    1
 -2       158       660       657      1006
 -1      2348    3    0    1
 -2       645       663      1003      1006
 -1      2349    3    0    1
 -2       172       168       676      1009
 -1      2350    3    0    1
 -2       169       677       685      1010
 -1      2351    3    0    1
 -2       169       174       677      1010
 -1      2352    3    0    1
 -2       681       676      1008      1012
 -1      2353    3    0    1
 -2       192       700       705      1270
 -1      2354    3    0    1
 -2      2011      2512      2616      2673
 -1      2355    3    0    1
 -2      1408      1143      1635      1958
 -1      2356    3    0    1
 -2      3101      1438      1480      1481
 -1      2357    3    0    1
 -2       668      1268      1012       675
 -1      2358    3    0    1
 -2       708       192       705      1270
 -1      2359    3    0    1
 -2      1669       938      1731      2063
 -1      2360    3    0    1
 -2      1588      1568      1705      1955
 -1      2361    3    0    1
 -2       896      1408      1949      1958
 -1      2362    3    0    1
 -2       342       673       674      1014
 -1      2363    3    0    1
 -2      1027       699      2050      2579
 -1      2364    3    0    1
 -2      1538      1700      1870      1934
 -1      2365    3    0    1
 -2       523       936       942      1189
 -1      2366    3    0    1
 -2       173       677      1013      1015
 -1      2367    3    0    1
 -2       687       669       688      1017
 -1      2368    3    0    1
 -2       676       177       681      1017
 -1      2369    3    0    1
 -2       724      1039      1044       729
 -1      2370    3    0    1
 -2       700       192       705      1021
 -1      2371    3    0    1
 -2       365       683       368      1017
 -1      2372    3    0    1
 -2       683       365       676      1017
 -1      2373    3    0    1
 -2      1782      2059      2587      2774
 -1      2374    3    0    1
 -2       685       173       367      1018
 -1      2375    3    0    1
 -2       173       685       677      1018
 -1      2376    3    0    1
 -2      1712       869      1763      2318
 -1      2377    3    0    1
 -2      1768       889      1874      2215
 -1      2378    3    0    1
 -2       175       686       340      1019
 -1      2379    3    0    1
 -2       490       916      3041      3073
 -1      2380    3    0    1
 -2       686       175       680      1019
 -1      2381    3    0    1
 -2       670      1018       687      1019
 -1      2382    3    0    1
 -2       167       174       677      1263
 -1      2383    3    0    1
 -2      1018       670      1010      1019
 -1      2384    3    0    1
 -2       177       684       681      1020
 -1      2385    3    0    1
 -2       694      1032      1024       693
 -1      2386    3    0    1
 -2      2347      1066      2592      2750
 -1      2387    3    0    1
 -2      1853       514      2602      2832
 -1      2388    3    0    1
 -2       694      1032       693       711
 -1      2389    3    0    1
 -2       700       181       707      1024
 -1      2390    3    0    1
 -2       194       181       700      1024
 -1      2391    3    0    1
 -2       183       701       709      1025
 -1      2392    3    0    1
 -2       183       188       701      1025
 -1      2393    3    0    1
 -2      1039       724      1044      1278
 -1      2394    3    0    1
 -2      1233       977       604      2582
 -1      2395    3    0    1
 -2       699      1277       706       691
 -1      2396    3    0    1
 -2      1023      1021       700      1027
 -1      2397    3    0    1
 -2       192       708       198      1270
 -1      2398    3    0    1
 -2       184       182       703      1271
 -1      2399    3    0    1
 -2       700      1024      1035      1270
 -1      2400    3    0    1
 -2       203       201       724      1279
 -1      2401    3    0    1
 -2       691      1277      1021      1027
 -1      2402    3    0    1
 -2      1023       691      1021      1027
 -1      2403    3    0    1
 -2       186       697      1026      1273
 -1      2404    3    0    1
 -2      1586      1554      1594      1689
 -1      2405    3    0    1
 -2       491       484      1169      1177
 -1      2406    3    0    1
 -2       392       938      1199      1752
 -1      2407    3    0    1
 -2         9      2216      2235      2772
 -1      2408    3    0    1
 -2      1006       664      2562      2642
 -1      2409    3    0    1
 -2       695       702      1028      1030
 -1      2410    3    0    1
 -2       702       695       704      1030
 -1      2411    3    0    1
 -2      2217      1677      2628      2676
 -1      2412    3    0    1
 -2      1569      1778      2150      2248
 -1      2413    3    0    1
 -2      1450       436      1454      3132
 -1      2414    3    0    1
 -2       725       345       727      1287
 -1      2415    3    0    1
 -2      2978      3007      3037      3056
 -1      2416    3    0    1
 -2       435      1073      2309      2385
 -1      2417    3    0    1
 -2       345       426       727      1287
 -1      2418    3    0    1
 -2      1427      3114      1506      1507
 -1      2419    3    0    1
 -2       715      1045       735       736
 -1      2420    3    0    1
 -2       187       707       347      1032
 -1      2421    3    0    1
 -2       707       187       700      1032
 -1      2422    3    0    1
 -2       725       733      1036      1045
 -1      2423    3    0    1
 -2      2109      1612      2637      2687
 -1      2424    3    0    1
 -2       709       196       346      1033
 -1      2425    3    0    1
 -2       196       709       701      1033
 -1      2426    3    0    1
 -2      1033       693      1025      1034
 -1      2427    3    0    1
 -2       184       701       703      1272
 -1      2428    3    0    1
 -2      1025       701      1033      1034
 -1      2429    3    0    1
 -2       190       710       197      1034
 -1      2430    3    0    1
 -2       710       190       703      1034
 -1      2431    3    0    1
 -2      1032      1024       693      1035
 -1      2432    3    0    1
 -2       700      1024      1032      1035
 -1      2433    3    0    1
 -2       708       193       195      1035
 -1      2434    3    0    1
 -2       193       708       705      1035
 -1      2435    3    0    1
 -2      2500      1867      2673      2703
 -1      2436    3    0    1
 -2       201       732       207      1039
 -1      2437    3    0    1
 -2       732       201       729      1039
 -1      2438    3    0    1
 -2      2009      1619      2129      2542
 -1      2439    3    0    1
 -2       716       723       730      1040
 -1      2440    3    0    1
 -2       755       218       229      1290
 -1      2441    3    0    1
 -2       203       200       724      1278
 -1      2442    3    0    1
 -2       715      1039      1044      1278
 -1      2443    3    0    1
 -2       360      3123      1497      3153
 -1      2444    3    0    1
 -2       724       731      1044      1278
 -1      2445    3    0    1
 -2       141       136      1244      2175
 -1      2446    3    0    1
 -2       916      1174      3041      3072
 -1      2447    3    0    1
 -2      1840      1693      2052      2251
 -1      2448    3    0    1
 -2      1053       224      2071      2899
 -1      2449    3    0    1
 -2       203       724      1039      1278
 -1      2450    3    0    1
 -2       719       718       726      1042
 -1      2451    3    0    1
 -2       860      1373      1721      1997
 -1      2452    3    0    1
 -2      2085       894      2190      2672
 -1      2453    3    0    1
 -2       760      1059      1070      2436
 -1      2454    3    0    1
 -2      1566      1838      1851      1856
 -1      2455    3    0    1
 -2       231       757       232      1048
 -1      2456    3    0    1
 -2       251       421       773      1071
 -1      2457    3    0    1
 -2       378        82      1745      2535
 -1      2458    3    0    1
 -2       231       220       749      1048
 -1      2459    3    0    1
 -2       562       953      1221      1760
 -1      2460    3    0    1
 -2       214       724       731      1044
 -1      2461    3    0    1
 -2       214       361       724      1044
 -1      2462    3    0    1
 -2       733       345       369      1045
 -1      2463    3    0    1
 -2       345       733       725      1045
 -1      2464    3    0    1
 -2       720      1045       715       736
 -1      2465    3    0    1
 -2       345       725       727      1046
 -1      2466    3    0    1
 -2      1897       846      2108      2224
 -1      2467    3    0    1
 -2      1036       725      1045      1046
 -1      2468    3    0    1
 -2       216       426       727      1046
 -1      2469    3    0    1
 -2       216       727       734      1046
 -1      2470    3    0    1
 -2      1875       950      2057      2680
 -1      2471    3    0    1
 -2       732       211       212      1047
 -1      2472    3    0    1
 -2       211       732       729      1047
 -1      2473    3    0    1
 -2       715       735      1044      1047
 -1      2474    3    0    1
 -2       756       753      1059      1296
 -1      2475    3    0    1
 -2      1127      2077      2318      2414
 -1      2476    3    0    1
 -2      1638      1780      2426      2479
 -1      2477    3    0    1
 -2       743      1053       742      1051
 -1      2478    3    0    1
 -2       748      1296       753       218
 -1      2479    3    0    1
 -2       747      1301       754       740
 -1      2480    3    0    1
 -2       716      1289      1040       730
 -1      2481    3    0    1
 -2       748       755      1056      1290
 -1      2482    3    0    1
 -2      1296      1056       739      1290
 -1      2483    3    0    1
 -2       809      2988      3020      3052
 -1      2484    3    0    1
 -2       748      1296      1059       753
 -1      2485    3    0    1
 -2       218       755       748      1290
 -1      2486    3    0    1
 -2       543       520      1926      2296
 -1      2487    3    0    1
 -2       888      2116      2478      2502
 -1      2488    3    0    1
 -2       749       751      1050      1054
 -1      2489    3    0    1
 -2       348       967      1578      2403
 -1      2490    3    0    1
 -2       220      1295       749      1050
 -1      2491    3    0    1
 -2      2577      2930      3104      2987
 -1      2492    3    0    1
 -2       892      2025      2116      2502
 -1      2493    3    0    1
 -2       238       773       775      1303
 -1      2494    3    0    1
 -2       290       287      2348      2365
 -1      2495    3    0    1
 -2       773       238       775      1064
 -1      2496    3    0    1
 -2       239       238       773      1064
 -1      2497    3    0    1
 -2       573       572      1214      2994
 -1      2498    3    0    1
 -2       228       755       359      1056
 -1      2499    3    0    1
 -2       755       228       748      1056
 -1      2500    3    0    1
 -2      1854      1584      2023      2054
 -1      2501    3    0    1
 -2       757       223       425      1057
 -1      2502    3    0    1
 -2       223       757       749      1057
 -1      2503    3    0    1
 -2       396       939      1623      1686
 -1      2504    3    0    1
 -2      1368      1369      1615      1917
 -1      2505    3    0    1
 -2       744       739       760      1058
 -1      2506    3    0    1
 -2       749       223      1057      1058
 -1      2507    3    0    1
 -2       223       749       751      1058
 -1      2508    3    0    1
 -2       739      1297      1058       744
 -1      2509    3    0    1
 -2      1048       749      1057      1058
 -1      2510    3    0    1
 -2       225       758       422      1058
 -1      2511    3    0    1
 -2       758       225       751      1058
 -1      2512    3    0    1
 -2       739      1057       759      1058
 -1      2513    3    0    1
 -2      1057       739      1048      1058
 -1      2514    3    0    1
 -2       739      1297      1048      1058
 -1      2515    3    0    1
 -2       230       756       753      1059
 -1      2516    3    0    1
 -2       739       759      1056      1059
 -1      2517    3    0    1
 -2       779       240       249      1063
 -1      2518    3    0    1
 -2       240       779       772      1063
 -1      2519    3    0    1
 -2       768      1070       763       783
 -1      2520    3    0    1
 -2       781       239       773      1064
 -1      2521    3    0    1
 -2      1940      1806      2160      2433
 -1      2522    3    0    1
 -2      1817      1620      1879      1921
 -1      2523    3    0    1
 -2      2719      2924      3088      3134
 -1      2524    3    0    1
 -2       782       238       253      1302
 -1      2525    3    0    1
 -2       768      1064      1072      1302
 -1      2526    3    0    1
 -2       706      2050      2237      2639
 -1      2527    3    0    1
 -2      1824      1692      1884      1988
 -1      2528    3    0    1
 -2       471       472       908      2174
 -1      2529    3    0    1
 -2      3115      3101      1480      1481
 -1      2530    3    0    1
 -2       663      1004      2166      2646
 -1      2531    3    0    1
 -2       606       607      1957      2181
 -1      2532    3    0    1
 -2      1776      1927      1951      2250
 -1      2533    3    0    1
 -2      1874      1768      2016      2074
 -1      2534    3    0    1
 -2      1153       898      3021      3027
 -1      2535    3    0    1
 -2       243       246       769      1067
 -1      2536    3    0    1
 -2       243       769       770      1067
 -1      2537    3    0    1
 -2       769       770      1067      1305
 -1      2538    3    0    1
 -2       421       251       773      1068
 -1      2539    3    0    1
 -2       120       119      1235      1662
 -1      2540    3    0    1
 -2       421       773      1066      1068
 -1      2541    3    0    1
 -2      2214      2937      2967      3114
 -1      2542    3    0    1
 -2       783       763       784      1070
 -1      2543    3    0    1
 -2       772      1060      1063      1070
 -1      2544    3    0    1
 -2      2414      1679      2736      2737
 -1      2545    3    0    1
 -2       763      1073      1070      1060
 -1      2546    3    0    1
 -2       248       779       252      1070
 -1      2547    3    0    1
 -2       779       248       772      1070
 -1      2548    3    0    1
 -2      1060       763      1063      1070
 -1      2549    3    0    1
 -2       763      1073       784      1070
 -1      2550    3    0    1
 -2       421       250       773      1071
 -1      2551    3    0    1
 -2       773       250       781      1071
 -1      2552    3    0    1
 -2       251       782       383      1072
 -1      2553    3    0    1
 -2      1539      1538      2000      2122
 -1      2554    3    0    1
 -2       782       251       775      1072
 -1      2555    3    0    1
 -2       768      1071       783      1072
 -1      2556    3    0    1
 -2      1071       768      1064      1072
 -1      2557    3    0    1
 -2       264      1316       796      1076
 -1      2558    3    0    1
 -2       790      1323       789       807
 -1      2559    3    0    1
 -2       789      1085       808       807
 -1      2560    3    0    1
 -2       264       804       267      1076
 -1      2561    3    0    1
 -2       804       264       801      1076
 -1      2562    3    0    1
 -2      1077       797      1079      1318
 -1      2563    3    0    1
 -2       869      1712      1763      2681
 -1      2564    3    0    1
 -2      1354       843      1660      1704
 -1      2565    3    0    1
 -2      2931      2930      2975      3104
 -1      2566    3    0    1
 -2       791      1318      1079       792
 -1      2567    3    0    1
 -2       290       287      1096      2348
 -1      2568    3    0    1
 -2       798      1081      1079       791
 -1      2569    3    0    1
 -2      1454      1424      3132      3038
 -1      2570    3    0    1
 -2       792       791       798      1079
 -1      2571    3    0    1
 -2      1762      1571      2092      2244
 -1      2572    3    0    1
 -2      2097      1586      2104      2191
 -1      2573    3    0    1
 -2       791      1318      1077      1079
 -1      2574    3    0    1
 -2       257      1317       793      1078
 -1      2575    3    0    1
 -2      1652      1810      1965      1989
 -1      2576    3    0    1
 -2       798      1081       791       799
 -1      2577    3    0    1
 -2       329      1374       335      1973
 -1      2578    3    0    1
 -2       230      2222      2704      2723
 -1      2579    3    0    1
 -2      1450      1454      1494      3038
 -1      2580    3    0    1
 -2       419       261       793      1321
 -1      2581    3    0    1
 -2       789       790       807      1083
 -1      2582    3    0    1
 -2      1657       133      1788      2130
 -1      2583    3    0    1
 -2      1735      1607      1856      2262
 -1      2584    3    0    1
 -2       801       804      1076      1085
 -1      2585    3    0    1
 -2      2003      1185      1417      3113
 -1      2586    3    0    1
 -2       805       268       272      1083
 -1      2587    3    0    1
 -2       268       805       797      1083
 -1      2588    3    0    1
 -2      1083       797      1314      1315
 -1      2589    3    0    1
 -2       263       806       270      1084
 -1      2590    3    0    1
 -2       806       263       800      1084
 -1      2591    3    0    1
 -2       801       273       804      1085
 -1      2592    3    0    1
 -2       277       283       820      1088
 -1      2593    3    0    1
 -2        15      1163      2060      2258
 -1      2594    3    0    1
 -2       277       828       292      1088
 -1      2595    3    0    1
 -2       828       277       825      1088
 -1      2596    3    0    1
 -2      1089       824      1091      1330
 -1      2597    3    0    1
 -2       824       821      1091      1330
 -1      2598    3    0    1
 -2      1091       816      1089      1330
 -1      2599    3    0    1
 -2       816      1092       815      1090
 -1      2600    3    0    1
 -2       410      1603      2208      2383
 -1      2601    3    0    1
 -2      1529      1621      2213      2484
 -1      2602    3    0    1
 -2      2707      1350      2721      2860
 -1      2603    3    0    1
 -2      1019       340      2350      2782
 -1      2604    3    0    1
 -2       816      1093      1091      1089
 -1      2605    3    0    1
 -2       394       392      1752      2242
 -1      2606    3    0    1
 -2       323       427      2302      2726
 -1      2607    3    0    1
 -2      1424      2430      3132      1320
 -1      2608    3    0    1
 -2       815       822       823      1092
 -1      2609    3    0    1
 -2       281       288       821      1330
 -1      2610    3    0    1
 -2       329      1797      1916      1973
 -1      2611    3    0    1
 -2       286       284       825      1334
 -1      2612    3    0    1
 -2      2149       962      2420      2607
 -1      2613    3    0    1
 -2       816      1093       815       822
 -1      2614    3    0    1
 -2       654      1256      1630      2204
 -1      2615    3    0    1
 -2      1602       402      1672      2844
 -1      2616    3    0    1
 -2       968       592       965      1751
 -1      2617    3    0    1
 -2       813       814       831      1095
 -1      2618    3    0    1
 -2       813       831       832      1095
 -1      2619    3    0    1
 -2      1930      1707      2545      2655
 -1      2620    3    0    1
 -2      1688       408      1910      1911
 -1      2621    3    0    1
 -2       829       287       420      1095
 -1      2622    3    0    1
 -2       287       829       821      1095
 -1      2623    3    0    1
 -2       290       830       291      1096
 -1      2624    3    0    1
 -2       830       290       824      1096
 -1      2625    3    0    1
 -2      1355       843      1354      1704
 -1      2626    3    0    1
 -2       828       286       386      1097
 -1      2627    3    0    1
 -2       286       828       825      1097
 -1      2628    3    0    1
 -2       814      1097       813       831
 -1      2629    3    0    1
 -2       917       908      2368      2700
 -1      2630    3    0    1
 -2      1563      1657      1892      2030
 -1      2631    3    0    1
 -2      1268      1008       681      1259
 -1      2632    3    0    1
 -2       331       133      2097      2191
 -1      2633    3    0    1
 -2      1368      1615      1718      2158
 -1      2634    3    0    1
 -2       592       591       965      1751
 -1      2635    3    0    1
 -2      1977      1642      2127      2200
 -1      2636    3    0    1
 -2      1082      1409      2916      3132
 -1      2637    3    0    1
 -2       591       568      2404      2412
 -1      2638    3    0    1
 -2      1068       251      1935      2339
 -1      2639    3    0    1
 -2       705       700      1035      1270
 -1      2640    3    0    1
 -2      1648      1934      1990      2094
 -1      2641    3    0    1
 -2      1648      1934      2000      2099
 -1      2642    3    0    1
 -2      2091      1749      1759      2189
 -1      2643    3    0    1
 -2      2119      2625      1407      2463
 -1      2644    3    0    1
 -2      2441      2025      2502      2665
 -1      2645    3    0    1
 -2      1655      1700      1794      1934
 -1      2646    3    0    1
 -2      1589      1703      1847      2429
 -1      2647    3    0    1
 -2       223      1576      2747      2807
 -1      2648    3    0    1
 -2      2037      2268      2570      2695
 -1      2649    3    0    1
 -2      1753      1622      2224      2886
 -1      2650    3    0    1
 -2      1936      2045      2794      1555
 -1      2651    3    0    1
 -2      1781      1661      1822      2076
 -1      2652    3    0    1
 -2        55        46       931      2041
 -1      2653    3    0    1
 -2      2486       270      2765      2768
 -1      2654    3    0    1
 -2      1392       881      1950      2010
 -1      2655    3    0    1
 -2      1849      1000      1902      2483
 -1      2656    3    0    1
 -2      1640      1587      1969      1976
 -1      2657    3    0    1
 -2      2046      1701      2202      2790
 -1      2658    3    0    1
 -2       178      1268      2434      2830
 -1      2659    3    0    1
 -2      1117       312      1119      1602
 -1      2660    3    0    1
 -2      1626       865      1655      1870
 -1      2661    3    0    1
 -2      2015      1796      2109      2234
 -1      2662    3    0    1
 -2      1658      1561      2083      2236
 -1      2663    3    0    1
 -2      1797       329      1916      2239
 -1      2664    3    0    1
 -2      1058       225      2747      2807
 -1      2665    3    0    1
 -2      2181      1977      2200      2751
 -1      2666    3    0    1
 -2        75       557       948      1202
 -1      2667    3    0    1
 -2      1885      1288       208       424
 -1      2668    3    0    1
 -2      1147       891      2014      2330
 -1      2669    3    0    1
 -2       531        66       943      1201
 -1      2670    3    0    1
 -2      1163      1542      2060      2258
 -1      2671    3    0    1
 -2      2087      2033      2160      2377
 -1      2672    3    0    1
 -2      1811      2023      2054      2211
 -1      2673    3    0    1
 -2       508       925      2602      2832
 -1      2674    3    0    1
 -2      2149      2089      2420      2460
 -1      2675    3    0    1
 -2      1056      1059      2451      2679
 -1      2676    3    0    1
 -2       216      2264      2425      2730
 -1      2677    3    0    1
 -2      2731      2750      2760      2875
 -1      2678    3    0    1
 -2       364       363      2974      3103
 -1      2679    3    0    1
 -2      1814      1601      2163      2169
 -1      2680    3    0    1
 -2       394       392      1199      1752
 -1      2681    3    0    1
 -2      1876      2142      2283      2310
 -1      2682    3    0    1
 -2       321       390      1098      1684
 -1      2683    3    0    1
 -2       527      1200       937       538
 -1      2684    3    0    1
 -2       538      1803      1861      1978
 -1      2685    3    0    1
 -2      2038      2340      2556      2701
 -1      2686    3    0    1
 -2      1008      1268      1012       668
 -1      2687    3    0    1
 -2      1601      1609      2163      2169
 -1      2688    3    0    1
 -2      1927      1951      2132      2376
 -1      2689    3    0    1
 -2       287       420      1912      2365
 -1      2690    3    0    1
 -2       851      1609      1681      2163
 -1      2691    3    0    1
 -2      1345      1099      2261      2701
 -1      2692    3    0    1
 -2      1656       932      2232      2314
 -1      2693    3    0    1
 -2      2566      1162      2599      2614
 -1      2694    3    0    1
 -2       903       905      1914      2247
 -1      2695    3    0    1
 -2      2084      1607      2262      2468
 -1      2696    3    0    1
 -2      1609      1105      1681      1684
 -1      2697    3    0    1
 -2      1524      1637      1761      1831
 -1      2698    3    0    1
 -2      1200       937       538      1861
 -1      2699    3    0    1
 -2      1256      1630      2532      2720
 -1      2700    3    0    1
 -2      1032       187      1035      1618
 -1      2701    3    0    1
 -2      1556       392      1979      2026
 -1      2702    3    0    1
 -2      1661      1781      1822      2162
 -1      2703    3    0    1
 -2      2097      1785      2205      2251
 -1      2704    3    0    1
 -2      1706      1864      2361      2813
 -1      2705    3    0    1
 -2      1568      1705      2005      2316
 -1      2706    3    0    1
 -2       664      2562      2642      2656
 -1      2707    3    0    1
 -2      1932      1565      2128      2151
 -1      2708    3    0    1
 -2       606       607      2181      2206
 -1      2709    3    0    1
 -2       187      1027      2560      2579
 -1      2710    3    0    1
 -2      1151      2402      2796      2858
 -1      2711    3    0    1
 -2      1612      1768      1874      2687
 -1      2712    3    0    1
 -2       578       962      1220      1223
 -1      2713    3    0    1
 -2      1627      1660      1791      1946
 -1      2714    3    0    1
 -2      1945      2152      2374      2572
 -1      2715    3    0    1
 -2      1732      1539      1817      2000
 -1      2716    3    0    1
 -2      1080      2229      2519      2839
 -1      2717    3    0    1
 -2       807       784      1073      1605
 -1      2718    3    0    1
 -2      1657      1788      2030      2130
 -1      2719    3    0    1
 -2      2009      1619      2542      2799
 -1      2720    3    0    1
 -2       398       399      1537      1879
 -1      2721    3    0    1
 -2       987       125      1235      2064
 -1      2722    3    0    1
 -2       586       604      1224      1662
 -1      2723    3    0    1
 -2       131       143       632      1241
 -1      2724    3    0    1
 -2       628       635       991      1239
 -1      2725    3    0    1
 -2      1546      1276      2221      1882
 -1      2726    3    0    1
 -2      1642      1977      1981      2788
 -1      2727    3    0    1
 -2        67        68      1821      2776
 -1      2728    3    0    1
 -2      1360      1361      1713      1948
 -1      2729    3    0    1
 -2      1580      2389      2551      2872
 -1      2730    3    0    1
 -2      2381      2570      2585      2695
 -1      2731    3    0    1
 -2      1245       331      1693      1840
 -1      2732    3    0    1
 -2        43       505       506      1178
 -1      2733    3    0    1
 -2      1798      1701      1915      2790
 -1      2734    3    0    1
 -2      1789      1552      2081      2086
 -1      2735    3    0    1
 -2      1393      1392      1913      2010
 -1      2736    3    0    1
 -2      1964      1648      2000      2099
 -1      2737    3    0    1
 -2      1873       343      2353      2481
 -1      2738    3    0    1
 -2       932       520      2232      2314
 -1      2739    3    0    1
 -2      1585      3091      1443      3009
 -1      2740    3    0    1
 -2      1836      1298      2488      2891
 -1      2741    3    0    1
 -2      2075      2153      2456      2501
 -1      2742    3    0    1
 -2      1839       913      2034      2489
 -1      2743    3    0    1
 -2      1558      1696      1790      1881
 -1      2744    3    0    1
 -2      1370       855       856      2139
 -1      2745    3    0    1
 -2      2317       340      2485      2782
 -1      2746    3    0    1
 -2       663      1003      2646      2833
 -1      2747    3    0    1
 -2       406       405       930      2816
 -1      2748    3    0    1
 -2      1396       329      1797      2239
 -1      2749    3    0    1
 -2       841      1350      2860      2870
 -1      2750    3    0    1
 -2        19        26       488      1168
 -1      2751    3    0    1
 -2       865      1379      1120      1784
 -1      2752    3    0    1
 -2      1657      1550      2030      2135
 -1      2753    3    0    1
 -2      1957       606      2181      2284
 -1      2754    3    0    1
 -2       812      1331       811      1087
 -1      2755    3    0    1
 -2       675       668       667      2990
 -1      2756    3    0    1
 -2      1670      1639      1718      2056
 -1      2757    3    0    1
 -2      1393       429       444      1913
 -1      2758    3    0    1
 -2       511      1907      2172      2269
 -1      2759    3    0    1
 -2      2752      1764      3111      3008
 -1      2760    3    0    1
 -2      1548        55      1702      2041
 -1      2761    3    0    1
 -2      3139      3099      3147      1514
 -1      2762    3    0    1
 -2      1788      1657      2030      2135
 -1      2763    3    0    1
 -2      2577      2930      2931      3104
 -1      2764    3    0    1
 -2      1912      1095      2557      2568
 -1      2765    3    0    1
 -2       420      1095      1912      2568
 -1      2766    3    0    1
 -2       385      1187      1656      1939
 -1      2767    3    0    1
 -2       639       991      2558      2818
 -1      2768    3    0    1
 -2      2440       655      2492      2720
 -1      2769    3    0    1
 -2       718      1288      1041       728
 -1      2770    3    0    1
 -2       580       562      1221      1760
 -1      2771    3    0    1
 -2      1642      1981      2321      2905
 -1      2772    3    0    1
 -2       978       119      2019      2503
 -1      2773    3    0    1
 -2      2077      2319      2343      2736
 -1      2774    3    0    1
 -2      1859      2427      2728      2789
 -1      2775    3    0    1
 -2      1613      2043      2286      2484
 -1      2776    3    0    1
 -2       276       275      2988      3020
 -1      2777    3    0    1
 -2      1138       428       439      2625
 -1      2778    3    0    1
 -2       937      1200      1821      1861
 -1      2779    3    0    1
 -2       616       639      2545      2654
 -1      2780    3    0    1
 -2      1838      1607      1851      1856
 -1      2781    3    0    1
 -2       704      1276      1882      2226
 -1      2782    3    0    1
 -2      1029      1276      1546      1882
 -1      2783    3    0    1
 -2      2092      2129      2136      2542
 -1      2784    3    0    1
 -2      1054       752       750      2304
 -1      2785    3    0    1
 -2      1547      1663      1668      1715
 -1      2786    3    0    1
 -2      2358      2068      2631      2929
 -1      2787    3    0    1
 -2      2166      2282      2301      2547
 -1      2788    3    0    1
 -2      1655      1539      1870      2105
 -1      2789    3    0    1
 -2      2034      1841      2489      2530
 -1      2790    3    0    1
 -2      1694      1620      1879      2180
 -1      2791    3    0    1
 -2        29      2825      2855      2909
 -1      2792    3    0    1
 -2       851      1106      2163      2169
 -1      2793    3    0    1
 -2      1073      2309      2385      2583
 -1      2794    3    0    1
 -2      1640      1532      1897      2108
 -1      2795    3    0    1
 -2       423      2051      2111      2327
 -1      2796    3    0    1
 -2      2097      1586      2191      2198
 -1      2797    3    0    1
 -2      2051       423      2111      2275
 -1      2798    3    0    1
 -2      1056      1296       739      1059
 -1      2799    3    0    1
 -2      1056      1296      1059       748
 -1      2800    3    0    1
 -2      2200       606      2751      2823
 -1      2801    3    0    1
 -2      1652      1883      2257      2567
 -1      2802    3    0    1
 -2       913        35      1839      2034
 -1      2803    3    0    1
 -2       373       106       965      2464
 -1      2804    3    0    1
 -2      2166       663      2646      2833
 -1      2805    3    0    1
 -2       699      1027      1268      2579
 -1      2806    3    0    1
 -2       161      1630      2301      2532
 -1      2807    3    0    1
 -2      1906      1685      2553      2600
 -1      2808    3    0    1
 -2      2004      1607      2262      2428
 -1      2809    3    0    1
 -2      2156      2178      1972      2107
 -1      2810    3    0    1
 -2      1663      1900      2143      2162
 -1      2811    3    0    1
 -2       681       177      1012      1268
 -1      2812    3    0    1
 -2      2087      1540      2377      2419
 -1      2813    3    0    1
 -2      1538      1648      1934      2000
 -1      2814    3    0    1
 -2       433      1311      2354      2385
 -1      2815    3    0    1
 -2      1621      1529      1679      1808
 -1      2816    3    0    1
 -2       392       394      2069      2242
 -1      2817    3    0    1
 -2      2049      1082      2916      3132
 -1      2818    3    0    1
 -2       877      1135       878      1976
 -1      2819    3    0    1
 -2       894      1786      2085      2190
 -1      2820    3    0    1
 -2      2421      1847      2493      2539
 -1      2821    3    0    1
 -2      1042       728      2650      2711
 -1      2822    3    0    1
 -2       297      1115      1376      2001
 -1      2823    3    0    1
 -2      1288      1041       728      1835
 -1      2824    3    0    1
 -2      1540      1807      1845      1931
 -1      2825    3    0    1
 -2       391       393      2390      2702
 -1      2826    3    0    1
 -2      1095      1096      2348      2409
 -1      2827    3    0    1
 -2       315      1383      1382      1975
 -1      2828    3    0    1
 -2       859      1373       860      1997
 -1      2829    3    0    1
 -2       649      1250      1000      1247
 -1      2830    3    0    1
 -2       649      1250      1247       147
 -1      2831    3    0    1
 -2       652      1252       657       148
 -1      2832    3    0    1
 -2      1573      1724      1805      2190
 -1      2833    3    0    1
 -2       486       913      2489      2530
 -1      2834    3    0    1
 -2      1309      2048      2632      2651
 -1      2835    3    0    1
 -2       453       907       908      1154
 -1      2836    3    0    1
 -2       464         4       470      1154
 -1      2837    3    0    1
 -2         7         4       464      1154
 -1      2838    3    0    1
 -2       467       460      1156      1163
 -1      2839    3    0    1
 -2        15       467       389      1163
 -1      2840    3    0    1
 -2      1837      1776      1838      1927
 -1      2841    3    0    1
 -2      1663      1668      1715      1968
 -1      2842    3    0    1
 -2       899       897       460      1159
 -1      2843    3    0    1
 -2       459      1162       466       451
 -1      2844    3    0    1
 -2      1365      2080      2163      2169
 -1      2845    3    0    1
 -2      1549      1998      2415      2611
 -1      2846    3    0    1
 -2       811      1334      1331       826
 -1      2847    3    0    1
 -2       820      1097      1088      1335
 -1      2848    3    0    1
 -2      1881      1790      1898      2002
 -1      2849    3    0    1
 -2       827       284       820      1335
 -1      2850    3    0    1
 -2      1554      1586      2218      2677
 -1      2851    3    0    1
 -2      1587      1599      1677      2272
 -1      2852    3    0    1
 -2       900       460       909      1163
 -1      2853    3    0    1
 -2       451      1162       897      1159
 -1      2854    3    0    1
 -2       899       451       897      1159
 -1      2855    3    0    1
 -2      1714      1682      1777      1924
 -1      2856    3    0    1
 -2        15       460       465      1162
 -1      2857    3    0    1
 -2      1394       881       882      1781
 -1      2858    3    0    1
 -2      1453      3010      3025      3042
 -1      2859    3    0    1
 -2       481        23       914      1175
 -1      2860    3    0    1
 -2       459      1162       451      1159
 -1      2861    3    0    1
 -2       460        15      1159      1162
 -1      2862    3    0    1
 -2       467        15       460      1163
 -1      2863    3    0    1
 -2       485        19       488      1168
 -1      2864    3    0    1
 -2       453      1156       900      1163
 -1      2865    3    0    1
 -2       909       453       900      1163
 -1      2866    3    0    1
 -2       485        19      1165      1166
 -1      2867    3    0    1
 -2       913       485      1165      1166
 -1      2868    3    0    1
 -2       914       475      1164      1167
 -1      2869    3    0    1
 -2       476      1175       475       487
 -1      2870    3    0    1
 -2        20       489       911      1172
 -1      2871    3    0    1
 -2        19       493        34      1168
 -1      2872    3    0    1
 -2       493        19       485      1168
 -1      2873    3    0    1
 -2       478      1177       496       477
 -1      2874    3    0    1
 -2       491        21        30      1169
 -1      2875    3    0    1
 -2        21       491       484      1169
 -1      2876    3    0    1
 -2       478      1177       919       496
 -1      2877    3    0    1
 -2        26        22       488      1171
 -1      2878    3    0    1
 -2       917       477      1168      1171
 -1      2879    3    0    1
 -2       297      1355      1863      2001
 -1      2880    3    0    1
 -2      2058      2192      2441      2571
 -1      2881    3    0    1
 -2       484       919      1169      1177
 -1      2882    3    0    1
 -2      1198       939       534      1678
 -1      2883    3    0    1
 -2      1043      1286       723      3059
 -1      2884    3    0    1
 -2      2219      2124      2300      2302
 -1      2885    3    0    1
 -2        29       491        37      1177
 -1      2886    3    0    1
 -2      2612      1045      2754       735
 -1      2887    3    0    1
 -2       161      2301      2482      2547
 -1      2888    3    0    1
 -2       398      1732      1817      2065
 -1      2889    3    0    1
 -2       475       486       487      1175
 -1      2890    3    0    1
 -2       914       475      1167      1175
 -1      2891    3    0    1
 -2       489        32      1173      1176
 -1      2892    3    0    1
 -2       486       475       914      1175
 -1      2893    3    0    1
 -2       911       489      1173      1176
 -1      2894    3    0    1
 -2       489       911      1172      1176
 -1      2895    3    0    1
 -2       298      1403      1146      1775
 -1      2896    3    0    1
 -2       490       479       483      1176
 -1      2897    3    0    1
 -2       911       479      1172      1176
 -1      2898    3    0    1
 -2      1173       479       911      1176
 -1      2899    3    0    1
 -2       479      1173       483      1176
 -1      2900    3    0    1
 -2       478      1177       477      1169
 -1      2901    3    0    1
 -2       517        41       509      1182
 -1      2902    3    0    1
 -2       921      1188       932       501
 -1      2903    3    0    1
 -2       515        48        49      1183
 -1      2904    3    0    1
 -2        48       515       507      1183
 -1      2905    3    0    1
 -2      1557      1740      1962      2375
 -1      2906    3    0    1
 -2      2381      2493      2521      2570
 -1      2907    3    0    1
 -2      2940      2939      3000      3130
 -1      2908    3    0    1
 -2      1452      1420      3079      3082
 -1      2909    3    0    1
 -2      2410      2714      2814      2865
 -1      2910    3    0    1
 -2       499      1181       927      1186
 -1      2911    3    0    1
 -2      2442      1960      2518      2665
 -1      2912    3    0    1
 -2      1757      1701      2046      2790
 -1      2913    3    0    1
 -2      1730       399      1879      1921
 -1      2914    3    0    1
 -2       499       510       511      1186
 -1      2915    3    0    1
 -2       393       391       505      1186
 -1      2916    3    0    1
 -2       510       499       927      1186
 -1      2917    3    0    1
 -2       507        45       925      1187
 -1      2918    3    0    1
 -2       925       503       923      1187
 -1      2919    3    0    1
 -2       503      1184       923      1187
 -1      2920    3    0    1
 -2       925       514       508       503
 -1      2921    3    0    1
 -2       923       507       925      1187
 -1      2922    3    0    1
 -2        59       533       536      1191
 -1      2923    3    0    1
 -2       934      1198       536       939
 -1      2924    3    0    1
 -2        59       536       934      1191
 -1      2925    3    0    1
 -2       529       938      1190      1192
 -1      2926    3    0    1
 -2        63       529      1190      1192
 -1      2927    3    0    1
 -2       937       527      1194      1196
 -1      2928    3    0    1
 -2      2577      1461      3122      3148
 -1      2929    3    0    1
 -2       940      1197      2985      3051
 -1      2930    3    0    1
 -2       531        62       537      1196
 -1      2931    3    0    1
 -2       531       937      1194      1196
 -1      2932    3    0    1
 -2        62       531      1194      1196
 -1      2933    3    0    1
 -2      1960      1900      2442      2518
 -1      2934    3    0    1
 -2       550       551       562      3002
 -1      2935    3    0    1
 -2      1209      2022      1413      1414
 -1      2936    3    0    1
 -2      2919      2618      2938      3089
 -1      2937    3    0    1
 -2      1416      1461      1488      3148
 -1      2938    3    0    1
 -2       508       503       514      3003
 -1      2939    3    0    1
 -2      2967      2804      3133      3058
 -1      2940    3    0    1
 -2       533       536      1191      1198
 -1      2941    3    0    1
 -2       536       396       939      1198
 -1      2942    3    0    1
 -2       934      1198       524      1191
 -1      2943    3    0    1
 -2      1029       702      1882      1980
 -1      2944    3    0    1
 -2       530       529      1192      1199
 -1      2945    3    0    1
 -2      1815      1734      1886      2254
 -1      2946    3    0    1
 -2      1126       869      1763      2681
 -1      2947    3    0    1
 -2       392       530       394      1199
 -1      2948    3    0    1
 -2       529       392       938      1199
 -1      2949    3    0    1
 -2       530       392       529      1199
 -1      2950    3    0    1
 -2       531       937      1196      1200
 -1      2951    3    0    1
 -2       537       531      1196      1200
 -1      2952    3    0    1
 -2        66       531       537      1200
 -1      2953    3    0    1
 -2      1538      1648      2000      2122
 -1      2954    3    0    1
 -2       134       987      1246      2018
 -1      2955    3    0    1
 -2       531        66       937      1200
 -1      2956    3    0    1
 -2       933      1201       528       935
 -1      2957    3    0    1
 -2       553      1206        76       554
 -1      2958    3    0    1
 -2       579       587       965      1212
 -1      2959    3    0    1
 -2       551      1211       550       562
 -1      2960    3    0    1
 -2       547      1208       954       552
 -1      2961    3    0    1
 -2        37        29      1177      2039
 -1      2962    3    0    1
 -2      1737      1543      2617      2626
 -1      2963    3    0    1
 -2      3138      3113      1488      3148
 -1      2964    3    0    1
 -2      1209       953      2090      3129
 -1      2965    3    0    1
 -2       839      1349      1346      1774
 -1      2966    3    0    1
 -2       548      1206       951      1210
 -1      2967    3    0    1
 -2       553      1206       554      1210
 -1      2968    3    0    1
 -2      1206       553       951      1210
 -1      2969    3    0    1
 -2      2389      2298      2551      2635
 -1      2970    3    0    1
 -2       548       558       559      1210
 -1      2971    3    0    1
 -2       398       553       554      1210
 -1      2972    3    0    1
 -2       558       548       951      1210
 -1      2973    3    0    1
 -2       909      1177      2039      2706
 -1      2974    3    0    1
 -2       561       555      1207      1211
 -1      2975    3    0    1
 -2       555       946      1207      1211
 -1      2976    3    0    1
 -2       550       949       556      1211
 -1      2977    3    0    1
 -2       949       550       946      1211
 -1      2978    3    0    1
 -2       550      1207       946      1211
 -1      2979    3    0    1
 -2       946       555       949      1211
 -1      2980    3    0    1
 -2       723       716       730      3059
 -1      2981    3    0    1
 -2       595      1228      1225       975
 -1      2982    3    0    1
 -2       961       572      1213      1216
 -1      2983    3    0    1
 -2       573      1224       572       586
 -1      2984    3    0    1
 -2      1597       534      1678      1746
 -1      2985    3    0    1
 -2      1085       285      1335      1766
 -1      2986    3    0    1
 -2      1222       575       963      1218
 -1      2987    3    0    1
 -2      1744      1571      1762      1891
 -1      2988    3    0    1
 -2       575      1222       963       583
 -1      2989    3    0    1
 -2       585       357       961      1224
 -1      2990    3    0    1
 -2       962       574      1217      1220
 -1      2991    3    0    1
 -2       575      1223       574       583
 -1      2992    3    0    1
 -2       996       146       998      2995
 -1      2993    3    0    1
 -2      1287       369      1706      1922
 -1      2994    3    0    1
 -2      1298      2891      1434      3123
 -1      2995    3    0    1
 -2      1785      1742      2103      2205
 -1      2996    3    0    1
 -2       399      1537      1921      2257
 -1      2997    3    0    1
 -2      1438      1437      2973      3101
 -1      2998    3    0    1
 -2      1824      1692      1844      1884
 -1      2999    3    0    1
 -2       861      1376      1115      1889
 -1      3000    3    0    1
 -2      1369       855      1368      1639
 -1      3001    3    0    1
 -2       575      1222       574      1218
 -1      3002    3    0    1
 -2       578       349       962      1223
 -1      3003    3    0    1
 -2       582       574       962      1223
 -1      3004    3    0    1
 -2       471       832      1097      1542
 -1      3005    3    0    1
 -2      1399      1150      1895      1931
 -1      3006    3    0    1
 -2       228       359      2222      2713
 -1      3007    3    0    1
 -2       586       572       580      1224
 -1      3008    3    0    1
 -2       961       572      1216      1224
 -1      3009    3    0    1
 -2       580       572       961      1224
 -1      3010    3    0    1
 -2       978      1230       981       603
 -1      3011    3    0    1
 -2       603      1230       981       609
 -1      3012    3    0    1
 -2      1230       978       597      1229
 -1      3013    3    0    1
 -2       597      1230       598       981
 -1      3014    3    0    1
 -2       611       112       118      1229
 -1      3015    3    0    1
 -2       112       611       603      1229
 -1      3016    3    0    1
 -2       597      1231       980       598
 -1      3017    3    0    1
 -2       400      2020      2417      2529
 -1      3018    3    0    1
 -2       146       642      2995      3014
 -1      3019    3    0    1
 -2      2930      1942      2931      2975
 -1      3020    3    0    1
 -2       266       259      1323      2354
 -1      3021    3    0    1
 -2       785      3007      1510      3056
 -1      3022    3    0    1
 -2       988       133      1788      2209
 -1      3023    3    0    1
 -2      1446      2998      3140      1490
 -1      3024    3    0    1
 -2      1690      1553      1692      1713
 -1      3025    3    0    1
 -2       592       591      1751      2118
 -1      3026    3    0    1
 -2       595      1228       975      1234
 -1      3027    3    0    1
 -2       601      1228       602      1234
 -1      3028    3    0    1
 -2      1228       601       975      1234
 -1      3029    3    0    1
 -2      1804      1676      1827      2437
 -1      3030    3    0    1
 -2      1609      1601      1680      1681
 -1      3031    3    0    1
 -2       595       606       607      1234
 -1      3032    3    0    1
 -2       338       601       602      1234
 -1      3033    3    0    1
 -2       606       595       975      1234
 -1      3034    3    0    1
 -2       599       604       610      1235
 -1      3035    3    0    1
 -2      1232       603       971      1235
 -1      3036    3    0    1
 -2       603       119       973      1235
 -1      3037    3    0    1
 -2       599       973       604      1235
 -1      3038    3    0    1
 -2       973       599       971      1235
 -1      3039    3    0    1
 -2       599      1232       971      1235
 -1      3040    3    0    1
 -2       971       603       973      1235
 -1      3041    3    0    1
 -2       632       638       993      1241
 -1      3042    3    0    1
 -2       635       130       137      1239
 -1      3043    3    0    1
 -2       130       635       628      1239
 -1      3044    3    0    1
 -2       138       636       145      1240
 -1      3045    3    0    1
 -2       636       138       633      1240
 -1      3046    3    0    1
 -2       621       991      1239      1240
 -1      3047    3    0    1
 -2      1424      1409      3132      3038
 -1      3048    3    0    1
 -2      1828      1697      1851      2240
 -1      3049    3    0    1
 -2      1255      2344      1420      1421
 -1      3050    3    0    1
 -2      1243      2933      1444      3121
 -1      3051    3    0    1
 -2       629       632      1237      1244
 -1      3052    3    0    1
 -2       629       136       632      1244
 -1      3053    3    0    1
 -2       982      1244       619      1237
 -1      3054    3    0    1
 -2      1627       844      1704      1711
 -1      3055    3    0    1
 -2       632       136       989      1244
 -1      3056    3    0    1
 -2       625       133       988      1245
 -1      3057    3    0    1
 -2       626       133       625      1245
 -1      3058    3    0    1
 -2      1592      1826      1830      2773
 -1      3059    3    0    1
 -2       633       628      1242      1246
 -1      3060    3    0    1
 -2       134       628       633      1246
 -1      3061    3    0    1
 -2       558       559      1923      2680
 -1      3062    3    0    1
 -2       985      1246       624      1242
 -1      3063    3    0    1
 -2       628       134       987      1246
 -1      3064    3    0    1
 -2      1003      1252      1006       652
 -1      3065    3    0    1
 -2       652      1252      1006       657
 -1      3066    3    0    1
 -2      1252      1003       645      1251
 -1      3067    3    0    1
 -2       645      1252       646      1006
 -1      3068    3    0    1
 -2       659       148       151      1251
 -1      3069    3    0    1
 -2       148       659       652      1251
 -1      3070    3    0    1
 -2       645      1253      1005       646
 -1      3071    3    0    1
 -2      1609      1681      2163      2169
 -1      3072    3    0    1
 -2      3109      1443      3128      1485
 -1      3073    3    0    1
 -2      1449      3014      1505      3032
 -1      3074    3    0    1
 -2      1539      1538      1870      2105
 -1      3075    3    0    1
 -2       653      1001      1248      1256
 -1      3076    3    0    1
 -2       348       105       966      2118
 -1      3077    3    0    1
 -2       711      1618      2337      2809
 -1      3078    3    0    1
 -2       228      1052      1301      2222
 -1      3079    3    0    1
 -2       643      1250      1000      1257
 -1      3080    3    0    1
 -2       649      1250       650      1257
 -1      3081    3    0    1
 -2      1250       649      1000      1257
 -1      3082    3    0    1
 -2       392       938      1669      2063
 -1      3083    3    0    1
 -2      1096       291      2075      2456
 -1      3084    3    0    1
 -2       927       510      1186      2702
 -1      3085    3    0    1
 -2       643       654       655      1257
 -1      3086    3    0    1
 -2       330       650       333      1257
 -1      3087    3    0    1
 -2       650       330       649      1257
 -1      3088    3    0    1
 -2       649       330      1000      1257
 -1      3089    3    0    1
 -2       654       643      1000      1257
 -1      3090    3    0    1
 -2       647       999       651      1258
 -1      3091    3    0    1
 -2       999       647       997      1258
 -1      3092    3    0    1
 -2       647      1254       997      1258
 -1      3093    3    0    1
 -2       997       652       999      1258
 -1      3094    3    0    1
 -2       680       166       686      1262
 -1      3095    3    0    1
 -2       167       166       680      1262
 -1      3096    3    0    1
 -2       704      2173      2226      2522
 -1      3097    3    0    1
 -2       855      1367      2056      2139
 -1      3098    3    0    1
 -2      3088      3107      3112      3119
 -1      3099    3    0    1
 -2       672      1267       678       671
 -1      3100    3    0    1
 -2      1011      1267      1014       672
 -1      3101    3    0    1
 -2       672      1267      1014       678
 -1      3102    3    0    1
 -2       356      1452      1474      3125
 -1      3103    3    0    1
 -2      1562      1633      2411      2341
 -1      3104    3    0    1
 -2      2924      2358      2965      3001
 -1      3105    3    0    1
 -2      1197      2140      3085      3128
 -1      3106    3    0    1
 -2      1160       906      1433      3063
 -1      3107    3    0    1
 -2       674       342      1014      1267
 -1      3108    3    0    1
 -2      1437      2912      3101      3127
 -1      3109    3    0    1
 -2      1233       977      2495      3127
 -1      3110    3    0    1
 -2      2969      2495      3121      3127
 -1      3111    3    0    1
 -2      1401       446      1633      1770
 -1      3112    3    0    1
 -2       672      1267       671      1264
 -1      3113    3    0    1
 -2      1011      1267       672      1264
 -1      3114    3    0    1
 -2      1648      1964      2000      2122
 -1      3115    3    0    1
 -2      1690      1553      1713      2165
 -1      3116    3    0    1
 -2       668      1268       667      1259
 -1      3117    3    0    1
 -2      1008      1268       668      1259
 -1      3118    3    0    1
 -2      1594      1617      1689      2121
 -1      3119    3    0    1
 -2      1705      1601      1955      2005
 -1      3120    3    0    1
 -2      1026      1276       697      1029
 -1      3121    3    0    1
 -2       802       819      1843      2432
 -1      3122    3    0    1
 -2      1621      1679      1774      1808
 -1      3123    3    0    1
 -2      3098      1454      3117      3132
 -1      3124    3    0    1
 -2      1785      2097      2104      2191
 -1      3125    3    0    1
 -2      2916      1409      3099      3132
 -1      3126    3    0    1
 -2      1454       436      3117      3132
 -1      3127    3    0    1
 -2       436      1450      3117      3132
 -1      3128    3    0    1
 -2      1266      2718      2867      3118
 -1      3129    3    0    1
 -2      2430      2966      3094      3132
 -1      3130    3    0    1
 -2      1320      1082      2049      3132
 -1      3131    3    0    1
 -2      2966      2068      1454      3132
 -1      3132    3    0    1
 -2       185       697       698      1276
 -1      3133    3    0    1
 -2       702      1276       695      1029
 -1      3134    3    0    1
 -2      1026      1276       695      1273
 -1      3135    3    0    1
 -2       699      1277       691      1027
 -1      3136    3    0    1
 -2       700       187      1027      1277
 -1      3137    3    0    1
 -2      1038      1289       724      1040
 -1      3138    3    0    1
 -2       203       724      1038      1279
 -1      3139    3    0    1
 -2      1452      1513      3057      3079
 -1      3140    3    0    1
 -2      1436      3100      3146      3153
 -1      3141    3    0    1
 -2      1286      1427      1434      3153
 -1      3142    3    0    1
 -2       719      1287      1284      1042
 -1      3143    3    0    1
 -2      1042       719      1282      1284
 -1      3144    3    0    1
 -2       209       205       725      1285
 -1      3145    3    0    1
 -2       725       205       727      1285
 -1      3146    3    0    1
 -2       210       206       721      1283
 -1      3147    3    0    1
 -2       721      1041      1281      1283
 -1      3148    3    0    1
 -2       210       721      1281      1283
 -1      3149    3    0    1
 -2       205       725       727      1284
 -1      3150    3    0    1
 -2       727      1042      1282      1284
 -1      3151    3    0    1
 -2       205       727      1282      1284
 -1      3152    3    0    1
 -2       725       727      1046      1285
 -1      3153    3    0    1
 -2      1036       725      1046      1285
 -1      3154    3    0    1
 -2       734       205       213      1285
 -1      3155    3    0    1
 -2       205       734       727      1285
 -1      3156    3    0    1
 -2      1774      1621      1808      1820
 -1      3157    3    0    1
 -2      1435      1457      1498      3081
 -1      3158    3    0    1
 -2      2374      2618      2934      2938
 -1      3159    3    0    1
 -2      1445      1420      3125      3082
 -1      3160    3    0    1
 -2       727      1042      1284      1287
 -1      3161    3    0    1
 -2       725       727      1284      1287
 -1      3162    3    0    1
 -2       727       426      1042      1287
 -1      3163    3    0    1
 -2      2144       592      2580      2843
 -1      3164    3    0    1
 -2      1977       975      2127      2284
 -1      3165    3    0    1
 -2       208       722       424      1288
 -1      3166    3    0    1
 -2       721       208      1041      1288
 -1      3167    3    0    1
 -2       722       208       721      1288
 -1      3168    3    0    1
 -2      1634      1778      1792      2112
 -1      3169    3    0    1
 -2      1690      1692      1884      1959
 -1      3170    3    0    1
 -2      1038      1289       716      1279
 -1      3171    3    0    1
 -2       724       361      1040      1289
 -1      3172    3    0    1
 -2      1940      1887      1975      2433
 -1      3173    3    0    1
 -2       748      1296       218      1290
 -1      3174    3    0    1
 -2       218      1296       753       227
 -1      3175    3    0    1
 -2      1056      1296       748      1290
 -1      3176    3    0    1
 -2       220       758       751      1297
 -1      3177    3    0    1
 -2      1692      1690      1713      1959
 -1      3178    3    0    1
 -2       191      1447      1506      1519
 -1      3179    3    0    1
 -2      2230      2373      2910      2944
 -1      3180    3    0    1
 -2      1325       276      2988      3020
 -1      3181    3    0    1
 -2       742      1054       750      1299
 -1      3182    3    0    1
 -2      1295       749      1050      1299
 -1      3183    3    0    1
 -2      1050       749      1054      1299
 -1      3184    3    0    1
 -2      1054       742      1050      1299
 -1      3185    3    0    1
 -2       742      1295      1050      1299
 -1      3186    3    0    1
 -2       224       746       423      1300
 -1      3187    3    0    1
 -2       750      1300       742      1053
 -1      3188    3    0    1
 -2       745       224      1053      1300
 -1      3189    3    0    1
 -2       746       224       745      1300
 -1      3190    3    0    1
 -2      1051      1300       742      1294
 -1      3191    3    0    1
 -2       748      1292       753      1301
 -1      3192    3    0    1
 -2       228       748       753      1301
 -1      3193    3    0    1
 -2       747      1301       740      1052
 -1      3194    3    0    1
 -2       748       228      1052      1301
 -1      3195    3    0    1
 -2      1049      1301       740      1292
 -1      3196    3    0    1
 -2       765      1310      1067       774
 -1      3197    3    0    1
 -2      1066       764      1303      1306
 -1      3198    3    0    1
 -2      1311      1062       777      1307
 -1      3199    3    0    1
 -2       767      1311       771       766
 -1      3200    3    0    1
 -2      1062      1311      1065       767
 -1      3201    3    0    1
 -2       767      1311      1065       771
 -1      3202    3    0    1
 -2      1457      1440      3119      1483
 -1      3203    3    0    1
 -2      1554      1785      2104      2191
 -1      3204    3    0    1
 -2       950        80       952      1773
 -1      3205    3    0    1
 -2      1547      1557      1635      2113
 -1      3206    3    0    1
 -2      1031      2668      2937      3114
 -1      3207    3    0    1
 -2      1286      1426      1427      3114
 -1      3208    3    0    1
 -2      2668      1286      1427      3114
 -1      3209    3    0    1
 -2      2668      2967      3114      3153
 -1      3210    3    0    1
 -2       765      1310       764      1304
 -1      3211    3    0    1
 -2       965       357       968      1751
 -1      3212    3    0    1
 -2      2577      2941      2964      3104
 -1      3213    3    0    1
 -2      2941      2946      2931      2911
 -1      3214    3    0    1
 -2       767      1311       766      1307
 -1      3215    3    0    1
 -2      1062      1311       767      1307
 -1      3216    3    0    1
 -2      1083       797      1084      1314
 -1      3217    3    0    1
 -2       789      1083      1084      1314
 -1      3218    3    0    1
 -2       800       255       806      1314
 -1      3219    3    0    1
 -2       256       255       800      1314
 -1      3220    3    0    1
 -2       384       432      1656      1904
 -1      3221    3    0    1
 -2       937      1187      1853      1904
 -1      3222    3    0    1
 -2      1631       208      1885      2182
 -1      3223    3    0    1
 -2       391       927      2498      2822
 -1      3224    3    0    1
 -2       796       259      1085      1323
 -1      3225    3    0    1
 -2      1075      1322       796      1319
 -1      3226    3    0    1
 -2       869      1127       870      1763
 -1      3227    3    0    1
 -2       795      1322       802       787
 -1      3228    3    0    1
 -2       259       803       266      1323
 -1      3229    3    0    1
 -2       803       796      1316      1323
 -1      3230    3    0    1
 -2      1069       778      2632      2954
 -1      3231    3    0    1
 -2      1322      1075       796      1312
 -1      3232    3    0    1
 -2      1075      1322      1319       787
 -1      3233    3    0    1
 -2       294      1341      1831      2220
 -1      3234    3    0    1
 -2      2946      2931      2975      3104
 -1      3235    3    0    1
 -2      2946      2941      2931      3104
 -1      3236    3    0    1
 -2      3016      2985      3050      3051
 -1      3237    3    0    1
 -2       798      1321       791      1080
 -1      3238    3    0    1
 -2      1078      1321       791      1317
 -1      3239    3    0    1
 -2      1685      1906      2362      2600
 -1      3240    3    0    1
 -2      2989      3020      3052      3053
 -1      3241    3    0    1
 -2       881      1393       882      2010
 -1      3242    3    0    1
 -2      2020       400      2349      2529
 -1      3243    3    0    1
 -2       416       818       817      1333
 -1      3244    3    0    1
 -2       795      1322       787      1319
 -1      3245    3    0    1
 -2       796       259      1319      1322
 -1      3246    3    0    1
 -2      1075      1322       787      1312
 -1      3247    3    0    1
 -2       789      1316      1076      1323
 -1      3248    3    0    1
 -2      1085       789      1076      1323
 -1      3249    3    0    1
 -2      1095       821      1096      1326
 -1      3250    3    0    1
 -2       813      1095      1096      1326
 -1      3251    3    0    1
 -2       830       281       289      1326
 -1      3252    3    0    1
 -2       281       830       824      1326
 -1      3253    3    0    1
 -2       729       361      1289       211
 -1      3254    3    0    1
 -2       820       279       827      1328
 -1      3255    3    0    1
 -2       283       279       820      1328
 -1      3256    3    0    1
 -2      1090      1333       818      1092
 -1      3257    3    0    1
 -2       282       818      1090      1329
 -1      3258    3    0    1
 -2       281       824      1089      1330
 -1      3259    3    0    1
 -2      1814      1816      1994      2080
 -1      3260    3    0    1
 -2      1087      1334       820      1331
 -1      3261    3    0    1
 -2       826       811       819      1331
 -1      3262    3    0    1
 -2       820       284      1097      1335
 -1      3263    3    0    1
 -2      1557      1547      1635      1962
 -1      3264    3    0    1
 -2      1571      1744      2092      2136
 -1      3265    3    0    1
 -2       989       631      2036      2223
 -1      3266    3    0    1
 -2       827       820      1328      1335
 -1      3267    3    0    1
 -2       284       827       285      1335
 -1      3268    3    0    1
 -2      1087      1334      1331       811
 -1      3269    3    0    1
 -2      1334      1087       820      1324
 -1      3270    3    0    1
 -2      1090      1333       815      1329
 -1      3271    3    0    1
 -2       818       418      1092      1333
 -1      3272    3    0    1
 -2       818       416       418      1333
 -1      3273    3    0    1
 -2      1121       865      1378      1655
 -1      3274    3    0    1
 -2      1087      1334       811      1324
 -1      3275    3    0    1
 -2       820       284      1331      1334
 -1      3276    3    0    1
 -2      1088      1335       814      1328
 -1      3277    3    0    1
 -2      1399      1150      1931      2085
 -1      3278    3    0    1
 -2       101       962      2379      2420
 -1      3279    3    0    1
 -2       301       446      1770      1948
 -1      3280    3    0    1
 -2      1781      1661      2076      2162
 -1      3281    3    0    1
 -2      1776      1736      1837      1838
 -1      3282    3    0    1
 -2       273       380      1899      2588
 -1      3283    3    0    1
 -2       847      1884      1362      1959
 -1      3284    3    0    1
 -2      2196      1780      2479      2677
 -1      3285    3    0    1
 -2      1645      2021      2378      2610
 -1      3286    3    0    1
 -2      2008      2006      2051      2327
 -1      3287    3    0    1
 -2      1747       704      2226      2522
 -1      3288    3    0    1
 -2      1977      1981      2072      2127
 -1      3289    3    0    1
 -2       296      1103      1364      1911
 -1      3290    3    0    1
 -2       975      1977      2127      2200
 -1      3291    3    0    1
 -2      1399       441       443      1895
 -1      3292    3    0    1
 -2      1620      1608      1817      1879
 -1      3293    3    0    1
 -2      1981      1908      2072      2127
 -1      3294    3    0    1
 -2      2077      2318      2343      2627
 -1      3295    3    0    1
 -2       591      1751      2118      2412
 -1      3296    3    0    1
 -2      1943      1945      2638      2871
 -1      3297    3    0    1
 -2      2125      2261      2346      2386
 -1      3298    3    0    1
 -2      1668      1547      1983      2594
 -1      3299    3    0    1
 -2      1028      1683      1846      2091
 -1      3300    3    0    1
 -2       297       326      1115      2001
 -1      3301    3    0    1
 -2      3078      3071      3083      3084
 -1      3302    3    0    1
 -2      2292      1532      2360      2764
 -1      3303    3    0    1
 -2      1619      2126      2134      2203
 -1      3304    3    0    1
 -2      1654      1525      1866      2386
 -1      3305    3    0    1
 -2      2197      2752      3111      3141
 -1      3306    3    0    1
 -2       197      1034      2241      2467
 -1      3307    3    0    1
 -2       270      1084      2363      2568
 -1      3308    3    0    1
 -2       408       296      1688      1910
 -1      3309    3    0    1
 -2      1029      1846      1882      1937
 -1      3310    3    0    1
 -2      1030      1747      2271      2467
 -1      3311    3    0    1
 -2      2495      1233      2912      2973
 -1      3312    3    0    1
 -2        33        35       917      2700
 -1      3313    3    0    1
 -2       942       395      2107      2178
 -1      3314    3    0    1
 -2       286       386      1097      1832
 -1      3315    3    0    1
 -2      2441      2192      2442      2665
 -1      3316    3    0    1
 -2       134       987      2018      2619
 -1      3317    3    0    1
 -2       359      1052      2222      2597
 -1      3318    3    0    1
 -2      1794      1700      1860      1934
 -1      3319    3    0    1
 -2       394      1719      2069      2242
 -1      3320    3    0    1
 -2      1175       487      2268      2675
 -1      3321    3    0    1
 -2       846       845      1897      2108
 -1      3322    3    0    1
 -2       532       929      1197      2288
 -1      3323    3    0    1
 -2      1558      1947      2095      2256
 -1      3324    3    0    1
 -2      1004      2166      2301      2547
 -1      3325    3    0    1
 -2       906       466       459      2273
 -1      3326    3    0    1
 -2       949      1745      2017      2535
 -1      3327    3    0    1
 -2      1554      1617      1689      1714
 -1      3328    3    0    1
 -2      1598      1703      1994      2429
 -1      3329    3    0    1
 -2      1814      1531      1905      1970
 -1      3330    3    0    1
 -2      1584      1854      2023      2053
 -1      3331    3    0    1
 -2       834      1338      1651      1736
 -1      3332    3    0    1
 -2      2500      2096      2630      2708
 -1      3333    3    0    1
 -2      1848      1646      1869      2287
 -1      3334    3    0    1
 -2      1663       185      1715      1900
 -1      3335    3    0    1
 -2      1413      1197      1419      3128
 -1      3336    3    0    1
 -2      1408      1635      1695      1949
 -1      3337    3    0    1
 -2      1668      1715      1968      1983
 -1      3338    3    0    1
 -2       562       556       953      2090
 -1      3339    3    0    1
 -2      2172       511      2269      2270
 -1      3340    3    0    1
 -2      1621      1688      1808      1820
 -1      3341    3    0    1
 -2      1335      1097       831      2079
 -1      3342    3    0    1
 -2       373       370      2227      2464
 -1      3343    3    0    1
 -2      1620      1756      1879      1921
 -1      3344    3    0    1
 -2      1276       185      2221      2334
 -1      3345    3    0    1
 -2      1223       349      2810      2888
 -1      3346    3    0    1
 -2      1600      1613      2043      2786
 -1      3347    3    0    1
 -2       941       543      1926      2296
 -1      3348    3    0    1
 -2       394      1719      2242      2398
 -1      3349    3    0    1
 -2      1361       847      1360      1713
 -1      3350    3    0    1
 -2      1783      2111      2491      2528
 -1      3351    3    0    1
 -2      1740      1663      2162      2375
 -1      3352    3    0    1
 -2      2972      3086      3103      1449
 -1      3353    3    0    1
 -2       105       963      1222      2852
 -1      3354    3    0    1
 -2        45       925      1187      2260
 -1      3355    3    0    1
 -2      1549      1998      2120      2415
 -1      3356    3    0    1
 -2      1854      1584      1916      2053
 -1      3357    3    0    1
 -2       879      2124      2469      2621
 -1      3358    3    0    1
 -2       259      1319      1899      2354
 -1      3359    3    0    1
 -2       866       865      1626      1784
 -1      3360    3    0    1
 -2      1633      2016      2066      2074
 -1      3361    3    0    1
 -2      1152       295      1142      2701
 -1      3362    3    0    1
 -2      1840      1693      1956      2052
 -1      3363    3    0    1
 -2      1648      1538      1934      2094
 -1      3364    3    0    1
 -2       939      1658      1678      1686
 -1      3365    3    0    1
 -2      2372      2187      2925      2961
 -1      3366    3    0    1
 -2        67      1821      2017      2776
 -1      3367    3    0    1
 -2      1113      1848      1869      2287
 -1      3368    3    0    1
 -2       855      1369       856      1639
 -1      3369    3    0    1
 -2      1109       853      1951      2132
 -1      3370    3    0    1
 -2      1013      1015      2062      2735
 -1      3371    3    0    1
 -2       342      1829      2081      2396
 -1      3372    3    0    1
 -2      1559       393      1667      2084
 -1      3373    3    0    1
 -2       520       931      1926      2296
 -1      3374    3    0    1
 -2      1533      1659      1670      2141
 -1      3375    3    0    1
 -2      1627      1594      1711      1946
 -1      3376    3    0    1
 -2       321      1098      1338      1684
 -1      3377    3    0    1
 -2      1601      1609      1680      2005
 -1      3378    3    0    1
 -2      1998      1614      2343      2611
 -1      3379    3    0    1
 -2       975       606      1957      2284
 -1      3380    3    0    1
 -2       344       991      1857      2619
 -1      3381    3    0    1
 -2       819      1331      1843      1888
 -1      3382    3    0    1
 -2      1569      2184      2248      2569
 -1      3383    3    0    1
 -2      1199      1658      2083      2236
 -1      3384    3    0    1
 -2       384      1187      1904      1939
 -1      3385    3    0    1
 -2      1933      1523      2351      2546
 -1      3386    3    0    1
 -2       331      1245      1693      2209
 -1      3387    3    0    1
 -2      1607      1851      1856      2262
 -1      3388    3    0    1
 -2      1878      1651      2233      2316
 -1      3389    3    0    1
 -2       466      2273      2599      2614
 -1      3390    3    0    1
 -2      1637      2194      2474      2564
 -1      3391    3    0    1
 -2      1600      1551      2213      2484
 -1      3392    3    0    1
 -2       604       610      1662      2582
 -1      3393    3    0    1
 -2      1858      1564      2352      2638
 -1      3394    3    0    1
 -2      1881      1376      1889      2001
 -1      3395    3    0    1
 -2       839       840      1774      1820
 -1      3396    3    0    1
 -2      1550      1563      1892      2030
 -1      3397    3    0    1
 -2      2179      2151      2549      2641
 -1      3398    3    0    1
 -2      1625      1733      2125      2263
 -1      3399    3    0    1
 -2       224      1053      2071      2410
 -1      3400    3    0    1
 -2      1553      1690      1692      1988
 -1      3401    3    0    1
 -2       640      2305      2674      2833
 -1      3402    3    0    1
 -2      2092      1744      2138      2473
 -1      3403    3    0    1
 -2      1622      1753      1897      2360
 -1      3404    3    0    1
 -2      1408       887      1143      1958
 -1      3405    3    0    1
 -2       320      1106      1365      2080
 -1      3406    3    0    1
 -2       286       386      1832      2445
 -1      3407    3    0    1
 -2       312      1602      1672      2245
 -1      3408    3    0    1
 -2      1647      1626      1772      2158
 -1      3409    3    0    1
 -2      1703      1589      1994      2429
 -1      3410    3    0    1
 -2      1095      2363      2557      2568
 -1      3411    3    0    1
 -2      1606      1754      1756      2180
 -1      3412    3    0    1
 -2      1522      1840      1956      2052
 -1      3413    3    0    1
 -2      1956      1834      2036      2145
 -1      3414    3    0    1
 -2      1289      1040      2280      2597
 -1      3415    3    0    1
 -2      1585      2925      2926      3108
 -1      3416    3    0    1
 -2      1543      1723      1737      2061
 -1      3417    3    0    1
 -2      2352      1942      2372      2572
 -1      3418    3    0    1
 -2      2178      2156      1972       955
 -1      3419    3    0    1
 -2      1550      1616      1892      2188
 -1      3420    3    0    1
 -2       913       915      2850      2906
 -1      3421    3    0    1
 -2       730      1043      1836      2237
 -1      3422    3    0    1
 -2      1536      1710      1790      1898
 -1      3423    3    0    1
 -2      1378      1700      1655      1870
 -1      3424    3    0    1
 -2      1735      1607      2004      2233
 -1      3425    3    0    1
 -2      1030       704      2522      2544
 -1      3426    3    0    1
 -2      2106      1593      2475      2800
 -1      3427    3    0    1
 -2       682      2050      2589      2649
 -1      3428    3    0    1
 -2       361       211      1047      2322
 -1      3429    3    0    1
 -2      1595      1629      2111      2491
 -1      3430    3    0    1
 -2      1765      1470      2991      3130
 -1      3431    3    0    1
 -2       293      1366       322      2376
 -1      3432    3    0    1
 -2      1761      1637      2150      2474
 -1      3433    3    0    1
 -2      1800       978      2019      2503
 -1      3434    3    0    1
 -2       389        15      1163      2060
 -1      3435    3    0    1
 -2       325      1362       447      1844
 -1      3436    3    0    1
 -2       298      1356       438      1775
 -1      3437    3    0    1
 -2      1123      1380      1672      2101
 -1      3438    3    0    1
 -2      2318      1125      2414      2737
 -1      3439    3    0    1
 -2      1670      1533      2141      2171
 -1      3440    3    0    1
 -2      2037       487      2268      2715
 -1      3441    3    0    1
 -2      1938      1257      2306      2440
 -1      3442    3    0    1
 -2      1846      1029      1936      1937
 -1      3443    3    0    1
 -2      1940      1806      2087      2160
 -1      3444    3    0    1
 -2      1572      2038      2333      2662
 -1      3445    3    0    1
 -2      1824      1692      1988      2031
 -1      3446    3    0    1
 -2      1222      1855      2417      2852
 -1      3447    3    0    1
 -2      2650      2212      2711      2740
 -1      3448    3    0    1
 -2       330      1798      2054      2439
 -1      3449    3    0    1
 -2      1833       243      1894      2849
 -1      3450    3    0    1
 -2       965      1751      2412      2464
 -1      3451    3    0    1
 -2      1403       298       438      1775
 -1      3452    3    0    1
 -2       951       558      1923      2567
 -1      3453    3    0    1
 -2      1700      1100      1794      1819
 -1      3454    3    0    1
 -2       348       351       963      1578
 -1      3455    3    0    1
 -2      1993      1734      2393      2775
 -1      3456    3    0    1
 -2      1288       424      1885      2598
 -1      3457    3    0    1
 -2      1701      1757      1915      2790
 -1      3458    3    0    1
 -2      1356      1617      1775      2121
 -1      3459    3    0    1
 -2      2452      1666      2690      2695
 -1      3460    3    0    1
 -2      1782      1573      2059      2745
 -1      3461    3    0    1
 -2      2524       224      2714      2814
 -1      3462    3    0    1
 -2      1608      1647      1772      2158
 -1      3463    3    0    1
 -2       466       906      1929      2273
 -1      3464    3    0    1
 -2      1335       284      1832      2079
 -1      3465    3    0    1
 -2       839      1679      1808      1820
 -1      3466    3    0    1
 -2      1353      1356      1594      1711
 -1      3467    3    0    1
 -2      1597      1199      1752      2236
 -1      3468    3    0    1
 -2      1673      1588      1955      2593
 -1      3469    3    0    1
 -2       177      1020      1996      2770
 -1      3470    3    0    1
 -2      1577      1661      2143      2162
 -1      3471    3    0    1
 -2      1536      1581      1710      1898
 -1      3472    3    0    1
 -2      1043       730       723      2237
 -1      3473    3    0    1
 -2      2013      2009      2129      2584
 -1      3474    3    0    1
 -2       326       297      1863      2001
 -1      3475    3    0    1
 -2      1392      1695      1913      1950
 -1      3476    3    0    1
 -2       296      1364      1910      1911
 -1      3477    3    0    1
 -2       427      2300      2302      2726
 -1      3478    3    0    1
 -2      1712      1708      2220      2681
 -1      3479    3    0    1
 -2      1721      1575      1818      2082
 -1      3480    3    0    1
 -2      1629      1782      1783      2587
 -1      3481    3    0    1
 -2      2531      1258      2684      2766
 -1      3482    3    0    1
 -2       187       193      1035      1618
 -1      3483    3    0    1
 -2      1595      2111      2275      2491
 -1      3484    3    0    1
 -2      1860      2266      2721      2860
 -1      3485    3    0    1
 -2      1749      1829      2315      2691
 -1      3486    3    0    1
 -2      2626      1574      2628      2846
 -1      3487    3    0    1
 -2      1146      1682      1775      1924
 -1      3488    3    0    1
 -2      1609      1680      2005      2316
 -1      3489    3    0    1
 -2      2402      1151      2759      2858
 -1      3490    3    0    1
 -2       119      1662      2019      2480
 -1      3491    3    0    1
 -2      1286      1043       723      2237
 -1      3492    3    0    1
 -2        32        38       919      2255
 -1      3493    3    0    1
 -2      1846      1029      1882      1980
 -1      3494    3    0    1
 -2      1594      1617      1682      1689
 -1      3495    3    0    1
 -2      1547      1663      1557      1668
 -1      3496    3    0    1
 -2      1561       535      1678      2236
 -1      3497    3    0    1
 -2      1828      1748      1851      1856
 -1      3498    3    0    1
 -2      1974       270      2486      2568
 -1      3499    3    0    1
 -2      2269      2172      2270      2555
 -1      3500    3    0    1
 -2      1636      1540      2148      2636
 -1      3501    3    0    1
 -2       403      1908      1982      2072
 -1      3502    3    0    1
 -2       353       156      1583      2667
 -1      3503    3    0    1
 -2       831       808      2336      2557
 -1      3504    3    0    1
 -2       702      1276      1029      1882
 -1      3505    3    0    1
 -2      1841      2231      2489      2530
 -1      3506    3    0    1
 -2      1568      2005      2233      2316
 -1      3507    3    0    1
 -2       394      1199      2083      2398
 -1      3508    3    0    1
 -2      1595      2275      2388      2491
 -1      3509    3    0    1
 -2      1097      1163      1542      2461
 -1      3510    3    0    1
 -2       843      1355       844      1704
 -1      3511    3    0    1
 -2      1103      1364      1911      2394
 -1      3512    3    0    1
 -2      1020      1996      2770      2883
 -1      3513    3    0    1
 -2      1125       407      2414      2737
 -1      3514    3    0    1
 -2      1561       535      1658      1678
 -1      3515    3    0    1
 -2      2347      1066      2750      2791
 -1      3516    3    0    1
 -2      1661      1663      2143      2162
 -1      3517    3    0    1
 -2      1594      1627      1711      2121
 -1      3518    3    0    1
 -2       807       808      1084      2710
 -1      3519    3    0    1
 -2      1751       357      2504      2778
 -1      3520    3    0    1
 -2      2219      1625      2407      2678
 -1      3521    3    0    1
 -2      1028       346      1726      2317
 -1      3522    3    0    1
 -2      1934      1860      1990      2094
 -1      3523    3    0    1
 -2       931       520      1926      2422
 -1      3524    3    0    1
 -2      1617      1403      1775      1924
 -1      3525    3    0    1
 -2      1356       298      1353      1775
 -1      3526    3    0    1
 -2      1971      1841      2231      2489
 -1      3527    3    0    1
 -2       939      1198      1623      1678
 -1      3528    3    0    1
 -2      1288      1041      1835      1925
 -1      3529    3    0    1
 -2       849      1911      2364      2394
 -1      3530    3    0    1
 -2      1695      1635      1962      2113
 -1      3531    3    0    1
 -2       190       196      1033      2337
 -1      3532    3    0    1
 -2      1830       559      2021      2712
 -1      3533    3    0    1
 -2       122      1880      2110      2206
 -1      3534    3    0    1
 -2      1567      2381      2585      2822
 -1      3535    3    0    1
 -2      1356      1353      1594      1775
 -1      3536    3    0    1
 -2      1017      1996      2642      2744
 -1      3537    3    0    1
 -2      1573      1724      2190      2210
 -1      3538    3    0    1
 -2      1893       318      1975      1995
 -1      3539    3    0    1
 -2       359       212      2597      2713
 -1      3540    3    0    1
 -2      1759      1683      2091      2189
 -1      3541    3    0    1
 -2      2069      1920      2170      2438
 -1      3542    3    0    1
 -2       938       392      1669      1752
 -1      3543    3    0    1
 -2      1834      1522      1956      2052
 -1      3544    3    0    1
 -2       357       106       961      2778
 -1      3545    3    0    1
 -2      1616      1579      1790      1890
 -1      3546    3    0    1
 -2       190      2271       196      2467
 -1      3547    3    0    1
 -2      1850      1565      2151      2179
 -1      3548    3    0    1
 -2       881       882      1781      1822
 -1      3549    3    0    1
 -2      1872      2069      2170      2242
 -1      3550    3    0    1
 -2      1376       861       862      1889
 -1      3551    3    0    1
 -2      1730      1652      1883      2257
 -1      3552    3    0    1
 -2      1693      1245      2029      2209
 -1      3553    3    0    1
 -2      1707       980      1930      2545
 -1      3554    3    0    1
 -2       559      1645      1830      2021
 -1      3555    3    0    1
 -2      1645      1222      2417      2529
 -1      3556    3    0    1
 -2       392      1556      1669      1752
 -1      3557    3    0    1
 -2      1187       384      1656      1939
 -1      3558    3    0    1
 -2      2129      1671      2136      2265
 -1      3559    3    0    1
 -2        70        71       941      1986
 -1      3560    3    0    1
 -2      1589      1703      1814      1905
 -1      3561    3    0    1
 -2      1393       881      1392      2010
 -1      3562    3    0    1
 -2       976       974      2110      2206
 -1      3563    3    0    1
 -2       706      1031      3004      3055
 -1      3564    3    0    1
 -2      1350      2721      2860      2870
 -1      3565    3    0    1
 -2      2098      2345      2751      2755
 -1      3566    3    0    1
 -2      1949       896      1958      2340
 -1      3567    3    0    1
 -2      3109      1585      3128      3136
 -1      3568    3    0    1
 -2      1362      1824      1844      1884
 -1      3569    3    0    1
 -2      1105      1107      1681      1684
 -1      3570    3    0    1
 -2      1586      1554      2191      2677
 -1      3571    3    0    1
 -2      1757      2046      2439      2790
 -1      3572    3    0    1
 -2      1289       211      2322      2597
 -1      3573    3    0    1
 -2      1176      2615      2897      2908
 -1      3574    3    0    1
 -2       906       459      1160      2273
 -1      3575    3    0    1
 -2      1641      2016      2066      2411
 -1      3576    3    0    1
 -2       211       361      1289      2322
 -1      3577    3    0    1
 -2      1545      1584      1915      1916
 -1      3578    3    0    1
 -2      1630      1650      2482      2145
 -1      3579    3    0    1
 -2      1372       306      1373      1709
 -1      3580    3    0    1
 -2      1735      1651      1736      1838
 -1      3581    3    0    1
 -2      1738      1698      1823      1932
 -1      3582    3    0    1
 -2      1730       399      1921      2257
 -1      3583    3    0    1
 -2      2077      2168      2627      2693
 -1      3584    3    0    1
 -2       393       391      1186      2702
 -1      3585    3    0    1
 -2      1760       562      2090      2534
 -1      3586    3    0    1
 -2      1918      2114      2616      2673
 -1      3587    3    0    1
 -2       243       246      1833      1894
 -1      3588    3    0    1
 -2       848      1690      1713      1948
 -1      3589    3    0    1
 -2       392      1556      1752      2242
 -1      3590    3    0    1
 -2      1682      1617      1775      1924
 -1      3591    3    0    1
 -2      1033      2337      2505      2809
 -1      3592    3    0    1
 -2       968       978      1800      2199
 -1      3593    3    0    1
 -2      1793      2228      2306      2889
 -1      3594    3    0    1
 -2      1340       835      1637      1761
 -1      3595    3    0    1
 -2       223       425      1576      2669
 -1      3596    3    0    1
 -2       105       400       966      2403
 -1      3597    3    0    1
 -2       175      2350      2735      2779
 -1      3598    3    0    1
 -2      1777      1714      2103      2104
 -1      3599    3    0    1
 -2      1538      1539      2000      2105
 -1      3600    3    0    1
 -2      1635      1557      1962      2113
 -1      3601    3    0    1
 -2       847      1713      1884      1959
 -1      3602    3    0    1
 -2       196       346      1033      2505
 -1      3603    3    0    1
 -2      1002       658      2313      2718
 -1      3604    3    0    1
 -2      1851      1828      1856      2262
 -1      3605    3    0    1
 -2      1406       885      1139      2672
 -1      3606    3    0    1
 -2       664      1005      2646      2656
 -1      3607    3    0    1
 -2      1893      1940      1975      2157
 -1      3608    3    0    1
 -2      1301       230      2222      2704
 -1      3609    3    0    1
 -2       726      1706      1871      1922
 -1      3610    3    0    1
 -2       538       532       940      1978
 -1      3611    3    0    1
 -2       446      1633      1770      1948
 -1      3612    3    0    1
 -2      1362       325      1102      1844
 -1      3613    3    0    1
 -2      1528      2161      2277      2325
 -1      3614    3    0    1
 -2       952       559      1773      2712
 -1      3615    3    0    1
 -2      1200      1821      1861      2017
 -1      3616    3    0    1
 -2      1549      2120      2319      2415
 -1      3617    3    0    1
 -2       161       157      1256      1630
 -1      3618    3    0    1
 -2      1530      1649      2266      2279
 -1      3619    3    0    1
 -2      2738       798      2839      2895
 -1      3620    3    0    1
 -2      1539      1626      1647      1784
 -1      3621    3    0    1
 -2      1776      1837      2376      1927
 -1      3622    3    0    1
 -2       915        27      2806      2906
 -1      3623    3    0    1
 -2       760      1059      2436      2451
 -1      3624    3    0    1
 -2       654      1630      1902      2204
 -1      3625    3    0    1
 -2       852       851      1681      2169
 -1      3626    3    0    1
 -2      1012       675      2589      2684
 -1      3627    3    0    1
 -2      2152      1945      2618      2729
 -1      3628    3    0    1
 -2      1969       877      1976      2359
 -1      3629    3    0    1
 -2      1127       869      1125      1763
 -1      3630    3    0    1
 -2      1791      1627      1946      2218
 -1      3631    3    0    1
 -2      1685      2246      2553      2600
 -1      3632    3    0    1
 -2       212      1047      2322      2713
 -1      3633    3    0    1
 -2      1783      1573      2465      2601
 -1      3634    3    0    1
 -2       420      2246      2363      2768
 -1      3635    3    0    1
 -2      1595      2388      2661      2666
 -1      3636    3    0    1
 -2      1363      1816      2080      2395
 -1      3637    3    0    1
 -2       884      1397      1796      2239
 -1      3638    3    0    1
 -2      1872      1534      2069      2455
 -1      3639    3    0    1
 -2      1785       331      2097      2191
 -1      3640    3    0    1
 -2      1616      1550      1657      2297
 -1      3641    3    0    1
 -2       869      1381      1126      1763
 -1      3642    3    0    1
 -2      1984      1919      2595      2598
 -1      3643    3    0    1
 -2       385      1187      1939      2260
 -1      3644    3    0    1
 -2       881       882      1950      2010
 -1      3645    3    0    1
 -2      2066      2016      2341      2411
 -1      3646    3    0    1
 -2      1310      1067       774      2253
 -1      3647    3    0    1
 -2      1542      1163      2060      2461
 -1      3648    3    0    1
 -2      1548        71      1702      1746
 -1      3649    3    0    1
 -2       272       383      2324      2647
 -1      3650    3    0    1
 -2       308      1378      1700      1794
 -1      3651    3    0    1
 -2       877       878      1969      1976
 -1      3652    3    0    1
 -2      1135       877      1133      1976
 -1      3653    3    0    1
 -2       438      1356      1617      1775
 -1      3654    3    0    1
 -2      1679       839      1774      1820
 -1      3655    3    0    1
 -2       141       336      2367      2655
 -1      3656    3    0    1
 -2      2779      1013      2884      2890
 -1      3657    3    0    1
 -2      1054       225      2494      2807
 -1      3658    3    0    1
 -2      1947      2095      2256      2297
 -1      3659    3    0    1
 -2       534       535      1597      1678
 -1      3660    3    0    1
 -2      1622      1762      2224      2886
 -1      3661    3    0    1
 -2      1716      1688      1910      1911
 -1      3662    3    0    1
 -2      2166      2305      2652      2833
 -1      3663    3    0    1
 -2      1595      1629      1782      1783
 -1      3664    3    0    1
 -2      1932      1565      1993      2128
 -1      3665    3    0    1
 -2      1000      1849      1902      2055
 -1      3666    3    0    1
 -2      1652      1730      1883      1965
 -1      3667    3    0    1
 -2      1958      1949      2340      2739
 -1      3668    3    0    1
 -2      1379      1120      1784      2193
 -1      3669    3    0    1
 -2       350       978      2199      2503
 -1      3670    3    0    1
 -2      1607      1735      1838      2233
 -1      3671    3    0    1
 -2      1547      1557      1740      1962
 -1      3672    3    0    1
 -2      1735      1651      1838      2233
 -1      3673    3    0    1
 -2       556       550       562      3002
 -1      3674    3    0    1
 -2      1300       750       752      1877
 -1      3675    3    0    1
 -2      1806      2087      2160      2377
 -1      3676    3    0    1
 -2      1868      1719      2438      2490
 -1      3677    3    0    1
 -2      1708      1831      2220      2681
 -1      3678    3    0    1
 -2      1894      1540      2753      2849
 -1      3679    3    0    1
 -2      1125      1127      2318      2414
 -1      3680    3    0    1
 -2      1690       848      1713      1884
 -1      3681    3    0    1
 -2       883      2234      2239      2371
 -1      3682    3    0    1
 -2      1619      2129      2136      2265
 -1      3683    3    0    1
 -2      1621      1688      1820      1910
 -1      3684    3    0    1
 -2      1575      1721      1812      2082
 -1      3685    3    0    1
 -2      1881      1581      1889      2002
 -1      3686    3    0    1
 -2       311      1698      1738      2775
 -1      3687    3    0    1
 -2      1609      1601      1681      2169
 -1      3688    3    0    1
 -2       327       306      1372      1709
 -1      3689    3    0    1
 -2      1651      1735      1878      2233
 -1      3690    3    0    1
 -2      1579      1536      1790      1890
 -1      3691    3    0    1
 -2      1243       990       627      1779
 -1      3692    3    0    1
 -2      1842      1806      2160      2377
 -1      3693    3    0    1
 -2      2026       392      2069      2242
 -1      3694    3    0    1
 -2       833      1338      1098      1651
 -1      3695    3    0    1
 -2      1397       883      1396      2239
 -1      3696    3    0    1
 -2       808      1084      2336      2557
 -1      3697    3    0    1
 -2      2591       332      2699      2884
 -1      3698    3    0    1
 -2       307       311      1738      2775
 -1      3699    3    0    1
 -2      1082      1409      1424      3038
 -1      3700    3    0    1
 -2       157       160      1001      2868
 -1      3701    3    0    1
 -2      1376      1115      1889      2001
 -1      3702    3    0    1
 -2      2910      2230      2804      2722
 -1      3703    3    0    1
 -2      1631      1525      1654      2073
 -1      3704    3    0    1
 -2      1610      1646      1848      1909
 -1      3705    3    0    1
 -2      1628       419      1767      2320
 -1      3706    3    0    1
 -2      1793      1862      2228      2803
 -1      3707    3    0    1
 -2      1841      2034      2508      2609
 -1      3708    3    0    1
 -2      1584      1545      1798      1854
 -1      3709    3    0    1
 -2       835       836      1637      1761
 -1      3710    3    0    1
 -2      2095      1638      2256      2297
 -1      3711    3    0    1
 -2      2202      2353      2481      2762
 -1      3712    3    0    1
 -2      1035       214      1044      2536
 -1      3713    3    0    1
 -2      3092      1423      1464      3118
 -1      3714    3    0    1
 -2      1058       760      2252      2451
 -1      3715    3    0    1
 -2      1744      1571      2092      2138
 -1      3716    3    0    1
 -2      1591      1561      1658      1686
 -1      3717    3    0    1
 -2      1683      1028      1726      2317
 -1      3718    3    0    1
 -2      1559       393      2084      2390
 -1      3719    3    0    1
 -2      2203       316      2473      2543
 -1      3720    3    0    1
 -2      1703      1814      1905      1970
 -1      3721    3    0    1
 -2        86       950      1875      2281
 -1      3722    3    0    1
 -2       881       882      1822      1950
 -1      3723    3    0    1
 -2       351       348       967      1578
 -1      3724    3    0    1
 -2      1197       929      2140      2288
 -1      3725    3    0    1
 -2       556       538      1803      2017
 -1      3726    3    0    1
 -2       532       538      1861      1978
 -1      3727    3    0    1
 -2      1597      1669      1731      1809
 -1      3728    3    0    1
 -2      1198      1623      1678      1746
 -1      3729    3    0    1
 -2      1729      1640      1897      2108
 -1      3730    3    0    1
 -2      2380      1067      2499      2509
 -1      3731    3    0    1
 -2       835      1341       836      1761
 -1      3732    3    0    1
 -2       895       886      2357      2759
 -1      3733    3    0    1
 -2      1692      1553      1988      2086
 -1      3734    3    0    1
 -2      2040      1596      2427      2576
 -1      3735    3    0    1
 -2      2264      1042      2650      2711
 -1      3736    3    0    1
 -2      1947      1616      2095      2297
 -1      3737    3    0    1
 -2      1710      1579      1790      1898
 -1      3738    3    0    1
 -2      1046      2487      2578      2657
 -1      3739    3    0    1
 -2      1982      1908      2128      2517
 -1      3740    3    0    1
 -2      1730      1694      1879      1883
 -1      3741    3    0    1
 -2      1582      1675      1777      2103
 -1      3742    3    0    1
 -2      2142      1333      2431      2454
 -1      3743    3    0    1
 -2      1654      1631      1885      1987
 -1      3744    3    0    1
 -2       395      1591      1658      1686
 -1      3745    3    0    1
 -2      1543      1887      2061      2617
 -1      3746    3    0    1
 -2      1592      1648      1964      2099
 -1      3747    3    0    1
 -2        55      1702      2041      2296
 -1      3748    3    0    1
 -2      2531      1012      2589      2684
 -1      3749    3    0    1
 -2      1199       938       535      1597
 -1      3750    3    0    1
 -2      1666      2452      2554      2682
 -1      3751    3    0    1
 -2       319      1891      2224      2356
 -1      3752    3    0    1
 -2      1911      1910      2382      2394
 -1      3753    3    0    1
 -2      2450      1188      2845      2900
 -1      3754    3    0    1
 -2      1199       938      1597      1752
 -1      3755    3    0    1
 -2      1335      1085      1766      2660
 -1      3756    3    0    1
 -2      1352      1794      1819      1860
 -1      3757    3    0    1
 -2      1553      1562      1813      2100
 -1      3758    3    0    1
 -2      1747       704      1882      2226
 -1      3759    3    0    1
 -2      1404       888      1144      2502
 -1      3760    3    0    1
 -2       849       850      2394      2395
 -1      3761    3    0    1
 -2        86       395      2107      2156
 -1      3762    3    0    1
 -2       339      1029      1546      1937
 -1      3763    3    0    1
 -2      1650      1834      1956      2145
 -1      3764    3    0    1
 -2      1923      2369      2567      2680
 -1      3765    3    0    1
 -2      1786      1807      1931      2085
 -1      3766    3    0    1
 -2      1694      1620      1756      1879
 -1      3767    3    0    1
 -2      1880       122      1966      2144
 -1      3768    3    0    1
 -2      1556       392      2026      2242
 -1      3769    3    0    1
 -2      1554      1586      1946      2218
 -1      3770    3    0    1
 -2      1692      1988      2031      2086
 -1      3771    3    0    1
 -2       185      1663      1715      1968
 -1      3772    3    0    1
 -2      1363       320      1104      2080
 -1      3773    3    0    1
 -2         9       904      1161      2383
 -1      3774    3    0    1
 -2      1858      1564      1941      1944
 -1      3775    3    0    1
 -2      1900      1577      2143      2162
 -1      3776    3    0    1
 -2       784       783      2583      2831
 -1      3777    3    0    1
 -2      2011      2070      2184      2248
 -1      3778    3    0    1
 -2      1987      1631      2182      2662
 -1      3779    3    0    1
 -2      1550      1616      1657      1892
 -1      3780    3    0    1
 -2      1105       321      1107      1684
 -1      3781    3    0    1
 -2      1674      1552      2031      2086
 -1      3782    3    0    1
 -2       878       877      1969      2359
 -1      3783    3    0    1
 -2      2021      1645      2417      2529
 -1      3784    3    0    1
 -2       802       819      1331      1843
 -1      3785    3    0    1
 -2      2352      2187      2372      2931
 -1      3786    3    0    1
 -2      1373       859      1372      1997
 -1      3787    3    0    1
 -2      1338       833       834      1651
 -1      3788    3    0    1
 -2      2246      1906      2553      2768
 -1      3789    3    0    1
 -2      1337       833      1336      1837
 -1      3790    3    0    1
 -2      1424      3094      1450      3132
 -1      3791    3    0    1
 -2      2035      1971      2780      2898
 -1      3792    3    0    1
 -2      1804      1827      1896      2437
 -1      3793    3    0    1
 -2      1659      1670      2139      2287
 -1      3794    3    0    1
 -2       866       865      1121      1655
 -1      3795    3    0    1
 -2      1565      1738      1932      1993
 -1      3796    3    0    1
 -2      1198       534      1590      1809
 -1      3797    3    0    1
 -2       538       940      1803      1978
 -1      3798    3    0    1
 -2      1571      1762      2092      2138
 -1      3799    3    0    1
 -2      1924      1675      2014      2330
 -1      3800    3    0    1
 -2      2070      1778      2184      2248
 -1      3801    3    0    1
 -2       678      1013      2062      2801
 -1      3802    3    0    1
 -2       420      1091      2246      2365
 -1      3803    3    0    1
 -2      1174       490       483      1929
 -1      3804    3    0    1
 -2      1617      1594      1682      1775
 -1      3805    3    0    1
 -2       375       955      1972      2156
 -1      3806    3    0    1
 -2      1659      1533      1670      1769
 -1      3807    3    0    1
 -2       225      1054      1576      2807
 -1      3808    3    0    1
 -2      1913      2375      1962      2010
 -1      3809    3    0    1
 -2       941      1926      1986      2296
 -1      3810    3    0    1
 -2      1256      1001       654      2720
 -1      3811    3    0    1
 -2      1795      1529      2342      2484
 -1      3812    3    0    1
 -2      1974      1084      2568      2710
 -1      3813    3    0    1
 -2      2264      2212      2526      2711
 -1      3814    3    0    1
 -2      1031      1286      2237      2668
 -1      3815    3    0    1
 -2       848       847      1713      1884
 -1      3816    3    0    1
 -2       270       263      1974      2486
 -1      3817    3    0    1
 -2      1390      2124      2249      2302
 -1      3818    3    0    1
 -2      1376       862      1881      1889
 -1      3819    3    0    1
 -2      1601      1531      1609      1705
 -1      3820    3    0    1
 -2      1006      1003      1583      2646
 -1      3821    3    0    1
 -2       406       930      2537      2816
 -1      3822    3    0    1
 -2      1774      1679      2414      2737
 -1      3823    3    0    1
 -2       185       339      1546      1900
 -1      3824    3    0    1
 -2      1626      1539      1655      1784
 -1      3825    3    0    1
 -2       956      2404      2413      2784
 -1      3826    3    0    1
 -2      1649      1643      2266      2279
 -1      3827    3    0    1
 -2       534      1198      1678      1746
 -1      3828    3    0    1
 -2       133      2097      2198      2209
 -1      3829    3    0    1
 -2      1994      2364      2382      2394
 -1      3830    3    0    1
 -2      1697      1653      1967      2063
 -1      3831    3    0    1
 -2      2255        38      2897      2909
 -1      3832    3    0    1
 -2       359       228      1056      2679
 -1      3833    3    0    1
 -2      1672      1734      1953      2245
 -1      3834    3    0    1
 -2      1640      1729      1976      2384
 -1      3835    3    0    1
 -2       395      1686      2107      2156
 -1      3836    3    0    1
 -2      1565      1536      1710      1850
 -1      3837    3    0    1
 -2       615       978       981      2538
 -1      3838    3    0    1
 -2      1198      1590      1702      1746
 -1      3839    3    0    1
 -2      2913      1764      2921      3086
 -1      3840    3    0    1
 -2       337       976      2110      2238
 -1      3841    3    0    1
 -2      1107       851      1105      1681
 -1      3842    3    0    1
 -2      1709      1675      1739      1812
 -1      3843    3    0    1
 -2      1987      1611      2333      2662
 -1      3844    3    0    1
 -2      1753      2225      2764      2886
 -1      3845    3    0    1
 -2       562       953      1760      2090
 -1      3846    3    0    1
 -2       340      2317      2606      2782
 -1      3847    3    0    1
 -2       402       312      1117      1602
 -1      3848    3    0    1
 -2      2194      1632      2474      2564
 -1      3849    3    0    1
 -2      1545      1584      1798      1915
 -1      3850    3    0    1
 -2      1531      1588      1673      1687
 -1      3851    3    0    1
 -2      1644      1920      2170      2183
 -1      3852    3    0    1
 -2      1783      2308      2528      2601
 -1      3853    3    0    1
 -2      1575      1804      1811      1827
 -1      3854    3    0    1
 -2      1341       835      1340      1761
 -1      3855    3    0    1
 -2      1660      1627      1704      1711
 -1      3856    3    0    1
 -2      1991      2635      2837      2876
 -1      3857    3    0    1
 -2      1359       845       846      2108
 -1      3858    3    0    1
 -2      1883      1652      1965      1989
 -1      3859    3    0    1
 -2      2040      1596      2623      2727
 -1      3860    3    0    1
 -2       759      1056      1059      2326
 -1      3861    3    0    1
 -2       330      1676      1804      1849
 -1      3862    3    0    1
 -2       865      1378      1655      1870
 -1      3863    3    0    1
 -2      1738      1698      1932      1993
 -1      3864    3    0    1
 -2      1645      1830      2610      2773
 -1      3865    3    0    1
 -2       907      1096      2294      2456
 -1      3866    3    0    1
 -2       639      2545      2654      2818
 -1      3867    3    0    1
 -2      1700      1655      1870      1934
 -1      3868    3    0    1
 -2       702      1029      1846      1980
 -1      3869    3    0    1
 -2      1760       562      2534      2798
 -1      3870    3    0    1
 -2       312       402      1123      1672
 -1      3871    3    0    1
 -2      1655      1870      1934      2105
 -1      3872    3    0    1
 -2      2006      2008      2466      2734
 -1      3873    3    0    1
 -2      2554       510      2686      2821
 -1      3874    3    0    1
 -2       973       604      1235      1662
 -1      3875    3    0    1
 -2       931        55      2041      2296
 -1      3876    3    0    1
 -2      1929       916      2615      2732
 -1      3877    3    0    1
 -2       863      1377      1118      2757
 -1      3878    3    0    1
 -2      1029      1846      1936      2091
 -1      3879    3    0    1
 -2      1818      1854      1916      2053
 -1      3880    3    0    1
 -2      1147      1739      1963      2014
 -1      3881    3    0    1
 -2       606       974       976      2206
 -1      3882    3    0    1
 -2      1749      2091      1759      1555
 -1      3883    3    0    1
 -2      1606      1533      1965      2171
 -1      3884    3    0    1
 -2      1981      1908      2127      2321
 -1      3885    3    0    1
 -2      2585      1666      2682      2695
 -1      3886    3    0    1
 -2      1619      2009      2013      2565
 -1      3887    3    0    1
 -2       107       350      2199      2480
 -1      3888    3    0    1
 -2       357       968      1751      2199
 -1      3889    3    0    1
 -2      1862      1793      2801      2803
 -1      3890    3    0    1
 -2      2199       107      2480      2504
 -1      3891    3    0    1
 -2       627       977      1243      1779
 -1      3892    3    0    1
 -2      2214      1447      3133      3006
 -1      3893    3    0    1
 -2       627       610       977      1779
 -1      3894    3    0    1
 -2       928      1702      2172      2604
 -1      3895    3    0    1
 -2      1807      1399      1895      1931
 -1      3896    3    0    1
 -2      1763      1712      2077      2627
 -1      3897    3    0    1
 -2      1379       865       866      1784
 -1      3898    3    0    1
 -2       837      2125      2261      2346
 -1      3899    3    0    1
 -2       879       880      2124      2621
 -1      3900    3    0    1
 -2      1529      1621      1688      1808
 -1      3901    3    0    1
 -2      1544      1757      2109      2637
 -1      3902    3    0    1
 -2      1082       795      1320      2049
 -1      3903    3    0    1
 -2       556      1803      2090      2534
 -1      3904    3    0    1
 -2       556       562      1211      2534
 -1      3905    3    0    1
 -2      2554      2498      2682      2686
 -1      3906    3    0    1
 -2       795      1322      1319      1787
 -1      3907    3    0    1
 -2      1099       837      2261      2346
 -1      3908    3    0    1
 -2       383      2339      1935       251
 -1      3909    3    0    1
 -2      1951      1109      2132      2376
 -1      3910    3    0    1
 -2       834      1337      1736      1837
 -1      3911    3    0    1
 -2       875      1388      1131      2817
 -1      3912    3    0    1
 -2      1611      1572      2113      2739
 -1      3913    3    0    1
 -2      1322       795       802      1787
 -1      3914    3    0    1
 -2       979      1800      1966      2144
 -1      3915    3    0    1
 -2      1145      1405      1874      2215
 -1      3916    3    0    1
 -2      1082       802       795      2049
 -1      3917    3    0    1
 -2       142       136      2581      2829
 -1      3918    3    0    1
 -2      1864      2522      2544      2813
 -1      3919    3    0    1
 -2      1887      1940      2160      2433
 -1      3920    3    0    1
 -2      1571      2040      2244      2312
 -1      3921    3    0    1
 -2       967       351      2580      2843
 -1      3922    3    0    1
 -2       845      1358       846      2224
 -1      3923    3    0    1
 -2      1031       699      1275      2050
 -1      3924    3    0    1
 -2      1031       706       699      2050
 -1      3925    3    0    1
 -2      2087      2033      2377      2849
 -1      3926    3    0    1
 -2      2223       989      2581      2829
 -1      3927    3    0    1
 -2      1824      1844      2031      2478
 -1      3928    3    0    1
 -2       833       834      1651      1837
 -1      3929    3    0    1
 -2      1651       834      1736      1837
 -1      3930    3    0    1
 -2      1900      1546      2143      2329
 -1      3931    3    0    1
 -2      1029       339      1936      1937
 -1      3932    3    0    1
 -2      1546      1029      1882      1937
 -1      3933    3    0    1
 -2      1387      1762      1891      2355
 -1      3934    3    0    1
 -2      1311       795      1319      1787
 -1      3935    3    0    1
 -2       345       369      1045      2754
 -1      3936    3    0    1
 -2       778       795      1311      1787
 -1      3937    3    0    1
 -2      1814      1816      2080      2163
 -1      3938    3    0    1
 -2      1801      1334      1888      2032
 -1      3939    3    0    1
 -2      2008      2006      2466      2613
 -1      3940    3    0    1
 -2      1338      1680      1684      2316
 -1      3941    3    0    1
 -2       823      1093      2283      2310
 -1      3942    3    0    1
 -2      1956      1650      2145      2223
 -1      3943    3    0    1
 -2      1558      1660      1696      1863
 -1      3944    3    0    1
 -2      1660      1354      1704      1863
 -1      3945    3    0    1
 -2      2224      1891      1622      2356
 -1      3946    3    0    1
 -2      1256      1630      2204      2482
 -1      3947    3    0    1
 -2      2592      2750      2760      2791
 -1      3948    3    0    1
 -2      1793      1862      2699      2805
 -1      3949    3    0    1
 -2      1903      1593      1952      2250
 -1      3950    3    0    1
 -2      1700      1819      1860      2094
 -1      3951    3    0    1
 -2      1696      1558      1790      2095
 -1      3952    3    0    1
 -2       290       291      2075      2348
 -1      3953    3    0    1
 -2      1548      1986      2041      2296
 -1      3954    3    0    1
 -2      1357      1358      2224      2356
 -1      3955    3    0    1
 -2      1790      1558      1947      2095
 -1      3956    3    0    1
 -2      1621      1529      2213      2405
 -1      3957    3    0    1
 -2      2318      2414      2736      2737
 -1      3958    3    0    1
 -2      2213      1529      2342      2405
 -1      3959    3    0    1
 -2      1643      1648      1990      2094
 -1      3960    3    0    1
 -2      1700      1860      1934      2094
 -1      3961    3    0    1
 -2      1654      1665      2073      2598
 -1      3962    3    0    1
 -2      1331      1766      1843      2032
 -1      3963    3    0    1
 -2      1657      1550      1892      2030
 -1      3964    3    0    1
 -2      1826      1592      2099      2460
 -1      3965    3    0    1
 -2      2485      1033      2505      2809
 -1      3966    3    0    1
 -2      1938       330      2439       333
 -1      3967    3    0    1
 -2      1331       284      1766      2032
 -1      3968    3    0    1
 -2       927      2498      2686      2702
 -1      3969    3    0    1
 -2      1815      1886      2128      2254
 -1      3970    3    0    1
 -2      1968      1983      2221      2334
 -1      3971    3    0    1
 -2       904       410      2208      2383
 -1      3972    3    0    1
 -2      1334      1331      1888      2032
 -1      3973    3    0    1
 -2      1845      1807      1895      1931
 -1      3974    3    0    1
 -2       706       699      2050      2639
 -1      3975    3    0    1
 -2       980       337      1707      1930
 -1      3976    3    0    1
 -2      1800       968       615       978
 -1      3977    3    0    1
 -2       836       835      1637      2564
 -1      3978    3    0    1
 -2      1614      1998      2216      2235
 -1      3979    3    0    1
 -2      1616      1550      2088      2188
 -1      3980    3    0    1
 -2      1159       389      1334      1801
 -1      3981    3    0    1
 -2       389       386      1334      1801
 -1      3982    3    0    1
 -2      1988      1674      2031      2086
 -1      3983    3    0    1
 -2      1877      1053      2071      2899
 -1      3984    3    0    1
 -2      1536      1565      1738      1932
 -1      3985    3    0    1
 -2      1536      1710      1850      1890
 -1      3986    3    0    1
 -2       160       157      1005      2532
 -1      3987    3    0    1
 -2      1666      2037      2268      2715
 -1      3988    3    0    1
 -2      1575      1804      1827      1896
 -1      3989    3    0    1
 -2      1692      1824      1844      2031
 -1      3990    3    0    1
 -2      1246      2018      2496      2667
 -1      3991    3    0    1
 -2      2124      1625      2219      2300
 -1      3992    3    0    1
 -2      1725      1818      2053      2082
 -1      3993    3    0    1
 -2      2129      1619      2136      2542
 -1      3994    3    0    1
 -2      1818      1575      2053      2082
 -1      3995    3    0    1
 -2      1897      1753      2292      2360
 -1      3996    3    0    1
 -2      2100      1789      2396      2458
 -1      3997    3    0    1
 -2      1732      1539      1772      1817
 -1      3998    3    0    1
 -2      1620      1608      1647      1817
 -1      3999    3    0    1
 -2      1785      2103      2104      2205
 -1      4000    3    0    1
 -2      1539      1647      1772      1817
 -1      4001    3    0    1
 -2       567      1972      2107      2399
 -1      4002    3    0    1
 -2      1091      2167      2246      2365
 -1      4003    3    0    1
 -2      1389       318      1893      1995
 -1      4004    3    0    1
 -2      1647      1608      1772      1817
 -1      4005    3    0    1
 -2      1863      1696      1881      2001
 -1      4006    3    0    1
 -2      1725      1818      1916      2053
 -1      4007    3    0    1
 -2       750       752      1877      2416
 -1      4008    3    0    1
 -2       919       496      2845      2900
 -1      4009    3    0    1
 -2      1608      1732      1772      1817
 -1      4010    3    0    1
 -2       634       627      1779      2449
 -1      4011    3    0    1
 -2        42        47      3003      3024
 -1      4012    3    0    1
 -2      1619      1744      2126      2203
 -1      4013    3    0    1
 -2      1941      2230      2373      2722
 -1      4014    3    0    1
 -2      1583      1003      2674      2833
 -1      4015    3    0    1
 -2      1348       839      1347      1820
 -1      4016    3    0    1
 -2       798      1080      2839      2895
 -1      4017    3    0    1
 -2      2025      2116      2502      2665
 -1      4018    3    0    1
 -2      2577      3096      1461      3148
 -1      4019    3    0    1
 -2      2293        36      2748      2806
 -1      4020    3    0    1
 -2        66       937      1200      1821
 -1      4021    3    0    1
 -2      1548        71      1746      1986
 -1      4022    3    0    1
 -2       332       160      1005      2186
 -1      4023    3    0    1
 -2      2364       849      2394      2395
 -1      4024    3    0    1
 -2      2266      1530      2707      2837
 -1      4025    3    0    1
 -2      1522      1840      2052      2251
 -1      4026    3    0    1
 -2      2345      2098      2751      2823
 -1      4027    3    0    1
 -2      1559      1667      1955      2004
 -1      4028    3    0    1
 -2      1588      1673      1705      1905
 -1      4029    3    0    1
 -2      1531      1601      1814      1905
 -1      4030    3    0    1
 -2        67        68      1200      1821
 -1      4031    3    0    1
 -2      1914       905      2207      2247
 -1      4032    3    0    1
 -2       139       134      1246      2018
 -1      4033    3    0    1
 -2      1673      1601      1705      1905
 -1      4034    3    0    1
 -2      1536      1738      1823      1932
 -1      4035    3    0    1
 -2      1842      1845      1895      2027
 -1      4036    3    0    1
 -2      1384       871       872      2027
 -1      4037    3    0    1
 -2      1209      1803      2022      2090
 -1      4038    3    0    1
 -2      1776      1735      1838      1856
 -1      4039    3    0    1
 -2      2106      1691      2132      2307
 -1      4040    3    0    1
 -2       975       606      2181      2200
 -1      4041    3    0    1
 -2      2229      1321      2519      2559
 -1      4042    3    0    1
 -2       532       538       937      1861
 -1      4043    3    0    1
 -2       532       937      1853      1861
 -1      4044    3    0    1
 -2       978       119       981      2019
 -1      4045    3    0    1
 -2      1748      1566      1851      1856
 -1      4046    3    0    1
 -2      1616      1790      1947      2095
 -1      4047    3    0    1
 -2      1533      1670      1769      2171
 -1      4048    3    0    1
 -2       610       627      2064      2448
 -1      4049    3    0    1
 -2      1721      1709      1812      2082
 -1      4050    3    0    1
 -2        82       949      1211      2535
 -1      4051    3    0    1
 -2       314       294      1340      1831
 -1      4052    3    0    1
 -2      1340       294      1341      1831
 -1      4053    3    0    1
 -2      1546       185      1715      2221
 -1      4054    3    0    1
 -2       974       124      1880      2823
 -1      4055    3    0    1
 -2       949      2017      2534      2535
 -1      4056    3    0    1
 -2      1715      1968      1983      2221
 -1      4057    3    0    1
 -2      1715       185      1968      2221
 -1      4058    3    0    1
 -2      1017      1006      2562      2642
 -1      4059    3    0    1
 -2      1886      1982      2128      2254
 -1      4060    3    0    1
 -2       284      1097      1335      1832
 -1      4061    3    0    1
 -2      1161         9      2780      2898
 -1      4062    3    0    1
 -2      2016      1641      2066      2295
 -1      4063    3    0    1
 -2       981       125      1857      2447
 -1      4064    3    0    1
 -2      1908      1982      2151      2641
 -1      4065    3    0    1
 -2       320       404      1106      2080
 -1      4066    3    0    1
 -2       444       429      1143      1913
 -1      4067    3    0    1
 -2      1675      1709      1739      1963
 -1      4068    3    0    1
 -2      1544      1612      1701      2637
 -1      4069    3    0    1
 -2      2340      1142      2556      2701
 -1      4070    3    0    1
 -2       429      1392      1695      1913
 -1      4071    3    0    1
 -2      2380      1067      2509      2812
 -1      4072    3    0    1
 -2      1661      1577      2076      2162
 -1      4073    3    0    1
 -2       330      1676      1849      2055
 -1      4074    3    0    1
 -2      1733      2125      2261      2678
 -1      4075    3    0    1
 -2      1951      2106      2132      2307
 -1      4076    3    0    1
 -2      2192      2058      2441      2442
 -1      4077    3    0    1
 -2      1000      1938       330      2055
 -1      4078    3    0    1
 -2       863      1118      2622      2757
 -1      4079    3    0    1
 -2       359       228      2679      2713
 -1      4080    3    0    1
 -2       807       784      1605      2896
 -1      4081    3    0    1
 -2      1656       384      1904      1939
 -1      4082    3    0    1
 -2      1886      1932      1993      2128
 -1      4083    3    0    1
 -2      1611      1547      1668      2594
 -1      4084    3    0    1
 -2      2213      1551      2342      2484
 -1      4085    3    0    1
 -2       975       606      1234      1957
 -1      4086    3    0    1
 -2      1701      1544      1757      2046
 -1      4087    3    0    1
 -2      1522      1804      1896      2437
 -1      4088    3    0    1
 -2       391      2498      2593      2822
 -1      4089    3    0    1
 -2      1336      1337      1837      2376
 -1      4090    3    0    1
 -2      1734      1815      2245      2254
 -1      4091    3    0    1
 -2       747       730      1836      2597
 -1      4092    3    0    1
 -2      1000       654      1902      2483
 -1      4093    3    0    1
 -2      2210      1573      2696      2796
 -1      4094    3    0    1
 -2      1832      1097      2079      2409
 -1      4095    3    0    1
 -2       330      1798      2023      2054
 -1      4096    3    0    1
 -2      1000       330      1849      2055
 -1      4097    3    0    1
 -2      1858      1564      1944      2352
 -1      4098    3    0    1
 -2      1573      1724      2210      2601
 -1      4099    3    0    1
 -2      1804      1522      1849      2437
 -1      4100    3    0    1
 -2       432       384      1656      2435
 -1      4101    3    0    1
 -2      1836       730      2280      2597
 -1      4102    3    0    1
 -2      2154      1614      2216      2640
 -1      4103    3    0    1
 -2      2494       422      2731      2875
 -1      4104    3    0    1
 -2      1828      2084      2262      2468
 -1      4105    3    0    1
 -2      1723      2033      2061      2160
 -1      4106    3    0    1
 -2      1740      1661      1822      2162
 -1      4107    3    0    1
 -2      2131      2028      2408      2471
 -1      4108    3    0    1
 -2      2114      1876      2283      2310
 -1      4109    3    0    1
 -2       747      1043      1298      1836
 -1      4110    3    0    1
 -2       747       730      1043      1836
 -1      4111    3    0    1
 -2      2159      1040      2322      2597
 -1      4112    3    0    1
 -2      1162       459       466      2614
 -1      4113    3    0    1
 -2      1591      1686      2057      2767
 -1      4114    3    0    1
 -2      1919       424      2595      2598
 -1      4115    3    0    1
 -2       403      2284      2335      2641
 -1      4116    3    0    1
 -2      1794      1700      1819      1860
 -1      4117    3    0    1
 -2      1014      2353      2481      2803
 -1      4118    3    0    1
 -2       187       347      1027      2579
 -1      4119    3    0    1
 -2      1940      1975      2157      2433
 -1      4120    3    0    1
 -2      1666      2267      2821      2854
 -1      4121    3    0    1
 -2      2036      1956      2145      2223
 -1      4122    3    0    1
 -2      2005      1878      2233      2316
 -1      4123    3    0    1
 -2      1723      1940      2087      2160
 -1      4124    3    0    1
 -2      2243      1015      2323      2606
 -1      4125    3    0    1
 -2       831      1095      1912      2079
 -1      4126    3    0    1
 -2      1622      1753      2360      2886
 -1      4127    3    0    1
 -2      1618      1035      2391      2536
 -1      4128    3    0    1
 -2      1530      2266      2795      2837
 -1      4129    3    0    1
 -2      2168      1614      2627      2693
 -1      4130    3    0    1
 -2      1571      1622      1762      1891
 -1      4131    3    0    1
 -2        80       952      1773      2840
 -1      4132    3    0    1
 -2      2117      2249      2469      2793
 -1      4133    3    0    1
 -2      1384       872      1842      2027
 -1      4134    3    0    1
 -2       992       639       640      2185
 -1      4135    3    0    1
 -2      1321      1859      2559      2789
 -1      4136    3    0    1
 -2      1617      1554      1689      2121
 -1      4137    3    0    1
 -2       341      1400      1148      1852
 -1      4138    3    0    1
 -2      1394       341      1391      1852
 -1      4139    3    0    1
 -2      1400       448      1727      1852
 -1      4140    3    0    1
 -2      1400       341       448      1852
 -1      4141    3    0    1
 -2       651      1255      2313      2344
 -1      4142    3    0    1
 -2       341      1394       448      1852
 -1      4143    3    0    1
 -2      1588      1531      1673      1905
 -1      4144    3    0    1
 -2       403      1908      2072      2641
 -1      4145    3    0    1
 -2      2324      1072      2339      2688
 -1      4146    3    0    1
 -2      2932      2944      2950      1457
 -1      4147    3    0    1
 -2      1830      1826      2610      2773
 -1      4148    3    0    1
 -2      2263      1733      2328      2407
 -1      4149    3    0    1
 -2      1665      1984      2073      2598
 -1      4150    3    0    1
 -2      1150      1845      1895      1931
 -1      4151    3    0    1
 -2      1525      1654      2073      2386
 -1      4152    3    0    1
 -2       728      1835      1954      2650
 -1      4153    3    0    1
 -2      1589      1847      2443      2493
 -1      4154    3    0    1
 -2      1572      1949      2113      2739
 -1      4155    3    0    1
 -2       951       558      1210      2259
 -1      4156    3    0    1
 -2       514       532       937      1853
 -1      4157    3    0    1
 -2      2190      1406      2210      2672
 -1      4158    3    0    1
 -2       514       937      1187      1853
 -1      4159    3    0    1
 -2      1726      2243      2323      2606
 -1      4160    3    0    1
 -2      2434       177      2770      2883
 -1      4161    3    0    1
 -2       808       807      2290      2710
 -1      4162    3    0    1
 -2      1027      1277      2560      2639
 -1      4163    3    0    1
 -2       783      2309      2583      2831
 -1      4164    3    0    1
 -2       702      1028      1846      2091
 -1      4165    3    0    1
 -2      1537       398      1817      2065
 -1      4166    3    0    1
 -2      2493      1847      2521      2539
 -1      4167    3    0    1
 -2       868      1953      2101      2393
 -1      4168    3    0    1
 -2       119       120       981      2019
 -1      4169    3    0    1
 -2       120       119      1662      2019
 -1      4170    3    0    1
 -2      1930       336      2238      2655
 -1      4171    3    0    1
 -2       981       344       991      1857
 -1      4172    3    0    1
 -2       125       344       981      1857
 -1      4173    3    0    1
 -2      1656       385      1939      2260
 -1      4174    3    0    1
 -2      1660      1627      1711      1946
 -1      4175    3    0    1
 -2      2699       332      2805      2884
 -1      4176    3    0    1
 -2       886      1151      1140      2759
 -1      4177    3    0    1
 -2      1653      1697      1828      2240
 -1      4178    3    0    1
 -2      1961      1563      2130      2418
 -1      4179    3    0    1
 -2       520       932      1201      2314
 -1      4180    3    0    1
 -2       878      1135      1969      1976
 -1      4181    3    0    1
 -2       404      1106      2080      2163
 -1      4182    3    0    1
 -2      1601      1531      1814      2163
 -1      4183    3    0    1
 -2      2088       338      2179      2188
 -1      4184    3    0    1
 -2      1562      1553      2165      2341
 -1      4185    3    0    1
 -2        86       955      2156      2178
 -1      4186    3    0    1
 -2      2128      1992      2254      2517
 -1      4187    3    0    1
 -2       616       980      1707      2545
 -1      4188    3    0    1
 -2       459       826      2716      2717
 -1      4189    3    0    1
 -2       391       927      1186      2702
 -1      4190    3    0    1
 -2       272      1079      2332      2887
 -1      4191    3    0    1
 -2       395        86      2107      2178
 -1      4192    3    0    1
 -2      1853       532      1978      2288
 -1      4193    3    0    1
 -2      1523      1864      1933      2173
 -1      4194    3    0    1
 -2       399      1537      1879      1921
 -1      4195    3    0    1
 -2      1756      1694      1879      1921
 -1      4196    3    0    1
 -2      1730      1694      1756      1921
 -1      4197    3    0    1
 -2      1537      1817      1879      1921
 -1      4198    3    0    1
 -2      1694      1730      1879      1921
 -1      4199    3    0    1
 -2      1573      1783      2587      2601
 -1      4200    3    0    1
 -2       142       136       993      2282
 -1      4201    3    0    1
 -2       858      1113      1848      1869
 -1      4202    3    0    1
 -2       857      1113       858      1869
 -1      4203    3    0    1
 -2      1686        86      1875      2156
 -1      4204    3    0    1
 -2      1863      1881      1889      2001
 -1      4205    3    0    1
 -2      1355      1704      1863      2001
 -1      4206    3    0    1
 -2       463      2078      2609      2898
 -1      4207    3    0    1
 -2       314       294      2220      2681
 -1      4208    3    0    1
 -2       838       837      2125      2261
 -1      4209    3    0    1
 -2      1187       514      1853      1939
 -1      4210    3    0    1
 -2      1350      2707      2721      2869
 -1      4211    3    0    1
 -2      1386       316      1129      2203
 -1      4212    3    0    1
 -2       230       376      1059      2047
 -1      4213    3    0    1
 -2      1816       404      2080      2163
 -1      4214    3    0    1
 -2       270      1081      2486      2765
 -1      4215    3    0    1
 -2      1106      1365      2080      2163
 -1      4216    3    0    1
 -2      2151      1850      2179      2549
 -1      4217    3    0    1
 -2      1768      1641      1874      2016
 -1      4218    3    0    1
 -2       378       949      1745      2017
 -1      4219    3    0    1
 -2       568       591       956      2412
 -1      4220    3    0    1
 -2       889      1405       893      1874
 -1      4221    3    0    1
 -2       884       883      2239      2371
 -1      4222    3    0    1
 -2      2154      1614      2168      2216
 -1      4223    3    0    1
 -2      1405       889      1145      1874
 -1      4224    3    0    1
 -2      1603      1634      1778      2216
 -1      4225    3    0    1
 -2      1708      2154      2168      2216
 -1      4226    3    0    1
 -2      1867      2500      2630      2708
 -1      4227    3    0    1
 -2       591       965      1751      2412
 -1      4228    3    0    1
 -2       291       290      2075      2331
 -1      4229    3    0    1
 -2      2046      2228       333      2202
 -1      4230    3    0    1
 -2      1255      1002      2313      2344
 -1      4231    3    0    1
 -2      1788       133      2198      2209
 -1      4232    3    0    1
 -2      1950      1913      2375      1695
 -1      4233    3    0    1
 -2       224      2410      2714      2814
 -1      4234    3    0    1
 -2      1545      1750      1796      1916
 -1      4235    3    0    1
 -2      2007       750      2629      2746
 -1      4236    3    0    1
 -2       472       908      2174      2368
 -1      4237    3    0    1
 -2       567       568       956      2784
 -1      4238    3    0    1
 -2      1628      1767      1859      2576
 -1      4239    3    0    1
 -2      1635      1408      1695      1913
 -1      4240    3    0    1
 -2      1748      1828      1851      2240
 -1      4241    3    0    1
 -2       419      1767      2303      2519
 -1      4242    3    0    1
 -2       882      1822      1950      2010
 -1      4243    3    0    1
 -2      1610      1848      1869      2400
 -1      4244    3    0    1
 -2       410      1603      1634      2070
 -1      4245    3    0    1
 -2       845      1359      1101      2108
 -1      4246    3    0    1
 -2      1733      1525      2125      2263
 -1      4247    3    0    1
 -2       861       862      1889      2276
 -1      4248    3    0    1
 -2      1913      2375      1695      1962
 -1      4249    3    0    1
 -2      1371       857       858      2400
 -1      4250    3    0    1
 -2      1709       327      1739      1963
 -1      4251    3    0    1
 -2      2012      1526      2663      2865
 -1      4252    3    0    1
 -2      2007      2527      2629      2669
 -1      4253    3    0    1
 -2       124       122       974      1880
 -1      4254    3    0    1
 -2       832      1097      1542      2461
 -1      4255    3    0    1
 -2      1857       991      2558      2619
 -1      4256    3    0    1
 -2      1796      1750      2109      2234
 -1      4257    3    0    1
 -2      1848      1610      1909      2400
 -1      4258    3    0    1
 -2      2126      2203      2473      2543
 -1      4259    3    0    1
 -2      1646      1659      1869      2287
 -1      4260    3    0    1
 -2      1534      1644      2170      2183
 -1      4261    3    0    1
 -2       208       424      1631      1885
 -1      4262    3    0    1
 -2      1692      1690      1884      1988
 -1      4263    3    0    1
 -2       679       678      1013      2062
 -1      4264    3    0    1
 -2      1649       101      1741      2444
 -1      4265    3    0    1
 -2      1565      1536      1850      1932
 -1      4266    3    0    1
 -2       441      1150      1845      1895
 -1      4267    3    0    1
 -2      2363      1084      2557      2568
 -1      4268    3    0    1
 -2      1128       441      1845      1895
 -1      4269    3    0    1
 -2      1384       441      1128      1895
 -1      4270    3    0    1
 -2       441      1399      1150      1895
 -1      4271    3    0    1
 -2       441      1384       443      1895
 -1      4272    3    0    1
 -2      1850      1710      2179      1890
 -1      4273    3    0    1
 -2      1754      1718      2158      2180
 -1      4274    3    0    1
 -2      2283      2114      2501      2511
 -1      4275    3    0    1
 -2      1758      1865      2351      2594
 -1      4276    3    0    1
 -2      1387       299      1385      1891
 -1      4277    3    0    1
 -2       319      1387      1762      1891
 -1      4278    3    0    1
 -2       299      1387       319      1891
 -1      4279    3    0    1
 -2      1185       929       508      2288
 -1      4280    3    0    1
 -2      1380      1672      1953      2245
 -1      4281    3    0    1
 -2      1389       315      1134      1893
 -1      4282    3    0    1
 -2      1605       266      2354      2385
 -1      4283    3    0    1
 -2       315      1389       318      1893
 -1      4284    3    0    1
 -2      2486      1906      2820      1685
 -1      4285    3    0    1
 -2       214       195      2459      2536
 -1      4286    3    0    1
 -2      1784      1615      1917      2158
 -1      4287    3    0    1
 -2       343      1624      1873      2164
 -1      4288    3    0    1
 -2      1073      1323      1605      2385
 -1      4289    3    0    1
 -2      1276      2221      2226      2334
 -1      4290    3    0    1
 -2      1640      1532      1729      1897
 -1      4291    3    0    1
 -2      1720      2407      2777      2781
 -1      4292    3    0    1
 -2      2084      2004      2262      2428
 -1      4293    3    0    1
 -2      2255        32      2825      2845
 -1      4294    3    0    1
 -2      1322      1787      1843      1899
 -1      4295    3    0    1
 -2      1387       873       874      2355
 -1      4296    3    0    1
 -2       259      1319      1322      1899
 -1      4297    3    0    1
 -2      1322      1319      1787      1899
 -1      4298    3    0    1
 -2      1331      1322      1843      1899
 -1      4299    3    0    1
 -2       273       285      1766      1899
 -1      4300    3    0    1
 -2       285      1331      1766      1899
 -1      4301    3    0    1
 -2      1766      1331      1843      1899
 -1      4302    3    0    1
 -2       273       380      1322      1899
 -1      4303    3    0    1
 -2       273      1322      1331      1899
 -1      4304    3    0    1
 -2       285       273      1331      1899
 -1      4305    3    0    1
 -2       937      1853      1861      1904
 -1      4306    3    0    1
 -2      1072       383      2339      2688
 -1      4307    3    0    1
 -2      1742      1604      2103      2205
 -1      4308    3    0    1
 -2      1749      1829      2081      2315
 -1      4309    3    0    1
 -2       937       384      1187      1904
 -1      4310    3    0    1
 -2        66       432       937      1904
 -1      4311    3    0    1
 -2       432       384       937      1904
 -1      4312    3    0    1
 -2      1673      1531      1687      1905
 -1      4313    3    0    1
 -2      1589      1687      1703      1905
 -1      4314    3    0    1
 -2      1531      1588      1705      1905
 -1      4315    3    0    1
 -2      1687      1531      1703      1905
 -1      4316    3    0    1
 -2      1258      2313      2684      2766
 -1      4317    3    0    1
 -2      1607      2084      2262      2428
 -1      4318    3    0    1
 -2      1829      1789      2081      2396
 -1      4319    3    0    1
 -2      1789      1813      2081      2396
 -1      4320    3    0    1
 -2       774      1066      2347      2791
 -1      4321    3    0    1
 -2      1607      2004      2233      2428
 -1      4322    3    0    1
 -2      2004      1568      2233      2428
 -1      4323    3    0    1
 -2      1798      1915      2439      2790
 -1      4324    3    0    1
 -2      1910      1716      1911      2382
 -1      4325    3    0    1
 -2       510       926       928      1907
 -1      4326    3    0    1
 -2      1364       849       850      2394
 -1      4327    3    0    1
 -2       616       615       981      2538
 -1      4328    3    0    1
 -2      1590       928      2172      2270
 -1      4329    3    0    1
 -2      2512      1918      2673      2703
 -1      4330    3    0    1
 -2       511       510       928      1907
 -1      4331    3    0    1
 -2       687       664      1017      2642
 -1      4332    3    0    1
 -2      2111      2051      2275      2491
 -1      4333    3    0    1
 -2       211       212      2322      2713
 -1      4334    3    0    1
 -2       873       874      2355      2473
 -1      4335    3    0    1
 -2       185      1968      2221      2334
 -1      4336    3    0    1
 -2      1633      1562      2411      1770
 -1      4337    3    0    1
 -2      1631      1654      1866      2038
 -1      4338    3    0    1
 -2      1553      1713      2165      2341
 -1      4339    3    0    1
 -2      2272      2217      2292      2676
 -1      4340    3    0    1
 -2      1104      1363      2080      2395
 -1      4341    3    0    1
 -2      2298      1991      2622      2635
 -1      4342    3    0    1
 -2       287      1912      2348      2365
 -1      4343    3    0    1
 -2       320      1363       404      2080
 -1      4344    3    0    1
 -2      1627      1356      1711      2121
 -1      4345    3    0    1
 -2       448      1727      1852      2076
 -1      4346    3    0    1
 -2      1781      1391      1852      2076
 -1      4347    3    0    1
 -2      1394      1781      1822      2076
 -1      4348    3    0    1
 -2      1816      1814      1970      2163
 -1      4349    3    0    1
 -2      1391      1394      1852      2076
 -1      4350    3    0    1
 -2      1656       384      2314      2435
 -1      4351    3    0    1
 -2       190      1033      1034      2337
 -1      4352    3    0    1
 -2      1394      1391      1781      2076
 -1      4353    3    0    1
 -2       284      1766      1832      2079
 -1      4354    3    0    1
 -2       415        12       903      1914
 -1      4355    3    0    1
 -2       654       655      1257      2440
 -1      4356    3    0    1
 -2      1584      1545      1854      1916
 -1      4357    3    0    1
 -2      1545      1796      1797      1916
 -1      4358    3    0    1
 -2      1545      1797      1818      1916
 -1      4359    3    0    1
 -2      1545      1818      1854      1916
 -1      4360    3    0    1
 -2       252      1070      2047      2689
 -1      4361    3    0    1
 -2      1637      2112      2150      2194
 -1      4362    3    0    1
 -2      2112      1569      2150      2194
 -1      4363    3    0    1
 -2      1534      1999      2155      2475
 -1      4364    3    0    1
 -2       975      2072      2127      2284
 -1      4365    3    0    1
 -2      1661      1577      1727      2076
 -1      4366    3    0    1
 -2      2527       425      2629      2669
 -1      4367    3    0    1
 -2      1727      1577      1852      2076
 -1      4368    3    0    1
 -2      1619      1744      2136      2542
 -1      4369    3    0    1
 -2      1005      1018      2591      2656
 -1      4370    3    0    1
 -2       687       664      2642      2656
 -1      4371    3    0    1
 -2       141       336       992      2367
 -1      4372    3    0    1
 -2      1005       687      1018      2656
 -1      4373    3    0    1
 -2       736      2487      2520      2657
 -1      4374    3    0    1
 -2       328      1145      2215      2370
 -1      4375    3    0    1
 -2      1405       328       334      2370
 -1      4376    3    0    1
 -2      1672      1380      1953      2101
 -1      4377    3    0    1
 -2      2336      1912      2557      2568
 -1      4378    3    0    1
 -2      1763      1712      2220      2681
 -1      4379    3    0    1
 -2      1173        37      2566      2706
 -1      4380    3    0    1
 -2      1398       328      1395      2370
 -1      4381    3    0    1
 -2      1395      2215      2234      2370
 -1      4382    3    0    1
 -2      1810      1652      2369      2567
 -1      4383    3    0    1
 -2        15       431       909      2258
 -1      4384    3    0    1
 -2      2015      1398      2234      2370
 -1      4385    3    0    1
 -2      1826      1592      1830      1964
 -1      4386    3    0    1
 -2       832      1542      2294      2783
 -1      4387    3    0    1
 -2      1555      1749      2081      2315
 -1      4388    3    0    1
 -2      1550      1563      2030      2042
 -1      4389    3    0    1
 -2      1460      3109      3129      1486
 -1      4390    3    0    1
 -2      1749      1555      1759      2315
 -1      4391    3    0    1
 -2      1911      1716      2364      2382
 -1      4392    3    0    1
 -2      2339      1068      2347      2470
 -1      4393    3    0    1
 -2      2117      2119      2311      2463
 -1      4394    3    0    1
 -2      2618      1765      2729      2917
 -1      4395    3    0    1
 -2      1659      1646      1670      2287
 -1      4396    3    0    1
 -2      1563      1550      2028      2042
 -1      4397    3    0    1
 -2      1573      1782      2059      2587
 -1      4398    3    0    1
 -2      1782      1573      1783      2587
 -1      4399    3    0    1
 -2      2041       931      2296      2422
 -1      4400    3    0    1
 -2      1201      1926      2314      2692
 -1      4401    3    0    1
 -2      1780      1638      2095      2297
 -1      4402    3    0    1
 -2      2492      1001      2540      2805
 -1      4403    3    0    1
 -2      1141       428      1407      2625
 -1      4404    3    0    1
 -2      1638      1780      2256      2426
 -1      4405    3    0    1
 -2      1946      1791      2218      2426
 -1      4406    3    0    1
 -2      1652      1810      1883      2567
 -1      4407    3    0    1
 -2       799      2486      2765      2789
 -1      4408    3    0    1
 -2       333      1938      2046      2439
 -1      4409    3    0    1
 -2      1543      1887      1893      1940
 -1      4410    3    0    1
 -2       316      1386       414      2203
 -1      4411    3    0    1
 -2       157      1004      1005      2532
 -1      4412    3    0    1
 -2      1214       103      1215      2994
 -1      4413    3    0    1
 -2       535      1199      1597      2236
 -1      4414    3    0    1
 -2      1522      1827      1896      2052
 -1      4415    3    0    1
 -2      2930      2187      2971      3096
 -1      4416    3    0    1
 -2      1563      2028      2471      2742
 -1      4417    3    0    1
 -2      2274      1046      2487      2578
 -1      4418    3    0    1
 -2      1657      1550      2135      2297
 -1      4419    3    0    1
 -2       580      1760      2472      2798
 -1      4420    3    0    1
 -2      2554      2585      2682      2822
 -1      4421    3    0    1
 -2       466       906      1174      1929
 -1      4422    3    0    1
 -2       483       466      1174      1929
 -1      4423    3    0    1
 -2      1460      2914      3129      3136
 -1      4424    3    0    1
 -2       503       504       514      3003
 -1      4425    3    0    1
 -2      2957      2914      3108      3136
 -1      4426    3    0    1
 -2      1044       214      2459      2536
 -1      4427    3    0    1
 -2      1660      1696      1791      2426
 -1      4428    3    0    1
 -2       889      1145      1874      2215
 -1      4429    3    0    1
 -2      1703      1598      1847      2429
 -1      4430    3    0    1
 -2      1969      1995      2359      2574
 -1      4431    3    0    1
 -2      2804      2943      2950      3100
 -1      4432    3    0    1
 -2      1693      1834      1956      2052
 -1      4433    3    0    1
 -2       950      1875      2281      2680
 -1      4434    3    0    1
 -2      1833      1894      2636      2849
 -1      4435    3    0    1
 -2      2533       771      2632      2651
 -1      4436    3    0    1
 -2      2585      2381      2682      2822
 -1      4437    3    0    1
 -2      1858      1941      2373      2722
 -1      4438    3    0    1
 -2       251       383      1068      1935
 -1      4439    3    0    1
 -2      1577      1781      2076      2162
 -1      4440    3    0    1
 -2      1867       416      2500      2708
 -1      4441    3    0    1
 -2      1323       266      1605      2385
 -1      4442    3    0    1
 -2      1288       728      2711      2740
 -1      4443    3    0    1
 -2       771      1309      2632      2651
 -1      4444    3    0    1
 -2      1333      1092       823      2431
 -1      4445    3    0    1
 -2       836      1637      2474      2564
 -1      4446    3    0    1
 -2      1672      1734      2245      2254
 -1      4447    3    0    1
 -2       963       348      2664      2852
 -1      4448    3    0    1
 -2      1791      1696      2095      2256
 -1      4449    3    0    1
 -2       510       927      2686      2702
 -1      4450    3    0    1
 -2      2871      2904      2942      2977
 -1      4451    3    0    1
 -2      1554      1586      1594      1946
 -1      4452    3    0    1
 -2      1667      1568      1955      2004
 -1      4453    3    0    1
 -2      1810      2083      2369      2490
 -1      4454    3    0    1
 -2      1109      1927      2132      2376
 -1      4455    3    0    1
 -2      1914       903      2153      2501
 -1      4456    3    0    1
 -2       891      1924      2014      2330
 -1      4457    3    0    1
 -2      1398      2015      2234      2371
 -1      4458    3    0    1
 -2       903       415      1914      2153
 -1      4459    3    0    1
 -2       133      2097      2191      2198
 -1      4460    3    0    1
 -2      2047       230      2704      2723
 -1      4461    3    0    1
 -2      1858      1564      2289      2373
 -1      4462    3    0    1
 -2       472      2174      2258      2368
 -1      4463    3    0    1
 -2       975       403      2072      2284
 -1      4464    3    0    1
 -2      1612      1641      1874      2295
 -1      4465    3    0    1
 -2       343      1535      2477      2733
 -1      4466    3    0    1
 -2      1360       301      1361      1948
 -1      4467    3    0    1
 -2       446       301      1360      1948
 -1      4468    3    0    1
 -2      1633       446      1713      1948
 -1      4469    3    0    1
 -2       446      1360      1713      1948
 -1      4470    3    0    1
 -2      1692      1844      1884      1959
 -1      4471    3    0    1
 -2      1713      1633      2165      2341
 -1      4472    3    0    1
 -2      1102      1362      1844      1959
 -1      4473    3    0    1
 -2      1544      2762      2802      2834
 -1      4474    3    0    1
 -2      1712      1708      1763      2220
 -1      4475    3    0    1
 -2      1569      1778      2112      2150
 -1      4476    3    0    1
 -2      1366       853       854      1951
 -1      4477    3    0    1
 -2       853      1366      1109      1951
 -1      4478    3    0    1
 -2      1785      1742      2205      2251
 -1      4479    3    0    1
 -2       331      1785      2097      2251
 -1      4480    3    0    1
 -2      1041       726      1871      2366
 -1      4481    3    0    1
 -2       177      1020      2770      2883
 -1      4482    3    0    1
 -2      1014       678      2477      2801
 -1      4483    3    0    1
 -2      1529      1795      2286      2484
 -1      4484    3    0    1
 -2       776      1310      2253      2648
 -1      4485    3    0    1
 -2       726      1835      1871      1954
 -1      4486    3    0    1
 -2      1287       726      1706      1954
 -1      4487    3    0    1
 -2      1706       726      1871      1954
 -1      4488    3    0    1
 -2      1940      1723      2061      2160
 -1      4489    3    0    1
 -2      1660      1791      1946      2426
 -1      4490    3    0    1
 -2      2225      1532      2292      2764
 -1      4491    3    0    1
 -2      2069      1719      2170      2242
 -1      4492    3    0    1
 -2       704      2173      2522      2544
 -1      4493    3    0    1
 -2      1287      1042       726      1954
 -1      4494    3    0    1
 -2       736      1046      2578      2657
 -1      4495    3    0    1
 -2       726       728      1835      1954
 -1      4496    3    0    1
 -2       728       726      1042      1954
 -1      4497    3    0    1
 -2       994       640      2674      2833
 -1      4498    3    0    1
 -2       630       631       988      2029
 -1      4499    3    0    1
 -2      1015       175      2606      2735
 -1      4500    3    0    1
 -2      2285      1595      2388      2661
 -1      4501    3    0    1
 -2      1625      1733      2263      2407
 -1      4502    3    0    1
 -2       306      1147      1739      1963
 -1      4503    3    0    1
 -2      1425      2954      1424      1069
 -1      4504    3    0    1
 -2      1402       306       327      1963
 -1      4505    3    0    1
 -2       331      1693      2097      2209
 -1      4506    3    0    1
 -2      1128      1384      1895      2027
 -1      4507    3    0    1
 -2      1331      1843      1888      2032
 -1      4508    3    0    1
 -2      1766       284      1832      2032
 -1      4509    3    0    1
 -2      2311      1527      2734      2793
 -1      4510    3    0    1
 -2       339      1936      1937      2329
 -1      4511    3    0    1
 -2      1788      1657      2135      2196
 -1      4512    3    0    1
 -2      1615      1368      1917      2158
 -1      4513    3    0    1
 -2       133      1657      1788      2196
 -1      4514    3    0    1
 -2      1097       386      2060      2445
 -1      4515    3    0    1
 -2      1234       338      2088      2131
 -1      4516    3    0    1
 -2      1957      1234      2088      2131
 -1      4517    3    0    1
 -2      1486      1460      1509      3060
 -1      4518    3    0    1
 -2       759      1056      2326      2520
 -1      4519    3    0    1
 -2      1368       309      1369      2193
 -1      4520    3    0    1
 -2      1687      1673      1905      2443
 -1      4521    3    0    1
 -2      2235      1998      2401      2611
 -1      4522    3    0    1
 -2      1577      1727      1852      2025
 -1      4523    3    0    1
 -2       243      1310      2277      2453
 -1      4524    3    0    1
 -2      1577      1727      2025      2442
 -1      4525    3    0    1
 -2      1733      2073      2263      2328
 -1      4526    3    0    1
 -2      2516       250      2592      2761
 -1      4527    3    0    1
 -2      2421      1598      1847      2539
 -1      4528    3    0    1
 -2      1598      2421      1847      2429
 -1      4529    3    0    1
 -2       615       979      1800      1966
 -1      4530    3    0    1
 -2       979       615       980      1966
 -1      4531    3    0    1
 -2      2421      2493      2521      2539
 -1      4532    3    0    1
 -2       615       616       980      1966
 -1      4533    3    0    1
 -2      1186      2269      2390      2702
 -1      4534    3    0    1
 -2      1907       510      2686      2702
 -1      4535    3    0    1
 -2      2037      1666      2268      2695
 -1      4536    3    0    1
 -2       375        86      2156      2281
 -1      4537    3    0    1
 -2      1141      1407      2357      2625
 -1      4538    3    0    1
 -2       688      1017      1020      1996
 -1      4539    3    0    1
 -2      1564      1943      2289      2373
 -1      4540    3    0    1
 -2      1644      1534      1999      2183
 -1      4541    3    0    1
 -2      1826      1592      1964      2099
 -1      4542    3    0    1
 -2      1986      1926      2041      2296
 -1      4543    3    0    1
 -2      1737      1528      2061      2643
 -1      4544    3    0    1
 -2      1798      1854      2023      2054
 -1      4545    3    0    1
 -2      1634      1569      1778      2112
 -1      4546    3    0    1
 -2      1822      1740      2162      2375
 -1      4547    3    0    1
 -2       711      1032      1618      2507
 -1      4548    3    0    1
 -2      1570      1580      2299      2321
 -1      4549    3    0    1
 -2      1611      1758      1865      2182
 -1      4550    3    0    1
 -2      1592      2089      2149      2460
 -1      4551    3    0    1
 -2       395        86      1686      2156
 -1      4552    3    0    1
 -2      1579      1890      2088      2179
 -1      4553    3    0    1
 -2      2357      2402      1407       895
 -1      4554    3    0    1
 -2      2404       965      2412      2464
 -1      4555    3    0    1
 -2      1383      1382      1975      2157
 -1      4556    3    0    1
 -2       519       520       931      2232
 -1      4557    3    0    1
 -2       930       519       931      2232
 -1      4558    3    0    1
 -2      1759      2189      2243      2323
 -1      4559    3    0    1
 -2      1927      1952      2132      2250
 -1      4560    3    0    1
 -2      1130      1132      2177      2848
 -1      4561    3    0    1
 -2      2024      1961      2238      2418
 -1      4562    3    0    1
 -2      1101      1359      1729      2108
 -1      4563    3    0    1
 -2      2696      2402      2759      2858
 -1      4564    3    0    1
 -2        70      1623      1746      1986
 -1      4565    3    0    1
 -2      1988      1824      2031      2785
 -1      4566    3    0    1
 -2      1642      1981      2127      2321
 -1      4567    3    0    1
 -2      1343       323      1344      2726
 -1      4568    3    0    1
 -2        71      1548      1702      1986
 -1      4569    3    0    1
 -2      1339      2474       836      1342
 -1      4570    3    0    1
 -2      1724      1573      1805      2745
 -1      4571    3    0    1
 -2       270       263      1084      1974
 -1      4572    3    0    1
 -2       735      1044      1047      2291
 -1      4573    3    0    1
 -2      1275      1031      2050      2514
 -1      4574    3    0    1
 -2       736       735      1047      2291
 -1      4575    3    0    1
 -2      1755      2051      2111      2528
 -1      4576    3    0    1
 -2      2289      1858      2373      2722
 -1      4577    3    0    1
 -2      1033       711      1034      2337
 -1      4578    3    0    1
 -2      1631      1654      1665      2073
 -1      4579    3    0    1
 -2      1934      1648      1990      2099
 -1      4580    3    0    1
 -2      1964      2000      2065      2099
 -1      4581    3    0    1
 -2      2107        86      2156      2178
 -1      4582    3    0    1
 -2       926      1907      2686      2705
 -1      4583    3    0    1
 -2      1829       342      2315      2733
 -1      4584    3    0    1
 -2      1097      1832      2060      2461
 -1      4585    3    0    1
 -2      1826      1964      2065      2099
 -1      4586    3    0    1
 -2      1867       416      2142      2454
 -1      4587    3    0    1
 -2      2602       490      2615      2897
 -1      4588    3    0    1
 -2       311       307      1122      2775
 -1      4589    3    0    1
 -2       490       483      1929      2615
 -1      4590    3    0    1
 -2      1607      1735      2004      2262
 -1      4591    3    0    1
 -2      2173      1933      2226      2522
 -1      4592    3    0    1
 -2      1867       416      2454      2500
 -1      4593    3    0    1
 -2      1611      1572      2333      2662
 -1      4594    3    0    1
 -2      2514      1031      2668      2937
 -1      4595    3    0    1
 -2      2059      1573      2587      2745
 -1      4596    3    0    1
 -2       180       179      3004      3049
 -1      4597    3    0    1
 -2       365       177      1996      2770
 -1      4598    3    0    1
 -2      1523      1668      1968      1983
 -1      4599    3    0    1
 -2      1027       347      1268      2579
 -1      4600    3    0    1
 -2       339      1546      1900      2329
 -1      4601    3    0    1
 -2      1722      1079      2332      2647
 -1      4602    3    0    1
 -2       687      2591      2642      2787
 -1      4603    3    0    1
 -2       914       486      1175      2596
 -1      4604    3    0    1
 -2      1829       342      2081      2315
 -1      4605    3    0    1
 -2      1933      1523      2173      2334
 -1      4606    3    0    1
 -2      1998      1614      2168      2693
 -1      4607    3    0    1
 -2      2593      1673      2822      2856
 -1      4608    3    0    1
 -2       783       760      1070      2436
 -1      4609    3    0    1
 -2       760       783      2252      2436
 -1      4610    3    0    1
 -2      2566       431      2603      2706
 -1      4611    3    0    1
 -2      2360      1753      2764      2886
 -1      4612    3    0    1
 -2      2155      1999      2183      2400
 -1      4613    3    0    1
 -2      1730      1883      1965      1989
 -1      4614    3    0    1
 -2      1730      1694      1883      1989
 -1      4615    3    0    1
 -2      1533      1606      1965      1989
 -1      4616    3    0    1
 -2      1868      1533      1965      1989
 -1      4617    3    0    1
 -2      1744      2092      2136      2542
 -1      4618    3    0    1
 -2      1810      1868      1965      1989
 -1      4619    3    0    1
 -2      1798      1584      2054      2439
 -1      4620    3    0    1
 -2      1694      1730      1756      1989
 -1      4621    3    0    1
 -2      1606      1694      1756      1989
 -1      4622    3    0    1
 -2      1756      1730      1965      1989
 -1      4623    3    0    1
 -2      1606      1756      1965      1989
 -1      4624    3    0    1
 -2      1690      1713      1948      2165
 -1      4625    3    0    1
 -2      2589       675      2649      2718
 -1      4626    3    0    1
 -2      1618       712      2337      2391
 -1      4627    3    0    1
 -2      2352      2152      2572      2925
 -1      4628    3    0    1
 -2      2500      2009      2561      2708
 -1      4629    3    0    1
 -2      1654      1631      1665      2598
 -1      4630    3    0    1
 -2      1001      2492      2720      2868
 -1      4631    3    0    1
 -2      1083      1974      2513      2710
 -1      4632    3    0    1
 -2       915      2806      2819      2906
 -1      4633    3    0    1
 -2        29        32      1177      2825
 -1      4634    3    0    1
 -2      1056      2326      2520      2679
 -1      4635    3    0    1
 -2      1363       849      2364      2395
 -1      4636    3    0    1
 -2      1734      1815      1886      1993
 -1      4637    3    0    1
 -2      1698      1886      1932      1993
 -1      4638    3    0    1
 -2      1698      1734      1886      1993
 -1      4639    3    0    1
 -2      1813      2100      2396      2458
 -1      4640    3    0    1
 -2      1703      1589      1814      1994
 -1      4641    3    0    1
 -2      1350       401      2707      2869
 -1      4642    3    0    1
 -2      1814      1816      1970      1994
 -1      4643    3    0    1
 -2      1703      1814      1970      1994
 -1      4644    3    0    1
 -2      2167      1091      2331      2365
 -1      4645    3    0    1
 -2      2045      1936      2794      1928
 -1      4646    3    0    1
 -2      1535       342      1624      2396
 -1      4647    3    0    1
 -2      2331       290      2348      2365
 -1      4648    3    0    1
 -2      1912       420      2246      2365
 -1      4649    3    0    1
 -2      1598      1703      1816      1994
 -1      4650    3    0    1
 -2      1816      1703      1970      1994
 -1      4651    3    0    1
 -2        84        67      2017      2776
 -1      4652    3    0    1
 -2       365       177      1017      1996
 -1      4653    3    0    1
 -2      2299      2872      2888      2905
 -1      4654    3    0    1
 -2      1804      1811      1827      2211
 -1      4655    3    0    1
 -2      2827      2244      2878      2886
 -1      4656    3    0    1
 -2       976      2110      2238      2408
 -1      4657    3    0    1
 -2      2124       880      2249      2621
 -1      4658    3    0    1
 -2       432        66      1201      2435
 -1      4659    3    0    1
 -2      1614      2343      2627      2693
 -1      4660    3    0    1
 -2      1017       177      1020      1996
 -1      4661    3    0    1
 -2      2369      1591      2567      2767
 -1      4662    3    0    1
 -2      2327      2006      2476      2694
 -1      4663    3    0    1
 -2      1177        37      2039      2706
 -1      4664    3    0    1
 -2       957       370      2464      2605
 -1      4665    3    0    1
 -2      2764      2225      2878      2886
 -1      4666    3    0    1
 -2       384       432       932      2435
 -1      4667    3    0    1
 -2       161       157      1630      2532
 -1      4668    3    0    1
 -2       243       246      1067      2499
 -1      4669    3    0    1
 -2       993      2166      2305      2652
 -1      4670    3    0    1
 -2      1762      1622      2878      2886
 -1      4671    3    0    1
 -2       369      1706      2624      2763
 -1      4672    3    0    1
 -2      1085       808      2290      2660
 -1      4673    3    0    1
 -2      1614      1998      2343      2693
 -1      4674    3    0    1
 -2       520       543      1926      2314
 -1      4675    3    0    1
 -2       157       161      1004      2532
 -1      4676    3    0    1
 -2      1004       161      2301      2532
 -1      4677    3    0    1
 -2      1606      1694      1989      2141
 -1      4678    3    0    1
 -2      1579      1616      2088      2188
 -1      4679    3    0    1
 -2      2230      2563      2573      2924
 -1      4680    3    0    1
 -2       431       909      2258      2603
 -1      4681    3    0    1
 -2      1702      1548      2172      2604
 -1      4682    3    0    1
 -2      1533      1606      1989      2141
 -1      4683    3    0    1
 -2       472       909      2368      2603
 -1      4684    3    0    1
 -2      1846      2045      2091      2189
 -1      4685    3    0    1
 -2      2892      1432      1433      3093
 -1      4686    3    0    1
 -2      1277      2159      2575      2639
 -1      4687    3    0    1
 -2      1461      1488      1492      3075
 -1      4688    3    0    1
 -2      1417      1448      3106      1489
 -1      4689    3    0    1
 -2      1550      1892      2088      2188
 -1      4690    3    0    1
 -2       307       311      1116      2276
 -1      4691    3    0    1
 -2      1758      1611      1987      2182
 -1      4692    3    0    1
 -2      1674      1552      2457      2571
 -1      4693    3    0    1
 -2      1623        70      2462      2857
 -1      4694    3    0    1
 -2      1815      1886      1993      2128
 -1      4695    3    0    1
 -2       466       459      2273      2614
 -1      4696    3    0    1
 -2       966       591       967      2118
 -1      4697    3    0    1
 -2      2319      2213      2342      2405
 -1      4698    3    0    1
 -2      2060        15      2258      2808
 -1      4699    3    0    1
 -2       591       592       967      2118
 -1      4700    3    0    1
 -2       348       966       967      2118
 -1      4701    3    0    1
 -2       592      1751      2093      2118
 -1      4702    3    0    1
 -2       967       592      2093      2118
 -1      4703    3    0    1
 -2       968       592      1751      2093
 -1      4704    3    0    1
 -2      1571      1671      2040      2312
 -1      4705    3    0    1
 -2      1012      2531      2589      2830
 -1      4706    3    0    1
 -2       712      2241      2391      2612
 -1      4707    3    0    1
 -2       197      2241      2361      2467
 -1      4708    3    0    1
 -2      1617      1594      1775      2121
 -1      4709    3    0    1
 -2      2020       966      2118      2412
 -1      4710    3    0    1
 -2      1689      1714      1777      2104
 -1      4711    3    0    1
 -2      1974       268      2513      2811
 -1      4712    3    0    1
 -2      1529      2213      2342      2484
 -1      4713    3    0    1
 -2      1714      1675      1924      1777
 -1      4714    3    0    1
 -2      1675      1714      1924      2014
 -1      4715    3    0    1
 -2      1402      1147      1963      2014
 -1      4716    3    0    1
 -2      2036      2223      2581      2829
 -1      4717    3    0    1
 -2      1787       802      1843      2432
 -1      4718    3    0    1
 -2      1093      2075      2310      2331
 -1      4719    3    0    1
 -2       974       116       976      2110
 -1      4720    3    0    1
 -2       328      1398       334      2370
 -1      4721    3    0    1
 -2      1527      2466      2734      2781
 -1      4722    3    0    1
 -2      1614      1998      2168      2216
 -1      4723    3    0    1
 -2      1395      1398      2234      2371
 -1      4724    3    0    1
 -2      1962      1822      2010      2375
 -1      4725    3    0    1
 -2       883      1397       884      2239
 -1      4726    3    0    1
 -2      1527      1720      2466      2781
 -1      4727    3    0    1
 -2        84       378      1745      2017
 -1      4728    3    0    1
 -2      1211       949      2534      2535
 -1      4729    3    0    1
 -2       538      1200      1861      2017
 -1      4730    3    0    1
 -2      1200        67      1821      2017
 -1      4731    3    0    1
 -2       556       949      1200      2017
 -1      4732    3    0    1
 -2       949        84      1200      2017
 -1      4733    3    0    1
 -2       378        84       949      2017
 -1      4734    3    0    1
 -2       538       556      1200      2017
 -1      4735    3    0    1
 -2        84        67      1200      2017
 -1      4736    3    0    1
 -2      1559       391      2390      2498
 -1      4737    3    0    1
 -2       519      1188      2232      2450
 -1      4738    3    0    1
 -2      2266      2707      2721      2860
 -1      4739    3    0    1
 -2      1817      1732      2000      2065
 -1      4740    3    0    1
 -2      2235         9      2772      2780
 -1      4741    3    0    1
 -2      1390      1137      2124      2302
 -1      4742    3    0    1
 -2      1799      2090      3087      3129
 -1      4743    3    0    1
 -2      2306      1793      2492      2540
 -1      4744    3    0    1
 -2      1716      2382      2421      2539
 -1      4745    3    0    1
 -2      1599      1587      1728      2397
 -1      4746    3    0    1
 -2      1538      1700      1934      2094
 -1      4747    3    0    1
 -2      3089      1415      2982      3110
 -1      4748    3    0    1
 -2       956        80      1972      2413
 -1      4749    3    0    1
 -2      1855      2102      2378      2607
 -1      4750    3    0    1
 -2       905       463      2207      2609
 -1      4751    3    0    1
 -2       940      1209      1803      2022
 -1      4752    3    0    1
 -2        80      1773      2281      2413
 -1      4753    3    0    1
 -2       558      1923      2567      2680
 -1      4754    3    0    1
 -2       559       952      1645      2021
 -1      4755    3    0    1
 -2       330      1938      1257       333
 -1      4756    3    0    1
 -2      1630       654      1902      2440
 -1      4757    3    0    1
 -2      1676       330      2054      2055
 -1      4758    3    0    1
 -2       520       519       932      2232
 -1      4759    3    0    1
 -2      2309       435      2385      2659
 -1      4760    3    0    1
 -2      1696      1558      2095      2256
 -1      4761    3    0    1
 -2      1734      1815      1953      2245
 -1      4762    3    0    1
 -2      1842      1845      2027      2419
 -1      4763    3    0    1
 -2       988      2029      2209      2423
 -1      4764    3    0    1
 -2      1755      2308      2476      2528
 -1      4765    3    0    1
 -2       350      2199      2480      2503
 -1      4766    3    0    1
 -2        15       909      1163      2258
 -1      4767    3    0    1
 -2       961      2472      2778      2798
 -1      4768    3    0    1
 -2       314       294      1831      2220
 -1      4769    3    0    1
 -2      1066      2347      2592      2761
 -1      4770    3    0    1
 -2       284       286      1832      2032
 -1      4771    3    0    1
 -2       607      2181      2206      2408
 -1      4772    3    0    1
 -2      1388       875       876      2817
 -1      4773    3    0    1
 -2      1718      1615      1754      2158
 -1      4774    3    0    1
 -2      1384      1842      1895      2027
 -1      4775    3    0    1
 -2      1608      1620      1647      2180
 -1      4776    3    0    1
 -2      1750      1796      1916      2239
 -1      4777    3    0    1
 -2       410         9      1603      2383
 -1      4778    3    0    1
 -2      1874      1768      2215      2687
 -1      4779    3    0    1
 -2      2498       927      2554      2822
 -1      4780    3    0    1
 -2      1724      2085      2190      2210
 -1      4781    3    0    1
 -2       927      2498      2554      2686
 -1      4782    3    0    1
 -2      1040      2159      2280      2597
 -1      4783    3    0    1
 -2      1788       988      2130       133
 -1      4784    3    0    1
 -2      1245       988       631      2029
 -1      4785    3    0    1
 -2      2040      2244      2312      2827
 -1      4786    3    0    1
 -2       286       284      1334      2032
 -1      4787    3    0    1
 -2      1549      2035      2401      2611
 -1      4788    3    0    1
 -2      2509       774      2791      2812
 -1      4789    3    0    1
 -2       105       966      2118      2403
 -1      4790    3    0    1
 -2      2088      1892      2131      2188
 -1      4791    3    0    1
 -2      1781      1822      2162      2375
 -1      4792    3    0    1
 -2      1702      1548      2041      2296
 -1      4793    3    0    1
 -2       851      1365      1106      2169
 -1      4794    3    0    1
 -2       393      1186      2390      2702
 -1      4795    3    0    1
 -2      1813      1789      2086      2458
 -1      4796    3    0    1
 -2      2353      1014      2477      2803
 -1      4797    3    0    1
 -2      1670      1646      1769      2171
 -1      4798    3    0    1
 -2      1824      2441      2478      2785
 -1      4799    3    0    1
 -2       136      2175      2282      2829
 -1      4800    3    0    1
 -2      1091      1093       822      2167
 -1      4801    3    0    1
 -2       287      1095      1096      2348
 -1      4802    3    0    1
 -2      2176      1056      2679      2713
 -1      4803    3    0    1
 -2      1813      1553      2100      2458
 -1      4804    3    0    1
 -2      1245      1693      2029      2036
 -1      4805    3    0    1
 -2       631      1245      2029      2036
 -1      4806    3    0    1
 -2      1834      1693      1956      2036
 -1      4807    3    0    1
 -2       682       675      1266      2649
 -1      4808    3    0    1
 -2       223       225      1576      2807
 -1      4809    3    0    1
 -2      1693      1245      1956      2036
 -1      4810    3    0    1
 -2      1753      1897      2108      2224
 -1      4811    3    0    1
 -2       891       890      1924      2330
 -1      4812    3    0    1
 -2      1753      1622      1897      2224
 -1      4813    3    0    1
 -2      1245       631      1956      2036
 -1      4814    3    0    1
 -2      1613      1716      2043      2382
 -1      4815    3    0    1
 -2      1800       615      1966      2538
 -1      4816    3    0    1
 -2      1734      2101      2393      2775
 -1      4817    3    0    1
 -2      2031      2192      2571      2785
 -1      4818    3    0    1
 -2      2564      1632      2633      2848
 -1      4819    3    0    1
 -2       511      1186      1907      2269
 -1      4820    3    0    1
 -2      1552      1802      2081      2457
 -1      4821    3    0    1
 -2       641      3014      3031      3032
 -1      4822    3    0    1
 -2       409      1339      2633      2848
 -1      4823    3    0    1
 -2      1598      1994      2364      2382
 -1      4824    3    0    1
 -2       216       426      1046      2274
 -1      4825    3    0    1
 -2       430       909      2603      2706
 -1      4826    3    0    1
 -2       398       951      1210      2259
 -1      4827    3    0    1
 -2      1311       771       778      2659
 -1      4828    3    0    1
 -2       136       989      1244      2175
 -1      4829    3    0    1
 -2      3090      2951      3095      1446
 -1      4830    3    0    1
 -2      1878      1735      2004      2233
 -1      4831    3    0    1
 -2       907       471      1542      2294
 -1      4832    3    0    1
 -2      1674      1552      2081      2457
 -1      4833    3    0    1
 -2      1892      1563      2028      2131
 -1      4834    3    0    1
 -2        23      2539      2786      2826
 -1      4835    3    0    1
 -2      2570      1175      2675      2826
 -1      4836    3    0    1
 -2      1381      1126      1763      2681
 -1      4837    3    0    1
 -2       679      2062      2243      2838
 -1      4838    3    0    1
 -2       951      1923      2257      2567
 -1      4839    3    0    1
 -2      1728      1543      2397      2574
 -1      4840    3    0    1
 -2      2257      1923      2369      2567
 -1      4841    3    0    1
 -2      2004      1568      2005      2233
 -1      4842    3    0    1
 -2      1900      1960      2442      2548
 -1      4843    3    0    1
 -2      2006      2119      2311      2357
 -1      4844    3    0    1
 -2      2051      1755      2111      2327
 -1      4845    3    0    1
 -2      1186      1907      2269      2702
 -1      4846    3    0    1
 -2      1531      1601      1609      2163
 -1      4847    3    0    1
 -2      1697      1828      1851      2468
 -1      4848    3    0    1
 -2      1667      1568      2004      2428
 -1      4849    3    0    1
 -2      2087      2377      2753      2849
 -1      4850    3    0    1
 -2      1720      1625      2263      2407
 -1      4851    3    0    1
 -2       136      2282      2581      2829
 -1      4852    3    0    1
 -2      1893      1134      1995      2359
 -1      4853    3    0    1
 -2      1587      1969      1976      2359
 -1      4854    3    0    1
 -2      1068       776      1935      2278
 -1      4855    3    0    1
 -2       845       846      1897      2224
 -1      4856    3    0    1
 -2       340       175      2350      2606
 -1      4857    3    0    1
 -2      1901      1593      1903      2455
 -1      4858    3    0    1
 -2      2075      2114      2283      2310
 -1      4859    3    0    1
 -2      1671      1596      2040      2312
 -1      4860    3    0    1
 -2      1059       252      1070      2047
 -1      4861    3    0    1
 -2      1834      1522      2052      2437
 -1      4862    3    0    1
 -2       376       252      1059      2047
 -1      4863    3    0    1
 -2      1522      1827      2052      2437
 -1      4864    3    0    1
 -2      1803       556      2017      2534
 -1      4865    3    0    1
 -2      2161       243      2849      2902
 -1      4866    3    0    1
 -2      1912       831      2079      2336
 -1      4867    3    0    1
 -2      1035       712      2391      2536
 -1      4868    3    0    1
 -2       195      1277      2159      2575
 -1      4869    3    0    1
 -2       631      1956      2036      2223
 -1      4870    3    0    1
 -2      2008      2006      2327      2694
 -1      4871    3    0    1
 -2       932      1201      2314      2435
 -1      4872    3    0    1
 -2      1680      1878      2005      2316
 -1      4873    3    0    1
 -2      1098      1338      1684      2316
 -1      4874    3    0    1
 -2      1338      1098      1878      2316
 -1      4875    3    0    1
 -2      2011      2184      2512      2703
 -1      4876    3    0    1
 -2      1887      1940      2061      2160
 -1      4877    3    0    1
 -2       967       351      1578      2580
 -1      4878    3    0    1
 -2      2234      1796      2239      2371
 -1      4879    3    0    1
 -2       337      1707      1930      2238
 -1      4880    3    0    1
 -2      2225      2827      2878      2886
 -1      4881    3    0    1
 -2       384       932      2314      2435
 -1      4882    3    0    1
 -2      1821        66      1904      2435
 -1      4883    3    0    1
 -2      1630       654      2440      2720
 -1      4884    3    0    1
 -2      2363       270      2568      2768
 -1      4885    3    0    1
 -2        86       395      1686      2057
 -1      4886    3    0    1
 -2        86      1686      1875      2057
 -1      4887    3    0    1
 -2      1589      1687      1905      2443
 -1      4888    3    0    1
 -2      2101       867      2393      2775
 -1      4889    3    0    1
 -2      1066       421      1068      2761
 -1      4890    3    0    1
 -2      1369      1615      1917      2193
 -1      4891    3    0    1
 -2      1709      1604      1812      2082
 -1      4892    3    0    1
 -2       309      1120      1379      2193
 -1      4893    3    0    1
 -2      1701      1545      1915      2147
 -1      4894    3    0    1
 -2      1750      1796      2109      2147
 -1      4895    3    0    1
 -2      1750      1545      1796      2147
 -1      4896    3    0    1
 -2       418      2392      2584      2623
 -1      4897    3    0    1
 -2       942      1985      2107      2462
 -1      4898    3    0    1
 -2       251       421      2339      2761
 -1      4899    3    0    1
 -2       386       389      1163      2060
 -1      4900    3    0    1
 -2      1097       386      1163      2060
 -1      4901    3    0    1
 -2       940      1209      2022      1413
 -1      4902    3    0    1
 -2      1723      1543      1940      2061
 -1      4903    3    0    1
 -2      1413      3109      2986      3128
 -1      4904    3    0    1
 -2      2031      2192      2441      2478
 -1      4905    3    0    1
 -2       679      1013      1015      2062
 -1      4906    3    0    1
 -2       431      2258      2566      2603
 -1      4907    3    0    1
 -2      1933      1864      2546      2813
 -1      4908    3    0    1
 -2      3112      3107      3134      1482
 -1      4909    3    0    1
 -2      2190      1573      2210      2796
 -1      4910    3    0    1
 -2       989       142      2581      2829
 -1      4911    3    0    1
 -2       916      1185      2732      1416
 -1      4912    3    0    1
 -2      1864      1523      1933      2546
 -1      4913    3    0    1
 -2       268       272      2811      2887
 -1      4914    3    0    1
 -2      1380       312      1672      2245
 -1      4915    3    0    1
 -2       224       423      2613      2842
 -1      4916    3    0    1
 -2       610       987      1235      2064
 -1      4917    3    0    1
 -2       610       977      1779      2448
 -1      4918    3    0    1
 -2       344       125       987      2064
 -1      4919    3    0    1
 -2       610       627       987      2064
 -1      4920    3    0    1
 -2      1819      1860      2721      2860
 -1      4921    3    0    1
 -2       966      2020      2349      2412
 -1      4922    3    0    1
 -2       580       562      1760      2798
 -1      4923    3    0    1
 -2      1876      1867      2142      2454
 -1      4924    3    0    1
 -2      2015      2109      2637      2687
 -1      4925    3    0    1
 -2       251       421      1071      2067
 -1      4926    3    0    1
 -2      1095       831      2336      2557
 -1      4927    3    0    1
 -2       398      2065      2259      2859
 -1      4928    3    0    1
 -2       783       784      1072      2067
 -1      4929    3    0    1
 -2      1093      2075      2283      2310
 -1      4930    3    0    1
 -2      1095      1912      2079      2348
 -1      4931    3    0    1
 -2      1961       630      2130      2423
 -1      4932    3    0    1
 -2      2142       823      2283      2310
 -1      4933    3    0    1
 -2      1332      1082      1743      2432
 -1      4934    3    0    1
 -2       639      2185      2545      2818
 -1      4935    3    0    1
 -2      1258       999      2313      2880
 -1      4936    3    0    1
 -2      2011       410      2184      2070
 -1      4937    3    0    1
 -2       956       568      2404      2784
 -1      4938    3    0    1
 -2       862      1823      1889      2276
 -1      4939    3    0    1
 -2       291       290      1096      2348
 -1      4940    3    0    1
 -2       400      2020      2403      2417
 -1      4941    3    0    1
 -2      1562      1624      2100      2411
 -1      4942    3    0    1
 -2       263       270      1081      2486
 -1      4943    3    0    1
 -2      1525      1631      1665      2073
 -1      4944    3    0    1
 -2       889      1768      1874      2074
 -1      4945    3    0    1
 -2       893       889      1874      2074
 -1      4946    3    0    1
 -2      1633      1401      1770      2074
 -1      4947    3    0    1
 -2      1633      1770      2016      2074
 -1      4948    3    0    1
 -2      1401      1149      1770      2074
 -1      4949    3    0    1
 -2       893      1874      2016      2074
 -1      4950    3    0    1
 -2      1149       893      2016      2074
 -1      4951    3    0    1
 -2       889       893      1149      2074
 -1      4952    3    0    1
 -2       889      1149      1401      2074
 -1      4953    3    0    1
 -2      1770      1149      2016      2074
 -1      4954    3    0    1
 -2      2089      2149      2420      2607
 -1      4955    3    0    1
 -2      1365       851       852      2169
 -1      4956    3    0    1
 -2      1702        71      1986      2296
 -1      4957    3    0    1
 -2      1056      1059      2326      2451
 -1      4958    3    0    1
 -2      1559      1667      2004      2428
 -1      4959    3    0    1
 -2      1708      1712      1763      2168
 -1      4960    3    0    1
 -2      2492      1001      2699      2868
 -1      4961    3    0    1
 -2      1681       851      2163      2169
 -1      4962    3    0    1
 -2      1894      2087      2849      2902
 -1      4963    3    0    1
 -2      1874      2215      2370      2687
 -1      4964    3    0    1
 -2      2080      1814      2163      2169
 -1      4965    3    0    1
 -2       190       197      1030      2467
 -1      4966    3    0    1
 -2      2367       992      2545      2655
 -1      4967    3    0    1
 -2      2452      1666      2554      2821
 -1      4968    3    0    1
 -2       486       487      2596      2850
 -1      4969    3    0    1
 -2      1551      1549      2120      2319
 -1      4970    3    0    1
 -2      2328      2263      2407      2777
 -1      4971    3    0    1
 -2      1768      1641      2016      2295
 -1      4972    3    0    1
 -2      1563      1961      2024      2418
 -1      4973    3    0    1
 -2      1559      2004      2084      2428
 -1      4974    3    0    1
 -2      2729      1945      2917      2940
 -1      4975    3    0    1
 -2      1607      2084      2428      2468
 -1      4976    3    0    1
 -2      1555      1749      1802      2081
 -1      4977    3    0    1
 -2      1813      2086      2165      2458
 -1      4978    3    0    1
 -2      1553      1813      2165      2458
 -1      4979    3    0    1
 -2      1789      1802      1829      2081
 -1      4980    3    0    1
 -2      1802      1749      1829      2081
 -1      4981    3    0    1
 -2      1789      1552      1802      2081
 -1      4982    3    0    1
 -2      1398      1395      2234      2370
 -1      4983    3    0    1
 -2      1561      1591      1658      2083
 -1      4984    3    0    1
 -2      2175       141      2367      2655
 -1      4985    3    0    1
 -2       391      2390      2498      2702
 -1      4986    3    0    1
 -2      1559      1588      1667      2593
 -1      4987    3    0    1
 -2      1960      1900      2143      2548
 -1      4988    3    0    1
 -2      2496       999      2667      2880
 -1      4989    3    0    1
 -2      1586      1554      2104      2191
 -1      4990    3    0    1
 -2      1150      1786      1931      2085
 -1      4991    3    0    1
 -2      1150       894      1786      2085
 -1      4992    3    0    1
 -2       885       894      1150      2085
 -1      4993    3    0    1
 -2      1674      1813      2081      2086
 -1      4994    3    0    1
 -2      1813      1674      1988      2086
 -1      4995    3    0    1
 -2      1992      1815      2128      2254
 -1      4996    3    0    1
 -2      1592      1826      2089      2460
 -1      4997    3    0    1
 -2      1550      1892      2028      2088
 -1      4998    3    0    1
 -2       932       432      1201      2435
 -1      4999    3    0    1
 -2      1550      1579      1616      2088
 -1      5000    3    0    1
 -2      1616      1579      1890      2188
 -1      5001    3    0    1
 -2       987       344      2064      2619
 -1      5002    3    0    1
 -2      1683      1726      1846      2189
 -1      5003    3    0    1
 -2      2045      1749      2091      2189
 -1      5004    3    0    1
 -2      1286      2668      1426      3114
 -1      5005    3    0    1
 -2      1437       964      1438      2973
 -1      5006    3    0    1
 -2      1209       556      1803      2090
 -1      5007    3    0    1
 -2      1209       953       556      2090
 -1      5008    3    0    1
 -2      1724      1786      1805      2190
 -1      5009    3    0    1
 -2      1555      1936      2045      2091
 -1      5010    3    0    1
 -2      1749      1555      2045      2091
 -1      5011    3    0    1
 -2      1846      1928      1936      2091
 -1      5012    3    0    1
 -2      1936      1928      2045      2091
 -1      5013    3    0    1
 -2      1786      1724      2085      2190
 -1      5014    3    0    1
 -2      1928      1846      2045      2091
 -1      5015    3    0    1
 -2      1563      1657      2030      2130
 -1      5016    3    0    1
 -2      2023      1804      2054      2211
 -1      5017    3    0    1
 -2      1006       368      1017      2744
 -1      5018    3    0    1
 -2      1081       799      2486      2765
 -1      5019    3    0    1
 -2      1407       428      2463      2625
 -1      5020    3    0    1
 -2       615       592       968      2093
 -1      5021    3    0    1
 -2      1548      1590      1702      2172
 -1      5022    3    0    1
 -2       968      1800       615      2093
 -1      5023    3    0    1
 -2       928       511      2172      2270
 -1      5024    3    0    1
 -2      1573      1724      2587      2745
 -1      5025    3    0    1
 -2       880      1390      2124      2249
 -1      5026    3    0    1
 -2      1850      1565      1932      2151
 -1      5027    3    0    1
 -2      1620      1694      1756      2180
 -1      5028    3    0    1
 -2      1756      1694      2141      2180
 -1      5029    3    0    1
 -2      1608      1647      2158      2180
 -1      5030    3    0    1
 -2       397      1368      1917      2193
 -1      5031    3    0    1
 -2      1603      1634      2216      2640
 -1      5032    3    0    1
 -2      2404       957      2605      2784
 -1      5033    3    0    1
 -2      1631      1885      1987      2182
 -1      5034    3    0    1
 -2      1533      1606      2141      2171
 -1      5035    3    0    1
 -2      2298      1602      2387      2389
 -1      5036    3    0    1
 -2      1630      1902      2204      2483
 -1      5037    3    0    1
 -2      1988      1813      2086      2165
 -1      5038    3    0    1
 -2      1562      1624      1813      2100
 -1      5039    3    0    1
 -2      1380       868      1953      2101
 -1      5040    3    0    1
 -2       421       250      1071      2761
 -1      5041    3    0    1
 -2       842       841      2860      2870
 -1      5042    3    0    1
 -2       224      2613      2714      2899
 -1      5043    3    0    1
 -2       349       962      1223      2379
 -1      5044    3    0    1
 -2      2254      1570      2321      2517
 -1      5045    3    0    1
 -2      2478      2441      2502      2665
 -1      5046    3    0    1
 -2      1720      1527      2466      2524
 -1      5047    3    0    1
 -2      1582      1714      1785      2103
 -1      5048    3    0    1
 -2      1689      1554      1714      2104
 -1      5049    3    0    1
 -2      1586      1554      1689      2104
 -1      5050    3    0    1
 -2      2196      1780      2297      2479
 -1      5051    3    0    1
 -2       346       196      2271      2505
 -1      5052    3    0    1
 -2      1714      1554      1785      2104
 -1      5053    3    0    1
 -2      1244       989      2658      2829
 -1      5054    3    0    1
 -2       952      1645      2021      2529
 -1      5055    3    0    1
 -2      2110       976      2206      2408
 -1      5056    3    0    1
 -2      2921      3086      3102      3103
 -1      5057    3    0    1
 -2      1382       315      1975      2157
 -1      5058    3    0    1
 -2      1848       858      1869      2400
 -1      5059    3    0    1
 -2      1999      1644      2183      2400
 -1      5060    3    0    1
 -2       858       857      1869      2400
 -1      5061    3    0    1
 -2      1683      1846      2091      2189
 -1      5062    3    0    1
 -2      1101      1729      1897      2108
 -1      5063    3    0    1
 -2       845      1101      1897      2108
 -1      5064    3    0    1
 -2      1053      2071      2410      2746
 -1      5065    3    0    1
 -2      1133      1135      1976      2384
 -1      5066    3    0    1
 -2      1053       750      2416      2746
 -1      5067    3    0    1
 -2       750      2007      2416      2746
 -1      5068    3    0    1
 -2      2349        89      2413      2608
 -1      5069    3    0    1
 -2      2315      1267      2691      2733
 -1      5070    3    0    1
 -2       122       116       974      2110
 -1      5071    3    0    1
 -2       122      1880      1966      2110
 -1      5072    3    0    1
 -2       116       122      1966      2110
 -1      5073    3    0    1
 -2      1885       208      1987      2182
 -1      5074    3    0    1
 -2      2919      1765      2953      3105
 -1      5075    3    0    1
 -2       116       337       976      2110
 -1      5076    3    0    1
 -2      1557      1547      1611      2113
 -1      5077    3    0    1
 -2      1042       728      1954      2650
 -1      5078    3    0    1
 -2      1675      1963      2014      2330
 -1      5079    3    0    1
 -2       120       981      2019      2447
 -1      5080    3    0    1
 -2      1300      2111      2275      2285
 -1      5081    3    0    1
 -2      2111      1595      2275      2285
 -1      5082    3    0    1
 -2      1784      1120      1917      2193
 -1      5083    3    0    1
 -2      1368      1369      1917      2193
 -1      5084    3    0    1
 -2      1120       397      1917      2193
 -1      5085    3    0    1
 -2      1727      1148      1852      2116
 -1      5086    3    0    1
 -2      1727      1852      2025      2116
 -1      5087    3    0    1
 -2       888      1148      1400      2116
 -1      5088    3    0    1
 -2      1638      2135      2297      2479
 -1      5089    3    0    1
 -2      1780      1638      2297      2479
 -1      5090    3    0    1
 -2      1148       892      2025      2116
 -1      5091    3    0    1
 -2       888       892      1148      2116
 -1      5092    3    0    1
 -2      1852      1148      2025      2116
 -1      5093    3    0    1
 -2      3097       381      1448      3106
 -1      5094    3    0    1
 -2      2285      1717      2446      2731
 -1      5095    3    0    1
 -2      1776      1566      1952      2250
 -1      5096    3    0    1
 -2      1748      1903      1952      2250
 -1      5097    3    0    1
 -2       752       750      2304      2416
 -1      5098    3    0    1
 -2      3107      1440      1482      1483
 -1      5099    3    0    1
 -2      1788       988      2209      2423
 -1      5100    3    0    1
 -2       957       965      2404      2464
 -1      5101    3    0    1
 -2       333      1798      2439      2790
 -1      5102    3    0    1
 -2      3094      1451      3117      3120
 -1      5103    3    0    1
 -2       981       978      2019      2538
 -1      5104    3    0    1
 -2       348       105      2118      2403
 -1      5105    3    0    1
 -2      1676      1804      1827      2211
 -1      5106    3    0    1
 -2      1151       886       895      2759
 -1      5107    3    0    1
 -2       966       400      2020      2403
 -1      5108    3    0    1
 -2      1995      1893      2359      2574
 -1      5109    3    0    1
 -2      1811      1804      2023      2211
 -1      5110    3    0    1
 -2      1779       990      2344      2968
 -1      5111    3    0    1
 -2      2474      1339       836      2564
 -1      5112    3    0    1
 -2      1539      1732      1772      2122
 -1      5113    3    0    1
 -2      1538      1539      1772      2122
 -1      5114    3    0    1
 -2      2000      1964      2065      2122
 -1      5115    3    0    1
 -2      1732      2000      2065      2122
 -1      5116    3    0    1
 -2      1964      1732      2065      2122
 -1      5117    3    0    1
 -2       338      2088      2179      2335
 -1      5118    3    0    1
 -2      1527      2124      2249      2469
 -1      5119    3    0    1
 -2       339      1936      2329      2794
 -1      5120    3    0    1
 -2      2045      1555      2457      2794
 -1      5121    3    0    1
 -2      1936      1928      2329      2794
 -1      5122    3    0    1
 -2      2329      2146      2548      2794
 -1      5123    3    0    1
 -2      2345       124      2620      2823
 -1      5124    3    0    1
 -2       879      1390      1137      2124
 -1      5125    3    0    1
 -2      1233      2137      2495      2582
 -1      5126    3    0    1
 -2      1390       879       880      2124
 -1      5127    3    0    1
 -2       606       974      2181      2823
 -1      5128    3    0    1
 -2       976       607      2408      2471
 -1      5129    3    0    1
 -2      1613      1600      2043      2484
 -1      5130    3    0    1
 -2       836      1637      1761      2474
 -1      5131    3    0    1
 -2      1747      1030      2522      2544
 -1      5132    3    0    1
 -2      1834      1650      1956      2483
 -1      5133    3    0    1
 -2       919        32      2255      2845
 -1      5134    3    0    1
 -2      1570      1602      1672      2298
 -1      5135    3    0    1
 -2      2044      1839      2207      2552
 -1      5136    3    0    1
 -2      1159       459      2614      2717
 -1      5137    3    0    1
 -2       559       952      1773      2680
 -1      5138    3    0    1
 -2      1612      1544      1701      2202
 -1      5139    3    0    1
 -2      2009      1619      2013      2129
 -1      5140    3    0    1
 -2      1701      1544      2046      2202
 -1      5141    3    0    1
 -2       874       873      1129      2473
 -1      5142    3    0    1
 -2      1563      2030      2042      2130
 -1      5143    3    0    1
 -2      1070      1059      2047      2689
 -1      5144    3    0    1
 -2      2030      1961      2042      2130
 -1      5145    3    0    1
 -2      2277      1560      2325      2648
 -1      5146    3    0    1
 -2      2028      1957      2088      2131
 -1      5147    3    0    1
 -2       655      2306      2440      2492
 -1      5148    3    0    1
 -2      1691      1951      2106      2132
 -1      5149    3    0    1
 -2      2399       943      2776      2885
 -1      5150    3    0    1
 -2      1163      1097      2060      2461
 -1      5151    3    0    1
 -2       832      1542      2409      2461
 -1      5152    3    0    1
 -2      1643      1990      2099      2133
 -1      5153    3    0    1
 -2      1648      1643      2099      2133
 -1      5154    3    0    1
 -2      1592      1648      2099      2133
 -1      5155    3    0    1
 -2       395       942      2107      2462
 -1      5156    3    0    1
 -2      1579      1710      1890      2179
 -1      5157    3    0    1
 -2      1972       567      2107      2178
 -1      5158    3    0    1
 -2       197      1030      2361      2544
 -1      5159    3    0    1
 -2      1864      1922      2361      2544
 -1      5160    3    0    1
 -2      2173      1864      2522      2544
 -1      5161    3    0    1
 -2      1996       688      2506      2883
 -1      5162    3    0    1
 -2      2338       197      2361      2544
 -1      5163    3    0    1
 -2      1923       559      2259      2712
 -1      5164    3    0    1
 -2      2096      2561      2630      2708
 -1      5165    3    0    1
 -2      2040      2092      2129      2136
 -1      5166    3    0    1
 -2      1129       873      1386      2473
 -1      5167    3    0    1
 -2       874      2138      2355      2473
 -1      5168    3    0    1
 -2      2138      1744      2355      2473
 -1      5169    3    0    1
 -2       160       157      2532      2868
 -1      5170    3    0    1
 -2      1788       133      2196      2198
 -1      5171    3    0    1
 -2      1779       634      2449      2496
 -1      5172    3    0    1
 -2      1699      2756      2771      2872
 -1      5173    3    0    1
 -2      1016      1275      2649      2956
 -1      5174    3    0    1
 -2      2635      1991      2837      2873
 -1      5175    3    0    1
 -2      1779       627      2448      2449
 -1      5176    3    0    1
 -2       987       627       634      2449
 -1      5177    3    0    1
 -2       798      1321      1080      2229
 -1      5178    3    0    1
 -2       586       964      1233      2137
 -1      5179    3    0    1
 -2       604       586      1233      2137
 -1      5180    3    0    1
 -2      1277      1040      2159      2639
 -1      5181    3    0    1
 -2      1425      1069      1439      3120
 -1      5182    3    0    1
 -2      1639      1670      1718      2141
 -1      5183    3    0    1
 -2      1639      1718      1754      2141
 -1      5184    3    0    1
 -2      1694      1606      1756      2141
 -1      5185    3    0    1
 -2      1718      1670      2056      2141
 -1      5186    3    0    1
 -2      1670      1659      2056      2141
 -1      5187    3    0    1
 -2      1639      1606      1670      2141
 -1      5188    3    0    1
 -2      1606      1639      1754      2141
 -1      5189    3    0    1
 -2      1546       185      1900      2143
 -1      5190    3    0    1
 -2       185      1546      1715      2143
 -1      5191    3    0    1
 -2      1814      1531      1970      2163
 -1      5192    3    0    1
 -2       124       122      1880      2144
 -1      5193    3    0    1
 -2       122       124       979      2144
 -1      5194    3    0    1
 -2      1900      1577      2442      2518
 -1      5195    3    0    1
 -2      2084       393      2269      2390
 -1      5196    3    0    1
 -2       979       615      1800      2144
 -1      5197    3    0    1
 -2      1800       615      2093      2144
 -1      5198    3    0    1
 -2      2145      2036      2223      2581
 -1      5199    3    0    1
 -2      1602      2298      2387      2844
 -1      5200    3    0    1
 -2      1119      1117      1602      2844
 -1      5201    3    0    1
 -2      1762       319      1891      2224
 -1      5202    3    0    1
 -2       272      2332      2811      2887
 -1      5203    3    0    1
 -2      1606      1670      2141      2171
 -1      5204    3    0    1
 -2      1605      1073      2583      2896
 -1      5205    3    0    1
 -2      1850      1890      2179      2549
 -1      5206    3    0    1
 -2      2086      1553      2165      2458
 -1      5207    3    0    1
 -2      2039        29      2825      2855
 -1      5208    3    0    1
 -2      1564      1858      2289      2638
 -1      5209    3    0    1
 -2      1757      1701      1915      2147
 -1      5210    3    0    1
 -2      1915      1750      2109      2147
 -1      5211    3    0    1
 -2      1757      1915      2109      2147
 -1      5212    3    0    1
 -2      1786      1807      2085      2148
 -1      5213    3    0    1
 -2      1724      1786      2085      2148
 -1      5214    3    0    1
 -2      1807      1786      1931      2148
 -1      5215    3    0    1
 -2      1540      1807      1931      2148
 -1      5216    3    0    1
 -2      2339       383      1935      2688
 -1      5217    3    0    1
 -2      1805      1636      1931      2148
 -1      5218    3    0    1
 -2      1786      1805      1931      2148
 -1      5219    3    0    1
 -2      1636      1540      1931      2148
 -1      5220    3    0    1
 -2      1612      1544      2109      2637
 -1      5221    3    0    1
 -2       389       386      1801      2445
 -1      5222    3    0    1
 -2      2291       735      2612      2754
 -1      5223    3    0    1
 -2      2229      2486      2789      2820
 -1      5224    3    0    1
 -2       544       942      2107      2178
 -1      5225    3    0    1
 -2      1792      1761      2112      2150
 -1      5226    3    0    1
 -2      1778      1792      2112      2150
 -1      5227    3    0    1
 -2      1761      1637      2112      2150
 -1      5228    3    0    1
 -2       999      1246      2496      2667
 -1      5229    3    0    1
 -2      1782      1636      2059      2195
 -1      5230    3    0    1
 -2      1718      1754      2141      2180
 -1      5231    3    0    1
 -2      1647      1754      2158      2180
 -1      5232    3    0    1
 -2      1606      1756      2141      2180
 -1      5233    3    0    1
 -2       421      1071      2067      2761
 -1      5234    3    0    1
 -2      1982      1886      2128      2151
 -1      5235    3    0    1
 -2      1886      1932      2128      2151
 -1      5236    3    0    1
 -2      1850      1886      1982      2151
 -1      5237    3    0    1
 -2      1886      1850      1932      2151
 -1      5238    3    0    1
 -2      1843       819      1888      2432
 -1      5239    3    0    1
 -2      1969      1587      2397      2574
 -1      5240    3    0    1
 -2       367      2591      2779      2884
 -1      5241    3    0    1
 -2      1695      1557      1962      2375
 -1      5242    3    0    1
 -2      1822      1781      1950      2375
 -1      5243    3    0    1
 -2      1887      1543      1893      2574
 -1      5244    3    0    1
 -2       338      2088      2131      2188
 -1      5245    3    0    1
 -2      1625      2124      2219      2781
 -1      5246    3    0    1
 -2      1640      2272      2292      2676
 -1      5247    3    0    1
 -2       175      2350      2606      2735
 -1      5248    3    0    1
 -2       678      2062      2477      2801
 -1      5249    3    0    1
 -2       459      1162      1159      2614
 -1      5250    3    0    1
 -2      2243      1015      2606      2735
 -1      5251    3    0    1
 -2      2291      1044      2459      2536
 -1      5252    3    0    1
 -2      1971      1549      2035      2401
 -1      5253    3    0    1
 -2       664      1006      2562      2646
 -1      5254    3    0    1
 -2      2638      1945      2729      2871
 -1      5255    3    0    1
 -2      1860      1352      2860      2870
 -1      5256    3    0    1
 -2      1626      1647      1784      2158
 -1      5257    3    0    1
 -2      1615      1647      1754      2158
 -1      5258    3    0    1
 -2      1647      1615      1784      2158
 -1      5259    3    0    1
 -2      1647      1620      1754      2180
 -1      5260    3    0    1
 -2      1726      1683      2317      2323
 -1      5261    3    0    1
 -2      1707       337      2110      2238
 -1      5262    3    0    1
 -2      1573      2465      2696      2796
 -1      5263    3    0    1
 -2      1472      2981      3135      3043
 -1      5264    3    0    1
 -2      2671      2722      2769      2945
 -1      5265    3    0    1
 -2      2099      1592      2133      2460
 -1      5266    3    0    1
 -2       950       375      1773      2281
 -1      5267    3    0    1
 -2      1040       195      1277      2159
 -1      5268    3    0    1
 -2       361       214      1040      2159
 -1      5269    3    0    1
 -2       214       195      1040      2159
 -1      5270    3    0    1
 -2       514       508      2288      2602
 -1      5271    3    0    1
 -2      1719      1868      1920      2170
 -1      5272    3    0    1
 -2      1534      1872      2069      2170
 -1      5273    3    0    1
 -2      1534      1644      1872      2170
 -1      5274    3    0    1
 -2      1633      1770      1948      2165
 -1      5275    3    0    1
 -2      1633      1562      1770      2165
 -1      5276    3    0    1
 -2      2213      1551      2319      2342
 -1      5277    3    0    1
 -2      1563      2028      2131      2471
 -1      5278    3    0    1
 -2      1569      2115      2248      2698
 -1      5279    3    0    1
 -2       407       313      2414      2737
 -1      5280    3    0    1
 -2      2487       736      2520      2578
 -1      5281    3    0    1
 -2      2124      2219      2249      2302
 -1      5282    3    0    1
 -2      1085      2290      2588      2660
 -1      5283    3    0    1
 -2       343      1535      2164      2353
 -1      5284    3    0    1
 -2       447       325      1844      2478
 -1      5285    3    0    1
 -2      1683      1726      2243      2323
 -1      5286    3    0    1
 -2       831      2079      2336      2660
 -1      5287    3    0    1
 -2      1335      1766      2079      2660
 -1      5288    3    0    1
 -2      2146      2045      2457      2794
 -1      5289    3    0    1
 -2      2923      3090      1447      2992
 -1      5290    3    0    1
 -2      1014       343      2353      2477
 -1      5291    3    0    1
 -2      2191      2196      2198      2677
 -1      5292    3    0    1
 -2       177      2434      2770      2830
 -1      5293    3    0    1
 -2      1564      1858      1941      2373
 -1      5294    3    0    1
 -2      2228      2046       333      2306
 -1      5295    3    0    1
 -2      1938       333      2046      2306
 -1      5296    3    0    1
 -2      1448      3096      3138      3013
 -1      5297    3    0    1
 -2       116      1707      1966      2653
 -1      5298    3    0    1
 -2      1707      1930      2238      2655
 -1      5299    3    0    1
 -2      2192      2441      2571      2785
 -1      5300    3    0    1
 -2      2084       393      2428      2468
 -1      5301    3    0    1
 -2      1028      1747      1980      2271
 -1      5302    3    0    1
 -2      1590       928      1702      2172
 -1      5303    3    0    1
 -2      1543      1728      2397      2617
 -1      5304    3    0    1
 -2       907       471       908      2174
 -1      5305    3    0    1
 -2       412       413       908      2174
 -1      5306    3    0    1
 -2       413        12       908      2174
 -1      5307    3    0    1
 -2       903       415      2153      2501
 -1      5308    3    0    1
 -2        12       907       908      2174
 -1      5309    3    0    1
 -2      1359      1101      1729      2384
 -1      5310    3    0    1
 -2      1359      1729      2108      2384
 -1      5311    3    0    1
 -2      1906      1685      2246      2553
 -1      5312    3    0    1
 -2      2114      2075      2283      2501
 -1      5313    3    0    1
 -2      1708      1524      1831      2681
 -1      5314    3    0    1
 -2       380       273      1085      2588
 -1      5315    3    0    1
 -2      1091       420      2246      2553
 -1      5316    3    0    1
 -2      2421      1847      2429      2493
 -1      5317    3    0    1
 -2       836      2564      1339       835
 -1      5318    3    0    1
 -2      1311      2354      2385      2659
 -1      5319    3    0    1
 -2      1311      1787      2354      2659
 -1      5320    3    0    1
 -2       336       141      1244      2175
 -1      5321    3    0    1
 -2      1802      1555      2081      2457
 -1      5322    3    0    1
 -2      1882      1276      2221      2226
 -1      5323    3    0    1
 -2      1358       845      1357      2224
 -1      5324    3    0    1
 -2      1357       845      1897      2224
 -1      5325    3    0    1
 -2      1532      1897      2108      2292
 -1      5326    3    0    1
 -2      1674      2031      2571      2785
 -1      5327    3    0    1
 -2      1556      2026      2069      2242
 -1      5328    3    0    1
 -2       841      1352      1100      2870
 -1      5329    3    0    1
 -2       759       736      1047      2176
 -1      5330    3    0    1
 -2       101      2771      2795      2893
 -1      5331    3    0    1
 -2       759      1047      1056      2176
 -1      5332    3    0    1
 -2      2707      1530      2721      2869
 -1      5333    3    0    1
 -2       654       655      2440      2720
 -1      5334    3    0    1
 -2      2119      2117      2311      2357
 -1      5335    3    0    1
 -2      1999      1534      2155      2183
 -1      5336    3    0    1
 -2      1998      1549      2120      2401
 -1      5337    3    0    1
 -2      1644      1610      2400      1909
 -1      5338    3    0    1
 -2      2069      1534      2170      2183
 -1      5339    3    0    1
 -2      1920      2069      2170      2183
 -1      5340    3    0    1
 -2      1634       410      2070      2184
 -1      5341    3    0    1
 -2      1755      2327      2476      2694
 -1      5342    3    0    1
 -2      1569      1634      1778      2184
 -1      5343    3    0    1
 -2      1778      1634      2070      2184
 -1      5344    3    0    1
 -2       190      2271      1028       196
 -1      5345    3    0    1
 -2      1257       333      1938      2306
 -1      5346    3    0    1
 -2       992       640       993      2185
 -1      5347    3    0    1
 -2      2135      1788      2196      2479
 -1      5348    3    0    1
 -2       799      1321      2229      2559
 -1      5349    3    0    1
 -2      1780      1586      2426      2479
 -1      5350    3    0    1
 -2      2184      2011      2569      2703
 -1      5351    3    0    1
 -2       419      1321      1859      2559
 -1      5352    3    0    1
 -2      1767       419      1859      2559
 -1      5353    3    0    1
 -2      2599      1173      2706      2855
 -1      5354    3    0    1
 -2      2293       930      2497      2900
 -1      5355    3    0    1
 -2       419      1767      2519      2559
 -1      5356    3    0    1
 -2      1100      1352      1819      2870
 -1      5357    3    0    1
 -2       831       808      1335      2660
 -1      5358    3    0    1
 -2        46      2537      2604      2705
 -1      5359    3    0    1
 -2      1567      2381      2443      2493
 -1      5360    3    0    1
 -2      2038      1631      2333      2662
 -1      5361    3    0    1
 -2      2477      1014      2801      2803
 -1      5362    3    0    1
 -2      1530      2707      2837      2869
 -1      5363    3    0    1
 -2      2707      2837      2869      2876
 -1      5364    3    0    1
 -2       862       861      1116      2276
 -1      5365    3    0    1
 -2      1918      1876      2114      2673
 -1      5366    3    0    1
 -2      1899       380      2354      2588
 -1      5367    3    0    1
 -2      1716      1613      2043      2286
 -1      5368    3    0    1
 -2      1960      2058      2146      2192
 -1      5369    3    0    1
 -2      1949      1572      2340      2739
 -1      5370    3    0    1
 -2      2333      1611      2594      2739
 -1      5371    3    0    1
 -2      1960      2058      2192      2442
 -1      5372    3    0    1
 -2      1005       332      2186      2699
 -1      5373    3    0    1
 -2       630      1961      2029      2423
 -1      5374    3    0    1
 -2      1534      1593      1691      2455
 -1      5375    3    0    1
 -2       688      1020      2507      2883
 -1      5376    3    0    1
 -2       246      1833      1894      2195
 -1      5377    3    0    1
 -2       968      1800      2093      2199
 -1      5378    3    0    1
 -2      1031      2237      2514      2668
 -1      5379    3    0    1
 -2      2007       750      2416      2669
 -1      5380    3    0    1
 -2      1542       832      2409      2783
 -1      5381    3    0    1
 -2       634      1779      2344      2496
 -1      5382    3    0    1
 -2      2874       913      2877      2906
 -1      5383    3    0    1
 -2       634      1246      2449      2496
 -1      5384    3    0    1
 -2      2913      2671      2949      3086
 -1      5385    3    0    1
 -2        33      2700      2748      2874
 -1      5386    3    0    1
 -2      2313       651      2344      2496
 -1      5387    3    0    1
 -2      1540      1807      2148      2753
 -1      5388    3    0    1
 -2      1868      1533      1989      2541
 -1      5389    3    0    1
 -2      1129      1386      2203      2473
 -1      5390    3    0    1
 -2       968       107       978      2199
 -1      5391    3    0    1
 -2       107       350       978      2199
 -1      5392    3    0    1
 -2       316      1129      2203      2473
 -1      5393    3    0    1
 -2       569      3017      3044      3046
 -1      5394    3    0    1
 -2       627       623       634      3036
 -1      5395    3    0    1
 -2      1472      2962      3015      3144
 -1      5396    3    0    1
 -2      1298      2488      2891      2943
 -1      5397    3    0    1
 -2      1650      1630      2482      2204
 -1      5398    3    0    1
 -2       907       471      2174      2685
 -1      5399    3    0    1
 -2       380       259      1899      2354
 -1      5400    3    0    1
 -2      1649      1530      2266      2795
 -1      5401    3    0    1
 -2      1319      1787      1899      2354
 -1      5402    3    0    1
 -2      1827      1742      1896      2205
 -1      5403    3    0    1
 -2      1827      1896      2052      2205
 -1      5404    3    0    1
 -2      1827      1522      1896      2437
 -1      5405    3    0    1
 -2       862      1116      1823      2276
 -1      5406    3    0    1
 -2      1984      1665      2073      2328
 -1      5407    3    0    1
 -2      2073      1665      2263      2328
 -1      5408    3    0    1
 -2      2539      2421      2786      2826
 -1      5409    3    0    1
 -2       974       122      2110      2206
 -1      5410    3    0    1
 -2       122       974      1880      2206
 -1      5411    3    0    1
 -2       798       799      2229      2895
 -1      5412    3    0    1
 -2      1783      2528      2587      2601
 -1      5413    3    0    1
 -2      1839      2034      2044      2207
 -1      5414    3    0    1
 -2      1724      1573      2587      2601
 -1      5415    3    0    1
 -2       905       412      2034      2207
 -1      5416    3    0    1
 -2      2034       412      2044      2207
 -1      5417    3    0    1
 -2       413       412       905      2207
 -1      5418    3    0    1
 -2      1065      2533      2697      2704
 -1      5419    3    0    1
 -2       410       904      2208      2512
 -1      5420    3    0    1
 -2      2011       410      2070      2208
 -1      5421    3    0    1
 -2       410      1603      2070      2208
 -1      5422    3    0    1
 -2      2493      2421      2521      2570
 -1      5423    3    0    1
 -2      1245       988      2029      2209
 -1      5424    3    0    1
 -2       248       435      1070      2309
 -1      5425    3    0    1
 -2      1744      1762      2138      2355
 -1      5426    3    0    1
 -2       261      1080      2519      2839
 -1      5427    3    0    1
 -2       431       430      2603      2706
 -1      5428    3    0    1
 -2       831      1335      2079      2660
 -1      5429    3    0    1
 -2      1541      2177      2634      2797
 -1      5430    3    0    1
 -2      2610      1830      2712      2859
 -1      5431    3    0    1
 -2      2368       495      2700      2862
 -1      5432    3    0    1
 -2      1177       495      2368      2862
 -1      5433    3    0    1
 -2      1563      1961      2130      2042
 -1      5434    3    0    1
 -2      1727      2442      2518      2665
 -1      5435    3    0    1
 -2       423      1300      2111      2275
 -1      5436    3    0    1
 -2       426       345      2754      2879
 -1      5437    3    0    1
 -2      1767      1859      2576      2728
 -1      5438    3    0    1
 -2      1045      2612      2754      2836
 -1      5439    3    0    1
 -2      1019      2350      2506      2782
 -1      5440    3    0    1
 -2      2298      1602      2389      2551
 -1      5441    3    0    1
 -2      2271      1030       190      1028
 -1      5442    3    0    1
 -2       106       357      1751      2778
 -1      5443    3    0    1
 -2       607      1957      2181      2408
 -1      5444    3    0    1
 -2      1551      1600      2120      2231
 -1      5445    3    0    1
 -2       711       712      1034      2337
 -1      5446    3    0    1
 -2       520       931      2232      2422
 -1      5447    3    0    1
 -2      1979      1851      2240      2515
 -1      5448    3    0    1
 -2      1561      2083      2236      2490
 -1      5449    3    0    1
 -2      1031       706      2050      2514
 -1      5450    3    0    1
 -2       197       190      1034      2467
 -1      5451    3    0    1
 -2      1747      1030      2361      2467
 -1      5452    3    0    1
 -2      2179      1890      2188      2549
 -1      5453    3    0    1
 -2      1402      1147      2014      2330
 -1      5454    3    0    1
 -2      1951      1927      2132      2250
 -1      5455    3    0    1
 -2      1927      1776      1952      2250
 -1      5456    3    0    1
 -2       687      1017      1996      2642
 -1      5457    3    0    1
 -2        23      2521      2539      2826
 -1      5458    3    0    1
 -2      1566      1748      1952      2250
 -1      5459    3    0    1
 -2      2485      1019      2506      2782
 -1      5460    3    0    1
 -2      1342      1339      2474      2633
 -1      5461    3    0    1
 -2       610       977      2448      2582
 -1      5462    3    0    1
 -2       759       736      2176      2520
 -1      5463    3    0    1
 -2        46       406      2537      2705
 -1      5464    3    0    1
 -2       317       409      1339      2633
 -1      5465    3    0    1
 -2      1632      2474      2564      2633
 -1      5466    3    0    1
 -2       230       228      1301      2222
 -1      5467    3    0    1
 -2       556       949      2017      2534
 -1      5468    3    0    1
 -2       876       875      2634      2817
 -1      5469    3    0    1
 -2      1619      2009      2565      2799
 -1      5470    3    0    1
 -2       949       556      1211      2534
 -1      5471    3    0    1
 -2       615       592      2144      2843
 -1      5472    3    0    1
 -2      2008      2466      2524      2613
 -1      5473    3    0    1
 -2      1972       375      2156      2281
 -1      5474    3    0    1
 -2      1125       313      1127      2414
 -1      5475    3    0    1
 -2       228       359      1052      2222
 -1      5476    3    0    1
 -2      1288      1835      2595      2598
 -1      5477    3    0    1
 -2      1631      1654      1885      2598
 -1      5478    3    0    1
 -2      1211      2227      2534      2798
 -1      5479    3    0    1
 -2      2363      1906      2765      2768
 -1      5480    3    0    1
 -2      1815      1734      1953      2393
 -1      5481    3    0    1
 -2      1276       704      2173      2226
 -1      5482    3    0    1
 -2      1744      2203      2355      2473
 -1      5483    3    0    1
 -2      2203       873      2355      2473
 -1      5484    3    0    1
 -2      1386       873      2203      2473
 -1      5485    3    0    1
 -2      2126      2134      2645      2799
 -1      5486    3    0    1
 -2      1065      2533      2659      2697
 -1      5487    3    0    1
 -2       562      1211      2534      2798
 -1      5488    3    0    1
 -2      2381      2585      2682      2695
 -1      5489    3    0    1
 -2      1744      2126      2203      2473
 -1      5490    3    0    1
 -2      1744      2092      2126      2473
 -1      5491    3    0    1
 -2       373       370       961      2227
 -1      5492    3    0    1
 -2       106       373       961      2227
 -1      5493    3    0    1
 -2       961       370      1211      2227
 -1      5494    3    0    1
 -2       370        82      1211      2227
 -1      5495    3    0    1
 -2      1783      1755      2308      2465
 -1      5496    3    0    1
 -2      2035      2235      2772      2780
 -1      5497    3    0    1
 -2      1847      1567      2493      2521
 -1      5498    3    0    1
 -2      1667      1559      2084      2428
 -1      5499    3    0    1
 -2      1587      1969      2359      2574
 -1      5500    3    0    1
 -2      2804      2230      2944      2950
 -1      5501    3    0    1
 -2       873      1387      1385      2355
 -1      5502    3    0    1
 -2      1337       293       322      2376
 -1      5503    3    0    1
 -2      2083      1719      2398      2490
 -1      5504    3    0    1
 -2      1893      1995      2397      2574
 -1      5505    3    0    1
 -2      1636      1782      2059      2745
 -1      5506    3    0    1
 -2       412      2044      2207      2552
 -1      5507    3    0    1
 -2       832       907      1096      2294
 -1      5508    3    0    1
 -2       399      1730      1883      2257
 -1      5509    3    0    1
 -2      1059       760      2326      2451
 -1      5510    3    0    1
 -2      1857       981      2538      2654
 -1      5511    3    0    1
 -2      1071       250      2516      2761
 -1      5512    3    0    1
 -2       510       927      2554      2686
 -1      5513    3    0    1
 -2      2040      1671      2623      2683
 -1      5514    3    0    1
 -2       760      1058      2326      2451
 -1      5515    3    0    1
 -2      1058      2252      2326      2451
 -1      5516    3    0    1
 -2      1163       471      1542      2258
 -1      5517    3    0    1
 -2       471       472      2174      2258
 -1      5518    3    0    1
 -2      1638      1780      2095      2256
 -1      5519    3    0    1
 -2       832       471       907      2294
 -1      5520    3    0    1
 -2       951       399      1883      2257
 -1      5521    3    0    1
 -2       909       472       471      2258
 -1      5522    3    0    1
 -2      1199       535      1658      2236
 -1      5523    3    0    1
 -2       711      1033      2749      2809
 -1      5524    3    0    1
 -2      1566      1748      1851      2515
 -1      5525    3    0    1
 -2      1901      1556      1903      2515
 -1      5526    3    0    1
 -2       723      1031      1286      2237
 -1      5527    3    0    1
 -2       723       706      1031      2237
 -1      5528    3    0    1
 -2      1095       832      1096      2409
 -1      5529    3    0    1
 -2      2109      2015      2234      2687
 -1      5530    3    0    1
 -2       568       957      2404      2784
 -1      5531    3    0    1
 -2      2079      1095      2348      2409
 -1      5532    3    0    1
 -2      1097       832      2079      2409
 -1      5533    3    0    1
 -2      1930       336      2024      2238
 -1      5534    3    0    1
 -2       337      1930      2024      2238
 -1      5535    3    0    1
 -2       976       337      2024      2238
 -1      5536    3    0    1
 -2      1596      1671      2040      2683
 -1      5537    3    0    1
 -2      1697      1653      2063      2240
 -1      5538    3    0    1
 -2      1653      1669      2063      2240
 -1      5539    3    0    1
 -2      1979      1697      2063      2240
 -1      5540    3    0    1
 -2      1851      1697      1979      2240
 -1      5541    3    0    1
 -2      1866      1572      2038      2340
 -1      5542    3    0    1
 -2      2111      2051      2491      2528
 -1      5543    3    0    1
 -2      2346      1866      2386      2701
 -1      5544    3    0    1
 -2      1095       420      2363      2568
 -1      5545    3    0    1
 -2       675      2589      2684      2718
 -1      5546    3    0    1
 -2       640       993      2185      2305
 -1      5547    3    0    1
 -2      2038      1866      2340      2701
 -1      5548    3    0    1
 -2      1669      1731      1809      2555
 -1      5549    3    0    1
 -2       252       248      1070      2689
 -1      5550    3    0    1
 -2       251       421      2067      2339
 -1      5551    3    0    1
 -2      2058      1960      2146      2548
 -1      5552    3    0    1
 -2      2084      1653      2123      2468
 -1      5553    3    0    1
 -2      1662       610      2448      2582
 -1      5554    3    0    1
 -2      1082       802      2049      2432
 -1      5555    3    0    1
 -2      1624      1813      2100      2396
 -1      5556    3    0    1
 -2      1535      1624      2100      2396
 -1      5557    3    0    1
 -2        12       903      1914      2247
 -1      5558    3    0    1
 -2       903        12       905      2247
 -1      5559    3    0    1
 -2      2452      2554      2682      2686
 -1      5560    3    0    1
 -2      1664      2711      2740      2864
 -1      5561    3    0    1
 -2        71       941      1986      2296
 -1      5562    3    0    1
 -2      1918      1876      2673      2703
 -1      5563    3    0    1
 -2      1749      1759      2189      2691
 -1      5564    3    0    1
 -2      1778      1569      2184      2248
 -1      5565    3    0    1
 -2      1034       190      2337      2467
 -1      5566    3    0    1
 -2       776      1068      1935      2470
 -1      5567    3    0    1
 -2      1935      1068      2339      2470
 -1      5568    3    0    1
 -2      2561      1541      2630      2708
 -1      5569    3    0    1
 -2       776      1066      1068      2470
 -1      5570    3    0    1
 -2       925       514       503      1187
 -1      5571    3    0    1
 -2      1068      1066      2347      2470
 -1      5572    3    0    1
 -2      1896      2052      2205      2251
 -1      5573    3    0    1
 -2      1742      1896      2205      2251
 -1      5574    3    0    1
 -2      1896      1522      2052      2251
 -1      5575    3    0    1
 -2      1693       331      2097      2251
 -1      5576    3    0    1
 -2       331      1693      1840      2251
 -1      5577    3    0    1
 -2      2052      1693      2205      2251
 -1      5578    3    0    1
 -2      1693      2097      2205      2251
 -1      5579    3    0    1
 -2      1815      1992      2245      2254
 -1      5580    3    0    1
 -2       307      1116      1375      2276
 -1      5581    3    0    1
 -2      1581      1889      2002      2276
 -1      5582    3    0    1
 -2      1982      2254      2321      2517
 -1      5583    3    0    1
 -2      1079       272      2332      2647
 -1      5584    3    0    1
 -2       976       607      2206      2408
 -1      5585    3    0    1
 -2      1570      1672      1992      2254
 -1      5586    3    0    1
 -2      1981      1908      2321      2517
 -1      5587    3    0    1
 -2      1587      1640      1969      2676
 -1      5588    3    0    1
 -2      2048      3094      3098      3120
 -1      5589    3    0    1
 -2      1548      1702      1986      2296
 -1      5590    3    0    1
 -2      1872      1901      1903      2455
 -1      5591    3    0    1
 -2      2664       583      2743      2755
 -1      5592    3    0    1
 -2      1091       822      2553      2600
 -1      5593    3    0    1
 -2        32       919      2825      2845
 -1      5594    3    0    1
 -2      1907      1186       510      2702
 -1      5595    3    0    1
 -2      2595      1771      2740      2864
 -1      5596    3    0    1
 -2      2167      1091      2246      2600
 -1      5597    3    0    1
 -2        38        54      1188      2255
 -1      5598    3    0    1
 -2       919        38      1188      2255
 -1      5599    3    0    1
 -2      1971      1841      2841      2898
 -1      5600    3    0    1
 -2      1059      2047      2436      2451
 -1      5601    3    0    1
 -2        32       919      1177      2825
 -1      5602    3    0    1
 -2       559       558      1923      2259
 -1      5603    3    0    1
 -2       558       559      1210      2259
 -1      5604    3    0    1
 -2      2343      1549      2415      2611
 -1      5605    3    0    1
 -2       399       398      1537      2259
 -1      5606    3    0    1
 -2       398       399       951      2259
 -1      5607    3    0    1
 -2       399      1537      2257      2259
 -1      5608    3    0    1
 -2       951       399      2257      2259
 -1      5609    3    0    1
 -2      2089      1592      2149      2773
 -1      5610    3    0    1
 -2      2252       760      2436      2451
 -1      5611    3    0    1
 -2      1664      1771      1919      2864
 -1      5612    3    0    1
 -2        45        54       925      2260
 -1      5613    3    0    1
 -2      2039       909      2368      1177
 -1      5614    3    0    1
 -2       909      2039      2368      2603
 -1      5615    3    0    1
 -2       988       630      2029      2423
 -1      5616    3    0    1
 -2      1345       837       838      2261
 -1      5617    3    0    1
 -2      1410      1472      1477      3053
 -1      5618    3    0    1
 -2       837      1345      1099      2261
 -1      5619    3    0    1
 -2      1936      1928      1937      2329
 -1      5620    3    0    1
 -2      1859      2427      2576      2728
 -1      5621    3    0    1
 -2      2096      2500      2561      2708
 -1      5622    3    0    1
 -2       486      2596      2835      2877
 -1      5623    3    0    1
 -2      1859      1767      2559      2728
 -1      5624    3    0    1
 -2      2009      2500      2584      2708
 -1      5625    3    0    1
 -2      1541      2561      2565      2708
 -1      5626    3    0    1
 -2       416      2013      2584      2708
 -1      5627    3    0    1
 -2      1649      1643      1741      2266
 -1      5628    3    0    1
 -2      1741      1643      1990      2266
 -1      5629    3    0    1
 -2      2489       486      2530      2877
 -1      5630    3    0    1
 -2      1015       679      2243      2323
 -1      5631    3    0    1
 -2      1759      1683      2189      2323
 -1      5632    3    0    1
 -2      2152      2374      2572      2922
 -1      5633    3    0    1
 -2      2051      2008      2327      2613
 -1      5634    3    0    1
 -2      1697      1653      1828      2468
 -1      5635    3    0    1
 -2      1653      2084      2123      2269
 -1      5636    3    0    1
 -2      2084       393      2123      2269
 -1      5637    3    0    1
 -2      1653      1697      2123      2468
 -1      5638    3    0    1
 -2       393      1186      2123      2269
 -1      5639    3    0    1
 -2      1186      2123      2269      2270
 -1      5640    3    0    1
 -2       511      1186      2269      2270
 -1      5641    3    0    1
 -2       981       616      2538      2654
 -1      5642    3    0    1
 -2      1066      1068      2347      2761
 -1      5643    3    0    1
 -2      1915      1757      2439      2790
 -1      5644    3    0    1
 -2      1706      1871      1922      2366
 -1      5645    3    0    1
 -2       346      1028      1726      2271
 -1      5646    3    0    1
 -2      1607      1851      2262      2468
 -1      5647    3    0    1
 -2      1851      1828      2262      2468
 -1      5648    3    0    1
 -2      1028      1030      1747      2271
 -1      5649    3    0    1
 -2      1726      1028      1846      2271
 -1      5650    3    0    1
 -2      1846      1028      1980      2271
 -1      5651    3    0    1
 -2       270      2363      2765      2768
 -1      5652    3    0    1
 -2      1058      2252      2516      2907
 -1      5653    3    0    1
 -2       346       196      1028      2271
 -1      5654    3    0    1
 -2      1883       951      2257      2567
 -1      5655    3    0    1
 -2      3104      1461      2996      3124
 -1      5656    3    0    1
 -2      2532       157      2720      2868
 -1      5657    3    0    1
 -2      1334      1159      1801      2717
 -1      5658    3    0    1
 -2       736      1047      2176      2578
 -1      5659    3    0    1
 -2      1801      1159      2614      2717
 -1      5660    3    0    1
 -2      1591      1810      2369      2567
 -1      5661    3    0    1
 -2      1586      1780      2218      2677
 -1      5662    3    0    1
 -2       197      2241      2338      2361
 -1      5663    3    0    1
 -2      1876      1918      2142      2703
 -1      5664    3    0    1
 -2      1532      1640      2272      2292
 -1      5665    3    0    1
 -2      1897      1753      2108      2292
 -1      5666    3    0    1
 -2      1299       750      2007      2669
 -1      5667    3    0    1
 -2      1755      1783      2308      2528
 -1      5668    3    0    1
 -2      1567      2381      2493      2521
 -1      5669    3    0    1
 -2      1057       759      1058      2326
 -1      5670    3    0    1
 -2       759       760      1058      2326
 -1      5671    3    0    1
 -2      1819      1860      2094      2279
 -1      5672    3    0    1
 -2      1643      1990      2266      2279
 -1      5673    3    0    1
 -2      1990      1643      2094      2279
 -1      5674    3    0    1
 -2      1860      1990      2094      2279
 -1      5675    3    0    1
 -2      1990      1860      2266      2279
 -1      5676    3    0    1
 -2      1289      1040       730      2280
 -1      5677    3    0    1
 -2      1836       730      2237      2280
 -1      5678    3    0    1
 -2      2189      1683      2243      2323
 -1      5679    3    0    1
 -2       723      1040      2159      2280
 -1      5680    3    0    1
 -2       723       730      1040      2280
 -1      5681    3    0    1
 -2       723      2159      2237      2280
 -1      5682    3    0    1
 -2       730       723      2237      2280
 -1      5683    3    0    1
 -2       375        80      1773      2281
 -1      5684    3    0    1
 -2        86       375       950      2281
 -1      5685    3    0    1
 -2       678      1013      2801      2890
 -1      5686    3    0    1
 -2       346      1726      2485      2505
 -1      5687    3    0    1
 -2      2326      1056      2451      2679
 -1      5688    3    0    1
 -2      1233       604      2137      2582
 -1      5689    3    0    1
 -2      2137       586      2472      2582
 -1      5690    3    0    1
 -2       604       586      2137      2582
 -1      5691    3    0    1
 -2       586      1662      2472      2582
 -1      5692    3    0    1
 -2       610       604       977      2582
 -1      5693    3    0    1
 -2      1918      1876      2142      2283
 -1      5694    3    0    1
 -2      1876      1918      2114      2283
 -1      5695    3    0    1
 -2      1824      1404      2478      2502
 -1      5696    3    0    1
 -2      2078      1161      2383      2780
 -1      5697    3    0    1
 -2      1688      1716      1910      2286
 -1      5698    3    0    1
 -2      1910      1716      2043      2286
 -1      5699    3    0    1
 -2      1621      1529      1688      2286
 -1      5700    3    0    1
 -2        36      2293      2725      2894
 -1      5701    3    0    1
 -2      1699      2756      2872      2873
 -1      5702    3    0    1
 -2      1621      1688      1910      2286
 -1      5703    3    0    1
 -2      1621      1910      2043      2286
 -1      5704    3    0    1
 -2      1370      1367      2139      2287
 -1      5705    3    0    1
 -2      1111      1113      1869      2287
 -1      5706    3    0    1
 -2      2056      1659      2139      2287
 -1      5707    3    0    1
 -2      1367      2056      2139      2287
 -1      5708    3    0    1
 -2       303      1367      1370      2287
 -1      5709    3    0    1
 -2      1111       303      1113      2287
 -1      5710    3    0    1
 -2       303       304      1367      2287
 -1      5711    3    0    1
 -2       304       303      1111      2287
 -1      5712    3    0    1
 -2      1659       304      1869      2287
 -1      5713    3    0    1
 -2      1367      1659      2056      2287
 -1      5714    3    0    1
 -2      1367       304      1659      2287
 -1      5715    3    0    1
 -2       304      1111      1869      2287
 -1      5716    3    0    1
 -2      2930      2975      3104      1461
 -1      5717    3    0    1
 -2       991       134      2558      2619
 -1      5718    3    0    1
 -2      2050      1027      2579      2639
 -1      5719    3    0    1
 -2      2560      1277      2575      2639
 -1      5720    3    0    1
 -2      1027      2560      2579      2639
 -1      5721    3    0    1
 -2       103        93      2994      3044
 -1      5722    3    0    1
 -2      1437      1470      3127      1480
 -1      5723    3    0    1
 -2      1085       807      1323      2290
 -1      5724    3    0    1
 -2      1323       807      1605      2290
 -1      5725    3    0    1
 -2      1971      1841      2508      2841
 -1      5726    3    0    1
 -2       259      1085      1323      2290
 -1      5727    3    0    1
 -2      1762      1387      2138      2355
 -1      5728    3    0    1
 -2      1385      1387      1891      2355
 -1      5729    3    0    1
 -2       259       380      1085      2290
 -1      5730    3    0    1
 -2       962      2379      2420      2607
 -1      5731    3    0    1
 -2      1990      2099      2133      2460
 -1      5732    3    0    1
 -2       187       193      1618      2590
 -1      5733    3    0    1
 -2      1268       178      2434      2579
 -1      5734    3    0    1
 -2      1032      1618      2507      2590
 -1      5735    3    0    1
 -2       819      1082      1332      2432
 -1      5736    3    0    1
 -2      1717      2446      2731      2760
 -1      5737    3    0    1
 -2      2261      2346      2386      2701
 -1      5738    3    0    1
 -2      2261      1099      2346      2701
 -1      5739    3    0    1
 -2      1152      1142      2340      2701
 -1      5740    3    0    1
 -2      2510      1867      2569      2703
 -1      5741    3    0    1
 -2      1099       445      1866      2701
 -1      5742    3    0    1
 -2      1759      1749      2315      2691
 -1      5743    3    0    1
 -2      2125       838      2678      2726
 -1      5744    3    0    1
 -2       837       838      2125      2726
 -1      5745    3    0    1
 -2      2300      1625      2678      2726
 -1      5746    3    0    1
 -2       340      1019      2485      2782
 -1      5747    3    0    1
 -2      1550      1616      1947      2297
 -1      5748    3    0    1
 -2      1947      1638      2135      2297
 -1      5749    3    0    1
 -2      1638      1947      2256      2297
 -1      5750    3    0    1
 -2      1550      1947      2135      2297
 -1      5751    3    0    1
 -2      2161       243      2277      2453
 -1      5752    3    0    1
 -2      1235       610      2064      2448
 -1      5753    3    0    1
 -2      2011      2512      2673      2703
 -1      5754    3    0    1
 -2      1352       842      2860      2870
 -1      5755    3    0    1
 -2      1595      2275      2285      2388
 -1      5756    3    0    1
 -2      1092      2362      2709      2727
 -1      5757    3    0    1
 -2       225       422      2494      2807
 -1      5758    3    0    1
 -2      1902       654      2204      2483
 -1      5759    3    0    1
 -2      1900       339      2329      2548
 -1      5760    3    0    1
 -2       116       980      1707      2653
 -1      5761    3    0    1
 -2      2143      1900      2329      2548
 -1      5762    3    0    1
 -2      1630      1650      2145      2483
 -1      5763    3    0    1
 -2       323       427      1137      2302
 -1      5764    3    0    1
 -2      2124      1137      2300      2302
 -1      5765    3    0    1
 -2      1137       427      2300      2302
 -1      5766    3    0    1
 -2      2152      1945      2374      2618
 -1      5767    3    0    1
 -2      2924      2965      3098      3001
 -1      5768    3    0    1
 -2         9       410      1603      2640
 -1      5769    3    0    1
 -2      2077      1712      2318      2627
 -1      5770    3    0    1
 -2      2425      2264      2527      2730
 -1      5771    3    0    1
 -2       422       225      1058      2807
 -1      5772    3    0    1
 -2       949       378      1745      2535
 -1      5773    3    0    1
 -2       760       759      1059      2326
 -1      5774    3    0    1
 -2      1635      1949      1958      2739
 -1      5775    3    0    1
 -2      2304      1054      2494      2807
 -1      5776    3    0    1
 -2      2196      1788      2198      2479
 -1      5777    3    0    1
 -2      1864      2366      2546      2813
 -1      5778    3    0    1
 -2        15       431      2258      2808
 -1      5779    3    0    1
 -2       333      1257      2228      2306
 -1      5780    3    0    1
 -2      1257       655      2228      2306
 -1      5781    3    0    1
 -2      1110       853      1108      2307
 -1      5782    3    0    1
 -2      2051      1755      2327      2476
 -1      5783    3    0    1
 -2       854      1110      2106      2307
 -1      5784    3    0    1
 -2       853      1110       854      2307
 -1      5785    3    0    1
 -2      1951       854      2106      2307
 -1      5786    3    0    1
 -2       990      1255      2344      1420
 -1      5787    3    0    1
 -2      2561      1541      2634      2797
 -1      5788    3    0    1
 -2      1222       400      2417      2529
 -1      5789    3    0    1
 -2       967       348      2118      2403
 -1      5790    3    0    1
 -2      1578       967      2118      2403
 -1      5791    3    0    1
 -2      1070       435      1073      2309
 -1      5792    3    0    1
 -2      1073       784      1070      2309
 -1      5793    3    0    1
 -2       784       783      1070      2309
 -1      5794    3    0    1
 -2      2631      2847      2929      2955
 -1      5795    3    0    1
 -2       190       196      2337      2467
 -1      5796    3    0    1
 -2       658       651      1002      2313
 -1      5797    3    0    1
 -2      1876      1867      2454      2500
 -1      5798    3    0    1
 -2      1880       124      2144      2345
 -1      5799    3    0    1
 -2       651       658      1258      2313
 -1      5800    3    0    1
 -2      1866      1631      2038      2662
 -1      5801    3    0    1
 -2      1860      2266      2279      2721
 -1      5802    3    0    1
 -2      1613      1716      2421      2539
 -1      5803    3    0    1
 -2      1567      2381      2521      2585
 -1      5804    3    0    1
 -2      1523      1611      1668      2594
 -1      5805    3    0    1
 -2       913      2850      2877      2906
 -1      5806    3    0    1
 -2      1255      1002       651      2313
 -1      5807    3    0    1
 -2       999       651      1258      2313
 -1      5808    3    0    1
 -2      1819      1860      2279      2721
 -1      5809    3    0    1
 -2      2369      2567      2680      2767
 -1      5810    3    0    1
 -2      1001      2492      2699      2805
 -1      5811    3    0    1
 -2        12      2174      2247      2685
 -1      5812    3    0    1
 -2      3108      2935      3009      3039
 -1      5813    3    0    1
 -2      2166      1004      2301      2532
 -1      5814    3    0    1
 -2      1070       783      2436      2689
 -1      5815    3    0    1
 -2      1680      1338      1878      2316
 -1      5816    3    0    1
 -2      1406      1139      2210      2672
 -1      5817    3    0    1
 -2      2319      2077      2343      2415
 -1      5818    3    0    1
 -2      2217      1677      2272      2320
 -1      5819    3    0    1
 -2      1532      2217      2272      2320
 -1      5820    3    0    1
 -2      2077      2319      2405      2415
 -1      5821    3    0    1
 -2      1763      1127      2077      2318
 -1      5822    3    0    1
 -2      1722      2325      2424      2738
 -1      5823    3    0    1
 -2      2319      2213      2405      2415
 -1      5824    3    0    1
 -2      2120      2213      2319      2415
 -1      5825    3    0    1
 -2      2217       261       419      2303
 -1      5826    3    0    1
 -2       261      2217       419      2320
 -1      5827    3    0    1
 -2      2225      2217      2292      2320
 -1      5828    3    0    1
 -2      1767      2217      2225      2320
 -1      5829    3    0    1
 -2      1577      1727      2442      2518
 -1      5830    3    0    1
 -2      1698      1993      2393      2775
 -1      5831    3    0    1
 -2       867       868      2393      2775
 -1      5832    3    0    1
 -2      2291       361      1047      2322
 -1      5833    3    0    1
 -2       361      2291      1047      1044
 -1      5834    3    0    1
 -2      1665      1919      1984      2598
 -1      5835    3    0    1
 -2      1040       361      2159      2322
 -1      5836    3    0    1
 -2       361      1040      1289      2322
 -1      5837    3    0    1
 -2      1631       424      1665      2598
 -1      5838    3    0    1
 -2      1665       424      1919      2598
 -1      5839    3    0    1
 -2       424      1631      1885      2598
 -1      5840    3    0    1
 -2      2526      1664      2711      2740
 -1      5841    3    0    1
 -2      1631      1654      2038      2333
 -1      5842    3    0    1
 -2      1771      1664      2526      2740
 -1      5843    3    0    1
 -2       272      1072      1083      2324
 -1      5844    3    0    1
 -2       272       383      1072      2324
 -1      5845    3    0    1
 -2      1560      1528      2277      2325
 -1      5846    3    0    1
 -2      2381      1567      2443      2856
 -1      5847    3    0    1
 -2      1333       416      2392      2454
 -1      5848    3    0    1
 -2      1446       364      2974      3103
 -1      5849    3    0    1
 -2      1958      2340      2556      2739
 -1      5850    3    0    1
 -2      1611      1547      2594      2739
 -1      5851    3    0    1
 -2      2915      1440      3107      3119
 -1      5852    3    0    1
 -2      1572      1611      2333      2739
 -1      5853    3    0    1
 -2       699      1275      2050      2649
 -1      5854    3    0    1
 -2      2212      2526      2711      2740
 -1      5855    3    0    1
 -2       675       682      2589      2649
 -1      5856    3    0    1
 -2      1949      1635      2113      2739
 -1      5857    3    0    1
 -2      1298       747      1836      2792
 -1      5858    3    0    1
 -2      2146      2058      2548      2794
 -1      5859    3    0    1
 -2      1867      1876      2142      2703
 -1      5860    3    0    1
 -2      1030      2271       190      2467
 -1      5861    3    0    1
 -2      2465      2402      2696      2796
 -1      5862    3    0    1
 -2      1665      1526      2263      2328
 -1      5863    3    0    1
 -2       890       891      1147      2330
 -1      5864    3    0    1
 -2       890      1147      1402      2330
 -1      5865    3    0    1
 -2      1865      1041      1871      2366
 -1      5866    3    0    1
 -2       400       966      2020      2349
 -1      5867    3    0    1
 -2       290       291      1093      2331
 -1      5868    3    0    1
 -2      1299      2007      2629      2669
 -1      5869    3    0    1
 -2      2561      2177      2634      2645
 -1      5870    3    0    1
 -2      1083       272      2324      2332
 -1      5871    3    0    1
 -2      2050       706      2237      2514
 -1      5872    3    0    1
 -2      2117      1136      2625      2793
 -1      5873    3    0    1
 -2      2408       976      2471      2742
 -1      5874    3    0    1
 -2      1310      2277      2453      2648
 -1      5875    3    0    1
 -2      1067       774      2509      2812
 -1      5876    3    0    1
 -2      2161      2277      2325      2648
 -1      5877    3    0    1
 -2       373       106      2464      2778
 -1      5878    3    0    1
 -2      2173      1276      2226      2334
 -1      5879    3    0    1
 -2      1983      1933      2221      2334
 -1      5880    3    0    1
 -2      2221      1933      2226      2334
 -1      5881    3    0    1
 -2       338       403       975      2335
 -1      5882    3    0    1
 -2       975       403      2284      2335
 -1      5883    3    0    1
 -2      1957       975      2284      2335
 -1      5884    3    0    1
 -2      1234      1957      2088      2335
 -1      5885    3    0    1
 -2       338      1234      2088      2335
 -1      5886    3    0    1
 -2       338       975      1234      2335
 -1      5887    3    0    1
 -2      1234       975      1957      2335
 -1      5888    3    0    1
 -2      1268       675       682      2589
 -1      5889    3    0    1
 -2      1095       831      1912      2336
 -1      5890    3    0    1
 -2      1994      1816      2364      2395
 -1      5891    3    0    1
 -2      2350      1019      2506      2787
 -1      5892    3    0    1
 -2      1576      1054      2304      2807
 -1      5893    3    0    1
 -2       336       141      2175      2655
 -1      5894    3    0    1
 -2      2361      1864      2544      2813
 -1      5895    3    0    1
 -2      1591      1561      1686      2767
 -1      5896    3    0    1
 -2      1119       863      1117      2844
 -1      5897    3    0    1
 -2      1933      1523      1983      2351
 -1      5898    3    0    1
 -2        89      2413      2608      2840
 -1      5899    3    0    1
 -2       340       175      1019      2350
 -1      5900    3    0    1
 -2       223      1057      1058      2747
 -1      5901    3    0    1
 -2      1072       251      2067      2339
 -1      5902    3    0    1
 -2       783      2067      2436      2689
 -1      5903    3    0    1
 -2      2067       783      2309      2689
 -1      5904    3    0    1
 -2       383       251      1072      2339
 -1      5905    3    0    1
 -2      1977      1642      2200      2788
 -1      5906    3    0    1
 -2       290      2075      2331      2348
 -1      5907    3    0    1
 -2      1042      1954      2425      2650
 -1      5908    3    0    1
 -2      1903      1748      1952      2515
 -1      5909    3    0    1
 -2       885      1406       894      2672
 -1      5910    3    0    1
 -2      1235       120      1662      2447
 -1      5911    3    0    1
 -2      1942      2352      2372      2930
 -1      5912    3    0    1
 -2       990       634      1779      2344
 -1      5913    3    0    1
 -2       651       990      1255      2344
 -1      5914    3    0    1
 -2      2913      1764      2949      2977
 -1      5915    3    0    1
 -2      2985       940       532      1197
 -1      5916    3    0    1
 -2       651       634       990      2344
 -1      5917    3    0    1
 -2      1945      2618      2917      2934
 -1      5918    3    0    1
 -2      2058      2146      2457      2794
 -1      5919    3    0    1
 -2       879      1138       880      2621
 -1      5920    3    0    1
 -2      1136       879      2469      2621
 -1      5921    3    0    1
 -2      1138       879      1136      2621
 -1      5922    3    0    1
 -2      1900      1960      2143      2518
 -1      5923    3    0    1
 -2      1577      1900      2143      2518
 -1      5924    3    0    1
 -2       354       352      3011      3142
 -1      5925    3    0    1
 -2      1992      1570      2254      2517
 -1      5926    3    0    1
 -2       607      2131      2408      2471
 -1      5927    3    0    1
 -2       931      1926      2296      2422
 -1      5928    3    0    1
 -2      1267      2691      2733      2838
 -1      5929    3    0    1
 -2      1043      1836      2237      2891
 -1      5930    3    0    1
 -2      2353      1825      2481      2762
 -1      5931    3    0    1
 -2      1559       391      2498      2593
 -1      5932    3    0    1
 -2      2202      2046      2353      2762
 -1      5933    3    0    1
 -2      2732       916      1416      2963
 -1      5934    3    0    1
 -2       784      1073      1605      2896
 -1      5935    3    0    1
 -2      1679      2319      2405      2736
 -1      5936    3    0    1
 -2       250       421      1066      2761
 -1      5937    3    0    1
 -2      2067      1071      2516      2761
 -1      5938    3    0    1
 -2       730      1289      2280      2597
 -1      5939    3    0    1
 -2      1961       630      2029      2658
 -1      5940    3    0    1
 -2      1591      2057      2567      2767
 -1      5941    3    0    1
 -2      2059      2195      2636      2882
 -1      5942    3    0    1
 -2      3024       498      1518      3074
 -1      5943    3    0    1
 -2      1873       343      2164      2353
 -1      5944    3    0    1
 -2      1825      1873      2164      2353
 -1      5945    3    0    1
 -2      1650      2145      2223      2482
 -1      5946    3    0    1
 -2      2202      1544      2762      2802
 -1      5947    3    0    1
 -2      1256       161      1630      2482
 -1      5948    3    0    1
 -2      1733      1525      2073      2386
 -1      5949    3    0    1
 -2       259       266      1319      2354
 -1      5950    3    0    1
 -2       266      1311      1319      2354
 -1      5951    3    0    1
 -2       266       433      1311      2354
 -1      5952    3    0    1
 -2       299      1358      1357      2356
 -1      5953    3    0    1
 -2      1358       319      2224      2356
 -1      5954    3    0    1
 -2      1358       299       319      2356
 -1      5955    3    0    1
 -2       248       435      2309      2697
 -1      5956    3    0    1
 -2       252       248      2689      2697
 -1      5957    3    0    1
 -2       268      1974      2644      2887
 -1      5958    3    0    1
 -2       966      2020      2118      2403
 -1      5959    3    0    1
 -2      1717      2285      2446      2760
 -1      5960    3    0    1
 -2      1407       886      1141      2357
 -1      5961    3    0    1
 -2      2186      1005      2591      2656
 -1      5962    3    0    1
 -2       886      1407       895      2357
 -1      5963    3    0    1
 -2       980       116      1966      2653
 -1      5964    3    0    1
 -2       878      1969      1995      2359
 -1      5965    3    0    1
 -2       877      1389      1134      2359
 -1      5966    3    0    1
 -2      1389       878      1995      2359
 -1      5967    3    0    1
 -2      1389       877       878      2359
 -1      5968    3    0    1
 -2      1742      1785      2103      2523
 -1      5969    3    0    1
 -2      1582      1675      2103      2523
 -1      5970    3    0    1
 -2      2625      2119      1407      2357
 -1      5971    3    0    1
 -2      1706      1864      1922      2361
 -1      5972    3    0    1
 -2      1604      1742      2103      2523
 -1      5973    3    0    1
 -2      1785      1582      2103      2523
 -1      5974    3    0    1
 -2      1604      1575      1742      2523
 -1      5975    3    0    1
 -2      1675      1582      1812      2523
 -1      5976    3    0    1
 -2       992      1930      2545      2655
 -1      5977    3    0    1
 -2      1005      2186      2646      2656
 -1      5978    3    0    1
 -2      1321       419      2519      2559
 -1      5979    3    0    1
 -2       664       687      1005      2656
 -1      5980    3    0    1
 -2       139       134      2018      2558
 -1      5981    3    0    1
 -2      1560      1528      2738      2846
 -1      5982    3    0    1
 -2      2249      1527      2469      2793
 -1      5983    3    0    1
 -2      2387      2622      2757      2844
 -1      5984    3    0    1
 -2       606      2181      2200      2751
 -1      5985    3    0    1
 -2      1677      1599      2628      2676
 -1      5986    3    0    1
 -2       342      1535      1829      2396
 -1      5987    3    0    1
 -2       287       290      1091      2365
 -1      5988    3    0    1
 -2      1091       290      1093      2365
 -1      5989    3    0    1
 -2      1093       290      2331      2365
 -1      5990    3    0    1
 -2      1091      1093      2331      2365
 -1      5991    3    0    1
 -2       420       287      1091      2365
 -1      5992    3    0    1
 -2       161      1004      2301      2547
 -1      5993    3    0    1
 -2      2166       993      2282      2547
 -1      5994    3    0    1
 -2       141       992       993      2367
 -1      5995    3    0    1
 -2       993       992      2185      2367
 -1      5996    3    0    1
 -2       136       141       993      2367
 -1      5997    3    0    1
 -2       141       136      2175      2367
 -1      5998    3    0    1
 -2      2175       136      2282      2367
 -1      5999    3    0    1
 -2       993      2185      2282      2367
 -1      6000    3    0    1
 -2       136       993      2282      2367
 -1      6001    3    0    1
 -2      1173      2566      2599      2706
 -1      6002    3    0    1
 -2       908       495       917      2368
 -1      6003    3    0    1
 -2       472       495       908      2368
 -1      6004    3    0    1
 -2       495       472      1177      2368
 -1      6005    3    0    1
 -2       472       909      1177      2368
 -1      6006    3    0    1
 -2      2663      1526      2851      2865
 -1      6007    3    0    1
 -2      2714      2777      2814      2865
 -1      6008    3    0    1
 -2      1591      1810      2083      2369
 -1      6009    3    0    1
 -2      1084      2336      2557      2568
 -1      6010    3    0    1
 -2      1084       270      1974      2568
 -1      6011    3    0    1
 -2       328      1405      1145      2370
 -1      6012    3    0    1
 -2       883      1395      2234      2371
 -1      6013    3    0    1
 -2      1468       274      1472      1515
 -1      6014    3    0    1
 -2      2572      2922      2925      2152
 -1      6015    3    0    1
 -2      1913      1950      2375      2010
 -1      6016    3    0    1
 -2      1740      1822      1962      2375
 -1      6017    3    0    1
 -2      2722      2910      2945      3133
 -1      6018    3    0    1
 -2       977      1243      1779      2933
 -1      6019    3    0    1
 -2       486       913      2850      2877
 -1      6020    3    0    1
 -2      2867      2921      3102      3118
 -1      6021    3    0    1
 -2      2372      2187      2930      2931
 -1      6022    3    0    1
 -2      1942      2352      2930      2931
 -1      6023    3    0    1
 -2      1047       736      2291      2578
 -1      6024    3    0    1
 -2      2230      1941      2373      2573
 -1      6025    3    0    1
 -2      1557      1663      1740      2375
 -1      6026    3    0    1
 -2      2085      2190      2210      2672
 -1      6027    3    0    1
 -2       230       228      2222      2723
 -1      6028    3    0    1
 -2      1109       293      1927      2376
 -1      6029    3    0    1
 -2      1366       293      1109      2376
 -1      6030    3    0    1
 -2      1336      1837      1927      2376
 -1      6031    3    0    1
 -2       293      1336      1927      2376
 -1      6032    3    0    1
 -2       293      1337      1336      2376
 -1      6033    3    0    1
 -2      2349      2020      2529      2608
 -1      6034    3    0    1
 -2      1998      2343      2415      2611
 -1      6035    3    0    1
 -2       630      1961      2130      2418
 -1      6036    3    0    1
 -2      1998      1549      2401      2611
 -1      6037    3    0    1
 -2       365       368      2531      2744
 -1      6038    3    0    1
 -2      1006      1017      2562      2744
 -1      6039    3    0    1
 -2      2559      1859      2728      2789
 -1      6040    3    0    1
 -2       349       101       962      2379
 -1      6041    3    0    1
 -2      1377       863       864      2757
 -1      6042    3    0    1
 -2      3006       191      3137      3033
 -1      6043    3    0    1
 -2      2116      2478      2502      2665
 -1      6044    3    0    1
 -2      2025      1727      2116      2665
 -1      6045    3    0    1
 -2      1867      2510      2673      2703
 -1      6046    3    0    1
 -2      2721      1819      2860      2870
 -1      6047    3    0    1
 -2       919       496      2724      2845
 -1      6048    3    0    1
 -2      1991      2387      2622      2757
 -1      6049    3    0    1
 -2      1926      2041      2296      2422
 -1      6050    3    0    1
 -2       462       904      2208      2586
 -1      6051    3    0    1
 -2      1982      2128      2254      2517
 -1      6052    3    0    1
 -2      1310      2253      2453      2499
 -1      6053    3    0    1
 -2       416      2392      2454      2500
 -1      6054    3    0    1
 -2      1133       300      1135      2384
 -1      6055    3    0    1
 -2      1729       417      1976      2384
 -1      6056    3    0    1
 -2       300      1101      1359      2384
 -1      6057    3    0    1
 -2       417      1133      1976      2384
 -1      6058    3    0    1
 -2       417       300      1133      2384
 -1      6059    3    0    1
 -2      1101       417      1729      2384
 -1      6060    3    0    1
 -2       300       417      1101      2384
 -1      6061    3    0    1
 -2        82       378       949      2535
 -1      6062    3    0    1
 -2       562       556      2090      2534
 -1      6063    3    0    1
 -2       195       214      1035      2536
 -1      6064    3    0    1
 -2       433       266      1323      2385
 -1      6065    3    0    1
 -2      1073       433      1323      2385
 -1      6066    3    0    1
 -2      1525      1733      2125      2386
 -1      6067    3    0    1
 -2      1866      1525      2346      2386
 -1      6068    3    0    1
 -2      1525      2125      2346      2386
 -1      6069    3    0    1
 -2      2633      1632      2861      2901
 -1      6070    3    0    1
 -2      1632      2115      2861      2901
 -1      6071    3    0    1
 -2      2186       160      2532      2868
 -1      6072    3    0    1
 -2       125       120      1235      2447
 -1      6073    3    0    1
 -2       120       125       981      2447
 -1      6074    3    0    1
 -2       771       767       766      3018
 -1      6075    3    0    1
 -2      1941      2358      2563      2758
 -1      6076    3    0    1
 -2      1570      1580      1992      2389
 -1      6077    3    0    1
 -2      1602      1570      1992      2389
 -1      6078    3    0    1
 -2      2563      2358      2631      2758
 -1      6079    3    0    1
 -2       445      1152      2340      2701
 -1      6080    3    0    1
 -2      2189      1759      2243      2691
 -1      6081    3    0    1
 -2      1034      2241      2337      2391
 -1      6082    3    0    1
 -2       712      1034      2337      2391
 -1      6083    3    0    1
 -2      1034       712      2241      2391
 -1      6084    3    0    1
 -2       418      1092      1333      2392
 -1      6085    3    0    1
 -2       819      1743      1888      2432
 -1      6086    3    0    1
 -2       819      1332      1743      2432
 -1      6087    3    0    1
 -2       819       802      1082      2432
 -1      6088    3    0    1
 -2       393      1667      2084      2428
 -1      6089    3    0    1
 -2      2308      1783      2465      2601
 -1      6090    3    0    1
 -2       416       418      1333      2392
 -1      6091    3    0    1
 -2      1556      1872      2069      2455
 -1      6092    3    0    1
 -2      2153       415      2456      2501
 -1      6093    3    0    1
 -2      2402      2357      2465      2696
 -1      6094    3    0    1
 -2       943       954      2399      2776
 -1      6095    3    0    1
 -2      1104       849      1363      2395
 -1      6096    3    0    1
 -2      1816      1363      2364      2395
 -1      6097    3    0    1
 -2      1535      1789      1829      2396
 -1      6098    3    0    1
 -2      1789      1535      2100      2396
 -1      6099    3    0    1
 -2      3109      1414      3129      1486
 -1      6100    3    0    1
 -2      1069      1320      2828      2954
 -1      6101    3    0    1
 -2       195      2459      2536      2575
 -1      6102    3    0    1
 -2       193      1618      2560      2575
 -1      6103    3    0    1
 -2      1035       195      2536      2575
 -1      6104    3    0    1
 -2      1618      1035      2536      2575
 -1      6105    3    0    1
 -2       567       954      1972      2399
 -1      6106    3    0    1
 -2      1985       544      2107      2399
 -1      6107    3    0    1
 -2       943       544      1985      2399
 -1      6108    3    0    1
 -2       105       400      2403      2852
 -1      6109    3    0    1
 -2      1526      2263      2328      2777
 -1      6110    3    0    1
 -2      2107       544      2178      2399
 -1      6111    3    0    1
 -2       567      2107      2178      2399
 -1      6112    3    0    1
 -2       567       943       954      2399
 -1      6113    3    0    1
 -2       348      2403      2664      2852
 -1      6114    3    0    1
 -2       567       544       943      2399
 -1      6115    3    0    1
 -2       544       567      2178      2399
 -1      6116    3    0    1
 -2       857      1371      1112      2400
 -1      6117    3    0    1
 -2       857      1112      2155      2400
 -1      6118    3    0    1
 -2      1869       857      2155      2400
 -1      6119    3    0    1
 -2      1610      1869      2155      2400
 -1      6120    3    0    1
 -2      1610      2155      2183      2400
 -1      6121    3    0    1
 -2       435       248      2659      2697
 -1      6122    3    0    1
 -2       495      1177      2724      2862
 -1      6123    3    0    1
 -2       248      1065      2659      2697
 -1      6124    3    0    1
 -2       324      2707      2869      2876
 -1      6125    3    0    1
 -2       747      1301      1052      2792
 -1      6126    3    0    1
 -2      1131      1388      2543      2817
 -1      6127    3    0    1
 -2       463      2078      2207      2609
 -1      6128    3    0    1
 -2      2357      2119      2402      2465
 -1      6129    3    0    1
 -2       568       957       965      2404
 -1      6130    3    0    1
 -2       591       568       965      2404
 -1      6131    3    0    1
 -2      1529      1621      1679      2405
 -1      6132    3    0    1
 -2      1679      2319      2342      2405
 -1      6133    3    0    1
 -2      1346      1679      1774      2737
 -1      6134    3    0    1
 -2      1529      1679      2342      2405
 -1      6135    3    0    1
 -2      1748      1566      1952      2515
 -1      6136    3    0    1
 -2      1901      1903      1952      2515
 -1      6137    3    0    1
 -2      1446      3092      1464      3118
 -1      6138    3    0    1
 -2      2187      2352      2372      2925
 -1      6139    3    0    1
 -2       347       187      1032      2590
 -1      6140    3    0    1
 -2       157      1256      1630      2532
 -1      6141    3    0    1
 -2      1618       193      2560      2590
 -1      6142    3    0    1
 -2      2372      2352      2572      2925
 -1      6143    3    0    1
 -2      3095      3092      1463      1464
 -1      6144    3    0    1
 -2      2406      1016      1423      3118
 -1      6145    3    0    1
 -2      2028      1957      2131      2408
 -1      6146    3    0    1
 -2       607      1234      1957      2408
 -1      6147    3    0    1
 -2      1957      1234      2131      2408
 -1      6148    3    0    1
 -2       519      1188      2450      2900
 -1      6149    3    0    1
 -2      1234       607      2131      2408
 -1      6150    3    0    1
 -2       831      1095      2079      2409
 -1      6151    3    0    1
 -2       832       831      2079      2409
 -1      6152    3    0    1
 -2       831       832      1095      2409
 -1      6153    3    0    1
 -2      1057       759      2326      2747
 -1      6154    3    0    1
 -2      1374      1797      1973      2525
 -1      6155    3    0    1
 -2      1725      1797      1818      2525
 -1      6156    3    0    1
 -2       759      1057      2487      2747
 -1      6157    3    0    1
 -2      1058      1057      2326      2747
 -1      6158    3    0    1
 -2      1770      1633      2016      2411
 -1      6159    3    0    1
 -2      2016      1633      2341      2411
 -1      6160    3    0    1
 -2      2100      1624      2164      2411
 -1      6161    3    0    1
 -2      1825      1641      2066      2411
 -1      6162    3    0    1
 -2      1624      1873      2164      2411
 -1      6163    3    0    1
 -2      1641      1825      1873      2411
 -1      6164    3    0    1
 -2      1873      1825      2164      2411
 -1      6165    3    0    1
 -2      2100      2066      2341      2411
 -1      6166    3    0    1
 -2      2066      2100      2164      2411
 -1      6167    3    0    1
 -2      1825      2066      2164      2411
 -1      6168    3    0    1
 -2       956       591       966      2412
 -1      6169    3    0    1
 -2       956       966      2349      2412
 -1      6170    3    0    1
 -2       956      2404      2412      2413
 -1      6171    3    0    1
 -2      2020       956      2412      2413
 -1      6172    3    0    1
 -2      1288      1835      2740      2864
 -1      6173    3    0    1
 -2      1628      2225      2576      2827
 -1      6174    3    0    1
 -2      2192      2031      2441      2785
 -1      6175    3    0    1
 -2      2034      2207      2508      2609
 -1      6176    3    0    1
 -2       956      2020      2349      2413
 -1      6177    3    0    1
 -2      2508      1841      2609      2841
 -1      6178    3    0    1
 -2        89        80       956      2413
 -1      6179    3    0    1
 -2       375        80      2281      2413
 -1      6180    3    0    1
 -2        80       375      1972      2413
 -1      6181    3    0    1
 -2      1972       375      2281      2413
 -1      6182    3    0    1
 -2        89       956      2349      2413
 -1      6183    3    0    1
 -2       952      2021      2712      2840
 -1      6184    3    0    1
 -2       407       313      1125      2414
 -1      6185    3    0    1
 -2      1560      1528      2325      2738
 -1      6186    3    0    1
 -2      1549      2319      2343      2415
 -1      6187    3    0    1
 -2      1053      1877      2071      2416
 -1      6188    3    0    1
 -2      1053       750      1877      2416
 -1      6189    3    0    1
 -2      2192      1960      2442      2665
 -1      6190    3    0    1
 -2      1570      1602      2298      2551
 -1      6191    3    0    1
 -2      2021      1645      2378      2417
 -1      6192    3    0    1
 -2      2102      1855      2378      2417
 -1      6193    3    0    1
 -2      3030       594      3067      3069
 -1      6194    3    0    1
 -2      1793      2801      2803      2889
 -1      6195    3    0    1
 -2      1645      2102      2378      2417
 -1      6196    3    0    1
 -2       582      1855      2102      2417
 -1      6197    3    0    1
 -2       582      1222      1855      2417
 -1      6198    3    0    1
 -2      1645      1222      2102      2417
 -1      6199    3    0    1
 -2      1222       582      2102      2417
 -1      6200    3    0    1
 -2      1807      1540      1845      2419
 -1      6201    3    0    1
 -2      1042       426      2425      2879
 -1      6202    3    0    1
 -2      1845      1842      1895      2419
 -1      6203    3    0    1
 -2      1807      1845      1895      2419
 -1      6204    3    0    1
 -2      1753      2292      2360      2764
 -1      6205    3    0    1
 -2      1842      1807      1895      2419
 -1      6206    3    0    1
 -2       962       101      2149      2420
 -1      6207    3    0    1
 -2      2043      1613      2382      2421
 -1      6208    3    0    1
 -2      2358      3098      1454      3001
 -1      6209    3    0    1
 -2       508       503      3003      3062
 -1      6210    3    0    1
 -2      1944      1942      2352      2572
 -1      6211    3    0    1
 -2      1996       687      2642      2787
 -1      6212    3    0    1
 -2       175       173      1018      2787
 -1      6213    3    0    1
 -2      1552      1674      2031      2571
 -1      6214    3    0    1
 -2      2058      2146      2192      2571
 -1      6215    3    0    1
 -2      2421      1613      2539      2786
 -1      6216    3    0    1
 -2      1001       655      2492      2540
 -1      6217    3    0    1
 -2      1613      1716      2382      2421
 -1      6218    3    0    1
 -2      2146      2058      2457      2571
 -1      6219    3    0    1
 -2      1862      1793      2228      2540
 -1      6220    3    0    1
 -2       988      1788      2130      2423
 -1      6221    3    0    1
 -2       630       988      2130      2423
 -1      6222    3    0    1
 -2      1055      3019      3076      3080
 -1      6223    3    0    1
 -2       225       223      2747      2807
 -1      6224    3    0    1
 -2      2340      2038      2556      2739
 -1      6225    3    0    1
 -2      1572      2038      2340      2739
 -1      6226    3    0    1
 -2      1629      1783      2491      2528
 -1      6227    3    0    1
 -2      2225      1628      2320      2764
 -1      6228    3    0    1
 -2       802       795      2049      2828
 -1      6229    3    0    1
 -2       426       216      1042      2425
 -1      6230    3    0    1
 -2      1042       216      2264      2425
 -1      6231    3    0    1
 -2      1696      1558      2256      2426
 -1      6232    3    0    1
 -2      2095      1791      2256      2426
 -1      6233    3    0    1
 -2      1780      2095      2256      2426
 -1      6234    3    0    1
 -2      1586      1946      2218      2426
 -1      6235    3    0    1
 -2      1780      1586      2218      2426
 -1      6236    3    0    1
 -2      1791      1780      2218      2426
 -1      6237    3    0    1
 -2      1780      1791      2095      2426
 -1      6238    3    0    1
 -2         9      1603      2216      2640
 -1      6239    3    0    1
 -2      2290       808      2336      2660
 -1      6240    3    0    1
 -2      2214      2722      2945      3133
 -1      6241    3    0    1
 -2       193       187      1277      2560
 -1      6242    3    0    1
 -2      1311       778      1787      2828
 -1      6243    3    0    1
 -2      2327      2051      2613      2842
 -1      6244    3    0    1
 -2       333      2046      2202      2790
 -1      6245    3    0    1
 -2      2618      2919      2934      3089
 -1      6246    3    0    1
 -2      1634      1524      1792      2640
 -1      6247    3    0    1
 -2      1603       410      1634      2640
 -1      6248    3    0    1
 -2      1634      1778      2216      2640
 -1      6249    3    0    1
 -2      2956      2918      3092      3116
 -1      6250    3    0    1
 -2       961       580      2472      2798
 -1      6251    3    0    1
 -2      1160      2716      1432      1433
 -1      6252    3    0    1
 -2      2716      2892      1432      1433
 -1      6253    3    0    1
 -2      1410      3099      1476      1477
 -1      6254    3    0    1
 -2      1419      1197      3085      3128
 -1      6255    3    0    1
 -2       904      2208      2512      2616
 -1      6256    3    0    1
 -2      2331       823      2167      2431
 -1      6257    3    0    1
 -2       823      2331      2167      1093
 -1      6258    3    0    1
 -2      1544      1612      1768      2834
 -1      6259    3    0    1
 -2       823       822      2167      2431
 -1      6260    3    0    1
 -2       822       823      1092      2431
 -1      6261    3    0    1
 -2      1333       823      2142      2431
 -1      6262    3    0    1
 -2       872      1842      2027      2433
 -1      6263    3    0    1
 -2      1975      1383      2157      2433
 -1      6264    3    0    1
 -2       871       872      2027      2433
 -1      6265    3    0    1
 -2      1383      1382      2157      2433
 -1      6266    3    0    1
 -2      1806      1940      2157      2433
 -1      6267    3    0    1
 -2      2027      1806      2157      2433
 -1      6268    3    0    1
 -2       871      1383       872      2433
 -1      6269    3    0    1
 -2       871      2027      2157      2433
 -1      6270    3    0    1
 -2      1383       871      1382      2433
 -1      6271    3    0    1
 -2      1382       871      2157      2433
 -1      6272    3    0    1
 -2      1612      1544      2802      2834
 -1      6273    3    0    1
 -2      1081       799      2229      2486
 -1      6274    3    0    1
 -2      1524      1708      1792      2640
 -1      6275    3    0    1
 -2       160      1005      2186      2532
 -1      6276    3    0    1
 -2      2166      1004      2532      2646
 -1      6277    3    0    1
 -2       664       663      1006      2646
 -1      6278    3    0    1
 -2      1006      1583      2562      2646
 -1      6279    3    0    1
 -2       925      2602      2832      2897
 -1      6280    3    0    1
 -2      1602      1672      2298      2844
 -1      6281    3    0    1
 -2       178       347      1032      2434
 -1      6282    3    0    1
 -2      1020       178      1032      2434
 -1      6283    3    0    1
 -2       592       967      2093      2580
 -1      6284    3    0    1
 -2      1943      2289      2373      2769
 -1      6285    3    0    1
 -2      1629      1783      2111      2491
 -1      6286    3    0    1
 -2      1868      1920      1989      2438
 -1      6287    3    0    1
 -2      1810      1868      1989      2438
 -1      6288    3    0    1
 -2       413      2207      2247      2552
 -1      6289    3    0    1
 -2       774      2347      2509      2791
 -1      6290    3    0    1
 -2       330      2054      2055      2439
 -1      6291    3    0    1
 -2       330      1938      2439      2055
 -1      6292    3    0    1
 -2       330       333      1798      2439
 -1      6293    3    0    1
 -2      2266      1530      2279      2721
 -1      6294    3    0    1
 -2      1847      1567      2443      2493
 -1      6295    3    0    1
 -2      1613      1600      1795      2786
 -1      6296    3    0    1
 -2      1000      1257      1938      2440
 -1      6297    3    0    1
 -2      1000       654      1257      2440
 -1      6298    3    0    1
 -2      1000      1938      2055      2440
 -1      6299    3    0    1
 -2       654      1000      1902      2440
 -1      6300    3    0    1
 -2      1902      1000      2055      2440
 -1      6301    3    0    1
 -2      1733      1625      2125      2678
 -1      6302    3    0    1
 -2      1698      1734      1993      2775
 -1      6303    3    0    1
 -2      1567      1589      1847      2443
 -1      6304    3    0    1
 -2      1588      1559      1955      2593
 -1      6305    3    0    1
 -2      1067       246      2380      2499
 -1      6306    3    0    1
 -2       101      2149      2420      2444
 -1      6307    3    0    1
 -2      1741       101      2420      2444
 -1      6308    3    0    1
 -2       386      1097      1832      2445
 -1      6309    3    0    1
 -2      1832      1097      2060      2445
 -1      6310    3    0    1
 -2       386      1334      1801      2445
 -1      6311    3    0    1
 -2       286      1832      2032      2445
 -1      6312    3    0    1
 -2      1801      1334      2032      2445
 -1      6313    3    0    1
 -2      1334       286      2032      2445
 -1      6314    3    0    1
 -2       386       286      1334      2445
 -1      6315    3    0    1
 -2      2632       778      2828      2954
 -1      6316    3    0    1
 -2      2289      1943      2871      2913
 -1      6317    3    0    1
 -2      1054       752      2304      2446
 -1      6318    3    0    1
 -2      2304       752      2416      2446
 -1      6319    3    0    1
 -2       752      1877      2416      2446
 -1      6320    3    0    1
 -2       752      1300      1877      2446
 -1      6321    3    0    1
 -2      1877      1300      2275      2446
 -1      6322    3    0    1
 -2       977      1779      2448      2495
 -1      6323    3    0    1
 -2      2275      1300      2285      2446
 -1      6324    3    0    1
 -2      2957      2022      3109      2986
 -1      6325    3    0    1
 -2      1300       752      2285      2446
 -1      6326    3    0    1
 -2       610      1235      1662      2448
 -1      6327    3    0    1
 -2      1662      1235      2064      2448
 -1      6328    3    0    1
 -2      3007      2978      3038      3056
 -1      6329    3    0    1
 -2      1073       784      2309      2583
 -1      6330    3    0    1
 -2      1716      1598      2382      2539
 -1      6331    3    0    1
 -2       987      1246      2018      2449
 -1      6332    3    0    1
 -2      1246       987       634      2449
 -1      6333    3    0    1
 -2       978      1800      2019      2538
 -1      6334    3    0    1
 -2      2228      2306      2492      2540
 -1      6335    3    0    1
 -2        54      2255      2260      2450
 -1      6336    3    0    1
 -2        54      1188      2255      2450
 -1      6337    3    0    1
 -2        45        54      2260      2450
 -1      6338    3    0    1
 -2        54        45      1188      2450
 -1      6339    3    0    1
 -2        45       932      1188      2450
 -1      6340    3    0    1
 -2      1188       932      2232      2450
 -1      6341    3    0    1
 -2       385        45      2260      2450
 -1      6342    3    0    1
 -2      1656       385      2260      2450
 -1      6343    3    0    1
 -2        45       385       932      2450
 -1      6344    3    0    1
 -2       932      1656      2232      2450
 -1      6345    3    0    1
 -2       932       385      1656      2450
 -1      6346    3    0    1
 -2      1737      1574      2626      2846
 -1      6347    3    0    1
 -2      2246       420      2568      2768
 -1      6348    3    0    1
 -2       261      2303      2738      2839
 -1      6349    3    0    1
 -2       994      2185      2558      2674
 -1      6350    3    0    1
 -2       243      1067      1310      2499
 -1      6351    3    0    1
 -2      1590      1809      1967      2555
 -1      6352    3    0    1
 -2      1833       243      2453      2499
 -1      6353    3    0    1
 -2       243      1310      2453      2499
 -1      6354    3    0    1
 -2      1310      1067      2253      2499
 -1      6355    3    0    1
 -2       246       243      1833      2499
 -1      6356    3    0    1
 -2      1857       981      2019      2538
 -1      6357    3    0    1
 -2      1967      1653      2123      2555
 -1      6358    3    0    1
 -2      1731      1669      1967      2555
 -1      6359    3    0    1
 -2      1809      1590      2172      2555
 -1      6360    3    0    1
 -2      2538       616      2653      2654
 -1      6361    3    0    1
 -2      1691      1593      1901      2455
 -1      6362    3    0    1
 -2      1534      1872      1999      2455
 -1      6363    3    0    1
 -2      1593      1534      1999      2455
 -1      6364    3    0    1
 -2      1901      1556      2026      2455
 -1      6365    3    0    1
 -2      2026      1556      2069      2455
 -1      6366    3    0    1
 -2      1593      1872      1903      2455
 -1      6367    3    0    1
 -2      1872      1593      1999      2455
 -1      6368    3    0    1
 -2      2441      1824      2478      2502
 -1      6369    3    0    1
 -2       246      1067      2380      2666
 -1      6370    3    0    1
 -2      2075      2153      2294      2456
 -1      6371    3    0    1
 -2      1555      1802      2045      2457
 -1      6372    3    0    1
 -2       101      1741      2420      2795
 -1      6373    3    0    1
 -2       101      1649      1741      2795
 -1      6374    3    0    1
 -2      1802      1552      2146      2457
 -1      6375    3    0    1
 -2      2045      1802      2146      2457
 -1      6376    3    0    1
 -2      1267       678       679      2838
 -1      6377    3    0    1
 -2      2134      2543      2645      2817
 -1      6378    3    0    1
 -2       658       675      2684      2718
 -1      6379    3    0    1
 -2       361      2159      2322      2459
 -1      6380    3    0    1
 -2       361       214      2159      2459
 -1      6381    3    0    1
 -2      2291       361      2322      2459
 -1      6382    3    0    1
 -2        82       370       957      2605
 -1      6383    3    0    1
 -2       214       361      1044      2459
 -1      6384    3    0    1
 -2      1044       361      2291      2459
 -1      6385    3    0    1
 -2      1643      1990      2133      2460
 -1      6386    3    0    1
 -2      1643      1741      1990      2460
 -1      6387    3    0    1
 -2      2420      1741      2444      2460
 -1      6388    3    0    1
 -2      2149      2420      2444      2460
 -1      6389    3    0    1
 -2      1741      1643      2444      2460
 -1      6390    3    0    1
 -2      2133      1592      2149      2460
 -1      6391    3    0    1
 -2      2133      2149      2444      2460
 -1      6392    3    0    1
 -2      1643      2133      2444      2460
 -1      6393    3    0    1
 -2      1686       395      2107      2462
 -1      6394    3    0    1
 -2      1151      1140      2759      2858
 -1      6395    3    0    1
 -2      2696      2210      2796      2858
 -1      6396    3    0    1
 -2        70       941       942      2462
 -1      6397    3    0    1
 -2      2077      2343      2415      2693
 -1      6398    3    0    1
 -2      2343      1998      2415      2693
 -1      6399    3    0    1
 -2       395       396       942      2462
 -1      6400    3    0    1
 -2       396       395      1686      2462
 -1      6401    3    0    1
 -2      1623       396      1686      2462
 -1      6402    3    0    1
 -2      2343      2077      2627      2693
 -1      6403    3    0    1
 -2        70       396      1623      2462
 -1      6404    3    0    1
 -2       396        70       942      2462
 -1      6405    3    0    1
 -2      2357      2119      1407      2402
 -1      6406    3    0    1
 -2      3036       984      3057      3066
 -1      6407    3    0    1
 -2      1728      2397      2617      2626
 -1      6408    3    0    1
 -2      1543      1728      2617      2626
 -1      6409    3    0    1
 -2       832      1096      2409      2783
 -1      6410    3    0    1
 -2       957       373       965      2464
 -1      6411    3    0    1
 -2       370       373       957      2464
 -1      6412    3    0    1
 -2      2047       252      2689      2697
 -1      6413    3    0    1
 -2       462      2511      2586      2616
 -1      6414    3    0    1
 -2       663       994      1003      2833
 -1      6415    3    0    1
 -2       562       580       961      2798
 -1      6416    3    0    1
 -2       640       663      2652      2833
 -1      6417    3    0    1
 -2       961       106      2227      2778
 -1      6418    3    0    1
 -2       423      2327      2613      2842
 -1      6419    3    0    1
 -2      1222       963       583      2664
 -1      6420    3    0    1
 -2      1666      2267      2690      2715
 -1      6421    3    0    1
 -2       422      1058      2252      2807
 -1      6422    3    0    1
 -2      1725      1721      1997      2525
 -1      6423    3    0    1
 -2      1721       860      1997      2525
 -1      6424    3    0    1
 -2      1721      1725      1818      2525
 -1      6425    3    0    1
 -2      1797      1725      1973      2525
 -1      6426    3    0    1
 -2      2298      1991      2387      2622
 -1      6427    3    0    1
 -2      2633      2177      2848      2901
 -1      6428    3    0    1
 -2       345      1045      1046      2754
 -1      6429    3    0    1
 -2       776       774      1066      2470
 -1      6430    3    0    1
 -2      1066       774      2347      2470
 -1      6431    3    0    1
 -2        35       913      1839      2874
 -1      6432    3    0    1
 -2      1139      1406      2210      2796
 -1      6433    3    0    1
 -2      2126      1619      2134      2799
 -1      6434    3    0    1
 -2       961       580      1224      2472
 -1      6435    3    0    1
 -2      1726       346      2271      2505
 -1      6436    3    0    1
 -2       196      1033      2337      2505
 -1      6437    3    0    1
 -2      2271       196      2467      2505
 -1      6438    3    0    1
 -2       586       580      1760      2472
 -1      6439    3    0    1
 -2       580       586      1224      2472
 -1      6440    3    0    1
 -2       784       783      2309      2583
 -1      6441    3    0    1
 -2       925      1939      2260      2832
 -1      6442    3    0    1
 -2      2185       639      2558      2818
 -1      6443    3    0    1
 -2      1339      2564      2633      2848
 -1      6444    3    0    1
 -2       459      1159      1334      2717
 -1      6445    3    0    1
 -2      2487       736      2578      2657
 -1      6446    3    0    1
 -2      2062      1013      2779      2801
 -1      6447    3    0    1
 -2      1151       440      1140      2858
 -1      6448    3    0    1
 -2      1201       543      1926      2692
 -1      6449    3    0    1
 -2      2402      2696      2796      2858
 -1      6450    3    0    1
 -2       325      1404      1144      2478
 -1      6451    3    0    1
 -2       978      1800      2199      2503
 -1      6452    3    0    1
 -2      1404       325       447      2478
 -1      6453    3    0    1
 -2      2019       119      2480      2503
 -1      6454    3    0    1
 -2      1404       447      1824      2478
 -1      6455    3    0    1
 -2      1223      2379      2743      2810
 -1      6456    3    0    1
 -2      1033       346      2485      2505
 -1      6457    3    0    1
 -2       119       350       973      2480
 -1      6458    3    0    1
 -2       369      2624      2754      2763
 -1      6459    3    0    1
 -2       345       369      2754      2763
 -1      6460    3    0    1
 -2      2313       651      2496      2880
 -1      6461    3    0    1
 -2      1706      1287      1954      2763
 -1      6462    3    0    1
 -2      2145      1630      2301      2482
 -1      6463    3    0    1
 -2      1650      1834      2145      2483
 -1      6464    3    0    1
 -2      1522      1834      1956      2483
 -1      6465    3    0    1
 -2      1849      1902      2437      2483
 -1      6466    3    0    1
 -2      1522      1849      2437      2483
 -1      6467    3    0    1
 -2      1834      1522      2437      2483
 -1      6468    3    0    1
 -2      1902      1630      2145      2483
 -1      6469    3    0    1
 -2      1834      1902      2145      2483
 -1      6470    3    0    1
 -2      1902      1834      2437      2483
 -1      6471    3    0    1
 -2      1795      1613      2286      2484
 -1      6472    3    0    1
 -2       346      1726      2317      2485
 -1      6473    3    0    1
 -2      1841      2034      2489      2508
 -1      6474    3    0    1
 -2      2161      1528      2277      2643
 -1      6475    3    0    1
 -2      1047      2176      2322      2713
 -1      6476    3    0    1
 -2       401       324      2869      2876
 -1      6477    3    0    1
 -2       340      1019      2317      2485
 -1      6478    3    0    1
 -2      1033       346      2317      2485
 -1      6479    3    0    1
 -2      1004       663      2166      2652
 -1      6480    3    0    1
 -2      2373      2230      2573      2944
 -1      6481    3    0    1
 -2       187       347      2434      2590
 -1      6482    3    0    1
 -2      1724      1805      2148      2745
 -1      6483    3    0    1
 -2      2093       967      2118      2580
 -1      6484    3    0    1
 -2      1810      1868      2438      2490
 -1      6485    3    0    1
 -2      1810      1652      1965      2490
 -1      6486    3    0    1
 -2      1868      1810      1965      2490
 -1      6487    3    0    1
 -2      1591      1561      2369      2490
 -1      6488    3    0    1
 -2      1561      1591      2083      2490
 -1      6489    3    0    1
 -2      2083      1591      2369      2490
 -1      6490    3    0    1
 -2      2083      1810      2438      2490
 -1      6491    3    0    1
 -2       655      2228      2306      2492
 -1      6492    3    0    1
 -2      1530      2266      2707      2721
 -1      6493    3    0    1
 -2      1533      1868      2171      2541
 -1      6494    3    0    1
 -2      1570      1580      2321      2517
 -1      6495    3    0    1
 -2      1159       389      1801      2808
 -1      6496    3    0    1
 -2      1801       389      2445      2808
 -1      6497    3    0    1
 -2       389      2060      2445      2808
 -1      6498    3    0    1
 -2      2304      1054      2446      2494
 -1      6499    3    0    1
 -2      1185      2003      2288      2732
 -1      6500    3    0    1
 -2       225       422      1054      2494
 -1      6501    3    0    1
 -2      2374      2152      2618      2922
 -1      6502    3    0    1
 -2      2922      2572      2925      2926
 -1      6503    3    0    1
 -2       634       651      1246      2496
 -1      6504    3    0    1
 -2       651       999      1246      2496
 -1      6505    3    0    1
 -2      2492      2540      2699      2805
 -1      6506    3    0    1
 -2       930       519      2232      2497
 -1      6507    3    0    1
 -2      2232       519      2450      2497
 -1      6508    3    0    1
 -2        36      2267      2690      2725
 -1      6509    3    0    1
 -2      1574      2303      2628      2846
 -1      6510    3    0    1
 -2      1541      2177      2797      2901
 -1      6511    3    0    1
 -2      1523      1668      1983      2594
 -1      6512    3    0    1
 -2      1611      1987      2333      2594
 -1      6513    3    0    1
 -2      1669      1653      1967      2555
 -1      6514    3    0    1
 -2      1918      2114      2283      2511
 -1      6515    3    0    1
 -2      2033      1723      2061      2643
 -1      6516    3    0    1
 -2      2389      1991      2635      2873
 -1      6517    3    0    1
 -2       291      2075      2456      2501
 -1      6518    3    0    1
 -2      2075       291      2283      2501
 -1      6519    3    0    1
 -2      2114      1914      2153      2501
 -1      6520    3    0    1
 -2      2075      2114      2153      2501
 -1      6521    3    0    1
 -2      1144       888      2478      2502
 -1      6522    3    0    1
 -2       119       350      2480      2503
 -1      6523    3    0    1
 -2       350       119       978      2503
 -1      6524    3    0    1
 -2       175       173      2350      2779
 -1      6525    3    0    1
 -2      1662      1224      2472      2504
 -1      6526    3    0    1
 -2      1825      2481      2762      2802
 -1      6527    3    0    1
 -2        68        66      1821      2885
 -1      6528    3    0    1
 -2      2480       107       973      2504
 -1      6529    3    0    1
 -2      2756      1699      2771      2873
 -1      6530    3    0    1
 -2       173       367      2591      2779
 -1      6531    3    0    1
 -2       914       486      2596      2835
 -1      6532    3    0    1
 -2      2062      1013      2735      2779
 -1      6533    3    0    1
 -2      2389      1699      2872      2873
 -1      6534    3    0    1
 -2        66        68       943      2885
 -1      6535    3    0    1
 -2       973      1662      2480      2504
 -1      6536    3    0    1
 -2       973      1224      1662      2504
 -1      6537    3    0    1
 -2       107       357      1224      2504
 -1      6538    3    0    1
 -2       107      2480       973       350
 -1      6539    3    0    1
 -2       973      2504       107      1224
 -1      6540    3    0    1
 -2      1530      2635      2837      2873
 -1      6541    3    0    1
 -2      1971      1841      2489      2508
 -1      6542    3    0    1
 -2      1839      2034      2207      2508
 -1      6543    3    0    1
 -2       405       930      2816      2894
 -1      6544    3    0    1
 -2      2267      2690      2725      2894
 -1      6545    3    0    1
 -2      1066       250      2592      2750
 -1      6546    3    0    1
 -2       711      1020      1032      2507
 -1      6547    3    0    1
 -2       711       688      1020      2507
 -1      6548    3    0    1
 -2       421      2067      2339      2761
 -1      6549    3    0    1
 -2      1067      2253      2499      2509
 -1      6550    3    0    1
 -2      1067       774      2253      2509
 -1      6551    3    0    1
 -2       774      2347      2470      2509
 -1      6552    3    0    1
 -2       776       774      2470      2509
 -1      6553    3    0    1
 -2       774       776      2253      2509
 -1      6554    3    0    1
 -2      2253       776      2470      2509
 -1      6555    3    0    1
 -2      1887      1543      2397      2617
 -1      6556    3    0    1
 -2       462       903      1914      2511
 -1      6557    3    0    1
 -2      1914       903      2501      2511
 -1      6558    3    0    1
 -2      2114      1914      2501      2511
 -1      6559    3    0    1
 -2       807      1605      2290      2513
 -1      6560    3    0    1
 -2      1712      1763      2168      2627
 -1      6561    3    0    1
 -2      2511      1914      2586      2616
 -1      6562    3    0    1
 -2       410      2011      2184      2512
 -1      6563    3    0    1
 -2      2380      2388      2666      2812
 -1      6564    3    0    1
 -2      2388      2661      2666      2812
 -1      6565    3    0    1
 -2       268      1083      1974      2513
 -1      6566    3    0    1
 -2      1067      2380      2666      2812
 -1      6567    3    0    1
 -2      1664      2264      2526      2711
 -1      6568    3    0    1
 -2      2212      2264      2650      2711
 -1      6569    3    0    1
 -2      1422      3092      1463      3116
 -1      6570    3    0    1
 -2       929      1418      3085      3106
 -1      6571    3    0    1
 -2       377      3136      3009      3039
 -1      6572    3    0    1
 -2      1299      1576      2304      2669
 -1      6573    3    0    1
 -2      1556      1979      2240      2515
 -1      6574    3    0    1
 -2      1748      1903      2240      2515
 -1      6575    3    0    1
 -2      1903      1556      2240      2515
 -1      6576    3    0    1
 -2       783      2252      2436      2516
 -1      6577    3    0    1
 -2      1071       783      2067      2516
 -1      6578    3    0    1
 -2      2067       783      2436      2516
 -1      6579    3    0    1
 -2      2252       783      1058      2516
 -1      6580    3    0    1
 -2      1118      2622      2757      2876
 -1      6581    3    0    1
 -2      1058       783      1071      2516
 -1      6582    3    0    1
 -2       783      2252      1058       760
 -1      6583    3    0    1
 -2      1321      1080      2229      2519
 -1      6584    3    0    1
 -2      1547      1611      2113      2739
 -1      6585    3    0    1
 -2       261       419      2303      2519
 -1      6586    3    0    1
 -2       419       261      1321      2519
 -1      6587    3    0    1
 -2       261      1080      1321      2519
 -1      6588    3    0    1
 -2      1635      1547      2113      2739
 -1      6589    3    0    1
 -2      2038      1572      2333      2739
 -1      6590    3    0    1
 -2      2057       558      2567      2680
 -1      6591    3    0    1
 -2       559       558       952      2680
 -1      6592    3    0    1
 -2       950       558      2057      2680
 -1      6593    3    0    1
 -2       655      2228      2492      2540
 -1      6594    3    0    1
 -2      1552      2146      2457      2571
 -1      6595    3    0    1
 -2      2146      1552      2192      2571
 -1      6596    3    0    1
 -2      1552      2031      2192      2571
 -1      6597    3    0    1
 -2      2954      1425      3094      3120
 -1      6598    3    0    1
 -2      1030       704      1747      2522
 -1      6599    3    0    1
 -2       992      2185      2367      2545
 -1      6600    3    0    1
 -2       992       639      2185      2545
 -1      6601    3    0    1
 -2      1812      1575      2082      2523
 -1      6602    3    0    1
 -2      1604      1812      2082      2523
 -1      6603    3    0    1
 -2      1575      1604      2082      2523
 -1      6604    3    0    1
 -2      1709      1675      1812      2523
 -1      6605    3    0    1
 -2      1709      1604      2103      2523
 -1      6606    3    0    1
 -2      1675      1709      2103      2523
 -1      6607    3    0    1
 -2      1046       216      2274      2815
 -1      6608    3    0    1
 -2      2274       216      2425      2815
 -1      6609    3    0    1
 -2       860       859      1997      2525
 -1      6610    3    0    1
 -2      1374       859       860      2525
 -1      6611    3    0    1
 -2      1973      1725      1997      2525
 -1      6612    3    0    1
 -2       859      1114      1973      2525
 -1      6613    3    0    1
 -2       859      1374      1114      2525
 -1      6614    3    0    1
 -2       859      1973      1997      2525
 -1      6615    3    0    1
 -2       422      1054      2494      2731
 -1      6616    3    0    1
 -2      1221       580      1760      2670
 -1      6617    3    0    1
 -2      1541      2096      2561      2630
 -1      6618    3    0    1
 -2      2264      2212      2425      2527
 -1      6619    3    0    1
 -2      2212      2264      2526      2527
 -1      6620    3    0    1
 -2      1867      2510      2569      2630
 -1      6621    3    0    1
 -2      2622      1991      2757      2876
 -1      6622    3    0    1
 -2       405       406      2705      2816
 -1      6623    3    0    1
 -2      1092       822      2431      2709
 -1      6624    3    0    1
 -2      2096      2115      2248      2630
 -1      6625    3    0    1
 -2      1766       273      1899      2588
 -1      6626    3    0    1
 -2       380      1085      2290      2588
 -1      6627    3    0    1
 -2      1783      1755      2111      2528
 -1      6628    3    0    1
 -2      1864      1933      2173      2813
 -1      6629    3    0    1
 -2       908       412      2174      2552
 -1      6630    3    0    1
 -2      1580      1570      2299      2551
 -1      6631    3    0    1
 -2       413       412      2207      2552
 -1      6632    3    0    1
 -2      2249      2117      2469      2621
 -1      6633    3    0    1
 -2      1072       784      2324      2831
 -1      6634    3    0    1
 -2      1572      1866      2038      2662
 -1      6635    3    0    1
 -2      1032       187      1618      2590
 -1      6636    3    0    1
 -2      2434      1032      2507      2590
 -1      6637    3    0    1
 -2      1587      1728      2397      2574
 -1      6638    3    0    1
 -2       187      2434      2579      2590
 -1      6639    3    0    1
 -2      1542       907      2294      2685
 -1      6640    3    0    1
 -2      1941      1858      1944      2563
 -1      6641    3    0    1
 -2       808      1085      1335      2660
 -1      6642    3    0    1
 -2       347      1032      2434      2590
 -1      6643    3    0    1
 -2       365       368      1012      2531
 -1      6644    3    0    1
 -2       368       366      1012      2531
 -1      6645    3    0    1
 -2      1858      1941      2230      2563
 -1      6646    3    0    1
 -2      1012       366      1258      2531
 -1      6647    3    0    1
 -2      2057      1875      2680      2767
 -1      6648    3    0    1
 -2       243      1833      2161      2849
 -1      6649    3    0    1
 -2       332      1005      2591      2699
 -1      6650    3    0    1
 -2      2177      2634      2645      2817
 -1      6651    3    0    1
 -2      1004      2166      2547      2652
 -1      6652    3    0    1
 -2       640       993      2305      2652
 -1      6653    3    0    1
 -2       336       992      2367      2655
 -1      6654    3    0    1
 -2      2762      1825      2802      2834
 -1      6655    3    0    1
 -2      2150      1569      2248      2698
 -1      6656    3    0    1
 -2       754       771      1065      2533
 -1      6657    3    0    1
 -2      2115      2096      2248      2698
 -1      6658    3    0    1
 -2       754      1065      1301      2533
 -1      6659    3    0    1
 -2      2166       993      2547      2652
 -1      6660    3    0    1
 -2        82      1745      2535      2605
 -1      6661    3    0    1
 -2      2441      2031      2478      2785
 -1      6662    3    0    1
 -2      2041        46      2604        55
 -1      6663    3    0    1
 -2        46       406       930      2537
 -1      6664    3    0    1
 -2      2177       876      2634      2817
 -1      6665    3    0    1
 -2      2232       930      2497      2537
 -1      6666    3    0    1
 -2       931      2232      2422      2537
 -1      6667    3    0    1
 -2        46       931      2041      2537
 -1      6668    3    0    1
 -2      2041       931      2422      2537
 -1      6669    3    0    1
 -2        46       930       931      2537
 -1      6670    3    0    1
 -2       931       930      2232      2537
 -1      6671    3    0    1
 -2      1646      1769      2171      2541
 -1      6672    3    0    1
 -2      1769      1646      1909      2541
 -1      6673    3    0    1
 -2      1644      1610      1909      2541
 -1      6674    3    0    1
 -2      1644      1920      2183      2541
 -1      6675    3    0    1
 -2      1610      1644      2183      2541
 -1      6676    3    0    1
 -2      1920      1644      2170      2541
 -1      6677    3    0    1
 -2      1868      1920      2170      2541
 -1      6678    3    0    1
 -2      1868      1909      2171      2541
 -1      6679    3    0    1
 -2      1909      1646      2171      2541
 -1      6680    3    0    1
 -2      1868      1644      1909      2541
 -1      6681    3    0    1
 -2      1644      1868      2170      2541
 -1      6682    3    0    1
 -2       414       316      2203      2543
 -1      6683    3    0    1
 -2       679       678      2062      2838
 -1      6684    3    0    1
 -2       991       639      2654      2818
 -1      6685    3    0    1
 -2       316      1131      1388      2543
 -1      6686    3    0    1
 -2       316       414      1131      2543
 -1      6687    3    0    1
 -2      2134       414      2203      2543
 -1      6688    3    0    1
 -2      1131       414      2134      2543
 -1      6689    3    0    1
 -2      1991      2298      2389      2635
 -1      6690    3    0    1
 -2      2361      1747      2522      2544
 -1      6691    3    0    1
 -2      1018       687      2591      2656
 -1      6692    3    0    1
 -2      2562       664      2646      2656
 -1      6693    3    0    1
 -2       980       639       992      2545
 -1      6694    3    0    1
 -2       980       992      1930      2545
 -1      6695    3    0    1
 -2       616       639       980      2545
 -1      6696    3    0    1
 -2      1758      1865      1871      2546
 -1      6697    3    0    1
 -2      1871      1865      2366      2546
 -1      6698    3    0    1
 -2      1523      1865      2351      2546
 -1      6699    3    0    1
 -2      1523      1864      2366      2546
 -1      6700    3    0    1
 -2      1865      1523      2366      2546
 -1      6701    3    0    1
 -2      1741      1649      2266      2795
 -1      6702    3    0    1
 -2      2379       101      2420      2795
 -1      6703    3    0    1
 -2      1960      2143      2329      2548
 -1      6704    3    0    1
 -2      2146      1960      2329      2548
 -1      6705    3    0    1
 -2      1083       272      2332      2811
 -1      6706    3    0    1
 -2      1549      1551      2120      2550
 -1      6707    3    0    1
 -2      2120      1551      2231      2550
 -1      6708    3    0    1
 -2      1841      1971      2231      2550
 -1      6709    3    0    1
 -2      1600       411      2231      2550
 -1      6710    3    0    1
 -2      1551      1600      2231      2550
 -1      6711    3    0    1
 -2       411       914      2231      2550
 -1      6712    3    0    1
 -2      1600      1551      1795      2550
 -1      6713    3    0    1
 -2       411      1600      1795      2550
 -1      6714    3    0    1
 -2      1971      1841      2035      2550
 -1      6715    3    0    1
 -2      1549      1971      2035      2550
 -1      6716    3    0    1
 -2      1549      2120      2401      2550
 -1      6717    3    0    1
 -2      1971      1549      2401      2550
 -1      6718    3    0    1
 -2      1971      2120      2231      2550
 -1      6719    3    0    1
 -2      2120      1971      2401      2550
 -1      6720    3    0    1
 -2       412       413      2174      2552
 -1      6721    3    0    1
 -2      2174       413      2247      2552
 -1      6722    3    0    1
 -2      1866       445      2340      2701
 -1      6723    3    0    1
 -2      2011      2510      2569      2703
 -1      6724    3    0    1
 -2       295       445      1099      2701
 -1      6725    3    0    1
 -2       412       908      2044      2552
 -1      6726    3    0    1
 -2      1611      1758      1987      2594
 -1      6727    3    0    1
 -2      1596      2040      2623      2683
 -1      6728    3    0    1
 -2      2123      2269      2270      2555
 -1      6729    3    0    1
 -2      2123      1653      2269      2555
 -1      6730    3    0    1
 -2      1590      1967      2270      2555
 -1      6731    3    0    1
 -2      1967      2123      2270      2555
 -1      6732    3    0    1
 -2       896       887      1958      2556
 -1      6733    3    0    1
 -2      1142      1152      2340      2556
 -1      6734    3    0    1
 -2       887      1152      1142      2556
 -1      6735    3    0    1
 -2      1152       887       896      2556
 -1      6736    3    0    1
 -2      1152       896      2340      2556
 -1      6737    3    0    1
 -2      1438      3101      3131      1481
 -1      6738    3    0    1
 -2      2115      1569      2248      2569
 -1      6739    3    0    1
 -2      1640      1587      1729      2676
 -1      6740    3    0    1
 -2       117      1470      1473      1493
 -1      6741    3    0    1
 -2      1729      1587      2272      2676
 -1      6742    3    0    1
 -2       134       139       994      2558
 -1      6743    3    0    1
 -2       991       134       994      2558
 -1      6744    3    0    1
 -2      1640      1729      2272      2676
 -1      6745    3    0    1
 -2      1422      2956      3092      3116
 -1      6746    3    0    1
 -2      2040      2312      2576      2827
 -1      6747    3    0    1
 -2       639       991       994      2558
 -1      6748    3    0    1
 -2      1448      1441      1479      3061
 -1      6749    3    0    1
 -2      2185       994       639       640
 -1      6750    3    0    1
 -2       994      2185       639      2558
 -1      6751    3    0    1
 -2      1922      1706      2546      2813
 -1      6752    3    0    1
 -2       187      1027      1277      2560
 -1      6753    3    0    1
 -2       173       367      1018      2591
 -1      6754    3    0    1
 -2       967      1578      2118      2580
 -1      6755    3    0    1
 -2      1767      1628      2225      2576
 -1      6756    3    0    1
 -2      1787       802      2432      2828
 -1      6757    3    0    1
 -2      1596      2040      2312      2576
 -1      6758    3    0    1
 -2       783      1070      2309      2689
 -1      6759    3    0    1
 -2      2047      1059      2436      2689
 -1      6760    3    0    1
 -2      1636      2059      2636      2745
 -1      6761    3    0    1
 -2      1014       678      2801      2803
 -1      6762    3    0    1
 -2      1544      2046      2202      2762
 -1      6763    3    0    1
 -2      2148      1636      2636      2745
 -1      6764    3    0    1
 -2       822      2167      2431      2709
 -1      6765    3    0    1
 -2      2167       822      2600      2709
 -1      6766    3    0    1
 -2       822      2362      2600      2709
 -1      6767    3    0    1
 -2      1033      2485      2749      2809
 -1      6768    3    0    1
 -2      1618       711      2507      2809
 -1      6769    3    0    1
 -2      2485      2507      2749      2809
 -1      6770    3    0    1
 -2       808      2290      2336      2710
 -1      6771    3    0    1
 -2       508      1185      2288      2602
 -1      6772    3    0    1
 -2      2362      1906      2553      2600
 -1      6773    3    0    1
 -2       822      2362      2553      2600
 -1      6774    3    0    1
 -2      1922      1706      2361      2624
 -1      6775    3    0    1
 -2      1907       511      2172      2604
 -1      6776    3    0    1
 -2       511       928      2172      2604
 -1      6777    3    0    1
 -2       928       511      1907      2604
 -1      6778    3    0    1
 -2      2705      2686      2821      2854
 -1      6779    3    0    1
 -2      2246      1091      2553      2600
 -1      6780    3    0    1
 -2       369      1706      1922      2624
 -1      6781    3    0    1
 -2       430       431      1162      2566
 -1      6782    3    0    1
 -2       430      1162      1173      2566
 -1      6783    3    0    1
 -2        37       430      1173      2566
 -1      6784    3    0    1
 -2       822      1091      2167      2600
 -1      6785    3    0    1
 -2       799      2229      2486      2789
 -1      6786    3    0    1
 -2      1974       268      2811      2887
 -1      6787    3    0    1
 -2       687      1018      2591      2787
 -1      6788    3    0    1
 -2       558       950       952      2680
 -1      6789    3    0    1
 -2      1040      1289      2322      2597
 -1      6790    3    0    1
 -2      1175      2268      2521      2570
 -1      6791    3    0    1
 -2        23      1175      2521      2570
 -1      6792    3    0    1
 -2      1564      1944      2352      2572
 -1      6793    3    0    1
 -2      1016      1422      2956      3092
 -1      6794    3    0    1
 -2      1453      1439      3120      3042
 -1      6795    3    0    1
 -2      2722      2373      2769      2945
 -1      6796    3    0    1
 -2      1082      1332      1743      3099
 -1      6797    3    0    1
 -2      1409      1082      2916      3099
 -1      6798    3    0    1
 -2       157      1256      2532      2720
 -1      6799    3    0    1
 -2      2430      2048      2954      3094
 -1      6800    3    0    1
 -2      1839       913      2489      2877
 -1      6801    3    0    1
 -2      1256       654      1630      2720
 -1      6802    3    0    1
 -2      1995      1969      2397      2574
 -1      6803    3    0    1
 -2       214      2159      2459      2575
 -1      6804    3    0    1
 -2       195       214      2459      2575
 -1      6805    3    0    1
 -2       214       195      2159      2575
 -1      6806    3    0    1
 -2      1277       193      2560      2575
 -1      6807    3    0    1
 -2       193       195      1035      2575
 -1      6808    3    0    1
 -2       193      1035      1618      2575
 -1      6809    3    0    1
 -2       195       193      1277      2575
 -1      6810    3    0    1
 -2      1596      1859      2427      2576
 -1      6811    3    0    1
 -2      1628      1596      2312      2576
 -1      6812    3    0    1
 -2      1596      1628      1859      2576
 -1      6813    3    0    1
 -2       778       771      1309      2632
 -1      6814    3    0    1
 -2      1069       778      1309      2632
 -1      6815    3    0    1
 -2      1829      2315      2691      2733
 -1      6816    3    0    1
 -2       459      2273      2614      2717
 -1      6817    3    0    1
 -2      2352      1942      2631      2931
 -1      6818    3    0    1
 -2      2068      2631      2929      2955
 -1      6819    3    0    1
 -2      2352      2372      2930      2931
 -1      6820    3    0    1
 -2       347       178      1268      2579
 -1      6821    3    0    1
 -2       682       699      1268      2579
 -1      6822    3    0    1
 -2      2144       592      2093      2580
 -1      6823    3    0    1
 -2       592      2144      2093       615
 -1      6824    3    0    1
 -2       142       136      2282      2581
 -1      6825    3    0    1
 -2       682      1268      2589      2830
 -1      6826    3    0    1
 -2      2145      2223      2482      2581
 -1      6827    3    0    1
 -2      2282      2301      2547      2581
 -1      6828    3    0    1
 -2       142      2282      2547      2581
 -1      6829    3    0    1
 -2      2301      2145      2482      2581
 -1      6830    3    0    1
 -2      1268       682      2579      2830
 -1      6831    3    0    1
 -2      2301      2482      2547      2581
 -1      6832    3    0    1
 -2       989       142      2223      2581
 -1      6833    3    0    1
 -2      2223       142      2482      2581
 -1      6834    3    0    1
 -2      2482       142      2547      2581
 -1      6835    3    0    1
 -2       586       604      1662      2582
 -1      6836    3    0    1
 -2       977      1233      2495      2582
 -1      6837    3    0    1
 -2      2448       977      2495      2582
 -1      6838    3    0    1
 -2      1605      1073      2385      2583
 -1      6839    3    0    1
 -2      1954      1042      2425      2879
 -1      6840    3    0    1
 -2      2013      2129      2265      2584
 -1      6841    3    0    1
 -2       416      2392      2500      2584
 -1      6842    3    0    1
 -2      1687      1673      2443      2856
 -1      6843    3    0    1
 -2       418       416      2013      2584
 -1      6844    3    0    1
 -2       418      2013      2265      2584
 -1      6845    3    0    1
 -2      2521      2381      2570      2585
 -1      6846    3    0    1
 -2      2268      2521      2570      2585
 -1      6847    3    0    1
 -2      2208       904      2383      2586
 -1      6848    3    0    1
 -2      1763      2077      2168      2627
 -1      6849    3    0    1
 -2      1728      1599      2626      2628
 -1      6850    3    0    1
 -2      1161       463      2078      2586
 -1      6851    3    0    1
 -2      1161       462       463      2586
 -1      6852    3    0    1
 -2       462       905       463      2586
 -1      6853    3    0    1
 -2       905      1914      2207      2586
 -1      6854    3    0    1
 -2      1161      2078      2383      2586
 -1      6855    3    0    1
 -2       904      1161      2383      2586
 -1      6856    3    0    1
 -2       462      1161       904      2586
 -1      6857    3    0    1
 -2      2078       463      2207      2586
 -1      6858    3    0    1
 -2       463       905      2207      2586
 -1      6859    3    0    1
 -2       905       462       903      2586
 -1      6860    3    0    1
 -2       903       462      1914      2586
 -1      6861    3    0    1
 -2       905       903      1914      2586
 -1      6862    3    0    1
 -2       259      2290      2354      2588
 -1      6863    3    0    1
 -2       380       259      2354      2588
 -1      6864    3    0    1
 -2       259       380      2290      2588
 -1      6865    3    0    1
 -2      1406      2190      2210      2796
 -1      6866    3    0    1
 -2        32        38      2255      2909
 -1      6867    3    0    1
 -2       784      1072      2067      2831
 -1      6868    3    0    1
 -2      1268      1012       675      2589
 -1      6869    3    0    1
 -2      1836       747      2597      2792
 -1      6870    3    0    1
 -2      1161         9      2383      2780
 -1      6871    3    0    1
 -2      1344       837      1343      2726
 -1      6872    3    0    1
 -2      2368       908      2552      2700
 -1      6873    3    0    1
 -2      1985       943      2399      2885
 -1      6874    3    0    1
 -2      1057       759      2487      2657
 -1      6875    3    0    1
 -2      2044      1839      2552      2700
 -1      6876    3    0    1
 -2       974      1880      2181      2751
 -1      6877    3    0    1
 -2      2098      2345      2620      2823
 -1      6878    3    0    1
 -2      1671      2265      2623      2683
 -1      6879    3    0    1
 -2      1588       391      1667      2593
 -1      6880    3    0    1
 -2       974      1880      2751      2823
 -1      6881    3    0    1
 -2      1611      1523      1865      2594
 -1      6882    3    0    1
 -2      1773       559      2680      2712
 -1      6883    3    0    1
 -2      1351      1350      2707      2860
 -1      6884    3    0    1
 -2       486       487      1175      2596
 -1      6885    3    0    1
 -2      1677      2217      2272      2676
 -1      6886    3    0    1
 -2      1160      2273      2716      2866
 -1      6887    3    0    1
 -2      1288       424      2595      2864
 -1      6888    3    0    1
 -2      1599      1677      2272      2676
 -1      6889    3    0    1
 -2      1919      1984      2663      2851
 -1      6890    3    0    1
 -2      1377      1118      2757      2876
 -1      6891    3    0    1
 -2      2427      2559      2789      2820
 -1      6892    3    0    1
 -2      1018       173      2591      2787
 -1      6893    3    0    1
 -2       212       211      1289      2597
 -1      6894    3    0    1
 -2       359       212      1289      2597
 -1      6895    3    0    1
 -2      1052       359      1289      2597
 -1      6896    3    0    1
 -2       747      1052      1289      2597
 -1      6897    3    0    1
 -2       730       747      1289      2597
 -1      6898    3    0    1
 -2      1835      1288      2595      2864
 -1      6899    3    0    1
 -2      1162      1173      2566      2599
 -1      6900    3    0    1
 -2       994       640      2185      2674
 -1      6901    3    0    1
 -2      2208      2011      2512      2616
 -1      6902    3    0    1
 -2       483       466      1929      2599
 -1      6903    3    0    1
 -2      1929       466      2273      2599
 -1      6904    3    0    1
 -2      2258       472      2368      2603
 -1      6905    3    0    1
 -2       916       490      1929      2615
 -1      6906    3    0    1
 -2       466       483      1173      2599
 -1      6907    3    0    1
 -2       243      1894      2849      2902
 -1      6908    3    0    1
 -2      1162       466      1173      2599
 -1      6909    3    0    1
 -2      1535       342      1829      2733
 -1      6910    3    0    1
 -2      1267      1014      2477      2733
 -1      6911    3    0    1
 -2       663      2166      2652      2833
 -1      6912    3    0    1
 -2      2305       640      2652      2833
 -1      6913    3    0    1
 -2      1853       514      2288      2602
 -1      6914    3    0    1
 -2      1003      1583      2646      2833
 -1      6915    3    0    1
 -2        46      2041      2604      2537
 -1      6916    3    0    1
 -2      1548        55      2041      2604
 -1      6917    3    0    1
 -2        55      1548      1702      2604
 -1      6918    3    0    1
 -2        46        55       928      2604
 -1      6919    3    0    1
 -2       928        55      1702      2604
 -1      6920    3    0    1
 -2      2227        82      2535      2605
 -1      6921    3    0    1
 -2       370        82      2227      2605
 -1      6922    3    0    1
 -2       370      2227      2464      2605
 -1      6923    3    0    1
 -2      1096       832      2294      2783
 -1      6924    3    0    1
 -2      1096      2348      2409      2783
 -1      6925    3    0    1
 -2      2317      1726      2323      2606
 -1      6926    3    0    1
 -2       175       340      1015      2606
 -1      6927    3    0    1
 -2      1015       340      2323      2606
 -1      6928    3    0    1
 -2       340      2317      2323      2606
 -1      6929    3    0    1
 -2      2089      2102      2149      2607
 -1      6930    3    0    1
 -2      1855       582      2102      2607
 -1      6931    3    0    1
 -2      2102       962      2149      2607
 -1      6932    3    0    1
 -2       582       962      2102      2607
 -1      6933    3    0    1
 -2      2021       952      2529      2608
 -1      6934    3    0    1
 -2      2417      2021      2529      2608
 -1      6935    3    0    1
 -2      2020      2417      2529      2608
 -1      6936    3    0    1
 -2        89      2349      2529      2608
 -1      6937    3    0    1
 -2       952        89      2529      2608
 -1      6938    3    0    1
 -2      2466      1720      2777      2781
 -1      6939    3    0    1
 -2      2124      1527      2249      2781
 -1      6940    3    0    1
 -2      2219      2124      2249      2781
 -1      6941    3    0    1
 -2      2207      2078      2508      2609
 -1      6942    3    0    1
 -2      2388      2380      2666      2774
 -1      6943    3    0    1
 -2      1056       359      2679      2713
 -1      6944    3    0    1
 -2      1629      1782      2587      2774
 -1      6945    3    0    1
 -2      1411      2670      3087      3131
 -1      6946    3    0    1
 -2       735      1044      2291      2612
 -1      6947    3    0    1
 -2      2291      1044      2536      2612
 -1      6948    3    0    1
 -2       428      1138      1136      2625
 -1      6949    3    0    1
 -2      1035       712      2536      2612
 -1      6950    3    0    1
 -2      1044      1035      2536      2612
 -1      6951    3    0    1
 -2       439       428      1141      2625
 -1      6952    3    0    1
 -2      2119      2117      2357      2625
 -1      6953    3    0    1
 -2      2117      2119      2463      2625
 -1      6954    3    0    1
 -2       712       735      1034      2612
 -1      6955    3    0    1
 -2      1034       735      1045      2612
 -1      6956    3    0    1
 -2       735       712      1044      2612
 -1      6957    3    0    1
 -2       712      1035      1044      2612
 -1      6958    3    0    1
 -2       224       423      2008      2613
 -1      6959    3    0    1
 -2       224      2008      2524      2613
 -1      6960    3    0    1
 -2      2008       423      2327      2613
 -1      6961    3    0    1
 -2      1929       483      2599      2615
 -1      6962    3    0    1
 -2         9      2035      2780      2898
 -1      6963    3    0    1
 -2       483       490      1176      2615
 -1      6964    3    0    1
 -2      1841      2609      2841      2898
 -1      6965    3    0    1
 -2       483      1173      2599      2615
 -1      6966    3    0    1
 -2      1173       483      1176      2615
 -1      6967    3    0    1
 -2      2208       462      2586      2616
 -1      6968    3    0    1
 -2      1918      2114      2511      2616
 -1      6969    3    0    1
 -2      2185       640      2305      2674
 -1      6970    3    0    1
 -2       904       462      2208      2616
 -1      6971    3    0    1
 -2      2511       904      2512      2616
 -1      6972    3    0    1
 -2      1918      2511      2512      2616
 -1      6973    3    0    1
 -2       462       904      2511      2616
 -1      6974    3    0    1
 -2      1614      2154      2168      2627
 -1      6975    3    0    1
 -2      2154      1712      2168      2627
 -1      6976    3    0    1
 -2      2488      1055      2651      2915
 -1      6977    3    0    1
 -2      2918      3090      3092      3095
 -1      6978    3    0    1
 -2       987      2064      2449      2619
 -1      6979    3    0    1
 -2      2018       987      2449      2619
 -1      6980    3    0    1
 -2       344       125      2064      2619
 -1      6981    3    0    1
 -2      2064       125      2447      2619
 -1      6982    3    0    1
 -2       125      1857      2447      2619
 -1      6983    3    0    1
 -2       125       344      1857      2619
 -1      6984    3    0    1
 -2       134       344       987      2619
 -1      6985    3    0    1
 -2      2387      2298      2622      2844
 -1      6986    3    0    1
 -2      2115      2797      2861      2901
 -1      6987    3    0    1
 -2      2177      2634      2848      2901
 -1      6988    3    0    1
 -2      1942      1944      2631      2758
 -1      6989    3    0    1
 -2      1454      3007      1494      3038
 -1      6990    3    0    1
 -2      1352       841       842      2870
 -1      6991    3    0    1
 -2      2500       416      2584      2708
 -1      6992    3    0    1
 -2      2561      2009      2565      2708
 -1      6993    3    0    1
 -2      1130      2177      2634      2848
 -1      6994    3    0    1
 -2      3109      1460      3136      1486
 -1      6995    3    0    1
 -2      2040      1671      2129      2623
 -1      6996    3    0    1
 -2      2265       418      2584      2623
 -1      6997    3    0    1
 -2      2129      2265      2584      2623
 -1      6998    3    0    1
 -2      2129      1671      2265      2623
 -1      6999    3    0    1
 -2      1862      1793      2540      2805
 -1      7000    3    0    1
 -2      3096      2577      1461      2987
 -1      7001    3    0    1
 -2      2338       369      2544      2624
 -1      7002    3    0    1
 -2       369      1922      2544      2624
 -1      7003    3    0    1
 -2      2061      1737      2617      2626
 -1      7004    3    0    1
 -2      1543      1574      1728      2626
 -1      7005    3    0    1
 -2      1574      1543      1737      2626
 -1      7006    3    0    1
 -2       261      1574      2303      2628
 -1      7007    3    0    1
 -2      2217      1677      2320      2628
 -1      7008    3    0    1
 -2       261      2217      2320      2628
 -1      7009    3    0    1
 -2      1574      1728      2626      2628
 -1      7010    3    0    1
 -2      1574       261      1677      2628
 -1      7011    3    0    1
 -2      1677       261      2320      2628
 -1      7012    3    0    1
 -2      1574      1677      1728      2628
 -1      7013    3    0    1
 -2       750      1299      2007      2629
 -1      7014    3    0    1
 -2      2264      2526      2527      2629
 -1      7015    3    0    1
 -2       223       425      1057      2747
 -1      7016    3    0    1
 -2       759      2487      2520      2747
 -1      7017    3    0    1
 -2       425       223      1576      2747
 -1      7018    3    0    1
 -2      2526      2007      2527      2629
 -1      7019    3    0    1
 -2      2248      2115      2569      2630
 -1      7020    3    0    1
 -2      2510      2248      2569      2630
 -1      7021    3    0    1
 -2      2500      2096      2510      2630
 -1      7022    3    0    1
 -2        29      1177      2039      2825
 -1      7023    3    0    1
 -2      2096      2248      2510      2630
 -1      7024    3    0    1
 -2      1256      1001      2720      2868
 -1      7025    3    0    1
 -2      2358      2068      2563      2631
 -1      7026    3    0    1
 -2      1858      1944      2563      2631
 -1      7027    3    0    1
 -2      1944      1858      2352      2631
 -1      7028    3    0    1
 -2      1942      1944      2352      2631
 -1      7029    3    0    1
 -2       895      2357      2402      2759
 -1      7030    3    0    1
 -2       317       409      2633      2848
 -1      7031    3    0    1
 -2      2402      2357      2696      2759
 -1      7032    3    0    1
 -2       398      1964      2065      2859
 -1      7033    3    0    1
 -2      1151       895      2402      2759
 -1      7034    3    0    1
 -2      2096      1541      2561      2797
 -1      7035    3    0    1
 -2      1210       398      2259      2859
 -1      7036    3    0    1
 -2       317      1339      1342      2633
 -1      7037    3    0    1
 -2      2636      1894      2753      2849
 -1      7038    3    0    1
 -2       663      1003      1006      2646
 -1      7039    3    0    1
 -2      1857       991      2654      2818
 -1      7040    3    0    1
 -2      1132       875      1130      2634
 -1      7041    3    0    1
 -2       876      1132      2177      2634
 -1      7042    3    0    1
 -2       875      1132       876      2634
 -1      7043    3    0    1
 -2      1540      1636      1894      2636
 -1      7044    3    0    1
 -2      1894      1636      2195      2636
 -1      7045    3    0    1
 -2      1943      1564      2289      2638
 -1      7046    3    0    1
 -2      1945      2152      2572      2638
 -1      7047    3    0    1
 -2      1080      2229      2839      2895
 -1      7048    3    0    1
 -2       425      2527      2629      2730
 -1      7049    3    0    1
 -2      2527      2264      2629      2730
 -1      7050    3    0    1
 -2      1564      1943      1945      2638
 -1      7051    3    0    1
 -2      1564      1945      2572      2638
 -1      7052    3    0    1
 -2       723       706      2237      2639
 -1      7053    3    0    1
 -2      2159       723      2237      2639
 -1      7054    3    0    1
 -2       699      1277      1027      2639
 -1      7055    3    0    1
 -2       699      1027      2050      2639
 -1      7056    3    0    1
 -2      1040       723      2159      2639
 -1      7057    3    0    1
 -2       706      1040      1277      2639
 -1      7058    3    0    1
 -2       706       723      1040      2639
 -1      7059    3    0    1
 -2      1778      1634      1792      2640
 -1      7060    3    0    1
 -2      1792      1708      2216      2640
 -1      7061    3    0    1
 -2      1778      1792      2216      2640
 -1      7062    3    0    1
 -2      2151      1850      2549      2641
 -1      7063    3    0    1
 -2       338      2179      2549      2641
 -1      7064    3    0    1
 -2      2179       338      2335      2641
 -1      7065    3    0    1
 -2       338       403      2335      2641
 -1      7066    3    0    1
 -2       403      1850      1982      2641
 -1      7067    3    0    1
 -2      1850       403      2549      2641
 -1      7068    3    0    1
 -2       403       338      2549      2641
 -1      7069    3    0    1
 -2       664      1006      1017      2642
 -1      7070    3    0    1
 -2      1723      1737      2061      2643
 -1      7071    3    0    1
 -2      1528      1737      2277      2643
 -1      7072    3    0    1
 -2      1737      1723      2277      2643
 -1      7073    3    0    1
 -2       263       268      1974      2644
 -1      7074    3    0    1
 -2       268       263      1079      2644
 -1      7075    3    0    1
 -2      2229      1081      2486      2644
 -1      7076    3    0    1
 -2      1079       263      1081      2644
 -1      7077    3    0    1
 -2       799      1081      2229      2644
 -1      7078    3    0    1
 -2       807      1605      2513      2896
 -1      7079    3    0    1
 -2       263      1974      2486      2644
 -1      7080    3    0    1
 -2      1081       263      2486      2644
 -1      7081    3    0    1
 -2      1593      1999      2475      2800
 -1      7082    3    0    1
 -2      2307      2106      2475      2800
 -1      7083    3    0    1
 -2      1110      2106      2307      2800
 -1      7084    3    0    1
 -2      1371      2155      2400      2800
 -1      7085    3    0    1
 -2       663       664      1005      2646
 -1      7086    3    0    1
 -2      2268      2037      2570      2675
 -1      7087    3    0    1
 -2      1004       663      1005      2646
 -1      7088    3    0    1
 -2      1004      1005      2532      2646
 -1      7089    3    0    1
 -2      1005      2186      2532      2646
 -1      7090    3    0    1
 -2       776      2253      2470      2648
 -1      7091    3    0    1
 -2      2325      1722      2424      2648
 -1      7092    3    0    1
 -2      1722      2278      2424      2648
 -1      7093    3    0    1
 -2       776      1935      2278      2648
 -1      7094    3    0    1
 -2      2278      1935      2424      2648
 -1      7095    3    0    1
 -2      1935       776      2470      2648
 -1      7096    3    0    1
 -2      2325      2253      2453      2648
 -1      7097    3    0    1
 -2      2161      2325      2453      2648
 -1      7098    3    0    1
 -2      2253      2325      2470      2648
 -1      7099    3    0    1
 -2      2325      2424      2470      2648
 -1      7100    3    0    1
 -2      2424      1935      2470      2648
 -1      7101    3    0    1
 -2       682      1016      1275      2649
 -1      7102    3    0    1
 -2       699       682      1275      2649
 -1      7103    3    0    1
 -2      2264      1042      2425      2650
 -1      7104    3    0    1
 -2      2212      2264      2425      2650
 -1      7105    3    0    1
 -2       559       952      2021      2712
 -1      7106    3    0    1
 -2       754       771      2533      2651
 -1      7107    3    0    1
 -2      2117      2311      2734      2793
 -1      7108    3    0    1
 -2      1298      1836      2488      2651
 -1      7109    3    0    1
 -2      1055      1298      2488      2651
 -1      7110    3    0    1
 -2       754      1055      1309      2651
 -1      7111    3    0    1
 -2       771       754      1309      2651
 -1      7112    3    0    1
 -2      1526      1665      1919      2851
 -1      7113    3    0    1
 -2      1665      1526      2328      2851
 -1      7114    3    0    1
 -2       991       981      1857      2654
 -1      7115    3    0    1
 -2       616      1707      2653      2654
 -1      7116    3    0    1
 -2      1707       616      2545      2654
 -1      7117    3    0    1
 -2      2690      2037      2715      2819
 -1      7118    3    0    1
 -2      2037       487      2715      2819
 -1      7119    3    0    1
 -2       639       616       991      2654
 -1      7120    3    0    1
 -2       616       981       991      2654
 -1      7121    3    0    1
 -2      1961      2238      2418      2655
 -1      7122    3    0    1
 -2      1311      1065       771      2659
 -1      7123    3    0    1
 -2      2238       336      2418      2655
 -1      7124    3    0    1
 -2       771      1065      2533      2659
 -1      7125    3    0    1
 -2       992       336      1930      2655
 -1      7126    3    0    1
 -2       336      2238      2418      2024
 -1      7127    3    0    1
 -2      2036       989      2223      2829
 -1      7128    3    0    1
 -2       759       736      2520      2657
 -1      7129    3    0    1
 -2      1068       251      2339      2761
 -1      7130    3    0    1
 -2      1054      2446      2494      2731
 -1      7131    3    0    1
 -2      1244       989       630      2658
 -1      7132    3    0    1
 -2       630      1961      2418      2658
 -1      7133    3    0    1
 -2      2434      1268      2579      2830
 -1      7134    3    0    1
 -2       336      2418      2655      2658
 -1      7135    3    0    1
 -2       630       631      2029      2658
 -1      7136    3    0    1
 -2       631       630       989      2658
 -1      7137    3    0    1
 -2      1244       630      2418      2658
 -1      7138    3    0    1
 -2       336      1244      2418      2658
 -1      7139    3    0    1
 -2       778       771      2632      2659
 -1      7140    3    0    1
 -2       136       989      2175      2829
 -1      7141    3    0    1
 -2       435      1065      1311      2659
 -1      7142    3    0    1
 -2      2385      1311       435       433
 -1      7143    3    0    1
 -2      2465      2308      2601      2696
 -1      7144    3    0    1
 -2      2039      1177      2368      2862
 -1      7145    3    0    1
 -2       435       248      1065      2659
 -1      7146    3    0    1
 -2      1991      2622      2635      2876
 -1      7147    3    0    1
 -2      1311      2385       435      2659
 -1      7148    3    0    1
 -2      1611      1987      2182      2662
 -1      7149    3    0    1
 -2      2333      1631      1987      2662
 -1      7150    3    0    1
 -2      1631      2333      1987      1654
 -1      7151    3    0    1
 -2      1919      1771      2012      2663
 -1      7152    3    0    1
 -2      1919      1984      2595      2663
 -1      7153    3    0    1
 -2      1771      1919      2595      2663
 -1      7154    3    0    1
 -2      1526      1919      2012      2663
 -1      7155    3    0    1
 -2      2098      2345      2755      2853
 -1      7156    3    0    1
 -2       368       365      1017      2744
 -1      7157    3    0    1
 -2      2562      1017      2642      2744
 -1      7158    3    0    1
 -2      1222       583       582      2664
 -1      7159    3    0    1
 -2       405      2816      2854      2894
 -1      7160    3    0    1
 -2      1222       582      1855      2664
 -1      7161    3    0    1
 -2       963       583      2664      2853
 -1      7162    3    0    1
 -2       963       348      1578      2664
 -1      7163    3    0    1
 -2      1578       348      2403      2664
 -1      7164    3    0    1
 -2       366       368      1006      2744
 -1      7165    3    0    1
 -2      1833       246      2499      2882
 -1      7166    3    0    1
 -2      2664       583      2755      2853
 -1      7167    3    0    1
 -2      2345      2098      2620      2853
 -1      7168    3    0    1
 -2       422      2494      2807      2907
 -1      7169    3    0    1
 -2       487      1175      2596      2675
 -1      7170    3    0    1
 -2      1764      2913      2949      3086
 -1      7171    3    0    1
 -2      1246       139      2018      2667
 -1      7172    3    0    1
 -2       353       140      1246      2667
 -1      7173    3    0    1
 -2       999       353      1246      2667
 -1      7174    3    0    1
 -2       156       353       999      2667
 -1      7175    3    0    1
 -2       140       139      1246      2667
 -1      7176    3    0    1
 -2       573      1214      1215      2994
 -1      7177    3    0    1
 -2      2514      1031      2937      1426
 -1      7178    3    0    1
 -2      3022       546      1509      3060
 -1      7179    3    0    1
 -2       425       223      1299      2669
 -1      7180    3    0    1
 -2       953      1760      2090      2670
 -1      7181    3    0    1
 -2       953      1221      1760      2670
 -1      7182    3    0    1
 -2      1221       586       580      2670
 -1      7183    3    0    1
 -2       580       586      1760      2670
 -1      7184    3    0    1
 -2      1760       586      2137      2670
 -1      7185    3    0    1
 -2      1221       964       586      2670
 -1      7186    3    0    1
 -2       586       964      2137      2670
 -1      7187    3    0    1
 -2        32        29      2908      2909
 -1      7188    3    0    1
 -2      1136       428      2625      2793
 -1      7189    3    0    1
 -2      2786        23      2826      2863
 -1      7190    3    0    1
 -2      2500      1867      2510      2673
 -1      7191    3    0    1
 -2      1641      1825      2295      2834
 -1      7192    3    0    1
 -2       140       139      2667      2674
 -1      7193    3    0    1
 -2       139       994      2558      2674
 -1      7194    3    0    1
 -2       139       140       994      2674
 -1      7195    3    0    1
 -2       353       140      2667      2674
 -1      7196    3    0    1
 -2      1583       353      2667      2674
 -1      7197    3    0    1
 -2      1003       353      1583      2674
 -1      7198    3    0    1
 -2       139      2018      2667      2674
 -1      7199    3    0    1
 -2      2018       139      2558      2674
 -1      7200    3    0    1
 -2      1768      1612      2295      2834
 -1      7201    3    0    1
 -2      1825      1641      2802      2834
 -1      7202    3    0    1
 -2       994       140      1003      2674
 -1      7203    3    0    1
 -2       140       353      1003      2674
 -1      7204    3    0    1
 -2      1780      1586      2479      2677
 -1      7205    3    0    1
 -2      2198      2196      2479      2677
 -1      7206    3    0    1
 -2      1586      2198      2479      2677
 -1      7207    3    0    1
 -2      1625      1733      2407      2678
 -1      7208    3    0    1
 -2      1625      2219      2300      2678
 -1      7209    3    0    1
 -2      2300      2219      2302      2678
 -1      7210    3    0    1
 -2      1596      2040      2427      2727
 -1      7211    3    0    1
 -2      2362      2600      2709      2727
 -1      7212    3    0    1
 -2      2303      1574      2738      2846
 -1      7213    3    0    1
 -2      2362      1685      2600      2727
 -1      7214    3    0    1
 -2      2134      2634      2645      2799
 -1      7215    3    0    1
 -2      1600       411      1795      2863
 -1      7216    3    0    1
 -2      1528      1574      1737      2846
 -1      7217    3    0    1
 -2      1524      1708      2154      2681
 -1      7218    3    0    1
 -2       294       314      1126      2681
 -1      7219    3    0    1
 -2      1381      1763      2220      2681
 -1      7220    3    0    1
 -2       294      1381      2220      2681
 -1      7221    3    0    1
 -2       294      1126      1381      2681
 -1      7222    3    0    1
 -2       606      2181      2751      2823
 -1      7223    3    0    1
 -2      1666      2554      2585      2682
 -1      7224    3    0    1
 -2      1880       124      2345      2823
 -1      7225    3    0    1
 -2      1092      1333      2392      2824
 -1      7226    3    0    1
 -2      1880      2345      2751      2823
 -1      7227    3    0    1
 -2      1258      1012      2531      2684
 -1      7228    3    0    1
 -2      1906      2363      2553      2768
 -1      7229    3    0    1
 -2      2363      2246      2553      2768
 -1      7230    3    0    1
 -2       658      1258      2313      2684
 -1      7231    3    0    1
 -2      1906      1685      2486      2768
 -1      7232    3    0    1
 -2      2567      2057      2680      2767
 -1      7233    3    0    1
 -2       658       675      1012      2684
 -1      7234    3    0    1
 -2       658      1012      1258      2684
 -1      7235    3    0    1
 -2       471       907      1542      2685
 -1      7236    3    0    1
 -2        12       415       907      2685
 -1      7237    3    0    1
 -2      1914        12      2247      2685
 -1      7238    3    0    1
 -2       471      1542      2258      2685
 -1      7239    3    0    1
 -2      2174       471      2258      2685
 -1      7240    3    0    1
 -2      2153      2294      2456      2685
 -1      7241    3    0    1
 -2       415      2153      2456      2685
 -1      7242    3    0    1
 -2      2294       907      2456      2685
 -1      7243    3    0    1
 -2       415      1914      2153      2685
 -1      7244    3    0    1
 -2       415        12      1914      2685
 -1      7245    3    0    1
 -2       907       415      2456      2685
 -1      7246    3    0    1
 -2      1544      1612      2109      2687
 -1      7247    3    0    1
 -2      1612      1544      1768      2687
 -1      7248    3    0    1
 -2      2015      1874      2370      2687
 -1      7249    3    0    1
 -2      1612      1874      2015      2687
 -1      7250    3    0    1
 -2      1612      2015      2637      2687
 -1      7251    3    0    1
 -2      2647      2324      2332      2688
 -1      7252    3    0    1
 -2      2324      2647      2332       272
 -1      7253    3    0    1
 -2      2332      2424      2647      2688
 -1      7254    3    0    1
 -2      1935       383      2278      2688
 -1      7255    3    0    1
 -2      1935      2278      2424      2688
 -1      7256    3    0    1
 -2      2424      2278      2647      2688
 -1      7257    3    0    1
 -2      2278       383      2647      2688
 -1      7258    3    0    1
 -2      1070       248      2309      2689
 -1      7259    3    0    1
 -2       917      2724      2862       495
 -1      7260    3    0    1
 -2      1569      2150      2194      2698
 -1      7261    3    0    1
 -2       495       917      2700      2862
 -1      7262    3    0    1
 -2        37       430      2566      2706
 -1      7263    3    0    1
 -2        23      1175      2570      2826
 -1      7264    3    0    1
 -2      2506      2485      2507      2749
 -1      7265    3    0    1
 -2      1019      2317      2485      2749
 -1      7266    3    0    1
 -2       430        37       909      2706
 -1      7267    3    0    1
 -2       909      2039      2603      2706
 -1      7268    3    0    1
 -2       679      2243      2323      2691
 -1      7269    3    0    1
 -2      1267       679      1759      2691
 -1      7270    3    0    1
 -2      1267      1759      2315      2691
 -1      7271    3    0    1
 -2      1759       679      2323      2691
 -1      7272    3    0    1
 -2      2210      1139      2796      2858
 -1      7273    3    0    1
 -2       440      1151       442      2858
 -1      7274    3    0    1
 -2      1084       268       797      1083
 -1      7275    3    0    1
 -2       543      1985       943       544
 -1      7276    3    0    1
 -2      1985       543       943      2692
 -1      7277    3    0    1
 -2      2308      1755      2476      2694
 -1      7278    3    0    1
 -2      1755      2308      2465      2694
 -1      7279    3    0    1
 -2      2006      2008      2311      2694
 -1      7280    3    0    1
 -2      2119      2006      2311      2694
 -1      7281    3    0    1
 -2      2006      2119      2357      2694
 -1      7282    3    0    1
 -2      2357      2119      2465      2694
 -1      7283    3    0    1
 -2      2308      2357      2465      2694
 -1      7284    3    0    1
 -2      2006      2357      2476      2694
 -1      7285    3    0    1
 -2      2357      2308      2476      2694
 -1      7286    3    0    1
 -2      2268      1666      2585      2695
 -1      7287    3    0    1
 -2      2177      2561      2634      2797
 -1      7288    3    0    1
 -2      1573      2465      2601      2696
 -1      7289    3    0    1
 -2      2210      1573      2601      2696
 -1      7290    3    0    1
 -2      2309       435      2659      2697
 -1      7291    3    0    1
 -2       376       252      2047      2697
 -1      7292    3    0    1
 -2      2134      1131      2543      2817
 -1      7293    3    0    1
 -2       248       252      1065      2697
 -1      7294    3    0    1
 -2      1177      2039      2724      2862
 -1      7295    3    0    1
 -2      2115      1569      2194      2698
 -1      7296    3    0    1
 -2      1793      2492      2540      2699
 -1      7297    3    0    1
 -2       423      2051      2327      2842
 -1      7298    3    0    1
 -2      2051       423      2275      2842
 -1      7299    3    0    1
 -2      2559      2229      2789      2820
 -1      7300    3    0    1
 -2      2035      1971      2401      2780
 -1      7301    3    0    1
 -2      2486      2765      2789      2820
 -1      7302    3    0    1
 -2      2235      2035      2401      2780
 -1      7303    3    0    1
 -2       908      2044      2552      2700
 -1      7304    3    0    1
 -2        35      1839      2044      2700
 -1      7305    3    0    1
 -2      2634      2134      2645      2817
 -1      7306    3    0    1
 -2       688      2506      2507      2749
 -1      7307    3    0    1
 -2      1301       754      2533      2792
 -1      7308    3    0    1
 -2       427       323      1343      2726
 -1      7309    3    0    1
 -2       930       918      2293      2725
 -1      7310    3    0    1
 -2      2622      1118      2869      2876
 -1      7311    3    0    1
 -2       688      1019      2506      2749
 -1      7312    3    0    1
 -2      2683      2623      2727      2824
 -1      7313    3    0    1
 -2      1301      2533      2704      2792
 -1      7314    3    0    1
 -2       908       917      2044      2700
 -1      7315    3    0    1
 -2       917        35      2044      2700
 -1      7316    3    0    1
 -2      2510      2011      2673      2703
 -1      7317    3    0    1
 -2      1876      2500      2673      2703
 -1      7318    3    0    1
 -2      1065      1301      2533      2704
 -1      7319    3    0    1
 -2      2047       376      2697      2704
 -1      7320    3    0    1
 -2       230       376      2047      2704
 -1      7321    3    0    1
 -2      1136      2621      2117      1138
 -1      7322    3    0    1
 -2       428      2463      2625      2793
 -1      7323    3    0    1
 -2      2311      2117      2463      2793
 -1      7324    3    0    1
 -2       252      1065      2697      2704
 -1      7325    3    0    1
 -2       376       252      2697      2704
 -1      7326    3    0    1
 -2       376       230      1301      2704
 -1      7327    3    0    1
 -2      1065       376      1301      2704
 -1      7328    3    0    1
 -2       252       376      1065      2704
 -1      7329    3    0    1
 -2       406        46       926      2705
 -1      7330    3    0    1
 -2       926       928      1907      2705
 -1      7331    3    0    1
 -2      1907       928      2604      2705
 -1      7332    3    0    1
 -2       926        46       928      2705
 -1      7333    3    0    1
 -2       928        46      2604      2705
 -1      7334    3    0    1
 -2       405       406       926      2705
 -1      7335    3    0    1
 -2       909        37      1177      2706
 -1      7336    3    0    1
 -2      1439      1453      3134      1482
 -1      7337    3    0    1
 -2       401       324      1350      2707
 -1      7338    3    0    1
 -2      2540      1793      2699      2805
 -1      7339    3    0    1
 -2       363      1449      1456      1462
 -1      7340    3    0    1
 -2      1941      1858      2230      2722
 -1      7341    3    0    1
 -2        67        68      2776      2885
 -1      7342    3    0    1
 -2       822      1092      2362      2709
 -1      7343    3    0    1
 -2      2046       333      2439      2790
 -1      7344    3    0    1
 -2      2290       807      2513      2710
 -1      7345    3    0    1
 -2       807      1083      2513      2710
 -1      7346    3    0    1
 -2      1083       807      1084      2710
 -1      7347    3    0    1
 -2      1974      1084       268       263
 -1      7348    3    0    1
 -2      2710       268      1084      1083
 -1      7349    3    0    1
 -2      1084      1974       268      2710
 -1      7350    3    0    1
 -2      1083       268      1974      2710
 -1      7351    3    0    1
 -2      2325      1560      2738      2741
 -1      7352    3    0    1
 -2      1722      2325      2738      2741
 -1      7353    3    0    1
 -2      2325      1722      2648      2741
 -1      7354    3    0    1
 -2      1560      2325      2648      2741
 -1      7355    3    0    1
 -2      1210       559      1830      2712
 -1      7356    3    0    1
 -2      1047      1056      2176      2713
 -1      7357    3    0    1
 -2       212       359      1056      2713
 -1      7358    3    0    1
 -2      1047       212      1056      2713
 -1      7359    3    0    1
 -2      2425       216      2730      2815
 -1      7360    3    0    1
 -2      1046      2274      2487      2815
 -1      7361    3    0    1
 -2      1447      1422      1463      3116
 -1      7362    3    0    1
 -2      2406      1016      2956      3092
 -1      7363    3    0    1
 -2      1743      1094      1888      2716
 -1      7364    3    0    1
 -2       459      1160      2273      2716
 -1      7365    3    0    1
 -2       157      1001      1256      2868
 -1      7366    3    0    1
 -2      1462       642      3014      3048
 -1      7367    3    0    1
 -2      2631      2911      2946      2962
 -1      7368    3    0    1
 -2      1094       826      1888      2716
 -1      7369    3    0    1
 -2       349      2379      2810      2893
 -1      7370    3    0    1
 -2       459      1094      1160      2716
 -1      7371    3    0    1
 -2       459       826      1094      2716
 -1      7372    3    0    1
 -2      2313       658      2684      2718
 -1      7373    3    0    1
 -2       332       160      2186      2868
 -1      7374    3    0    1
 -2       658      1002      1266      2718
 -1      7375    3    0    1
 -2       675       658      1266      2718
 -1      7376    3    0    1
 -2       655      1001      2492      2720
 -1      7377    3    0    1
 -2       655       654      1001      2720
 -1      7378    3    0    1
 -2      2635      1530      2837      2869
 -1      7379    3    0    1
 -2       795       788       787      2978
 -1      7380    3    0    1
 -2      2194      2150      2474      2861
 -1      7381    3    0    1
 -2      1632      2194      2474      2861
 -1      7382    3    0    1
 -2      2150      2194      2698      2861
 -1      7383    3    0    1
 -2      1059      2047      2451      2723
 -1      7384    3    0    1
 -2      1059      2451      2679      2723
 -1      7385    3    0    1
 -2       228       230      1059      2723
 -1      7386    3    0    1
 -2      1056      1059      2679      2723
 -1      7387    3    0    1
 -2       228      1056      2679      2723
 -1      7388    3    0    1
 -2      1056       228      1059      2723
 -1      7389    3    0    1
 -2      2521      2421      2539      2826
 -1      7390    3    0    1
 -2      2421      2521      2570      2826
 -1      7391    3    0    1
 -2      2061      1737      2626      2846
 -1      7392    3    0    1
 -2      1528      1737      2061      2846
 -1      7393    3    0    1
 -2      1177       919       496      2724
 -1      7394    3    0    1
 -2       711       688      2507      2749
 -1      7395    3    0    1
 -2       495       496       918      2724
 -1      7396    3    0    1
 -2       411        23      2786      2863
 -1      7397    3    0    1
 -2      1177       496       495      2724
 -1      7398    3    0    1
 -2      1919      1771      2595      2864
 -1      7399    3    0    1
 -2       917       495       918      2724
 -1      7400    3    0    1
 -2      2711      1288      2740      2864
 -1      7401    3    0    1
 -2      2521        23      2570      2826
 -1      7402    3    0    1
 -2       424      1919      2595      2864
 -1      7403    3    0    1
 -2      2317      1033      2485      2749
 -1      7404    3    0    1
 -2       838      1344      2678      2726
 -1      7405    3    0    1
 -2       837      1344       838      2726
 -1      7406    3    0    1
 -2       323      2302      2678      2726
 -1      7407    3    0    1
 -2      1596      2362      2683      2727
 -1      7408    3    0    1
 -2      2362      1092      2683      2727
 -1      7409    3    0    1
 -2       930      2293      2497      2894
 -1      7410    3    0    1
 -2       930      2497      2816      2894
 -1      7411    3    0    1
 -2      2690        36      2725      2894
 -1      7412    3    0    1
 -2      2389      1699      2551      2872
 -1      7413    3    0    1
 -2      1699      2299      2551      2872
 -1      7414    3    0    1
 -2      2299      1580      2551      2872
 -1      7415    3    0    1
 -2      2293        36      2806      2894
 -1      7416    3    0    1
 -2      2644      1079      2887      2895
 -1      7417    3    0    1
 -2       930      2497      2537      2816
 -1      7418    3    0    1
 -2       406      2537      2705      2816
 -1      7419    3    0    1
 -2      1080       798      2229      2895
 -1      7420    3    0    1
 -2      1131      2134      2634      2817
 -1      7421    3    0    1
 -2       752      2285      2446      2731
 -1      7422    3    0    1
 -2      1185      2288      2602      2732
 -1      7423    3    0    1
 -2       490      2602      2615      2732
 -1      7424    3    0    1
 -2       916       490      2615      2732
 -1      7425    3    0    1
 -2       651       658      1002      2995
 -1      7426    3    0    1
 -2      1417      3113      1488      1489
 -1      7427    3    0    1
 -2      2602      1185       490       508
 -1      7428    3    0    1
 -2       490       916      1185      2732
 -1      7429    3    0    1
 -2      1185      2602       490      2732
 -1      7430    3    0    1
 -2      1014       343      2477      2733
 -1      7431    3    0    1
 -2       342      1014      1267      2733
 -1      7432    3    0    1
 -2       343       342      1535      2733
 -1      7433    3    0    1
 -2       342       343      1014      2733
 -1      7434    3    0    1
 -2       342      1267      2315      2733
 -1      7435    3    0    1
 -2      2008      2006      2311      2734
 -1      7436    3    0    1
 -2      2466      2008      2524      2734
 -1      7437    3    0    1
 -2      1527      2466      2524      2734
 -1      7438    3    0    1
 -2      1527      2008      2311      2734
 -1      7439    3    0    1
 -2      2008      1527      2524      2734
 -1      7440    3    0    1
 -2       679      1015      2243      2735
 -1      7441    3    0    1
 -2      1015       679      2062      2735
 -1      7442    3    0    1
 -2      2062       679      2243      2735
 -1      7443    3    0    1
 -2         9      2235      2383      2780
 -1      7444    3    0    1
 -2       918      2293      2724      2900
 -1      7445    3    0    1
 -2      1679      1774      2414      2736
 -1      7446    3    0    1
 -2      1774      1679      2405      2736
 -1      7447    3    0    1
 -2       952        89      2608      2840
 -1      7448    3    0    1
 -2      2405      2077      2414      2736
 -1      7449    3    0    1
 -2      1774      2405      2414      2736
 -1      7450    3    0    1
 -2      1349      1346      1774      2737
 -1      7451    3    0    1
 -2       313       407      1346      2737
 -1      7452    3    0    1
 -2       313      1349      2414      2737
 -1      7453    3    0    1
 -2       313      1346      1349      2737
 -1      7454    3    0    1
 -2      1349      1774      2414      2737
 -1      7455    3    0    1
 -2      2771      2756      2795      2893
 -1      7456    3    0    1
 -2      1773       952      2712      2840
 -1      7457    3    0    1
 -2      2028      2408      2471      2742
 -1      7458    3    0    1
 -2        89        80      2413      2840
 -1      7459    3    0    1
 -2      2021       952      2608      2840
 -1      7460    3    0    1
 -2        80      1773      2413      2840
 -1      7461    3    0    1
 -2      2024       976      2238      2742
 -1      7462    3    0    1
 -2      1961      2024      2238      2742
 -1      7463    3    0    1
 -2       784      2324      2831      2896
 -1      7464    3    0    1
 -2      2583       784      2831      2896
 -1      7465    3    0    1
 -2      1560      1574      2738      2741
 -1      7466    3    0    1
 -2      1574       261      2303      2741
 -1      7467    3    0    1
 -2      2303       261      2738      2741
 -1      7468    3    0    1
 -2      1574      2303      2738      2741
 -1      7469    3    0    1
 -2      2024      1961      2042      2742
 -1      7470    3    0    1
 -2       976      2024      2471      2742
 -1      7471    3    0    1
 -2      2024      1563      2471      2742
 -1      7472    3    0    1
 -2      1859      1596      2427      2789
 -1      7473    3    0    1
 -2       582      1855      2664      2743
 -1      7474    3    0    1
 -2       583       582      2664      2743
 -1      7475    3    0    1
 -2       582       583      1223      2743
 -1      7476    3    0    1
 -2       962      2379      2607      2743
 -1      7477    3    0    1
 -2       962      1223      2379      2743
 -1      7478    3    0    1
 -2       962       582      1223      2743
 -1      7479    3    0    1
 -2       582       962      2607      2743
 -1      7480    3    0    1
 -2      1855       582      2607      2743
 -1      7481    3    0    1
 -2      1699      2389      2635      2873
 -1      7482    3    0    1
 -2      1782      1636      1805      2745
 -1      7483    3    0    1
 -2      1573      1782      1805      2745
 -1      7484    3    0    1
 -2      2264      2526      2629      2746
 -1      7485    3    0    1
 -2      2264      1664      2526      2746
 -1      7486    3    0    1
 -2      1664      1771      2526      2746
 -1      7487    3    0    1
 -2      1771      1664      2410      2746
 -1      7488    3    0    1
 -2      2071      1771      2410      2746
 -1      7489    3    0    1
 -2      2071      1053      2416      2746
 -1      7490    3    0    1
 -2      2071      2007      2526      2746
 -1      7491    3    0    1
 -2      1771      2071      2526      2746
 -1      7492    3    0    1
 -2      2007      2071      2416      2746
 -1      7493    3    0    1
 -2      2326       759      2520      2747
 -1      7494    3    0    1
 -2        15      1159      1162      2808
 -1      7495    3    0    1
 -2       225       223      1058      2747
 -1      7496    3    0    1
 -2       389        15      2060      2808
 -1      7497    3    0    1
 -2      2293       918      2724      2748
 -1      7498    3    0    1
 -2        36        27       918      2748
 -1      7499    3    0    1
 -2        36       918      2293      2748
 -1      7500    3    0    1
 -2       917        33      2700      2748
 -1      7501    3    0    1
 -2        27        33       917      2748
 -1      7502    3    0    1
 -2        27       917       918      2748
 -1      7503    3    0    1
 -2       918       917      2724      2748
 -1      7504    3    0    1
 -2      2724       917      2862      2748
 -1      7505    3    0    1
 -2       411      1600      2231      2863
 -1      7506    3    0    1
 -2      2431      1092      2709      2824
 -1      7507    3    0    1
 -2      1092      2683      2727      2824
 -1      7508    3    0    1
 -2      1540      2148      2636      2753
 -1      7509    3    0    1
 -2      1540      2377      2419      2753
 -1      7510    3    0    1
 -2      1807      1540      2419      2753
 -1      7511    3    0    1
 -2      1894      1540      2636      2753
 -1      7512    3    0    1
 -2      2037       487      2819      2850
 -1      7513    3    0    1
 -2      2377      1842      2419      2753
 -1      7514    3    0    1
 -2      1842      1807      2419      2753
 -1      7515    3    0    1
 -2      1540      2087      2377      2753
 -1      7516    3    0    1
 -2       795       802      1787      2828
 -1      7517    3    0    1
 -2       778       795      1787      2828
 -1      7518    3    0    1
 -2       426      1042      1287      2879
 -1      7519    3    0    1
 -2      2274      1046      2578      2754
 -1      7520    3    0    1
 -2       426      1046      2274      2754
 -1      7521    3    0    1
 -2       426       345      1046      2754
 -1      7522    3    0    1
 -2      1045       736      1046      2754
 -1      7523    3    0    1
 -2      1046       736      2578      2754
 -1      7524    3    0    1
 -2       736      2291      2578      2754
 -1      7525    3    0    1
 -2       736       735      2291      2754
 -1      7526    3    0    1
 -2      1045       735       736      2754
 -1      7527    3    0    1
 -2      2267      1666      2690      2854
 -1      7528    3    0    1
 -2      2705       405      2816      2854
 -1      7529    3    0    1
 -2      2821      2705       405       926
 -1      7530    3    0    1
 -2       799      1321      2559      2789
 -1      7531    3    0    1
 -2        37      2039      2706      2855
 -1      7532    3    0    1
 -2      2705      2821       405      2854
 -1      7533    3    0    1
 -2      2035      2235      2401      2772
 -1      7534    3    0    1
 -2       679      2243      2691      2838
 -1      7535    3    0    1
 -2      2216      1614      2235      2772
 -1      7536    3    0    1
 -2      1944      1941      2563      2758
 -1      7537    3    0    1
 -2      1944      2563      2631      2758
 -1      7538    3    0    1
 -2      1541      2096      2115      2797
 -1      7539    3    0    1
 -2      1301       747       754      2792
 -1      7540    3    0    1
 -2       754       747      1055      2792
 -1      7541    3    0    1
 -2      2285      2275      2446      2760
 -1      7542    3    0    1
 -2      2275      2285      2388      2760
 -1      7543    3    0    1
 -2      2388      2285      2661      2760
 -1      7544    3    0    1
 -2      1298      1836      2651      2792
 -1      7545    3    0    1
 -2      2533       754      2651      2792
 -1      7546    3    0    1
 -2      1717      2731      2750      2760
 -1      7547    3    0    1
 -2      2285      1717      2661      2760
 -1      7548    3    0    1
 -2       369      1287      1706      2763
 -1      7549    3    0    1
 -2       999      1258      2766      2880
 -1      7550    3    0    1
 -2       651       999      2496      2880
 -1      7551    3    0    1
 -2       999       651      2313      2880
 -1      7552    3    0    1
 -2      1258      2313      2766      2880
 -1      7553    3    0    1
 -2       369       345      1287      2763
 -1      7554    3    0    1
 -2      1753      2225      2292      2764
 -1      7555    3    0    1
 -2       795      1320      2049      2828
 -1      7556    3    0    1
 -2       366      1258      2531      2766
 -1      7557    3    0    1
 -2      1006       366      2744      2881
 -1      7558    3    0    1
 -2      2562      1006      2744      2881
 -1      7559    3    0    1
 -2       366       158      2766      2881
 -1      7560    3    0    1
 -2       156       158      1583      2766
 -1      7561    3    0    1
 -2       158       156      1258      2766
 -1      7562    3    0    1
 -2       246      1833      2195      2882
 -1      7563    3    0    1
 -2      2666      2195      2774      2882
 -1      7564    3    0    1
 -2      2195      2059      2774      2882
 -1      7565    3    0    1
 -2      2531       366      2766      2881
 -1      7566    3    0    1
 -2       156       999      1258      2766
 -1      7567    3    0    1
 -2       366       158      1258      2766
 -1      7568    3    0    1
 -2      2373      2289      2722      2769
 -1      7569    3    0    1
 -2      1417      1185      1418      3074
 -1      7570    3    0    1
 -2      2920      2915      3107      3119
 -1      7571    3    0    1
 -2      2289      2671      2722      2769
 -1      7572    3    0    1
 -2      2929      2068      2955      3139
 -1      7573    3    0    1
 -2       365      1996      2744      2770
 -1      7574    3    0    1
 -2      1996       365      2744      1017
 -1      7575    3    0    1
 -2       783       784      2067      2831
 -1      7576    3    0    1
 -2      2531       365      2744      2770
 -1      7577    3    0    1
 -2       490      1176      2615      2897
 -1      7578    3    0    1
 -2       783      2067      2309      2831
 -1      7579    3    0    1
 -2      1013       367      2779      2884
 -1      7580    3    0    1
 -2      1998      1614      2611      2772
 -1      7581    3    0    1
 -2      1614      1998      2235      2772
 -1      7582    3    0    1
 -2      2235      1998      2611      2772
 -1      7583    3    0    1
 -2      2216         9      2640      2772
 -1      7584    3    0    1
 -2      1614      2216      2640      2772
 -1      7585    3    0    1
 -2      2102      2089      2149      2773
 -1      7586    3    0    1
 -2      2102      1645      2378      2773
 -1      7587    3    0    1
 -2      2378      1645      2610      2773
 -1      7588    3    0    1
 -2      2089      2102      2378      2773
 -1      7589    3    0    1
 -2      1826      1592      2089      2773
 -1      7590    3    0    1
 -2      2089      2378      2610      2773
 -1      7591    3    0    1
 -2      1826      2089      2610      2773
 -1      7592    3    0    1
 -2      2059      1782      2195      2774
 -1      7593    3    0    1
 -2      1020       688      1996      2883
 -1      7594    3    0    1
 -2      1595      2388      2666      2774
 -1      7595    3    0    1
 -2      1595      1629      2388      2774
 -1      7596    3    0    1
 -2      1629      1595      1782      2774
 -1      7597    3    0    1
 -2      2506       688      2507      2883
 -1      7598    3    0    1
 -2      1032      2434      2507      2883
 -1      7599    3    0    1
 -2      2195      1782      2666      2774
 -1      7600    3    0    1
 -2      1782      1595      2666      2774
 -1      7601    3    0    1
 -2      1124       307      2393      2775
 -1      7602    3    0    1
 -2      1122       307      1124      2775
 -1      7603    3    0    1
 -2       868      1124      2393      2775
 -1      7604    3    0    1
 -2       867      1124       868      2775
 -1      7605    3    0    1
 -2       307      1738      2393      2775
 -1      7606    3    0    1
 -2       954        84      1745      2776
 -1      7607    3    0    1
 -2        67        84       954      2776
 -1      7608    3    0    1
 -2       943        67       954      2776
 -1      7609    3    0    1
 -2      2263      1720      2407      2777
 -1      7610    3    0    1
 -2      2350       340      2606      2782
 -1      7611    3    0    1
 -2      1019      2485      2506      2749
 -1      7612    3    0    1
 -2      1526      1720      2263      2777
 -1      7613    3    0    1
 -2       106       373      2227      2778
 -1      7614    3    0    1
 -2      2227       373      2464      2778
 -1      7615    3    0    1
 -2       965      1751      2464      2778
 -1      7616    3    0    1
 -2       106       965      2464      2778
 -1      7617    3    0    1
 -2       965       106      1751      2778
 -1      7618    3    0    1
 -2      1224      2472      2504      2778
 -1      7619    3    0    1
 -2      1224       961      2472      2778
 -1      7620    3    0    1
 -2       357       961      1224      2778
 -1      7621    3    0    1
 -2       357      1224      2504      2778
 -1      7622    3    0    1
 -2       173       175      1015      2779
 -1      7623    3    0    1
 -2      1015       175      2735      2779
 -1      7624    3    0    1
 -2      1013       173      1015      2779
 -1      7625    3    0    1
 -2      1013      1015      2735      2779
 -1      7626    3    0    1
 -2      1825      1641      1873      2802
 -1      7627    3    0    1
 -2      2481      2202      2762      2802
 -1      7628    3    0    1
 -2       367       173      1013      2779
 -1      7629    3    0    1
 -2         9      2035      2772      2780
 -1      7630    3    0    1
 -2      2249      1527      2734      2781
 -1      7631    3    0    1
 -2      1625      2219      2407      2781
 -1      7632    3    0    1
 -2      1720      1625      2407      2781
 -1      7633    3    0    1
 -2      1720      1527      2124      2781
 -1      7634    3    0    1
 -2      1625      1720      2124      2781
 -1      7635    3    0    1
 -2      2317      1726      2606      2782
 -1      7636    3    0    1
 -2      1726      2317      2485      2782
 -1      7637    3    0    1
 -2       291      2075      2348      2783
 -1      7638    3    0    1
 -2      1096       291      2348      2783
 -1      7639    3    0    1
 -2       291      1096      2075      2783
 -1      7640    3    0    1
 -2      2294      2075      2456      2783
 -1      7641    3    0    1
 -2      1096      2294      2456      2783
 -1      7642    3    0    1
 -2      2075      1096      2456      2783
 -1      7643    3    0    1
 -2       955       956      1972      2784
 -1      7644    3    0    1
 -2       567       955      1972      2784
 -1      7645    3    0    1
 -2       955       567       956      2784
 -1      7646    3    0    1
 -2       567       957       568      2784
 -1      7647    3    0    1
 -2       957      1745      2605      2784
 -1      7648    3    0    1
 -2       957       567       954      2784
 -1      7649    3    0    1
 -2       954       567      1972      2784
 -1      7650    3    0    1
 -2       957       954      1745      2784
 -1      7651    3    0    1
 -2       954      1972      2399      2784
 -1      7652    3    0    1
 -2      1745       954      2399      2784
 -1      7653    3    0    1
 -2      2225      1628      2764      2827
 -1      7654    3    0    1
 -2      2312      1628      2576      2827
 -1      7655    3    0    1
 -2       216       426      2274      2879
 -1      7656    3    0    1
 -2      1526      2777      2851      2865
 -1      7657    3    0    1
 -2      1835      2595      2740      2864
 -1      7658    3    0    1
 -2        23      1613      1795      2786
 -1      7659    3    0    1
 -2      1613        23      2539      2786
 -1      7660    3    0    1
 -2       411        23      1795      2786
 -1      7661    3    0    1
 -2      1018       687      1019      2787
 -1      7662    3    0    1
 -2       175      1019      2350      2787
 -1      7663    3    0    1
 -2       175      1018      1019      2787
 -1      7664    3    0    1
 -2       688      1996      2506      2787
 -1      7665    3    0    1
 -2       688       687      1996      2787
 -1      7666    3    0    1
 -2       687       688      1019      2787
 -1      7667    3    0    1
 -2      1019       688      2506      2787
 -1      7668    3    0    1
 -2      2771      1530      2837      2873
 -1      7669    3    0    1
 -2      2686      2452      2821      2854
 -1      7670    3    0    1
 -2      2353      2202      2481      2889
 -1      7671    3    0    1
 -2      2228      2046      2306      2889
 -1      7672    3    0    1
 -2      2229       799      2644      2895
 -1      7673    3    0    1
 -2      2452      2554      2686      2821
 -1      7674    3    0    1
 -2      2427      2559      2728      2789
 -1      7675    3    0    1
 -2      2686       926      2705      2821
 -1      7676    3    0    1
 -2      2522      2361      2544      2813
 -1      7677    3    0    1
 -2      1066       774      2750      2791
 -1      7678    3    0    1
 -2      1864      1706      1922      2813
 -1      7679    3    0    1
 -2       754      1055      2651      2792
 -1      7680    3    0    1
 -2      1052      2222      2597      2792
 -1      7681    3    0    1
 -2       747      1052      2597      2792
 -1      7682    3    0    1
 -2      1052      1301      2222      2792
 -1      7683    3    0    1
 -2      2222      1301      2704      2792
 -1      7684    3    0    1
 -2      1055      1298      2651      2792
 -1      7685    3    0    1
 -2      1055       747      1298      2792
 -1      7686    3    0    1
 -2      2249      2117      2734      2793
 -1      7687    3    0    1
 -2      2117      2469      1136      2793
 -1      7688    3    0    1
 -2       339      2329      2548      2794
 -1      7689    3    0    1
 -2      1928      2045      2146      2794
 -1      7690    3    0    1
 -2      1928      2146      2329      2794
 -1      7691    3    0    1
 -2      1530      1649      2771      2795
 -1      7692    3    0    1
 -2      1649       101      2771      2795
 -1      7693    3    0    1
 -2      1210      2259      2712      2859
 -1      7694    3    0    1
 -2      1830      1210      2712      2859
 -1      7695    3    0    1
 -2      1830      1826      1964      2859
 -1      7696    3    0    1
 -2      1210      1830      1964      2859
 -1      7697    3    0    1
 -2      1964      1826      2065      2859
 -1      7698    3    0    1
 -2       562       961      1211      2798
 -1      7699    3    0    1
 -2      2634      2561      2645      2799
 -1      7700    3    0    1
 -2      1619      2126      2542      2799
 -1      7701    3    0    1
 -2      1541      2561      2634      2799
 -1      7702    3    0    1
 -2      2561      1541      2565      2799
 -1      7703    3    0    1
 -2      2009      2542      2645      2799
 -1      7704    3    0    1
 -2      2561      2009      2645      2799
 -1      7705    3    0    1
 -2      2542      2126      2645      2799
 -1      7706    3    0    1
 -2      1108      1110      2307      2800
 -1      7707    3    0    1
 -2      1371      1112      2155      2800
 -1      7708    3    0    1
 -2      1110       302       305      2800
 -1      7709    3    0    1
 -2       302      1371       305      2800
 -1      7710    3    0    1
 -2       302      1110      1108      2800
 -1      7711    3    0    1
 -2      1108      2307      2475      2800
 -1      7712    3    0    1
 -2       302      1108      2475      2800
 -1      7713    3    0    1
 -2      2155       302      2475      2800
 -1      7714    3    0    1
 -2      1371       302      1112      2800
 -1      7715    3    0    1
 -2      1112       302      2155      2800
 -1      7716    3    0    1
 -2      1043      1298      1836      2891
 -1      7717    3    0    1
 -2      1437      2912      2973      3101
 -1      7718    3    0    1
 -2      2871      2904      2940      2942
 -1      7719    3    0    1
 -2        68      1821      2776      2885
 -1      7720    3    0    1
 -2      2801      1862      2803      2890
 -1      7721    3    0    1
 -2      2353      2477      2801      2803
 -1      7722    3    0    1
 -2      1013      2779      2801      2890
 -1      7723    3    0    1
 -2       117       356      3149      3150
 -1      7724    3    0    1
 -2      3121      1444      1473      3127
 -1      7725    3    0    1
 -2      2201      1438      2973      3101
 -1      7726    3    0    1
 -2      2928      2921      3086      3102
 -1      7727    3    0    1
 -2        36        27      2748      2806
 -1      7728    3    0    1
 -2      1526      1919      2663      2851
 -1      7729    3    0    1
 -2      1160       906      2273      2866
 -1      7730    3    0    1
 -2       250      1071      2516      2875
 -1      7731    3    0    1
 -2       250      2592      2750      2875
 -1      7732    3    0    1
 -2      1984      1665      2328      2851
 -1      7733    3    0    1
 -2        27        36       915      2806
 -1      7734    3    0    1
 -2      2252      1058      2326      2807
 -1      7735    3    0    1
 -2      2326      1058      2747      2807
 -1      7736    3    0    1
 -2      2258       431      2566      2808
 -1      7737    3    0    1
 -2      1162      1159      2614      2808
 -1      7738    3    0    1
 -2      2566      1162      2614      2808
 -1      7739    3    0    1
 -2       431      1162      2566      2808
 -1      7740    3    0    1
 -2       431        15      1162      2808
 -1      7741    3    0    1
 -2        15       389      1159      2808
 -1      7742    3    0    1
 -2       583      2743      2755      2810
 -1      7743    3    0    1
 -2      1943      1945      2871      2904
 -1      7744    3    0    1
 -2       583      1223      2743      2810
 -1      7745    3    0    1
 -2       268       272      1083      2811
 -1      7746    3    0    1
 -2       268      1083      2513      2811
 -1      7747    3    0    1
 -2       699      1031      1275      3004
 -1      7748    3    0    1
 -2       906      1429      1433      3063
 -1      7749    3    0    1
 -2      2729      2871      2904      2940
 -1      7750    3    0    1
 -2      1083      2324      2513      2811
 -1      7751    3    0    1
 -2      2324      1083      2332      2811
 -1      7752    3    0    1
 -2      2661      2388      2760      2812
 -1      7753    3    0    1
 -2      1717      2661      2760      2812
 -1      7754    3    0    1
 -2      1717      2760      2791      2812
 -1      7755    3    0    1
 -2      2750      1717      2791      2812
 -1      7756    3    0    1
 -2       774      2750      2791      2812
 -1      7757    3    0    1
 -2      2380      2509      2791      2812
 -1      7758    3    0    1
 -2      2388      2380      2791      2812
 -1      7759    3    0    1
 -2      2760      2388      2791      2812
 -1      7760    3    0    1
 -2      2173      1933      2522      2813
 -1      7761    3    0    1
 -2      1864      2173      2522      2813
 -1      7762    3    0    1
 -2      1864      1922      2366      2813
 -1      7763    3    0    1
 -2      2466      2524      2714      2814
 -1      7764    3    0    1
 -2      2466      1720      2524      2814
 -1      7765    3    0    1
 -2      1222       963      2664      2852
 -1      7766    3    0    1
 -2      1720      2466      2777      2814
 -1      7767    3    0    1
 -2      1526      1720      2777      2814
 -1      7768    3    0    1
 -2      2466      2714      2777      2814
 -1      7769    3    0    1
 -2      2527      2425      2730      2815
 -1      7770    3    0    1
 -2      1046      2487      2657      2815
 -1      7771    3    0    1
 -2      1057      2487      2747      2815
 -1      7772    3    0    1
 -2       425      1057      2747      2815
 -1      7773    3    0    1
 -2      1576       425      2747      2815
 -1      7774    3    0    1
 -2       425      1576      2527      2815
 -1      7775    3    0    1
 -2      2487      1057      2657      2815
 -1      7776    3    0    1
 -2       216      1046      2730      2815
 -1      7777    3    0    1
 -2      1057       425      2730      2815
 -1      7778    3    0    1
 -2      1046      2657      2730      2815
 -1      7779    3    0    1
 -2      2657      1057      2730      2815
 -1      7780    3    0    1
 -2       875      1131      2634      2817
 -1      7781    3    0    1
 -2       991      1857      2558      2818
 -1      7782    3    0    1
 -2        36       915      2806      2819
 -1      7783    3    0    1
 -2      2267      2690      2715      2819
 -1      7784    3    0    1
 -2      2267        36      2690      2819
 -1      7785    3    0    1
 -2      2756      2771      2872      2893
 -1      7786    3    0    1
 -2       627       623      3036      3066
 -1      7787    3    0    1
 -2      1919      1665      1984      2851
 -1      7788    3    0    1
 -2      2810      2788      2888      2893
 -1      7789    3    0    1
 -2       487       915      2715      2819
 -1      7790    3    0    1
 -2       915        36      2715      2819
 -1      7791    3    0    1
 -2        36      2267      2715      2819
 -1      7792    3    0    1
 -2      2362      1685      2727      2820
 -1      7793    3    0    1
 -2      1906      2486      2820      2765
 -1      7794    3    0    1
 -2      1596      2427      2789      2820
 -1      7795    3    0    1
 -2      1596      2362      2727      2820
 -1      7796    3    0    1
 -2      2427      1596      2727      2820
 -1      7797    3    0    1
 -2      1906      1685      2362      2820
 -1      7798    3    0    1
 -2      2765      1906      2789      2820
 -1      7799    3    0    1
 -2      2362      1596      2789      2820
 -1      7800    3    0    1
 -2      1906      2362      2789      2820
 -1      7801    3    0    1
 -2       510       926      2686      2821
 -1      7802    3    0    1
 -2      2078      2780      2841      2898
 -1      7803    3    0    1
 -2      1173        37      2706      2855
 -1      7804    3    0    1
 -2      1588       391      2593      2822
 -1      7805    3    0    1
 -2      1673      1588      2593      2822
 -1      7806    3    0    1
 -2      1588      1673      1687      2822
 -1      7807    3    0    1
 -2       543       941      1926      2857
 -1      7808    3    0    1
 -2        70       941      2462      2857
 -1      7809    3    0    1
 -2       543      1926      2692      2857
 -1      7810    3    0    1
 -2      1926       941      1986      2857
 -1      7811    3    0    1
 -2      1333      2431      2454      2824
 -1      7812    3    0    1
 -2      2392      1333      2454      2824
 -1      7813    3    0    1
 -2      1092       418      2683      2824
 -1      7814    3    0    1
 -2      1567      1687      2443      2856
 -1      7815    3    0    1
 -2      1567      2381      2822      2856
 -1      7816    3    0    1
 -2      1673      1687      2822      2856
 -1      7817    3    0    1
 -2      2498      2593      2822      2856
 -1      7818    3    0    1
 -2      2682      2498      2822      2856
 -1      7819    3    0    1
 -2       216      2274      2425      2879
 -1      7820    3    0    1
 -2       426       216      2425      2879
 -1      7821    3    0    1
 -2      2754       345      2763      2879
 -1      7822    3    0    1
 -2      1441       381      1448      1479
 -1      7823    3    0    1
 -2      1311      1787      2659      2828
 -1      7824    3    0    1
 -2      2632       778      2659      2828
 -1      7825    3    0    1
 -2       778      1311      2659      2828
 -1      7826    3    0    1
 -2       795       778      1320      2828
 -1      7827    3    0    1
 -2       778      1069      1320      2828
 -1      7828    3    0    1
 -2      2175      1244      2658      2829
 -1      7829    3    0    1
 -2       989       631      2658      2829
 -1      7830    3    0    1
 -2       631       989      2036      2829
 -1      7831    3    0    1
 -2       631      2029      2658      2829
 -1      7832    3    0    1
 -2      2029       631      2036      2829
 -1      7833    3    0    1
 -2       136       142       989      2829
 -1      7834    3    0    1
 -2      1268      1012      2589      2830
 -1      7835    3    0    1
 -2       177      1012      1268      2830
 -1      7836    3    0    1
 -2       365       177      2770      2830
 -1      7837    3    0    1
 -2      2531       365      2770      2830
 -1      7838    3    0    1
 -2       177       365      1012      2830
 -1      7839    3    0    1
 -2      1012       365      2531      2830
 -1      7840    3    0    1
 -2       178       177      1268      2830
 -1      7841    3    0    1
 -2      1072      2324      2339      2831
 -1      7842    3    0    1
 -2      2067      1072      2339      2831
 -1      7843    3    0    1
 -2       514      1853      1939      2832
 -1      7844    3    0    1
 -2       925      1939       514      1187
 -1      7845    3    0    1
 -2      1939       925       514      2832
 -1      7846    3    0    1
 -2       514       508      2602      2832
 -1      7847    3    0    1
 -2       930       519      2497      2900
 -1      7848    3    0    1
 -2       918       930      2293      2900
 -1      7849    3    0    1
 -2      2780      1971      2841      2898
 -1      7850    3    0    1
 -2       514      2832       925       508
 -1      7851    3    0    1
 -2       463      1161      2078      2898
 -1      7852    3    0    1
 -2       496       918      2724      2900
 -1      7853    3    0    1
 -2      1841      1971      2035      2898
 -1      7854    3    0    1
 -2       663       640       994      2833
 -1      7855    3    0    1
 -2      1612      1641      2295      2834
 -1      7856    3    0    1
 -2      1641      1612      2802      2834
 -1      7857    3    0    1
 -2      1771      1664      2740      2864
 -1      7858    3    0    1
 -2      2231      2530      2550      2835
 -1      7859    3    0    1
 -2       914      2231      2550      2835
 -1      7860    3    0    1
 -2       486       914      2530      2835
 -1      7861    3    0    1
 -2      2530       914      2550      2835
 -1      7862    3    0    1
 -2      1045      2624      2754       369
 -1      7863    3    0    1
 -2      2624      1045      2754      2836
 -1      7864    3    0    1
 -2      2338      1045      2624      2836
 -1      7865    3    0    1
 -2      2241      2338      2624      2836
 -1      7866    3    0    1
 -2      1034      2241      2612      2836
 -1      7867    3    0    1
 -2      1045      1034      2612      2836
 -1      7868    3    0    1
 -2      2241      1034      2338      2836
 -1      7869    3    0    1
 -2      1034      1045      2338      2836
 -1      7870    3    0    1
 -2      2756      2771      2795      2837
 -1      7871    3    0    1
 -2      1819      1352      1860      2870
 -1      7872    3    0    1
 -2      1819      1860      2860      2870
 -1      7873    3    0    1
 -2       250      2516      2592      2907
 -1      7874    3    0    1
 -2       250      2592      2875      2907
 -1      7875    3    0    1
 -2      2477      1267      2733      2838
 -1      7876    3    0    1
 -2      1014      1267      2477      2838
 -1      7877    3    0    1
 -2      1267      1014       678      2838
 -1      7878    3    0    1
 -2       678      1014      2477      2838
 -1      7879    3    0    1
 -2      2303       261      2519      2839
 -1      7880    3    0    1
 -2      2738       798      2741      2839
 -1      7881    3    0    1
 -2       261      2738      2741      2839
 -1      7882    3    0    1
 -2       798      1080      2741      2839
 -1      7883    3    0    1
 -2      1080       261      2741      2839
 -1      7884    3    0    1
 -2        80        89       952      2840
 -1      7885    3    0    1
 -2       224      1053      2842      2899
 -1      7886    3    0    1
 -2      2613       224      2842      2899
 -1      7887    3    0    1
 -2      1053      1877      2842      2899
 -1      7888    3    0    1
 -2       224      2071      2714      2410
 -1      7889    3    0    1
 -2       423       224      1300      2842
 -1      7890    3    0    1
 -2       519      2450      2497      2900
 -1      7891    3    0    1
 -2      1300      1877      2275      2842
 -1      7892    3    0    1
 -2       423      1300      2275      2842
 -1      7893    3    0    1
 -2       224      1053      1300      2842
 -1      7894    3    0    1
 -2      1300      1053      1877      2842
 -1      7895    3    0    1
 -2       496      2724      2845      2900
 -1      7896    3    0    1
 -2       979       615      2144      2843
 -1      7897    3    0    1
 -2       124      2144      2345      2843
 -1      7898    3    0    1
 -2       124      2345      2620      2843
 -1      7899    3    0    1
 -2       351      2345      2843      2620
 -1      7900    3    0    1
 -2       351      1578      2580      2843
 -1      7901    3    0    1
 -2      1578      2144      2580      2843
 -1      7902    3    0    1
 -2      2144      1578      2345      2843
 -1      7903    3    0    1
 -2      1119      1602      2387      2844
 -1      7904    3    0    1
 -2       864      2387      2757      2844
 -1      7905    3    0    1
 -2       864      1119      2387      2844
 -1      7906    3    0    1
 -2       863      1119       864      2844
 -1      7907    3    0    1
 -2      1632      2633      2848      2901
 -1      7908    3    0    1
 -2      2115      1541      2797      2901
 -1      7909    3    0    1
 -2      2177      2633      2861      2901
 -1      7910    3    0    1
 -2      2177      1541      2634      2901
 -1      7911    3    0    1
 -2      1528      1560      1574      2846
 -1      7912    3    0    1
 -2      1574      1560      2738      2846
 -1      7913    3    0    1
 -2       916      1416      3072      3075
 -1      7914    3    0    1
 -2      2954      1425      1424      3094
 -1      7915    3    0    1
 -2      1460        78      1486      1509
 -1      7916    3    0    1
 -2      1415      2934      3089      2982
 -1      7917    3    0    1
 -2       409       317      1130      2848
 -1      7918    3    0    1
 -2      2177      1132      2633      2848
 -1      7919    3    0    1
 -2      1132       317      2633      2848
 -1      7920    3    0    1
 -2      1130       317      1132      2848
 -1      7921    3    0    1
 -2      1642      2788      2888      2903
 -1      7922    3    0    1
 -2      1540      1894      2087      2849
 -1      7923    3    0    1
 -2      2755      2098      2853      2903
 -1      7924    3    0    1
 -2       487       486       913      2850
 -1      7925    3    0    1
 -2      2599      1173      2855      2908
 -1      7926    3    0    1
 -2      2750      2592      2760      2875
 -1      7927    3    0    1
 -2       487      2037      2675      2850
 -1      7928    3    0    1
 -2      2596       487      2675      2850
 -1      7929    3    0    1
 -2      1173      2599      2615      2908
 -1      7930    3    0    1
 -2      2403       400      2417      2852
 -1      7931    3    0    1
 -2       348       105      2403      2852
 -1      7932    3    0    1
 -2       105       348       963      2852
 -1      7933    3    0    1
 -2       400       105      1222      2852
 -1      7934    3    0    1
 -2      2046      2202      2353      2889
 -1      7935    3    0    1
 -2      3088      2920      3107      3119
 -1      7936    3    0    1
 -2      1578       963      2664      2853
 -1      7937    3    0    1
 -2      2228      1793      2803      2889
 -1      7938    3    0    1
 -2       351      2345      2620      2853
 -1      7939    3    0    1
 -2       723       717       716      3059
 -1      7940    3    0    1
 -2      2801      2353      2803      2889
 -1      7941    3    0    1
 -2       351       963      1578      2853
 -1      7942    3    0    1
 -2       351      1578      2345      2853
 -1      7943    3    0    1
 -2      1578      2664      2755      2853
 -1      7944    3    0    1
 -2      2345      1578      2755      2853
 -1      7945    3    0    1
 -2        37        29      2039      2855
 -1      7946    3    0    1
 -2      2078      1161      2780      2898
 -1      7947    3    0    1
 -2      2071       224      2714      2899
 -1      7948    3    0    1
 -2      2609      2078      2841      2898
 -1      7949    3    0    1
 -2        29        37      1173      2855
 -1      7950    3    0    1
 -2      1687      1567      2822      2856
 -1      7951    3    0    1
 -2        70      1623      1986      2857
 -1      7952    3    0    1
 -2       941        70      1986      2857
 -1      7953    3    0    1
 -2      1985       543      2692      2857
 -1      7954    3    0    1
 -2       942      1985      2462      2857
 -1      7955    3    0    1
 -2       941       942      2462      2857
 -1      7956    3    0    1
 -2       544       543      1985      2857
 -1      7957    3    0    1
 -2       543       544       941      2857
 -1      7958    3    0    1
 -2       941       544       942      2857
 -1      7959    3    0    1
 -2       942       544      1985      2857
 -1      7960    3    0    1
 -2       440      1406      1139      2858
 -1      7961    3    0    1
 -2       442      1151      2796      2858
 -1      7962    3    0    1
 -2      1406       440       442      2858
 -1      7963    3    0    1
 -2      1406       442      2796      2858
 -1      7964    3    0    1
 -2       398      1210      1964      2859
 -1      7965    3    0    1
 -2      2954      1424      2430      3094
 -1      7966    3    0    1
 -2       841      1351       842      2860
 -1      7967    3    0    1
 -2      2949      3086      1446      2972
 -1      7968    3    0    1
 -2      2289      1943      2638      2871
 -1      7969    3    0    1
 -2      1351       841      1350      2860
 -1      7970    3    0    1
 -2      2194      2115      2698      2861
 -1      7971    3    0    1
 -2      2096      2115      2797      2861
 -1      7972    3    0    1
 -2      2115      2096      2698      2861
 -1      7973    3    0    1
 -2      1632      2115      2194      2861
 -1      7974    3    0    1
 -2      2700       917      2748      2862
 -1      7975    3    0    1
 -2      1795       411      2786      2863
 -1      7976    3    0    1
 -2      1600      1795      2786      2863
 -1      7977    3    0    1
 -2      2596       914      2835      2863
 -1      7978    3    0    1
 -2       914      2231      2835      2863
 -1      7979    3    0    1
 -2       914       411      2231      2863
 -1      7980    3    0    1
 -2        23      1175      2826      2863
 -1      7981    3    0    1
 -2        23       411       914      2863
 -1      7982    3    0    1
 -2      1175      2675      2826      2863
 -1      7983    3    0    1
 -2      1175      2596      2675      2863
 -1      7984    3    0    1
 -2        23       914      1175      2863
 -1      7985    3    0    1
 -2      1175       914      2596      2863
 -1      7986    3    0    1
 -2      2410      2071      2714      2865
 -1      7987    3    0    1
 -2      1771      2071      2410      2865
 -1      7988    3    0    1
 -2      2012      1771      2410      2865
 -1      7989    3    0    1
 -2      2012      2410      2814      2865
 -1      7990    3    0    1
 -2      1526      2012      2814      2865
 -1      7991    3    0    1
 -2       349      2810      2888      2893
 -1      7992    3    0    1
 -2      2670      2201      3087      3131
 -1      7993    3    0    1
 -2       906      1174      1929      2866
 -1      7994    3    0    1
 -2       915      2819      2850      2906
 -1      7995    3    0    1
 -2      3091      2961      1448      2984
 -1      7996    3    0    1
 -2      1433      1468      1469      3126
 -1      7997    3    0    1
 -2      2931      1942      2946      2975
 -1      7998    3    0    1
 -2       157      1256      2720      2868
 -1      7999    3    0    1
 -2      2699      1001      2805      2868
 -1      8000    3    0    1
 -2       332      2699      2805      2868
 -1      8001    3    0    1
 -2       160       332      1001      2868
 -1      8002    3    0    1
 -2      1001       332      2805      2868
 -1      8003    3    0    1
 -2      2596       486      2850      2877
 -1      8004    3    0    1
 -2       913       486      2489      2877
 -1      8005    3    0    1
 -2       401       324      2707      2869
 -1      8006    3    0    1
 -2      2516       250      2875      2907
 -1      8007    3    0    1
 -2      2530       486      2835      2877
 -1      8008    3    0    1
 -2       913      1839      2874      2877
 -1      8009    3    0    1
 -2      2888      2872      2893      2905
 -1      8010    3    0    1
 -2      1580      2299      2321      2905
 -1      8011    3    0    1
 -2      1981      1642      2788      2905
 -1      8012    3    0    1
 -2      2299      1580      2872      2905
 -1      8013    3    0    1
 -2      2321      1981      2517      2905
 -1      8014    3    0    1
 -2      1642      2299      2888      2905
 -1      8015    3    0    1
 -2      1580      2321      2517      2905
 -1      8016    3    0    1
 -2      2788      2888      2893      2905
 -1      8017    3    0    1
 -2      1530      1699      2635      2873
 -1      8018    3    0    1
 -2      1699      1530      2771      2873
 -1      8019    3    0    1
 -2        35      1839      2700      2874
 -1      8020    3    0    1
 -2        33        35      2700      2874
 -1      8021    3    0    1
 -2      2592      2494      2875      2907
 -1      8022    3    0    1
 -2      2494       422      2875      2907
 -1      8023    3    0    1
 -2        35        33       913      2874
 -1      8024    3    0    1
 -2      2494      2731      2760      2875
 -1      8025    3    0    1
 -2      1176      1173      2615      2908
 -1      8026    3    0    1
 -2      2592      2494      2760      2875
 -1      8027    3    0    1
 -2      2635      2622      2869      2876
 -1      8028    3    0    1
 -2       324      1118      1377      2876
 -1      8029    3    0    1
 -2       324       401      1118      2876
 -1      8030    3    0    1
 -2      1118       401      2869      2876
 -1      8031    3    0    1
 -2      2489      2530      2835      2877
 -1      8032    3    0    1
 -2      2764      2225      2827      2878
 -1      8033    3    0    1
 -2      1628      2764      2827      2878
 -1      8034    3    0    1
 -2      2312      1628      2827      2878
 -1      8035    3    0    1
 -2      2244      2312      2827      2878
 -1      8036    3    0    1
 -2      2244      1571      2312      2878
 -1      8037    3    0    1
 -2      1622      1571      1762      2878
 -1      8038    3    0    1
 -2      1073       784      2583      2896
 -1      8039    3    0    1
 -2      2974      2972      3103      1449
 -1      8040    3    0    1
 -2       784      2324      1083      1072
 -1      8041    3    0    1
 -2      1287      1954      2763      2879
 -1      8042    3    0    1
 -2      1287      1042      1954      2879
 -1      8043    3    0    1
 -2       345      1287      2763      2879
 -1      8044    3    0    1
 -2       345       426      1287      2879
 -1      8045    3    0    1
 -2       156       999      2766      2880
 -1      8046    3    0    1
 -2       999       156      2667      2880
 -1      8047    3    0    1
 -2      1583       156      2766      2880
 -1      8048    3    0    1
 -2       156      1583      2667      2880
 -1      8049    3    0    1
 -2       158      1583      2766      2881
 -1      8050    3    0    1
 -2       158       366      1006      2881
 -1      8051    3    0    1
 -2       368      2531      2744      2881
 -1      8052    3    0    1
 -2       366       368      2744      2881
 -1      8053    3    0    1
 -2       368       366      2531      2881
 -1      8054    3    0    1
 -2       158      1006      1583      2881
 -1      8055    3    0    1
 -2      1583      1006      2562      2881
 -1      8056    3    0    1
 -2       246      2380      2499      2882
 -1      8057    3    0    1
 -2      1833      2195      2636      1894
 -1      8058    3    0    1
 -2      2195      1833      2636      2882
 -1      8059    3    0    1
 -2      2380      2666      2774      2882
 -1      8060    3    0    1
 -2      2380       246      2666      2882
 -1      8061    3    0    1
 -2       246      2195      2666      2882
 -1      8062    3    0    1
 -2      1020      1032      2507      2883
 -1      8063    3    0    1
 -2      1032      1020      2434      2883
 -1      8064    3    0    1
 -2       178       177      2434      2883
 -1      8065    3    0    1
 -2       177       178      1020      2883
 -1      8066    3    0    1
 -2      1020       178      2434      2883
 -1      8067    3    0    1
 -2      1862      1793      2699      2884
 -1      8068    3    0    1
 -2      2758      2631      2946      2962
 -1      8069    3    0    1
 -2      2591       332       367      1005
 -1      8070    3    0    1
 -2       332       367      2805      2884
 -1      8071    3    0    1
 -2       367      2591      1005      1018
 -1      8072    3    0    1
 -2       332      2591       367      2884
 -1      8073    3    0    1
 -2      1821        66      2435      2885
 -1      8074    3    0    1
 -2      1201       943      2692      2885
 -1      8075    3    0    1
 -2      2435      1201      2692      2885
 -1      8076    3    0    1
 -2        66       943      1201      2885
 -1      8077    3    0    1
 -2        66      1201      2435      2885
 -1      8078    3    0    1
 -2      1762      1571      2244      2886
 -1      8079    3    0    1
 -2      2244      1571      2878      2886
 -1      8080    3    0    1
 -2      1622      2360      2878      2886
 -1      8081    3    0    1
 -2      2360      2764      2878      2886
 -1      8082    3    0    1
 -2      2324      1083      2513      2896
 -1      8083    3    0    1
 -2        38        54      2255      2897
 -1      8084    3    0    1
 -2      2324       784      1083      2896
 -1      8085    3    0    1
 -2      1083       807      2513      2896
 -1      8086    3    0    1
 -2       784       807      1083      2896
 -1      8087    3    0    1
 -2       272       268      1079      2887
 -1      8088    3    0    1
 -2      1945      2729      2871      2904
 -1      8089    3    0    1
 -2       647       998       648      2995
 -1      8090    3    0    1
 -2      2202      2228      2803      2889
 -1      8091    3    0    1
 -2      2481      2202      2803      2889
 -1      8092    3    0    1
 -2      2801      1862      2884      1793
 -1      8093    3    0    1
 -2      1013       367      2884      2890
 -1      8094    3    0    1
 -2      2805      1862      2884      2890
 -1      8095    3    0    1
 -2       367      2805      2884      2890
 -1      8096    3    0    1
 -2      2801      2779      2884      2890
 -1      8097    3    0    1
 -2      1286      2237      2668      2891
 -1      8098    3    0    1
 -2      1286      1043      2237      2891
 -1      8099    3    0    1
 -2      2618      2374      2922      2938
 -1      8100    3    0    1
 -2       362       355      3095      2992
 -1      8101    3    0    1
 -2       381      1441      1448      3106
 -1      8102    3    0    1
 -2      3091      3097      1448      3106
 -1      8103    3    0    1
 -2      1472      1410      3135      3154
 -1      8104    3    0    1
 -2      2950      2944      3100      3146
 -1      8105    3    0    1
 -2      2048      2430      2966      3094
 -1      8106    3    0    1
 -2      2379       101      2795      2893
 -1      8107    3    0    1
 -2      2872      2771      2299      2893
 -1      8108    3    0    1
 -2      2872      2299      2888      2893
 -1      8109    3    0    1
 -2       101       349      2771      2893
 -1      8110    3    0    1
 -2      2771      2872      2299      1699
 -1      8111    3    0    1
 -2      2888      2893      2771       349
 -1      8112    3    0    1
 -2      2299      2893      2771      2888
 -1      8113    3    0    1
 -2      2267       405      2854      2894
 -1      8114    3    0    1
 -2      2690      2267      2854      2894
 -1      8115    3    0    1
 -2       930       405      2725      2894
 -1      8116    3    0    1
 -2       405      2267      2725      2894
 -1      8117    3    0    1
 -2      1079      2332      2887      2895
 -1      8118    3    0    1
 -2       798      1081       799      2895
 -1      8119    3    0    1
 -2       799      1081      2644      2895
 -1      8120    3    0    1
 -2      1081      1079      2644      2895
 -1      8121    3    0    1
 -2      1081       798      1079      2895
 -1      8122    3    0    1
 -2      1079      1722      2332      2895
 -1      8123    3    0    1
 -2      2332      1722      2424      2895
 -1      8124    3    0    1
 -2       798      2738      2741      2895
 -1      8125    3    0    1
 -2      2424      1722      2738      2895
 -1      8126    3    0    1
 -2      2738      1722      2741      2895
 -1      8127    3    0    1
 -2      1079       798      1722      2895
 -1      8128    3    0    1
 -2      1722       798      2741      2895
 -1      8129    3    0    1
 -2        54       925      2260      2897
 -1      8130    3    0    1
 -2      2260       925      2832      2897
 -1      8131    3    0    1
 -2       925       508      2602      2897
 -1      8132    3    0    1
 -2       508       490      2602      2897
 -1      8133    3    0    1
 -2        32      2255      2825      2909
 -1      8134    3    0    1
 -2        29        32      2825      2909
 -1      8135    3    0    1
 -2      1176        32      2908      2909
 -1      8136    3    0    1
 -2        29      2855      2908      2909
 -1      8137    3    0    1
 -2        54        38      1176      2897
 -1      8138    3    0    1
 -2      2976      2945      3133      3006
 -1      8139    3    0    1
 -2       925        54      1176      2897
 -1      8140    3    0    1
 -2       508       925      1176      2897
 -1      8141    3    0    1
 -2       490       508      1176      2897
 -1      8142    3    0    1
 -2      1188       919      2845      2900
 -1      8143    3    0    1
 -2       496       519       930      2900
 -1      8144    3    0    1
 -2       519       496       919      2900
 -1      8145    3    0    1
 -2       918       496       930      2900
 -1      8146    3    0    1
 -2       519       919      1188      2900
 -1      8147    3    0    1
 -2      2797      2177      2861      2901
 -1      8148    3    0    1
 -2      2087      2033      2849      2902
 -1      8149    3    0    1
 -2      1723      2161      2643      2902
 -1      8150    3    0    1
 -2      2033      1723      2643      2902
 -1      8151    3    0    1
 -2      2033      2161      2849      2902
 -1      8152    3    0    1
 -2      2161      2033      2643      2902
 -1      8153    3    0    1
 -2       583      2755      2853      2903
 -1      8154    3    0    1
 -2      2810      1223      2888      2903
 -1      8155    3    0    1
 -2      2788      2810      2888      2903
 -1      8156    3    0    1
 -2      1977      2098      2755      2903
 -1      8157    3    0    1
 -2      2098      1977      2200      2903
 -1      8158    3    0    1
 -2      2200      1977      2788      2903
 -1      8159    3    0    1
 -2      2755       583      2810      2903
 -1      8160    3    0    1
 -2       583      1223      2810      2903
 -1      8161    3    0    1
 -2      2788      2755      2810      2903
 -1      8162    3    0    1
 -2      1977      2755      2788      2903
 -1      8163    3    0    1
 -2       647       648       658      2995
 -1      8164    3    0    1
 -2        33       913      2874      2906
 -1      8165    3    0    1
 -2       913        33       915      2906
 -1      8166    3    0    1
 -2        33        27       915      2906
 -1      8167    3    0    1
 -2        27        33      2748      2906
 -1      8168    3    0    1
 -2      2748        33      2874      2906
 -1      8169    3    0    1
 -2      1058       422      2252      2907
 -1      8170    3    0    1
 -2      2875      2516      1058      1071
 -1      8171    3    0    1
 -2      2516      2875      1058      2907
 -1      8172    3    0    1
 -2       422      1058      2875      2907
 -1      8173    3    0    1
 -2        32      1173      1176      2908
 -1      8174    3    0    1
 -2      2671      2769      2923      3090
 -1      8175    3    0    1
 -2       503       922      3003      3062
 -1      8176    3    0    1
 -2        32        29      1173      2908
 -1      8177    3    0    1
 -2      1173        29      2855      2908
 -1      8178    3    0    1
 -2      2897      1176      2908      2909
 -1      8179    3    0    1
 -2        38      1176      2897      2909
 -1      8180    3    0    1
 -2        38        32      1176      2909
 -1      8181    3    0    1
 -2      2230      2373      2722      2910
 -1      8182    3    0    1
 -2      1477       379      3135      3147
 -1      8183    3    0    1
 -2      2945      2214      3133      3006
 -1      8184    3    0    1
 -2      2373      2722      2910      2945
 -1      8185    3    0    1
 -2       452      1153      3021      3034
 -1      8186    3    0    1
 -2       434      3117      3005      3029
 -1      8187    3    0    1
 -2      1185      1417      1418      3106
 -1      8188    3    0    1
 -2       964      2201      1438      2973
 -1      8189    3    0    1
 -2       929      1185      1418      3106
 -1      8190    3    0    1
 -2      2289      2671      2769      2913
 -1      8191    3    0    1
 -2      1943      2289      2769      2913
 -1      8192    3    0    1
 -2      2921      1764      2928      3086
 -1      8193    3    0    1
 -2      2919      1799      3087      3089
 -1      8194    3    0    1
 -2      1055      1309      2915      1439
 -1      8195    3    0    1
 -2      2230      2573      2719      2924
 -1      8196    3    0    1
 -2      2922      2374      2926      2935
 -1      8197    3    0    1
 -2       372      1415      1458      3131
 -1      8198    3    0    1
 -2      1436      3114      3137      3153
 -1      8199    3    0    1
 -2      3061      1185      3062      3074
 -1      8200    3    0    1
 -2      2952      3099      3135      3139
 -1      8201    3    0    1
 -2      2911      1467      2999      3144
 -1      8202    3    0    1
 -2      2937      2668      2967      3114
 -1      8203    3    0    1
 -2      3111      2752      3008      3141
 -1      8204    3    0    1
 -2      2871      1943      2904      2977
 -1      8205    3    0    1
 -2      2313      1002      2718      3008
 -1      8206    3    0    1
 -2      1765      2729      2917      2940
 -1      8207    3    0    1
 -2      1474      1452      1501      3082
 -1      8208    3    0    1
 -2      3034       906      3063      3064
 -1      8209    3    0    1
 -2      1069      1425      2954      3120
 -1      8210    3    0    1
 -2      1449      3111      3141      3142
 -1      8211    3    0    1
 -2      2924      2965      1453      3005
 -1      8212    3    0    1
 -2      2187      2971      3096      1448
 -1      8213    3    0    1
 -2      1082      1743      2432      2916
 -1      8214    3    0    1
 -2      2049      1082      2432      2916
 -1      8215    3    0    1
 -2       977      1437      1444      3127
 -1      8216    3    0    1
 -2      1233      2912      1437      3127
 -1      8217    3    0    1
 -2       226      1457      1483      1511
 -1      8218    3    0    1
 -2      2951      3092      3095      3118
 -1      8219    3    0    1
 -2       778      1069      2828      2954
 -1      8220    3    0    1
 -2      2495       977      1444      3127
 -1      8221    3    0    1
 -2      2934      2935      3089      1460
 -1      8222    3    0    1
 -2      1765      2919      2948      3105
 -1      8223    3    0    1
 -2      1275      2514      2956      3116
 -1      8224    3    0    1
 -2      1482      1453      1499      3025
 -1      8225    3    0    1
 -2      1447      1422      3116      3077
 -1      8226    3    0    1
 -2      2769      1943      2913      2949
 -1      8227    3    0    1
 -2      1266      2867      1430      3118
 -1      8228    3    0    1
 -2      1416      1417      3113      1488
 -1      8229    3    0    1
 -2      2406      1016      2649      2956
 -1      8230    3    0    1
 -2      1422      1275      2956      3116
 -1      8231    3    0    1
 -2      2577      2936      3096      3138
 -1      8232    3    0    1
 -2      1243       990      1779      2968
 -1      8233    3    0    1
 -2      2951      2959      3090      3092
 -1      8234    3    0    1
 -2       929      1197      2140      3085
 -1      8235    3    0    1
 -2      1423      1446      1464      3118
 -1      8236    3    0    1
 -2      2942      1764      2977      3111
 -1      8237    3    0    1
 -2        42       924       922      3003
 -1      8238    3    0    1
 -2      1929       916      2732      3148
 -1      8239    3    0    1
 -2      3087      1412      1458      1459
 -1      8240    3    0    1
 -2      2955      2952      3135      3139
 -1      8241    3    0    1
 -2      1452      2939      3130      3023
 -1      8242    3    0    1
 -2      1585      1443      3128      3136
 -1      8243    3    0    1
 -2      3112      3107      1482      1483
 -1      8244    3    0    1
 -2      3102      3086      3151      3103
 -1      8245    3    0    1
 -2      2068      2358      2563      2924
 -1      8246    3    0    1
 -2      1174      1929      2866      2964
 -1      8247    3    0    1
 -2      1430      3102      1455      3118
 -1      8248    3    0    1
 -2      1436      2976      3133      3137
 -1      8249    3    0    1
 -2      2572      2372      2925      2926
 -1      8250    3    0    1
 -2      2374      2572      2922      2926
 -1      8251    3    0    1
 -2      2187      2925      2961      3091
 -1      8252    3    0    1
 -2      1452       356      1474      1501
 -1      8253    3    0    1
 -2       716       717      1037      3059
 -1      8254    3    0    1
 -2      3106      1448      3113      1489
 -1      8255    3    0    1
 -2       449      3021      3027      3064
 -1      8256    3    0    1
 -2      1419      3085      1441      1442
 -1      8257    3    0    1
 -2      1082      1320      1424      3132
 -1      8258    3    0    1
 -2      1440      1439      3107      1482
 -1      8259    3    0    1
 -2      2934      2935      2938      3089
 -1      8260    3    0    1
 -2       977      1243      2933      1444
 -1      8261    3    0    1
 -2      2998      2990      3140      1490
 -1      8262    3    0    1
 -2      1082      1743      2916      3099
 -1      8263    3    0    1
 -2      2719      2924      2932      3088
 -1      8264    3    0    1
 -2      1413      1443      3050      3051
 -1      8265    3    0    1
 -2      1799      3087      3089      3110
 -1      8266    3    0    1
 -2      2719      2932      2950      3088
 -1      8267    3    0    1
 -2      1457      2950      3119      3152
 -1      8268    3    0    1
 -2      2358      2631      2758      2929
 -1      8269    3    0    1
 -2      2978      1082      3038      3056
 -1      8270    3    0    1
 -2      2945      2923      3090      1447
 -1      8271    3    0    1
 -2      1418      1419      3085      1441
 -1      8272    3    0    1
 -2      2938      2935      3108      1460
 -1      8273    3    0    1
 -2      3090      2951      3092      3095
 -1      8274    3    0    1
 -2      2904      2942      2979      3111
 -1      8275    3    0    1
 -2      3003      3024      3061      3062
 -1      8276    3    0    1
 -2       254      1074      2978      3037
 -1      8277    3    0    1
 -2      1455      1430      3118      3140
 -1      8278    3    0    1
 -2       244       226      2980      3112
 -1      8279    3    0    1
 -2      2980      3088      3112      3119
 -1      8280    3    0    1
 -2      2971      2930      3096      2987
 -1      8281    3    0    1
 -2      1016      1423      3118      3140
 -1      8282    3    0    1
 -2      1432      2892      3026      3093
 -1      8283    3    0    1
 -2      1243      1779      2933      2968
 -1      8284    3    0    1
 -2      1197      1418      1419      3085
 -1      8285    3    0    1
 -2       550       947       551      3002
 -1      8286    3    0    1
 -2      1197       929      1418      3085
 -1      8287    3    0    1
 -2      1185      2003      2732      3113
 -1      8288    3    0    1
 -2      3122      1461      3124      3145
 -1      8289    3    0    1
 -2      3104      2941      3122      3124
 -1      8290    3    0    1
 -2      1945      2374      2618      2934
 -1      8291    3    0    1
 -2      1415      2919      2948      3131
 -1      8292    3    0    1
 -2      2970      2866      3122      3143
 -1      8293    3    0    1
 -2      2573      2719      2924      2932
 -1      8294    3    0    1
 -2      2934      2919      2953      3089
 -1      8295    3    0    1
 -2      1185      2003      1417      3106
 -1      8296    3    0    1
 -2      2924      2573      2932      2965
 -1      8297    3    0    1
 -2      1439      1453      3120      3134
 -1      8298    3    0    1
 -2      2929      2847      1472      3135
 -1      8299    3    0    1
 -2      2573      2230      2719      2932
 -1      8300    3    0    1
 -2      1031      1286      2668      1426
 -1      8301    3    0    1
 -2      1452      2197      3125      3130
 -1      8302    3    0    1
 -2      1470      3030      3068      3069
 -1      8303    3    0    1
 -2      1174       916      1428      3072
 -1      8304    3    0    1
 -2      2944      2804      2950      3100
 -1      8305    3    0    1
 -2      3095       362      1446      1464
 -1      8306    3    0    1
 -2       977      1233       604      3012
 -1      8307    3    0    1
 -2      1415      2948      3105      3115
 -1      8308    3    0    1
 -2      2975      2946      3104      2996
 -1      8309    3    0    1
 -2      3114      1436      3137      1507
 -1      8310    3    0    1
 -2      3097      3091      1448      2984
 -1      8311    3    0    1
 -2      2937      2514      1426      3116
 -1      8312    3    0    1
 -2      1472      1432      3052      3053
 -1      8313    3    0    1
 -2      3012      3030      3067      3068
 -1      8314    3    0    1
 -2      2965      3098      3001      3005
 -1      8315    3    0    1
 -2      2965      2924      3098      3005
 -1      8316    3    0    1
 -2       379      3139      3147      3043
 -1      8317    3    0    1
 -2      1451       434      1453      1465
 -1      8318    3    0    1
 -2      1429      1428      3122      1495
 -1      8319    3    0    1
 -2      2214      1447      3116      3133
 -1      8320    3    0    1
 -2      3094      1425      1450      1451
 -1      8321    3    0    1
 -2      1002      2313      2344      3008
 -1      8322    3    0    1
 -2      2941      1467      3122      3124
 -1      8323    3    0    1
 -2      1255      2995      3048      3031
 -1      8324    3    0    1
 -2      3091      3085      3097      3106
 -1      8325    3    0    1
 -2      3091      3085      3128      3097
 -1      8326    3    0    1
 -2      1185       929      1418      3061
 -1      8327    3    0    1
 -2      1313       254      1074      2978
 -1      8328    3    0    1
 -2      1441       381      1442      3097
 -1      8329    3    0    1
 -2      3002       953      3035      3045
 -1      8330    3    0    1
 -2      2959      2918      3090      3092
 -1      8331    3    0    1
 -2      2716      1160      2866      3143
 -1      8332    3    0    1
 -2       382       379      1477      3147
 -1      8333    3    0    1
 -2       666      2990      2998      1490
 -1      8334    3    0    1
 -2      3085      1441      1442      3097
 -1      8335    3    0    1
 -2      3098      1453      3117      3005
 -1      8336    3    0    1
 -2      1160      2716      1433      3143
 -1      8337    3    0    1
 -2      2187      2931      2936      3096
 -1      8338    3    0    1
 -2      2922      2374      2935      2938
 -1      8339    3    0    1
 -2      3135       379      3139      3147
 -1      8340    3    0    1
 -2       199       191      3137      1507
 -1      8341    3    0    1
 -2      3107      3088      3112      3134
 -1      8342    3    0    1
 -2      2631      1942      2758      2946
 -1      8343    3    0    1
 -2      1458      3087      1459      3110
 -1      8344    3    0    1
 -2      2919      1415      2948      3105
 -1      8345    3    0    1
 -2       436      1450      1454      1494
 -1      8346    3    0    1
 -2      1942      2631      2931      2946
 -1      8347    3    0    1
 -2      2976      3133      3137      3033
 -1      8348    3    0    1
 -2      3088      2980      3112      3134
 -1      8349    3    0    1
 -2      2847      2631      2929      2962
 -1      8350    3    0    1
 -2      2917      2953      3105      3000
 -1      8351    3    0    1
 -2      2374      2934      2935      2938
 -1      8352    3    0    1
 -2      2631      2758      2929      2962
 -1      8353    3    0    1
 -2      1743      2952      3099      3135
 -1      8354    3    0    1
 -2       795      1082      1320      2978
 -1      8355    3    0    1
 -2      2563      1941      2573      2965
 -1      8356    3    0    1
 -2      2563      2573      2924      2965
 -1      8357    3    0    1
 -2      1945      2904      2939      2940
 -1      8358    3    0    1
 -2      2917      1945      2939      2940
 -1      8359    3    0    1
 -2       364      3103      1455      1456
 -1      8360    3    0    1
 -2      2804      2910      1436      3146
 -1      8361    3    0    1
 -2      2924      2048      3120      3134
 -1      8362    3    0    1
 -2      2948      3101      3105      3115
 -1      8363    3    0    1
 -2      1309      2048      2915      1439
 -1      8364    3    0    1
 -2      3088      2980      1457      3119
 -1      8365    3    0    1
 -2       459       452      3021      3034
 -1      8366    3    0    1
 -2      3111      1452      3141      3142
 -1      8367    3    0    1
 -2      2966      2068      3098      1454
 -1      8368    3    0    1
 -2      2358      1941      2563      2965
 -1      8369    3    0    1
 -2      1431      1430      3102      1455
 -1      8370    3    0    1
 -2      2573      2230      2932      2944
 -1      8371    3    0    1
 -2      2936      2577      3113      3138
 -1      8372    3    0    1
 -2      1424      2954      2430      1320
 -1      8373    3    0    1
 -2      2201      1438      3101      3131
 -1      8374    3    0    1
 -2      2488      1055      2915      3119
 -1      8375    3    0    1
 -2      2918      2214      3090      1447
 -1      8376    3    0    1
 -2      1260      1007      2990      2998
 -1      8377    3    0    1
 -2      3086      1446      2972      3103
 -1      8378    3    0    1
 -2      3086      1764      1449      2977
 -1      8379    3    0    1
 -2      2911      3093      3143      3144
 -1      8380    3    0    1
 -2       906      2866      1429      3122
 -1      8381    3    0    1
 -2      1498      1457      1521      3081
 -1      8382    3    0    1
 -2      1417      3106      3113      1489
 -1      8383    3    0    1
 -2      1260      2990      2997      2998
 -1      8384    3    0    1
 -2       364       363      3103      1456
 -1      8385    3    0    1
 -2      1412       953      3045      3060
 -1      8386    3    0    1
 -2      1436      2804      3100      3153
 -1      8387    3    0    1
 -2       953      1209      3035      3060
 -1      8388    3    0    1
 -2      1094      1160      2716      1432
 -1      8389    3    0    1
 -2      2769      2671      2945      3090
 -1      8390    3    0    1
 -2       550       945      3002      3035
 -1      8391    3    0    1
 -2       819       812      2988      2989
 -1      8392    3    0    1
 -2      3105      3115      1470      3000
 -1      8393    3    0    1
 -2      3019      3054      3076      3080
 -1      8394    3    0    1
 -2      1457       374      2993      3146
 -1      8395    3    0    1
 -2       362      3095      1446      2992
 -1      8396    3    0    1
 -2      1094      1332       819      2988
 -1      8397    3    0    1
 -2      1472       379      1477      1516
 -1      8398    3    0    1
 -2      1421      3008      3141      3151
 -1      8399    3    0    1
 -2      3126         1      3143      3144
 -1      8400    3    0    1
 -2      2936      2003      3106      3113
 -1      8401    3    0    1
 -2      2230      2910      2804      2944
 -1      8402    3    0    1
 -2       906      1160      3034      3063
 -1      8403    3    0    1
 -2      3099      1476      3147      1514
 -1      8404    3    0    1
 -2       940      1413      2986      3128
 -1      8405    3    0    1
 -2      2671      2214      2722      2945
 -1      8406    3    0    1
 -2       651       647       658      2995
 -1      8407    3    0    1
 -2       360      1436      1497      1517
 -1      8408    3    0    1
 -2      3133      3006      3137      3033
 -1      8409    3    0    1
 -2      1447      1426      1506      3070
 -1      8410    3    0    1
 -2      1435      3123      1497      1498
 -1      8411    3    0    1
 -2      2891      1434      3123      3153
 -1      8412    3    0    1
 -2      2925      1585      2926      3091
 -1      8413    3    0    1
 -2      1415       372      1458      1484
 -1      8414    3    0    1
 -2      2631      2911      2931      2946
 -1      8415    3    0    1
 -2       358      3115      1470      1480
 -1      8416    3    0    1
 -2       546      3022      3035      3060
 -1      8417    3    0    1
 -2       434      1453      3117      3120
 -1      8418    3    0    1
 -2       358      3115      1480      1481
 -1      8419    3    0    1
 -2      1423      1422      3092      1463
 -1      8420    3    0    1
 -2       699       692       691      3004
 -1      8421    3    0    1
 -2      2961      3091      1443      2984
 -1      8422    3    0    1
 -2      2981      2929      3135      3139
 -1      8423    3    0    1
 -2      2892      1432      3026      2716
 -1      8424    3    0    1
 -2      2671      2769      2913      2949
 -1      8425    3    0    1
 -2      2769      2671      2923      2949
 -1      8426    3    0    1
 -2      1425      1424      3094      1450
 -1      8427    3    0    1
 -2      3121      1474      3125      3149
 -1      8428    3    0    1
 -2      2941      3104      1467      3124
 -1      8429    3    0    1
 -2      2230      2932      2944      2950
 -1      8430    3    0    1
 -2      1411      3087      1458      3131
 -1      8431    3    0    1
 -2      1474       356      3125      3149
 -1      8432    3    0    1
 -2      2618      2934      2938      3089
 -1      8433    3    0    1
 -2      2942      2977      2979      3111
 -1      8434    3    0    1
 -2      1439      2915      1440      3107
 -1      8435    3    0    1
 -2      2920      2958      3088      3107
 -1      8436    3    0    1
 -2      2866       906      1429      3143
 -1      8437    3    0    1
 -2      1438      1437      3101      1480
 -1      8438    3    0    1
 -2      1440      3107      3119      1483
 -1      8439    3    0    1
 -2      2670       953      1411      3087
 -1      8440    3    0    1
 -2      2668      1031      1426      3114
 -1      8441    3    0    1
 -2      2915      1055      1439      1440
 -1      8442    3    0    1
 -2      2926      2922      2935      3108
 -1      8443    3    0    1
 -2      1266      1260      2990      2997
 -1      8444    3    0    1
 -2      2920      2915      2958      3107
 -1      8445    3    0    1
 -2      1470      3101      3127      1480
 -1      8446    3    0    1
 -2      2618      1765      2917      2953
 -1      8447    3    0    1
 -2      2003       929      2288      3106
 -1      8448    3    0    1
 -2      2618      2917      2934      2953
 -1      8449    3    0    1
 -2      2919      2618      2934      2953
 -1      8450    3    0    1
 -2      1765      2618      2919      2953
 -1      8451    3    0    1
 -2      1441       381      3097      3106
 -1      8452    3    0    1
 -2      1413      1443      3128      3050
 -1      8453    3    0    1
 -2      1309      1069      2632      2954
 -1      8454    3    0    1
 -2      1069      1309      2048      2954
 -1      8455    3    0    1
 -2      2048      1309      2632      2954
 -1      8456    3    0    1
 -2      3085      1441      3097      3106
 -1      8457    3    0    1
 -2      1476      1510      1514      3056
 -1      8458    3    0    1
 -2      1320      1069      1424      2954
 -1      8459    3    0    1
 -2      1457      1483      1511      3080
 -1      8460    3    0    1
 -2      3104      2930      1461      2987
 -1      8461    3    0    1
 -2       924       503       922      3003
 -1      8462    3    0    1
 -2      1470      3127      3130      3150
 -1      8463    3    0    1
 -2      1799      2201      2919      3087
 -1      8464    3    0    1
 -2      3098      2924      1453      3005
 -1      8465    3    0    1
 -2      2967      1436      3133      3137
 -1      8466    3    0    1
 -2      2201      1799      2670      3087
 -1      8467    3    0    1
 -2      2003      1417      3106      3113
 -1      8468    3    0    1
 -2      1411       953      1412      3087
 -1      8469    3    0    1
 -2      1799      2090      2670      3087
 -1      8470    3    0    1
 -2      1275      2050      2649      2956
 -1      8471    3    0    1
 -2      2050      1275      2514      2956
 -1      8472    3    0    1
 -2      2966      2048      3094      3098
 -1      8473    3    0    1
 -2      1275      1016      1422      2956
 -1      8474    3    0    1
 -2      2344       990      1420      2968
 -1      8475    3    0    1
 -2      1460      3089      2982      3110
 -1      8476    3    0    1
 -2      2919      1415      2953      3089
 -1      8477    3    0    1
 -2      3087      2919      3089      3110
 -1      8478    3    0    1
 -2       912       480      3041      3073
 -1      8479    3    0    1
 -2      2214      2937      3114      3133
 -1      8480    3    0    1
 -2      1427      1286      1434      3071
 -1      8481    3    0    1
 -2      3091      2926      1443      3009
 -1      8482    3    0    1
 -2      1443       377      3136      3009
 -1      8483    3    0    1
 -2      1410      1432      1472      3053
 -1      8484    3    0    1
 -2       526       527       538      3040
 -1      8485    3    0    1
 -2      3090      2923      1446      2992
 -1      8486    3    0    1
 -2       572       573       586      2994
 -1      8487    3    0    1
 -2      1447      3114      3116      3137
 -1      8488    3    0    1
 -2      1419      3085      1442      3128
 -1      8489    3    0    1
 -2      1016      2406      1423      3092
 -1      8490    3    0    1
 -2      2930      2577      2931      3096
 -1      8491    3    0    1
 -2       356      3125      3149      3150
 -1      8492    3    0    1
 -2      2022      2914      2957      3109
 -1      8493    3    0    1
 -2      1412       953      1414      3129
 -1      8494    3    0    1
 -2      2719      2920      2958      3088
 -1      8495    3    0    1
 -2      3096      2971      2987      3013
 -1      8496    3    0    1
 -2      1298      1055      2488      3152
 -1      8497    3    0    1
 -2      1419      1413      3128      3050
 -1      8498    3    0    1
 -2      2935      2922      2938      3108
 -1      8499    3    0    1
 -2       929      1185       508      3003
 -1      8500    3    0    1
 -2      1799      2919      2938      3089
 -1      8501    3    0    1
 -2      1415      2934      2953      3089
 -1      8502    3    0    1
 -2      1585      1443      3108      3009
 -1      8503    3    0    1
 -2      2187      3091      2971      1448
 -1      8504    3    0    1
 -2      2631      2847      2911      2962
 -1      8505    3    0    1
 -2      1420      1452      3125      3082
 -1      8506    3    0    1
 -2      1423      1446      3118      3140
 -1      8507    3    0    1
 -2      1449      1431      1456      3048
 -1      8508    3    0    1
 -2      2671      2214      2945      3090
 -1      8509    3    0    1
 -2      2918      2671      2951      3090
 -1      8510    3    0    1
 -2      2918      2951      2959      3090
 -1      8511    3    0    1
 -2        91      1415      3115      1481
 -1      8512    3    0    1
 -2      2671      2921      2951      3090
 -1      8513    3    0    1
 -2      1416      2732      2963      3113
 -1      8514    3    0    1
 -2      2187      2930      2931      3096
 -1      8515    3    0    1
 -2      2214      2671      2918      3090
 -1      8516    3    0    1
 -2      2923      2769      2945      3090
 -1      8517    3    0    1
 -2      1472      1410      1477      3135
 -1      8518    3    0    1
 -2       450      3027      3034      3063
 -1      8519    3    0    1
 -2      2929      2847      2962      1472
 -1      8520    3    0    1
 -2       906      1174      2866      2964
 -1      8521    3    0    1
 -2      3132      3099      3139      1514
 -1      8522    3    0    1
 -2      2358      2563      2924      2965
 -1      8523    3    0    1
 -2      2904      2942      2977      2979
 -1      8524    3    0    1
 -2      1743      1332      1410      3099
 -1      8525    3    0    1
 -2      2344      1420      1421      3141
 -1      8526    3    0    1
 -2       363      2974      3103      1449
 -1      8527    3    0    1
 -2      1415      2919      2953      3105
 -1      8528    3    0    1
 -2      1470       358      1480      1502
 -1      8529    3    0    1
 -2      2953      1415      3105      3115
 -1      8530    3    0    1
 -2      1451      1425      1453      3120
 -1      8531    3    0    1
 -2      1309      2048      1439      3120
 -1      8532    3    0    1
 -2       691       706      3004      3055
 -1      8533    3    0    1
 -2      1031      1422      1426      3116
 -1      8534    3    0    1
 -2      1585      2925      2927      3091
 -1      8535    3    0    1
 -2      2925      2187      2927      3091
 -1      8536    3    0    1
 -2      2927      2187      2936      3091
 -1      8537    3    0    1
 -2      1233      2495      2912      3127
 -1      8538    3    0    1
 -2      2214      2945      3090      1447
 -1      8539    3    0    1
 -2      1439      2915      3107      3134
 -1      8540    3    0    1
 -2      3092      1423      1463      1464
 -1      8541    3    0    1
 -2      1422      1016      1423      3092
 -1      8542    3    0    1
 -2      2956      2918      2959      3092
 -1      8543    3    0    1
 -2      2406      2956      2959      3092
 -1      8544    3    0    1
 -2      1447       355      1463      1491
 -1      8545    3    0    1
 -2      2951      2406      2959      3092
 -1      8546    3    0    1
 -2      2935      2926      3108      3009
 -1      8547    3    0    1
 -2       947       550       945      3002
 -1      8548    3    0    1
 -2      3108      1443      3136      3009
 -1      8549    3    0    1
 -2      2921      2951      1446      3118
 -1      8550    3    0    1
 -2      2847      2962      1472      3144
 -1      8551    3    0    1
 -2      2985      3016      3040      3051
 -1      8552    3    0    1
 -2      1443      3109      3136      1485
 -1      8553    3    0    1
 -2      3102      2921      3103      3118
 -1      8554    3    0    1
 -2      2951      2406      3092      3118
 -1      8555    3    0    1
 -2      3041       916      3072      3073
 -1      8556    3    0    1
 -2       490      1174       483      3041
 -1      8557    3    0    1
 -2      3109      3136      1485      1486
 -1      8558    3    0    1
 -2      1420      2344      2968      3141
 -1      8559    3    0    1
 -2       811       826       819      2988
 -1      8560    3    0    1
 -2       274      1472      3144      3154
 -1      8561    3    0    1
 -2      1153         3      3027      3034
 -1      8562    3    0    1
 -2      2911      2946      2962      2999
 -1      8563    3    0    1
 -2      2892      2911      2947      3093
 -1      8564    3    0    1
 -2      3067       977      3068      3069
 -1      8565    3    0    1
 -2      3115       358      1470      3000
 -1      8566    3    0    1
 -2       802      1082       795      2978
 -1      8567    3    0    1
 -2      2912      2948      3101      3105
 -1      8568    3    0    1
 -2       787      1313      1074      2978
 -1      8569    3    0    1
 -2      1415      1411      1458      3131
 -1      8570    3    0    1
 -2      2866       906      2964      3122
 -1      8571    3    0    1
 -2       381       437      3097      2984
 -1      8572    3    0    1
 -2       802       795       787      2978
 -1      8573    3    0    1
 -2      2933      1243      1445      3121
 -1      8574    3    0    1
 -2      3085      1418      1441      3106
 -1      8575    3    0    1
 -2      1460      1459      1478      3045
 -1      8576    3    0    1
 -2      1413      1414      3109      1485
 -1      8577    3    0    1
 -2      1467      3104      2996      3124
 -1      8578    3    0    1
 -2       372      1458      3110      3131
 -1      8579    3    0    1
 -2      2372      2187      2961      2971
 -1      8580    3    0    1
 -2       964      2137      2670      2973
 -1      8581    3    0    1
 -2      2943      2950      3100      3152
 -1      8582    3    0    1
 -2      2961      2187      3091      2971
 -1      8583    3    0    1
 -2      1411       964      1438      3046
 -1      8584    3    0    1
 -2      2137      1233      2495      2973
 -1      8585    3    0    1
 -2      1453       434      3117      3005
 -1      8586    3    0    1
 -2       434       436      1451      3117
 -1      8587    3    0    1
 -2      2068      2358      2924      3098
 -1      8588    3    0    1
 -2      2999         1      3015      3144
 -1      8589    3    0    1
 -2      2931      2577      2936      3096
 -1      8590    3    0    1
 -2      2923      2671      3090      1446
 -1      8591    3    0    1
 -2      2671      2949      3086      1446
 -1      8592    3    0    1
 -2      2671      2923      2949      1446
 -1      8593    3    0    1
 -2      2915      1055      1440      3119
 -1      8594    3    0    1
 -2      2921      2951      3090      1446
 -1      8595    3    0    1
 -2      2671      2921      3090      1446
 -1      8596    3    0    1
 -2      2921      2671      3086      1446
 -1      8597    3    0    1
 -2      2495      1444      3121      3127
 -1      8598    3    0    1
 -2      2719      2920      3088      3119
 -1      8599    3    0    1
 -2      3019      3054      3080      3081
 -1      8600    3    0    1
 -2      1433      1432      1468      3126
 -1      8601    3    0    1
 -2      1457      3088      2950      2932
 -1      8602    3    0    1
 -2      1419      1442      1443      3128
 -1      8603    3    0    1
 -2      2068      2924      2966      3098
 -1      8604    3    0    1
 -2      3107      1439      3134      1482
 -1      8605    3    0    1
 -2      2924      2048      2966      3098
 -1      8606    3    0    1
 -2      1444      1470      1473      3127
 -1      8607    3    0    1
 -2      2916      2952      2955      3099
 -1      8608    3    0    1
 -2      2988      2989      3020      3052
 -1      8609    3    0    1
 -2      2916      1743      2952      3099
 -1      8610    3    0    1
 -2      1195      2985      3016      3040
 -1      8611    3    0    1
 -2      1332      1409      1410      3099
 -1      8612    3    0    1
 -2      1470      1444      1473      3069
 -1      8613    3    0    1
 -2      1332      1082      1409      3099
 -1      8614    3    0    1
 -2      2919      1415      3089      3131
 -1      8615    3    0    1
 -2      1414      3109      1485      1486
 -1      8616    3    0    1
 -2      2936      2187      3096      1448
 -1      8617    3    0    1
 -2      2187      2936      3091      1448
 -1      8618    3    0    1
 -2      1470       117      3127      3150
 -1      8619    3    0    1
 -2      2197      2969      3121      3130
 -1      8620    3    0    1
 -2      1069      1309      2983      3025
 -1      8621    3    0    1
 -2        18      3041      3047      3073
 -1      8622    3    0    1
 -2      1233       964      1437      2973
 -1      8623    3    0    1
 -2      2048      2954      3094      3120
 -1      8624    3    0    1
 -2      2912      2948      2973      3101
 -1      8625    3    0    1
 -2      2948      2201      2973      3101
 -1      8626    3    0    1
 -2      1415      3101      3115      1481
 -1      8627    3    0    1
 -2      3088      1457      2950      3119
 -1      8628    3    0    1
 -2      1467         1      1469      1475
 -1      8629    3    0    1
 -2      3139       382      3147      3043
 -1      8630    3    0    1
 -2      2718      1266      2867      3102
 -1      8631    3    0    1
 -2      2867      1266      1430      3102
 -1      8632    3    0    1
 -2      1002      1266      2718      3102
 -1      8633    3    0    1
 -2       244      3112      3134      1482
 -1      8634    3    0    1
 -2      3102      1431      1455      1456
 -1      8635    3    0    1
 -2      3103      3102      1455      1456
 -1      8636    3    0    1
 -2      2867      2921      2928      3102
 -1      8637    3    0    1
 -2      2914      3109      3129      3136
 -1      8638    3    0    1
 -2      3109      1460      3129      3136
 -1      8639    3    0    1
 -2      1430      1002      1431      3102
 -1      8640    3    0    1
 -2      1266      1002      1430      3102
 -1      8641    3    0    1
 -2      3101      2912      3105      3115
 -1      8642    3    0    1
 -2      2924      2048      3098      3120
 -1      8643    3    0    1
 -2      2214      2945      1447      3006
 -1      8644    3    0    1
 -2      1411      1415      1458      3065
 -1      8645    3    0    1
 -2      2958      2719      3088      3134
 -1      8646    3    0    1
 -2      2935      3108      1460      3039
 -1      8647    3    0    1
 -2      3108      2914      1460      3136
 -1      8648    3    0    1
 -2      2990      2997      2998      3140
 -1      8649    3    0    1
 -2      3027      1467      1508      3064
 -1      8650    3    0    1
 -2      2910      2804      1436      3133
 -1      8651    3    0    1
 -2      1585      2957      3108      3136
 -1      8652    3    0    1
 -2      2957      1585      3109      3136
 -1      8653    3    0    1
 -2      1443      1585      3108      3136
 -1      8654    3    0    1
 -2      1461      3104      3122      3124
 -1      8655    3    0    1
 -2      3027      3021      3034      3064
 -1      8656    3    0    1
 -2       260       254      2978      3007
 -1      8657    3    0    1
 -2       117      1473      3127      3149
 -1      8658    3    0    1
 -2       964      2201      2670      3131
 -1      8659    3    0    1
 -2      2967      2214      3114      3133
 -1      8660    3    0    1
 -2      1434      1435      3123      1497
 -1      8661    3    0    1
 -2      2716      2892      1433      3143
 -1      8662    3    0    1
 -2      1443      3109      3128      3136
 -1      8663    3    0    1
 -2      3035      3022      3045      3060
 -1      8664    3    0    1
 -2      2722      2804      2910      3133
 -1      8665    3    0    1
 -2      2949      3086      2972      2977
 -1      8666    3    0    1
 -2      2972      3086      1449      2977
 -1      8667    3    0    1
 -2      1943      2913      2949      2977
 -1      8668    3    0    1
 -2      1943      2871      2913      2977
 -1      8669    3    0    1
 -2      2913      2871      2942      2977
 -1      8670    3    0    1
 -2      1764      2913      2942      2977
 -1      8671    3    0    1
 -2      1445      2933      3121      3125
 -1      8672    3    0    1
 -2      3027      3034      3063      3064
 -1      8673    3    0    1
 -2      3141       352      1503      1504
 -1      8674    3    0    1
 -2      1185      2732      1416      3113
 -1      8675    3    0    1
 -2       387         2      2996      3124
 -1      8676    3    0    1
 -2      1467      1429      1496      3064
 -1      8677    3    0    1
 -2       254      1313       260      2978
 -1      8678    3    0    1
 -2      1313       787       788      2978
 -1      8679    3    0    1
 -2      2926      1585      3108      3009
 -1      8680    3    0    1
 -2      1082      1320      2978      3038
 -1      8681    3    0    1
 -2       572       586       580      2994
 -1      8682    3    0    1
 -2      1412      1411      3087      1458
 -1      8683    3    0    1
 -2      3096      2936      1448      3138
 -1      8684    3    0    1
 -2      1031      2937      1426      3114
 -1      8685    3    0    1
 -2      3100      2950      1457      3152
 -1      8686    3    0    1
 -2      3106      1418      3061      3074
 -1      8687    3    0    1
 -2      3016       521      3040      3051
 -1      8688    3    0    1
 -2      1427      2668      3114      3153
 -1      8689    3    0    1
 -2      1417      1418      3106      3074
 -1      8690    3    0    1
 -2       379      1472      1477      3135
 -1      8691    3    0    1
 -2       532       538       940      3040
 -1      8692    3    0    1
 -2      2867      2718      3102      3008
 -1      8693    3    0    1
 -2       618      3036      3057      3079
 -1      8694    3    0    1
 -2      2937      2214      3116      3133
 -1      8695    3    0    1
 -2      1436      1497      1517      3084
 -1      8696    3    0    1
 -2      1286       723      3059      3071
 -1      8697    3    0    1
 -2      1436      1427      1507      3153
 -1      8698    3    0    1
 -2      3098      3094      3117      3120
 -1      8699    3    0    1
 -2      2927      3085      3091      3106
 -1      8700    3    0    1
 -2      2936      3091      1448      3106
 -1      8701    3    0    1
 -2      3093      1432      3126      3154
 -1      8702    3    0    1
 -2      2140       929      3085      3106
 -1      8703    3    0    1
 -2       929      2140      2288      3106
 -1      8704    3    0    1
 -2      2936      2927      3091      3106
 -1      8705    3    0    1
 -2      2927      2140      3085      3106
 -1      8706    3    0    1
 -2      2140      2003      2288      3106
 -1      8707    3    0    1
 -2      2003      2927      2936      3106
 -1      8708    3    0    1
 -2      2003      2140      2927      3106
 -1      8709    3    0    1
 -2      1449      1431      3032      3151
 -1      8710    3    0    1
 -2       127       132      3036      3057
 -1      8711    3    0    1
 -2      2925      2922      2926      3108
 -1      8712    3    0    1
 -2      1585      2957      2960      3108
 -1      8713    3    0    1
 -2      2914      2938      2960      3108
 -1      8714    3    0    1
 -2      2957      2914      2960      3108
 -1      8715    3    0    1
 -2      1415       372      2982      3110
 -1      8716    3    0    1
 -2      1446      1455      3118      3140
 -1      8717    3    0    1
 -2      2925      1585      2960      3108
 -1      8718    3    0    1
 -2      2938      2922      2960      3108
 -1      8719    3    0    1
 -2      2922      2925      2960      3108
 -1      8720    3    0    1
 -2      3099      3135      3139      3147
 -1      8721    3    0    1
 -2       964      1221       586      2994
 -1      8722    3    0    1
 -2      2932      3088      2980      1457
 -1      8723    3    0    1
 -2      2930      2577      3096      2987
 -1      8724    3    0    1
 -2      2577      3104      1461      2987
 -1      8725    3    0    1
 -2      1426      1427      3114      1506
 -1      8726    3    0    1
 -2      2946      2941      3104      1467
 -1      8727    3    0    1
 -2      2344      1421      3008      3141
 -1      8728    3    0    1
 -2       953      3035      3045      3060
 -1      8729    3    0    1
 -2      1476      3099      3132      1514
 -1      8730    3    0    1
 -2      3100      1457      3146      3152
 -1      8731    3    0    1
 -2      3114      2967      3133      3137
 -1      8732    3    0    1
 -2      3141      1449      1504      3151
 -1      8733    3    0    1
 -2      2983      1309      3018      3025
 -1      8734    3    0    1
 -2      2914      2938      3108      1460
 -1      8735    3    0    1
 -2       623       984      3036      3066
 -1      8736    3    0    1
 -2       924        42        47      3003
 -1      8737    3    0    1
 -2       508       514       929      3003
 -1      8738    3    0    1
 -2      1799      3087      3110      3129
 -1      8739    3    0    1
 -2      1459      1412      1460      3129
 -1      8740    3    0    1
 -2      1209       953      1414      3060
 -1      8741    3    0    1
 -2      1461      1428      1495      3148
 -1      8742    3    0    1
 -2       503       924       504      3003
 -1      8743    3    0    1
 -2       371      1460      2982      3110
 -1      8744    3    0    1
 -2       372      1458      1459      3110
 -1      8745    3    0    1
 -2       352      1452      3011      3142
 -1      8746    3    0    1
 -2      2979      1449      3011      3142
 -1      8747    3    0    1
 -2      2197      2752      2942      3111
 -1      8748    3    0    1
 -2      2752      1764      2942      3111
 -1      8749    3    0    1
 -2      1452      2904      2979      3111
 -1      8750    3    0    1
 -2      2977      1449      2979      3111
 -1      8751    3    0    1
 -2      2979      1452      3111      3142
 -1      8752    3    0    1
 -2      1452      2979      3011      3142
 -1      8753    3    0    1
 -2      1429       906      1433      3143
 -1      8754    3    0    1
 -2      2911      2941      1467      3143
 -1      8755    3    0    1
 -2      2003      2936      2963      3113
 -1      8756    3    0    1
 -2      2732      2003      2963      3113
 -1      8757    3    0    1
 -2      3113      3138      1488      1489
 -1      8758    3    0    1
 -2      1185      1416      1417      3113
 -1      8759    3    0    1
 -2      2936      2577      2963      3113
 -1      8760    3    0    1
 -2      1074       787      2978      3037
 -1      8761    3    0    1
 -2       379      3135      3139      3043
 -1      8762    3    0    1
 -2       922        42      3003      3024
 -1      8763    3    0    1
 -2         1       274      3015      3144
 -1      8764    3    0    1
 -2       953      1412      1414      3060
 -1      8765    3    0    1
 -2      1467      1429      3143      1496
 -1      8766    3    0    1
 -2      1429      3122      3143      1496
 -1      8767    3    0    1
 -2      3101      1437      3127      1480
 -1      8768    3    0    1
 -2      3115      3101      1470      1480
 -1      8769    3    0    1
 -2      1320      1082      1424      3038
 -1      8770    3    0    1
 -2      1309      1069      2048      3120
 -1      8771    3    0    1
 -2      1069      1309      1439      3120
 -1      8772    3    0    1
 -2        91      1415      2953      3115
 -1      8773    3    0    1
 -2       219      1291      3054      3076
 -1      8774    3    0    1
 -2      3092      3095      1446      1464
 -1      8775    3    0    1
 -2       355       362      3095      1464
 -1      8776    3    0    1
 -2       355      3095      1463      1464
 -1      8777    3    0    1
 -2      1431      1255      3151      1002
 -1      8778    3    0    1
 -2       388        39      3138      3013
 -1      8779    3    0    1
 -2       381      3097      1448      2984
 -1      8780    3    0    1
 -2      1443      3091      3097      2984
 -1      8781    3    0    1
 -2       437      1443      3097      2984
 -1      8782    3    0    1
 -2      2514      1031      1426      3116
 -1      8783    3    0    1
 -2      1031      1275      1422      3116
 -1      8784    3    0    1
 -2      1275      1031      2514      3116
 -1      8785    3    0    1
 -2      1436       199      3137      1507
 -1      8786    3    0    1
 -2      2937      1426      3114      3116
 -1      8787    3    0    1
 -2      2918      2214      1447      3116
 -1      8788    3    0    1
 -2      3092      2918      3095      3116
 -1      8789    3    0    1
 -2      3092      3095      1463      3116
 -1      8790    3    0    1
 -2      3090      2918      1447      3116
 -1      8791    3    0    1
 -2      2918      3090      3095      3116
 -1      8792    3    0    1
 -2      3095      3090      1447      3116
 -1      8793    3    0    1
 -2       355      1447      1463      3116
 -1      8794    3    0    1
 -2      3095       355      1463      3116
 -1      8795    3    0    1
 -2       355      3095      1447      3116
 -1      8796    3    0    1
 -2      2514      2937      2956      3116
 -1      8797    3    0    1
 -2      2937      2918      2956      3116
 -1      8798    3    0    1
 -2      2214      2918      2937      3116
 -1      8799    3    0    1
 -2       436      1450      1451      3117
 -1      8800    3    0    1
 -2       940      2985       532      3040
 -1      8801    3    0    1
 -2      2847      2911      2962      3144
 -1      8802    3    0    1
 -2       916      1416      2963      3148
 -1      8803    3    0    1
 -2      3093      3126      3143      3144
 -1      8804    3    0    1
 -2      2962      2911      2999      3144
 -1      8805    3    0    1
 -2      2947      2847      3093      3144
 -1      8806    3    0    1
 -2         1      1467      3143      3144
 -1      8807    3    0    1
 -2      2911      2947      3093      3144
 -1      8808    3    0    1
 -2      1467      2911      3143      3144
 -1      8809    3    0    1
 -2      1489      1448      1518      3074
 -1      8810    3    0    1
 -2      1449      1456      1462      3048
 -1      8811    3    0    1
 -2       910        18       912      3041
 -1      8812    3    0    1
 -2      3087      1412      1459      3129
 -1      8813    3    0    1
 -2      3095      3092      1446      3118
 -1      8814    3    0    1
 -2      2951      3095      1446      3118
 -1      8815    3    0    1
 -2      1016      2406      2649      3118
 -1      8816    3    0    1
 -2      1266      1016      2649      3118
 -1      8817    3    0    1
 -2      1266      2649      2718      3118
 -1      8818    3    0    1
 -2       364      1446      1455      3118
 -1      8819    3    0    1
 -2      1446       364      3103      3118
 -1      8820    3    0    1
 -2      3103       364      1455      3118
 -1      8821    3    0    1
 -2      3086      1446      3103      3118
 -1      8822    3    0    1
 -2      2921      3086      3103      3118
 -1      8823    3    0    1
 -2      3086      2921      1446      3118
 -1      8824    3    0    1
 -2      2867      2406      2951      3118
 -1      8825    3    0    1
 -2      2921      2867      2951      3118
 -1      8826    3    0    1
 -2      2718      2406      2867      3118
 -1      8827    3    0    1
 -2      2649      2406      2718      3118
 -1      8828    3    0    1
 -2      2950      2719      3088      3119
 -1      8829    3    0    1
 -2       690       179      3049      3055
 -1      8830    3    0    1
 -2       179      1022      3004      3055
 -1      8831    3    0    1
 -2       179      3004      3049      3055
 -1      8832    3    0    1
 -2       226      2980      3112      3119
 -1      8833    3    0    1
 -2      2488      2920      2950      3119
 -1      8834    3    0    1
 -2      2488      2915      2920      3119
 -1      8835    3    0    1
 -2      2920      2719      2950      3119
 -1      8836    3    0    1
 -2      2980       226      1457      3119
 -1      8837    3    0    1
 -2       527       526      1193      3040
 -1      8838    3    0    1
 -2       573       586      2994      3017
 -1      8839    3    0    1
 -2      3117      3098      3005      3029
 -1      8840    3    0    1
 -2      1409      1410      3099      1476
 -1      8841    3    0    1
 -2      1454      3132      3139      1514
 -1      8842    3    0    1
 -2      3133      2976      3006      3033
 -1      8843    3    0    1
 -2       436      1454      3117      3029
 -1      8844    3    0    1
 -2      1432      1433      3093      3126
 -1      8845    3    0    1
 -2      1291      1293      3054      3076
 -1      8846    3    0    1
 -2       811       812      1086      2988
 -1      8847    3    0    1
 -2      3002       945      3022      3035
 -1      8848    3    0    1
 -2       275      1086      1325      2988
 -1      8849    3    0    1
 -2       675       667       682      2990
 -1      8850    3    0    1
 -2      1086       812      1325      2988
 -1      8851    3    0    1
 -2       675       682      1266      2990
 -1      8852    3    0    1
 -2       556       550      3002      3035
 -1      8853    3    0    1
 -2       276       275      1325      2988
 -1      8854    3    0    1
 -2       387         2      3124      3145
 -1      8855    3    0    1
 -2      1454      3098      3117      3029
 -1      8856    3    0    1
 -2      3125      3121      3149      3150
 -1      8857    3    0    1
 -2      3098      1454      3001      3029
 -1      8858    3    0    1
 -2         2      1467      2996      3124
 -1      8859    3    0    1
 -2      1007       667      1260      2990
 -1      8860    3    0    1
 -2       667       668      1260      2990
 -1      8861    3    0    1
 -2       668      1266      1260      2990
 -1      8862    3    0    1
 -2      1266       668       675      2990
 -1      8863    3    0    1
 -2       358        91      3115      1481
 -1      8864    3    0    1
 -2       434       436      3117      3029
 -1      8865    3    0    1
 -2      3127       117      3149      3150
 -1      8866    3    0    1
 -2       586       964      2994      3017
 -1      8867    3    0    1
 -2      1451       434      3117      3120
 -1      8868    3    0    1
 -2       434      1451      1453      3120
 -1      8869    3    0    1
 -2       977      2495      1444      3121
 -1      8870    3    0    1
 -2      2495       977      2933      3121
 -1      8871    3    0    1
 -2      2933       977      1444      3121
 -1      8872    3    0    1
 -2       940      1197      1413      3128
 -1      8873    3    0    1
 -2      2933      2197      2969      3121
 -1      8874    3    0    1
 -2      1473      3121      3127      3149
 -1      8875    3    0    1
 -2      2201      2919      3087      3131
 -1      8876    3    0    1
 -2      3135      2981      3139      3043
 -1      8877    3    0    1
 -2      2495      2933      2969      3121
 -1      8878    3    0    1
 -2      1460        78      3136      1486
 -1      8879    3    0    1
 -2      1243      1444      1445      3121
 -1      8880    3    0    1
 -2      1461      3047      3072      3075
 -1      8881    3    0    1
 -2      2964      2577      3104      3122
 -1      8882    3    0    1
 -2      3104      2577      1461      3122
 -1      8883    3    0    1
 -2      1174      1428      2964      3122
 -1      8884    3    0    1
 -2       906      1174      2964      3122
 -1      8885    3    0    1
 -2      2866      2964      2970      3122
 -1      8886    3    0    1
 -2      1467      3122      1496      3143
 -1      8887    3    0    1
 -2      2964      2941      2970      3122
 -1      8888    3    0    1
 -2      1428       906      1429      3122
 -1      8889    3    0    1
 -2      1174       906      1428      3122
 -1      8890    3    0    1
 -2        78      1460      3136      3039
 -1      8891    3    0    1
 -2      2928      2867      3102      3008
 -1      8892    3    0    1
 -2        91       358      3115      3028
 -1      8893    3    0    1
 -2       689      1491      3049      3077
 -1      8894    3    0    1
 -2      1460      3108      3136      3039
 -1      8895    3    0    1
 -2       451      1153       898      3021
 -1      8896    3    0    1
 -2      2953        91      3115      3028
 -1      8897    3    0    1
 -2      3021      1153      3027      3034
 -1      8898    3    0    1
 -2      3017      3044      3046      3065
 -1      8899    3    0    1
 -2      1421      3141      1504      3151
 -1      8900    3    0    1
 -2       360       374      3123      3146
 -1      8901    3    0    1
 -2       103        93      1215      2994
 -1      8902    3    0    1
 -2      1412      1459      1460      3045
 -1      8903    3    0    1
 -2       998       647       996      2995
 -1      8904    3    0    1
 -2      1160       906      2866      3143
 -1      8905    3    0    1
 -2      1454      3007      3038      3056
 -1      8906    3    0    1
 -2      3125      1420      3141      1503
 -1      8907    3    0    1
 -2       154       146       996      2995
 -1      8908    3    0    1
 -2      3014       641      1505      3032
 -1      8909    3    0    1
 -2      2866      1429      3122      3143
 -1      8910    3    0    1
 -2      1433      2892      3093      3143
 -1      8911    3    0    1
 -2      2892      2911      3093      3143
 -1      8912    3    0    1
 -2      3066      3057      3079      3082
 -1      8913    3    0    1
 -2      3125      1452      3130      3150
 -1      8914    3    0    1
 -2       356      1452      3125      3150
 -1      8915    3    0    1
 -2      1474      3121      1473      3149
 -1      8916    3    0    1
 -2      3121      1474      1473      1445
 -1      8917    3    0    1
 -2       964      1221      1411      3131
 -1      8918    3    0    1
 -2      2933      2197      3121      3125
 -1      8919    3    0    1
 -2      1452      2197      3111      3125
 -1      8920    3    0    1
 -2      1243      2933      1445      3125
 -1      8921    3    0    1
 -2      2933      1243      2968      3125
 -1      8922    3    0    1
 -2      1420      1243      1445      3125
 -1      8923    3    0    1
 -2      1449      2979      3111      3142
 -1      8924    3    0    1
 -2       990      1420      2968      3125
 -1      8925    3    0    1
 -2      1243       990      2968      3125
 -1      8926    3    0    1
 -2       990      1243      1420      3125
 -1      8927    3    0    1
 -2      2197      2933      2968      3125
 -1      8928    3    0    1
 -2      3096      2987      3138      3013
 -1      8929    3    0    1
 -2      2987       388      3138      3013
 -1      8930    3    0    1
 -2      1443      1413      3128      1485
 -1      8931    3    0    1
 -2      2971      3096      1448      3013
 -1      8932    3    0    1
 -2       665       163      2997      2998
 -1      8933    3    0    1
 -2       163      1260      2997      2998
 -1      8934    3    0    1
 -2       176       666      2990      2998
 -1      8935    3    0    1
 -2       163       176      1007      2998
 -1      8936    3    0    1
 -2       163      1007      1260      2998
 -1      8937    3    0    1
 -2      1007       176      2990      2998
 -1      8938    3    0    1
 -2      2941      2911      1467      2999
 -1      8939    3    0    1
 -2      2911      2941      2946      2999
 -1      8940    3    0    1
 -2      2946      2941      1467      2999
 -1      8941    3    0    1
 -2      1055      1440      3119      3152
 -1      8942    3    0    1
 -2      1448        39      1489      1518
 -1      8943    3    0    1
 -2      1493       594      3030      3069
 -1      8944    3    0    1
 -2       459       452       451      3021
 -1      8945    3    0    1
 -2      3049      1447      3070      3077
 -1      8946    3    0    1
 -2       964      1411      1438      3131
 -1      8947    3    0    1
 -2      1765      2917      3105      3000
 -1      8948    3    0    1
 -2      1452      3125      3141      1503
 -1      8949    3    0    1
 -2      1449       354      3142      1504
 -1      8950    3    0    1
 -2      3087      2919      3110      3131
 -1      8951    3    0    1
 -2      2948      3101      3115      3131
 -1      8952    3    0    1
 -2      2948      2201      3101      3131
 -1      8953    3    0    1
 -2      2939      2917      2940      3000
 -1      8954    3    0    1
 -2      2201       964      1438      3131
 -1      8955    3    0    1
 -2      2917      1765      2940      3000
 -1      8956    3    0    1
 -2      1221      2670      1411      3131
 -1      8957    3    0    1
 -2      1470      3130      3023      3150
 -1      8958    3    0    1
 -2      1470       117      1473      3127
 -1      8959    3    0    1
 -2      1415      2948      3115      3131
 -1      8960    3    0    1
 -2      3101      2912      3115      3127
 -1      8961    3    0    1
 -2      3101      3115      1470      3127
 -1      8962    3    0    1
 -2      1470      1765      2991      3127
 -1      8963    3    0    1
 -2      2912      1765      3105      3127
 -1      8964    3    0    1
 -2      3105      1765      1470      3127
 -1      8965    3    0    1
 -2      2912      3105      3115      3127
 -1      8966    3    0    1
 -2      3115      3105      1470      3127
 -1      8967    3    0    1
 -2      2912      2495      2969      3127
 -1      8968    3    0    1
 -2      1765      2969      2991      3127
 -1      8969    3    0    1
 -2      1765      2912      2969      3127
 -1      8970    3    0    1
 -2      1442      3085      3097      3128
 -1      8971    3    0    1
 -2      1585      2957      3109      3128
 -1      8972    3    0    1
 -2      3109      2957      2986      3128
 -1      8973    3    0    1
 -2      1197       940      1978      3128
 -1      8974    3    0    1
 -2      1978       940      2986      3128
 -1      8975    3    0    1
 -2      1197      1978      2140      3128
 -1      8976    3    0    1
 -2       437      1442      3097      3128
 -1      8977    3    0    1
 -2      1442       437      1443      3128
 -1      8978    3    0    1
 -2      1443       437      3097      3128
 -1      8979    3    0    1
 -2      2140      2927      3085      3128
 -1      8980    3    0    1
 -2      3091      1443      3097      3128
 -1      8981    3    0    1
 -2      3091      1585      1443      3128
 -1      8982    3    0    1
 -2      3085      3091      3128      2927
 -1      8983    3    0    1
 -2      2927      1585      3091      3128
 -1      8984    3    0    1
 -2      1585      2140      2986      3128
 -1      8985    3    0    1
 -2      2957      1585      2986      3128
 -1      8986    3    0    1
 -2      2140      1978      2986      3128
 -1      8987    3    0    1
 -2      2140      1585      2927      3128
 -1      8988    3    0    1
 -2      3113      1416      1488      3148
 -1      8989    3    0    1
 -2      2964      2577      3122      3148
 -1      8990    3    0    1
 -2      2963      1416      3113      3148
 -1      8991    3    0    1
 -2       623       984       986      3036
 -1      8992    3    0    1
 -2      3072      3047      3073      3075
 -1      8993    3    0    1
 -2      1428      3122      1495      3148
 -1      8994    3    0    1
 -2      2914      2938      1460      3129
 -1      8995    3    0    1
 -2      3087      2090       953      3129
 -1      8996    3    0    1
 -2       371      1460      3110      3129
 -1      8997    3    0    1
 -2      1459       371      3110      3129
 -1      8998    3    0    1
 -2       371      1459      1460      3129
 -1      8999    3    0    1
 -2      1209      2022      1414      3129
 -1      9000    3    0    1
 -2      2022      1209      2090      3129
 -1      9001    3    0    1
 -2      2914      1799      2938      3129
 -1      9002    3    0    1
 -2      2090      1799      2914      3129
 -1      9003    3    0    1
 -2      2022      2090      2914      3129
 -1      9004    3    0    1
 -2      2994       570      3044      3065
 -1      9005    3    0    1
 -2      3010      2983      3018      3025
 -1      9006    3    0    1
 -2       450      1475      3027      3063
 -1      9007    3    0    1
 -2      1433      1429      1467      3063
 -1      9008    3    0    1
 -2      1439      1453      1482      3025
 -1      9009    3    0    1
 -2      2991      1470      3127      3130
 -1      9010    3    0    1
 -2      2942      2197      3111      3130
 -1      9011    3    0    1
 -2      2904      2942      3111      3130
 -1      9012    3    0    1
 -2      1185       508      3003      3062
 -1      9013    3    0    1
 -2      2939      1470      3000      3130
 -1      9014    3    0    1
 -2      2197      2940      2991      3130
 -1      9015    3    0    1
 -2      2940      1765      2991      3130
 -1      9016    3    0    1
 -2      2969      2197      2991      3130
 -1      9017    3    0    1
 -2      2939      2904      1452      3130
 -1      9018    3    0    1
 -2      2940      2197      2942      3130
 -1      9019    3    0    1
 -2      3089      1415      3110      3131
 -1      9020    3    0    1
 -2      2919      3089      3110      3131
 -1      9021    3    0    1
 -2      2919      2201      2948      3131
 -1      9022    3    0    1
 -2      2939      1470      3130      3023
 -1      9023    3    0    1
 -2      1409      1476      3132      1514
 -1      9024    3    0    1
 -2       706      1031       699      3004
 -1      9025    3    0    1
 -2       706       699       691      3004
 -1      9026    3    0    1
 -2      1269       179      1022      3004
 -1      9027    3    0    1
 -2       691      1269      1022      3004
 -1      9028    3    0    1
 -2      1476       382      3147      1514
 -1      9029    3    0    1
 -2      3139       382      3043      1514
 -1      9030    3    0    1
 -2       382      3139      3147      1514
 -1      9031    3    0    1
 -2       179      1269       180      3004
 -1      9032    3    0    1
 -2      1082      2978      3037      3056
 -1      9033    3    0    1
 -2      1454      1409      1514      3056
 -1      9034    3    0    1
 -2      1269       691       692      3004
 -1      9035    3    0    1
 -2       388      1461      1488      1492
 -1      9036    3    0    1
 -2      3098      2966      1454      3132
 -1      9037    3    0    1
 -2      3094      2966      3098      3132
 -1      9038    3    0    1
 -2      3094      3098      3117      3132
 -1      9039    3    0    1
 -2      2068      2430      2916      3132
 -1      9040    3    0    1
 -2      2430      2049      2916      3132
 -1      9041    3    0    1
 -2      2430      2068      2966      3132
 -1      9042    3    0    1
 -2      2804      2214      2967      3133
 -1      9043    3    0    1
 -2      2958      3088      3107      3134
 -1      9044    3    0    1
 -2      2910      1436      2976      3133
 -1      9045    3    0    1
 -2      2048      2915      1439      3134
 -1      9046    3    0    1
 -2      2722      2214      2804      3133
 -1      9047    3    0    1
 -2      2945      2910      2976      3133
 -1      9048    3    0    1
 -2      3098      2924      3120      3134
 -1      9049    3    0    1
 -2      2924      3098      1453      3134
 -1      9050    3    0    1
 -2      1453      3098      3120      3134
 -1      9051    3    0    1
 -2      3088      2932      2980      3134
 -1      9052    3    0    1
 -2      2980       244      3112      3134
 -1      9053    3    0    1
 -2      2932      2924      2965      3134
 -1      9054    3    0    1
 -2      2965      2924      1453      3134
 -1      9055    3    0    1
 -2      2719      2048      2924      3134
 -1      9056    3    0    1
 -2      2915      2048      2958      3134
 -1      9057    3    0    1
 -2      2048      2719      2958      3134
 -1      9058    3    0    1
 -2      2932      1453      2980      3134
 -1      9059    3    0    1
 -2      1453       244      2980      3134
 -1      9060    3    0    1
 -2      2932      2965      1453      3134
 -1      9061    3    0    1
 -2       786       260      2978      3007
 -1      9062    3    0    1
 -2      2978       786      3007      3038
 -1      9063    3    0    1
 -2       274      1468      1472      3154
 -1      9064    3    0    1
 -2      1432      3093      3026      3154
 -1      9065    3    0    1
 -2      1094      1432      3026      3154
 -1      9066    3    0    1
 -2      2952      2847      2955      3135
 -1      9067    3    0    1
 -2      2981      2929      1472      3135
 -1      9068    3    0    1
 -2      1449       354      3011      3142
 -1      9069    3    0    1
 -2        60      1195      3016      3040
 -1      9070    3    0    1
 -2      1255      2344      1421      3008
 -1      9071    3    0    1
 -2      3136      3108      3009      3039
 -1      9072    3    0    1
 -2      1255      1002      2344      3008
 -1      9073    3    0    1
 -2         2      1467      1496      1508
 -1      9074    3    0    1
 -2      3017      2994      3044      3065
 -1      9075    3    0    1
 -2       479       480       490      3041
 -1      9076    3    0    1
 -2      2944      2950      1457      3146
 -1      9077    3    0    1
 -2      3112       226      3119      1483
 -1      9078    3    0    1
 -2      3107      3112      3119      1483
 -1      9079    3    0    1
 -2       244       226      3112      1483
 -1      9080    3    0    1
 -2       244      3112      1482      1483
 -1      9081    3    0    1
 -2      3111      1449      3141      3151
 -1      9082    3    0    1
 -2      3008      3111      3141      3151
 -1      9083    3    0    1
 -2      1447      3116      3133      3137
 -1      9084    3    0    1
 -2      1447      3133      3006      3137
 -1      9085    3    0    1
 -2      2937      3114      3133      3137
 -1      9086    3    0    1
 -2      3114      2937      3116      3137
 -1      9087    3    0    1
 -2      3116      2937      3133      3137
 -1      9088    3    0    1
 -2       191      1447      3006      3137
 -1      9089    3    0    1
 -2      1448      2936      3106      3138
 -1      9090    3    0    1
 -2      3106      2936      3113      3138
 -1      9091    3    0    1
 -2      1448      3106      3113      3138
 -1      9092    3    0    1
 -2       388      1461      2987      3138
 -1      9093    3    0    1
 -2      2952      2955      3099      3139
 -1      9094    3    0    1
 -2      2358      2068      2929      3139
 -1      9095    3    0    1
 -2      3099      2916      3132      3139
 -1      9096    3    0    1
 -2      2916      2068      3132      3139
 -1      9097    3    0    1
 -2      2068      2358      1454      3139
 -1      9098    3    0    1
 -2      2068      1454      3132      3139
 -1      9099    3    0    1
 -2      2847      2955      3135      3139
 -1      9100    3    0    1
 -2      2929      2847      3135      3139
 -1      9101    3    0    1
 -2      2847      2929      2955      3139
 -1      9102    3    0    1
 -2      2068      2916      2955      3139
 -1      9103    3    0    1
 -2      1293      3019      3054      3076
 -1      9104    3    0    1
 -2      2358      2929      2981      3139
 -1      9105    3    0    1
 -2      2985       522      3016      3050
 -1      9106    3    0    1
 -2      1016      1266      2990      3140
 -1      9107    3    0    1
 -2      2990      1266      2997      3140
 -1      9108    3    0    1
 -2      1430      1266      3118      3140
 -1      9109    3    0    1
 -2      1266      1016      3118      3140
 -1      9110    3    0    1
 -2      2997       665      2998      3140
 -1      9111    3    0    1
 -2      1446       364      1455      3140
 -1      9112    3    0    1
 -2      1430      1455      2997      3140
 -1      9113    3    0    1
 -2      1266      1430      2997      3140
 -1      9114    3    0    1
 -2      1423      1016      2990      3140
 -1      9115    3    0    1
 -2      1455      1471      2997      3140
 -1      9116    3    0    1
 -2      1471      1446      2998      3140
 -1      9117    3    0    1
 -2       665      1471      2998      3140
 -1      9118    3    0    1
 -2      1471       665      2997      3140
 -1      9119    3    0    1
 -2      1455       364      1471      3140
 -1      9120    3    0    1
 -2       364      1446      1471      3140
 -1      9121    3    0    1
 -2      3136       377      1485      1486
 -1      9122    3    0    1
 -2      1428      2964      3122      3148
 -1      9123    3    0    1
 -2       717      1280      3059      3071
 -1      9124    3    0    1
 -2      1453       244      1482      1499
 -1      9125    3    0    1
 -2       382       379      3147      3043
 -1      9126    3    0    1
 -2      1442      1419      1443      3050
 -1      9127    3    0    1
 -2      1069      1425      1439      3042
 -1      9128    3    0    1
 -2       241       761      2983      3010
 -1      9129    3    0    1
 -2      1431      1449      3032      3048
 -1      9130    3    0    1
 -2      2950      3100      1457      3146
 -1      9131    3    0    1
 -2      1022       691      3004      3055
 -1      9132    3    0    1
 -2      1061       241      2983      3010
 -1      9133    3    0    1
 -2       761      2983      3010      3042
 -1      9134    3    0    1
 -2      3113      1448      3138      1489
 -1      9135    3    0    1
 -2      1448        39      3138      1489
 -1      9136    3    0    1
 -2        39       388      3138      1489
 -1      9137    3    0    1
 -2      3138       388      1488      1489
 -1      9138    3    0    1
 -2      3111      1452      3125      3141
 -1      9139    3    0    1
 -2       191      1447      3137      1506
 -1      9140    3    0    1
 -2       647       996      2995      3031
 -1      9141    3    0    1
 -2      3114      1447      3116      1506
 -1      9142    3    0    1
 -2      2197      3111      3125      3141
 -1      9143    3    0    1
 -2      2968      2197      3125      3141
 -1      9144    3    0    1
 -2      1421      3141      1503      1504
 -1      9145    3    0    1
 -2      2752      2344      3008      3141
 -1      9146    3    0    1
 -2      2344      2752      2968      3141
 -1      9147    3    0    1
 -2      2752      2197      2968      3141
 -1      9148    3    0    1
 -2       604       599       610      3012
 -1      9149    3    0    1
 -2       604       610       977      3012
 -1      9150    3    0    1
 -2      3098      3001      3005      3029
 -1      9151    3    0    1
 -2      1215       573      2994      3017
 -1      9152    3    0    1
 -2       599       600       610      3012
 -1      9153    3    0    1
 -2       970       108       972      3012
 -1      9154    3    0    1
 -2       977      3012      3067      3068
 -1      9155    3    0    1
 -2       972       599       970      3012
 -1      9156    3    0    1
 -2       114       108       970      3012
 -1      9157    3    0    1
 -2       374      3123      3146      3152
 -1      9158    3    0    1
 -2      3141       352      1452      1503
 -1      9159    3    0    1
 -2       254      2978      3007      3037
 -1      9160    3    0    1
 -2       599       972       600      3012
 -1      9161    3    0    1
 -2       977      1233      3012      3068
 -1      9162    3    0    1
 -2      1449       354      1504      1505
 -1      9163    3    0    1
 -2       996       154      2995      3031
 -1      9164    3    0    1
 -2       352      1452      1503      1513
 -1      9165    3    0    1
 -2       352      3141      1452      3142
 -1      9166    3    0    1
 -2      1467      1433      1469      3143
 -1      9167    3    0    1
 -2      1469      1433      3126      3143
 -1      9168    3    0    1
 -2      2941      2970      3122      3143
 -1      9169    3    0    1
 -2      1467      2941      3122      3143
 -1      9170    3    0    1
 -2         1      1469      3126      3143
 -1      9171    3    0    1
 -2         1      1467      1469      3143
 -1      9172    3    0    1
 -2      2892      2866      2970      3143
 -1      9173    3    0    1
 -2      2941      2892      2970      3143
 -1      9174    3    0    1
 -2      2716      2866      2892      3143
 -1      9175    3    0    1
 -2      2911      2892      2941      3143
 -1      9176    3    0    1
 -2      2983      1069      3025      3042
 -1      9177    3    0    1
 -2       480       479       910      3041
 -1      9178    3    0    1
 -2      1443      1485      1487      3051
 -1      9179    3    0    1
 -2      1443      1413      1485      3051
 -1      9180    3    0    1
 -2       642      2995      3014      3048
 -1      9181    3    0    1
 -2       916      1174       490      3041
 -1      9182    3    0    1
 -2      1197      1413      3050      3051
 -1      9183    3    0    1
 -2      3032      1431      1255      1421
 -1      9184    3    0    1
 -2       940      2985      3040      3051
 -1      9185    3    0    1
 -2       522        60      2985      3016
 -1      9186    3    0    1
 -2       479       490       483      3041
 -1      9187    3    0    1
 -2      1197       940      1413      3051
 -1      9188    3    0    1
 -2        60      1195      2985      3016
 -1      9189    3    0    1
 -2      1443      1419      3128      3050
 -1      9190    3    0    1
 -2      2911      2847      2947      3144
 -1      9191    3    0    1
 -2       274      1472      3015      3144
 -1      9192    3    0    1
 -2       545      3002      3022      3045
 -1      9193    3    0    1
 -2      3022      3002      3035      3045
 -1      9194    3    0    1
 -2      2994       964      3065      3017
 -1      9195    3    0    1
 -2      1448      1417      3106      3074
 -1      9196    3    0    1
 -2      1478       545      3022      3045
 -1      9197    3    0    1
 -2      1061       241      3010      3018
 -1      9198    3    0    1
 -2       766       767      1308      3018
 -1      9199    3    0    1
 -2       245       762      3010      3018
 -1      9200    3    0    1
 -2       245      1061      1308      3018
 -1      9201    3    0    1
 -2       766      1061      2983      3018
 -1      9202    3    0    1
 -2      1061       766      1308      3018
 -1      9203    3    0    1
 -2       245       241      1061      3018
 -1      9204    3    0    1
 -2       241       245      3010      3018
 -1      9205    3    0    1
 -2       778       766      2983      3018
 -1      9206    3    0    1
 -2      1434      1436      1497      3153
 -1      9207    3    0    1
 -2       374       360      3123      1498
 -1      9208    3    0    1
 -2      3123       360      1497      1498
 -1      9209    3    0    1
 -2       972       600      3012      3067
 -1      9210    3    0    1
 -2      1409      3132      3038      3056
 -1      9211    3    0    1
 -2      3123      3100      3146      3152
 -1      9212    3    0    1
 -2      1495      1461      1512      3072
 -1      9213    3    0    1
 -2      1055      1298      1435      3152
 -1      9214    3    0    1
 -2      1055      1435      1440      3152
 -1      9215    3    0    1
 -2      3019       738      3054      3081
 -1      9216    3    0    1
 -2       747      1055      1298      3019
 -1      9217    3    0    1
 -2      3004       689      3049      3077
 -1      9218    3    0    1
 -2      1440      1457      3119      3152
 -1      9219    3    0    1
 -2      1431      1255      1421      3151
 -1      9220    3    0    1
 -2      1435      3123      1498      3152
 -1      9221    3    0    1
 -2      2950      2488      3119      3152
 -1      9222    3    0    1
 -2      1457      1435      1498      3152
 -1      9223    3    0    1
 -2      1435      1298      3123      3152
 -1      9224    3    0    1
 -2      1298      2488      2943      3152
 -1      9225    3    0    1
 -2      1491      1447      3049      3077
 -1      9226    3    0    1
 -2      1275      3004      3070      3077
 -1      9227    3    0    1
 -2      1422      1275      3070      3077
 -1      9228    3    0    1
 -2       276      1325      2989      3020
 -1      9229    3    0    1
 -2      3115       358      3000      3028
 -1      9230    3    0    1
 -2       953      1209       556      3035
 -1      9231    3    0    1
 -2      1153       451       452      3021
 -1      9232    3    0    1
 -2      3002       556       953       562
 -1      9233    3    0    1
 -2      3141      1449      3142      1504
 -1      9234    3    0    1
 -2       114       108      3012      3030
 -1      9235    3    0    1
 -2      1436      2910      2993      3146
 -1      9236    3    0    1
 -2      2910      2944      2993      3146
 -1      9237    3    0    1
 -2      1476       382      1477      3147
 -1      9238    3    0    1
 -2       945       947      3002      3022
 -1      9239    3    0    1
 -2      1411      1438      3131      3046
 -1      9240    3    0    1
 -2      1243       627      3036      3066
 -1      9241    3    0    1
 -2      1460      1414      3129      3060
 -1      9242    3    0    1
 -2       623       624       634      3036
 -1      9243    3    0    1
 -2        74       545      3002      3022
 -1      9244    3    0    1
 -2      1418      1441      1448      3061
 -1      9245    3    0    1
 -2       947        74      3002      3022
 -1      9246    3    0    1
 -2       947        73        74      3022
 -1      9247    3    0    1
 -2        73       947       945      3022
 -1      9248    3    0    1
 -2      1461      3096      3138      3148
 -1      9249    3    0    1
 -2      3122      1461      1495      3148
 -1      9250    3    0    1
 -2      1461      3122      1495      3145
 -1      9251    3    0    1
 -2      1174      1929      1428      3148
 -1      9252    3    0    1
 -2       916      1174      1428      3148
 -1      9253    3    0    1
 -2      1174       916      1929      3148
 -1      9254    3    0    1
 -2       388      3138      1488      3148
 -1      9255    3    0    1
 -2      1461       388      1488      3148
 -1      9256    3    0    1
 -2       388      1461      3138      3148
 -1      9257    3    0    1
 -2      2963      2577      2964      3148
 -1      9258    3    0    1
 -2      1929      2963      2964      3148
 -1      9259    3    0    1
 -2      1929      2732      2963      3148
 -1      9260    3    0    1
 -2      1416      3148      3072      3075
 -1      9261    3    0    1
 -2      1469      1467      1475      3063
 -1      9262    3    0    1
 -2       922        42      3024      3062
 -1      9263    3    0    1
 -2       497      3003      3024      3061
 -1      9264    3    0    1
 -2        47       497      3003      3024
 -1      9265    3    0    1
 -2      1433      1467      1469      3063
 -1      9266    3    0    1
 -2      1453      3010      1499      3025
 -1      9267    3    0    1
 -2       754       747       740      3076
 -1      9268    3    0    1
 -2       117       356      1474      3149
 -1      9269    3    0    1
 -2      1473       117      1474      3149
 -1      9270    3    0    1
 -2      3130      1452      3023      3150
 -1      9271    3    0    1
 -2      3121      3127      3149      3150
 -1      9272    3    0    1
 -2      3130      3125      3121      2197
 -1      9273    3    0    1
 -2      3125      3130      3121      3150
 -1      9274    3    0    1
 -2      2969      3121      3130      3150
 -1      9275    3    0    1
 -2      3121      2969      3127      3150
 -1      9276    3    0    1
 -2      3127      2969      3130      3150
 -1      9277    3    0    1
 -2       356       117      3023      3150
 -1      9278    3    0    1
 -2       117      1470      3023      3150
 -1      9279    3    0    1
 -2      1452       356      3023      3150
 -1      9280    3    0    1
 -2      1429      1467      3063      3064
 -1      9281    3    0    1
 -2      1743      1094      2716      3026
 -1      9282    3    0    1
 -2      2716      1094      1432      3026
 -1      9283    3    0    1
 -2      1467      1496      1508      3064
 -1      9284    3    0    1
 -2       964      2994      3065      1221
 -1      9285    3    0    1
 -2      1411       964      3046      3065
 -1      9286    3    0    1
 -2      1221       964      1411      3065
 -1      9287    3    0    1
 -2       449      3027      1508      3064
 -1      9288    3    0    1
 -2      3021       906      3034      3064
 -1      9289    3    0    1
 -2        14       449      3021      3027
 -1      9290    3    0    1
 -2         3       898      1153      3027
 -1      9291    3    0    1
 -2         3        14       898      3027
 -1      9292    3    0    1
 -2       898        14      3021      3027
 -1      9293    3    0    1
 -2      1437       977      1444      3068
 -1      9294    3    0    1
 -2      1480      1470      1502      3068
 -1      9295    3    0    1
 -2      1233       977      1437      3068
 -1      9296    3    0    1
 -2      1444      1470      3127      3069
 -1      9297    3    0    1
 -2      1444      3127      3068      3069
 -1      9298    3    0    1
 -2       593       114      3012      3030
 -1      9299    3    0    1
 -2      3012       593      3030      3068
 -1      9300    3    0    1
 -2      3127      1470      3068      3069
 -1      9301    3    0    1
 -2      3004      3049      3055      3070
 -1      9302    3    0    1
 -2      1437      1470      1480      3068
 -1      9303    3    0    1
 -2       352      3141      3142      1504
 -1      9304    3    0    1
 -2       354       352      3142      1504
 -1      9305    3    0    1
 -2      1255       651      2995      3031
 -1      9306    3    0    1
 -2       651       647      2995      3031
 -1      9307    3    0    1
 -2      2995       154      3014      3031
 -1      9308    3    0    1
 -2      1426      3114      3116      1506
 -1      9309    3    0    1
 -2      2995      1255      3048      1002
 -1      9310    3    0    1
 -2      1447      1426      3116      1506
 -1      9311    3    0    1
 -2       154       641      3014      3031
 -1      9312    3    0    1
 -2      1447      3114      3137      1506
 -1      9313    3    0    1
 -2      1460      3129      3045      3060
 -1      9314    3    0    1
 -2       108      3012      3030      3067
 -1      9315    3    0    1
 -2      3137       191      1506      1507
 -1      9316    3    0    1
 -2       191       199      3137      3033
 -1      9317    3    0    1
 -2      1436      2976      3137      3033
 -1      9318    3    0    1
 -2       199      1436      3137      3033
 -1      9319    3    0    1
 -2      3131      1411      3046      3065
 -1      9320    3    0    1
 -2      1415      1411      3131      3065
 -1      9321    3    0    1
 -2      1458      1415      1484      3065
 -1      9322    3    0    1
 -2      1415      3131      3046      3065
 -1      9323    3    0    1
 -2       459       906      1160      3034
 -1      9324    3    0    1
 -2      1432      1410      1472      3154
 -1      9325    3    0    1
 -2      1743      2952      3135      3154
 -1      9326    3    0    1
 -2      1432      1468      3126      3154
 -1      9327    3    0    1
 -2      3126       274      3144      3154
 -1      9328    3    0    1
 -2      3021       459       906       466
 -1      9329    3    0    1
 -2       459      3021       906      3034
 -1      9330    3    0    1
 -2      1468       274      3126      3154
 -1      9331    3    0    1
 -2         3       450      3027      3034
 -1      9332    3    0    1
 -2      1743      1094      3026      3154
 -1      9333    3    0    1
 -2      1410      1743      3135      3154
 -1      9334    3    0    1
 -2      1468      1432      1472      3154
 -1      9335    3    0    1
 -2        73       546      3022      3035
 -1      9336    3    0    1
 -2      1415      1481      1500      3046
 -1      9337    3    0    1
 -2       624       623       986      3036
 -1      9338    3    0    1
 -2      1447      1506      1519      3070
 -1      9339    3    0    1
 -2      1513       618      3057      3079
 -1      9340    3    0    1
 -2       127       132       984      3036
 -1      9341    3    0    1
 -2      2804      2943      3100      3058
 -1      9342    3    0    1
 -2       723       717      3059      3071
 -1      9343    3    0    1
 -2      2804      1436      3133      3058
 -1      9344    3    0    1
 -2      1460      3022      1509      3060
 -1      9345    3    0    1
 -2      3030      3067      3068      3069
 -1      9346    3    0    1
 -2      1002      1431      3102      3151
 -1      9347    3    0    1
 -2      1431      1449      1456      3151
 -1      9348    3    0    1
 -2      3102      1431      1456      3151
 -1      9349    3    0    1
 -2      1255      1002      3008      3151
 -1      9350    3    0    1
 -2      1421      1255      3008      3151
 -1      9351    3    0    1
 -2      1764      3111      3008      3151
 -1      9352    3    0    1
 -2      1764      1449      3111      3151
 -1      9353    3    0    1
 -2      2718      3102      3008      3151
 -1      9354    3    0    1
 -2      1002      2718      3008      3151
 -1      9355    3    0    1
 -2      2718      1002      3102      3151
 -1      9356    3    0    1
 -2      3103      3102      1456      3151
 -1      9357    3    0    1
 -2       363      3103      1456      3151
 -1      9358    3    0    1
 -2      3103       363      1449      3151
 -1      9359    3    0    1
 -2      1449       363      1456      3151
 -1      9360    3    0    1
 -2      1764      2928      3086      3151
 -1      9361    3    0    1
 -2      3086      3102      3151      2928
 -1      9362    3    0    1
 -2      3086      3103      1449      3151
 -1      9363    3    0    1
 -2      1764      3086      1449      3151
 -1      9364    3    0    1
 -2      2928      1764      3008      3151
 -1      9365    3    0    1
 -2        56      1193      1195      3040
 -1      9366    3    0    1
 -2      1195       526      2985      3040
 -1      9367    3    0    1
 -2      1193       526      1195      3040
 -1      9368    3    0    1
 -2      1332      2989      3052      3053
 -1      9369    3    0    1
 -2        56        60      3016      3040
 -1      9370    3    0    1
 -2        60        56      1195      3040
 -1      9371    3    0    1
 -2       526       532      2985      3040
 -1      9372    3    0    1
 -2      1449      3014      3032      3048
 -1      9373    3    0    1
 -2      3024      3061      3062      3074
 -1      9374    3    0    1
 -2      1431      3032      1255      3048
 -1      9375    3    0    1
 -2      3048      1255      1431      1002
 -1      9376    3    0    1
 -2       984       127      3057      3066
 -1      9377    3    0    1
 -2       498      3024      3062      3074
 -1      9378    3    0    1
 -2      3054       737      3076      3080
 -1      9379    3    0    1
 -2        93       569      3017      3044
 -1      9380    3    0    1
 -2       480       490      3041      3073
 -1      9381    3    0    1
 -2      1215        93      3017      3044
 -1      9382    3    0    1
 -2      3036      1243      3079       990
 -1      9383    3    0    1
 -2       570       103      2994      3044
 -1      9384    3    0    1
 -2       714      1520      3078      3083
 -1      9385    3    0    1
 -2      1507      1436      1520      3083
 -1      9386    3    0    1
 -2      1500       569      3044      3046
 -1      9387    3    0    1
 -2      1415      1500      3044      3046
 -1      9388    3    0    1
 -2      3047      3041      3072      3073
 -1      9389    3    0    1
 -2       747      3076      1055      3019
 -1      9390    3    0    1
 -2      1417      1448      1489      3074
 -1      9391    3    0    1
 -2       474        18      3041      3047
 -1      9392    3    0    1
 -2      3152      3080      1435      1440
 -1      9393    3    0    1
 -2      3024      1448      3061      3074
 -1      9394    3    0    1
 -2      1449      1462      3014      3048
 -1      9395    3    0    1
 -2      3031      1255      3032      3048
 -1      9396    3    0    1
 -2      1280      3059      3071      3078
 -1      9397    3    0    1
 -2       600       610      3012      3067
 -1      9398    3    0    1
 -2       610       977      3012      3067
 -1      9399    3    0    1
 -2      1409      1476      1514      3056
 -1      9400    3    0    1
 -2      3007       785      3037      3056
 -1      9401    3    0    1
 -2       689       180      3004      3049
 -1      9402    3    0    1
 -2      2358      1454      3139      1514
 -1      9403    3    0    1
 -2      2981      2358      3139      1514
 -1      9404    3    0    1
 -2       382      1476      1510      1514
 -1      9405    3    0    1
 -2       522      1466      3016      3050
 -1      9406    3    0    1
 -2      1466      1443      3016      3050
 -1      9407    3    0    1
 -2      3020      1472      3052      3053
 -1      9408    3    0    1
 -2      1487       521      3016      3051
 -1      9409    3    0    1
 -2      1443      1487      3016      3051
 -1      9410    3    0    1
 -2      2985      1197      3050      3051
 -1      9411    3    0    1
 -2      1472      1468      1515      3052
 -1      9412    3    0    1
 -2      1332      2988      3052      2989
 -1      9413    3    0    1
 -2      1332      1094      1432      3052
 -1      9414    3    0    1
 -2      3054      1457      3080      3081
 -1      9415    3    0    1
 -2       809      3020      1515      3052
 -1      9416    3    0    1
 -2      3020      1472      1515      3052
 -1      9417    3    0    1
 -2      3020       810      1516      3053
 -1      9418    3    0    1
 -2      1472      3020      1516      3053
 -1      9419    3    0    1
 -2      1428      1461      1495      3072
 -1      9420    3    0    1
 -2      3041       474      3047      3072
 -1      9421    3    0    1
 -2       738       217      3019      3054
 -1      9422    3    0    1
 -2      3004      3049      3070      3077
 -1      9423    3    0    1
 -2      1055      1298      3019      3081
 -1      9424    3    0    1
 -2       217      1293      3019      3054
 -1      9425    3    0    1
 -2      1463      1447      1491      3077
 -1      9426    3    0    1
 -2       217       219      1291      3054
 -1      9427    3    0    1
 -2       217      1291      1293      3054
 -1      9428    3    0    1
 -2      3123       374      1498      3152
 -1      9429    3    0    1
 -2      1457       374      3146      3152
 -1      9430    3    0    1
 -2       374      1457      1498      3152
 -1      9431    3    0    1
 -2      2943      2488      2950      3152
 -1      9432    3    0    1
 -2      1510      3007      1514      3056
 -1      9433    3    0    1
 -2      3007      1454      1514      3056
 -1      9434    3    0    1
 -2      1440      1457      3152      3080
 -1      9435    3    0    1
 -2      1427      1434      3153      3083
 -1      9436    3    0    1
 -2       132       618      3036      3057
 -1      9437    3    0    1
 -2      1457      1440      1483      3080
 -1      9438    3    0    1
 -2      3129      1412      3045      3060
 -1      9439    3    0    1
 -2      3022      1460      3045      3060
 -1      9440    3    0    1
 -2      1414      1412      3129      3060
 -1      9441    3    0    1
 -2      1414      1460      1486      3060
 -1      9442    3    0    1
 -2      1452      1503      1513      3079
 -1      9443    3    0    1
 -2       202      1037      1280      3059
 -1      9444    3    0    1
 -2      3057      1452      3079      3082
 -1      9445    3    0    1
 -2      1037       717      1280      3059
 -1      9446    3    0    1
 -2      1427      3114      1507      3153
 -1      9447    3    0    1
 -2       204       202      1280      3059
 -1      9448    3    0    1
 -2      3076       747      1055       754
 -1      9449    3    0    1
 -2      1243      1420      1445      3082
 -1      9450    3    0    1
 -2      2943      3100      3058      3153
 -1      9451    3    0    1
 -2      3100      2943      3123      3153
 -1      9452    3    0    1
 -2      2943      2891      3123      3153
 -1      9453    3    0    1
 -2      1286      2668      1427      3153
 -1      9454    3    0    1
 -2      2668      1286      2891      3153
 -1      9455    3    0    1
 -2      1043      1286      1434      3153
 -1      9456    3    0    1
 -2      1286      1043      2891      3153
 -1      9457    3    0    1
 -2      2891      1043      1434      3153
 -1      9458    3    0    1
 -2      3123       360      3146      3153
 -1      9459    3    0    1
 -2       360      1436      3146      3153
 -1      9460    3    0    1
 -2      2668      2891      3058      3153
 -1      9461    3    0    1
 -2      2967      2668      3058      3153
 -1      9462    3    0    1
 -2      2891      2943      3058      3153
 -1      9463    3    0    1
 -2      1418      1448      3106      3061
 -1      9464    3    0    1
 -2      3047       473      3073      3075
 -1      9465    3    0    1
 -2      1479       497      3024      3061
 -1      9466    3    0    1
 -2      1448      1479      3024      3061
 -1      9467    3    0    1
 -2      3148      1461      3072      3075
 -1      9468    3    0    1
 -2      1185      3003      3061      3062
 -1      9469    3    0    1
 -2      3003      1185      3061       929
 -1      9470    3    0    1
 -2        42       498      3024      3062
 -1      9471    3    0    1
 -2       916      3072      3073      3075
 -1      9472    3    0    1
 -2      1461      1416      1488      3075
 -1      9473    3    0    1
 -2      1435      3080      1055      1440
 -1      9474    3    0    1
 -2      1475      1467      3027      3063
 -1      9475    3    0    1
 -2      3093      3126      3144      3154
 -1      9476    3    0    1
 -2      1332      1410      1432      3154
 -1      9477    3    0    1
 -2      1332      1743      1410      3154
 -1      9478    3    0    1
 -2      1094      1332      1432      3154
 -1      9479    3    0    1
 -2      1332      1094      1743      3154
 -1      9480    3    0    1
 -2      2952      2847      3135      3154
 -1      9481    3    0    1
 -2      2847      2947      3093      3154
 -1      9482    3    0    1
 -2      3093      2947      3026      3154
 -1      9483    3    0    1
 -2      1472      2847      3144      3154
 -1      9484    3    0    1
 -2      2847      3093      3144      3154
 -1      9485    3    0    1
 -2      2952      1743      3026      3154
 -1      9486    3    0    1
 -2      2847      2952      3026      3154
 -1      9487    3    0    1
 -2      2947      2847      3026      3154
 -1      9488    3    0    1
 -2       570      1484      3044      3065
 -1      9489    3    0    1
 -2      1484      1415      3044      3065
 -1      9490    3    0    1
 -2       964      3017      3046      3065
 -1      9491    3    0    1
 -2       127       617      3057      3066
 -1      9492    3    0    1
 -2      1436      1427      3153      3083
 -1      9493    3    0    1
 -2      1457       374      1498      1521
 -1      9494    3    0    1
 -2      1437      1444      3127      3068
 -1      9495    3    0    1
 -2       593      1502      3030      3068
 -1      9496    3    0    1
 -2      1502      1470      3030      3068
 -1      9497    3    0    1
 -2      1436       199      1507      1520
 -1      9498    3    0    1
 -2      1470      1493      3030      3069
 -1      9499    3    0    1
 -2      1031      3004      3055      3070
 -1      9500    3    0    1
 -2       204       202      3059      3078
 -1      9501    3    0    1
 -2      3059      3071      3078      3084
 -1      9502    3    0    1
 -2      1422      1031      1426      3070
 -1      9503    3    0    1
 -2      1426      1447      3116      3070
 -1      9504    3    0    1
 -2      1422      1426      3116      3070
 -1      9505    3    0    1
 -2      1031      1275      3004      3070
 -1      9506    3    0    1
 -2      1275      1031      1422      3070
 -1      9507    3    0    1
 -2       690      3049      1519      3070
 -1      9508    3    0    1
 -2      3049      1447      1519      3070
 -1      9509    3    0    1
 -2      1452      1420      1503      3079
 -1      9510    3    0    1
 -2      1243      3036      3079      3066
 -1      9511    3    0    1
 -2      1436      1434      1497      3084
 -1      9512    3    0    1
 -2      3071       714      3078      3083
 -1      9513    3    0    1
 -2      1428      1416      3148      3072
 -1      9514    3    0    1
 -2       474      1512      3047      3072
 -1      9515    3    0    1
 -2      1512      1461      3047      3072
 -1      9516    3    0    1
 -2        18       912      3041      3073
 -1      9517    3    0    1
 -2       473        28      3047      3073
 -1      9518    3    0    1
 -2        18        28       912      3073
 -1      9519    3    0    1
 -2      1457      3152      3080      3081
 -1      9520    3    0    1
 -2        28        18      3047      3073
 -1      9521    3    0    1
 -2      1492       473      3047      3075
 -1      9522    3    0    1
 -2      1461      1492      3047      3075
 -1      9523    3    0    1
 -2      1298      1055      1435      3081
 -1      9524    3    0    1
 -2       747       741       740      3076
 -1      9525    3    0    1
 -2       740      1293      1291      3076
 -1      9526    3    0    1
 -2       737       219      3054      3076
 -1      9527    3    0    1
 -2      1293       741      3019      3076
 -1      9528    3    0    1
 -2      1293       740       741      3076
 -1      9529    3    0    1
 -2      1055      3019      3080      3081
 -1      9530    3    0    1
 -2      1457      1435      3152      3081
 -1      9531    3    0    1
 -2       741       747      3019      3076
 -1      9532    3    0    1
 -2      3059      1043      3071      3084
 -1      9533    3    0    1
 -2       202       713      3059      3078
 -1      9534    3    0    1
 -2      1286      1434      3071      3084
 -1      9535    3    0    1
 -2       714       204      3071      3078
 -1      9536    3    0    1
 -2       713      3059      3078      3084
 -1      9537    3    0    1
 -2       204      1280      3071      3078
 -1      9538    3    0    1
 -2       617      3057      3066      3082
 -1      9539    3    0    1
 -2      1511       737      3054      3080
 -1      9540    3    0    1
 -2      1457      1511      3054      3080
 -1      9541    3    0    1
 -2      1445      1452      1474      3082
 -1      9542    3    0    1
 -2      3080      3152      1435      3081
 -1      9543    3    0    1
 -2      1435      3080      3081      1055
 -1      9544    3    0    1
 -2      3054       738      1521      3081
 -1      9545    3    0    1
 -2      1457      3054      1521      3081
 -1      9546    3    0    1
 -2       617      1501      3057      3082
 -1      9547    3    0    1
 -2      1501      1452      3057      3082
 -1      9548    3    0    1
 -2      1520      1436      3078      3083
 -1      9549    3    0    1
 -2      1043      1286      3071      3084
 -1      9550    3    0    1
 -2      1286      1043      1434      3084
 -1      9551    3    0    1
 -2      1436      3078      3083      3084
 -1      9552    3    0    1
 -2      3083      1434      3071      1427
 -1      9553    3    0    1
 -2      1434      3083      3071      3084
 -1      9554    3    0    1
 -2      1434      1436      3153      3084
 -1      9555    3    0    1
 -2      3153      1436      3083      3084
 -1      9556    3    0    1
 -2      1434      3153      3083      3084
 -1      9557    3    0    1
 -2      1517       713      3078      3084
 -1      9558    3    0    1
 -2      1436      1517      3078      3084
 -3
    1PSTEP                         1           1           1          
  100CL  101 1.000000000        3154                     0    1           1
 -4  DISP        4    1
 -5  D1          1    2    1    0
 -5  D2          1    2    2    0
 -5  D3          1    2    3    0
 -5  ALL         1    2    0    0    1ALL
 -1         1-4.26712E-02 8.95397E-03-2.04413E+00
 -1         2-4.33878E-02-5.12940E-03-2.04894E+00
 -1         3-2.62505E-01 2.11344E-03-2.05129E+00
 -1         4-2.82707E-01 2.02995E-03-9.64274E-01
 -1         5-2.75310E-01 2.21720E-03-1.51604E+00
 -1         6-2.82639E-01 2.40027E-03-9.61599E-01
 -1         7-2.83223E-01 2.24059E-03-9.62615E-01
 -1         8-2.83462E-01 2.20315E-03-9.61856E-01
 -1         9-4.91095E-02-5.24870E-04-3.82165E-01
 -1        10-2.83547E-01 3.44879E-03-3.78492E-01
 -1        11-2.75339E-01 2.06520E-03-1.51597E+00
 -1        12-5.10250E-02 1.30934E-03-9.63522E-01
 -1        13-2.82686E-01 3.03139E-03-3.81404E-01
 -1        14-2.62097E-01 3.16535E-03-2.05241E+00
 -1        15-4.89440E-02 3.25166E-03-1.51954E+00
 -1        16-2.77218E-01 2.16268E-03-1.51624E+00
 -1        17-2.76548E-01 2.15816E-03-1.51725E+00
 -1        18-2.45408E-01-8.85810E-02-2.05205E+00
 -1        19-2.62364E-01-1.03953E-01-9.69417E-01
 -1        20-2.55624E-01-9.92928E-02-1.52353E+00
 -1        21-2.56675E-01-9.93530E-02-1.51988E+00
 -1        22-2.61036E-01-1.04000E-01-9.73622E-01
 -1        23-4.73620E-02-2.22804E-02-3.97904E-01
 -1        24-2.59985E-01-1.05911E-01-3.94685E-01
 -1        25-2.58912E-01-1.05852E-01-3.96624E-01
 -1        26-2.61756E-01-1.04080E-01-9.72068E-01
 -1        27-4.71117E-02-2.05224E-02-9.73691E-01
 -1        28-2.45161E-01-8.82746E-02-2.06078E+00
 -1        29-4.60697E-02-1.56290E-02-1.52392E+00
 -1        30-2.57964E-01-9.97543E-02-1.51847E+00
 -1        31-2.57021E-01-1.00107E-01-1.52556E+00
 -1        32-4.42123E-02-2.04786E-02-1.52674E+00
 -1        33-4.87123E-02-1.77557E-02-9.71250E-01
 -1        34-2.62174E-01-1.03951E-01-9.68439E-01
 -1        35-4.90808E-02-1.60858E-02-9.65238E-01
 -1        36-4.67851E-02-2.31497E-02-9.72961E-01
 -1        37-4.81855E-02-1.25390E-02-1.51726E+00
 -1        38-4.28085E-02-2.48979E-02-1.52259E+00
 -1        39-3.50891E-02-2.59109E-02-2.05380E+00
 -1        40-1.97054E-01-2.02836E-01-9.72608E-01
 -1        41-1.96949E-01-2.02598E-01-9.75249E-01
 -1        42-1.84627E-01-1.86259E-01-2.05939E+00
 -1        43-1.99217E-01-2.02457E-01-3.93240E-01
 -1        44-1.98809E-01-2.02481E-01-3.91346E-01
 -1        45-3.61815E-02-3.45256E-02-1.52737E+00
 -1        46-3.43049E-02-3.89847E-02-9.75410E-01
 -1        47-1.84443E-01-1.85540E-01-2.06005E+00
 -1        48-1.91932E-01-1.96544E-01-1.52455E+00
 -1        49-1.92681E-01-1.97425E-01-1.52661E+00
 -1        50-1.92440E-01-1.98277E-01-1.52236E+00
 -1        51-1.91764E-01-1.96680E-01-1.52274E+00
 -1        52-1.96550E-01-2.02332E-01-9.77092E-01
 -1        53-1.96830E-01-2.02559E-01-9.71876E-01
 -1        54-3.81424E-02-3.09853E-02-1.52566E+00
 -1        55-3.25969E-02-4.01642E-02-9.68001E-01
 -1        56-1.00775E-01-2.42333E-01-2.06263E+00
 -1        57-1.11358E-01-2.60881E-01-9.72846E-01
 -1        58-1.10044E-01-2.55497E-01-1.52641E+00
 -1        59-1.11744E-01-2.61564E-01-9.71281E-01
 -1        60-1.00266E-01-2.42053E-01-2.05941E+00
 -1        61-1.11735E-01-2.62415E-01-3.87595E-01
 -1        62-1.10388E-01-2.53603E-01-1.52270E+00
 -1        63-1.11491E-01-2.61551E-01-3.87062E-01
 -1        64-1.11985E-01-2.60911E-01-9.70041E-01
 -1        65-1.10023E-01-2.53954E-01-1.52475E+00
 -1        66-2.30509E-02-4.41734E-02-1.52611E+00
 -1        67-1.48711E-02-4.73236E-02-1.52453E+00
 -1        68-1.67262E-02-4.68601E-02-1.52835E+00
 -1        69-1.11797E-01-2.60385E-01-9.69300E-01
 -1        70-2.31050E-02-4.69642E-02-9.72365E-01
 -1        71-2.55940E-02-4.49957E-02-9.66965E-01
 -1        72-1.11262E-01-2.55300E-01-1.52177E+00
 -1        73 1.81064E-03-2.61530E-01-2.05968E+00
 -1        74 5.36211E-04-2.61292E-01-2.06172E+00
 -1        75-3.91243E-03-2.84364E-01-9.74277E-01
 -1        76-4.79476E-03-2.83846E-01-3.91373E-01
 -1        77-4.40275E-03-2.84600E-01-3.93647E-01
 -1        78-4.49155E-03-4.47487E-02-2.05531E+00
 -1        79-4.04236E-03-2.83856E-01-9.71952E-01
 -1        80-7.50495E-04-5.24804E-02-9.75928E-01
 -1        81-1.18665E-03-2.76816E-01-1.52794E+00
 -1        82 4.50129E-03-5.03366E-02-1.53141E+00
 -1        83-6.11486E-04-2.75862E-01-1.52645E+00
 -1        84-6.15102E-03-4.86465E-02-1.52591E+00
 -1        85-1.02195E-03-2.78726E-01-1.52911E+00
 -1        86-5.91429E-03-5.21672E-02-9.70414E-01
 -1        87-4.03185E-03-2.83285E-01-9.71344E-01
 -1        88-7.02311E-04-2.77264E-01-1.52684E+00
 -1        89 1.57066E-03-5.20555E-02-9.71396E-01
 -1        90-4.00498E-03-2.84335E-01-9.75366E-01
 -1        91 2.49502E-02-3.74589E-02-2.04840E+00
 -1        92 1.10123E-01-2.54531E-01-1.52788E+00
 -1        93 1.00491E-01-2.40061E-01-2.05554E+00
 -1        94 1.10023E-01-2.52023E-01-1.52650E+00
 -1        95 1.12947E-01-2.59322E-01-9.77924E-01
 -1        96 1.10013E-01-2.52053E-01-1.52380E+00
 -1        97 1.13540E-01-2.59774E-01-9.73191E-01
 -1        98 1.10698E-01-2.53410E-01-1.52333E+00
 -1        99 1.15863E-01-2.60874E-01-3.93176E-01
 -1       100 1.13118E-01-2.59081E-01-9.72252E-01
 -1       101 1.86417E-02-4.60626E-02-3.94503E-01
 -1       102 1.15856E-01-2.60380E-01-3.88506E-01
 -1       103 1.00796E-01-2.40087E-01-2.05534E+00
 -1       104 1.13679E-01-2.60139E-01-9.76217E-01
 -1       105 1.91781E-02-4.86223E-02-9.77593E-01
 -1       106 1.76102E-02-4.67032E-02-1.52915E+00
 -1       107 2.77187E-02-4.32089E-02-1.51949E+00
 -1       108 1.78171E-01-1.89715E-01-2.05993E+00
 -1       109 1.93358E-01-2.06470E-01-9.75548E-01
 -1       110 1.93688E-01-2.06618E-01-9.81611E-01
 -1       111 1.89919E-01-2.01241E-01-1.53150E+00
 -1       112 1.87513E-01-2.00757E-01-1.52314E+00
 -1       113 1.93181E-01-2.06996E-01-3.94628E-01
 -1       114 1.78626E-01-1.89515E-01-2.05387E+00
 -1       115 1.94019E-01-2.07126E-01-4.00017E-01
 -1       116 3.77423E-02-3.66284E-02-9.83039E-01
 -1       117 3.64740E-02-2.80911E-02-2.05172E+00
 -1       118 1.88670E-01-2.02005E-01-1.52076E+00
 -1       119 3.41375E-02-3.80305E-02-1.52657E+00
 -1       120 3.73084E-02-3.50065E-02-1.53207E+00
 -1       121 1.87955E-01-2.00575E-01-1.52882E+00
 -1       122 3.54850E-02-3.88529E-02-9.78399E-01
 -1       123 1.92822E-01-2.05872E-01-9.73067E-01
 -1       124 3.41814E-02-3.96818E-02-9.71900E-01
 -1       125 4.07246E-02-3.08666E-02-1.52986E+00
 -1       126 1.93311E-01-2.06338E-01-9.84865E-01
 -1       127 2.36622E-01-1.05511E-01-2.05648E+00
 -1       128 2.64304E-01-1.08495E-01-4.08319E-01
 -1       129 2.59806E-01-1.07727E-01-9.89031E-01
 -1       130 2.51667E-01-1.06465E-01-1.53373E+00
 -1       131 2.60892E-01-1.07760E-01-9.88767E-01
 -1       132 2.35756E-01-1.05485E-01-2.06161E+00
 -1       133 4.91258E-02-2.03708E-02-4.09787E-01
 -1       134 4.63625E-02-2.10103E-02-1.53691E+00
 -1       135 2.63615E-01-1.08246E-01-4.09288E-01
 -1       136 4.93001E-02-1.79323E-02-9.91112E-01
 -1       137 2.53323E-01-1.07180E-01-1.53316E+00
 -1       138 2.51865E-01-1.05978E-01-1.53466E+00
 -1       139 4.75451E-02-1.57122E-02-1.53912E+00
 -1       140 4.96391E-02-1.19767E-02-1.53108E+00
 -1       141 4.83193E-02-2.17831E-02-9.91370E-01
 -1       142 4.93783E-02-1.68132E-02-9.86207E-01
 -1       143 2.61020E-01-1.07687E-01-9.89274E-01
 -1       144 2.60176E-01-1.07411E-01-9.89734E-01
 -1       145 2.52844E-01-1.06158E-01-1.53515E+00
 -1       146 2.60221E-01 1.88653E-03-2.06271E+00
 -1       147 2.85641E-01 7.82888E-03-3.97758E-01
 -1       148 2.74797E-01 6.82106E-03-1.53356E+00
 -1       149 2.74479E-01 7.30970E-03-1.52935E+00
 -1       150 2.82967E-01 8.51541E-03-9.86361E-01
 -1       151 2.76405E-01 6.86425E-03-1.53612E+00
 -1       152 2.82983E-01 8.64032E-03-9.81467E-01
 -1       153 2.75330E-01 7.51234E-03-1.52744E+00
 -1       154 2.60374E-01 2.47833E-03-2.06256E+00
 -1       155 2.84995E-01 7.67380E-03-4.02840E-01
 -1       156 5.07307E-02-7.26314E-07-1.53702E+00
 -1       157 5.24185E-02 7.88794E-04-9.89053E-01
 -1       158 4.96985E-02 4.91179E-03-1.53262E+00
 -1       159 2.82191E-01 8.52370E-03-9.88991E-01
 -1       160 5.26649E-02 3.43914E-03-9.83339E-01
 -1       161 5.32765E-02-1.08584E-03-9.87711E-01
 -1       162 2.82116E-01 8.59018E-03-9.79606E-01
 -1       163 2.39304E-01 1.08739E-01-2.06222E+00
 -1       164 2.53676E-01 1.09658E-01-1.52391E+00
 -1       165 2.55132E-01 1.10336E-01-1.52362E+00
 -1       166 2.59590E-01 1.10485E-01-9.74777E-01
 -1       167 2.60604E-01 1.10371E-01-9.75026E-01
 -1       168 2.54951E-01 1.08341E-01-1.52699E+00
 -1       169 2.59951E-01 1.09465E-01-9.76719E-01
 -1       170 2.63257E-01 1.06944E-01-3.94301E-01
 -1       171 2.62798E-01 1.06796E-01-3.96249E-01
 -1       172 2.53172E-01 1.08803E-01-1.52623E+00
 -1       173 4.88444E-02 1.98761E-02-9.78080E-01
 -1       174 2.60679E-01 1.10135E-01-9.76184E-01
 -1       175 4.77772E-02 2.18148E-02-9.77600E-01
 -1       176 2.39568E-01 1.08152E-01-2.05690E+00
 -1       177 4.60555E-02 2.19751E-02-1.52724E+00
 -1       178 4.55871E-02 2.45146E-02-1.52145E+00
 -1       179 1.82259E-01 1.87685E-01-2.05364E+00
 -1       180 1.81309E-01 1.87348E-01-2.05589E+00
 -1       181 1.97365E-01 1.96081E-01-1.52437E+00
 -1       182 2.00030E-01 2.01535E-01-9.72756E-01
 -1       183 2.00648E-01 2.01071E-01-9.73392E-01
 -1       184 2.01021E-01 2.02079E-01-9.72563E-01
 -1       185 3.54421E-02 3.83122E-02-3.84643E-01
 -1       186 1.99185E-01 2.07942E-01-3.85146E-01
 -1       187 3.86721E-02 3.40289E-02-1.52773E+00
 -1       188 2.01085E-01 2.02133E-01-9.73047E-01
 -1       189 2.00198E-01 2.08769E-01-3.88456E-01
 -1       190 3.69868E-02 3.82894E-02-9.74137E-01
 -1       191 2.66345E-02 3.72489E-02-2.04656E+00
 -1       192 1.94990E-01 1.95255E-01-1.52331E+00
 -1       193 3.52880E-02 3.74943E-02-1.52777E+00
 -1       194 1.95012E-01 1.95198E-01-1.52414E+00
 -1       195 3.11724E-02 4.17110E-02-1.52052E+00
 -1       196 3.86022E-02 3.74283E-02-9.74277E-01
 -1       197 3.50390E-02 4.05402E-02-9.71436E-01
 -1       198 1.96126E-01 1.96597E-01-1.52331E+00
 -1       199 2.29721E-02 3.96586E-02-2.04556E+00
 -1       200 1.03280E-01 2.56909E-01-1.52399E+00
 -1       201 1.01644E-01 2.55252E-01-1.51822E+00
 -1       202 9.30262E-02 2.42494E-01-2.04522E+00
 -1       203 1.01869E-01 2.55041E-01-1.52186E+00
 -1       204 9.30825E-02 2.42941E-01-2.04860E+00
 -1       205 1.04859E-01 2.62987E-01-9.71343E-01
 -1       206 1.08012E-01 2.62880E-01-3.94185E-01
 -1       207 1.01986E-01 2.56465E-01-1.51742E+00
 -1       208 2.24566E-02 4.66833E-02-3.96039E-01
 -1       209 1.04835E-01 2.62408E-01-9.73771E-01
 -1       210 1.07774E-01 2.62015E-01-3.96027E-01
 -1       211 1.59665E-02 4.83704E-02-1.52212E+00
 -1       212 1.44945E-02 4.87920E-02-1.51565E+00
 -1       213 1.04844E-01 2.62645E-01-9.70812E-01
 -1       214 2.83798E-02 4.37355E-02-1.51893E+00
 -1       215 1.04749E-01 2.62435E-01-9.75268E-01
 -1       216 1.66654E-02 5.16537E-02-9.68721E-01
 -1       217-7.99653E-03 2.60323E-01-2.04524E+00
 -1       218-5.55758E-03 2.75329E-01-1.51422E+00
 -1       219-6.99900E-03 2.61088E-01-2.04065E+00
 -1       220-3.81121E-03 2.84948E-01-9.61265E-01
 -1       221-4.71386E-03 2.87024E-01-3.81061E-01
 -1       222-4.98516E-03 2.86902E-01-3.78052E-01
 -1       223 1.35215E-03 5.31898E-02-9.66333E-01
 -1       224 2.05482E-04 5.51894E-02-3.81408E-01
 -1       225-4.51888E-04 5.33294E-02-9.63025E-01
 -1       226-5.21094E-03 4.39332E-02-2.03434E+00
 -1       227-5.84050E-03 2.75602E-01-1.51035E+00
 -1       228 1.63067E-03 5.09982E-02-1.51726E+00
 -1       229-5.48344E-03 2.76942E-01-1.51669E+00
 -1       230-3.97443E-03 5.06770E-02-1.51490E+00
 -1       231-3.92140E-03 2.84363E-01-9.64234E-01
 -1       232-3.98679E-03 2.83535E-01-9.66254E-01
 -1       233-3.74044E-03 2.84315E-01-9.60020E-01
 -1       234-5.94053E-03 2.77084E-01-1.50870E+00
 -1       235-1.06629E-01 2.61506E-01-3.80889E-01
 -1       236-1.06171E-01 2.59929E-01-3.82460E-01
 -1       237-1.06259E-01 2.55606E-01-1.50527E+00
 -1       238-1.07414E-01 2.60460E-01-9.56560E-01
 -1       239-1.07357E-01 2.60703E-01-9.57108E-01
 -1       240-1.04917E-01 2.54074E-01-1.50677E+00
 -1       241-1.02903E-01 2.39688E-01-2.03752E+00
 -1       242-1.07335E-01 2.60439E-01-9.57951E-01
 -1       243-1.90448E-02 4.64674E-02-3.83437E-01
 -1       244-9.51802E-03 4.28606E-02-2.03475E+00
 -1       245-1.03293E-01 2.39164E-01-2.04257E+00
 -1       246-1.56747E-02 4.89133E-02-3.81647E-01
 -1       247-1.05127E-01 2.54266E-01-1.50548E+00
 -1       248-1.44032E-02 4.75492E-02-1.50965E+00
 -1       249-1.05349E-01 2.55427E-01-1.50756E+00
 -1       250-1.43842E-02 5.07275E-02-9.56492E-01
 -1       251-1.97424E-02 4.79358E-02-9.58130E-01
 -1       252-9.77026E-03 4.98766E-02-1.50428E+00
 -1       253-1.07205E-01 2.60109E-01-9.56655E-01
 -1       254-1.80711E-01 1.89044E-01-2.04109E+00
 -1       255-1.95319E-01 1.99605E-01-9.60099E-01
 -1       256-1.95655E-01 2.00478E-01-9.58608E-01
 -1       257-1.95860E-01 2.00941E-01-3.78594E-01
 -1       258-1.95937E-01 2.00724E-01-3.80279E-01
 -1       259-3.37102E-02 3.68622E-02-1.50760E+00
 -1       260-1.81338E-01 1.89059E-01-2.03944E+00
 -1       261-3.29930E-02 3.49011E-02-3.78645E-01
 -1       262-1.95772E-01 2.00585E-01-9.57505E-01
 -1       263-3.63737E-02 3.48114E-02-9.60868E-01
 -1       264-1.90535E-01 1.96310E-01-1.50553E+00
 -1       265-1.90409E-01 1.96237E-01-1.50414E+00
 -1       266-2.82632E-02 4.08225E-02-1.49958E+00
 -1       267-1.91209E-01 1.96857E-01-1.50697E+00
 -1       268-3.37838E-02 3.78865E-02-9.59830E-01
 -1       269-1.95359E-01 2.00146E-01-9.57357E-01
 -1       270-3.81126E-02 3.45385E-02-9.58869E-01
 -1       271-1.91469E-01 1.97263E-01-1.50338E+00
 -1       272-3.22119E-02 3.92573E-02-9.56527E-01
 -1       273-3.86305E-02 3.06494E-02-1.50344E+00
 -1       274-4.18070E-02 1.29932E-02-2.04315E+00
 -1       275-2.38262E-01 1.07234E-01-2.04737E+00
 -1       276-2.38767E-01 1.06853E-01-2.04300E+00
 -1       277-2.52315E-01 1.09199E-01-1.51141E+00
 -1       278-2.58415E-01 1.11047E-01-9.57318E-01
 -1       279-2.54458E-01 1.11314E-01-1.50844E+00
 -1       280-2.59141E-01 1.07959E-01-3.82702E-01
 -1       281-2.59163E-01 1.10522E-01-9.59197E-01
 -1       282-2.59230E-01 1.08305E-01-3.82457E-01
 -1       283-2.52795E-01 1.09713E-01-1.50982E+00
 -1       284-4.45044E-02 2.16214E-02-1.51307E+00
 -1       285-4.22943E-02 2.74854E-02-1.50552E+00
 -1       286-4.58688E-02 1.69777E-02-1.51543E+00
 -1       287-4.66797E-02 2.19988E-02-9.59215E-01
 -1       288-2.59055E-01 1.11023E-01-9.57752E-01
 -1       289-2.58946E-01 1.10523E-01-9.60486E-01
 -1       290-4.75093E-02 1.86683E-02-9.61163E-01
 -1       291-4.79276E-02 1.81381E-02-9.59025E-01
 -1       292-2.53290E-01 1.09415E-01-1.51296E+00
 -1       293 0.00000E+00 0.00000E+00 0.00000E+00
 -1       294 0.00000E+00 0.00000E+00 0.00000E+00
 -1       295 0.00000E+00 0.00000E+00 0.00000E+00
 -1       296 0.00000E+00 0.00000E+00 0.00000E+00
 -1       297 0.00000E+00 0.00000E+00 0.00000E+00
 -1       298 0.00000E+00 0.00000E+00 0.00000E+00
 -1       299 0.00000E+00 0.00000E+00 0.00000E+00
 -1       300 0.00000E+00 0.00000E+00 0.00000E+00
 -1       301 0.00000E+00 0.00000E+00 0.00000E+00
 -1       302 0.00000E+00 0.00000E+00 0.00000E+00
 -1       303 0.00000E+00 0.00000E+00 0.00000E+00
 -1       304 0.00000E+00 0.00000E+00 0.00000E+00
 -1       305 0.00000E+00 0.00000E+00 0.00000E+00
 -1       306 0.00000E+00 0.00000E+00 0.00000E+00
 -1       307 0.00000E+00 0.00000E+00 0.00000E+00
 -1       308 0.00000E+00 0.00000E+00 0.00000E+00
 -1       309 0.00000E+00 0.00000E+00 0.00000E+00
 -1       310 0.00000E+00 0.00000E+00 0.00000E+00
 -1       311 0.00000E+00 0.00000E+00 0.00000E+00
 -1       312 0.00000E+00 0.00000E+00 0.00000E+00
 -1       313 0.00000E+00 0.00000E+00 0.00000E+00
 -1       314 0.00000E+00 0.00000E+00 0.00000E+00
 -1       315 0.00000E+00 0.00000E+00 0.00000E+00
 -1       316 0.00000E+00 0.00000E+00 0.00000E+00
 -1       317 0.00000E+00 0.00000E+00 0.00000E+00
 -1       318 0.00000E+00 0.00000E+00 0.00000E+00
 -1       319 0.00000E+00 0.00000E+00 0.00000E+00
 -1       320 0.00000E+00 0.00000E+00 0.00000E+00
 -1       321 0.00000E+00 0.00000E+00 0.00000E+00
 -1       322 0.00000E+00 0.00000E+00 0.00000E+00
 -1       323 0.00000E+00 0.00000E+00 0.00000E+00
 -1       324 0.00000E+00 0.00000E+00 0.00000E+00
 -1       325 0.00000E+00 0.00000E+00 0.00000E+00
 -1       326 0.00000E+00 0.00000E+00 0.00000E+00
 -1       327 0.00000E+00 0.00000E+00 0.00000E+00
 -1       328 0.00000E+00 0.00000E+00 0.00000E+00
 -1       329 0.00000E+00 0.00000E+00 0.00000E+00
 -1       330 5.20067E-02-4.42923E-04-4.02607E-01
 -1       331 5.14943E-02-1.80259E-02-4.08750E-01
 -1       332 5.23719E-02 6.37436E-03-9.78225E-01
 -1       333 5.07279E-02 2.90563E-03-3.99766E-01
 -1       334 0.00000E+00 0.00000E+00 0.00000E+00
 -1       335 0.00000E+00 0.00000E+00 0.00000E+00
 -1       336 4.79530E-02-2.22261E-02-9.87552E-01
 -1       337 3.80452E-02-3.50117E-02-9.81067E-01
 -1       338 3.55173E-02-3.61201E-02-4.01095E-01
 -1       339 3.91188E-02 3.75699E-02-3.90417E-01
 -1       340 4.69776E-02 2.48409E-02-9.73889E-01
 -1       341 0.00000E+00 0.00000E+00 0.00000E+00
 -1       342 4.59403E-02 2.01702E-02-3.96374E-01
 -1       343 4.83140E-02 1.80020E-02-3.95199E-01
 -1       344 4.43959E-02-2.60685E-02-1.52989E+00
 -1       345 2.11149E-02 4.89063E-02-9.75713E-01
 -1       346 4.06724E-02 3.46955E-02-9.71682E-01
 -1       347 4.00707E-02 3.18904E-02-1.52055E+00
 -1       348 2.21438E-02-4.75515E-02-9.75643E-01
 -1       349 2.15100E-02-4.65342E-02-3.88323E-01
 -1       350 3.15397E-02-3.97057E-02-1.51903E+00
 -1       351 2.52185E-02-4.57427E-02-9.70527E-01
 -1       352 4.39674E-02-1.05080E-02-2.05674E+00
 -1       353 5.00193E-02-4.58916E-03-1.53376E+00
 -1       354 4.49526E-02-5.42770E-03-2.05704E+00
 -1       355 3.48190E-02 2.93755E-02-2.05116E+00
 -1       356 3.92703E-02-2.47365E-02-2.05149E+00
 -1       357 2.34873E-02-4.49743E-02-1.52818E+00
 -1       358 2.79014E-02-3.53091E-02-2.04795E+00
 -1       359 4.48039E-03 5.12964E-02-1.51552E+00
 -1       360 1.16176E-02 4.44786E-02-2.03937E+00
 -1       361 2.33246E-02 4.59180E-02-1.52524E+00
 -1       362 3.74588E-02 2.53898E-02-2.05176E+00
 -1       363 4.45665E-02 8.18602E-03-2.05585E+00
 -1       364 4.28123E-02 1.35842E-02-2.05566E+00
 -1       365 4.73384E-02 1.70219E-02-1.53108E+00
 -1       366 4.96255E-02 9.07749E-03-1.52537E+00
 -1       367 4.92202E-02 1.81105E-02-9.73790E-01
 -1       368 4.95232E-02 1.18530E-02-1.52478E+00
 -1       369 2.31395E-02 4.88041E-02-9.74119E-01
 -1       370 7.44094E-03-4.98426E-02-1.52578E+00
 -1       371 8.71243E-03-4.44804E-02-2.05318E+00
 -1       372 1.40964E-02-4.31421E-02-2.05205E+00
 -1       373 1.51140E-02-4.82731E-02-1.52390E+00
 -1       374 7.26367E-03 4.53026E-02-2.03876E+00
 -1       375-1.42333E-03-5.27997E-02-9.74465E-01
 -1       376-8.17712E-03 4.99623E-02-1.50543E+00
 -1       377-8.58837E-03-4.38569E-02-2.05511E+00
 -1       378-1.89633E-03-5.00723E-02-1.53049E+00
 -1       379-3.61093E-02 2.58535E-02-2.03658E+00
 -1       380-3.52818E-02 3.52071E-02-1.50855E+00
 -1       381-2.67783E-02-3.63383E-02-2.05455E+00
 -1       382-3.41305E-02 2.87651E-02-2.03558E+00
 -1       383-2.16379E-02 4.76729E-02-9.55569E-01
 -1       384-2.93994E-02-4.07226E-02-1.51891E+00
 -1       385-3.27572E-02-3.74396E-02-1.52621E+00
 -1       386-4.66109E-02 1.33622E-02-1.51175E+00
 -1       387-4.32489E-02-9.71114E-03-2.04923E+00
 -1       388-3.79387E-02-2.18411E-02-2.05354E+00
 -1       389-4.89201E-02 8.16228E-03-1.51375E+00
 -1       390 0.00000E+00 0.00000E+00 0.00000E+00
 -1       391-3.63131E-02-3.52968E-02-3.93458E-01
 -1       392-2.18777E-02-4.66801E-02-3.87437E-01
 -1       393-3.53064E-02-3.67304E-02-3.92273E-01
 -1       394-1.87818E-02-4.73043E-02-3.89407E-01
 -1       395-1.61139E-02-5.02101E-02-9.70955E-01
 -1       396-1.82387E-02-4.82024E-02-9.73654E-01
 -1       397 0.00000E+00 0.00000E+00 0.00000E+00
 -1       398 1.10054E-04-5.20510E-02-3.94066E-01
 -1       399-3.05323E-03-5.10078E-02-3.92629E-01
 -1       400 1.70238E-02-4.97174E-02-9.76572E-01
 -1       401 0.00000E+00 0.00000E+00 0.00000E+00
 -1       402 0.00000E+00 0.00000E+00 0.00000E+00
 -1       403 3.39663E-02-3.86272E-02-3.95996E-01
 -1       404 0.00000E+00 0.00000E+00 0.00000E+00
 -1       405-3.88474E-02-3.42185E-02-9.75296E-01
 -1       406-3.69384E-02-3.63868E-02-9.77280E-01
 -1       407 0.00000E+00 0.00000E+00 0.00000E+00
 -1       408 0.00000E+00 0.00000E+00 0.00000E+00
 -1       409 0.00000E+00 0.00000E+00 0.00000E+00
 -1       410-4.97403E-02 2.40756E-03-3.80400E-01
 -1       411-4.53136E-02-1.67526E-02-3.97692E-01
 -1       412-5.19827E-02-3.48113E-03-9.60282E-01
 -1       413-5.12559E-02-2.55377E-03-9.65001E-01
 -1       414 0.00000E+00 0.00000E+00 0.00000E+00
 -1       415-5.03707E-02 3.09215E-03-9.57922E-01
 -1       416-4.67288E-02 1.57285E-02-3.83037E-01
 -1       417 0.00000E+00 0.00000E+00 0.00000E+00
 -1       418-4.68014E-02 1.99131E-02-3.84139E-01
 -1       419-3.26327E-02 3.42560E-02-3.79684E-01
 -1       420-4.57140E-02 2.36884E-02-9.56272E-01
 -1       421-1.82002E-02 4.90314E-02-9.58481E-01
 -1       422-2.29386E-03 5.41972E-02-9.58029E-01
 -1       423-2.52247E-03 5.22960E-02-3.78946E-01
 -1       424 1.85251E-02 5.01571E-02-3.97768E-01
 -1       425 3.84112E-03 5.36374E-02-9.65072E-01
 -1       426 1.80143E-02 5.02144E-02-9.73249E-01
 -1       427 0.00000E+00 0.00000E+00 0.00000E+00
 -1       428 0.00000E+00 0.00000E+00 0.00000E+00
 -1       429 0.00000E+00 0.00000E+00 0.00000E+00
 -1       430-4.90406E-02-5.51805E-03-1.51245E+00
 -1       431-4.92979E-02-2.08021E-03-1.52164E+00
 -1       432-2.76858E-02-4.25156E-02-1.51783E+00
 -1       433-2.53933E-02 4.39812E-02-1.50144E+00
 -1       434-2.20673E-02 3.95979E-02-2.03270E+00
 -1       435-1.83535E-02 4.65818E-02-1.51018E+00
 -1       436-2.62853E-02 3.74477E-02-2.03339E+00
 -1       437-2.21105E-02-3.93303E-02-2.05452E+00
 -1       438 0.00000E+00 0.00000E+00 0.00000E+00
 -1       439 0.00000E+00 0.00000E+00 0.00000E+00
 -1       440 0.00000E+00 0.00000E+00 0.00000E+00
 -1       441 0.00000E+00 0.00000E+00 0.00000E+00
 -1       442 0.00000E+00 0.00000E+00 0.00000E+00
 -1       443 0.00000E+00 0.00000E+00 0.00000E+00
 -1       444 0.00000E+00 0.00000E+00 0.00000E+00
 -1       445 0.00000E+00 0.00000E+00 0.00000E+00
 -1       446 0.00000E+00 0.00000E+00 0.00000E+00
 -1       447 0.00000E+00 0.00000E+00 0.00000E+00
 -1       448 0.00000E+00 0.00000E+00 0.00000E+00
 -1       449-1.54561E-01 2.21787E-03-2.05232E+00
 -1       450-1.54510E-01 1.90348E-03-2.05085E+00
 -1       451-2.66066E-01 1.68920E-03-1.78881E+00
 -1       452-2.65273E-01 1.74837E-03-1.78900E+00
 -1       453-2.80091E-01 9.16819E-04-1.24220E+00
 -1       454-2.80754E-01 1.12773E-03-1.24204E+00
 -1       455-2.84994E-01 3.54727E-03-6.69079E-01
 -1       456-2.85096E-01 3.52157E-03-6.67716E-01
 -1       457-1.65863E-01 1.03498E-03-3.81644E-01
 -1       458-1.67347E-01 1.62267E-03-3.78848E-01
 -1       459-4.83348E-02 2.65193E-03-1.79145E+00
 -1       460-1.62482E-01 2.89054E-03-1.51776E+00
 -1       461-1.66970E-01 2.05358E-03-9.62249E-01
 -1       462-5.23029E-02 2.24498E-03-6.67140E-01
 -1       463-5.22785E-02-2.05215E-03-6.70025E-01
 -1       464-1.67429E-01 6.86331E-04-9.63725E-01
 -1       465-1.62350E-01 8.93495E-04-1.51852E+00
 -1       466-4.81482E-02-4.28145E-03-1.79353E+00
 -1       467-1.63033E-01 3.51981E-03-1.51641E+00
 -1       468-1.62009E-01 9.46879E-04-1.51827E+00
 -1       469-1.67090E-01 2.35761E-03-9.61280E-01
 -1       470-1.68417E-01 9.80460E-04-9.64332E-01
 -1       471-4.97385E-02 3.63058E-03-1.24245E+00
 -1       472-5.00878E-02-2.69446E-03-1.24548E+00
 -1       473-1.44031E-01-5.30180E-02-2.05987E+00
 -1       474-1.43810E-01-5.32557E-02-2.05210E+00
 -1       475-2.62393E-01-1.05219E-01-6.78812E-01
 -1       476-2.61904E-01-1.05634E-01-6.80500E-01
 -1       477-2.60963E-01-1.01245E-01-1.24472E+00
 -1       478-2.58806E-01-1.03712E-01-1.25078E+00
 -1       479-2.48495E-01-9.18301E-02-1.79038E+00
 -1       480-2.47462E-01-9.09239E-02-1.79900E+00
 -1       481-1.52577E-01-6.32199E-02-3.96642E-01
 -1       482-1.53014E-01-6.24342E-02-3.95414E-01
 -1       483-4.57872E-02-1.35525E-02-1.79556E+00
 -1       484-1.52082E-01-5.88072E-02-1.52179E+00
 -1       485-1.55242E-01-6.10255E-02-9.69957E-01
 -1       486-4.92972E-02-1.80020E-02-6.78874E-01
 -1       487-4.80913E-02-2.08976E-02-6.80755E-01
 -1       488-1.54410E-01-6.15645E-02-9.72642E-01
 -1       489-1.50613E-01-5.96066E-02-1.52543E+00
 -1       490-4.34666E-02-2.12471E-02-1.80113E+00
 -1       491-1.52328E-01-5.81188E-02-1.51921E+00
 -1       492-1.50671E-01-6.03499E-02-1.52586E+00
 -1       493-1.55407E-01-6.06513E-02-9.68237E-01
 -1       494-1.54571E-01-6.19568E-02-9.73836E-01
 -1       495-4.78428E-02-1.52302E-02-1.24716E+00
 -1       496-4.51591E-02-2.11898E-02-1.25320E+00
 -1       497-1.08119E-01-1.09234E-01-2.05945E+00
 -1       498-1.07988E-01-1.09503E-01-2.05939E+00
 -1       499-2.00213E-01-2.02900E-01-6.81381E-01
 -1       500-2.00238E-01-2.03338E-01-6.80332E-01
 -1       501-1.96405E-01-1.98680E-01-1.25314E+00
 -1       502-1.95197E-01-2.00740E-01-1.24988E+00
 -1       503-1.86533E-01-1.89198E-01-1.79626E+00
 -1       504-1.86647E-01-1.88360E-01-1.79686E+00
 -1       505-1.17407E-01-1.19210E-01-3.91487E-01
 -1       506-1.18063E-01-1.19275E-01-3.93488E-01
 -1       507-1.13920E-01-1.15810E-01-1.52634E+00
 -1       508-3.56817E-02-3.38191E-02-1.79925E+00
 -1       509-1.16715E-01-1.19165E-01-9.75824E-01
 -1       510-3.81308E-02-3.67123E-02-6.82094E-01
 -1       511-3.61821E-02-3.87941E-02-6.79899E-01
 -1       512-1.16350E-01-1.20210E-01-9.73973E-01
 -1       513-1.12669E-01-1.16471E-01-1.52425E+00
 -1       514-3.30867E-02-3.53872E-02-1.79841E+00
 -1       515-1.14245E-01-1.15404E-01-1.52712E+00
 -1       516-1.12461E-01-1.16255E-01-1.52309E+00
 -1       517-1.16662E-01-1.19223E-01-9.77416E-01
 -1       518-1.15906E-01-1.20661E-01-9.72000E-01
 -1       519-3.77071E-02-3.33182E-02-1.25629E+00
 -1       520-3.20394E-02-3.93451E-02-1.25117E+00
 -1       521-5.81455E-02-1.43798E-01-2.06192E+00
 -1       522-5.73073E-02-1.42393E-01-2.05988E+00
 -1       523-1.09773E-01-2.59241E-01-1.25090E+00
 -1       524-1.11901E-01-2.63579E-01-6.75910E-01
 -1       525-1.11511E-01-2.63768E-01-6.77229E-01
 -1       526-1.03771E-01-2.44063E-01-1.79776E+00
 -1       527-1.05213E-01-2.46505E-01-1.80072E+00
 -1       528-1.11973E-01-2.57204E-01-1.24698E+00
 -1       529-6.64880E-02-1.54082E-01-3.87072E-01
 -1       530-6.63272E-02-1.55044E-01-3.88022E-01
 -1       531-6.64692E-02-1.49481E-01-1.52459E+00
 -1       532-2.10862E-02-4.47309E-02-1.80260E+00
 -1       533-6.65899E-02-1.53919E-01-9.70957E-01
 -1       534-2.25071E-02-4.93350E-02-6.76861E-01
 -1       535-1.92836E-02-4.92865E-02-6.77366E-01
 -1       536-6.58139E-02-1.54555E-01-9.72005E-01
 -1       537-6.47813E-02-1.50161E-01-1.52621E+00
 -1       538-1.54156E-02-4.69118E-02-1.80339E+00
 -1       539-6.74061E-02-1.49839E-01-1.52176E+00
 -1       540-6.46314E-02-1.49776E-01-1.52725E+00
 -1       541-6.70279E-02-1.53537E-01-9.69440E-01
 -1       542-6.58257E-02-1.54530E-01-9.73201E-01
 -1       543-2.24707E-02-4.54030E-02-1.24963E+00
 -1       544-1.62677E-02-4.82987E-02-1.25365E+00
 -1       545 2.24203E-03-1.54245E-01-2.06087E+00
 -1       546 2.66234E-03-1.53571E-01-2.06004E+00
 -1       547-1.60006E-03-2.82040E-01-1.25379E+00
 -1       548-4.39477E-03-2.85827E-01-6.78507E-01
 -1       549-4.32035E-03-2.85934E-01-6.81420E-01
 -1       550-2.89566E-04-2.65154E-01-1.79902E+00
 -1       551-8.37337E-04-2.65746E-01-1.80246E+00
 -1       552-2.43614E-03-2.80819E-01-1.25169E+00
 -1       553-3.41904E-03-1.67849E-01-3.91576E-01
 -1       554-2.78632E-03-1.68749E-01-3.93842E-01
 -1       555-3.69208E-04-1.62985E-01-1.52808E+00
 -1       556-1.89576E-03-4.97719E-02-1.80406E+00
 -1       557-2.81729E-03-1.67799E-01-9.72454E-01
 -1       558-8.56580E-04-5.33384E-02-6.78657E-01
 -1       559-2.94279E-04-5.40399E-02-6.81689E-01
 -1       560-2.13575E-03-1.68125E-01-9.74880E-01
 -1       561 5.54206E-04-1.63566E-01-1.53015E+00
 -1       562 5.09319E-03-4.94080E-02-1.80353E+00
 -1       563-5.11240E-04-1.63460E-01-1.52797E+00
 -1       564 1.28844E-03-1.64310E-01-1.52961E+00
 -1       565-2.88377E-03-1.67422E-01-9.71762E-01
 -1       566-1.73995E-03-1.68454E-01-9.75079E-01
 -1       567-4.85979E-03-4.98524E-02-1.25243E+00
 -1       568 4.43018E-03-5.08457E-02-1.25696E+00
 -1       569 6.01308E-02-1.41057E-01-2.05529E+00
 -1       570 6.06285E-02-1.41634E-01-2.05523E+00
 -1       571 1.11281E-01-2.57593E-01-1.25476E+00
 -1       572 1.03693E-01-2.43820E-01-1.79516E+00
 -1       573 1.02664E-01-2.42296E-01-1.79725E+00
 -1       574 1.15669E-01-2.62278E-01-6.82749E-01
 -1       575 1.16118E-01-2.62225E-01-6.78741E-01
 -1       576 1.12371E-01-2.56077E-01-1.25000E+00
 -1       577 6.75499E-02-1.53955E-01-3.93890E-01
 -1       578 6.83833E-02-1.53788E-01-3.88416E-01
 -1       579 6.46988E-02-1.48910E-01-1.52818E+00
 -1       580 2.02860E-02-4.53951E-02-1.79881E+00
 -1       581 6.71954E-02-1.54026E-01-9.76969E-01
 -1       582 1.99311E-02-4.94215E-02-6.83322E-01
 -1       583 2.25967E-02-4.85302E-02-6.79086E-01
 -1       584 6.76449E-02-1.53464E-01-9.74123E-01
 -1       585 6.60906E-02-1.49126E-01-1.52579E+00
 -1       586 2.43588E-02-4.31399E-02-1.80000E+00
 -1       587 6.44035E-02-1.49439E-01-1.52823E+00
 -1       588 6.60816E-02-1.48962E-01-1.52439E+00
 -1       589 6.69847E-02-1.54339E-01-9.78235E-01
 -1       590 6.79052E-02-1.52863E-01-9.72260E-01
 -1       591 1.76020E-02-4.77512E-02-1.25775E+00
 -1       592 2.37587E-02-4.47457E-02-1.25195E+00
 -1       593 1.06698E-01-1.10850E-01-2.05322E+00
 -1       594 1.06139E-01-1.11008E-01-2.05918E+00
 -1       595 1.95010E-01-2.08647E-01-6.82578E-01
 -1       596 1.95216E-01-2.08531E-01-6.88311E-01
 -1       597 1.90165E-01-2.04695E-01-1.24917E+00
 -1       598 1.91538E-01-2.04562E-01-1.26174E+00
 -1       599 1.80947E-01-1.92836E-01-1.79209E+00
 -1       600 1.81004E-01-1.93100E-01-1.80054E+00
 -1       601 1.13404E-01-1.22409E-01-3.94865E-01
 -1       602 1.14561E-01-1.22413E-01-4.00316E-01
 -1       603 1.11382E-01-1.19433E-01-1.52503E+00
 -1       604 3.26967E-02-3.77057E-02-1.79773E+00
 -1       605 1.14669E-01-1.21883E-01-9.76441E-01
 -1       606 3.61667E-02-3.89488E-02-6.82494E-01
 -1       607 3.64851E-02-3.87334E-02-6.87743E-01
 -1       608 1.15288E-01-1.21773E-01-9.82337E-01
 -1       609 1.12276E-01-1.18405E-01-1.53043E+00
 -1       610 3.87897E-02-3.23694E-02-1.80293E+00
 -1       611 1.11316E-01-1.20151E-01-1.52121E+00
 -1       612 1.12532E-01-1.17880E-01-1.53194E+00
 -1       613 1.14220E-01-1.22137E-01-9.73453E-01
 -1       614 1.15547E-01-1.21480E-01-9.84796E-01
 -1       615 3.24098E-02-3.98568E-02-1.25228E+00
 -1       616 3.83784E-02-3.47118E-02-1.26245E+00
 -1       617 1.39854E-01-6.22041E-02-2.05648E+00
 -1       618 1.39916E-01-6.24246E-02-2.06134E+00
 -1       619 2.64075E-01-1.08685E-01-6.97284E-01
 -1       620 2.64643E-01-1.08876E-01-6.97605E-01
 -1       621 2.56469E-01-1.08181E-01-1.26315E+00
 -1       622 2.57596E-01-1.05497E-01-1.26474E+00
 -1       623 2.39466E-01-1.06044E-01-1.80009E+00
 -1       624 2.40374E-01-1.06112E-01-1.80525E+00
 -1       625 1.56238E-01-6.42141E-02-4.09362E-01
 -1       626 1.57538E-01-6.42985E-02-4.08421E-01
 -1       627 4.39032E-02-2.48767E-02-1.80460E+00
 -1       628 1.49459E-01-6.30817E-02-1.53553E+00
 -1       629 1.54585E-01-6.35562E-02-9.89788E-01
 -1       630 4.95545E-02-2.16319E-02-6.97999E-01
 -1       631 5.07893E-02-2.00064E-02-6.98342E-01
 -1       632 1.54883E-01-6.31521E-02-9.90153E-01
 -1       633 1.49652E-01-6.22712E-02-1.53653E+00
 -1       634 4.62879E-02-1.69295E-02-1.80843E+00
 -1       635 1.49668E-01-6.39793E-02-1.53334E+00
 -1       636 1.49891E-01-6.13425E-02-1.53549E+00
 -1       637 1.54674E-01-6.40151E-02-9.89595E-01
 -1       638 1.54749E-01-6.26703E-02-9.89780E-01
 -1       639 4.65433E-02-2.25818E-02-1.26622E+00
 -1       640 4.86389E-02-1.51361E-02-1.26697E+00
 -1       641 1.53514E-01 2.18678E-03-2.06223E+00
 -1       642 1.54380E-01 1.73495E-03-2.06187E+00
 -1       643 2.85974E-01 9.03535E-03-6.92773E-01
 -1       644 2.86487E-01 8.91539E-03-6.88435E-01
 -1       645 2.79128E-01 6.70974E-03-1.26425E+00
 -1       646 2.79784E-01 7.89595E-03-1.25618E+00
 -1       647 2.64582E-01 2.15326E-03-1.80175E+00
 -1       648 2.64217E-01 1.83600E-03-1.80312E+00
 -1       649 1.68385E-01 3.82391E-03-4.02814E-01
 -1       650 1.68929E-01 4.35980E-03-3.98272E-01
 -1       651 4.96605E-02-2.84971E-03-1.80595E+00
 -1       652 1.63052E-01 3.75702E-03-1.53546E+00
 -1       653 1.67420E-01 5.20563E-03-9.87483E-01
 -1       654 5.34401E-02 7.76865E-04-6.93833E-01
 -1       655 5.35679E-02 3.44236E-03-6.87670E-01
 -1       656 1.67480E-01 5.86486E-03-9.82188E-01
 -1       657 1.62206E-01 5.07906E-03-1.53108E+00
 -1       658 4.87080E-02 5.02662E-03-1.80449E+00
 -1       659 1.63434E-01 3.09178E-03-1.53636E+00
 -1       660 1.62173E-01 5.78134E-03-1.52795E+00
 -1       661 1.67609E-01 4.73970E-03-9.89430E-01
 -1       662 1.67045E-01 6.23855E-03-9.79619E-01
 -1       663 5.09714E-02-2.99100E-03-1.26759E+00
 -1       664 5.11233E-02 5.23030E-03-1.25692E+00
 -1       665 1.42061E-01 6.35122E-02-2.06121E+00
 -1       666 1.42030E-01 6.36466E-02-2.05632E+00
 -1       667 2.42880E-01 1.08888E-01-1.79432E+00
 -1       668 2.43226E-01 1.08990E-01-1.80039E+00
 -1       669 2.56718E-01 1.11512E-01-1.24991E+00
 -1       670 2.58382E-01 1.09234E-01-1.25355E+00
 -1       671 2.63809E-01 1.08582E-01-6.83582E-01
 -1       672 2.63589E-01 1.08231E-01-6.83273E-01
 -1       673 1.56060E-01 6.33566E-02-3.94492E-01
 -1       674 1.54925E-01 6.33547E-02-3.96328E-01
 -1       675 4.64923E-02 1.75694E-02-1.80339E+00
 -1       676 1.50121E-01 6.40319E-02-1.52815E+00
 -1       677 1.54364E-01 6.50709E-02-9.76883E-01
 -1       678 4.90483E-02 1.94158E-02-6.83158E-01
 -1       679 4.89768E-02 2.21854E-02-6.84529E-01
 -1       680 1.53912E-01 6.58378E-02-9.76020E-01
 -1       681 1.50382E-01 6.59761E-02-1.52583E+00
 -1       682 4.40717E-02 2.39499E-02-1.79934E+00
 -1       683 1.49626E-01 6.29706E-02-1.52766E+00
 -1       684 1.50455E-01 6.65948E-02-1.52404E+00
 -1       685 1.54722E-01 6.48422E-02-9.76769E-01
 -1       686 1.54008E-01 6.62249E-02-9.74955E-01
 -1       687 4.80402E-02 1.72851E-02-1.25574E+00
 -1       688 4.57429E-02 2.42338E-02-1.25289E+00
 -1       689 1.06676E-01 1.11256E-01-2.05513E+00
 -1       690 1.07453E-01 1.11397E-01-2.05327E+00
 -1       691 1.85591E-01 1.89937E-01-1.79239E+00
 -1       692 1.84843E-01 1.89987E-01-1.79621E+00
 -1       693 1.97341E-01 2.00451E-01-1.24990E+00
 -1       694 1.99156E-01 1.99594E-01-1.25198E+00
 -1       695 2.01288E-01 2.06381E-01-6.78690E-01
 -1       696 2.01923E-01 2.07319E-01-6.81454E-01
 -1       697 1.18555E-01 1.23906E-01-3.88553E-01
 -1       698 1.17625E-01 1.23198E-01-3.85171E-01
 -1       699 3.77763E-02 3.29991E-02-1.79825E+00
 -1       700 1.16965E-01 1.15393E-01-1.52620E+00
 -1       701 1.19475E-01 1.19474E-01-9.73804E-01
 -1       702 3.88417E-02 3.86054E-02-6.81794E-01
 -1       703 1.18882E-01 1.19757E-01-9.73537E-01
 -1       704 3.74795E-02 3.94006E-02-6.79975E-01
 -1       705 1.15978E-01 1.16520E-01-1.52542E+00
 -1       706 3.33076E-02 3.90784E-02-1.79630E+00
 -1       707 1.16804E-01 1.14483E-01-1.52510E+00
 -1       708 1.15587E-01 1.17361E-01-1.52358E+00
 -1       709 1.19875E-01 1.19506E-01-9.73489E-01
 -1       710 1.18784E-01 1.20015E-01-9.72954E-01
 -1       711 3.96515E-02 3.37994E-02-1.25342E+00
 -1       712 3.55166E-02 3.85030E-02-1.25243E+00
 -1       713 5.54229E-02 1.43858E-01-2.04483E+00
 -1       714 5.51916E-02 1.43336E-01-2.04886E+00
 -1       715 1.04924E-01 2.59440E-01-1.25082E+00
 -1       716 9.56279E-02 2.46407E-01-1.78719E+00
 -1       717 9.43787E-02 2.44792E-01-1.79241E+00
 -1       718 1.07456E-01 2.64503E-01-6.81258E-01
 -1       719 1.07367E-01 2.63626E-01-6.83276E-01
 -1       720 1.02044E-01 2.60889E-01-1.24616E+00
 -1       721 6.50495E-02 1.54648E-01-3.95975E-01
 -1       722 6.47295E-02 1.55705E-01-3.94730E-01
 -1       723 2.13297E-02 4.51066E-02-1.79470E+00
 -1       724 6.17635E-02 1.50563E-01-1.52354E+00
 -1       725 6.22716E-02 1.55603E-01-9.74482E-01
 -1       726 2.28742E-02 4.91137E-02-6.83427E-01
 -1       727 6.17662E-02 1.56353E-01-9.71974E-01
 -1       728 2.06554E-02 5.05618E-02-6.81785E-01
 -1       729 6.09458E-02 1.51980E-01-1.52034E+00
 -1       730 1.66384E-02 4.75851E-02-1.79171E+00
 -1       731 6.18494E-02 1.51186E-01-1.52463E+00
 -1       732 6.02091E-02 1.52105E-01-1.51844E+00
 -1       733 6.28070E-02 1.55879E-01-9.75516E-01
 -1       734 6.19810E-02 1.56384E-01-9.71067E-01
 -1       735 2.20149E-02 4.75059E-02-1.25381E+00
 -1       736 1.54961E-02 4.92533E-02-1.24838E+00
 -1       737-3.55452E-03 1.54544E-01-2.04022E+00
 -1       738-4.04022E-03 1.53550E-01-2.04500E+00
 -1       739-3.38606E-03 2.80443E-01-1.24295E+00
 -1       740-6.41310E-03 2.64946E-01-1.77999E+00
 -1       741-6.38200E-03 2.64250E-01-1.78599E+00
 -1       742-4.47710E-03 2.88047E-01-6.67322E-01
 -1       743-4.65103E-03 2.88105E-01-6.70917E-01
 -1       744-4.46772E-03 2.81488E-01-1.23782E+00
 -1       745-2.52195E-03 1.70664E-01-3.81198E-01
 -1       746-2.90887E-03 1.70635E-01-3.78161E-01
 -1       747 3.99666E-03 5.02809E-02-1.78837E+00
 -1       748-2.56165E-03 1.63400E-01-1.51617E+00
 -1       749-1.51610E-03 1.68562E-01-9.65184E-01
 -1       750 8.58005E-04 5.51638E-02-6.71124E-01
 -1       751-2.00436E-03 1.68837E-01-9.61964E-01
 -1       752 2.91906E-04 5.55258E-02-6.68420E-01
 -1       753-3.66715E-03 1.63207E-01-1.51215E+00
 -1       754-3.46291E-03 4.94245E-02-1.78447E+00
 -1       755-2.01058E-03 1.63946E-01-1.51734E+00
 -1       756-4.55567E-03 1.63679E-01-1.50897E+00
 -1       757-1.10368E-03 1.68609E-01-9.66572E-01
 -1       758-2.32041E-03 1.68729E-01-9.60032E-01
 -1       759 4.76651E-03 5.17303E-02-1.24599E+00
 -1       760-4.38534E-03 5.20410E-02-1.23843E+00
 -1       761-5.93736E-02 1.41216E-01-2.03792E+00
 -1       762-6.00513E-02 1.41909E-01-2.04177E+00
 -1       763-1.06893E-01 2.57373E-01-1.23189E+00
 -1       764-1.06483E-01 2.61997E-01-6.66686E-01
 -1       765-1.06596E-01 2.62843E-01-6.66835E-01
 -1       766-1.04257E-01 2.43052E-01-1.77826E+00
 -1       767-1.05098E-01 2.44639E-01-1.78139E+00
 -1       768-1.06136E-01 2.58931E-01-1.23494E+00
 -1       769-6.26192E-02 1.55275E-01-3.81083E-01
 -1       770-6.25097E-02 1.53377E-01-3.82632E-01
 -1       771-1.63663E-02 4.68692E-02-1.78468E+00
 -1       772-6.03182E-02 1.50696E-01-1.50849E+00
 -1       773-6.26890E-02 1.54684E-01-9.57474E-01
 -1       774-1.84988E-02 5.03605E-02-6.67012E-01
 -1       775-6.33061E-02 1.54105E-01-9.57263E-01
 -1       776-2.00968E-02 4.89077E-02-6.67487E-01
 -1       777-6.19343E-02 1.51030E-01-1.50734E+00
 -1       778-2.08976E-02 4.50500E-02-1.78246E+00
 -1       779-5.98624E-02 1.51332E-01-1.50775E+00
 -1       780-6.19292E-02 1.50693E-01-1.50646E+00
 -1       781-6.26106E-02 1.54625E-01-9.58247E-01
 -1       782-6.35192E-02 1.53889E-01-9.56766E-01
 -1       783-1.54532E-02 4.86168E-02-1.23699E+00
 -1       784-2.06420E-02 4.60987E-02-1.23506E+00
 -1       785-1.05468E-01 1.11779E-01-2.04078E+00
 -1       786-1.06322E-01 1.12067E-01-2.03872E+00
 -1       787-1.84623E-01 1.90488E-01-1.77673E+00
 -1       788-1.84548E-01 1.90107E-01-1.77601E+00
 -1       789-1.94267E-01 1.97885E-01-1.23488E+00
 -1       790-1.94468E-01 1.98618E-01-1.23351E+00
 -1       791-1.96815E-01 2.01479E-01-6.67016E-01
 -1       792-1.96849E-01 2.01660E-01-6.66535E-01
 -1       793-1.15050E-01 1.18068E-01-3.80360E-01
 -1       794-1.14835E-01 1.18409E-01-3.78828E-01
 -1       795-3.14601E-02 3.79087E-02-1.77722E+00
 -1       796-1.11797E-01 1.16830E-01-1.50572E+00
 -1       797-1.14555E-01 1.18946E-01-9.58052E-01
 -1       798-3.24606E-02 3.71720E-02-6.66189E-01
 -1       799-3.63160E-02 3.54307E-02-6.68522E-01
 -1       800-1.15375E-01 1.18205E-01-9.59913E-01
 -1       801-1.12496E-01 1.15599E-01-1.50706E+00
 -1       802-3.54435E-02 3.43467E-02-1.78076E+00
 -1       803-1.11469E-01 1.17529E-01-1.50308E+00
 -1       804-1.12440E-01 1.15496E-01-1.50775E+00
 -1       805-1.14172E-01 1.19053E-01-9.57346E-01
 -1       806-1.15900E-01 1.18247E-01-9.60662E-01
 -1       807-3.19599E-02 3.84951E-02-1.23367E+00
 -1       808-3.72987E-02 3.30622E-02-1.23753E+00
 -1       809-1.40725E-01 6.39829E-02-2.04732E+00
 -1       810-1.40578E-01 6.36002E-02-2.04261E+00
 -1       811-2.42293E-01 1.07420E-01-1.78435E+00
 -1       812-2.41629E-01 1.07112E-01-1.78247E+00
 -1       813-2.57772E-01 1.09331E-01-1.23794E+00
 -1       814-2.56358E-01 1.11570E-01-1.23396E+00
 -1       815-2.60488E-01 1.09648E-01-6.68405E-01
 -1       816-2.60533E-01 1.10101E-01-6.67312E-01
 -1       817-1.52613E-01 6.28058E-02-3.83189E-01
 -1       818-1.53146E-01 6.38220E-02-3.82526E-01
 -1       819-4.26427E-02 2.43348E-02-1.78330E+00
 -1       820-1.48900E-01 6.55104E-02-1.51150E+00
 -1       821-1.52586E-01 6.62116E-02-9.58252E-01
 -1       822-4.79092E-02 2.06719E-02-6.67181E-01
 -1       823-4.91314E-02 1.94102E-02-6.68228E-01
 -1       824-1.52974E-01 6.52956E-02-9.59840E-01
 -1       825-1.48836E-01 6.40110E-02-1.51354E+00
 -1       826-4.46864E-02 1.60778E-02-1.78965E+00
 -1       827-1.49029E-01 6.62206E-02-1.50858E+00
 -1       828-1.49049E-01 6.33260E-02-1.51371E+00
 -1       829-1.52601E-01 6.64400E-02-9.57360E-01
 -1       830-1.53176E-01 6.49737E-02-9.60673E-01
 -1       831-4.46326E-02 2.23624E-02-1.23578E+00
 -1       832-4.74163E-02 1.57685E-02-1.24069E+00
 -1       833 0.00000E+00 0.00000E+00 0.00000E+00
 -1       834 0.00000E+00 0.00000E+00 0.00000E+00
 -1       835 0.00000E+00 0.00000E+00 0.00000E+00
 -1       836 0.00000E+00 0.00000E+00 0.00000E+00
 -1       837 0.00000E+00 0.00000E+00 0.00000E+00
 -1       838 0.00000E+00 0.00000E+00 0.00000E+00
 -1       839 0.00000E+00 0.00000E+00 0.00000E+00
 -1       840 0.00000E+00 0.00000E+00 0.00000E+00
 -1       841 0.00000E+00 0.00000E+00 0.00000E+00
 -1       842 0.00000E+00 0.00000E+00 0.00000E+00
 -1       843 0.00000E+00 0.00000E+00 0.00000E+00
 -1       844 0.00000E+00 0.00000E+00 0.00000E+00
 -1       845 0.00000E+00 0.00000E+00 0.00000E+00
 -1       846 0.00000E+00 0.00000E+00 0.00000E+00
 -1       847 0.00000E+00 0.00000E+00 0.00000E+00
 -1       848 0.00000E+00 0.00000E+00 0.00000E+00
 -1       849 0.00000E+00 0.00000E+00 0.00000E+00
 -1       850 0.00000E+00 0.00000E+00 0.00000E+00
 -1       851 0.00000E+00 0.00000E+00 0.00000E+00
 -1       852 0.00000E+00 0.00000E+00 0.00000E+00
 -1       853 0.00000E+00 0.00000E+00 0.00000E+00
 -1       854 0.00000E+00 0.00000E+00 0.00000E+00
 -1       855 0.00000E+00 0.00000E+00 0.00000E+00
 -1       856 0.00000E+00 0.00000E+00 0.00000E+00
 -1       857 0.00000E+00 0.00000E+00 0.00000E+00
 -1       858 0.00000E+00 0.00000E+00 0.00000E+00
 -1       859 0.00000E+00 0.00000E+00 0.00000E+00
 -1       860 0.00000E+00 0.00000E+00 0.00000E+00
 -1       861 0.00000E+00 0.00000E+00 0.00000E+00
 -1       862 0.00000E+00 0.00000E+00 0.00000E+00
 -1       863 0.00000E+00 0.00000E+00 0.00000E+00
 -1       864 0.00000E+00 0.00000E+00 0.00000E+00
 -1       865 0.00000E+00 0.00000E+00 0.00000E+00
 -1       866 0.00000E+00 0.00000E+00 0.00000E+00
 -1       867 0.00000E+00 0.00000E+00 0.00000E+00
 -1       868 0.00000E+00 0.00000E+00 0.00000E+00
 -1       869 0.00000E+00 0.00000E+00 0.00000E+00
 -1       870 0.00000E+00 0.00000E+00 0.00000E+00
 -1       871 0.00000E+00 0.00000E+00 0.00000E+00
 -1       872 0.00000E+00 0.00000E+00 0.00000E+00
 -1       873 0.00000E+00 0.00000E+00 0.00000E+00
 -1       874 0.00000E+00 0.00000E+00 0.00000E+00
 -1       875 0.00000E+00 0.00000E+00 0.00000E+00
 -1       876 0.00000E+00 0.00000E+00 0.00000E+00
 -1       877 0.00000E+00 0.00000E+00 0.00000E+00
 -1       878 0.00000E+00 0.00000E+00 0.00000E+00
 -1       879 0.00000E+00 0.00000E+00 0.00000E+00
 -1       880 0.00000E+00 0.00000E+00 0.00000E+00
 -1       881 0.00000E+00 0.00000E+00 0.00000E+00
 -1       882 0.00000E+00 0.00000E+00 0.00000E+00
 -1       883 0.00000E+00 0.00000E+00 0.00000E+00
 -1       884 0.00000E+00 0.00000E+00 0.00000E+00
 -1       885 0.00000E+00 0.00000E+00 0.00000E+00
 -1       886 0.00000E+00 0.00000E+00 0.00000E+00
 -1       887 0.00000E+00 0.00000E+00 0.00000E+00
 -1       888 0.00000E+00 0.00000E+00 0.00000E+00
 -1       889 0.00000E+00 0.00000E+00 0.00000E+00
 -1       890 0.00000E+00 0.00000E+00 0.00000E+00
 -1       891 0.00000E+00 0.00000E+00 0.00000E+00
 -1       892 0.00000E+00 0.00000E+00 0.00000E+00
 -1       893 0.00000E+00 0.00000E+00 0.00000E+00
 -1       894 0.00000E+00 0.00000E+00 0.00000E+00
 -1       895 0.00000E+00 0.00000E+00 0.00000E+00
 -1       896 0.00000E+00 0.00000E+00 0.00000E+00
 -1       897-2.69928E-01 1.77910E-03-1.65387E+00
 -1       898-2.62726E-01 2.09775E-03-1.92023E+00
 -1       899-2.69119E-01 1.15757E-03-1.65434E+00
 -1       900-2.78597E-01 8.55291E-04-1.37987E+00
 -1       901-2.84639E-01 3.26168E-03-8.16477E-01
 -1       902-2.84162E-01 4.16944E-03-5.21823E-01
 -1       903-5.19071E-02 1.88797E-03-8.15547E-01
 -1       904-5.20884E-02 1.03387E-03-5.20739E-01
 -1       905-5.21585E-02 3.83340E-04-8.18685E-01
 -1       906-4.70834E-02-5.07271E-03-1.92340E+00
 -1       907-5.08545E-02 3.03398E-03-1.10254E+00
 -1       908-5.07981E-02-4.59393E-03-1.10681E+00
 -1       909-4.91924E-02-4.50213E-03-1.38368E+00
 -1       910-2.45850E-01-8.90934E-02-1.92064E+00
 -1       911-2.52230E-01-9.50108E-02-1.65775E+00
 -1       912-2.45599E-01-8.92179E-02-1.92840E+00
 -1       913-4.94872E-02-1.78678E-02-8.25192E-01
 -1       914-4.82487E-02-1.91756E-02-5.34816E-01
 -1       915-4.83254E-02-1.95020E-02-8.27618E-01
 -1       916-4.29817E-02-2.20138E-02-1.93123E+00
 -1       917-4.83582E-02-1.66054E-02-1.10873E+00
 -1       918-4.61781E-02-2.12030E-02-1.11448E+00
 -1       919-4.39382E-02-2.23936E-02-1.39030E+00
 -1       920-1.95136E-01-2.02551E-01-1.11040E+00
 -1       921-1.92312E-01-2.00673E-01-1.38621E+00
 -1       922-1.84939E-01-1.87054E-01-1.92735E+00
 -1       923-1.88231E-01-1.92446E-01-1.66113E+00
 -1       924-1.84400E-01-1.85982E-01-1.92712E+00
 -1       925-3.49657E-02-3.56668E-02-1.66590E+00
 -1       926-3.71448E-02-3.66179E-02-8.29804E-01
 -1       927-3.85163E-02-3.57376E-02-5.35876E-01
 -1       928-3.64527E-02-3.82144E-02-8.28516E-01
 -1       929-3.05733E-02-3.65193E-02-1.93047E+00
 -1       930-3.76792E-02-3.43611E-02-1.11710E+00
 -1       931-3.35912E-02-3.91158E-02-1.11261E+00
 -1       932-3.18342E-02-3.83930E-02-1.38986E+00
 -1       933-1.09052E-01-2.57522E-01-1.38928E+00
 -1       934-1.11579E-01-2.63213E-01-8.24025E-01
 -1       935-1.10724E-01-2.56507E-01-1.38482E+00
 -1       936-1.12421E-01-2.58804E-01-1.10837E+00
 -1       937-2.14426E-02-4.47636E-02-1.66591E+00
 -1       938-2.16188E-02-4.82810E-02-5.29395E-01
 -1       939-2.07592E-02-4.86350E-02-8.25150E-01
 -1       940-1.28099E-02-4.67716E-02-1.93393E+00
 -1       941-2.27906E-02-4.62534E-02-1.11046E+00
 -1       942-1.83330E-02-4.83557E-02-1.11343E+00
 -1       943-1.66744E-02-4.70519E-02-1.39169E+00
 -1       944-9.22367E-04-2.80348E-01-1.39173E+00
 -1       945 7.96108E-04-2.62195E-01-1.92852E+00
 -1       946-2.24186E-04-2.69405E-01-1.66401E+00
 -1       947 6.37267E-04-2.61801E-01-1.93026E+00
 -1       948-4.42130E-03-2.82370E-01-1.11014E+00
 -1       949 8.82092E-04-5.06445E-02-1.66951E+00
 -1       950-1.36535E-03-5.33311E-02-8.26672E-01
 -1       951-1.89607E-03-5.35598E-02-5.33436E-01
 -1       952 4.48566E-04-5.29422E-02-8.29491E-01
 -1       953 7.77082E-03-4.84290E-02-1.93352E+00
 -1       954-2.90007E-03-4.92725E-02-1.39103E+00
 -1       955-2.67752E-03-5.10073E-02-1.11180E+00
 -1       956 2.65173E-03-5.16131E-02-1.11670E+00
 -1       957 4.01623E-03-5.09794E-02-1.39490E+00
 -1       958 1.11956E-01-2.58811E-01-1.11638E+00
 -1       959 1.12628E-01-2.58056E-01-1.11162E+00
 -1       960 1.11742E-01-2.54781E-01-1.38662E+00
 -1       961 2.07026E-02-4.56529E-02-1.66669E+00
 -1       962 1.99718E-02-4.91452E-02-5.35638E-01
 -1       963 2.27502E-02-4.82602E-02-8.27949E-01
 -1       964 2.48496E-02-4.17984E-02-1.92810E+00
 -1       965 1.76700E-02-4.67695E-02-1.39390E+00
 -1       966 1.79209E-02-4.86518E-02-1.11879E+00
 -1       967 2.25658E-02-4.66123E-02-1.11299E+00
 -1       968 2.61443E-02-4.35687E-02-1.38983E+00
 -1       969 1.91525E-01-2.05306E-01-1.11098E+00
 -1       970 1.79089E-01-1.90308E-01-1.92251E+00
 -1       971 1.83482E-01-1.95982E-01-1.65868E+00
 -1       972 1.78793E-01-1.90802E-01-1.92962E+00
 -1       973 3.31374E-02-3.85335E-02-1.66575E+00
 -1       974 3.62718E-02-3.88053E-02-8.30969E-01
 -1       975 3.49639E-02-3.92708E-02-5.36441E-01
 -1       976 3.77443E-02-3.76056E-02-8.37140E-01
 -1       977 3.80108E-02-3.07385E-02-1.93238E+00
 -1       978 3.32849E-02-3.93094E-02-1.38723E+00
 -1       979 3.42819E-02-3.91242E-02-1.11359E+00
 -1       980 3.85183E-02-3.55954E-02-1.12430E+00
 -1       981 3.78387E-02-3.43015E-02-1.39907E+00
 -1       982 2.63375E-01-1.08214E-01-8.43406E-01
 -1       983 2.58505E-01-1.08221E-01-1.12672E+00
 -1       984 2.37043E-01-1.05326E-01-1.92788E+00
 -1       985 2.45154E-01-1.06408E-01-1.66895E+00
 -1       986 2.36795E-01-1.05328E-01-1.93220E+00
 -1       987 4.67000E-02-2.06503E-02-1.67392E+00
 -1       988 5.02712E-02-2.03662E-02-5.52021E-01
 -1       989 5.02611E-02-1.89401E-02-8.44572E-01
 -1       990 4.62456E-02-1.53901E-02-1.93667E+00
 -1       991 4.57909E-02-2.29308E-02-1.40096E+00
 -1       992 4.79501E-02-2.13292E-02-1.12928E+00
 -1       993 4.91814E-02-1.62322E-02-1.12897E+00
 -1       994 4.73908E-02-1.53647E-02-1.40321E+00
 -1       995 2.80688E-01 7.49436E-03-1.12654E+00
 -1       996 2.61664E-01 2.27724E-03-1.93168E+00
 -1       997 2.68745E-01 4.39981E-03-1.66885E+00
 -1       998 2.61181E-01 1.70535E-03-1.93184E+00
 -1       999 5.05688E-02 3.32167E-04-1.67462E+00
 -1      1000 5.30890E-02 5.14977E-04-5.46393E-01
 -1      1001 5.31098E-02 4.84619E-03-8.36068E-01
 -1      1002 4.87553E-02 4.30465E-03-1.93562E+00
 -1      1003 5.05873E-02-1.71186E-03-1.40317E+00
 -1      1004 5.20601E-02-1.88969E-03-1.12925E+00
 -1      1005 5.19004E-02 3.93455E-03-1.11918E+00
 -1      1006 4.99160E-02 6.20811E-03-1.39426E+00
 -1      1007 2.40089E-01 1.08203E-01-1.92526E+00
 -1      1008 2.47489E-01 1.08805E-01-1.66446E+00
 -1      1009 2.57021E-01 1.06816E-01-1.39097E+00
 -1      1010 2.59425E-01 1.09250E-01-1.11497E+00
 -1      1011 2.63375E-01 1.06759E-01-5.38182E-01
 -1      1012 4.69539E-02 1.73159E-02-1.66914E+00
 -1      1013 4.93379E-02 1.86077E-02-8.31089E-01
 -1      1014 4.95497E-02 1.82856E-02-5.37476E-01
 -1      1015 4.92769E-02 2.13615E-02-8.31405E-01
 -1      1016 4.24542E-02 2.65302E-02-1.92972E+00
 -1      1017 4.80131E-02 1.45699E-02-1.39391E+00
 -1      1018 4.88827E-02 1.77746E-02-1.11696E+00
 -1      1019 4.65644E-02 2.30543E-02-1.11472E+00
 -1      1020 4.51825E-02 2.40992E-02-1.38849E+00
 -1      1021 1.89715E-01 1.92468E-01-1.66002E+00
 -1      1022 1.83703E-01 1.88075E-01-1.92269E+00
 -1      1023 1.88312E-01 1.92481E-01-1.66223E+00
 -1      1024 1.99374E-01 1.96354E-01-1.38843E+00
 -1      1025 2.00612E-01 1.99910E-01-1.11228E+00
 -1      1026 2.01193E-01 2.08005E-01-5.34284E-01
 -1      1027 3.71834E-02 3.62440E-02-1.66555E+00
 -1      1028 3.89110E-02 3.72652E-02-8.30184E-01
 -1      1029 3.89851E-02 3.92238E-02-5.33303E-01
 -1      1030 3.71812E-02 3.91570E-02-8.28962E-01
 -1      1031 3.00208E-02 3.91807E-02-1.92678E+00
 -1      1032 4.03830E-02 3.17474E-02-1.39119E+00
 -1      1033 3.94979E-02 3.57217E-02-1.11440E+00
 -1      1034 3.52833E-02 3.91297E-02-1.11387E+00
 -1      1035 3.44899E-02 3.84667E-02-1.39018E+00
 -1      1036 1.05638E-01 2.60797E-01-1.11311E+00
 -1      1037 9.32663E-02 2.43037E-01-1.91507E+00
 -1      1038 9.81566E-02 2.48934E-01-1.65843E+00
 -1      1039 1.01267E-01 2.58918E-01-1.38215E+00
 -1      1040 2.17284E-02 4.64934E-02-1.66305E+00
 -1      1041 2.28600E-02 4.88565E-02-5.38357E-01
 -1      1042 1.99909E-02 5.08634E-02-8.28108E-01
 -1      1043 1.49364E-02 4.73323E-02-1.91851E+00
 -1      1044 2.40517E-02 4.58205E-02-1.38986E+00
 -1      1045 2.28694E-02 4.78976E-02-1.11553E+00
 -1      1046 1.65588E-02 4.98393E-02-1.11005E+00
 -1      1047 1.59924E-02 4.82331E-02-1.38536E+00
 -1      1048-3.41512E-03 2.82111E-01-1.10456E+00
 -1      1049-5.88888E-03 2.69123E-01-1.65073E+00
 -1      1050-4.15807E-03 2.86821E-01-8.14408E-01
 -1      1051-4.65260E-03 2.87376E-01-5.24983E-01
 -1      1052 1.18420E-03 5.14702E-02-1.65525E+00
 -1      1053 1.22464E-04 5.56151E-02-5.23781E-01
 -1      1054-7.19655E-04 5.45733E-02-8.16148E-01
 -1      1055-2.31261E-03 4.91564E-02-1.91367E+00
 -1      1056 2.19630E-03 5.10462E-02-1.38311E+00
 -1      1057 3.86878E-03 5.29025E-02-1.10733E+00
 -1      1058-1.72601E-03 5.26481E-02-1.10070E+00
 -1      1059-3.80843E-03 5.10080E-02-1.37596E+00
 -1      1060-1.06471E-01 2.56700E-01-1.36842E+00
 -1      1061-1.03399E-01 2.40127E-01-1.90773E+00
 -1      1062-1.04460E-01 2.48299E-01-1.64493E+00
 -1      1063-1.05226E-01 2.57224E-01-1.37172E+00
 -1      1064-1.06581E-01 2.59864E-01-1.09596E+00
 -1      1065-1.46889E-02 4.65959E-02-1.65070E+00
 -1      1066-1.69587E-02 4.98147E-02-8.12933E-01
 -1      1067-1.80205E-02 5.02432E-02-5.22491E-01
 -1      1068-1.87602E-02 4.93470E-02-8.13197E-01
 -1      1069-2.13490E-02 4.31148E-02-1.91239E+00
 -1      1070-1.26333E-02 4.86513E-02-1.37267E+00
 -1      1071-1.66610E-02 4.91856E-02-1.09734E+00
 -1      1072-2.02339E-02 4.71253E-02-1.09602E+00
 -1      1073-2.15784E-02 4.49536E-02-1.37131E+00
 -1      1074-1.82037E-01 1.89553E-01-1.90877E+00
 -1      1075-1.86265E-01 1.93331E-01-1.64048E+00
 -1      1076-1.93284E-01 1.97008E-01-1.37102E+00
 -1      1077-1.96579E-01 2.01351E-01-8.12816E-01
 -1      1078-1.95999E-01 2.01243E-01-5.21564E-01
 -1      1079-3.35437E-02 3.80630E-02-8.12540E-01
 -1      1080-3.41550E-02 3.70522E-02-5.20648E-01
 -1      1081-3.54321E-02 3.60951E-02-8.14341E-01
 -1      1082-3.71657E-02 3.04014E-02-1.91334E+00
 -1      1083-3.30805E-02 3.81885E-02-1.09538E+00
 -1      1084-3.73521E-02 3.31496E-02-1.10041E+00
 -1      1085-3.72022E-02 3.28365E-02-1.37431E+00
 -1      1086-2.39300E-01 1.06913E-01-1.91553E+00
 -1      1087-2.46365E-01 1.08985E-01-1.64764E+00
 -1      1088-2.56148E-01 1.07973E-01-1.37609E+00
 -1      1089-2.60231E-01 1.09964E-01-8.13716E-01
 -1      1090-2.59611E-01 1.09519E-01-5.23986E-01
 -1      1091-4.75911E-02 2.11895E-02-8.14100E-01
 -1      1092-4.71373E-02 2.09573E-02-5.22957E-01
 -1      1093-4.81042E-02 1.97344E-02-8.14731E-01
 -1      1094-4.40400E-02 1.73708E-02-1.91980E+00
 -1      1095-4.53558E-02 2.27949E-02-1.09695E+00
 -1      1096-4.73414E-02 1.77817E-02-1.10087E+00
 -1      1097-4.65104E-02 1.54303E-02-1.37887E+00
 -1      1098 0.00000E+00 0.00000E+00 0.00000E+00
 -1      1099 0.00000E+00 0.00000E+00 0.00000E+00
 -1      1100 0.00000E+00 0.00000E+00 0.00000E+00
 -1      1101 0.00000E+00 0.00000E+00 0.00000E+00
 -1      1102 0.00000E+00 0.00000E+00 0.00000E+00
 -1      1103 0.00000E+00 0.00000E+00 0.00000E+00
 -1      1104 0.00000E+00 0.00000E+00 0.00000E+00
 -1      1105 0.00000E+00 0.00000E+00 0.00000E+00
 -1      1106 0.00000E+00 0.00000E+00 0.00000E+00
 -1      1107 0.00000E+00 0.00000E+00 0.00000E+00
 -1      1108 0.00000E+00 0.00000E+00 0.00000E+00
 -1      1109 0.00000E+00 0.00000E+00 0.00000E+00
 -1      1110 0.00000E+00 0.00000E+00 0.00000E+00
 -1      1111 0.00000E+00 0.00000E+00 0.00000E+00
 -1      1112 0.00000E+00 0.00000E+00 0.00000E+00
 -1      1113 0.00000E+00 0.00000E+00 0.00000E+00
 -1      1114 0.00000E+00 0.00000E+00 0.00000E+00
 -1      1115 0.00000E+00 0.00000E+00 0.00000E+00
 -1      1116 0.00000E+00 0.00000E+00 0.00000E+00
 -1      1117 0.00000E+00 0.00000E+00 0.00000E+00
 -1      1118 0.00000E+00 0.00000E+00 0.00000E+00
 -1      1119 0.00000E+00 0.00000E+00 0.00000E+00
 -1      1120 0.00000E+00 0.00000E+00 0.00000E+00
 -1      1121 0.00000E+00 0.00000E+00 0.00000E+00
 -1      1122 0.00000E+00 0.00000E+00 0.00000E+00
 -1      1123 0.00000E+00 0.00000E+00 0.00000E+00
 -1      1124 0.00000E+00 0.00000E+00 0.00000E+00
 -1      1125 0.00000E+00 0.00000E+00 0.00000E+00
 -1      1126 0.00000E+00 0.00000E+00 0.00000E+00
 -1      1127 0.00000E+00 0.00000E+00 0.00000E+00
 -1      1128 0.00000E+00 0.00000E+00 0.00000E+00
 -1      1129 0.00000E+00 0.00000E+00 0.00000E+00
 -1      1130 0.00000E+00 0.00000E+00 0.00000E+00
 -1      1131 0.00000E+00 0.00000E+00 0.00000E+00
 -1      1132 0.00000E+00 0.00000E+00 0.00000E+00
 -1      1133 0.00000E+00 0.00000E+00 0.00000E+00
 -1      1134 0.00000E+00 0.00000E+00 0.00000E+00
 -1      1135 0.00000E+00 0.00000E+00 0.00000E+00
 -1      1136 0.00000E+00 0.00000E+00 0.00000E+00
 -1      1137 0.00000E+00 0.00000E+00 0.00000E+00
 -1      1138 0.00000E+00 0.00000E+00 0.00000E+00
 -1      1139 0.00000E+00 0.00000E+00 0.00000E+00
 -1      1140 0.00000E+00 0.00000E+00 0.00000E+00
 -1      1141 0.00000E+00 0.00000E+00 0.00000E+00
 -1      1142 0.00000E+00 0.00000E+00 0.00000E+00
 -1      1143 0.00000E+00 0.00000E+00 0.00000E+00
 -1      1144 0.00000E+00 0.00000E+00 0.00000E+00
 -1      1145 0.00000E+00 0.00000E+00 0.00000E+00
 -1      1146 0.00000E+00 0.00000E+00 0.00000E+00
 -1      1147 0.00000E+00 0.00000E+00 0.00000E+00
 -1      1148 0.00000E+00 0.00000E+00 0.00000E+00
 -1      1149 0.00000E+00 0.00000E+00 0.00000E+00
 -1      1150 0.00000E+00 0.00000E+00 0.00000E+00
 -1      1151 0.00000E+00 0.00000E+00 0.00000E+00
 -1      1152 0.00000E+00 0.00000E+00 0.00000E+00
 -1      1153-2.62764E-01 1.94391E-03-1.91921E+00
 -1      1154-2.81499E-01 8.50784E-04-1.10330E+00
 -1      1155-2.82320E-01 1.65181E-03-1.10181E+00
 -1      1156-2.78755E-01 1.94933E-03-1.37975E+00
 -1      1157-2.83324E-01 3.77935E-03-5.24910E-01
 -1      1158-2.84889E-01 3.05188E-03-8.15366E-01
 -1      1159-4.92666E-02 1.95650E-03-1.65717E+00
 -1      1160-4.75961E-02 4.79122E-03-1.92296E+00
 -1      1161-5.13280E-02-9.14930E-04-5.23180E-01
 -1      1162-4.87556E-02-2.52611E-03-1.65869E+00
 -1      1163-4.88084E-02 5.22538E-03-1.38054E+00
 -1      1164-2.60650E-01-1.05572E-01-5.35936E-01
 -1      1165-2.62887E-01-1.05122E-01-8.24783E-01
 -1      1166-2.62194E-01-1.04836E-01-8.26102E-01
 -1      1167-2.60101E-01-1.05876E-01-5.37332E-01
 -1      1168-2.61759E-01-1.03178E-01-1.10727E+00
 -1      1169-2.59822E-01-9.96016E-02-1.38210E+00
 -1      1170-2.58089E-01-1.01092E-01-1.38915E+00
 -1      1171-2.60156E-01-1.04256E-01-1.11220E+00
 -1      1172-2.51059E-01-9.34200E-02-1.66422E+00
 -1      1173-4.69794E-02-1.39756E-02-1.66454E+00
 -1      1174-4.68871E-02-9.02398E-03-1.92520E+00
 -1      1175-4.75569E-02-2.04528E-02-5.35795E-01
 -1      1176-4.54174E-02-1.86433E-02-1.66760E+00
 -1      1177-4.73003E-02-1.41982E-02-1.38506E+00
 -1      1178-1.99723E-01-2.02546E-01-5.36816E-01
 -1      1179-1.98778E-01-2.03418E-01-8.29142E-01
 -1      1180-1.99100E-01-2.03603E-01-8.26788E-01
 -1      1181-1.99307E-01-2.02608E-01-5.34982E-01
 -1      1182-1.96098E-01-2.01312E-01-1.11571E+00
 -1      1183-1.93798E-01-1.98495E-01-1.39151E+00
 -1      1184-1.88937E-01-1.92483E-01-1.66130E+00
 -1      1185-3.61957E-02-3.12397E-02-1.93073E+00
 -1      1186-3.71352E-02-3.72652E-02-5.34343E-01
 -1      1187-3.21426E-02-3.77271E-02-1.66388E+00
 -1      1188-3.82747E-02-3.17104E-02-1.39352E+00
 -1      1189-1.11289E-01-2.60180E-01-1.11222E+00
 -1      1190-1.11455E-01-2.62498E-01-5.30611E-01
 -1      1191-1.11721E-01-2.62966E-01-8.23452E-01
 -1      1192-1.11234E-01-2.62836E-01-5.31520E-01
 -1      1193-1.02116E-01-2.43006E-01-1.93046E+00
 -1      1194-1.06685E-01-2.48282E-01-1.66279E+00
 -1      1195-1.01573E-01-2.41930E-01-1.92822E+00
 -1      1196-1.08002E-01-2.49680E-01-1.66398E+00
 -1      1197-2.30766E-02-4.22687E-02-1.93370E+00
 -1      1198-2.19212E-02-4.79092E-02-8.24857E-01
 -1      1199-2.04314E-02-4.91417E-02-5.30406E-01
 -1      1200-1.90162E-02-4.64980E-02-1.66846E+00
 -1      1201-2.28665E-02-4.41786E-02-1.38534E+00
 -1      1202-3.01784E-03-2.83503E-01-1.11528E+00
 -1      1203-4.07828E-03-2.84607E-01-5.34606E-01
 -1      1204-3.88713E-03-2.85333E-01-8.25813E-01
 -1      1205-3.88249E-03-2.85239E-01-8.27932E-01
 -1      1206-3.61974E-03-2.85077E-01-5.36364E-01
 -1      1207-7.04900E-04-2.70861E-01-1.66682E+00
 -1      1208-1.37732E-03-2.79031E-01-1.38993E+00
 -1      1209-4.47168E-03-4.85217E-02-1.93431E+00
 -1      1210 1.82953E-04-5.40700E-02-5.35533E-01
 -1      1211 4.89661E-03-4.96684E-02-1.67015E+00
 -1      1212 1.10926E-01-2.55493E-01-1.39235E+00
 -1      1213 1.07968E-01-2.47176E-01-1.66360E+00
 -1      1214 1.01139E-01-2.40826E-01-1.92431E+00
 -1      1215 1.00942E-01-2.40207E-01-1.92534E+00
 -1      1216 1.06544E-01-2.46494E-01-1.66133E+00
 -1      1217 1.15675E-01-2.61338E-01-5.37136E-01
 -1      1218 1.15068E-01-2.61604E-01-8.30080E-01
 -1      1219 1.14864E-01-2.61406E-01-8.26824E-01
 -1      1220 1.15827E-01-2.61192E-01-5.32783E-01
 -1      1221 1.70669E-02-4.67203E-02-1.92790E+00
 -1      1222 2.07176E-02-4.86309E-02-8.32213E-01
 -1      1223 2.11816E-02-4.88354E-02-5.31702E-01
 -1      1224 2.42338E-02-4.48289E-02-1.66610E+00
 -1      1225 1.94439E-01-2.07114E-01-5.38024E-01
 -1      1226 1.95044E-01-2.07527E-01-8.29934E-01
 -1      1227 1.95166E-01-2.07751E-01-8.35399E-01
 -1      1228 1.95051E-01-2.06936E-01-5.42550E-01
 -1      1229 1.89963E-01-2.02588E-01-1.38595E+00
 -1      1230 1.91251E-01-2.01527E-01-1.39663E+00
 -1      1231 1.92938E-01-2.05511E-01-1.12338E+00
 -1      1232 1.83948E-01-1.97259E-01-1.66713E+00
 -1      1233 3.22756E-02-3.62546E-02-1.92761E+00
 -1      1234 3.72202E-02-3.73989E-02-5.41512E-01
 -1      1235 3.78337E-02-3.46112E-02-1.67086E+00
 -1      1236 2.64078E-01-1.08377E-01-5.52630E-01
 -1      1237 2.63248E-01-1.07967E-01-8.43371E-01
 -1      1238 2.64471E-01-1.08208E-01-5.52155E-01
 -1      1239 2.54839E-01-1.06932E-01-1.39913E+00
 -1      1240 2.55543E-01-1.04644E-01-1.40048E+00
 -1      1241 2.59156E-01-1.06965E-01-1.12770E+00
 -1      1242 2.45393E-01-1.06936E-01-1.67261E+00
 -1      1243 4.29087E-02-2.48492E-02-1.93059E+00
 -1      1244 4.97609E-02-1.95054E-02-8.44643E-01
 -1      1245 5.16863E-02-1.94442E-02-5.51455E-01
 -1      1246 4.67293E-02-1.71331E-02-1.67618E+00
 -1      1247 2.85272E-01 8.51524E-03-5.47415E-01
 -1      1248 2.85140E-01 9.41647E-03-8.39494E-01
 -1      1249 2.85312E-01 9.44695E-03-8.35223E-01
 -1      1250 2.85874E-01 8.67052E-03-5.42177E-01
 -1      1251 2.77609E-01 7.85991E-03-1.40149E+00
 -1      1252 2.77278E-01 1.01357E-02-1.39156E+00
 -1      1253 2.81293E-01 8.25169E-03-1.11802E+00
 -1      1254 2.68824E-01 3.97365E-03-1.66884E+00
 -1      1255 4.89408E-02-1.59205E-03-1.93528E+00
 -1      1256 5.33543E-02 2.57677E-03-8.41903E-01
 -1      1257 5.32974E-02 1.89833E-03-5.41480E-01
 -1      1258 4.98518E-02 4.19951E-03-1.67258E+00
 -1      1259 2.47832E-01 1.08611E-01-1.66208E+00
 -1      1260 2.40084E-01 1.09064E-01-1.93083E+00
 -1      1261 2.56378E-01 1.09906E-01-1.38758E+00
 -1      1262 2.58619E-01 1.10813E-01-1.11319E+00
 -1      1263 2.62898E-01 1.09705E-01-8.29397E-01
 -1      1264 2.63429E-01 1.07299E-01-5.39539E-01
 -1      1265 2.62529E-01 1.09473E-01-8.30513E-01
 -1      1266 4.56206E-02 1.54956E-02-1.93339E+00
 -1      1267 4.91443E-02 2.00233E-02-5.38893E-01
 -1      1268 4.64743E-02 2.15868E-02-1.66558E+00
 -1      1269 1.82288E-01 1.87414E-01-1.92447E+00
 -1      1270 1.97109E-01 1.97663E-01-1.38789E+00
 -1      1271 1.99558E-01 2.00868E-01-1.11227E+00
 -1      1272 2.01197E-01 2.04393E-01-8.26415E-01
 -1      1273 2.00215E-01 2.07191E-01-5.30949E-01
 -1      1274 2.01700E-01 2.05307E-01-8.28286E-01
 -1      1275 3.64509E-02 3.29848E-02-1.92886E+00
 -1      1276 3.69389E-02 3.87128E-02-5.29923E-01
 -1      1277 3.38317E-02 3.86753E-02-1.66561E+00
 -1      1278 1.02862E-01 2.58382E-01-1.38842E+00
 -1      1279 9.99786E-02 2.50524E-01-1.65586E+00
 -1      1280 9.35013E-02 2.42682E-01-1.91918E+00
 -1      1281 1.07487E-01 2.62901E-01-5.39243E-01
 -1      1282 1.06664E-01 2.64308E-01-8.27181E-01
 -1      1283 1.07172E-01 2.63399E-01-5.36969E-01
 -1      1284 1.06003E-01 2.63340E-01-8.28583E-01
 -1      1285 1.03966E-01 2.61907E-01-1.10878E+00
 -1      1286 2.15720E-02 4.45256E-02-1.92181E+00
 -1      1287 2.12511E-02 4.97184E-02-8.30384E-01
 -1      1288 1.98135E-02 4.94715E-02-5.36791E-01
 -1      1289 1.95620E-02 4.77023E-02-1.65960E+00
 -1      1290-5.46854E-03 2.78495E-01-1.38122E+00
 -1      1291-6.51188E-03 2.61790E-01-1.91020E+00
 -1      1292-5.15088E-03 2.70068E-01-1.64795E+00
 -1      1293-7.03869E-03 2.61232E-01-1.91519E+00
 -1      1294-4.79985E-03 2.87313E-01-5.21610E-01
 -1      1295-4.59879E-03 2.87223E-01-8.18000E-01
 -1      1296-6.82717E-03 2.78885E-01-1.37318E+00
 -1      1297-4.06511E-03 2.83274E-01-1.09927E+00
 -1      1298 4.16009E-03 4.90295E-02-1.91971E+00
 -1      1299 6.79063E-04 5.40427E-02-8.18818E-01
 -1      1300-8.24823E-04 5.58330E-02-5.20148E-01
 -1      1301-2.56398E-03 5.01078E-02-1.65138E+00
 -1      1302-1.07405E-01 2.58980E-01-1.09482E+00
 -1      1303-1.06938E-01 2.61812E-01-8.11690E-01
 -1      1304-1.06367E-01 2.60731E-01-5.23858E-01
 -1      1305-1.06173E-01 2.61967E-01-5.23322E-01
 -1      1306-1.06972E-01 2.62067E-01-8.12525E-01
 -1      1307-1.04654E-01 2.48703E-01-1.64468E+00
 -1      1308-1.03557E-01 2.40579E-01-1.91143E+00
 -1      1309-1.43172E-02 4.59604E-02-1.91580E+00
 -1      1310-1.94308E-02 4.86293E-02-5.22970E-01
 -1      1311-2.19648E-02 4.55625E-02-1.64790E+00
 -1      1312-1.86814E-01 1.93785E-01-1.64298E+00
 -1      1313-1.82221E-01 1.88954E-01-1.90656E+00
 -1      1314-1.95026E-01 1.98567E-01-1.09762E+00
 -1      1315-1.95137E-01 1.99616E-01-1.09511E+00
 -1      1316-1.92658E-01 1.97863E-01-1.36929E+00
 -1      1317-1.96053E-01 2.01052E-01-5.23299E-01
 -1      1318-1.97016E-01 2.01564E-01-8.12260E-01
 -1      1319-3.24913E-02 3.82434E-02-1.64400E+00
 -1      1320-2.91765E-02 3.93312E-02-1.91122E+00
 -1      1321-3.49447E-02 3.66450E-02-5.22279E-01
 -1      1322-3.51601E-02 3.44695E-02-1.64633E+00
 -1      1323-3.13656E-02 3.84176E-02-1.37040E+00
 -1      1324-2.46631E-01 1.09574E-01-1.65155E+00
 -1      1325-2.39196E-01 1.07037E-01-1.91225E+00
 -1      1326-2.58433E-01 1.09837E-01-1.09892E+00
 -1      1327-2.57790E-01 1.11250E-01-1.09589E+00
 -1      1328-2.55686E-01 1.10037E-01-1.37247E+00
 -1      1329-2.59226E-01 1.08858E-01-5.24832E-01
 -1      1330-2.60275E-01 1.10412E-01-8.12889E-01
 -1      1331-4.36614E-02 2.33662E-02-1.65354E+00
 -1      1332-4.07708E-02 2.45914E-02-1.91415E+00
 -1      1333-4.74232E-02 1.94637E-02-5.23818E-01
 -1      1334-4.46039E-02 1.85090E-02-1.65563E+00
 -1      1335-4.42416E-02 2.19050E-02-1.37391E+00
 -1      1336 0.00000E+00 0.00000E+00 0.00000E+00
 -1      1337 0.00000E+00 0.00000E+00 0.00000E+00
 -1      1338 0.00000E+00 0.00000E+00 0.00000E+00
 -1      1339 0.00000E+00 0.00000E+00 0.00000E+00
 -1      1340 0.00000E+00 0.00000E+00 0.00000E+00
 -1      1341 0.00000E+00 0.00000E+00 0.00000E+00
 -1      1342 0.00000E+00 0.00000E+00 0.00000E+00
 -1      1343 0.00000E+00 0.00000E+00 0.00000E+00
 -1      1344 0.00000E+00 0.00000E+00 0.00000E+00
 -1      1345 0.00000E+00 0.00000E+00 0.00000E+00
 -1      1346 0.00000E+00 0.00000E+00 0.00000E+00
 -1      1347 0.00000E+00 0.00000E+00 0.00000E+00
 -1      1348 0.00000E+00 0.00000E+00 0.00000E+00
 -1      1349 0.00000E+00 0.00000E+00 0.00000E+00
 -1      1350 0.00000E+00 0.00000E+00 0.00000E+00
 -1      1351 0.00000E+00 0.00000E+00 0.00000E+00
 -1      1352 0.00000E+00 0.00000E+00 0.00000E+00
 -1      1353 0.00000E+00 0.00000E+00 0.00000E+00
 -1      1354 0.00000E+00 0.00000E+00 0.00000E+00
 -1      1355 0.00000E+00 0.00000E+00 0.00000E+00
 -1      1356 0.00000E+00 0.00000E+00 0.00000E+00
 -1      1357 0.00000E+00 0.00000E+00 0.00000E+00
 -1      1358 0.00000E+00 0.00000E+00 0.00000E+00
 -1      1359 0.00000E+00 0.00000E+00 0.00000E+00
 -1      1360 0.00000E+00 0.00000E+00 0.00000E+00
 -1      1361 0.00000E+00 0.00000E+00 0.00000E+00
 -1      1362 0.00000E+00 0.00000E+00 0.00000E+00
 -1      1363 0.00000E+00 0.00000E+00 0.00000E+00
 -1      1364 0.00000E+00 0.00000E+00 0.00000E+00
 -1      1365 0.00000E+00 0.00000E+00 0.00000E+00
 -1      1366 0.00000E+00 0.00000E+00 0.00000E+00
 -1      1367 0.00000E+00 0.00000E+00 0.00000E+00
 -1      1368 0.00000E+00 0.00000E+00 0.00000E+00
 -1      1369 0.00000E+00 0.00000E+00 0.00000E+00
 -1      1370 0.00000E+00 0.00000E+00 0.00000E+00
 -1      1371 0.00000E+00 0.00000E+00 0.00000E+00
 -1      1372 0.00000E+00 0.00000E+00 0.00000E+00
 -1      1373 0.00000E+00 0.00000E+00 0.00000E+00
 -1      1374 0.00000E+00 0.00000E+00 0.00000E+00
 -1      1375 0.00000E+00 0.00000E+00 0.00000E+00
 -1      1376 0.00000E+00 0.00000E+00 0.00000E+00
 -1      1377 0.00000E+00 0.00000E+00 0.00000E+00
 -1      1378 0.00000E+00 0.00000E+00 0.00000E+00
 -1      1379 0.00000E+00 0.00000E+00 0.00000E+00
 -1      1380 0.00000E+00 0.00000E+00 0.00000E+00
 -1      1381 0.00000E+00 0.00000E+00 0.00000E+00
 -1      1382 0.00000E+00 0.00000E+00 0.00000E+00
 -1      1383 0.00000E+00 0.00000E+00 0.00000E+00
 -1      1384 0.00000E+00 0.00000E+00 0.00000E+00
 -1      1385 0.00000E+00 0.00000E+00 0.00000E+00
 -1      1386 0.00000E+00 0.00000E+00 0.00000E+00
 -1      1387 0.00000E+00 0.00000E+00 0.00000E+00
 -1      1388 0.00000E+00 0.00000E+00 0.00000E+00
 -1      1389 0.00000E+00 0.00000E+00 0.00000E+00
 -1      1390 0.00000E+00 0.00000E+00 0.00000E+00
 -1      1391 0.00000E+00 0.00000E+00 0.00000E+00
 -1      1392 0.00000E+00 0.00000E+00 0.00000E+00
 -1      1393 0.00000E+00 0.00000E+00 0.00000E+00
 -1      1394 0.00000E+00 0.00000E+00 0.00000E+00
 -1      1395 0.00000E+00 0.00000E+00 0.00000E+00
 -1      1396 0.00000E+00 0.00000E+00 0.00000E+00
 -1      1397 0.00000E+00 0.00000E+00 0.00000E+00
 -1      1398 0.00000E+00 0.00000E+00 0.00000E+00
 -1      1399 0.00000E+00 0.00000E+00 0.00000E+00
 -1      1400 0.00000E+00 0.00000E+00 0.00000E+00
 -1      1401 0.00000E+00 0.00000E+00 0.00000E+00
 -1      1402 0.00000E+00 0.00000E+00 0.00000E+00
 -1      1403 0.00000E+00 0.00000E+00 0.00000E+00
 -1      1404 0.00000E+00 0.00000E+00 0.00000E+00
 -1      1405 0.00000E+00 0.00000E+00 0.00000E+00
 -1      1406 0.00000E+00 0.00000E+00 0.00000E+00
 -1      1407 0.00000E+00 0.00000E+00 0.00000E+00
 -1      1408 0.00000E+00 0.00000E+00 0.00000E+00
 -1      1409-3.55416E-02 3.15929E-02-1.97662E+00
 -1      1410-4.01633E-02 2.43581E-02-1.98559E+00
 -1      1411 1.66074E-02-4.68687E-02-1.99311E+00
 -1      1412 6.58551E-03-4.86155E-02-2.00428E+00
 -1      1413-1.10820E-02-4.65467E-02-1.99796E+00
 -1      1414-4.27557E-03-4.82597E-02-2.00498E+00
 -1      1415 2.00363E-02-3.80855E-02-2.05402E+00
 -1      1416-4.27507E-02-2.32660E-02-1.99597E+00
 -1      1417-3.52209E-02-3.06370E-02-2.00235E+00
 -1      1418-3.09387E-02-3.70161E-02-1.99530E+00
 -1      1419-2.21286E-02-4.33996E-02-2.00509E+00
 -1      1420 4.62816E-02-1.31025E-02-1.99947E+00
 -1      1421 4.83995E-02-4.60018E-03-2.00650E+00
 -1      1422 3.71352E-02 3.27709E-02-1.99180E+00
 -1      1423 4.11194E-02 2.52550E-02-1.99898E+00
 -1      1424-2.88281E-02 3.99608E-02-1.97546E+00
 -1      1425-2.30497E-02 4.28091E-02-1.98263E+00
 -1      1426 2.92607E-02 3.92883E-02-1.99015E+00
 -1      1427 2.27449E-02 4.34978E-02-1.99335E+00
 -1      1428-4.61107E-02-1.17475E-02-1.98981E+00
 -1      1429-4.55974E-02-3.77655E-03-1.99527E+00
 -1      1430 4.58354E-02 1.42761E-02-1.99578E+00
 -1      1431 4.78836E-02 6.25947E-03-2.00614E+00
 -1      1432-4.46210E-02 1.43172E-02-1.98448E+00
 -1      1433-4.54979E-02 9.68447E-03-1.99426E+00
 -1      1434 1.43982E-02 4.75739E-02-1.98189E+00
 -1      1435 3.65373E-03 4.92710E-02-1.98887E+00
 -1      1436 1.68266E-02 4.07912E-02-2.04630E+00
 -1      1437 3.07443E-02-3.71920E-02-1.99055E+00
 -1      1438 2.53655E-02-4.08700E-02-1.99882E+00
 -1      1439-1.25985E-02 4.61673E-02-1.97834E+00
 -1      1440-5.41769E-03 4.85842E-02-1.98463E+00
 -1      1441-2.82841E-02-3.68441E-02-2.02537E+00
 -1      1442-2.22554E-02-4.07357E-02-2.03147E+00
 -1      1443-1.38229E-02-4.01869E-02-2.05841E+00
 -1      1444 3.82189E-02-3.03041E-02-1.99544E+00
 -1      1445 4.33032E-02-2.49250E-02-2.00114E+00
 -1      1446 3.85332E-02 1.91773E-02-2.05835E+00
 -1      1447 2.93145E-02 3.26584E-02-2.05230E+00
 -1      1448-2.89927E-02-2.91434E-02-2.05794E+00
 -1      1449 4.27833E-02 1.76243E-03-2.05977E+00
 -1      1450-2.72862E-02 3.84530E-02-2.00455E+00
 -1      1451-2.23579E-02 4.07421E-02-2.00932E+00
 -1      1452 4.07174E-02-1.77731E-02-2.05687E+00
 -1      1453-1.46799E-02 3.90641E-02-2.03644E+00
 -1      1454-2.91910E-02 3.24785E-02-2.03825E+00
 -1      1455 4.45279E-02 1.41478E-02-2.02614E+00
 -1      1456 4.56966E-02 7.62198E-03-2.03271E+00
 -1      1457 4.21880E-04 4.31961E-02-2.03967E+00
 -1      1458 1.49917E-02-4.47765E-02-2.02307E+00
 -1      1459 7.93906E-03-4.59960E-02-2.03026E+00
 -1      1460 1.50301E-03-4.30111E-02-2.05857E+00
 -1      1461-3.95972E-02-1.60254E-02-2.05465E+00
 -1      1462 1.01083E-01 2.69088E-03-2.06072E+00
 -1      1463 3.59193E-02 3.06756E-02-2.02176E+00
 -1      1464 3.93009E-02 2.48720E-02-2.02784E+00
 -1      1465-3.87223E-02 9.07993E-02-2.03681E+00
 -1      1466-3.74022E-02-9.15780E-02-2.05873E+00
 -1      1467-4.05826E-02 2.88097E-03-2.04993E+00
 -1      1468-4.26681E-02 1.44013E-02-2.01383E+00
 -1      1469-4.36468E-02 8.40789E-03-2.02057E+00
 -1      1470 3.03037E-02-2.97495E-02-2.05430E+00
 -1      1471 9.34958E-02 4.06428E-02-2.05897E+00
 -1      1472-3.81296E-02 1.82714E-02-2.04274E+00
 -1      1473 3.69507E-02-2.89304E-02-2.02373E+00
 -1      1474 4.09773E-02-2.43063E-02-2.02777E+00
 -1      1475-1.00016E-01 3.57269E-03-2.04980E+00
 -1      1476-3.43557E-02 3.04521E-02-2.00661E+00
 -1      1477-3.80947E-02 2.48754E-02-2.01302E+00
 -1      1478 4.16887E-03-9.98419E-02-2.05861E+00
 -1      1479-6.88597E-02-7.17739E-02-2.05809E+00
 -1      1480 2.96471E-02-3.57010E-02-2.02007E+00
 -1      1481 2.46925E-02-3.91674E-02-2.02557E+00
 -1      1482-1.12553E-02 4.42475E-02-2.00719E+00
 -1      1483-4.90962E-03 4.57900E-02-2.01137E+00
 -1      1484 3.93115E-02-9.23568E-02-2.05435E+00
 -1      1485-1.02376E-02-4.45485E-02-2.02686E+00
 -1      1486-3.56607E-03-4.60688E-02-2.03198E+00
 -1      1487-3.54431E-02-9.42914E-02-2.06036E+00
 -1      1488-3.96569E-02-2.28698E-02-2.02534E+00
 -1      1489-3.45364E-02-2.83241E-02-2.03025E+00
 -1      1490 9.23844E-02 4.23752E-02-2.05543E+00
 -1      1491 6.98155E-02 7.15364E-02-2.05397E+00
 -1      1492-9.19299E-02-3.65432E-02-2.05814E+00
 -1      1493 7.06335E-02-6.99084E-02-2.05725E+00
 -1      1494-6.73368E-02 7.44186E-02-2.03732E+00
 -1      1495-4.37816E-02-1.14645E-02-2.01971E+00
 -1      1496-4.37810E-02-3.24722E-03-2.02352E+00
 -1      1497 1.33125E-02 4.55544E-02-2.01077E+00
 -1      1498 5.10210E-03 4.68592E-02-2.01507E+00
 -1      1499-3.72638E-02 9.29994E-02-2.04014E+00
 -1      1500 4.14705E-02-8.98590E-02-2.05403E+00
 -1      1501 9.05212E-02-4.17924E-02-2.05515E+00
 -1      1502 6.89188E-02-7.19047E-02-2.05223E+00
 -1      1503 4.42614E-02-1.30504E-02-2.02852E+00
 -1      1504 4.59159E-02-4.32780E-03-2.03352E+00
 -1      1505 9.90681E-02 6.02393E-04-2.06107E+00
 -1      1506 2.83380E-02 3.76716E-02-2.01888E+00
 -1      1507 2.24986E-02 4.15607E-02-2.02128E+00
 -1      1508-1.00337E-01 9.33981E-04-2.05178E+00
 -1      1509 9.19524E-04-9.96090E-02-2.05942E+00
 -1      1510-6.80091E-02 7.14505E-02-2.03985E+00
 -1      1511-2.73208E-03 9.98021E-02-2.03881E+00
 -1      1512-9.30810E-02-3.39561E-02-2.05164E+00
 -1      1513 9.22596E-02-3.98418E-02-2.06038E+00
 -1      1514-3.14251E-02 3.11001E-02-2.03729E+00
 -1      1515-9.18946E-02 4.11840E-02-2.04671E+00
 -1      1516-9.05527E-02 4.27181E-02-2.04122E+00
 -1      1517 3.47041E-02 9.46778E-02-2.04357E+00
 -1      1518-7.00917E-02-6.92651E-02-2.05833E+00
 -1      1519 6.81548E-02 7.36403E-02-2.05188E+00
 -1      1520 3.79385E-02 9.30829E-02-2.04824E+00
 -1      1521-5.83728E-04 1.00318E-01-2.04345E+00
 -1      1522 5.11875E-02-9.59549E-03-4.37740E-01
 -1      1523 3.09739E-02 4.55335E-02-4.19706E-01
 -1      1524-2.51642E-02 2.09847E-03-1.04435E-01
 -1      1525 1.09975E-02 3.09520E-02-1.07140E-01
 -1      1526 7.94009E-03 4.68222E-02-2.67231E-01
 -1      1527 1.12818E-03 3.65442E-02-8.94126E-02
 -1      1528 3.38806E-02-4.63890E-02-3.63060E-01
 -1      1529-3.03508E-02-8.67296E-03-1.06605E-01
 -1      1530 1.44520E-02-2.95890E-02-1.00024E-01
 -1      1531-2.81250E-02-2.13506E-02-1.18865E-01
 -1      1532-2.09062E-02 1.67871E-02-9.63392E-02
 -1      1533-6.45471E-03-3.80559E-02-1.34850E-01
 -1      1534-1.45418E-02-3.43471E-02-9.36428E-02
 -1      1535-5.38282E-02-2.28757E-02-3.69608E-01
 -1      1536 2.27107E-02-2.03172E-02-1.10575E-01
 -1      1537 1.51034E-03 5.40447E-02-3.69272E-01
 -1      1538 2.85528E-03-3.64328E-02-1.24453E-01
 -1      1539-2.34807E-03 3.75748E-02-1.01662E-01
 -1      1540-9.50923E-03 2.81649E-02-1.02415E-01
 -1      1541-2.98109E-02 7.29045E-03-1.08080E-01
 -1      1542 6.84273E-02-1.16561E-02-1.27365E+00
 -1      1543-2.02952E-02 2.83924E-02-1.48868E-01
 -1      1544-4.69811E-02-1.10965E-02-1.90373E-01
 -1      1545 3.71650E-02-2.24367E-04-1.00497E-01
 -1      1546-3.94695E-02-3.95127E-02-3.60686E-01
 -1      1547-2.24274E-02-3.08113E-02-1.68478E-01
 -1      1548 3.77574E-02 5.86775E-02-8.65250E-01
 -1      1549-4.51452E-02-8.28601E-03-2.65312E-01
 -1      1550-4.69488E-02 3.35615E-02-3.83035E-01
 -1      1551-4.30535E-02-1.25634E-02-2.48413E-01
 -1      1552-3.65003E-02-2.33308E-02-1.75480E-01
 -1      1553-3.28073E-02-1.62602E-02-9.56479E-02
 -1      1554 2.81185E-02-1.18793E-02-1.08465E-01
 -1      1555 4.23007E-02 3.06454E-02-4.26153E-01
 -1      1556 2.21971E-02 4.75463E-02-2.84293E-01
 -1      1557 1.87414E-02 2.66822E-02-1.06262E-01
 -1      1558-2.80763E-02 1.84296E-02-1.03293E-01
 -1      1559 3.76159E-02 3.95862E-02-3.17437E-01
 -1      1560-2.66984E-02 4.07256E-02-4.19669E-01
 -1      1561 1.76805E-02 6.48033E-02-7.13321E-01
 -1      1562 2.86478E-02 1.27682E-02-9.98143E-02
 -1      1563 4.33059E-02-2.99628E-02-5.84693E-01
 -1      1564 7.87972E-04 2.27906E-03-2.20319E+00
 -1      1565-2.52065E-02 2.65166E-02-1.36418E-01
 -1      1566-1.86595E-02-3.08295E-02-1.53579E-01
 -1      1567-3.83259E-02-2.49919E-02-3.57450E-01
 -1      1568-2.79679E-02-2.56958E-02-1.41183E-01
 -1      1569-3.46502E-02 5.67220E-03-1.81454E-01
 -1      1570 1.79677E-02-3.10279E-02-1.38650E-01
 -1      1571-2.43241E-02 1.56076E-02-1.24804E-01
 -1      1572 1.79969E-02 3.04172E-02-1.00171E-01
 -1      1573-6.62271E-03 3.64045E-02-1.21541E-01
 -1      1574-2.72976E-02 3.79173E-02-2.71994E-01
 -1      1575 3.86222E-02-5.40546E-03-1.50852E-01
 -1      1576 2.53150E-04-6.77453E-02-9.65580E-01
 -1      1577 1.98373E-02 2.29318E-02-9.28068E-02
 -1      1578-3.26642E-02 6.16182E-02-9.85601E-01
 -1      1579-3.48268E-02 3.22220E-02-2.30382E-01
 -1      1580-2.73852E-02 4.11927E-02-1.89350E-01
 -1      1581-1.53812E-02 1.36566E-02-5.93333E-02
 -1      1582 2.63348E-02-5.14107E-03-9.00379E-02
 -1      1583-6.40160E-02 3.78452E-03-1.47951E+00
 -1      1584-4.53590E-02 9.46375E-04-1.70283E-01
 -1      1585 1.57870E-02 3.43812E-02-2.07306E+00
 -1      1586-3.89581E-02 1.75519E-02-1.66657E-01
 -1      1587-1.50027E-02 1.64617E-02-7.53089E-02
 -1      1588-3.06997E-02-2.77800E-02-2.33406E-01
 -1      1589 3.63314E-02 2.58886E-02-1.85225E-01
 -1      1590-2.92947E-02-4.63639E-02-7.17574E-01
 -1      1591-1.15883E-02-5.17851E-02-7.13226E-01
 -1      1592 9.97620E-03-5.07538E-02-4.25305E-01
 -1      1593 1.25028E-02 2.86229E-02-6.61213E-02
 -1      1594-1.05491E-02 5.59060E-03-3.55088E-02
 -1      1595-9.01927E-03 5.10393E-02-4.07880E-01
 -1      1596-4.15471E-02 2.60191E-02-4.16071E-01
 -1      1597 2.78740E-02 6.02361E-02-6.29763E-01
 -1      1598-3.35177E-02-1.96387E-02-1.15752E-01
 -1      1599 2.65137E-02-2.58557E-02-1.27735E-01
 -1      1600 5.13002E-02 1.41578E-02-2.76417E-01
 -1      1601 2.23776E-02 2.19195E-02-8.48536E-02
 -1      1602-1.03396E-02 1.91758E-02-2.24101E-02
 -1      1603 5.51933E-02-5.22842E-04-3.55344E-01
 -1      1604-3.84161E-02 8.48955E-03-1.62669E-01
 -1      1605 3.82385E-02-5.47386E-02-1.33953E+00
 -1      1606 4.03294E-03 3.91176E-02-1.19980E-01
 -1      1607-2.60495E-02-3.01579E-02-2.07795E-01
 -1      1608-3.08607E-03-4.23972E-02-1.42235E-01
 -1      1609-1.49123E-02-8.21530E-03-3.05666E-02
 -1      1610-6.07853E-03-1.58319E-02-4.58516E-02
 -1      1611 2.24593E-02 3.79041E-02-2.40109E-01
 -1      1612 3.17609E-02 4.85815E-03-1.58431E-01
 -1      1613-3.61753E-02-1.70450E-02-2.20100E-01
 -1      1614-3.72464E-02-3.85561E-03-1.76658E-01
 -1      1615-1.06804E-03 1.34102E-02-3.97197E-02
 -1      1616 3.71660E-02-2.78760E-02-2.77763E-01
 -1      1617 2.57351E-02-1.02178E-02-1.76456E-02
 -1      1618-4.56331E-02-4.66790E-02-1.38382E+00
 -1      1619-3.05288E-02 1.19412E-02-1.11655E-01
 -1      1620 2.13563E-03 3.94103E-02-1.74773E-01
 -1      1621 2.52158E-02 6.39010E-03-6.69828E-02
 -1      1622-1.72708E-02 1.37793E-02-4.70367E-02
 -1      1623 2.60734E-02 6.54539E-02-9.72471E-01
 -1      1624 3.98296E-02 1.71363E-02-2.38428E-01
 -1      1625 4.89456E-03 2.46611E-02-5.72140E-02
 -1      1626 1.01713E-03-1.49127E-02-2.87820E-02
 -1      1627 2.19345E-02-6.83951E-03-4.39335E-02
 -1      1628-3.12470E-02 2.56724E-02-2.47881E-01
 -1      1629 1.12222E-02-5.34492E-02-3.51509E-01
 -1      1630-6.80039E-02 6.48898E-03-7.91984E-01
 -1      1631 1.74116E-02 3.97333E-02-2.05852E-01
 -1      1632-1.66732E-02 4.81741E-03-4.84567E-02
 -1      1633-2.20987E-02-1.20609E-02-2.84185E-02
 -1      1634-4.10799E-02 1.53790E-04-2.10169E-01
 -1      1635-6.84100E-03-1.23626E-02-2.72022E-02
 -1      1636-1.10001E-02 4.11139E-02-1.91336E-01
 -1      1637-1.34001E-02 3.43472E-03-4.48701E-02
 -1      1638-3.47949E-02 2.06065E-02-2.11213E-01
 -1      1639 6.76649E-04 1.23166E-02-2.37962E-02
 -1      1640 1.76545E-02-1.80450E-02-4.75613E-02
 -1      1641 3.07293E-02 9.95986E-03-1.57027E-01
 -1      1642 3.01798E-02-4.36818E-02-4.29604E-01
 -1      1643 1.17176E-02-4.09521E-02-2.01073E-01
 -1      1644 9.17372E-03 3.80936E-02-8.74651E-02
 -1      1645 1.00736E-02-5.39363E-02-7.18368E-01
 -1      1646 6.20528E-03 2.17748E-02-4.26171E-02
 -1      1647-1.11222E-03 3.01923E-02-1.00791E-01
 -1      1648 7.01266E-03-4.01649E-02-2.48628E-01
 -1      1649 1.61889E-02-4.18327E-02-2.26291E-01
 -1      1650 5.42971E-02-9.85517E-03-7.38308E-01
 -1      1651-9.64550E-03-9.95278E-03-5.42874E-02
 -1      1652 1.04270E-02 5.88938E-02-4.02970E-01
 -1      1653 3.40078E-02 5.20473E-02-4.70658E-01
 -1      1654-1.12140E-02-3.79780E-02-1.92952E-01
 -1      1655-2.14845E-03 1.26303E-02-3.41532E-02
 -1      1656 4.19135E-02 4.96588E-02-1.51024E+00
 -1      1657 4.40064E-02-2.54950E-02-3.98037E-01
 -1      1658-1.72129E-02-4.99770E-02-7.36877E-01
 -1      1659-3.42038E-03-1.68190E-02-2.48655E-02
 -1      1660-2.13704E-02 1.20039E-02-4.80623E-02
 -1      1661-1.79991E-02-2.12300E-02-9.32310E-02
 -1      1662-3.66395E-02 4.76222E-02-1.68937E+00
 -1      1663 2.46292E-02 2.88428E-02-1.85724E-01
 -1      1664 1.13972E-02 5.54500E-02-5.56874E-01
 -1      1665 1.44950E-02 4.20120E-02-2.52401E-01
 -1      1666-4.57385E-02-3.00514E-02-6.43516E-01
 -1      1667-3.04896E-02-3.11141E-02-2.69210E-01
 -1      1668 2.81124E-02 3.97363E-02-2.44427E-01
 -1      1669 2.92913E-02 5.43433E-02-4.63053E-01
 -1      1670 3.62140E-03 1.97323E-02-4.67660E-02
 -1      1671-3.92306E-02 2.05023E-02-2.79726E-01
 -1      1672 4.39405E-03-7.92180E-03-2.30159E-02
 -1      1673 3.54485E-02 2.79357E-02-2.55098E-01
 -1      1674 3.07009E-02 2.00579E-02-1.16190E-01
 -1      1675-2.36743E-02 6.43284E-03-4.91923E-02
 -1      1676-6.01662E-02 6.01208E-03-4.15331E-01
 -1      1677-2.73224E-02 2.74666E-02-1.98427E-01
 -1      1678 2.36557E-02 6.46281E-02-7.73407E-01
 -1      1679-1.78175E-02-5.04720E-03-2.33882E-02
 -1      1680 1.33934E-02 1.17559E-02-3.03233E-02
 -1      1681 4.21016E-03 2.74340E-03-1.38858E-02
 -1      1682-1.60792E-02 6.39325E-03-2.91755E-02
 -1      1683 4.56648E-02 3.08919E-02-7.12433E-01
 -1      1684-5.57998E-03-2.50433E-03-1.84139E-02
 -1      1685 5.82816E-02-3.50162E-02-6.76397E-01
 -1      1686 1.55932E-02 6.86324E-02-9.13784E-01
 -1      1687-3.57884E-02-2.65156E-02-2.46917E-01
 -1      1688-1.16705E-02-4.00692E-03-2.91406E-02
 -1      1689-2.43762E-02 9.89548E-03-1.01439E-01
 -1      1690 1.35846E-02 8.43211E-03-2.29641E-02
 -1      1691-5.39649E-03-1.23580E-02-3.58334E-02
 -1      1692-1.44444E-02-6.98007E-03-3.54714E-02
 -1      1693-5.95836E-02 1.87664E-02-4.96561E-01
 -1      1694-4.07280E-03-4.40172E-02-2.08915E-01
 -1      1695 1.51264E-02 1.84474E-02-1.48741E-02
 -1      1696 2.29972E-02-1.32631E-02-7.21125E-02
 -1      1697-2.74753E-02-4.02087E-02-4.05534E-01
 -1      1698 7.30693E-03-1.39145E-02-4.79665E-02
 -1      1699 1.93368E-02-3.30419E-02-1.70203E-01
 -1      1700 3.01856E-03-2.00265E-02-3.43531E-02
 -1      1701 4.44510E-02 5.26934E-03-2.13340E-01
 -1      1702-3.04530E-02-4.37367E-02-8.91766E-01
 -1      1703-3.01565E-02-2.03926E-02-1.45531E-01
 -1      1704 9.55729E-03-3.27767E-03-2.98299E-02
 -1      1705-2.90037E-02-2.33685E-02-1.14432E-01
 -1      1706-3.37532E-02-5.74700E-02-7.88321E-01
 -1      1707-5.37104E-02 4.20179E-02-1.07246E+00
 -1      1708 2.45172E-02-1.96786E-03-9.24475E-02
 -1      1709-1.50909E-02 2.34745E-03-3.65035E-02
 -1      1710-3.17256E-02 2.86361E-02-1.35212E-01
 -1      1711-1.12744E-02 4.88695E-03-2.21345E-02
 -1      1712-2.30963E-02-2.50893E-03-4.68239E-02
 -1      1713-1.23876E-02-6.04908E-03-1.05966E-02
 -1      1714 2.48074E-02-9.23779E-03-7.65499E-02
 -1      1715-3.35709E-02-3.77622E-02-2.44597E-01
 -1      1716-3.26944E-02-1.42357E-02-9.44688E-02
 -1      1717-9.34243E-03 5.49174E-02-6.98085E-01
 -1      1718-6.24204E-03-2.71597E-02-5.01763E-02
 -1      1719 1.59225E-02 5.16273E-02-3.40747E-01
 -1      1720 4.42715E-03 3.92507E-02-1.36614E-01
 -1      1721 1.96383E-02-9.74281E-04-3.69310E-02
 -1      1722-2.98632E-02 4.17513E-02-6.97751E-01
 -1      1723-1.88919E-02 3.65690E-02-2.54235E-01
 -1      1724 7.96252E-03-2.27900E-02-9.96011E-02
 -1      1725-2.07433E-02-2.04723E-04-4.47640E-02
 -1      1726-5.58996E-02-3.89263E-02-8.62967E-01
 -1      1727-1.16285E-02-9.10180E-03-2.86614E-02
 -1      1728-2.24903E-02 2.86225E-02-1.45018E-01
 -1      1729-7.54609E-03 8.43689E-03-2.89964E-02
 -1      1730 5.20015E-03 5.09512E-02-3.01137E-01
 -1      1731-2.73576E-02-4.67881E-02-5.86563E-01
 -1      1732 1.79931E-03-4.39127E-02-2.33525E-01
 -1      1733-7.28657E-03-3.40143E-02-7.97368E-02
 -1      1734 8.75473E-03-1.04578E-02-3.05273E-02
 -1      1735 2.10196E-02 2.71142E-02-1.18155E-01
 -1      1736 9.98921E-03 1.64642E-02-3.96147E-02
 -1      1737-2.45855E-02 3.53697E-02-2.68135E-01
 -1      1738-8.75322E-03 1.13861E-02-3.48522E-02
 -1      1739 1.01446E-02-2.51278E-03-2.81433E-02
 -1      1740-1.98090E-02-2.45370E-02-1.19265E-01
 -1      1741-1.82021E-02 4.83092E-02-2.94537E-01
 -1      1742 4.25509E-02-7.69732E-03-2.24674E-01
 -1      1743 4.94217E-02-2.43986E-02-1.93856E+00
 -1      1744-1.62029E-02 7.92867E-03-4.14010E-02
 -1      1745 2.64955E-03 6.58312E-02-1.50028E+00
 -1      1746 3.31183E-02 6.07388E-02-8.21257E-01
 -1      1747-4.44271E-02-5.11384E-02-7.76224E-01
 -1      1748 1.99456E-02 3.39690E-02-1.61458E-01
 -1      1749-5.16057E-02-3.25288E-02-4.90733E-01
 -1      1750-2.83000E-02-2.50549E-03-4.79376E-02
 -1      1751-2.35488E-02 6.17808E-02-1.40581E+00
 -1      1752 2.50425E-02 5.60750E-02-4.41447E-01
 -1      1753 2.09571E-02-1.53876E-02-5.69131E-02
 -1      1754 1.91153E-04 2.49366E-02-8.91932E-02
 -1      1755-3.62164E-03 4.52665E-02-1.94313E-01
 -1      1756 5.03278E-03 4.22157E-02-1.89137E-01
 -1      1757-4.26337E-02-3.90436E-03-1.99559E-01
 -1      1758-2.74595E-02-4.83454E-02-4.16625E-01
 -1      1759 4.67289E-02 2.94386E-02-5.63670E-01
 -1      1760-1.32853E-02 5.57620E-02-1.83542E+00
 -1      1761 2.02622E-02-5.09166E-04-4.51675E-02
 -1      1762 2.22739E-02-1.39992E-02-3.08083E-02
 -1      1763 1.28506E-02 3.14428E-03-3.07870E-02
 -1      1764-3.17185E-02-1.97186E-03-2.09463E+00
 -1      1765-1.82713E-02 2.65307E-02-2.09289E+00
 -1      1766 5.48743E-02-3.41459E-02-1.48006E+00
 -1      1767 4.28382E-02-3.53535E-02-3.43029E-01
 -1      1768-2.95747E-02-8.85308E-03-6.06710E-02
 -1      1769-6.16938E-03-2.61117E-02-6.83790E-02
 -1      1770 7.60226E-03 3.37741E-03-2.02906E-02
 -1      1771-1.01937E-02-5.91285E-02-4.90140E-01
 -1      1772 8.30319E-05-3.47322E-02-1.17495E-01
 -1      1773 6.58456E-04 6.88564E-02-8.54597E-01
 -1      1774 1.12874E-02 9.86331E-06-1.55804E-02
 -1      1775 0.00000E+00 0.00000E+00 0.00000E+00
 -1      1776 1.29844E-02 2.20699E-02-6.39108E-02
 -1      1777-2.86254E-02 6.47787E-03-8.10502E-02
 -1      1778 3.98612E-02-5.04366E-03-1.85823E-01
 -1      1779-4.70349E-02 2.55342E-02-1.88544E+00
 -1      1780 3.54793E-02-1.79246E-02-1.85150E-01
 -1      1781 1.17919E-02 1.38740E-02-3.47539E-02
 -1      1782-8.72080E-03 4.37650E-02-2.67978E-01
 -1      1783-6.46208E-03 4.58544E-02-2.63113E-01
 -1      1784-1.80211E-03 1.23699E-02-2.23602E-02
 -1      1785 4.47827E-02-1.31082E-02-2.19729E-01
 -1      1786-4.64762E-03 1.98531E-02-5.15735E-02
 -1      1787 3.98191E-02-4.63458E-02-1.69307E+00
 -1      1788-5.21711E-02 2.75827E-02-4.08230E-01
 -1      1789-4.28982E-02-2.14449E-02-2.56602E-01
 -1      1790 2.78980E-02-2.24200E-02-1.41652E-01
 -1      1791 2.65063E-02-1.40430E-02-8.63559E-02
 -1      1792 2.52613E-02-3.14505E-03-1.00962E-01
 -1      1793-6.53875E-02-1.20697E-02-6.84145E-01
 -1      1794-2.32357E-03 8.29465E-03-1.57173E-02
 -1      1795-4.22753E-02-1.73048E-02-2.81324E-01
 -1      1796 2.48338E-02 6.85203E-04-1.74146E-02
 -1      1797 8.52111E-03 1.85337E-03-1.84773E-02
 -1      1798 4.41199E-02 1.54554E-03-2.46661E-01
 -1      1799-5.03390E-03 4.40384E-02-2.02913E+00
 -1      1800-4.22677E-02 5.16712E-02-1.28747E+00
 -1      1801 6.22476E-02-1.13000E-02-1.64438E+00
 -1      1802-4.64775E-02-3.01775E-02-3.17876E-01
 -1      1803 1.12382E-02 5.57398E-02-1.85173E+00
 -1      1804 4.67269E-02-5.36292E-03-3.19473E-01
 -1      1805-5.51289E-03 3.32878E-02-1.13310E-01
 -1      1806-1.04154E-02 2.13256E-02-5.77474E-02
 -1      1807 8.82321E-03-2.16531E-02-6.20024E-02
 -1      1808-1.60865E-02-4.13312E-03-3.85521E-02
 -1      1809 3.32642E-02 5.84462E-02-6.64694E-01
 -1      1810-8.89660E-03-4.72724E-02-4.08814E-01
 -1      1811-4.95756E-02 6.57726E-03-2.05466E-01
 -1      1812 3.30052E-02-6.86104E-03-8.17675E-02
 -1      1813 3.38330E-02 1.63652E-02-1.60971E-01
 -1      1814 1.81748E-02 1.49039E-02-4.28210E-02
 -1      1815-1.80707E-02 2.65583E-02-6.38046E-02
 -1      1816-2.09928E-02-1.52176E-02-2.36915E-02
 -1      1817-1.25379E-03 4.55901E-02-2.30009E-01
 -1      1818 2.95367E-02-3.18773E-03-8.80998E-02
 -1      1819 2.81063E-03-1.08465E-02-5.08162E-02
 -1      1820 1.05133E-02 6.45718E-04-2.04653E-02
 -1      1821 2.33903E-02 5.98323E-02-1.56867E+00
 -1      1822-5.49501E-03-6.66720E-03-2.89840E-02
 -1      1823 1.52048E-02-1.05366E-02-3.75053E-02
 -1      1824 1.48139E-02 7.21463E-03-2.67628E-02
 -1      1825-4.71580E-02-1.59821E-02-2.17219E-01
 -1      1826-1.08546E-02 5.90549E-02-4.40857E-01
 -1      1827-5.32045E-02 9.70621E-03-2.96797E-01
 -1      1828 2.94957E-02 4.39477E-02-2.68028E-01
 -1      1829-5.35652E-02-2.76748E-02-4.17293E-01
 -1      1830 6.11252E-03-5.34984E-02-5.62774E-01
 -1      1831-1.03611E-02 1.06593E-03-2.95319E-02
 -1      1832 6.36219E-02-2.38418E-02-1.43250E+00
 -1      1833 1.92636E-02-4.95928E-02-3.53486E-01
 -1      1834-6.37810E-02 1.25993E-02-5.93959E-01
 -1      1835-2.03836E-02-5.96979E-02-5.97015E-01
 -1      1836-1.01777E-02-5.39040E-02-1.85276E+00
 -1      1837-6.57481E-03-9.15379E-03-2.48716E-02
 -1      1838-1.60324E-02-1.92025E-02-1.08321E-01
 -1      1839 6.87106E-02 1.39277E-02-8.83395E-01
 -1      1840 5.17911E-02-1.40354E-02-4.67244E-01
 -1      1841-5.15828E-02-1.05557E-02-5.51592E-01
 -1      1842 8.76707E-03-1.76217E-02-4.27500E-02
 -1      1843 5.01059E-02-3.48229E-02-1.71612E+00
 -1      1844-8.34003E-03-4.98601E-03-1.53005E-02
 -1      1845-7.63674E-03 1.91621E-02-2.57503E-02
 -1      1846-5.09771E-02-4.09331E-02-6.21425E-01
 -1      1847-3.80676E-02-2.35671E-02-2.55110E-01
 -1      1848 5.77333E-03 1.84340E-02-7.51402E-03
 -1      1849 5.27373E-02-2.75023E-03-4.66027E-01
 -1      1850 3.07301E-02-2.97024E-02-2.13728E-01
 -1      1851-2.53994E-02-3.71240E-02-2.63151E-01
 -1      1852 4.22811E-03 3.95496E-03-2.46429E-02
 -1      1853 3.51126E-02 4.99634E-02-1.78626E+00
 -1      1854 3.86539E-02-1.73734E-03-1.51673E-01
 -1      1855-2.17001E-02 6.42699E-02-6.83406E-01
 -1      1856 2.31001E-02 3.26148E-02-1.66713E-01
 -1      1857-5.12394E-02 3.70188E-02-1.44508E+00
 -1      1858 3.43434E-03-1.22019E-02-2.19272E+00
 -1      1859-3.72706E-02 3.09051E-02-3.94942E-01
 -1      1860-7.51671E-03 2.26033E-02-5.95581E-02
 -1      1861 2.33979E-02 5.67634E-02-1.74008E+00
 -1      1862 5.39350E-02 1.04850E-02-7.33621E-01
 -1      1863-1.10605E-02 7.08528E-03-2.69078E-02
 -1      1864 3.12038E-02 4.56947E-02-7.09254E-01
 -1      1865 2.73627E-02 4.60343E-02-4.50122E-01
 -1      1866 1.04283E-02 2.63692E-02-2.47990E-02
 -1      1867-5.08802E-02 1.04651E-02-3.07617E-01
 -1      1868 1.31692E-02 5.00723E-02-1.77082E-01
 -1      1869 0.00000E+00 0.00000E+00 0.00000E+00
 -1      1870 2.98240E-03-2.57876E-02-4.76484E-02
 -1      1871-3.00796E-02-5.53808E-02-6.05038E-01
 -1      1872 1.63564E-02 3.80424E-02-1.54949E-01
 -1      1873 4.45052E-02 1.28364E-02-2.65391E-01
 -1      1874 1.34908E-02 4.14063E-03-4.32905E-02
 -1      1875 9.46569E-03 6.82042E-02-8.49657E-01
 -1      1876 6.25292E-02-1.73193E-02-5.61700E-01
 -1      1877 2.90268E-03-6.28905E-02-5.41089E-01
 -1      1878 1.03988E-02 1.20694E-02-6.18676E-02
 -1      1879-4.04773E-03-4.78288E-02-2.54020E-01
 -1      1880-4.35411E-02 5.33639E-02-9.10425E-01
 -1      1881 1.57196E-02-1.17946E-02-3.88452E-02
 -1      1882-4.49824E-02-4.70280E-02-5.68805E-01
 -1      1883-6.97088E-03-4.90917E-02-3.45348E-01
 -1      1884 1.66356E-02 6.73905E-03-8.76496E-03
 -1      1885-2.01637E-02-5.13193E-02-3.85280E-01
 -1      1886 2.23930E-02-2.34606E-02-1.16443E-01
 -1      1887 1.92542E-02-2.33316E-02-8.42928E-02
 -1      1888 5.57029E-02-2.10818E-02-1.78501E+00
 -1      1889-7.54913E-03 7.66489E-03-1.94022E-02
 -1      1890 3.33521E-02-2.78311E-02-2.52810E-01
 -1      1891-4.22752E-03 1.27268E-03-1.19122E-02
 -1      1892 4.31251E-02-2.98549E-02-4.28285E-01
 -1      1893-9.14196E-03 1.06034E-02-3.18556E-02
 -1      1894-1.38254E-02 4.00268E-02-2.57347E-01
 -1      1895 3.48393E-03-9.57256E-03-1.62458E-02
 -1      1896 4.83174E-02-9.28719E-03-3.15627E-01
 -1      1897-1.23749E-02 1.32663E-02-2.44564E-02
 -1      1898-2.65832E-02 2.13227E-02-1.06977E-01
 -1      1899 4.84116E-02-4.09502E-02-1.57578E+00
 -1      1900 3.33858E-02 3.30771E-02-2.29758E-01
 -1      1901-1.47616E-02-3.32392E-02-1.77715E-01
 -1      1902-6.65158E-02 5.31477E-03-6.00343E-01
 -1      1903 1.74851E-02 3.70593E-02-1.64080E-01
 -1      1904 3.41440E-02 5.36379E-02-1.61896E+00
 -1      1905 2.90960E-02 2.55783E-02-1.34826E-01
 -1      1906-4.52022E-02 2.93025E-02-7.19341E-01
 -1      1907 4.56212E-02 4.93643E-02-6.81901E-01
 -1      1908-3.43685E-02 4.29597E-02-2.57370E-01
 -1      1909 7.19143E-03 3.09780E-02-5.74043E-02
 -1      1910 1.60866E-02 5.81984E-03-3.26483E-02
 -1      1911-1.02734E-02-4.89970E-03-1.97599E-02
 -1      1912 6.18628E-02-3.13658E-02-1.06889E+00
 -1      1913 0.00000E+00 0.00000E+00 0.00000E+00
 -1      1914 7.05290E-02-5.22238E-03-8.18499E-01
 -1      1915-4.14694E-02-3.29431E-03-1.25461E-01
 -1      1916-2.55822E-02-1.05915E-03-3.74580E-02
 -1      1917-2.93609E-03-9.14245E-03-8.29863E-03
 -1      1918-5.16952E-02 9.65022E-03-5.67636E-01
 -1      1919 1.35189E-02 4.87406E-02-4.05534E-01
 -1      1920-1.06386E-02-3.89453E-02-2.08273E-01
 -1      1921 3.67068E-03 4.73560E-02-2.75401E-01
 -1      1922 2.77967E-02 4.67225E-02-7.44765E-01
 -1      1923 4.15857E-03 6.52392E-02-6.11554E-01
 -1      1924 1.18857E-02-4.28394E-03-1.84602E-02
 -1      1925-2.39672E-02-5.63265E-02-5.11151E-01
 -1      1926 3.71038E-02 5.80768E-02-1.20992E+00
 -1      1927-9.25276E-03-1.75665E-02-3.71992E-02
 -1      1928-4.73086E-02-3.47598E-02-3.95343E-01
 -1      1929 5.42205E-02 1.65296E-02-1.92097E+00
 -1      1930 4.42945E-02-2.83236E-02-1.03356E+00
 -1      1931-4.58009E-03 1.51465E-02-5.03082E-02
 -1      1932 2.20757E-02-2.48655E-02-1.08660E-01
 -1      1933-3.73316E-02-5.08799E-02-4.95007E-01
 -1      1934-6.91550E-03 3.38848E-02-9.43597E-02
 -1      1935 3.17479E-02-5.95126E-02-8.37782E-01
 -1      1936 4.19312E-02 3.52357E-02-4.50733E-01
 -1      1937-4.49601E-02-4.03945E-02-4.72369E-01
 -1      1938-6.32197E-02-4.51766E-03-4.68868E-01
 -1      1939 4.02748E-02 4.74078E-02-1.66232E+00
 -1      1940-1.21645E-02 2.30187E-02-7.42636E-02
 -1      1941-4.82826E-03 1.90105E-02-2.15680E+00
 -1      1942-2.00153E-02-1.24696E-03-2.16811E+00
 -1      1943 1.81544E-02 3.32350E-03-2.16757E+00
 -1      1944-1.06769E-02 8.89125E-03-2.18999E+00
 -1      1945 1.46325E-02-1.58803E-02-2.16640E+00
 -1      1946-2.41573E-02 1.23336E-02-8.01553E-02
 -1      1947-3.70168E-02 2.76540E-02-2.27746E-01
 -1      1948 0.00000E+00 0.00000E+00 0.00000E+00
 -1      1949 9.27359E-03 1.76148E-02-2.83361E-02
 -1      1950 7.82729E-03 8.96869E-03-1.37430E-02
 -1      1951 4.69013E-03 1.25331E-02-2.56251E-02
 -1      1952-1.46201E-02-2.59486E-02-9.78211E-02
 -1      1953-1.03787E-02 1.49955E-02-1.09024E-02
 -1      1954-2.48626E-02-6.14934E-02-7.62118E-01
 -1      1955 3.28703E-02 3.36126E-02-1.94008E-01
 -1      1956 5.34591E-02-1.30945E-02-5.85571E-01
 -1      1957-4.52812E-02 4.53426E-02-5.54352E-01
 -1      1958-4.84405E-03-7.95950E-03-1.39252E-02
 -1      1959 0.00000E+00 0.00000E+00 0.00000E+00
 -1      1960-3.15749E-02-2.77391E-02-1.64577E-01
 -1      1961-5.56476E-02 3.53519E-02-7.34743E-01
 -1      1962-1.17811E-02-1.87261E-02-7.95517E-02
 -1      1963-7.62884E-03-4.15455E-04-2.36050E-02
 -1      1964 4.88103E-03-4.78445E-02-3.98007E-01
 -1      1965 1.18316E-02 5.00833E-02-2.36733E-01
 -1      1966-4.65675E-02 4.95318E-02-1.11094E+00
 -1      1967-2.82689E-02-4.52318E-02-5.56489E-01
 -1      1968 3.21081E-02 4.07032E-02-3.30391E-01
 -1      1969 8.37362E-03-1.02399E-02-3.06891E-02
 -1      1970-2.73304E-02-1.96758E-02-7.02400E-02
 -1      1971 5.86889E-02 8.26002E-03-4.80030E-01
 -1      1972 2.54099E-03 6.96186E-02-1.17121E+00
 -1      1973-7.15774E-03-3.84842E-04-1.68638E-02
 -1      1974 5.03906E-02-4.84074E-02-9.87285E-01
 -1      1975 3.95343E-03-7.86734E-03-2.15858E-02
 -1      1976-5.20114E-03 7.96547E-03-2.18862E-02
 -1      1977-3.76757E-02 5.39706E-02-5.69407E-01
 -1      1978 2.45063E-02 4.96930E-02-1.92312E+00
 -1      1979-2.42479E-02-4.26632E-02-3.20911E-01
 -1      1980-4.73695E-02-4.67766E-02-7.00531E-01
 -1      1981-3.29938E-02 4.82567E-02-3.59501E-01
 -1      1982 2.89210E-02-3.41866E-02-2.49097E-01
 -1      1983-3.27115E-02-4.32769E-02-3.15090E-01
 -1      1984-1.25849E-02-5.10114E-02-2.91589E-01
 -1      1985 2.60769E-02 6.30108E-02-1.27122E+00
 -1      1986 3.34710E-02 6.06862E-02-1.02200E+00
 -1      1987-2.07120E-02-4.39606E-02-2.70908E-01
 -1      1988 2.36658E-02 1.33895E-02-5.47549E-02
 -1      1989-5.11828E-03-4.72077E-02-2.44298E-01
 -1      1990-1.00004E-02 4.19149E-02-1.81019E-01
 -1      1991-1.19645E-02 1.84359E-02-4.85367E-02
 -1      1992-1.81755E-02 2.90101E-02-9.66579E-02
 -1      1993-1.24742E-02 1.85706E-02-6.69681E-02
 -1      1994 2.03227E-02 1.19596E-02-5.28149E-02
 -1      1995 8.28335E-03-9.74131E-03-2.95252E-02
 -1      1996-6.13792E-02-2.51807E-02-1.31695E+00
 -1      1997-8.22644E-03 1.34472E-03-1.83634E-02
 -1      1998 4.92375E-02 5.90517E-03-2.19337E-01
 -1      1999 8.49246E-03 2.11073E-02-3.93348E-02
 -1      2000-5.53248E-03 4.62637E-02-2.14486E-01
 -1      2001 7.23794E-03-5.15544E-03-2.30284E-02
 -1      2002 1.66736E-02-1.22269E-02-5.46070E-02
 -1      2003 3.89657E-02 3.62386E-02-2.00027E+00
 -1      2004 3.11778E-02 3.55012E-02-1.83088E-01
 -1      2005 2.30712E-02 2.18927E-02-8.53986E-02
 -1      2006 1.12517E-04-3.27546E-02-1.31523E-01
 -1      2007-3.96486E-03-6.61700E-02-7.01209E-01
 -1      2008-9.07541E-04 4.86684E-02-1.90984E-01
 -1      2009 3.99126E-02-1.64482E-02-1.71285E-01
 -1      2010 0.00000E+00 0.00000E+00 0.00000E+00
 -1      2011 6.03227E-02-7.36482E-03-4.11851E-01
 -1      2012 7.52375E-03 5.07477E-02-4.03810E-01
 -1      2013-4.14328E-02 1.38792E-02-2.38684E-01
 -1      2014 6.64081E-03-2.23353E-03-3.08616E-02
 -1      2015 2.11390E-02 2.11664E-03-3.91153E-02
 -1      2016 2.41592E-02 8.30693E-03-5.79136E-02
 -1      2017 1.14182E-02 6.15404E-02-1.64988E+00
 -1      2018-5.67573E-02 2.33430E-02-1.61443E+00
 -1      2019-4.27334E-02 4.76632E-02-1.47999E+00
 -1      2020-1.53133E-02 6.80778E-02-1.05987E+00
 -1      2021-9.44493E-03 6.65369E-02-7.42185E-01
 -1      2022 1.12861E-02 5.06321E-02-1.97576E+00
 -1      2023 4.20132E-02-3.11646E-03-2.23440E-01
 -1      2024 4.45083E-02-2.98152E-02-8.09165E-01
 -1      2025 1.20612E-02 1.00716E-02-3.12602E-02
 -1      2026-1.96159E-02-4.29205E-02-2.86135E-01
 -1      2027-3.35948E-03 8.16413E-03-2.41346E-02
 -1      2028-5.08091E-02 3.94121E-02-5.92845E-01
 -1      2029-5.93057E-02 2.75257E-02-6.41332E-01
 -1      2030-5.28407E-02 3.44319E-02-5.30201E-01
 -1      2031-2.37985E-02-1.52370E-02-7.04993E-02
 -1      2032 5.98029E-02-2.46756E-02-1.60107E+00
 -1      2033 2.09615E-02-3.76084E-02-2.04566E-01
 -1      2034-5.27262E-02-1.14318E-02-7.89051E-01
 -1      2035-4.51407E-02-4.77674E-03-4.00324E-01
 -1      2036-6.39442E-02 2.03791E-02-7.33398E-01
 -1      2037 5.86935E-02 3.33682E-02-6.60486E-01
 -1      2038-1.16399E-02-2.77326E-02-4.84481E-02
 -1      2039 6.52303E-02 1.62212E-02-1.40294E+00
 -1      2040 4.55068E-02-2.61715E-02-2.60642E-01
 -1      2041 4.09484E-02 5.69449E-02-1.04994E+00
 -1      2042-5.45449E-02 3.60972E-02-6.19034E-01
 -1      2043 3.74753E-02 1.36815E-02-1.54900E-01
 -1      2044-5.14399E-02-9.58069E-03-9.46039E-01
 -1      2045-4.74929E-02-3.22081E-02-4.00468E-01
 -1      2046-5.77039E-02-8.35878E-03-4.15675E-01
 -1      2047 1.38528E-02-6.26116E-02-1.43095E+00
 -1      2048 2.13071E-02-4.56746E-02-1.98926E+00
 -1      2049 3.85663E-02-4.13703E-02-1.89564E+00
 -1      2050-4.22766E-02-3.75239E-02-1.81408E+00
 -1      2051 4.07046E-03-5.20603E-02-3.12056E-01
 -1      2052-5.80208E-02 1.30816E-02-4.17298E-01
 -1      2053-3.96911E-02 1.33767E-03-1.25441E-01
 -1      2054-5.26554E-02 2.25600E-03-2.99643E-01
 -1      2055-6.24228E-02 7.26524E-04-4.46007E-01
 -1      2056-4.37910E-03-1.54671E-02-1.00704E-02
 -1      2057-7.38574E-03-5.29668E-02-8.21143E-01
 -1      2058 3.03328E-02 2.68043E-02-1.90994E-01
 -1      2059 1.34004E-02-4.12770E-02-2.62272E-01
 -1      2060 6.54251E-02-9.30286E-03-1.46513E+00
 -1      2061 2.42381E-02-3.45039E-02-2.04037E-01
 -1      2062-6.30399E-02-2.55383E-02-7.49366E-01
 -1      2063-2.71438E-02-4.41916E-02-4.47661E-01
 -1      2064-4.87014E-02 3.53616E-02-1.65781E+00
 -1      2065-5.22083E-03 5.27014E-02-3.69628E-01
 -1      2066-3.46744E-02-1.20489E-02-1.02417E-01
 -1      2067 2.82779E-02-6.21732E-02-1.15672E+00
 -1      2068 2.78313E-02-2.60710E-02-2.07680E+00
 -1      2069-1.64996E-02-4.13856E-02-2.27916E-01
 -1      2070 5.30229E-02-3.67650E-03-3.19601E-01
 -1      2071-4.09189E-03-6.03002E-02-4.82028E-01
 -1      2072-3.71400E-02 4.61956E-02-4.41463E-01
 -1      2073-1.19303E-02-3.96840E-02-1.69850E-01
 -1      2074-1.22713E-02-5.20203E-03-4.18242E-02
 -1      2075 6.70420E-02-1.99501E-02-9.36167E-01
 -1      2076-1.03197E-02-1.01982E-02-2.85823E-02
 -1      2077 3.01962E-02 5.96107E-03-5.37499E-02
 -1      2078 6.69913E-02 2.53872E-03-6.13190E-01
 -1      2079 6.31162E-02-2.70441E-02-1.28449E+00
 -1      2080 5.22755E-03 2.49742E-03-9.70426E-03
 -1      2081 3.99661E-02 2.34017E-02-3.02137E-01
 -1      2082-3.15916E-02 4.13713E-03-1.12986E-01
 -1      2083-1.43500E-02-4.77805E-02-4.42274E-01
 -1      2084 3.49782E-02 4.25513E-02-3.32042E-01
 -1      2085 4.16284E-03-1.16903E-02-3.41688E-02
 -1      2086-3.48440E-02-1.78017E-02-1.17993E-01
 -1      2087-1.41314E-02 3.24824E-02-1.53636E-01
 -1      2088-4.21099E-02 3.88776E-02-4.10180E-01
 -1      2089-1.67777E-02 5.97479E-02-4.84805E-01
 -1      2090-7.41280E-04 5.62025E-02-1.91185E+00
 -1      2091 4.38074E-02 3.29069E-02-6.15890E-01
 -1      2092 3.31786E-02-1.73592E-02-1.03517E-01
 -1      2093-3.18865E-02 5.85495E-02-1.23608E+00
 -1      2094 6.09391E-03-3.10150E-02-1.06237E-01
 -1      2095 3.24276E-02-2.01528E-02-1.73806E-01
 -1      2096 3.62104E-02-9.99879E-03-1.48057E-01
 -1      2097-4.98662E-02 1.85507E-02-3.02416E-01
 -1      2098 2.99763E-02-4.54448E-02-7.21581E-01
 -1      2099-1.20317E-02 4.88955E-02-2.93491E-01
 -1      2100-4.23099E-02-1.84418E-02-2.13070E-01
 -1      2101 0.00000E+00 0.00000E+00 0.00000E+00
 -1      2102 1.52917E-02-5.26676E-02-5.94768E-01
 -1      2103-3.44710E-02 1.07247E-02-1.28851E-01
 -1      2104-3.78428E-02 1.34295E-02-1.81086E-01
 -1      2105-4.43786E-03 3.42649E-02-1.08112E-01
 -1      2106 7.57792E-03 1.78370E-02-8.72259E-03
 -1      2107 1.36980E-02 6.89773E-02-1.12432E+00
 -1      2108 1.06850E-02-8.73667E-03-1.75716E-02
 -1      2109-2.86791E-02-4.61049E-03-1.00056E-01
 -1      2110-4.94853E-02 4.74397E-02-9.24898E-01
 -1      2111-5.99478E-03 4.91212E-02-3.53605E-01
 -1      2112-2.62859E-02 3.17411E-03-1.14928E-01
 -1      2113 2.21506E-02 2.72741E-02-4.54352E-02
 -1      2114 6.82152E-02-1.25426E-02-7.36417E-01
 -1      2115-2.95722E-02 7.42443E-03-1.21158E-01
 -1      2116-7.76416E-03-7.36229E-03-2.08917E-02
 -1      2117 1.17197E-03-8.89190E-03-2.58067E-02
 -1      2118-2.49991E-02 6.31230E-02-1.19668E+00
 -1      2119 2.98308E-03 3.07460E-02-4.77959E-02
 -1      2120 5.12783E-02 1.01336E-02-2.80135E-01
 -1      2121 2.56738E-02-6.80067E-03-4.74548E-02
 -1      2122 1.89160E-03-4.33500E-02-2.17031E-01
 -1      2123-3.17853E-02-3.97050E-02-4.78653E-01
 -1      2124 2.93940E-03 1.26413E-02-1.98224E-02
 -1      2125 4.17747E-03 1.27959E-02-1.98139E-02
 -1      2126 1.97624E-02-9.66393E-03-3.18669E-02
 -1      2127 3.27107E-02-4.04675E-02-4.47214E-01
 -1      2128-2.53205E-02 3.38503E-02-1.44707E-01
 -1      2129 4.23455E-02-2.12649E-02-2.28354E-01
 -1      2130 4.76257E-02-2.53328E-02-5.47262E-01
 -1      2131 4.08239E-02-3.64687E-02-5.32053E-01
 -1      2132-7.12429E-03-1.51261E-02-2.84294E-02
 -1      2133 1.19288E-02-4.10466E-02-3.13386E-01
 -1      2134-2.00980E-02 7.82404E-03-1.79867E-02
 -1      2135-4.84493E-02 2.82344E-02-3.45422E-01
 -1      2136-2.88849E-02 1.54247E-02-1.30472E-01
 -1      2137-2.88913E-02 4.67606E-02-1.89591E+00
 -1      2138 2.23966E-02-1.54841E-02-1.33039E-02
 -1      2139 0.00000E+00 0.00000E+00 0.00000E+00
 -1      2140 2.95385E-02 4.16613E-02-2.01264E+00
 -1      2141-3.45226E-03-3.42332E-02-1.01901E-01
 -1      2142-5.08804E-02 1.56121E-02-5.84938E-01
 -1      2143-2.93785E-02-3.27014E-02-2.03246E-01
 -1      2144-3.89913E-02 5.69718E-02-1.08598E+00
 -1      2145-6.58052E-02 1.34973E-02-7.74023E-01
 -1      2146-3.74977E-02-2.85002E-02-2.40663E-01
 -1      2147 3.62401E-02 1.97521E-03-1.01088E-01
 -1      2148 1.06356E-02-2.74502E-02-8.78665E-02
 -1      2149 1.47316E-02-5.01358E-02-4.33671E-01
 -1      2150 3.14111E-02-2.79252E-03-1.00046E-01
 -1      2151-3.09847E-02 3.71684E-02-2.23566E-01
 -1      2152-6.78817E-04 1.67125E-02-2.17953E+00
 -1      2153 6.96410E-02-8.40617E-03-9.16405E-01
 -1      2154-3.23362E-02-2.22466E-03-1.04878E-01
 -1      2155-5.91958E-03-9.63571E-03-1.44453E-02
 -1      2156 1.22637E-02 6.95106E-02-1.02762E+00
 -1      2157-4.08555E-03 7.97950E-03-2.53836E-02
 -1      2158-2.17456E-03-2.31284E-02-5.00052E-02
 -1      2159-3.08700E-02-5.11187E-02-1.63580E+00
 -1      2160 1.82006E-02-3.01920E-02-9.20117E-02
 -1      2161 2.80679E-02-4.80433E-02-3.74436E-01
 -1      2162 1.78273E-02 2.10202E-02-9.68840E-02
 -1      2163-1.36537E-02-1.03437E-02-7.33016E-03
 -1      2164-4.99908E-02-1.86622E-02-2.64310E-01
 -1      2165 2.27677E-02 1.42930E-02-8.36605E-02
 -1      2166-6.64170E-02 1.30118E-02-1.14585E+00
 -1      2167 6.29578E-02-2.79458E-02-7.75776E-01
 -1      2168 3.32371E-02 3.75166E-03-1.05093E-01
 -1      2169 0.00000E+00 0.00000E+00 0.00000E+00
 -1      2170 1.29920E-02 4.30141E-02-1.98952E-01
 -1      2171 5.20152E-03 3.15117E-02-1.21997E-01
 -1      2172 4.07332E-02 5.47788E-02-6.86522E-01
 -1      2173 3.32165E-02 4.53073E-02-5.90452E-01
 -1      2174 6.96137E-02 8.22205E-05-1.10780E+00
 -1      2175-6.21979E-02 2.71249E-02-9.19435E-01
 -1      2176-1.21069E-02-6.42520E-02-1.34988E+00
 -1      2177 1.67697E-02-1.88954E-03-3.51077E-02
 -1      2178-6.97968E-03-5.09850E-02-1.16554E+00
 -1      2179-3.74684E-02 3.80166E-02-2.98673E-01
 -1      2180-5.23973E-03-3.92050E-02-1.21483E-01
 -1      2181-4.21396E-02 5.27127E-02-6.88272E-01
 -1      2182 2.19204E-02 4.50608E-02-2.73021E-01
 -1      2183-1.02979E-02-2.44516E-02-6.83653E-02
 -1      2184-4.37594E-02 4.58184E-03-3.06641E-01
 -1      2185-6.08572E-02 2.69761E-02-1.23478E+00
 -1      2186-6.77831E-02-5.07752E-03-1.03573E+00
 -1      2187 2.33511E-02 2.11837E-02-2.12226E+00
 -1      2188 3.67688E-02-2.89159E-02-3.87601E-01
 -1      2189-5.52815E-02-3.53604E-02-6.64584E-01
 -1      2190-3.41278E-03 1.68982E-02-1.05341E-02
 -1      2191 4.15142E-02-1.64084E-02-2.56213E-01
 -1      2192-2.62108E-02-1.97397E-02-1.16162E-01
 -1      2193 0.00000E+00 0.00000E+00 0.00000E+00
 -1      2194-2.33522E-02 5.59804E-03-7.75111E-02
 -1      2195-1.27202E-02 4.58289E-02-2.90853E-01
 -1      2196 4.34930E-02-2.23149E-02-3.02068E-01
 -1      2197-3.49499E-02 1.72628E-02-2.06136E+00
 -1      2198-4.67355E-02 2.11974E-02-2.81623E-01
 -1      2199-3.41249E-02 5.45323E-02-1.45090E+00
 -1      2200 3.10604E-02-4.41127E-02-5.73687E-01
 -1      2201-2.13786E-02 4.40300E-02-2.00363E+00
 -1      2202 4.85396E-02 1.01489E-02-4.12652E-01
 -1      2203-9.05813E-03 2.25912E-03-9.16285E-03
 -1      2204 5.43528E-02-4.73963E-03-7.59136E-01
 -1      2205-4.97636E-02 1.22964E-02-2.61071E-01
 -1      2206-4.60069E-02 5.02952E-02-8.05461E-01
 -1      2207 6.97307E-02 5.77358E-03-8.49469E-01
 -1      2208 6.64154E-02-5.93408E-03-5.36757E-01
 -1      2209-5.51617E-02 2.25502E-02-4.32787E-01
 -1      2210 2.17167E-03-1.15392E-02-1.63653E-02
 -1      2211-5.28935E-02 4.75609E-03-3.04127E-01
 -1      2212-1.53263E-02-6.36309E-02-7.24310E-01
 -1      2213 3.90735E-02 8.74867E-03-1.52092E-01
 -1      2214-2.04705E-02-2.91149E-02-2.07787E+00
 -1      2215-8.78829E-03-3.19354E-03-2.67350E-02
 -1      2216 4.75805E-02 2.37946E-03-2.13690E-01
 -1      2217 3.27379E-02-2.95705E-02-1.72002E-01
 -1      2218 3.33053E-02-1.50563E-02-1.14229E-01
 -1      2219-3.01906E-03-1.83800E-02-3.26081E-02
 -1      2220 1.63388E-02 2.15828E-03-3.20553E-02
 -1      2221-3.87885E-02-4.47837E-02-4.00527E-01
 -1      2222-1.38628E-03-6.04115E-02-1.59128E+00
 -1      2223 5.26457E-02-1.65685E-02-7.62059E-01
 -1      2224 9.74574E-03-6.49464E-03-8.56187E-03
 -1      2225 3.46321E-02-2.69347E-02-1.82259E-01
 -1      2226-4.13263E-02-4.98162E-02-5.50659E-01
 -1      2227-1.17064E-02 6.10341E-02-1.59657E+00
 -1      2228 5.42921E-02 8.21353E-03-5.92540E-01
 -1      2229 4.91592E-02-4.61501E-02-6.54558E-01
 -1      2230 1.49777E-03-2.31539E-02-2.12447E+00
 -1      2231 5.79301E-02 1.62609E-02-4.38557E-01
 -1      2232 4.73933E-02 4.90861E-02-1.26020E+00
 -1      2233-2.18154E-02-2.03735E-02-1.21179E-01
 -1      2234-1.17384E-02-1.17837E-03-2.11836E-02
 -1      2235 5.28182E-02 5.50946E-03-3.35068E-01
 -1      2236 1.93421E-02 6.31099E-02-5.57476E-01
 -1      2237-2.62156E-02-4.84041E-02-1.85313E+00
 -1      2238-5.57049E-02 3.91783E-02-8.76737E-01
 -1      2239 0.00000E+00 0.00000E+00 0.00000E+00
 -1      2240 2.67232E-02 4.62992E-02-3.02678E-01
 -1      2241-3.97386E-02-5.48133E-02-1.07704E+00
 -1      2242 2.12361E-02 5.11013E-02-3.01459E-01
 -1      2243-5.86547E-02-3.16968E-02-7.52419E-01
 -1      2244 3.36965E-02-2.13755E-02-1.26518E-01
 -1      2245-1.42934E-02 1.90440E-02-3.13576E-02
 -1      2246 5.90659E-02-3.64446E-02-8.72198E-01
 -1      2247 7.05382E-02-1.47118E-03-9.57327E-01
 -1      2248 4.68092E-02-8.85644E-03-2.33812E-01
 -1      2249 6.82392E-04-1.51437E-02-2.43095E-02
 -1      2250 1.37178E-02 2.31605E-02-8.03849E-02
 -1      2251 5.01549E-02-1.38104E-02-3.19228E-01
 -1      2252 1.24788E-02-6.69821E-02-1.11655E+00
 -1      2253 2.62130E-02-5.92658E-02-5.96322E-01
 -1      2254 1.72161E-02-2.29669E-02-8.46406E-02
 -1      2255 5.62172E-02 3.22050E-02-1.48833E+00
 -1      2256-3.30640E-02 1.85532E-02-1.55098E-01
 -1      2257 5.56500E-03 5.97454E-02-4.47997E-01
 -1      2258 6.83324E-02 1.96505E-04-1.32718E+00
 -1      2259 8.66017E-04 6.25953E-02-5.07348E-01
 -1      2260 4.62473E-02 4.38594E-02-1.55176E+00
 -1      2261-2.86330E-03-1.13500E-02-2.58081E-02
 -1      2262 3.15888E-02 3.95575E-02-2.27635E-01
 -1      2263 8.75594E-03 3.49201E-02-1.34516E-01
 -1      2264 1.23976E-02 5.49065E-02-7.73873E-01
 -1      2265-4.27227E-02 1.86438E-02-2.66575E-01
 -1      2266-1.16252E-02 3.65353E-02-1.26289E-01
 -1      2267-4.43711E-02-2.82770E-02-8.48074E-01
 -1      2268-4.72676E-02-2.60838E-02-5.94023E-01
 -1      2269 4.09502E-02 4.95396E-02-5.15658E-01
 -1      2270-3.32018E-02-4.08106E-02-6.31111E-01
 -1      2271-5.04218E-02-4.59791E-02-9.31772E-01
 -1      2272-2.13990E-02 1.93343E-02-1.02907E-01
 -1      2273 5.93721E-02-1.36313E-03-1.82223E+00
 -1      2274-2.00496E-02-6.40476E-02-1.04130E+00
 -1      2275 9.24892E-03-6.01041E-02-4.99272E-01
 -1      2276-8.02585E-03 8.01164E-03-2.19249E-02
 -1      2277-2.38321E-02 4.48082E-02-4.04853E-01
 -1      2278-2.48527E-02 4.58451E-02-8.07541E-01
 -1      2279 1.00931E-02-3.22192E-02-1.14310E-01
 -1      2280-2.03365E-02-5.40144E-02-1.74197E+00
 -1      2281 4.29750E-03 6.92009E-02-9.21843E-01
 -1      2282-6.34331E-02 2.30977E-02-1.06218E+00
 -1      2283-5.14225E-02 1.30514E-02-7.61419E-01
 -1      2284-4.04934E-02 4.88830E-02-5.54453E-01
 -1      2285-8.17070E-03 5.60655E-02-5.45296E-01
 -1      2286-2.84097E-02-1.08289E-02-1.21315E-01
 -1      2287 4.01335E-04 5.79401E-03-1.05953E-02
 -1      2288 3.56935E-02 4.39627E-02-1.90282E+00
 -1      2289-7.63729E-03-7.06396E-03-2.17515E+00
 -1      2290 4.87935E-02-4.64203E-02-1.29591E+00
 -1      2291-2.58514E-02-5.89838E-02-1.33238E+00
 -1      2292 2.74203E-02-2.49111E-02-9.58567E-02
 -1      2293 6.04991E-02 3.61352E-02-1.08038E+00
 -1      2294 6.90518E-02-1.50347E-02-1.09265E+00
 -1      2295-3.21274E-02-7.82177E-03-1.32684E-01
 -1      2296-2.94264E-02-4.21763E-02-1.03918E+00
 -1      2297 3.76736E-02-2.29789E-02-2.65330E-01
 -1      2298 1.10181E-02-1.90277E-02-4.80673E-02
 -1      2299 2.34717E-02-4.25456E-02-2.73625E-01
 -1      2300 1.83090E-03 1.39699E-02-5.24676E-03
 -1      2301-6.74763E-02 1.12000E-02-9.57386E-01
 -1      2302 0.00000E+00 0.00000E+00 0.00000E+00
 -1      2303 3.71720E-02-4.45126E-02-3.62296E-01
 -1      2304 2.40709E-03-6.68317E-02-7.64027E-01
 -1      2305-6.37955E-02 2.05189E-02-1.21482E+00
 -1      2306-6.37337E-02-7.33507E-03-5.58399E-01
 -1      2307 0.00000E+00 0.00000E+00 0.00000E+00
 -1      2308 5.43707E-03-3.59778E-02-1.38507E-01
 -1      2309 2.70703E-02-5.94604E-02-1.42094E+00
 -1      2310 6.56621E-02-2.10307E-02-7.48936E-01
 -1      2311-1.92780E-03 3.12431E-02-7.91707E-02
 -1      2312-3.20239E-02 2.23356E-02-2.29707E-01
 -1      2313-5.79176E-02-1.78866E-03-1.79096E+00
 -1      2314 3.82753E-02 5.54028E-02-1.35055E+00
 -1      2315 4.67288E-02 2.31796E-02-4.59532E-01
 -1      2316-1.07639E-02-9.44663E-03-5.44352E-02
 -1      2317 4.47871E-02 3.03306E-02-8.91187E-01
 -1      2318-6.06404E-03-3.24490E-04-3.19254E-02
 -1      2319-3.40674E-02-9.24371E-03-1.18091E-01
 -1      2320-3.00748E-02 2.94943E-02-2.21512E-01
 -1      2321 2.67832E-02-4.06462E-02-2.74012E-01
 -1      2322-1.97527E-02-5.92094E-02-1.49262E+00
 -1      2323 4.64144E-02 2.84087E-02-7.46607E-01
 -1      2324 3.72413E-02-5.85097E-02-1.09672E+00
 -1      2325 3.72784E-02-5.15426E-02-5.70655E-01
 -1      2326 1.71991E-03-6.65812E-02-1.22385E+00
 -1      2327 7.97056E-05 4.63600E-02-2.44395E-01
 -1      2328-9.95926E-03-4.82271E-02-1.76978E-01
 -1      2329-4.08395E-02-3.55272E-02-3.23448E-01
 -1      2330-9.13488E-03 7.75244E-04-1.92235E-02
 -1      2331 6.56003E-02-2.44118E-02-8.57022E-01
 -1      2332 4.28711E-02-5.54621E-02-8.74588E-01
 -1      2333-1.52473E-02-3.30600E-02-1.49190E-01
 -1      2334 3.30531E-02 4.29991E-02-4.53472E-01
 -1      2335-4.10230E-02 4.26717E-02-4.20446E-01
 -1      2336 5.70491E-02-3.73126E-02-1.20153E+00
 -1      2337-4.78943E-02-4.70178E-02-1.15284E+00
 -1      2338 3.07386E-02 4.36551E-02-1.01998E+00
 -1      2339 2.91120E-02-6.21374E-02-9.99612E-01
 -1      2340 6.61951E-03 1.32790E-02-8.69811E-03
 -1      2341-2.73762E-02-1.14370E-02-8.98086E-02
 -1      2342-3.61288E-02-1.08294E-02-1.52054E-01
 -1      2343-3.55257E-02-6.33941E-03-1.19126E-01
 -1      2344-5.16571E-02 6.94072E-03-1.95639E+00
 -1      2345-3.72045E-02 5.84660E-02-8.78738E-01
 -1      2346 6.19420E-03 1.68130E-02-3.51958E-02
 -1      2347 2.35014E-02-6.36888E-02-7.91503E-01
 -1      2348 6.48146E-02-2.54448E-02-1.04349E+00
 -1      2349 6.97213E-03-5.18429E-02-1.02514E+00
 -1      2350-6.21044E-02-2.80242E-02-1.03731E+00
 -1      2351-3.25172E-02-4.83816E-02-4.26233E-01
 -1      2352 1.50906E-02 4.33743E-03-2.18963E+00
 -1      2353-5.98064E-02-1.73383E-02-4.35366E-01
 -1      2354 4.32683E-02-4.77213E-02-1.50816E+00
 -1      2355 0.00000E+00 0.00000E+00 0.00000E+00
 -1      2356 0.00000E+00 0.00000E+00 0.00000E+00
 -1      2357 2.11275E-03-1.48599E-02-3.61355E-02
 -1      2358-2.18520E-02 2.23632E-02-2.10741E+00
 -1      2359-3.64758E-03 5.63716E-03-2.06895E-02
 -1      2360-2.14603E-02 1.70151E-02-7.47535E-02
 -1      2361-3.68715E-02-5.62925E-02-8.55507E-01
 -1      2362-4.63856E-02 2.49769E-02-5.58706E-01
 -1      2363-4.36873E-02 2.72838E-02-8.87786E-01
 -1      2364-1.64915E-02-1.33583E-02-1.49777E-02
 -1      2365 6.38579E-02-2.79077E-02-9.32950E-01
 -1      2366 2.93813E-02 4.82410E-02-5.97280E-01
 -1      2367-6.08008E-02 2.77500E-02-1.08012E+00
 -1      2368 6.82530E-02 1.20008E-02-1.25137E+00
 -1      2369 1.45415E-02 6.33367E-02-6.06232E-01
 -1      2370 5.86355E-03 1.03328E-03-1.87960E-02
 -1      2371 7.10721E-03 1.21151E-03-1.42485E-02
 -1      2372-1.80709E-02-1.66171E-02-2.14613E+00
 -1      2373 8.44046E-03 2.02750E-02-2.14929E+00
 -1      2374 3.85993E-03-2.38388E-02-2.14189E+00
 -1      2375 1.40764E-02 1.86164E-02-6.48394E-02
 -1      2376 3.60726E-03 9.73278E-03-1.81872E-02
 -1      2377 1.51715E-02-3.15353E-02-1.17581E-01
 -1      2378-1.61487E-02 6.48852E-02-6.43678E-01
 -1      2379-2.69451E-02 5.66894E-02-4.55305E-01
 -1      2380 1.89727E-02-5.88834E-02-4.96866E-01
 -1      2381 4.81656E-02 3.27523E-02-4.23784E-01
 -1      2382 3.18402E-02 1.65055E-02-9.43401E-02
 -1      2383 6.37800E-02-8.80432E-04-4.89791E-01
 -1      2384 6.60311E-03-4.44394E-03-1.88699E-02
 -1      2385 3.61628E-02-5.28100E-02-1.47185E+00
 -1      2386-5.81654E-03-2.79123E-02-8.39370E-02
 -1      2387-9.15936E-03 1.35357E-02-3.93951E-03
 -1      2388 1.33207E-02-6.21581E-02-5.22539E-01
 -1      2389-1.81000E-02 3.23937E-02-1.02375E-01
 -1      2390 4.14894E-02 4.50073E-02-4.17192E-01
 -1      2391-4.13208E-02-5.12928E-02-1.23645E+00
 -1      2392 5.57557E-02-2.25710E-02-4.06231E-01
 -1      2393-4.70644E-03 1.08439E-02-1.89028E-02
 -1      2394 1.17953E-02 6.17047E-03-1.85355E-02
 -1      2395 0.00000E+00 0.00000E+00 0.00000E+00
 -1      2396 4.06420E-02 1.90637E-02-2.71884E-01
 -1      2397 1.89970E-02-2.35778E-02-9.20634E-02
 -1      2398 2.17755E-02 5.70760E-02-4.34090E-01
 -1      2399 1.05778E-02 6.80030E-02-1.33116E+00
 -1      2400 2.43269E-03 1.05064E-02-1.14707E-02
 -1      2401 5.61562E-02 8.77621E-03-3.43359E-01
 -1      2402-4.17666E-03 1.27624E-02-2.25780E-02
 -1      2403-2.58999E-02 6.37206E-02-9.97320E-01
 -1      2404-1.01383E-02 6.65077E-02-1.30471E+00
 -1      2405 2.79478E-02 5.42497E-03-6.76783E-02
 -1      2406-4.27691E-02-2.58066E-02-1.99397E+00
 -1      2407-6.81348E-03-3.77139E-02-9.35832E-02
 -1      2408-4.93776E-02 4.35864E-02-7.07078E-01
 -1      2409 6.45917E-02-2.44130E-02-1.23820E+00
 -1      2410 3.60111E-03 5.38325E-02-4.46553E-01
 -1      2411 3.07429E-02 1.09410E-02-1.09878E-01
 -1      2412-1.42399E-02 6.68737E-02-1.20619E+00
 -1      2413-4.19559E-03 6.93974E-02-1.07177E+00
 -1      2414 1.36024E-02 3.01364E-03-9.93015E-03
 -1      2415 4.56399E-02 5.75319E-03-1.52715E-01
 -1      2416 2.25899E-04-6.50151E-02-6.48752E-01
 -1      2417-1.96064E-02 6.59118E-02-8.56338E-01
 -1      2418 4.90735E-02-2.66425E-02-7.59088E-01
 -1      2419-5.40154E-03 2.21742E-02-5.78609E-02
 -1      2420-2.04061E-02 5.50300E-02-4.14766E-01
 -1      2421 3.65577E-02 1.78128E-02-2.82599E-01
 -1      2422 4.07626E-02 5.50398E-02-1.19125E+00
 -1      2423-5.58571E-02 2.95139E-02-5.38915E-01
 -1      2424 3.79435E-02-5.63316E-02-7.46327E-01
 -1      2425-1.87485E-02-6.37814E-02-8.59847E-01
 -1      2426-3.14468E-02 1.99163E-02-1.17905E-01
 -1      2427 5.06625E-02-3.74221E-02-4.45156E-01
 -1      2428-3.10647E-02-3.06999E-02-2.05705E-01
 -1      2429 3.24613E-02 1.88295E-02-1.55609E-01
 -1      2430 3.16596E-02-3.95455E-02-1.99748E+00
 -1      2431 6.14767E-02-2.47179E-02-6.27086E-01
 -1      2432 4.67866E-02-3.42756E-02-1.84198E+00
 -1      2433 7.03115E-03-1.17561E-02-2.97702E-02
 -1      2434-5.26843E-02-3.33666E-02-1.53329E+00
 -1      2435 3.13868E-02 5.78866E-02-1.43294E+00
 -1      2436 1.55513E-02-6.55677E-02-1.26312E+00
 -1      2437-5.96566E-02 9.18636E-03-4.60080E-01
 -1      2438-1.11987E-02-4.49501E-02-3.27798E-01
 -1      2439-5.35883E-02-2.23130E-03-3.04196E-01
 -1      2440-6.72251E-02-1.10882E-03-6.29535E-01
 -1      2441 2.13426E-02 1.53416E-02-6.69175E-02
 -1      2442 2.30551E-02 2.17481E-02-9.88754E-02
 -1      2443 4.01505E-02 2.67802E-02-2.97953E-01
 -1      2444 1.67033E-02-4.53414E-02-3.11882E-01
 -1      2445 6.30590E-02-1.76850E-02-1.53127E+00
 -1      2446 8.60541E-03-6.47281E-02-6.53655E-01
 -1      2447-4.56054E-02 4.15817E-02-1.53912E+00
 -1      2448-4.21868E-02 3.76514E-02-1.80658E+00
 -1      2449-5.18399E-02 2.60782E-02-1.74064E+00
 -1      2450 4.88371E-02 4.51880E-02-1.37778E+00
 -1      2451 3.60824E-03-6.54919E-02-1.27638E+00
 -1      2452 5.24590E-02 4.23263E-02-6.71287E-01
 -1      2453 2.68809E-02-5.30941E-02-4.55750E-01
 -1      2454 5.97317E-02-1.90658E-02-5.00243E-01
 -1      2455-1.50774E-02-3.39609E-02-1.46600E-01
 -1      2456-4.96568E-02 1.04765E-02-1.01265E+00
 -1      2457 3.75225E-02 2.57226E-02-2.60644E-01
 -1      2458-3.81162E-02-1.70952E-02-1.56902E-01
 -1      2459-2.91936E-02-5.52966E-02-1.48468E+00
 -1      2460-1.53497E-02 5.31277E-02-3.52540E-01
 -1      2461 6.60227E-02-1.63001E-02-1.34042E+00
 -1      2462 2.52142E-02 6.43600E-02-1.10878E+00
 -1      2463 2.74966E-03 2.12167E-02-9.85688E-03
 -1      2464-1.46017E-02 6.29920E-02-1.44458E+00
 -1      2465-4.32405E-03 3.15640E-02-8.29795E-02
 -1      2466-2.29986E-03-3.96066E-02-1.86755E-01
 -1      2467-4.71199E-02-4.98766E-02-9.66607E-01
 -1      2468-2.91446E-02-3.86258E-02-3.38392E-01
 -1      2469 3.24192E-03 1.52444E-02-6.73742E-03
 -1      2470 2.79083E-02-6.14396E-02-7.43164E-01
 -1      2471 4.18898E-02-3.50558E-02-6.89523E-01
 -1      2472-2.29728E-02 5.60047E-02-1.70613E+00
 -1      2473 8.04429E-03-5.65275E-03-6.42163E-03
 -1      2474 1.40695E-02-3.73164E-03-3.07269E-02
 -1      2475-9.51979E-03-2.07026E-02-1.75003E-02
 -1      2476 2.84518E-03-4.08849E-02-1.68467E-01
 -1      2477-6.17028E-02-2.21371E-02-5.52281E-01
 -1      2478-1.24980E-02-8.17413E-03-2.39067E-02
 -1      2479-4.33917E-02 2.18783E-02-2.62935E-01
 -1      2480-3.56779E-02 5.04960E-02-1.55152E+00
 -1      2481 4.72835E-02 1.15863E-02-3.85591E-01
 -1      2482 5.37851E-02-8.66985E-03-8.87273E-01
 -1      2483 5.52880E-02-7.80822E-03-6.06346E-01
 -1      2484 4.31874E-02 1.12010E-02-1.61760E-01
 -1      2485-5.57125E-02-3.74989E-02-1.12401E+00
 -1      2486 5.38127E-02-4.26786E-02-8.26220E-01
 -1      2487-1.01461E-02-6.65156E-02-1.14652E+00
 -1      2488 3.43432E-03-4.84464E-02-1.99212E+00
 -1      2489 6.51733E-02 1.54295E-02-6.55861E-01
 -1      2490 1.42370E-02 6.26820E-02-4.59853E-01
 -1      2491 1.04936E-02-5.37604E-02-3.66200E-01
 -1      2492-6.71310E-02-8.22477E-03-7.55278E-01
 -1      2493 4.17370E-02 2.50620E-02-3.13706E-01
 -1      2494 9.92427E-03-6.65904E-02-8.78560E-01
 -1      2495-3.70892E-02 3.69459E-02-1.96642E+00
 -1      2496-5.74856E-02 1.17387E-02-1.75401E+00
 -1      2497 5.39889E-02 4.30816E-02-1.17327E+00
 -1      2498 4.73754E-02 4.28967E-02-5.11561E-01
 -1      2499 2.32008E-02-5.65450E-02-4.79865E-01
 -1      2500 5.29874E-02-1.59731E-02-2.95934E-01
 -1      2501-5.23814E-02 7.42472E-03-8.61876E-01
 -1      2502 7.06815E-03 5.15964E-03-1.32913E-02
 -1      2503-3.98251E-02 5.05681E-02-1.42404E+00
 -1      2504-3.03915E-02 5.42075E-02-1.58092E+00
 -1      2505-5.13582E-02-4.39222E-02-1.07521E+00
 -1      2506-6.04209E-02-2.99399E-02-1.21588E+00
 -1      2507-5.38120E-02-3.87257E-02-1.33547E+00
 -1      2508 6.73998E-02 9.46231E-03-7.16233E-01
 -1      2509 2.37271E-02-6.04199E-02-6.33267E-01
 -1      2510 5.11137E-02-1.22384E-02-2.60734E-01
 -1      2511-5.38332E-02 4.37847E-03-6.77991E-01
 -1      2512-5.16832E-02 5.46288E-03-4.82781E-01
 -1      2513 4.64667E-02-5.11119E-02-1.13408E+00
 -1      2514-3.62163E-02-3.80582E-02-1.95011E+00
 -1      2515-2.03264E-02-3.55154E-02-1.90783E-01
 -1      2516 1.66986E-02-6.56165E-02-1.09578E+00
 -1      2517-2.73894E-02 3.98076E-02-2.35752E-01
 -1      2518-2.36695E-02-2.53331E-02-1.10863E-01
 -1      2519 4.57579E-02-4.55279E-02-4.65227E-01
 -1      2520-8.18748E-03-6.56501E-02-1.26596E+00
 -1      2521-4.29355E-02-2.23213E-02-3.92560E-01
 -1      2522-4.09167E-02-5.32260E-02-7.01993E-01
 -1      2523 3.04550E-02-3.25290E-03-1.32873E-01
 -1      2524-7.36498E-04 4.65812E-02-2.30143E-01
 -1      2525 1.02879E-02 1.94722E-04-2.51268E-02
 -1      2526-1.07390E-02-6.32418E-02-6.36160E-01
 -1      2527-9.88215E-03-6.74509E-02-8.84988E-01
 -1      2528 6.91226E-03-4.63287E-02-2.48087E-01
 -1      2529 1.02162E-02-5.28492E-02-8.72198E-01
 -1      2530-5.05905E-02-1.53191E-02-5.88359E-01
 -1      2531-5.98583E-02-1.77310E-02-1.59508E+00
 -1      2532-6.82829E-02-3.11324E-05-1.05469E+00
 -1      2533 1.47129E-02-5.88241E-02-1.72165E+00
 -1      2534-4.81941E-05 6.05685E-02-1.74359E+00
 -1      2535-4.37556E-04 6.33294E-02-1.61088E+00
 -1      2536-3.56028E-02-5.31844E-02-1.37910E+00
 -1      2537 4.86942E-02 4.95483E-02-1.04870E+00
 -1      2538-4.55490E-02 4.78270E-02-1.30252E+00
 -1      2539-4.13037E-02-2.12127E-02-3.02092E-01
 -1      2540 5.36349E-02 8.11831E-03-7.45187E-01
 -1      2541-6.43610E-03-2.89402E-02-1.35800E-01
 -1      2542 2.82213E-02-1.43963E-02-1.02978E-01
 -1      2543 0.00000E+00 0.00000E+00 0.00000E+00
 -1      2544 3.47673E-02 4.24980E-02-8.24008E-01
 -1      2545-5.51768E-02 3.81994E-02-1.18761E+00
 -1      2546-3.40135E-02-5.34061E-02-5.42785E-01
 -1      2547 5.06677E-02-1.12760E-02-1.03578E+00
 -1      2548 3.16302E-02 3.25924E-02-2.60722E-01
 -1      2549 3.12473E-02-3.25369E-02-2.93582E-01
 -1      2550-4.63519E-02-1.23816E-02-4.11370E-01
 -1      2551 1.89415E-02-2.90647E-02-1.23768E-01
 -1      2552 6.96731E-02 7.64259E-03-9.91619E-01
 -1      2553-4.53892E-02 2.71207E-02-7.97564E-01
 -1      2554-4.35605E-02-3.34142E-02-5.96537E-01
 -1      2555 3.60588E-02 5.60280E-02-6.00668E-01
 -1      2556 0.00000E+00 0.00000E+00 0.00000E+00
 -1      2557-4.30655E-02 2.47226E-02-1.15068E+00
 -1      2558-5.88987E-02 2.58425E-02-1.42986E+00
 -1      2559 4.89538E-02-4.20125E-02-5.17580E-01
 -1      2560-4.24996E-02-4.30910E-02-1.60732E+00
 -1      2561 3.29880E-02-9.67204E-03-1.12181E-01
 -1      2562-6.57102E-02-9.71014E-03-1.32646E+00
 -1      2563 1.37207E-02-1.88869E-02-2.15049E+00
 -1      2564-1.09544E-02 1.50867E-03-3.42419E-02
 -1      2565-3.50334E-02 1.06091E-02-1.48351E-01
 -1      2566 6.38267E-02 7.38274E-03-1.57092E+00
 -1      2567-5.51517E-03-5.32868E-02-5.89193E-01
 -1      2568 5.83357E-02-3.93492E-02-1.01950E+00
 -1      2569-4.52366E-02 8.00361E-03-2.70501E-01
 -1      2570 5.32391E-02 2.86911E-02-4.53933E-01
 -1      2571 2.77938E-02 2.09117E-02-1.35742E-01
 -1      2572-1.47537E-03-1.27456E-02-2.19242E+00
 -1      2573-5.85820E-03 3.02981E-02-2.11647E+00
 -1      2574-1.14271E-02 1.40554E-02-6.50609E-02
 -1      2575-3.68156E-02-4.93091E-02-1.54111E+00
 -1      2576 4.64011E-02-3.25801E-02-3.00924E-01
 -1      2577 3.80542E-02 1.46013E-02-2.07040E+00
 -1      2578-1.82095E-02-6.35989E-02-1.20581E+00
 -1      2579-4.83425E-02-3.53574E-02-1.67207E+00
 -1      2580-3.43462E-02 5.89830E-02-1.10727E+00
 -1      2581-6.51558E-02 1.92911E-02-9.09647E-01
 -1      2582-3.54958E-02 4.50013E-02-1.80881E+00
 -1      2583 2.91942E-02-5.96445E-02-1.33655E+00
 -1      2584 4.81375E-02-2.10481E-02-2.83487E-01
 -1      2585-4.52887E-02-2.71700E-02-4.91350E-01
 -1      2586 6.90048E-02-3.38198E-03-6.79024E-01
 -1      2587 1.19544E-02-4.37670E-02-2.31275E-01
 -1      2588 4.97664E-02-4.25816E-02-1.43145E+00
 -1      2589-5.33242E-02-2.44674E-02-1.76996E+00
 -1      2590-4.70868E-02-4.24271E-02-1.47699E+00
 -1      2591-6.74238E-02-1.66646E-02-1.10879E+00
 -1      2592 1.93496E-02-6.53109E-02-8.94574E-01
 -1      2593 3.95324E-02 3.82216E-02-3.65201E-01
 -1      2594-2.67612E-02-4.20924E-02-2.61940E-01
 -1      2595-1.55674E-02-5.66348E-02-4.65578E-01
 -1      2596 5.98817E-02 2.28782E-02-5.80876E-01
 -1      2597-1.27959E-02-5.87911E-02-1.62557E+00
 -1      2598-1.55979E-02-5.10008E-02-3.60997E-01
 -1      2599 6.03220E-02 1.21975E-02-1.72575E+00
 -1      2600 5.96494E-02-3.33762E-02-7.25653E-01
 -1      2601 5.86477E-03-3.19462E-02-1.30052E-01
 -1      2602 4.68683E-02 3.60106E-02-1.79745E+00
 -1      2603 6.69261E-02 8.00170E-03-1.38944E+00
 -1      2604 4.33701E-02 5.36713E-02-8.63774E-01
 -1      2605-3.74972E-03 6.48660E-02-1.47539E+00
 -1      2606-5.96151E-02-3.29063E-02-9.15290E-01
 -1      2607-2.09091E-02 6.09743E-02-5.46665E-01
 -1      2608-9.16202E-03 6.84890E-02-9.19659E-01
 -1      2609-5.31106E-02-6.47881E-03-6.62694E-01
 -1      2610-1.18728E-02 6.46856E-02-5.89101E-01
 -1      2611-4.31967E-02-5.72091E-03-2.66242E-01
 -1      2612-3.55992E-02-5.60551E-02-1.24890E+00
 -1      2613 6.29097E-05-5.12920E-02-3.02809E-01
 -1      2614 6.23676E-02 2.36700E-03-1.70375E+00
 -1      2615 5.53061E-02 2.24141E-02-1.79176E+00
 -1      2616 6.64412E-02-8.75967E-03-5.81258E-01
 -1      2617 2.44200E-02-3.09390E-02-1.42556E-01
 -1      2618-6.52471E-03 2.73123E-02-2.12733E+00
 -1      2619-5.20619E-02 3.26535E-02-1.55222E+00
 -1      2620 3.02925E-02-4.49998E-02-8.95810E-01
 -1      2621 0.00000E+00 0.00000E+00 0.00000E+00
 -1      2622 1.00191E-02-1.40766E-02-1.14875E-02
 -1      2623 5.01698E-02-2.81833E-02-4.07281E-01
 -1      2624-3.64200E-02-5.68485E-02-9.65556E-01
 -1      2625 0.00000E+00 0.00000E+00 0.00000E+00
 -1      2626 2.80294E-02-3.23088E-02-1.80852E-01
 -1      2627-2.44992E-02-1.14100E-03-8.91185E-02
 -1      2628 3.27503E-02-3.27909E-02-2.33567E-01
 -1      2629 6.66980E-03 5.43693E-02-8.15122E-01
 -1      2630-4.02410E-02 1.25417E-02-1.91470E-01
 -1      2631 2.37643E-02-9.00667E-03-2.14831E+00
 -1      2632 2.77718E-02-5.07628E-02-1.81253E+00
 -1      2633 1.19420E-02-1.87528E-03-2.14253E-02
 -1      2634-1.36942E-02 3.84786E-03-2.47708E-02
 -1      2635 1.26295E-02-2.46228E-02-7.31351E-02
 -1      2636 1.62086E-02-3.79015E-02-1.93122E-01
 -1      2637 3.68648E-02 6.79936E-03-1.26407E-01
 -1      2638-5.36066E-03 3.09022E-03-2.19956E+00
 -1      2639-3.46509E-02-4.53473E-02-1.74684E+00
 -1      2640-3.87580E-02 3.47780E-03-1.89387E-01
 -1      2641-3.46521E-02 4.07291E-02-3.39273E-01
 -1      2642-6.61165E-02-1.43437E-02-1.27120E+00
 -1      2643 2.64624E-02-4.49414E-02-2.84283E-01
 -1      2644 4.98875E-02-4.78056E-02-8.17908E-01
 -1      2645 2.06478E-02-8.55035E-03-5.49732E-02
 -1      2646-6.68580E-02-5.57869E-04-1.27126E+00
 -1      2647-2.75867E-02 4.32044E-02-8.44506E-01
 -1      2648-2.21485E-02 4.69704E-02-5.81274E-01
 -1      2649-4.71173E-02-2.76753E-02-1.87649E+00
 -1      2650-1.78931E-02-6.27167E-02-7.16926E-01
 -1      2651 1.11891E-02-5.37271E-02-1.88171E+00
 -1      2652 5.02376E-02-9.51446E-03-1.18180E+00
 -1      2653-4.88291E-02 4.58792E-02-1.17189E+00
 -1      2654-5.34074E-02 3.85513E-02-1.29687E+00
 -1      2655-5.84618E-02 3.59360E-02-1.00548E+00
 -1      2656-6.69360E-02-1.40505E-02-1.18766E+00
 -1      2657 1.21056E-02 5.13594E-02-1.16027E+00
 -1      2658-6.06200E-02 2.95756E-02-7.79679E-01
 -1      2659 2.80334E-02-5.51515E-02-1.63244E+00
 -1      2660 5.72814E-02-3.52500E-02-1.34251E+00
 -1      2661-1.06303E-02 5.39931E-02-5.48014E-01
 -1      2662 1.87824E-02 3.76332E-02-1.75182E-01
 -1      2663-9.49931E-03-5.50733E-02-3.86937E-01
 -1      2664-2.83770E-02 6.33448E-02-8.06065E-01
 -1      2665-1.66055E-02-1.35183E-02-6.89245E-02
 -1      2666-1.28146E-02 5.14680E-02-4.07875E-01
 -1      2667-6.02595E-02 1.19260E-02-1.60866E+00
 -1      2668-2.33568E-02-4.43255E-02-1.97389E+00
 -1      2669-1.97169E-03-6.72510E-02-8.23161E-01
 -1      2670-1.55215E-02 5.11343E-02-1.94044E+00
 -1      2671-2.50171E-02-1.38172E-02-2.11637E+00
 -1      2672 0.00000E+00 0.00000E+00 0.00000E+00
 -1      2673 6.30874E-02-1.26820E-02-4.95440E-01
 -1      2674-6.15363E-02 1.72497E-02-1.44715E+00
 -1      2675 5.76625E-02 2.83549E-02-5.65149E-01
 -1      2676 2.24978E-02-2.16524E-02-9.92877E-02
 -1      2677 3.90409E-02-1.71426E-02-1.76836E-01
 -1      2678-2.37198E-03-1.94432E-02-9.85402E-03
 -1      2679-1.23384E-04-6.40737E-02-1.42282E+00
 -1      2680 5.79416E-03 6.81723E-02-7.66680E-01
 -1      2681-9.67741E-03-2.27644E-04-1.90402E-02
 -1      2682 5.03068E-02 3.77736E-02-5.05784E-01
 -1      2683-4.28787E-02 2.35384E-02-4.41806E-01
 -1      2684-5.84578E-02-1.40557E-02-1.73285E+00
 -1      2685 6.98172E-02-6.47929E-03-1.04909E+00
 -1      2686 4.87263E-02 4.59446E-02-6.55950E-01
 -1      2687-2.41371E-02-4.01175E-03-4.65393E-02
 -1      2688 3.57560E-02-5.95790E-02-9.69047E-01
 -1      2689 1.99244E-02-6.29214E-02-1.39184E+00
 -1      2690 5.93982E-02 3.72452E-02-8.51948E-01
 -1      2691-5.83227E-02-3.03366E-02-5.82381E-01
 -1      2692 2.74838E-02 6.21156E-02-1.28239E+00
 -1      2693 4.06780E-02 3.46814E-03-1.21415E-01
 -1      2694-2.14157E-03 3.82575E-02-1.31934E-01
 -1      2695 5.50459E-02 3.60427E-02-5.83465E-01
 -1      2696 4.80491E-03-1.97651E-02-4.91939E-02
 -1      2697 2.20934E-02-5.93977E-02-1.54575E+00
 -1      2698 3.60927E-02-5.36243E-03-1.29893E-01
 -1      2699-6.76770E-02-1.13374E-02-8.90775E-01
 -1      2700 6.79367E-02 1.54839E-02-1.09360E+00
 -1      2701-2.89582E-03-6.71653E-03-9.94278E-03
 -1      2702 4.43765E-02 4.63587E-02-5.40750E-01
 -1      2703-4.67286E-02 1.16001E-02-4.28663E-01
 -1      2704 1.07159E-02-6.12090E-02-1.59572E+00
 -1      2705 5.12269E-02 4.69741E-02-8.70253E-01
 -1      2706 6.38907E-02 1.08088E-02-1.50060E+00
 -1      2707-6.36286E-03 1.29905E-02-2.56943E-02
 -1      2708-4.02776E-02 1.21957E-02-2.49581E-01
 -1      2709 5.96880E-02-2.94940E-02-6.28987E-01
 -1      2710 4.99701E-02-4.76240E-02-1.13642E+00
 -1      2711 1.45358E-02 5.44502E-02-6.34414E-01
 -1      2712-5.31959E-03 6.57929E-02-6.67555E-01
 -1      2713-9.08000E-03-6.10555E-02-1.51168E+00
 -1      2714-2.53357E-03-5.25730E-02-3.23143E-01
 -1      2715-4.75101E-02-2.73826E-02-7.52125E-01
 -1      2716 5.51281E-02-1.15239E-02-1.91104E+00
 -1      2717 5.91376E-02-1.17105E-02-1.76689E+00
 -1      2718-5.35286E-02-1.31372E-02-1.90312E+00
 -1      2719 8.16552E-03-3.30537E-02-2.05974E+00
 -1      2720-6.85737E-02-7.74239E-04-7.99302E-01
 -1      2721 7.68171E-03-2.17825E-02-3.78352E-02
 -1      2722-3.55746E-03-1.90113E-02-2.14560E+00
 -1      2723 2.88559E-03-6.29973E-02-1.47590E+00
 -1      2724 6.29854E-02 2.65768E-02-1.27714E+00
 -1      2725-4.34717E-02-2.69814E-02-1.02185E+00
 -1      2726 0.00000E+00 0.00000E+00 0.00000E+00
 -1      2727 5.59753E-02-3.25311E-02-5.19838E-01
 -1      2728 4.89156E-02-3.89856E-02-4.07196E-01
 -1      2729-1.25100E-02 1.56515E-02-2.15670E+00
 -1      2730 1.14755E-02 5.31627E-02-9.38747E-01
 -1      2731-6.50640E-03 5.57530E-02-8.09594E-01
 -1      2732 4.95906E-02 2.75839E-02-1.91616E+00
 -1      2733-5.85283E-02-2.42994E-02-4.89751E-01
 -1      2734-9.27290E-04-3.07664E-02-8.30209E-02
 -1      2735-6.14149E-02-2.76253E-02-8.33668E-01
 -1      2736-1.89867E-02-5.83417E-03-4.86739E-02
 -1      2737 0.00000E+00 0.00000E+00 0.00000E+00
 -1      2738 3.96277E-02-4.52215E-02-5.20689E-01
 -1      2739-1.27472E-02-2.50718E-02-6.35615E-02
 -1      2740-1.68400E-02-6.09611E-02-6.01067E-01
 -1      2741-3.32039E-02 4.00821E-02-5.51232E-01
 -1      2742-5.29298E-02 4.02730E-02-7.35295E-01
 -1      2743-2.85320E-02 6.08990E-02-6.26541E-01
 -1      2744-6.28142E-02-1.66273E-02-1.43543E+00
 -1      2745 1.20014E-02-3.62725E-02-1.71770E-01
 -1      2746 4.88409E-03 5.53332E-02-6.05851E-01
 -1      2747-2.93806E-04-6.68955E-02-1.10281E+00
 -1      2748 6.46610E-02 2.56781E-02-1.07132E+00
 -1      2749 4.36192E-02 2.88974E-02-1.16766E+00
 -1      2750-1.43333E-02 5.22267E-02-8.07935E-01
 -1      2751-4.10146E-02 5.34569E-02-7.34622E-01
 -1      2752-4.13121E-02 8.21760E-03-2.05044E+00
 -1      2753 1.66619E-02-3.54963E-02-1.22441E-01
 -1      2754-2.61001E-02-6.12792E-02-1.11710E+00
 -1      2755-3.49691E-02 5.95613E-02-6.89074E-01
 -1      2756-2.26541E-02 3.94632E-02-2.27086E-01
 -1      2757 0.00000E+00 0.00000E+00 0.00000E+00
 -1      2758-1.94157E-02 1.54314E-02-2.13807E+00
 -1      2759 1.91408E-03-6.80636E-03-1.48416E-02
 -1      2760 1.48757E-02-6.45062E-02-7.18698E-01
 -1      2761 2.50826E-02-6.32656E-02-9.47765E-01
 -1      2762-5.23777E-02-1.41120E-02-3.11972E-01
 -1      2763-2.82957E-02-6.13484E-02-9.09251E-01
 -1      2764-2.25242E-02 1.87089E-02-1.48366E-01
 -1      2765-4.24675E-02 2.99485E-02-8.00464E-01
 -1      2766-6.23071E-02-2.25444E-03-1.60295E+00
 -1      2767 1.20773E-02 6.66501E-02-7.38535E-01
 -1      2768 5.82376E-02-3.95403E-02-8.95874E-01
 -1      2769 1.86999E-02 1.77590E-02-2.13189E+00
 -1      2770-5.79643E-02-2.78845E-02-1.48202E+00
 -1      2771 1.88225E-02-3.72912E-02-2.42394E-01
 -1      2772-4.44333E-02-4.69015E-03-3.29812E-01
 -1      2773 1.08201E-02-5.28918E-02-5.77669E-01
 -1      2774 1.36344E-02-5.37195E-02-3.70854E-01
 -1      2775 5.58281E-03-5.72993E-03-1.46903E-02
 -1      2776 1.49147E-02 6.37892E-02-1.49254E+00
 -1      2777-7.60847E-03-4.40582E-02-1.93996E-01
 -1      2778-1.93601E-02 6.04773E-02-1.52743E+00
 -1      2779-6.52838E-02-2.15655E-02-9.28645E-01
 -1      2780 5.82537E-02 4.85850E-03-4.36612E-01
 -1      2781-3.62529E-03-2.91193E-02-8.63580E-02
 -1      2782-5.84741E-02-3.49644E-02-1.09263E+00
 -1      2783 6.59671E-02-1.94548E-02-1.11546E+00
 -1      2784-3.89093E-04 6.88638E-02-1.22430E+00
 -1      2785 2.04032E-02 1.69318E-02-7.16291E-02
 -1      2786 4.94686E-02 1.73864E-02-2.85381E-01
 -1      2787-6.28647E-02-2.53544E-02-1.15114E+00
 -1      2788-3.31584E-02 5.53895E-02-4.68540E-01
 -1      2789-3.98573E-02 3.38331E-02-5.81503E-01
 -1      2790 4.57142E-02 4.73436E-03-2.84044E-01
 -1      2791 1.91418E-02-6.41405E-02-7.56986E-01
 -1      2792 2.70435E-03-5.87760E-02-1.75169E+00
 -1      2793 1.88031E-03 1.91474E-02-2.58243E-02
 -1      2794 3.95573E-02 3.24731E-02-3.13257E-01
 -1      2795-1.85055E-02 4.19327E-02-2.19736E-01
 -1      2796-3.42854E-03 1.31880E-02-9.80687E-03
 -1      2797 2.36060E-02-6.08310E-03-9.04940E-02
 -1      2798-1.43382E-02 5.88229E-02-1.70850E+00
 -1      2799-2.70594E-02 1.11078E-02-7.67441E-02
 -1      2800 0.00000E+00 0.00000E+00 0.00000E+00
 -1      2801-6.46389E-02-1.93697E-02-6.78832E-01
 -1      2802 4.26369E-02 9.13571E-03-2.44653E-01
 -1      2803 5.08842E-02 1.45578E-02-5.77173E-01
 -1      2804-5.49453E-03-3.55038E-02-2.06679E+00
 -1      2805 5.28801E-02 7.50905E-03-8.66635E-01
 -1      2806 6.27001E-02 3.01972E-02-9.32162E-01
 -1      2807 4.27821E-03-6.75132E-02-9.94557E-01
 -1      2808 6.47777E-02-1.47128E-03-1.57242E+00
 -1      2809-5.09354E-02-4.25963E-02-1.20780E+00
 -1      2810-3.09255E-02 5.75241E-02-4.98390E-01
 -1      2811 4.56838E-02-5.21743E-02-9.88457E-01
 -1      2812-1.38571E-02 5.34578E-02-5.54178E-01
 -1      2813-3.74384E-02-5.48938E-02-7.21605E-01
 -1      2814 4.25787E-03 4.91595E-02-3.22367E-01
 -1      2815-1.22786E-02-6.70317E-02-1.01398E+00
 -1      2816 5.31383E-02 4.46826E-02-1.01825E+00
 -1      2817 6.63890E-03-1.90911E-03-1.41398E-02
 -1      2818-5.67913E-02 3.13169E-02-1.35180E+00
 -1      2819 6.06732E-02 3.36389E-02-8.00539E-01
 -1      2820 5.52031E-02-3.64454E-02-5.76392E-01
 -1      2821-4.24242E-02-3.38448E-02-7.56439E-01
 -1      2822-4.05231E-02-3.12946E-02-4.18468E-01
 -1      2823 3.50020E-02-4.12262E-02-8.05404E-01
 -1      2824 5.61159E-02-2.58784E-02-4.94831E-01
 -1      2825 6.15823E-02 2.48544E-02-1.44435E+00
 -1      2826 4.99269E-02 2.31550E-02-3.74062E-01
 -1      2827 3.80253E-02-2.72942E-02-1.91215E-01
 -1      2828 3.69451E-02-4.58518E-02-1.80062E+00
 -1      2829-6.33710E-02 2.28713E-02-8.49787E-01
 -1      2830-5.33899E-02-2.90005E-02-1.63910E+00
 -1      2831 2.97095E-02-6.13051E-02-1.19349E+00
 -1      2832 4.70596E-02 4.04465E-02-1.67965E+00
 -1      2833-6.47895E-02 1.16843E-02-1.34530E+00
 -1      2834-4.10023E-02-1.14006E-02-1.99300E-01
 -1      2835 5.93455E-02 1.56322E-02-5.59869E-01
 -1      2836-3.69977E-02-5.62193E-02-1.11194E+00
 -1      2837-1.59138E-02 2.87111E-02-8.53175E-02
 -1      2838-6.13127E-02-2.56027E-02-6.27551E-01
 -1      2839 4.29800E-02-4.81116E-02-4.98662E-01
 -1      2840-5.44372E-03 6.96054E-02-9.28943E-01
 -1      2841 6.36185E-02 6.83948E-03-5.80982E-01
 -1      2842 2.17641E-03-5.55464E-02-3.92394E-01
 -1      2843 2.81941E-02-4.44567E-02-1.04419E+00
 -1      2844 0.00000E+00 0.00000E+00 0.00000E+00
 -1      2845 6.08196E-02 2.92072E-02-1.38342E+00
 -1      2846 3.38432E-02-4.32997E-02-2.99455E-01
 -1      2847 3.69593E-02-1.57623E-02-2.06209E+00
 -1      2848-5.97206E-03 1.17912E-03-1.85206E-02
 -1      2849 1.78027E-02-3.94369E-02-2.44479E-01
 -1      2850 6.21821E-02 2.63683E-02-7.16217E-01
 -1      2851-1.21280E-02-5.08990E-02-2.71578E-01
 -1      2852-2.55139E-02 6.46138E-02-8.60314E-01
 -1      2853 2.56376E-02-4.83830E-02-7.43118E-01
 -1      2854 5.48647E-02 4.20422E-02-8.19171E-01
 -1      2855 6.19774E-02 1.94935E-02-1.51077E+00
 -1      2856 4.19735E-02 3.14553E-02-3.78580E-01
 -1      2857 2.77466E-02 6.32705E-02-1.14512E+00
 -1      2858 0.00000E+00 0.00000E+00 0.00000E+00
 -1      2859-6.68405E-03 6.18993E-02-5.17975E-01
 -1      2860-3.74604E-03 1.04729E-02-1.60314E-02
 -1      2861 2.24829E-02-5.51569E-03-6.18796E-02
 -1      2862 6.62116E-02 1.91982E-02-1.24696E+00
 -1      2863 5.43537E-02 1.87602E-02-4.16087E-01
 -1      2864 1.80103E-02 5.11086E-02-5.09072E-01
 -1      2865-7.41285E-03-5.47913E-02-3.57749E-01
 -1      2866 5.45205E-02 4.63831E-03-1.96901E+00
 -1      2867-4.61998E-02-1.33037E-02-2.01561E+00
 -1      2868-6.90489E-02-5.69690E-03-8.95996E-01
 -1      2869 4.99334E-03-9.51444E-03-2.63447E-02
 -1      2870 4.80369E-04-1.03002E-02-1.65465E-02
 -1      2871-1.56439E-02 5.98225E-03-2.15792E+00
 -1      2872-2.64674E-02 4.56666E-02-2.25832E-01
 -1      2873-1.69456E-02 3.43850E-02-1.26392E-01
 -1      2874 6.66786E-02 2.11252E-02-9.24006E-01
 -1      2875-9.72916E-03 5.25009E-02-9.27108E-01
 -1      2876-5.91455E-03 1.10225E-02-2.24682E-02
 -1      2877 6.37709E-02 1.74599E-02-7.07665E-01
 -1      2878-2.32539E-02 1.75153E-02-1.31452E-01
 -1      2879-2.34246E-02-6.28654E-02-9.59734E-01
 -1      2880-6.01044E-02 3.64805E-03-1.68827E+00
 -1      2881-6.39807E-02-8.39093E-03-1.47636E+00
 -1      2882 1.80802E-02-5.40250E-02-3.64307E-01
 -1      2883-5.67517E-02-3.26426E-02-1.37510E+00
 -1      2884-6.74148E-02-1.58712E-02-9.52166E-01
 -1      2885 2.50650E-02 6.19444E-02-1.42488E+00
 -1      2886 2.90313E-02-1.85381E-02-1.02545E-01
 -1      2887 4.69256E-02-5.23270E-02-8.51440E-01
 -1      2888 2.50741E-02-4.21669E-02-4.11104E-01
 -1      2889-6.22609E-02-1.38766E-02-5.53209E-01
 -1      2890 5.20879E-02 1.59683E-02-7.44631E-01
 -1      2891-1.44007E-02-4.87633E-02-1.96480E+00
 -1      2892 4.84913E-02-8.77709E-03-2.01626E+00
 -1      2893-2.70715E-02 5.17945E-02-3.56366E-01
 -1      2894 5.84665E-02 3.90520E-02-9.81194E-01
 -1      2895 4.63404E-02-4.93485E-02-7.11244E-01
 -1      2896 3.87857E-02-5.60442E-02-1.22594E+00
 -1      2897 5.29633E-02 3.23337E-02-1.67024E+00
 -1      2898-5.21226E-02-4.65396E-03-5.24680E-01
 -1      2899-4.94043E-04-5.81611E-02-4.17893E-01
 -1      2900 5.90797E-02 3.60812E-02-1.24330E+00
 -1      2901-1.89380E-02 5.28057E-03-4.63699E-02
 -1      2902-1.89125E-02 3.98083E-02-2.74084E-01
 -1      2903 2.87760E-02-4.59597E-02-5.76852E-01
 -1      2904 2.32801E-02-1.17786E-02-2.13830E+00
 -1      2905-3.01594E-02 4.77184E-02-3.11358E-01
 -1      2906 6.40826E-02 2.64003E-02-8.55829E-01
 -1      2907 1.58119E-02-6.63288E-02-9.93485E-01
 -1      2908 5.86138E-02 2.34222E-02-1.63762E+00
 -1      2909 5.84019E-02 2.66256E-02-1.55508E+00
 -1      2910 1.14283E-02 3.05817E-02-2.10081E+00
 -1      2911 3.52791E-02-6.59133E-03-2.09406E+00
 -1      2912-2.75122E-02 3.87535E-02-2.01369E+00
 -1      2913-1.96983E-02-3.77468E-03-2.14914E+00
 -1      2914 4.60551E-03 4.23301E-02-2.05264E+00
 -1      2915 1.16869E-02-4.73793E-02-1.98113E+00
 -1      2916 4.14790E-02-3.24792E-02-1.98091E+00
 -1      2917 1.87442E-02-2.38496E-02-2.11719E+00
 -1      2918-2.96501E-02-2.84900E-02-2.05116E+00
 -1      2919-1.10595E-02 3.37375E-02-2.07324E+00
 -1      2920 7.59617E-03-4.20934E-02-2.01881E+00
 -1      2921-3.34816E-02-1.22271E-02-2.08244E+00
 -1      2922 5.40345E-03 2.48976E-02-2.13016E+00
 -1      2923 2.64442E-02 1.98557E-02-2.09152E+00
 -1      2924 1.65338E-02-2.95838E-02-2.08779E+00
 -1      2925 1.41145E-02 2.41532E-02-2.13008E+00
 -1      2926-9.69525E-03-2.79624E-02-2.12352E+00
 -1      2927 2.42011E-02 3.20029E-02-2.08091E+00
 -1      2928-3.98768E-02-5.87017E-03-2.05682E+00
 -1      2929-2.74102E-02 1.97004E-02-2.10087E+00
 -1      2930-2.49801E-02-1.36385E-02-2.12302E+00
 -1      2931 2.41837E-02 3.94192E-03-2.14183E+00
 -1      2932-5.70413E-03 3.42202E-02-2.08035E+00
 -1      2933-4.22432E-02 2.66952E-02-1.97533E+00
 -1      2934 1.02018E-02-3.09902E-02-2.10621E+00
 -1      2935-1.49661E-04-3.13258E-02-2.10937E+00
 -1      2936 3.20465E-02 2.51223E-02-2.07448E+00
 -1      2937-2.78565E-02-3.76903E-02-2.01068E+00
 -1      2938-2.83910E-03 3.30457E-02-2.09021E+00
 -1      2939 2.49201E-02-1.90478E-02-2.10221E+00
 -1      2940-1.75877E-02 1.71308E-02-2.12485E+00
 -1      2941 3.95878E-02 8.98822E-05-2.06705E+00
 -1      2942-2.41462E-02 7.44490E-03-2.11679E+00
 -1      2943-4.67797E-03-4.58265E-02-2.01370E+00
 -1      2944 7.24764E-03 3.47729E-02-2.08628E+00
 -1      2945 2.04921E-02 2.45576E-02-2.11039E+00
 -1      2946-3.16982E-02 3.02958E-03-2.11657E+00
 -1      2947 4.08262E-02-1.18433E-02-2.05302E+00
 -1      2948-1.80216E-02 3.73685E-02-2.04961E+00
 -1      2949 2.89065E-02 7.99029E-03-2.12305E+00
 -1      2950 1.60154E-03-3.37137E-02-2.06688E+00
 -1      2951-3.55779E-02-1.81032E-02-2.05876E+00
 -1      2952 4.21426E-02-2.27067E-02-2.00853E+00
 -1      2953 1.88066E-02-2.97887E-02-2.08714E+00
 -1      2954 2.85789E-02-4.67961E-02-1.90972E+00
 -1      2955 3.34724E-02-2.10333E-02-2.06274E+00
 -1      2956-3.96244E-02-3.17991E-02-1.98324E+00
 -1      2957 1.40746E-02 4.21746E-02-2.03370E+00
 -1      2958 1.14605E-02-4.11281E-02-2.02006E+00
 -1      2959-3.66288E-02-2.60029E-02-2.02120E+00
 -1      2960 7.97184E-03 3.46618E-02-2.08789E+00
 -1      2961-1.77482E-02-2.67830E-02-2.10369E+00
 -1      2962-3.14174E-02 1.28791E-02-2.09888E+00
 -1      2963 4.70340E-02 2.44388E-02-2.00383E+00
 -1      2964 5.05848E-02 9.60869E-03-2.00205E+00
 -1      2965-1.43278E-02 2.97631E-02-2.09556E+00
 -1      2966 2.68894E-02-3.11742E-02-2.05587E+00
 -1      2967-1.63810E-02-3.96586E-02-2.03288E+00
 -1      2968-4.66047E-02 1.89247E-02-1.98674E+00
 -1      2969-3.20372E-02 2.77418E-02-2.03095E+00
 -1      2970 4.82986E-02 3.42294E-03-2.01557E+00
 -1      2971-2.38190E-02-2.03780E-02-2.10515E+00
 -1      2972 3.53206E-02 8.27222E-03-2.08902E+00
 -1      2973-2.60568E-02 4.42487E-02-1.96468E+00
 -1      2974 3.92428E-02 9.74116E-03-2.07112E+00
 -1      2975-2.97589E-02-6.12037E-03-2.09971E+00
 -1      2976 1.72547E-02 3.24418E-02-2.08278E+00
 -1      2977 2.91580E-02-2.95031E-03-2.11961E+00
 -1      2978-9.77549E-02 1.03524E-01-1.93986E+00
 -1      2979 3.15236E-02-7.19385E-03-2.09002E+00
 -1      2980-5.84887E-03 3.95967E-02-2.05672E+00
 -1      2981-3.06599E-02 2.44959E-02-2.06943E+00
 -1      2982 1.06047E-02-3.66751E-02-2.07943E+00
 -1      2983-5.35892E-02 1.25067E-01-1.94475E+00
 -1      2984-2.08774E-02-3.26252E-02-2.07926E+00
 -1      2985-5.25093E-02-1.25871E-01-1.96585E+00
 -1      2986 1.83500E-02 4.73273E-02-2.00150E+00
 -1      2987-3.24128E-02-1.56285E-02-2.08651E+00
 -1      2988-1.30047E-01 5.90344E-02-1.94911E+00
 -1      2989-1.24447E-01 5.73551E-02-1.94911E+00
 -1      2990 1.26414E-01 5.63332E-02-1.96233E+00
 -1      2991-2.59499E-02 2.33503E-02-2.08371E+00
 -1      2992 3.06184E-02 2.33370E-02-2.07075E+00
 -1      2993 8.69348E-03 3.87497E-02-2.06213E+00
 -1      2994 5.58996E-02-1.31007E-01-1.95744E+00
 -1      2995 1.54700E-01 2.21199E-03-1.95526E+00
 -1      2996-3.56886E-02-6.36313E-03-2.07417E+00
 -1      2997 1.16840E-01 5.20428E-02-1.98667E+00
 -1      2998 1.16705E-01 5.20583E-02-2.05901E+00
 -1      2999-3.63017E-02 4.61990E-03-2.08426E+00
 -1      3000 2.29907E-02-2.61675E-02-2.08556E+00
 -1      3001-1.96485E-02 2.92984E-02-2.07560E+00
 -1      3002 3.45402E-03-1.37542E-01-1.96720E+00
 -1      3003-9.90995E-02-1.01245E-01-1.96038E+00
 -1      3004 9.96562E-02 1.01600E-01-1.95742E+00
 -1      3005-1.68529E-02 3.36342E-02-2.06335E+00
 -1      3006 2.35121E-02 2.97563E-02-2.07756E+00
 -1      3007-8.70900E-02 9.26410E-02-2.03912E+00
 -1      3008-4.99430E-02 1.82746E-03-2.00801E+00
 -1      3009-1.01007E-02-3.51885E-02-2.08726E+00
 -1      3010-4.86715E-02 1.17015E-01-2.03950E+00
 -1      3011 3.79298E-02-7.87657E-03-2.07199E+00
 -1      3012 9.84085E-02-1.02281E-01-1.95561E+00
 -1      3013-3.00578E-02-2.07727E-02-2.08069E+00
 -1      3014 1.27234E-01 1.92260E-03-2.06165E+00
 -1      3015-3.62490E-02 1.14240E-02-2.07227E+00
 -1      3016-4.67836E-02-1.18189E-01-2.06057E+00
 -1      3017 5.45783E-02-1.24656E-01-1.96201E+00
 -1      3018-5.48695E-02 1.31317E-01-1.94510E+00
 -1      3019-2.43333E-03 1.36483E-01-1.95194E+00
 -1      3020-1.15984E-01 5.29337E-02-2.04476E+00
 -1      3021-1.37774E-01 8.27997E-04-1.95769E+00
 -1      3022 3.03227E-03-1.26889E-01-2.06000E+00
 -1      3023 3.07319E-02-2.20335E-02-2.07730E+00
 -1      3024-8.86443E-02-9.00009E-02-2.05925E+00
 -1      3025-3.76711E-02 9.57452E-02-1.98553E+00
 -1      3026 4.92540E-02-1.80645E-02-1.99160E+00
 -1      3027-1.27303E-01 1.94753E-03-2.05122E+00
 -1      3028 2.24852E-02-3.08779E-02-2.07213E+00
 -1      3029-2.13275E-02 3.36693E-02-2.05545E+00
 -1      3030 8.81217E-02-9.08718E-02-2.05581E+00
 -1      3031 1.36187E-01 1.18952E-03-1.96939E+00
 -1      3032 9.91810E-02-6.01477E-04-2.00827E+00
 -1      3033 2.13272E-02 3.38695E-02-2.06635E+00
 -1      3034-1.36862E-01 2.06894E-03-1.95584E+00
 -1      3035 1.56671E-03-1.36316E-01-1.96596E+00
 -1      3036 1.29754E-01-5.67912E-02-1.96495E+00
 -1      3037-9.79625E-02 1.02006E-01-1.94326E+00
 -1      3038-6.81778E-02 7.74160E-02-1.98187E+00
 -1      3039-4.61398E-03-3.72917E-02-2.08251E+00
 -1      3040-5.34084E-02-1.32796E-01-1.96398E+00
 -1      3041-1.33094E-01-4.81623E-02-1.95398E+00
 -1      3042-4.00874E-02 9.02019E-02-1.98415E+00
 -1      3043-3.33305E-02 2.56636E-02-2.05234E+00
 -1      3044 5.01909E-02-1.16344E-01-2.05510E+00
 -1      3045 5.36023E-03-9.98716E-02-2.00642E+00
 -1      3046 4.25477E-02-8.97476E-02-2.00105E+00
 -1      3047-1.18265E-01-4.43892E-02-2.05557E+00
 -1      3048 1.10966E-01 2.55494E-03-2.00012E+00
 -1      3049 8.83337E-02 9.21986E-02-2.05363E+00
 -1      3050-3.90372E-02-9.08987E-02-2.00605E+00
 -1      3051-3.56650E-02-9.71769E-02-2.00495E+00
 -1      3052-9.48107E-02 4.17043E-02-1.99122E+00
 -1      3053-9.05447E-02 4.34301E-02-1.98803E+00
 -1      3054-2.99675E-03 1.26853E-01-2.04226E+00
 -1      3055 9.89166E-02 1.02604E-01-1.95676E+00
 -1      3056-7.12677E-02 7.20959E-02-1.98385E+00
 -1      3057 1.15624E-01-5.14151E-02-2.05871E+00
 -1      3058-1.26753E-02-4.13026E-02-2.01516E+00
 -1      3059 5.06579E-02 1.33048E-01-1.94789E+00
 -1      3060-3.24279E-04-1.00034E-01-2.00642E+00
 -1      3061-7.02654E-02-7.40220E-02-2.00221E+00
 -1      3062-9.61688E-02-9.69226E-02-1.96495E+00
 -1      3063-1.00428E-01 4.04540E-03-1.99582E+00
 -1      3064-1.00789E-01 4.21371E-04-1.99795E+00
 -1      3065 3.91992E-02-9.54417E-02-1.99919E+00
 -1      3066 1.23915E-01-5.59206E-02-1.96453E+00
 -1      3067 9.85184E-02-1.01536E-01-1.96255E+00
 -1      3068 7.05580E-02-7.41795E-02-1.99681E+00
 -1      3069 7.32851E-02-7.05649E-02-2.00264E+00
 -1      3070 6.92864E-02 7.62577E-02-1.99704E+00
 -1      3071 4.72413E-02 1.17744E-01-1.97264E+00
 -1      3072-9.62371E-02-3.37781E-02-1.99572E+00
 -1      3073-1.32290E-01-4.94014E-02-1.96177E+00
 -1      3074-7.06451E-02-6.91414E-02-2.00469E+00
 -1      3075-9.37749E-02-3.89737E-02-2.00274E+00
 -1      3076-3.06476E-03 1.37971E-01-1.94713E+00
 -1      3077 7.28132E-02 7.22200E-02-1.99852E+00
 -1      3078 4.57442E-02 1.18885E-01-2.04659E+00
 -1      3079 9.51406E-02-4.01763E-02-2.00606E+00
 -1      3080-3.66959E-03 1.00076E-01-1.98636E+00
 -1      3081 7.96429E-05 1.00372E-01-1.99141E+00
 -1      3082 9.00462E-02-4.31825E-02-2.00314E+00
 -1      3083 3.59088E-02 8.49026E-02-2.00288E+00
 -1      3084 3.41369E-02 9.79110E-02-1.98909E+00
 -1      3085-8.71447E-05-2.19724E-03-2.02852E+00
 -1      3086 3.06247E-03 1.52879E-03-2.08665E+00
 -1      3087 1.50777E-03-3.58828E-04-2.02832E+00
 -1      3088 8.61170E-04 4.82383E-04-2.04308E+00
 -1      3089 2.35022E-03-2.05206E-03-2.07823E+00
 -1      3090-3.35089E-04 6.45064E-04-2.07553E+00
 -1      3091-2.75134E-03-5.55509E-03-2.08426E+00
 -1      3092 2.40632E-03 2.99487E-03-2.02748E+00
 -1      3093 4.41152E-03-1.80390E-04-2.03688E+00
 -1      3094 7.45720E-04 1.23252E-03-2.00677E+00
 -1      3095 1.31135E-02 1.03847E-02-2.05531E+00
 -1      3096-4.61230E-04-1.17224E-03-2.08607E+00
 -1      3097-8.23652E-03-1.37410E-02-2.05729E+00
 -1      3098-1.63147E-03 2.81083E-03-2.05846E+00
 -1      3099 3.42864E-03-3.23865E-04-2.01035E+00
 -1      3100 2.77337E-03-3.56453E-03-2.04888E+00
 -1      3101 1.70445E-03 5.79156E-04-2.02330E+00
 -1      3102 2.23941E-03 5.63110E-04-2.03005E+00
 -1      3103 1.72808E-02 5.70593E-03-2.06554E+00
 -1      3104-3.64617E-04-7.86781E-04-2.08006E+00
 -1      3105 1.87662E-03-2.79203E-04-2.07559E+00
 -1      3106-3.32094E-03-5.97462E-03-2.01387E+00
 -1      3107-1.90403E-03 1.78228E-02-2.00997E+00
 -1      3108 1.28523E-03-5.35405E-03-2.08774E+00
 -1      3109 2.24804E-03-2.52909E-03-2.03102E+00
 -1      3110 5.07009E-03-1.46256E-02-2.05467E+00
 -1      3111 2.79003E-03 8.78044E-05-2.07834E+00
 -1      3112-2.65311E-03 2.10362E-02-2.03455E+00
 -1      3113 1.44132E-03 1.37738E-03-2.02930E+00
 -1      3114 2.27145E-03-7.51102E-04-2.02094E+00
 -1      3115 9.86756E-03-1.19959E-02-2.05086E+00
 -1      3116 5.89215E-03 6.24422E-03-2.00950E+00
 -1      3117-8.48104E-03 1.43041E-02-2.03400E+00
 -1      3118 8.59239E-03 3.42294E-03-2.01536E+00
 -1      3119 5.27225E-04 5.29779E-03-2.02210E+00
 -1      3120-4.39009E-03 9.27857E-03-2.00011E+00
 -1      3121 1.44481E-03-1.67235E-03-2.02566E+00
 -1      3122 1.68538E-03-7.28262E-04-2.02435E+00
 -1      3123 5.03780E-03 1.55339E-02-2.01360E+00
 -1      3124-1.97368E-02-2.62107E-03-2.06448E+00
 -1      3125 1.06541E-02-5.97580E-03-2.01987E+00
 -1      3126-2.09074E-02 5.72560E-03-2.03044E+00
 -1      3127 6.63245E-03-3.68740E-03-2.01201E+00
 -1      3128-4.21839E-03-1.04156E-02-2.02356E+00
 -1      3129 2.48550E-03-1.03193E-02-2.02203E+00
 -1      3130 6.83886E-03-5.37299E-03-2.08291E+00
 -1      3131 4.06364E-03-6.98791E-03-2.01155E+00
 -1      3132-3.50926E-03 6.90323E-03-1.99447E+00
 -1      3133 2.13791E-03 2.11421E-03-2.07383E+00
 -1      3134 5.88554E-04 6.07375E-03-2.02319E+00
 -1      3135-9.77051E-03 6.52701E-03-2.03101E+00
 -1      3136 4.52554E-05-1.42096E-02-2.06035E+00
 -1      3137 9.82987E-03 1.32587E-02-2.04765E+00
 -1      3138-8.88962E-03-6.73192E-03-2.05869E+00
 -1      3139-3.27728E-03 3.44773E-03-2.05537E+00
 -1      3140 7.92332E-02 3.44659E-02-2.01015E+00
 -1      3141 6.83799E-03-9.63703E-04-2.03303E+00
 -1      3142 2.09701E-02-4.12700E-03-2.06710E+00
 -1      3143-2.06760E-03 2.99201E-03-2.01142E+00
 -1      3144-1.68559E-02 4.67851E-03-2.06224E+00
 -1      3145-2.04954E-02-3.74736E-03-2.03750E+00
 -1      3146 6.19765E-03 1.95178E-02-2.05260E+00
 -1      3147-1.36865E-02 1.20319E-02-2.03110E+00
 -1      3148-5.55342E-03-5.00255E-03-2.01335E+00
 -1      3149 2.01894E-02-1.42847E-02-2.03886E+00
 -1      3150 1.89480E-02-1.46476E-02-2.06480E+00
 -1      3151 1.15709E-02 2.67515E-03-2.02360E+00
 -1      3152 2.86150E-03 1.37188E-02-2.00357E+00
 -1      3153 3.29595E-03 8.84844E-03-2.00185E+00
 -1      3154-4.10899E-03 1.04129E-03-2.01261E+00
 -3
    1PSTEP                         2           1           1          
  100CL  101 1.000000000        3154                     0    1           1
 -4  STRESS      6    1
 -5  SXX         1    4    1    1
 -5  SYY         1    4    2    2
 -5  SZZ         1    4    3    3
 -5  SXY         1    4    1    2
 -5  SYZ         1    4    2    3
 -5  SZX         1    4    3    1
 -1         1-2.53082E+01-3.27829E+01-1.45303E+01 2.85180E-01-1.68690E+00-2.23500E+00
 -1         2-2.98017E+01-4.39225E+01-1.56757E+01 8.78117E-01-1.22799E+00-1.40909E+00
 -1         3-4.84964E-01-1.55798E-01-8.24940E-01-2.60237E-01-2.48978E-01-1.01985E+00
 -1         4-1.46225E+00-2.44865E-01 3.53117E-01 3.70289E-01-1.75503E-01 6.22516E-01
 -1         5-5.35351E+00-1.89936E+00 6.13046E-01-2.59619E-01-9.84315E-03-7.67764E-02
 -1         6-8.03789E-01-9.06171E-01-4.58386E-01 7.16330E-02-4.41867E-01 6.32626E-01
 -1         7-2.03483E+00-1.04748E+00 1.83132E-01 5.07183E-01-1.07678E-01 5.61970E-01
 -1         8-1.36988E+00-5.18562E-01 1.48491E-02 1.75298E-01-1.89128E-01 5.17874E-01
 -1         9 3.52268E-01-1.09230E+00 6.30144E-01 1.48861E-01-7.38574E-01 1.32302E+00
 -1        10 9.04090E-01-4.27937E-02 5.85045E-01 9.50891E-02-7.64927E-02-7.27278E-01
 -1        11-4.73152E+00-1.68172E+00 1.34114E-01 4.82992E-01-7.80700E-01-1.43211E-01
 -1        12-5.65714E-01-1.35735E+00 4.94778E-01-9.18716E-03-1.02226E-01 9.79585E-01
 -1        13 9.73966E-01 5.17529E-02 6.63091E-01 5.86130E-03-4.14869E-02-7.87653E-01
 -1        14-1.01612E+00-4.09479E-01-5.33156E-01-5.41147E-01-3.55735E-01-8.44495E-01
 -1        15-5.16433E-01-4.20426E+00 9.90180E-01-3.23909E-01-1.88661E-02 6.30673E-01
 -1        16-2.53033E+00-1.22500E+00-8.69001E-01 1.41964E+00-5.54872E-01-9.63652E-02
 -1        17-2.60975E+00-7.55055E-01 5.07171E-01-1.62291E+00-2.82750E-01 1.26135E-01
 -1        18-1.02881E+00-7.28875E-01-4.75656E-01 1.56168E-01-2.97407E-01-9.47888E-01
 -1        19-1.24468E+00-9.31317E-01 4.79652E-03-1.81151E-01 7.72043E-02 7.30773E-01
 -1        20-4.40301E+00-2.75240E+00 3.74896E-01-1.29742E+00 4.76826E-01 8.37338E-02
 -1        21-4.22504E+00-1.81744E+00 5.80766E-01-5.99823E-01-8.36678E-02 2.44185E-01
 -1        22-1.42587E+00-6.19250E-01-3.02868E-02 2.09540E-01 1.24862E-01 4.52651E-01
 -1        23 1.39168E+00-4.28919E-01 8.07605E-02 2.43095E-01 1.58737E+00 2.28669E-01
 -1        24 6.03088E-01-1.17574E-01 6.98527E-01 3.12205E-01-3.45621E-01-7.11626E-01
 -1        25 8.39904E-01 1.58673E-01 3.26462E-01 4.18457E-01-1.84295E-01-6.31939E-01
 -1        26-1.46681E+00-6.83916E-01 2.04419E-01 5.22328E-02 1.33302E-01 5.16559E-01
 -1        27-1.95067E+00-2.20594E+00-7.66254E-02 5.33953E-01 3.38316E-01 7.19453E-01
 -1        28-3.38342E-01-1.83329E-01-8.16086E-01-2.48240E-01-2.62276E-01-7.96648E-01
 -1        29 6.10282E-01-1.07955E+00-1.78675E-01 3.88574E-01 1.55071E-01 1.11682E+00
 -1        30-3.13226E+00-4.32708E-02 1.44802E-01 5.68171E-01 5.88765E-02 2.13557E-01
 -1        31-1.05449E+00-2.55802E+00-6.37864E-01-1.41989E+00 6.72632E-01 2.29507E-02
 -1        32-2.49832E-01-1.94437E+00 6.75485E-01 7.65625E-01-5.46344E-02 1.31452E+00
 -1        33-1.06743E+00-3.49943E-01-4.94596E-01 6.99959E-02 4.84132E-01 7.56333E-01
 -1        34-8.17279E-01-8.54242E-01-7.99920E-01-5.57644E-01-1.14813E-01 5.21348E-01
 -1        35-3.11422E+00-4.46383E+00-2.99761E+00 5.60949E-01 8.78721E-01 1.87124E+00
 -1        36-2.01063E+00-2.11991E+00-1.71951E+00-1.23978E-02 6.78762E-01 9.49373E-01
 -1        37-2.76943E+00-5.13336E+00-4.60116E+00 1.50717E+00-5.71337E-01-9.80148E-02
 -1        38-5.73355E+00-8.24669E+00-3.27797E+00 3.50772E+00 9.45233E-01 1.09342E+00
 -1        39-3.79339E+01-4.43802E+01-2.18917E+01 5.00801E+00-3.52407E+00-4.95593E+00
 -1        40-2.00476E+00-1.49541E+00 2.07262E-01-5.80104E-01 4.45445E-01 3.98064E-01
 -1        41-1.04533E+00-1.41869E+00 2.01278E-02-6.99927E-01 2.71575E-01 3.59004E-01
 -1        42-7.75429E-01-7.38151E-01-4.00750E-01-2.24165E-01-7.93796E-01-8.03756E-01
 -1        43 2.57246E-01 2.75580E-01 3.92183E-01 3.39648E-01-3.49951E-01-3.39523E-01
 -1        44 3.28416E-01 3.07488E-01 4.00688E-01 3.26082E-01-3.51042E-01-3.71115E-01
 -1        45-3.28231E+00-3.07509E+00 2.99925E-01 1.93640E+00 3.91389E-01-2.54056E-01
 -1        46-1.40466E+00-1.32342E+00-8.17270E-01 2.94319E-02 8.65641E-01 4.28709E-01
 -1        47-2.25075E-01-6.09749E-01-7.17184E-01-3.54329E-01-6.75783E-01-5.21245E-01
 -1        48-3.21199E+00-3.86369E+00 1.86634E-01-1.46212E+00-3.14822E-01-7.18924E-02
 -1        49-2.16324E+00-2.64235E-01 2.96496E-02-8.12183E-01-8.52359E-02-3.99975E-01
 -1        50-2.28124E-01-2.98677E+00 6.90828E-01-5.01657E-01 4.90482E-02 5.94260E-02
 -1        51-1.88129E+00-4.33832E+00 3.62552E-01-1.29086E+00 1.76340E-01-2.55364E-02
 -1        52-1.99443E-01-1.34300E+00 1.72517E-02-5.71533E-01 3.55693E-01 8.15152E-02
 -1        53-2.10318E+00-3.93850E-01-5.65225E-01-6.03937E-01 3.78279E-01 9.25578E-02
 -1        54-3.29249E+00-4.00532E+00-3.24508E+00 1.51276E+00 4.47414E-01-7.40683E-02
 -1        55-3.46022E+00-4.96626E+00-3.33121E+00 8.59215E-01 1.66067E+00 1.53347E+00
 -1        56-2.39554E-01-9.58157E-01-6.87513E-01-2.59987E-01-1.04999E+00-4.98488E-01
 -1        57-3.70218E-01-4.63129E-01 5.49448E-01-3.64704E-01 7.57286E-02 3.61751E-01
 -1        58-1.56633E-01-2.56248E+00 8.90683E-01 5.20670E-01 1.93631E-01 1.64520E-01
 -1        59-1.01065E+00-2.17562E+00 2.11900E-01-7.33526E-02 7.04659E-01 8.23986E-02
 -1        60-1.26496E+00-1.09393E+00-6.49046E-01-4.20907E-03-1.38965E+00-4.89278E-01
 -1        61-1.05086E-02 2.08232E-01 3.83654E-01 1.97223E-01-3.76194E-01-2.32519E-01
 -1        62-2.50920E+00-4.53623E+00 1.68705E-01-7.73420E-01-1.11224E-01 3.40184E-01
 -1        63 1.53751E-01 6.32823E-01 2.50987E-01 2.29489E-01-4.80384E-01-1.58240E-01
 -1        64-9.98491E-01-2.59430E+00 4.95847E-02 7.52065E-02 3.13254E-01 3.62220E-01
 -1        65-1.47881E+00-4.47371E+00 3.73853E-01-9.54296E-02 2.38635E-01-1.00372E-01
 -1        66-2.62139E+00-4.63087E-01 1.59601E-01 9.18177E-01 8.17750E-01 5.07746E-01
 -1        67-6.12673E+00-2.19818E+00-3.30442E+00 9.33646E-01 3.36127E-01 2.25211E-01
 -1        68-4.40700E+00-1.10314E+00-1.38072E+00 1.18489E+00 5.53189E-01 2.97317E-01
 -1        69-2.75611E-01-2.50098E+00-6.24718E-01 3.22187E-01 4.41689E-02 3.76498E-01
 -1        70-1.00759E+00-8.21794E-01-1.58160E-01 4.31748E-01 7.09192E-01 1.60419E-02
 -1        71-6.41915E+00-3.93121E+00-2.61207E+00 1.42700E+00 2.28218E+00 8.94818E-01
 -1        72-1.95944E+00-8.58293E-01-8.53918E-01-9.81320E-01-1.54514E-01 6.55096E-01
 -1        73-4.19088E-01-7.93022E-01-3.67018E-01-1.15832E-01-1.28127E+00-2.74211E-01
 -1        74-3.42199E-01-1.06070E+00-1.05871E+00 3.51453E-01-1.02323E+00-1.20299E-01
 -1        75-8.99766E-01-1.61752E+00-9.40617E-02 1.59872E-02 5.72189E-01-7.31907E-02
 -1        76-1.69806E-01 7.09598E-01 4.59188E-01-2.52656E-02-5.70823E-01 2.03245E-02
 -1        77-6.10641E-02 6.93083E-01 4.78843E-01-5.35106E-02-5.95559E-01-3.42180E-04
 -1        78-4.08757E+01-3.42014E+01-1.92361E+01 1.81800E+00-4.57522E+00-8.21521E-01
 -1        79-5.55746E-01-1.59380E+00 6.74436E-02 4.33423E-01 2.68590E-01 4.66249E-02
 -1        80-9.70183E-01-1.28304E+00-4.77279E-01-5.63608E-01 9.28398E-01-1.93930E-01
 -1        81-1.73297E+00-5.33654E+00 5.42925E-01 3.65981E-01-7.43132E-02-5.66097E-02
 -1        82-2.09554E+00-3.51489E-01-7.56123E-01 3.16939E-01 6.93836E-01 2.67708E-01
 -1        83-1.02659E+00-4.57456E+00 5.52055E-01-5.11035E-01-5.08210E-03 1.13390E-01
 -1        84-9.21412E+00-2.92032E+00-2.80472E+00 1.19477E+00 6.16165E-01 3.24207E-01
 -1        85-1.19715E+00-2.47486E+00-3.59872E-01 1.59409E+00 1.97875E-01-3.69564E-01
 -1        86-4.59087E+00-2.96022E+00-1.48470E+00-5.84576E-01 1.81877E+00 2.00404E-01
 -1        87-2.66582E-01-1.15496E+00 1.92609E-01 6.47342E-01 4.49115E-02-1.61941E-01
 -1        88-5.53616E-01-2.08917E+00 8.81153E-01-1.45608E+00 3.23941E-01-4.29643E-01
 -1        89-4.99321E+00-3.06517E+00-2.98003E+00-6.08628E-01 1.96091E+00-1.91786E+00
 -1        90-5.77426E-01-1.51918E+00-1.05504E+00-4.93281E-01 5.68090E-01-4.08482E-01
 -1        91-3.58669E+01-3.88212E+01-1.96892E+01-1.50914E+00-4.25011E+00 4.91931E-01
 -1        92-1.23981E+00-2.58797E+00 3.57210E-01-6.37411E-01 6.00023E-02 7.18045E-01
 -1        93-6.91891E-01-9.49825E-01-7.46504E-01-1.13374E-01-1.19425E+00 2.44526E-01
 -1        94-1.63653E+00-4.42803E+00 6.73652E-01 4.86561E-01-9.31523E-02 3.37043E-01
 -1        95-1.63064E+00-8.57201E-01 4.14221E-02 5.71381E-01 2.87637E-01 5.34175E-03
 -1        96-2.23120E+00-4.36942E+00 5.92866E-01 1.32848E+00-1.70566E-02-5.49288E-02
 -1        97-1.32082E+00-2.32345E+00 1.66380E-02 4.94146E-01 5.15270E-01-3.32269E-01
 -1        98-1.82977E+00-7.90418E-01 7.77027E-01 1.51152E+00 4.61373E-01 1.71214E-01
 -1        99-1.72190E-01 4.93358E-01 5.58031E-01-1.89100E-01-6.54023E-01 1.37904E-01
 -1       100-1.98343E-01-1.98304E+00-6.42194E-01 1.41222E-02 4.75132E-01-3.27022E-01
 -1       101-1.43283E-01-7.11921E-02 8.38720E-01-5.35784E-02 1.43783E+00-5.90056E-01
 -1       102 9.21345E-02 6.25386E-01 8.21347E-02-1.96805E-01-4.06575E-01 8.02180E-02
 -1       103-2.03221E-01-1.02983E+00-4.71020E-01 1.05032E-01-7.80122E-01 2.45898E-01
 -1       104-1.32158E+00-1.69170E+00 2.11039E-01 8.49109E-01 4.76558E-01-1.49726E-01
 -1       105-3.50291E+00-1.63360E+00-8.25126E-02-5.55229E-01 7.01626E-01-1.83409E-01
 -1       106-1.50331E+00-9.06700E-01-2.14298E-01-1.41064E+00 1.03397E-01-2.76152E-01
 -1       107-7.07024E+00-4.71639E+00-4.18338E+00-2.72919E+00-9.02297E-01-5.02605E-01
 -1       108-6.24257E-01-8.24951E-01-7.11166E-01 3.42885E-01-1.02784E+00 8.28486E-01
 -1       109-1.95699E+00-1.36639E+00 1.70529E-01 6.76136E-01 3.69275E-01-4.23941E-01
 -1       110-1.33635E+00-1.42960E+00-4.86814E-02 5.50977E-01 2.35988E-01-6.29996E-01
 -1       111-3.00145E+00-9.46135E-01 3.35018E-01-5.09786E-02-5.67466E-01-5.84108E-01
 -1       112-3.70279E+00-3.37523E+00 3.11612E-01 1.46196E+00 2.30251E-01 1.35085E-01
 -1       113 4.56170E-01 2.67261E-01 5.98205E-01-5.62722E-01-4.72107E-01 5.79560E-01
 -1       114-1.85846E-01-7.07400E-01-9.02021E-01 4.02202E-01-9.28471E-01 4.93120E-01
 -1       115 5.50507E-01 3.12096E-01 7.00759E-01-4.75606E-01-5.30206E-01 6.21299E-01
 -1       116-8.02011E-01-1.53118E+00-1.89835E+00-1.47050E-01 1.16150E+00-1.21770E-01
 -1       117-3.09823E+01-2.85080E+01-1.71556E+01-5.47627E+00-2.01293E+00 1.67140E+00
 -1       118-1.86976E-01-2.46376E+00-1.32161E-01 5.79919E-01 9.50667E-02 5.81567E-02
 -1       119-6.53641E-01-1.06264E+00 7.54665E-01-1.02253E+00 5.82081E-01-1.13690E+00
 -1       120-1.21516E+00-2.42929E+00-8.94231E-01-1.32920E+00 1.76020E-01-1.20795E+00
 -1       121-4.09843E+00-2.15543E+00 5.10961E-01 1.06772E+00-1.32633E-03-5.04793E-01
 -1       122 1.34139E-01 5.53122E-02-5.52638E-01 4.14507E-01 4.52602E-01-7.77093E-01
 -1       123-2.04397E+00-2.52562E-01-1.17680E-01 6.62731E-01 1.28497E-01-2.10892E-01
 -1       124-3.44082E+00-3.48450E+00-1.65190E+00-9.20634E-01 7.04252E-01-1.62308E+00
 -1       125-3.37422E+00-5.46890E+00-3.25895E+00-2.01295E+00 9.06661E-02 1.33968E-01
 -1       126-3.99400E-01-1.45779E+00-6.59470E-01 4.59553E-01 1.29482E-01-4.46931E-01
 -1       127-1.00667E+00-7.76106E-01-6.01415E-01-1.82998E-01-2.91876E-01 1.30637E+00
 -1       128-1.97509E-01-6.87559E-03 6.94257E-02-2.54032E-01-2.60767E-01-4.78489E-02
 -1       129-1.97099E+00-6.57290E-01 3.85147E-01-4.18833E-01 8.09852E-03-3.23477E-01
 -1       130-5.17159E+00-2.01366E+00 2.94748E-01 5.31077E-01 1.66641E-01 6.08451E-02
 -1       131-2.76395E+00-1.03425E+00 3.03170E-01 1.68204E-01 1.29371E-01-4.29652E-01
 -1       132-1.02083E+00-1.92947E-01-4.99213E-01 1.36916E-01-2.70827E-01 8.40273E-01
 -1       133 1.87129E-01-4.14244E-01 3.99313E-01-5.60544E-01 1.04565E+00-1.50517E+00
 -1       134-8.13673E-01-3.42139E+00-4.31232E-01-5.69372E-01 3.20236E-01-5.12539E-01
 -1       135 2.40107E-01 1.43543E-01 2.25550E-01-2.18443E-01-1.70020E-01 2.66466E-01
 -1       136-3.75394E-01-5.28161E-01 3.87552E-01 1.73476E-01 4.83529E-01-1.10623E+00
 -1       137-1.11951E+00-1.79058E+00-6.08570E-01 1.18447E+00 2.20125E-01 2.96401E-01
 -1       138-5.32923E+00-1.70701E+00 8.93315E-02-6.66659E-02-6.10206E-01-4.74896E-01
 -1       139-5.68723E-02-1.15125E+00-5.93024E-02-8.70717E-01 3.33851E-01-5.71678E-01
 -1       140-6.33985E+00-1.45653E+01-4.91253E+00-2.96198E+00-8.61524E-01-3.49124E-01
 -1       141-1.61161E+00-2.21092E+00-1.45628E+00-5.52430E-01 3.72654E-01-9.22066E-01
 -1       142-2.75353E+00-4.26362E+00-1.62797E+00-1.50469E-01-5.28973E-01-1.73375E+00
 -1       143-2.32958E+00-1.16882E+00 6.33461E-03 5.92574E-01 2.65998E-02-7.29091E-01
 -1       144-1.04770E+00-1.24779E+00-6.19566E-01 9.27817E-01-1.86900E-02-4.56828E-01
 -1       145-4.30817E+00-5.06451E-01-9.40095E-01-8.51279E-01-6.32762E-01-4.07693E-01
 -1       146-1.24710E+00-1.26112E-02-7.30735E-01-8.68029E-02-3.74314E-02 8.60673E-01
 -1       147 3.12731E-01-1.42402E-01 2.02371E-01 1.43803E-01 1.15680E-01 2.51571E-01
 -1       148-5.10531E+00-2.18546E+00 2.66600E-01-7.34244E-01 2.05798E-01 3.15562E-02
 -1       149-4.69074E+00-2.11715E+00 7.84296E-02-1.35552E+00-6.70780E-01-2.23866E-01
 -1       150-2.77110E+00-1.14842E+00 2.11778E-01-4.49660E-01-8.26646E-02-5.85924E-01
 -1       151-1.75106E+00-5.35551E-01-3.37203E-01 8.28169E-01 6.92207E-02 2.85907E-01
 -1       152-2.17807E+00-9.27049E-01-1.25323E-01-1.68587E-02-3.66281E-01-5.74134E-01
 -1       153-3.05509E+00-1.52869E+00-6.18507E-01-1.93769E+00-5.53665E-01-2.01443E-01
 -1       154-9.37047E-01-4.86512E-01-5.01526E-01-1.67929E-01 4.74769E-02 1.40159E+00
 -1       155 3.28099E-01-5.14119E-02 4.46783E-02 1.23941E-01 1.36232E-01 1.75870E-01
 -1       156-2.47156E-01-2.37981E+00-5.42068E-01 2.12958E-01-5.94793E-01-6.81829E-01
 -1       157-9.53978E-01-9.42299E-01 1.67825E-01-2.86307E-01 2.76796E-01-8.34321E-01
 -1       158-1.71987E+00-4.99082E+00-2.26464E+00 3.07057E-01-9.82708E-01-1.19551E+00
 -1       159-2.12010E+00-6.75463E-01-1.89603E-01-1.11781E+00 2.60881E-02-1.82591E-01
 -1       160-1.33776E+00-3.18047E+00-6.58314E-01 6.38416E-02 1.12517E-01-6.40294E-01
 -1       161-3.15949E+00-5.03074E+00-2.17449E+00-5.60169E-04-1.95943E-01-1.04511E+00
 -1       162-1.29983E+00-4.34884E-01-5.01629E-01 5.40661E-01-1.66342E-01-3.17525E-01
 -1       163-5.06271E-01-3.00864E-01-9.53005E-01-1.00394E-01 8.07805E-01 1.08250E+00
 -1       164-4.81637E+00-2.30699E+00 4.30086E-01-5.88464E-01-3.19023E-01-7.39983E-03
 -1       165-6.23536E-01-1.28804E+00 4.86198E-02-9.17772E-01-7.18678E-02-9.12130E-02
 -1       166-1.68256E+00-7.99998E-01 1.23193E-01 3.88778E-01-4.06993E-01-1.87868E-01
 -1       167-2.43712E+00-1.06416E+00 2.76101E-01 4.96350E-02-1.92611E-01-2.89450E-01
 -1       168-3.21244E+00-1.57799E+00 4.81959E-01 1.01029E+00 8.05082E-01-4.06021E-01
 -1       169-8.52137E-01-1.25441E+00-7.65630E-02-1.89001E-01 2.12342E-01-4.61452E-01
 -1       170-1.48341E-01-1.01664E-02 1.52234E-01 2.28870E-01 2.61728E-01 5.19995E-02
 -1       171 4.45560E-01 1.00021E-01 2.80527E-01 2.39068E-01 1.82428E-01 4.06415E-01
 -1       172-5.00377E+00-1.60844E+00 8.62459E-01 1.99696E-01 1.18289E-01-4.10147E-01
 -1       173-9.17241E-01-1.56974E+00-1.11351E+00-1.78798E-01-6.62979E-01-7.20515E-01
 -1       174-1.67573E+00-8.83858E-01 2.68941E-01-3.09400E-01-1.06892E-01-4.79507E-01
 -1       175-1.27495E+00-9.68574E-01-2.30698E-01 3.43623E-02-2.09470E-01-5.54127E-01
 -1       176-4.15401E-01-3.57757E-01-6.42443E-01-2.71211E-01 6.28929E-01 9.04406E-01
 -1       177 6.59829E-01-2.02742E+00 5.96414E-01 4.11159E-01 4.25760E-01-1.25504E+00
 -1       178-2.02222E+00-5.50721E+00-1.49534E+00 1.44785E+00 4.58860E-01-5.56136E-01
 -1       179-9.22707E-01-5.76507E-01-4.64971E-01-2.09047E-01 9.95965E-01 8.06992E-01
 -1       180-9.76540E-01-1.48697E-01-1.11295E+00-4.11534E-01 5.54283E-01 7.68917E-01
 -1       181-3.52055E+00-1.11179E+00 6.73354E-01-1.33049E-01 4.78836E-01-8.18435E-01
 -1       182-1.36135E+00-7.06017E-01 2.47724E-01-1.53114E-01-3.91033E-01-2.96476E-01
 -1       183-6.69010E-01-2.03738E+00-1.79122E-01-1.18680E-01 3.40826E-02-4.75367E-01
 -1       184-1.61177E+00-2.03251E+00-2.58914E-02-7.08490E-01-1.47740E-01-2.42212E-01
 -1       185-3.20616E-02 7.35311E-01 1.79016E+00 8.22733E-01-2.21875E+00-1.40110E+00
 -1       186 2.04382E-01 6.03650E-02 1.76037E-01 1.39666E-01 1.13781E-01 1.95700E-01
 -1       187-2.00737E+00 1.92077E-01-6.55582E-01 1.23196E+00-6.51212E-01-3.22183E-01
 -1       188-9.25340E-01-2.64952E+00 4.91674E-02-7.31817E-01 1.26544E-01-1.55513E-01
 -1       189 1.81854E-01 9.44390E-02 2.27266E-01 1.27699E-01 1.43065E-01 2.03286E-01
 -1       190-1.50625E+00-2.68890E+00-5.50102E-01 6.17017E-01-5.74943E-01-1.73476E-01
 -1       191-4.11323E+01-3.82863E+01-1.91273E+01 3.84388E+00 2.27822E+00 3.53691E+00
 -1       192-4.30373E+00-3.63287E+00 2.16876E-01-1.64032E+00-2.59009E-01 7.92337E-02
 -1       193-2.19404E+00-1.36945E+00-1.60968E+00 1.44164E+00-1.13805E+00 4.45442E-02
 -1       194-5.30747E+00-2.12468E+00 8.19235E-01-1.59892E+00-1.73725E-01-7.69730E-01
 -1       195-8.33543E+00-4.87617E+00-5.90621E+00 2.44101E+00-3.59719E-01 9.41108E-01
 -1       196-8.36377E-01-2.52788E+00-1.05076E+00 7.23549E-01-6.36013E-01-2.50534E-01
 -1       197-3.16132E+00-3.28025E+00-3.41413E+00 1.33259E-01-1.01071E+00-8.43418E-01
 -1       198-3.43883E-01-3.23695E+00-6.75228E-01-5.71579E-01-4.28579E-01 3.11959E-01
 -1       199-3.93357E+01-3.86440E+01-1.83732E+01 3.97546E+00 3.54580E+00 2.27334E+00
 -1       200-1.09392E+00-6.50672E-01 1.19705E+00-7.84548E-01-2.33808E-01-2.57544E-01
 -1       201-1.97663E+00-4.93451E+00 5.86504E-01-4.03996E-01-1.86139E-01-1.71414E-02
 -1       202-2.85420E-01-5.37382E-01-4.80703E-01-8.40432E-02 7.14037E-01 2.72677E-01
 -1       203-2.23069E+00-4.76530E+00 3.93754E-01-1.17717E+00 1.67668E-01-2.24768E-01
 -1       204-1.35084E+00-7.04846E-01-7.40228E-01 2.07835E-01 1.05244E+00 1.31966E-01
 -1       205-9.52065E-01-1.72399E+00 8.63332E-02-4.87739E-01-6.31181E-01-9.26490E-02
 -1       206-2.52921E-01 2.14093E-01 3.53796E-01 1.01082E-01 4.20049E-01 3.26629E-02
 -1       207 5.14694E-02-3.63214E+00 4.47666E-01 6.70720E-01-2.67023E-01-2.36924E-01
 -1       208-5.70493E-01 7.26830E-01 1.42083E-02-4.43706E-02-1.01271E+00-3.80156E-01
 -1       209-9.66606E-01-2.00044E+00 2.59184E-02-1.67471E-01-4.85412E-01-1.56513E-01
 -1       210-1.53759E-01 4.56873E-01 1.40822E-02 1.45456E-01 3.03182E-01 2.85510E-02
 -1       211-6.55823E-01-1.09556E+00-1.56213E-02 2.68881E+00-8.88493E-01-9.94064E-01
 -1       212-8.35294E+00-3.66838E+00-2.48484E+00 2.83510E+00-6.95691E-01-1.32106E+00
 -1       213-7.09462E-01-8.04262E-01-7.52242E-02-7.71677E-01-2.91642E-01-3.10565E-01
 -1       214-7.85040E+00-4.52777E+00-5.49445E+00 2.51966E+00 3.23843E-01-1.07537E-01
 -1       215-6.23788E-02-1.93905E+00-2.32910E-01 4.58328E-02-3.67224E-01-9.13875E-02
 -1       216-1.85958E+00-2.76788E+00-1.05044E+00 3.52817E-01-1.21392E+00 1.48359E-01
 -1       217-2.47411E-01-1.04910E+00-7.20084E-01-2.03949E-02 1.35642E+00-2.01149E-02
 -1       218-1.94309E+00-5.18425E+00 4.47881E-01 2.32079E-02 1.66183E-01-1.13919E-01
 -1       219-7.06687E-03-1.00682E+00-6.11864E-01 3.44513E-01 1.16243E+00-4.07780E-01
 -1       220-9.13075E-01-2.54830E+00 7.65704E-04 1.11356E-01-5.70997E-01 9.86128E-02
 -1       221-2.32490E-02 5.24904E-01 3.39671E-01 5.48512E-02 4.22249E-01 4.41240E-02
 -1       222-8.89273E-03 5.87521E-01 3.34747E-01 3.58258E-02 4.47165E-01 3.51379E-02
 -1       223-2.06687E+00-1.14522E+00 1.16740E-01 5.34245E-01-8.83457E-01 1.82352E-01
 -1       224-5.20435E-01-3.52696E-02-9.55435E-02 4.17904E-01-1.54634E+00 1.61491E-02
 -1       225-1.83192E+00-1.73079E+00-1.16522E+00 2.86686E-01-7.95967E-01 5.35856E-01
 -1       226-3.30179E+01-3.00350E+01-1.65823E+01-9.74779E-01 3.06038E+00 7.03793E-01
 -1       227-2.02394E+00-4.62356E+00 1.07731E-01 7.47656E-01 2.54078E-01 6.34792E-01
 -1       228-3.02522E+00-3.55172E-01-7.84197E-01-4.18194E-01-9.52710E-01 5.92251E-01
 -1       229-7.61263E-01-2.11938E+00 1.02154E-01-1.31346E+00-9.60404E-02 1.54285E-02
 -1       230-1.37897E+00-5.19870E-01-9.61344E-01-5.91266E-01-8.24498E-01-4.01057E-01
 -1       231-9.95987E-01-2.90788E+00 3.43054E-03 5.00237E-01-4.12853E-01-1.47789E-01
 -1       232-5.59004E-01-2.02072E+00-3.01518E-01 9.42406E-01-3.48831E-01-7.11950E-03
 -1       233-5.32199E-01-1.63752E+00-6.33093E-01-6.67318E-01-4.19635E-01 1.98828E-01
 -1       234-1.33740E+00-2.88946E+00-8.66582E-01 1.62182E+00 1.09072E-01 5.45700E-01
 -1       235 1.37160E-01-6.22106E-02 2.93183E-01-4.93378E-01 6.54612E-02-5.74363E-01
 -1       236 3.14684E-01 3.61110E-01 4.58029E-01-5.61154E-01 4.54199E-01-3.76329E-01
 -1       237-7.97155E-01-5.27534E-01 1.85774E+00 4.92926E-01-7.09904E-01 3.99634E-01
 -1       238-8.07414E-01-1.85332E+00-2.50687E-02 1.32331E-02-4.73580E-01 2.62234E-01
 -1       239-6.02474E-01-1.33388E+00-5.93126E-02 2.84274E-01-4.39243E-01 1.89099E-01
 -1       240-1.62676E+00-4.56530E+00 1.13905E-01 4.07642E-01-1.33599E-01-7.47941E-01
 -1       241-8.91860E-01-1.24981E+00-7.25108E-01 2.99952E-02 1.65625E+00-3.70719E-01
 -1       242-5.42831E-01-5.77039E-01 1.03579E-01 6.26708E-01-1.36693E-01 2.85347E-01
 -1       243-5.17575E-01-4.35557E-01 8.00140E-01-1.30258E-01-1.69423E+00 3.70268E-01
 -1       244-3.63510E+01-2.88126E+01-1.68623E+01-2.06301E-02 1.32438E+00-3.13273E+00
 -1       245-1.67524E-01-1.25791E+00-6.34568E-01 2.72696E-01 1.28498E+00-3.70198E-01
 -1       246-4.85044E-01-1.70034E-01 4.01915E-01-7.47939E-01-1.64056E+00-2.35524E-01
 -1       247-2.24207E+00-4.44310E+00 5.78648E-01 8.58729E-01-3.45657E-01 6.72122E-02
 -1       248-2.96981E+00-8.97849E-01-3.80091E-01-5.17361E-01-1.04658E+00 9.68465E-01
 -1       249-4.44155E-01-3.55340E+00-9.18076E-01-6.05093E-01-1.77833E-01-5.87180E-01
 -1       250-2.53126E+00-2.34084E+00-1.63327E+00-8.68698E-01-1.44054E+00 3.78455E-01
 -1       251-2.26786E+00-1.77287E+00-1.03021E+00-7.74272E-02-4.96966E-01 4.65164E-01
 -1       252-5.55578E+00-3.95165E+00-5.92343E+00-2.28620E+00-6.83273E-01-1.61668E+00
 -1       253-1.36962E-01-1.73394E+00-3.96116E-01-7.93025E-02-2.65825E-01 2.05517E-01
 -1       254-7.76556E-01-6.04377E-01-3.85525E-01 1.92747E-01 6.70694E-01-9.74472E-01
 -1       255-6.18106E-01-1.48624E+00 7.52362E-01 1.56045E-01-3.07867E-01 1.46854E-01
 -1       256-1.10475E+00-1.64501E+00 3.83805E-01 4.67258E-01-4.96654E-01 2.65681E-01
 -1       257 1.74511E-01 2.14243E-01 2.86219E-01-2.47932E-01 2.62892E-01-2.40292E-01
 -1       258 1.88657E-01 2.46633E-01 2.50044E-01-2.28227E-01 2.60860E-01-2.17249E-01
 -1       259-2.05109E+00-8.82338E-01 1.21716E+00-1.52005E+00-1.05224E+00-4.32692E-01
 -1       260-1.83974E-01-4.70438E-01-9.66294E-01 3.03081E-01 6.09022E-01-5.05394E-01
 -1       261-2.77405E-01-1.15065E+00 1.52019E+00 2.93289E-01-5.12508E-01 1.75146E+00
 -1       262-1.09090E+00-1.03468E+00-3.36287E-02 4.34547E-01-4.62419E-01 6.79851E-02
 -1       263-1.56487E+00-2.31201E+00-6.65692E-01-4.70788E-01-1.05104E+00 1.15555E+00
 -1       264-3.45835E+00-2.37826E+00 5.22660E-01 1.32356E+00 1.26494E-01-2.98431E-02
 -1       265-2.82330E+00-2.78301E+00-3.61554E-02 1.20116E+00-1.34741E-01-9.33305E-01
 -1       266-8.19788E+00-5.51608E-01-2.98267E+00-1.23255E+00-1.45341E+00-3.56227E+00
 -1       267-2.73119E+00-3.79503E-02 3.29046E-01 6.76551E-01-2.19635E-01 5.16411E-02
 -1       268-3.90667E-01-1.53350E-01 3.35734E-01-2.03053E-01-3.70609E-01 5.37197E-01
 -1       269-9.90073E-01-2.21032E-01-3.78973E-01 2.67510E-01-2.41875E-01 1.67768E-02
 -1       270-2.53081E+00-2.22905E+00-7.63732E-01-4.66549E-01-1.56476E+00 1.27480E+00
 -1       271-7.16617E-01-2.70877E+00-1.46832E+00 6.20903E-01-1.31142E-01-8.86238E-01
 -1       272-1.93415E+00-2.36264E+00-1.59582E+00-7.90600E-01-1.19115E+00 1.36280E+00
 -1       273-3.74297E+00-7.53229E+00-4.00333E+00-2.03691E+00 1.90655E+00 1.15203E+00
 -1       274-2.52458E+01-3.33961E+01-1.39944E+01-1.95311E+00-2.48286E-01-4.70795E-01
 -1       275-8.77957E-01-9.94982E-02-2.95951E-01 1.97262E-01 5.06727E-02-8.41810E-01
 -1       276-8.80505E-01-5.07620E-01-7.60643E-01 7.68312E-02 1.23336E-01-1.27282E+00
 -1       277-5.40181E+00-1.98464E+00 3.77334E-01 2.57207E-01 2.46061E-01 3.22716E-01
 -1       278-1.15624E+00-5.28223E-01-1.04633E-01-2.47942E-01-2.61713E-01 2.51969E-01
 -1       279-1.09093E+00-1.82963E+00 4.67270E-01-2.53973E-02-9.34229E-01-5.12312E-01
 -1       280 3.87756E-01 2.45751E-02 5.35721E-01-3.84618E-01 4.34164E-01-4.56972E-01
 -1       281-1.40697E+00-9.09996E-01 9.99504E-02 1.58767E-02-2.16946E-01 4.36846E-01
 -1       282 5.28466E-01 2.51359E-01 3.35823E-01-4.77469E-01 2.61926E-01-4.71700E-01
 -1       283-4.71858E+00-1.98644E+00 4.64476E-01 6.81773E-01-3.18668E-01-8.91465E-02
 -1       284-5.03645E-01-1.91794E+00 8.84513E-02-7.02130E-01-2.30202E-01 9.90063E-01
 -1       285-6.77119E+00-1.27441E+01-7.31774E+00-3.39501E+00-3.85753E-01-3.21074E-01
 -1       286-1.41405E+00-3.15758E+00-9.81498E-01-1.18057E+00-1.46725E-01 5.21013E-01
 -1       287-1.46899E+00-1.93672E+00 2.62704E-02-4.48617E-01-8.44176E-02 3.88410E-01
 -1       288-1.46938E+00-8.25110E-01 5.20731E-02-9.52150E-02-2.77339E-01 2.51322E-01
 -1       289-5.80689E-01-5.12411E-01-5.16918E-02 5.58228E-01-2.25468E-01 2.09510E-01
 -1       290-1.24053E+00-1.26738E+00-8.27119E-01-2.08212E-01-3.06879E-01 6.37900E-01
 -1       291-1.53108E+00-1.98528E+00-1.19018E+00 8.72482E-02-6.79164E-01 1.25112E+00
 -1       292-4.17901E+00-2.12811E-01-2.07075E-01-7.75598E-01 1.70625E-01 3.13582E-01
 -1       293-3.42524E+00-5.24723E+00-5.24953E+00-8.35488E-01 3.56049E+00 3.17984E+00
 -1       294-2.27136E+00-7.01009E-01 6.55591E-01 1.48456E-02 2.05952E-01 7.30247E+00
 -1       295-5.33024E+00-9.46319E+00-4.43803E+00-2.11798E+00-3.71949E+00-1.53170E+00
 -1       296-2.65966E+00-2.98366E-01 5.23900E-02 1.41313E-01 2.34892E+00 3.53562E+00
 -1       297 5.94614E+00-5.26220E+00 3.05873E-01 2.16220E+00 3.99994E+00-6.34669E+00
 -1       298 0.00000E+00 0.00000E+00 0.00000E+00 0.00000E+00 0.00000E+00 0.00000E+00
 -1       299 2.30051E+00 1.61741E+00 1.17538E+00-9.03519E-01-2.06870E+00 1.58520E+00
 -1       300-9.39723E+00-8.05673E+00-5.23619E+00 3.49568E+00-5.98829E+00 5.94556E+00
 -1       301 4.61476E+00 3.26625E+00 2.36430E+00 1.51500E+00-2.70933E+00-3.00326E+00
 -1       302 2.83771E-01 4.06906E+00-5.35825E+00 1.36669E+00-7.07232E-01-5.86862E-01
 -1       303-3.80350E+00-8.65071E+00-3.73626E+00-6.55547E-01 4.49346E+00 8.87531E-01
 -1       304 1.48631E+00 2.61271E+00 8.94658E-01 9.73276E-01-2.99270E-02 1.03604E+00
 -1       305 0.00000E+00 0.00000E+00 0.00000E+00 0.00000E+00 0.00000E+00 0.00000E+00
 -1       306 6.67691E-01 8.27461E-01 9.16964E-01-2.54530E+00 1.46968E+00-6.79361E+00
 -1       307-4.19306E+00-6.69595E+00-2.51387E+00 2.56188E+00 4.87545E+00-4.59977E+00
 -1       308-2.90211E+00-3.77253E+00-5.24132E+00 4.89453E-01 4.01430E+00-7.65303E-01
 -1       309 0.00000E+00 0.00000E+00 0.00000E+00 0.00000E+00 0.00000E+00 0.00000E+00
 -1       310-6.19384E+00-1.31187E+01-5.79377E+00 1.74005E+00 6.93990E+00-1.35309E+00
 -1       311-1.74099E+00-3.19572E+00-6.74185E+00-4.22626E-01 3.58121E+00-2.74069E+00
 -1       312-5.75137E+00-3.60656E+00-8.26715E-01 3.99551E+00 1.91086E+00-1.61882E-01
 -1       313-1.19326E+01-7.26812E+00-4.01928E+00-5.03798E+00 2.94301E+00 1.48245E+00
 -1       314 9.67535E-01 2.64906E-01 2.08376E+00 2.10083E-01 9.85903E-01 7.52088E+00
 -1       315 2.34717E-01 4.36456E+00 1.46637E-02-8.42381E-01-5.43980E+00 3.61662E+00
 -1       316 1.35338E+00 2.57410E-01-7.30689E-01 6.10774E-02 1.05704E+00-7.21070E-01
 -1       317-8.06954E+00-6.28140E+00-4.54576E+00 5.91505E+00-1.29348E+00 6.55677E+00
 -1       318-4.20493E+00-1.00088E+00-1.21122E+00 2.20022E+00-3.14130E+00 1.00141E+00
 -1       319-3.96297E+00-1.77667E+00 5.73393E+00 2.39707E+00-1.76408E+00-1.78069E+00
 -1       320-6.86850E+00-4.50844E+00-3.41308E+00-1.97179E+00 2.12813E+00 3.20727E+00
 -1       321 1.00417E+00-1.89170E-02 2.30253E+00-2.70136E-01 4.06755E+00 3.32015E+00
 -1       322-8.49008E+00-1.39071E+01-6.71916E+00-3.72110E+00 6.71589E+00 4.46433E+00
 -1       323-3.45436E-01-3.66296E+00 2.03909E+00 2.51117E-01 1.64699E+00 5.26568E-01
 -1       324-2.68079E+00-6.73405E+00-3.23077E+00 1.01150E+00 5.09240E+00-2.79032E+00
 -1       325-1.33471E+01-9.40650E+00-6.82607E+00-4.16542E+00-3.90559E+00-6.13710E+00
 -1       326 3.69879E+00-1.22404E+01-2.78640E+00 5.04939E+00 3.96016E+00-5.63144E+00
 -1       327-1.89877E+00-1.04456E+00-8.44855E-01-3.39882E+00 1.65562E+00-7.54542E+00
 -1       328 3.21597E+00 2.03614E+00 3.75325E+00 1.06400E-02-1.02380E+00-6.09147E+00
 -1       329-2.88756E+00-1.84863E+00-1.02767E+00-1.63880E+00-2.30286E-01-2.11254E+00
 -1       330-3.97001E-01-7.65449E-01-1.01339E+00-2.47042E-01 8.74047E-01-9.56927E-01
 -1       331 2.07424E-01-9.87031E-01 3.16597E-01-6.56689E-01 4.23258E-01-1.22254E+00
 -1       332-1.18830E+00-1.99366E+00-9.63486E-01-5.91989E-01-8.97969E-01-1.58235E+00
 -1       333 1.04373E+00-1.41676E+00 8.99884E-01-1.43480E-01-7.20085E-01-1.64450E+00
 -1       334 8.78888E+00 4.01649E+00 3.84161E+00 9.32102E-01-1.59059E+00-7.92939E+00
 -1       335 8.28520E+00 2.31895E+00 4.16601E+00-3.46882E+00-2.15857E-01-4.51004E+00
 -1       336-2.47289E+00-1.95894E+00-2.45821E+00-2.50135E-01 9.13197E-01-8.54407E-01
 -1       337-2.87000E+00-3.68894E+00-2.10572E+00-1.19661E+00 1.59772E+00-7.12203E-01
 -1       338-4.51507E-01 1.37847E-01 1.64929E-01-1.22256E+00 9.90748E-01-1.41729E+00
 -1       339 1.22081E+00 1.06501E+00 6.71768E-01 1.38493E+00-1.67753E+00-1.36409E+00
 -1       340-1.89904E+00-4.02284E+00-2.15372E+00-5.16593E-02-1.04426E+00-5.50633E-01
 -1       341 5.03798E+00 4.90655E+00 2.98336E+00 1.98895E+00-5.99159E+00-5.98752E+00
 -1       342 1.50043E+00-3.67758E-01 2.56283E-02 1.15079E+00-1.05407E+00-7.44961E-01
 -1       343 3.21293E-01 2.82418E-01 9.92671E-01 3.37082E-01-4.04998E-01-1.36419E+00
 -1       344-6.10141E+00-1.00008E+01-3.10699E+00-3.60327E+00 1.40316E-01 3.47019E-01
 -1       345-2.13380E+00-1.29175E+00 2.53229E-01 2.06551E-01-7.55926E-01-3.21132E-01
 -1       346-2.67625E+00-2.06403E+00-3.16548E+00 6.70742E-01-1.06523E+00-1.31871E+00
 -1       347-7.42414E+00-7.71856E+00-4.73380E+00 3.57010E+00-7.09758E-02 1.08464E-02
 -1       348-9.77936E-01-5.06804E-01 8.08245E-01-2.29255E-01 5.51589E-01-5.24077E-01
 -1       349-1.29662E+00 6.49966E-01 1.32184E-01-9.89067E-01 8.74454E-01-3.54399E-01
 -1       350-5.32520E+00-2.94113E+00-3.89798E+00-1.74617E+00 6.67025E-01 1.39500E-01
 -1       351-5.69662E+00-2.96890E+00-2.06214E+00-5.72011E-01 1.01512E+00-1.08564E+00
 -1       352-3.52160E+01-5.09674E+01-1.97357E+01-2.52998E+00 7.19456E-01 3.72533E+00
 -1       353-3.71023E+00-9.42789E+00-3.63970E+00-9.33492E-01 4.97652E-01-3.69566E-01
 -1       354-4.24133E+01-5.00678E+01-2.32543E+01-3.09409E+00 1.24315E+00 5.54709E+00
 -1       355-3.44585E+01-3.51268E+01-1.64586E+01 3.81412E+00 9.48630E-01 9.69463E-01
 -1       356-3.04945E+01-3.21510E+01-1.60192E+01-4.61842E+00-9.45391E-02 3.22231E+00
 -1       357-2.48461E+00-5.68263E-01-4.34292E-01-1.10556E+00 4.61734E-01-2.90505E-01
 -1       358-3.67319E+01-3.64350E+01-1.72456E+01-2.59773E+00-1.99431E+00 2.07568E+00
 -1       359-7.29257E+00-1.64577E+00-2.46471E+00 3.34563E-01-2.41794E-01 1.05336E+00
 -1       360-3.68646E+01-2.93695E+01-1.72122E+01 2.74643E+00 2.85790E+00 5.90404E-01
 -1       361-2.85185E+00-5.63813E-01-4.29008E-02 8.00643E-01-7.80038E-01 3.48183E-01
 -1       362-4.32767E+01-4.46320E+01-2.31469E+01 3.55058E+00 1.07993E+00 4.42083E+00
 -1       363-3.14741E+01-4.01867E+01-2.02289E+01 1.63580E+00-1.25327E+00 5.03205E+00
 -1       364-2.97557E+01-3.54081E+01-1.85535E+01 4.03161E+00 1.70341E+00 2.14936E+00
 -1       365 8.29591E-01-1.13318E+00 4.51451E-01 4.37323E-01-7.92602E-01-8.75782E-01
 -1       366-3.40148E+00-5.55170E+00-6.42292E+00 1.78143E+00-8.88546E-01 8.17156E-03
 -1       367-2.79177E+00-4.49983E+00-1.51679E+00 6.78295E-01 5.70294E-01-1.76383E+00
 -1       368-4.83687E+00-9.62989E+00-7.00961E+00 2.67471E+00 7.84361E-01-2.31414E-01
 -1       369-2.56076E+00-2.12985E+00-2.19176E+00 2.35080E-01-1.21004E+00-1.07510E+00
 -1       370-8.63620E+00-4.12633E+00-4.70227E+00-1.23085E+00 6.24465E-02 4.50489E-01
 -1       371-4.10460E+01-3.20069E+01-2.05999E+01-1.21078E+00-6.09910E+00-1.60253E+00
 -1       372-4.04522E+01-3.22968E+01-1.73076E+01-4.25150E+00-3.35684E+00-3.88755E-01
 -1       373-9.68378E+00-3.87917E+00-3.10834E+00-2.48532E+00-9.40320E-03 2.16236E-01
 -1       374-3.67887E+01-3.03827E+01-1.78669E+01 2.44500E+00 3.86496E+00-1.27884E+00
 -1       375-1.00321E+00-1.32421E+00-3.43094E-01-6.58336E-01 6.72187E-01-1.07598E+00
 -1       376-7.75466E+00-5.28940E+00-6.89235E+00-2.68335E+00 2.56071E-02-2.53408E-01
 -1       377-4.26158E+01-3.38509E+01-1.85638E+01 1.94180E+00-3.70128E+00-1.53673E+00
 -1       378-4.91917E+00-4.41743E-01-6.92718E-01 1.08085E-01 8.01849E-01 4.14196E-01
 -1       379-2.68092E+01-2.69188E+01-1.24991E+01-4.38368E+00-7.61443E-01-3.82026E+00
 -1       380-2.32773E+00-2.13310E+00 6.46464E-01-1.99500E+00-8.07728E-01 4.94539E-01
 -1       381-3.62929E+01-3.51931E+01-1.94708E+01 5.59748E+00-6.69173E-01-1.14555E+00
 -1       382-2.60718E+01-3.54882E+01-1.51792E+01-5.77875E+00 6.81860E-01-6.10654E-01
 -1       383-3.26686E+00-2.43111E+00-2.07696E+00-2.29753E-02-4.74628E-01 1.66610E+00
 -1       384-4.19769E+00-1.97028E+00-5.14184E+00 8.08068E-01 1.20663E+00-2.29905E+00
 -1       385-1.51124E+00-3.49773E-01 4.02101E-01 1.00235E+00 4.84633E-01 1.24294E-01
 -1       386-2.92627E+00-6.37587E+00-4.27226E+00-1.16582E+00-5.80837E-01 3.37520E-01
 -1       387-3.01791E+01-4.57511E+01-1.54984E+01 1.06336E+00-6.15091E-01-1.36090E+00
 -1       388-3.28801E+01-3.75423E+01-1.69584E+01 3.12884E+00-1.66623E+00-4.33711E+00
 -1       389-2.17459E+00-7.42769E+00-4.09268E+00-8.64910E-01-7.95307E-01 3.13555E-02
 -1       390 7.24857E+00 5.32011E+00 3.77060E+00 2.50672E+00 5.69662E+00 5.73863E+00
 -1       391 1.48668E-01-3.58216E-01 4.52866E-01 3.90821E-01 6.60978E-01 9.02987E-01
 -1       392-8.47125E-01 6.18633E-01 3.27458E-01 4.98591E-01 9.00790E-01 6.98388E-01
 -1       393 5.73151E-01-2.65926E-01 9.75880E-01 2.51770E-01 9.29867E-01 1.37493E+00
 -1       394-6.34696E-01 3.12854E-01 7.57504E-01 2.10805E-01 1.38977E+00 1.62520E-01
 -1       395-4.70263E+00-2.80374E+00-1.92013E+00 7.27067E-01 1.67254E+00 4.67160E-01
 -1       396-3.54207E+00-2.24815E+00-1.88798E+00 6.21620E-01 5.93493E-01 9.02140E-01
 -1       397 4.59995E-01 4.47937E+00-2.92552E+00 6.37272E-01-4.54419E-02-6.06440E-01
 -1       398-5.83011E-01-8.75300E-01 1.02093E+00-2.42840E-01 1.31508E+00-1.16930E-01
 -1       399 4.72923E-02-1.67736E+00 1.54901E+00-3.07209E-01 2.27487E+00-4.60403E-01
 -1       400-3.00246E+00-2.19600E+00-1.41600E+00-5.25155E-01 1.18541E+00-3.04972E-01
 -1       401 2.77700E+00 1.94651E+00 9.98491E-01-1.36900E+00 3.11140E+00-1.61456E+00
 -1       402 2.74968E-01 7.50536E+00 9.52305E+00 2.45784E+00-2.40265E-01 1.13478E+00
 -1       403-4.12386E-01 1.08643E+00 1.95969E-01-1.15273E-01 1.39469E+00-1.58045E+00
 -1       404 7.17052E+00 5.52478E+00-2.26674E-01 3.43761E+00-1.33665E+00-3.09933E+00
 -1       405-3.01905E+00-1.91379E+00-1.01865E+00 3.96658E-01 7.52016E-01 9.86538E-01
 -1       406-2.40236E+00-2.72120E+00-5.70982E-01 8.44611E-01 9.74799E-01-3.27685E-02
 -1       407-8.62033E+00-6.30568E+00-9.31310E-01-6.52173E+00 3.94591E+00-5.76459E-02
 -1       408 1.29999E+00 1.47777E+00 2.00845E+00 1.41752E+00 3.31220E+00 4.57287E+00
 -1       409-4.32238E+00-5.88104E+00-3.15607E+00 8.23451E+00-6.47821E-01 5.39718E+00
 -1       410 4.40925E-01 4.48951E-01 4.98641E-01 1.28464E-01-4.67185E-01 1.35187E+00
 -1       411 2.11863E+00-2.11673E-01 2.34248E+00 4.47731E-01 8.69751E-01 5.66604E-01
 -1       412-2.77254E+00-4.19203E+00-2.39844E+00 2.95523E-01 9.90115E-01 2.14455E+00
 -1       413-1.06627E+00-1.16029E+00-8.55258E-01 5.61574E-01 1.19786E-01 1.12901E+00
 -1       414 8.12275E+00 2.95340E+00-3.48762E+00-2.25181E+00 1.54565E-01 9.67076E-02
 -1       415-2.98835E+00-4.68894E+00-2.40815E+00-5.04293E-01-1.11618E+00 1.62830E+00
 -1       416 7.76369E-01-2.14353E-01 1.30613E+00-1.03502E+00-3.75371E-01 2.47615E+00
 -1       417 8.04680E-01 1.78530E+00 5.34598E-01-8.00565E-01-2.58450E+00 2.21531E+00
 -1       418-6.57074E-01 1.54560E-01 1.54734E+00-8.19655E-01-8.23497E-01 1.34866E+00
 -1       419-4.19353E-02-1.07097E+00 1.30185E+00 7.11532E-01-1.14241E+00 1.61760E+00
 -1       420-1.01371E+00-1.31160E+00-1.53220E+00 3.45344E-01-4.61774E-01 9.72022E-01
 -1       421-3.23707E+00-1.80134E+00-3.27923E-01-5.23305E-01-4.76026E-01 5.30344E-01
 -1       422-2.06066E+00-2.42606E+00-2.25542E+00 5.58178E-01-1.38480E+00 2.15443E-01
 -1       423-1.29318E-01 2.13744E+00-1.29204E+00-5.11268E-01-1.35627E+00-5.91603E-02
 -1       424-8.48257E-01 1.28797E+00-3.74561E-01 1.10748E+00-1.74638E+00-3.76381E-01
 -1       425-2.58369E+00-2.00851E+00-2.81109E+00-2.61053E-01-1.29202E+00-1.93209E-01
 -1       426-1.97756E+00-1.53798E+00 3.29998E-01 3.79011E-02-4.90685E-01-1.90473E-01
 -1       427 1.95772E+00 5.17089E+00-3.77929E-01 1.76229E+00 1.89860E+00-2.35199E-01
 -1       428 1.33604E+00 7.11054E+00-3.69757E+00 1.00430E+00 1.22445E+00 1.15033E+00
 -1       429 3.00635E+00 4.56186E+00-2.81316E+00 2.58450E+00 1.02823E+00 1.04981E+00
 -1       430-4.54503E+00-9.34747E+00-5.01866E+00 1.78127E+00 1.19215E+00-9.75418E-01
 -1       431 1.07890E+00-7.32257E-01 1.12424E+00 1.63258E-01-1.87614E-01 6.18313E-01
 -1       432-9.90873E+00-5.07248E+00-8.42157E+00 2.02623E+00 5.71569E-01 8.23545E-01
 -1       433-1.23479E+01-3.38756E+00-5.47316E+00-2.56951E+00 8.52952E-01 1.43870E-01
 -1       434-3.71737E+01-2.88596E+01-1.70605E+01-9.93904E-01 3.13737E+00-1.67069E+00
 -1       435-3.20725E+00-5.41450E-01 3.96032E-01-1.06155E+00-1.22079E+00 5.05844E-01
 -1       436-3.27555E+01-3.02982E+01-1.74868E+01-3.75015E+00 1.51414E+00-2.23017E+00
 -1       437-4.05703E+01-3.22839E+01-1.89929E+01 3.45203E+00-3.54297E+00-6.18486E-01
 -1       438 1.03961E+01 3.54497E+00-4.37000E+00-3.30814E+00-7.50882E-01 1.99045E+00
 -1       439 0.00000E+00 0.00000E+00 0.00000E+00 0.00000E+00 0.00000E+00 0.00000E+00
 -1       440 0.00000E+00 0.00000E+00 0.00000E+00 0.00000E+00 0.00000E+00 0.00000E+00
 -1       441-2.16203E+00-2.97793E+00-3.89390E+00 2.79317E-01-2.45213E+00 1.17614E+00
 -1       442 6.70466E-01 4.86519E+00-3.62323E+00-1.01574E+00 1.08810E+00-3.82790E-01
 -1       443-7.71434E+00-1.41479E+01-6.55868E+00 2.96872E+00-6.43994E+00 2.69446E+00
 -1       444 0.00000E+00 0.00000E+00 0.00000E+00 0.00000E+00 0.00000E+00 0.00000E+00
 -1       445 3.29119E+00 6.99945E+00-1.20630E+00 2.73549E+00 3.44453E+00 5.87497E-01
 -1       446-8.03769E+00-2.42790E+00 2.23237E+00-1.88592E+00-1.86677E+00 1.64720E+00
 -1       447-1.10912E+00-7.16878E-01-3.27687E+00 3.42894E-01-8.89866E-01-6.84660E-01
 -1       448-4.17672E+00-3.90194E+00-2.00545E+00-1.98140E+00-1.99826E+00-1.45505E+00
 -1       449-1.44714E+00-1.58300E+00-2.15685E+00-4.48375E-01 4.23360E-01-1.76140E+00
 -1       450-1.30869E+00-2.87477E+00-3.71417E+00-2.10532E-01-2.20025E+00-1.69505E+00
 -1       451-3.64145E+00-3.31101E+00 4.26980E-01-1.76646E-01 3.05550E-01-1.08981E+00
 -1       452-2.93027E+00-1.19812E+00 5.26371E-01-3.70643E-01-2.80787E-01-1.52532E+00
 -1       453-2.44725E+00-2.94219E+00-3.55227E-02-1.51221E-01-1.87890E-02 3.48711E-01
 -1       454-2.15161E+00-9.01487E-01-4.83324E-01-1.61954E-01-7.21236E-01 3.83760E-01
 -1       455-2.47681E-01-1.58515E+00-4.80995E-01-5.56412E-03-4.24461E-02 1.04555E+00
 -1       456 1.49644E-02-8.92996E-02-4.02825E-01 7.17527E-02-6.37168E-02 1.13504E+00
 -1       457 1.32267E+00-4.39823E-01 2.19250E-01 2.14953E-01-1.02268E-01-1.05605E+00
 -1       458 1.79061E+00-3.60046E-01 1.12810E+00 3.65649E-01-4.33521E-01-1.43960E+00
 -1       459-2.21627E+00-5.72571E+00-8.61602E-02-3.55649E-01-1.71652E-01 8.03385E-01
 -1       460-3.28990E+00-2.62916E+00 8.04454E-01 1.50815E-01-2.99203E-01-7.10622E-02
 -1       461-1.51626E+00-1.46806E+00 3.71082E-01 2.63098E-01-1.87670E-01 8.53598E-01
 -1       462-6.40225E-01-1.15034E+00-1.60271E-03-1.76088E-01-3.04820E-01 1.23952E+00
 -1       463-2.42086E-01-1.35622E+00 3.65231E-01-5.73081E-01 1.00335E+00 1.37329E+00
 -1       464-2.11647E+00-1.98190E+00-5.23595E-02 4.09061E-01 9.48128E-01 1.30304E+00
 -1       465-2.72133E+00-3.13672E+00 8.04024E-01-3.11668E-02 1.61710E+00-6.11975E-01
 -1       466-1.73596E+00-4.46271E+00-2.65862E+00 4.34640E-01-4.94313E-01 1.11256E+00
 -1       467-2.87160E+00-4.27639E+00-1.70457E+00 3.31559E-01-2.55606E+00-3.29860E-01
 -1       468-3.27208E+00-1.39511E+00-1.55569E+00-5.75744E-01 1.57292E+00-7.50062E-01
 -1       469-1.51681E+00-2.45815E+00-1.94916E+00-1.30582E-01-1.81303E+00 1.22861E+00
 -1       470-2.86811E+00-9.12717E-01-2.23834E+00 1.60258E-02 1.07252E+00 1.90233E+00
 -1       471-1.14954E+00-1.55989E+00 6.96721E-01-5.92863E-01-1.56992E-01 7.98595E-01
 -1       472-3.29203E-01 2.62028E-01 2.65360E-01 2.50413E-01-1.00331E+00 8.82741E-01
 -1       473-2.25628E+00-3.36134E+00-4.92030E+00 2.94346E-01 1.46990E+00-3.09071E+00
 -1       474-1.94557E+00-2.04812E+00-1.77381E+00 5.38042E-01-1.54386E+00-1.51609E+00
 -1       475 1.98056E-01-1.39613E+00-6.13649E-01 4.65789E-01 2.26678E-01 7.39011E-01
 -1       476 9.50527E-02-1.00731E+00-1.08326E-01 1.49778E-01 4.28628E-01 1.05596E+00
 -1       477-2.21426E+00-2.82766E+00 2.27282E-01 6.95797E-02-2.69845E-02 4.11060E-01
 -1       478-2.63484E+00-2.96925E+00 7.71535E-02 3.05508E-01 3.74870E-01 2.53161E-01
 -1       479-4.33702E+00-3.83242E+00 4.08345E-01-6.19161E-02-7.19478E-01-1.20727E+00
 -1       480-3.03434E+00-1.49657E+00 2.03795E-01-8.02080E-01-4.54802E-01-1.19767E+00
 -1       481 5.86759E-01-7.34434E-01 2.15150E-01 2.01811E-01-1.38995E-01-1.00549E+00
 -1       482 1.79963E+00-9.19353E-01 1.63784E+00 4.45917E-01-6.45175E-01-1.63366E+00
 -1       483-1.86146E+00-5.45731E+00 5.15592E-01 9.61138E-01-6.86806E-01 1.02213E+00
 -1       484-2.76096E+00-3.00979E+00 1.00179E+00-1.96504E-01-5.48105E-02 2.12984E-01
 -1       485-1.55617E+00-1.45327E+00 3.42144E-01 1.37423E-01 9.31048E-02 9.75205E-01
 -1       486-1.48655E+00 3.00556E-01-9.55034E-01-1.36350E-01 1.80785E-01 1.92768E+00
 -1       487-8.55520E-01-1.31561E+00 4.27204E-02-4.29124E-01 6.87665E-01 1.32792E+00
 -1       488-1.41313E+00-1.17438E+00 3.60821E-01 5.40040E-02 4.01031E-01 7.27279E-01
 -1       489-2.79350E+00-2.83927E+00 7.61900E-01-7.66555E-01 9.98766E-01 2.25110E-01
 -1       490-2.08751E+00-3.23230E+00 7.82782E-01 1.62837E+00 2.55754E-01 5.96890E-01
 -1       491-3.13014E+00-3.00288E+00-5.63026E-01 6.50160E-01-2.09703E+00 3.89062E-01
 -1       492-3.03568E+00-4.63115E+00-2.06017E+00 8.47802E-02 2.72976E+00-1.25470E+00
 -1       493-1.85624E+00-2.28046E+00-1.43081E+00-1.98888E-02-1.05407E+00 1.60389E+00
 -1       494-2.27437E+00-2.90260E+00-9.86528E-01 1.45752E-02 1.65354E+00 6.54683E-01
 -1       495-3.70126E-01-6.21223E-01 5.66856E-01-8.39803E-01 3.17436E-01 6.90487E-01
 -1       496-1.06264E+00-6.23902E-01 1.70010E+00 3.89469E-01 4.34435E-02 1.01366E+00
 -1       497-1.60597E+00-2.20593E+00-3.32260E+00 2.99286E-01-3.55932E-01-2.19557E+00
 -1       498-2.21628E+00-2.52087E+00-3.67168E+00 4.78869E-01-3.28861E+00-8.67964E-01
 -1       499-1.20348E+00-8.52538E-01-3.77054E-01 5.09077E-01 7.00730E-01 7.71434E-01
 -1       500-1.55418E-01 3.90906E-02 6.10276E-03 2.03755E-01 7.85434E-01 6.75298E-01
 -1       501-2.77578E+00-3.16985E+00 8.78082E-02 4.36821E-01 3.32085E-01 3.28861E-01
 -1       502-1.82297E+00-1.73387E+00 4.96214E-01-1.36429E-01 8.14043E-01-1.07142E-01
 -1       503-2.47719E+00-3.01477E+00 1.92157E-01-7.73151E-01-8.40312E-01-6.57659E-01
 -1       504-1.53207E+00-1.95433E+00 2.34321E-01-1.53779E+00-7.65848E-01-7.25535E-01
 -1       505 5.49630E-01 9.13460E-02 2.58863E-01 8.39501E-01-5.20050E-01-5.43688E-01
 -1       506 7.86298E-01 4.71447E-01 2.52869E-01 6.19417E-01-6.85953E-01-4.90747E-01
 -1       507-3.03030E+00-2.48301E+00 5.03000E-01-2.17093E-01-4.30161E-01 4.28624E-02
 -1       508-1.90188E+00-4.99950E+00 4.98951E-01 1.32066E+00 8.53585E-01 7.13497E-01
 -1       509-2.04025E+00-1.94506E+00 1.07918E-01-4.20998E-03 5.07055E-01 7.32469E-01
 -1       510-2.03610E+00-1.46298E+00-2.98799E-01 4.09168E-01 6.42566E-01 1.61438E+00
 -1       511-2.90770E-01-4.60023E-01-2.33045E-01-2.18520E-01 1.21921E+00 8.51208E-01
 -1       512-1.69877E+00-1.20423E+00 1.01840E+00-1.36855E-01 1.01602E+00-2.83279E-02
 -1       513-2.91201E+00-3.14595E+00-8.33357E-02-9.12117E-02 2.89815E-01-9.43861E-01
 -1       514-2.14300E+00-1.38068E+00-8.63419E-01 9.50087E-01 9.89734E-01 6.79380E-01
 -1       515-3.29134E+00-2.67460E+00-9.34829E-01 3.41190E-01-1.50550E+00 5.89869E-01
 -1       516-2.00943E+00-1.84460E+00-1.95563E+00-5.94578E-01 2.33805E-01-1.96889E+00
 -1       517-9.52452E-01-1.37764E+00-8.94602E-01-5.54847E-01 1.98961E-01 8.52187E-01
 -1       518-2.82437E+00-2.31807E+00-1.53353E+00 2.32497E-01 2.34500E+00-8.53113E-01
 -1       519-3.82975E-01-1.55664E+00 5.24165E-01 1.62111E-01 1.02402E+00 5.99203E-01
 -1       520-2.19855E+00-1.00716E+00-2.98707E-01 1.78256E-01 7.06154E-01 9.39052E-01
 -1       521-2.41080E+00-2.68721E+00-4.41351E+00 5.11448E-01-1.58403E+00-2.52386E+00
 -1       522-2.94000E+00-1.67863E+00-2.71286E+00 5.08654E-01-3.42157E+00 4.00394E-01
 -1       523-2.67241E+00-2.34569E+00 2.54125E-01 1.55251E-01 5.21090E-01-9.28676E-02
 -1       524-1.29429E+00-7.93464E-01-1.68265E-01 3.55336E-01 1.12328E+00 3.72790E-01
 -1       525-7.96675E-01-1.23369E-01-4.88904E-01 2.76719E-01 7.64014E-01 1.57246E-01
 -1       526-2.94825E+00-3.92613E+00 2.78620E-01-4.10930E-01-1.32052E+00-4.09892E-01
 -1       527-2.37177E+00-3.98677E+00 2.80153E-01-1.12654E+00-9.11557E-01-5.77168E-01
 -1       528-2.53980E+00-2.64458E+00 7.32989E-02 2.48556E-01-1.00658E-01 2.86068E-01
 -1       529-2.78092E-01 7.45865E-01 3.94280E-02 3.94223E-01-6.82912E-01-2.40068E-01
 -1       530-3.79110E-01 1.06912E+00 8.06854E-01 6.06476E-01-1.01805E+00-6.19419E-01
 -1       531-2.21069E+00-2.74306E+00 7.80751E-01 4.43109E-02-1.44675E-02 7.05413E-01
 -1       532-4.36046E+00-1.96482E+00 3.88676E-01 1.56710E+00 1.43399E+00 3.75505E-01
 -1       533-1.43655E+00-1.83486E+00 4.76068E-01 5.84035E-02 5.30940E-01 5.07631E-01
 -1       534-1.25802E+00-7.30002E-01-9.79147E-02-2.65218E-01 8.38485E-01 8.50388E-01
 -1       535-1.34441E+00-1.39487E+00-1.05312E+00 1.15524E-01 1.54259E+00-2.68351E-01
 -1       536-1.79296E+00-1.94090E+00 6.51236E-02 2.73729E-01 1.15058E+00-2.55100E-01
 -1       537-2.63216E+00-2.83384E+00 3.74421E-01 2.24014E-01 1.49480E-01-8.76624E-01
 -1       538-3.22952E+00-3.45411E-01 1.07369E-01-1.26251E-02 7.90055E-01 3.36570E-01
 -1       539-4.05381E+00-2.96640E+00-2.18629E+00 8.22825E-01-1.57695E+00 2.90335E+00
 -1       540-1.13980E+00-2.04400E+00-1.28721E+00-3.59440E-01-2.30068E-01-1.36878E+00
 -1       541-2.80090E+00-2.59424E+00-1.31126E+00 4.38163E-01 4.03292E-02 2.11388E+00
 -1       542-7.01594E-01-1.66805E+00-1.34501E+00-2.69359E-02 1.28154E+00-4.32796E-01
 -1       543-1.11215E+00-5.35972E-01 6.03526E-01-2.23118E-02 2.62876E-01 2.92032E-01
 -1       544-2.66361E+00-1.99603E+00-7.74267E-01 5.17840E-01 5.15666E-01 7.33104E-01
 -1       545-2.95721E+00-2.73083E+00-5.79570E+00 4.61533E-01-3.13110E+00-2.06903E+00
 -1       546-3.25004E+00-1.26169E+00-1.91419E+00-1.70247E-01-1.99440E+00 1.66370E+00
 -1       547-2.78325E+00-2.20373E+00-1.62143E-02 6.75469E-02 4.65089E-01 1.37918E-01
 -1       548-1.09138E+00-4.79579E-01-3.30465E-01 4.47410E-02 9.44735E-01 3.52212E-02
 -1       549-1.36228E-01-2.97182E-01 1.04239E-01 4.30052E-02 1.06406E+00 2.67860E-02
 -1       550-3.12414E+00-4.01032E+00 3.07312E-01 3.03827E-02-1.29801E+00 6.72816E-02
 -1       551-3.93257E-01-3.46061E+00 2.27744E-01-1.26554E-02-1.53080E+00-1.48565E-01
 -1       552-1.04447E+00-1.91348E+00-1.01301E-01-8.85468E-02 7.78496E-01 7.54921E-01
 -1       553-7.83648E-01 1.49763E+00 3.36070E-01 7.76335E-02-1.00533E+00-7.32433E-02
 -1       554-1.39753E-01 1.16046E+00 3.82606E-01 6.70695E-02-8.99727E-01-1.91431E-01
 -1       555-2.81387E+00-3.37399E+00 5.31232E-01-7.60264E-02 1.05857E-01 3.38517E-01
 -1       556-6.18436E+00-1.99169E+00 7.33127E-01 6.02054E-01 6.35950E-01 6.45998E-01
 -1       557-1.70955E+00-1.76283E+00 1.22612E-01-1.33567E-01 7.98077E-01 3.07563E-01
 -1       558-2.28422E+00-1.56674E+00 2.41249E-01-1.10260E-02 1.39115E+00 2.00077E-02
 -1       559 9.74444E-01-1.17213E+00-4.00644E-01-1.45972E-02 1.32739E+00-9.06989E-02
 -1       560-9.95623E-01-1.29014E+00 4.91491E-01-2.83606E-01 7.84427E-01-3.88150E-01
 -1       561-1.62582E+00-2.74090E+00 1.19903E+00 1.26146E-01 4.51909E-02-1.15645E+00
 -1       562-5.43385E+00-1.59998E+00 3.14670E-02-1.13441E+00 1.31616E+00 3.16281E-01
 -1       563-1.12927E+00-2.29555E+00-5.61810E-01-5.33281E-01-7.42874E-02 8.34547E-01
 -1       564-3.68563E+00-3.26190E+00-1.57509E+00 1.37630E-01-5.89756E-01-2.87970E+00
 -1       565-7.46895E-01-1.60271E+00-5.55499E-01 1.22193E-01 4.97902E-01 5.12636E-01
 -1       566-2.86206E+00-2.62325E+00-2.12255E+00-5.92267E-01 1.24284E+00-1.77986E+00
 -1       567-2.71384E+00-1.51092E+00 6.10670E-01-7.85673E-02 1.11659E+00 3.77205E-02
 -1       568-4.15059E+00-2.17358E+00-2.54897E-01-1.44690E+00 1.42166E+00 9.88739E-02
 -1       569-3.16041E+00-2.40972E+00-4.50193E+00-7.05178E-01-3.47639E+00-1.31149E+00
 -1       570-1.86329E+00-2.15924E+00-2.09970E+00-5.28569E-01-1.20838E+00 1.73172E+00
 -1       571-2.41928E+00-2.54376E+00 1.22743E-01-1.09572E-01 3.74112E-01 4.54680E-03
 -1       572-2.77225E+00-3.82716E+00 5.40041E-01 3.94838E-01-8.41926E-01 5.65731E-01
 -1       573-1.45226E+00-3.44515E+00 4.26236E-01 8.57641E-01-1.18800E+00 4.09248E-01
 -1       574-1.17306E+00-4.80271E-01-4.23363E-01-4.36790E-01 1.08293E+00-3.38450E-01
 -1       575-9.88398E-01-6.52381E-01 7.31671E-02-1.10387E-01 1.17955E+00-6.92818E-01
 -1       576-2.62993E+00-2.72476E+00-1.76613E-01-1.50509E-01 1.54251E-01-3.84368E-01
 -1       577 3.47489E-01 2.11810E+00 1.02467E+00-6.73983E-01-1.44293E+00 5.03324E-01
 -1       578-1.95212E-01 1.67276E+00 2.65717E-01-5.62260E-01-9.96521E-01 2.33168E-01
 -1       579-1.60761E+00-2.87101E+00 5.76646E-01 2.15598E-01 2.00416E-01 6.63432E-01
 -1       580-4.82986E+00-7.35853E-01 1.23891E+00-1.19632E+00 6.33355E-01-2.41020E-01
 -1       581-1.63396E+00-1.58809E+00 1.70556E-01 5.73042E-01 7.63891E-01 3.25914E-02
 -1       582-4.69598E-01-1.55506E+00-1.50182E-01-2.53887E-01 1.59311E+00-2.32308E-01
 -1       583-1.62091E+00-1.45735E+00-6.54133E-01-3.23220E-01 1.20083E+00-7.56713E-01
 -1       584-1.75792E+00-1.69701E+00 4.84059E-01 6.20270E-02 8.18723E-01-2.93728E-01
 -1       585-3.23465E+00-2.98690E+00 3.44494E-01-1.30313E-01-4.65936E-01-7.37679E-01
 -1       586-1.59196E+00-1.67086E+00-7.36144E-01-1.21599E+00 1.11416E+00-3.13971E-01
 -1       587-3.74595E+00-2.79245E+00-2.78752E+00-4.23856E-01 5.07211E-01 3.43436E+00
 -1       588-1.83050E+00-2.14306E+00-1.28745E+00 7.78336E-01-8.28421E-01-1.21303E+00
 -1       589-2.87357E+00-2.39882E+00-1.40553E+00-1.33666E-01 1.50608E+00 1.18346E+00
 -1       590-2.80800E+00-2.36565E+00-1.13388E+00-3.86624E-01 4.21190E-01-1.73001E+00
 -1       591-1.48914E+00-1.40482E+00 6.18042E-01-8.22951E-01 6.39816E-01-4.43282E-01
 -1       592-8.39420E-01-1.77103E+00 3.62774E-01-8.58849E-01 3.28774E-01-8.83097E-01
 -1       593-2.05174E+00-1.90368E+00-3.02878E+00-2.68841E-01-8.73423E-01 2.30586E+00
 -1       594-3.02965E+00-2.60415E+00-5.34640E+00-5.89036E-01-3.81086E+00 5.13711E-01
 -1       595-6.48629E-01-6.65117E-01-4.32148E-01-5.40016E-01 8.72428E-01-8.79170E-01
 -1       596 3.64131E-03 1.17269E-01-4.37281E-02-2.26555E-01 9.42597E-01-9.76873E-01
 -1       597-2.57322E+00-2.21604E+00 7.32143E-02-2.79238E-01 2.50980E-01-1.65632E-01
 -1       598-1.56891E+00-1.70388E+00-9.65380E-02 4.27691E-01-2.95954E-01-5.71415E-01
 -1       599-3.83443E+00-4.21908E+00 6.21239E-01 1.54981E-01-5.39889E-01 9.86675E-01
 -1       600-2.27984E+00-2.46937E+00 5.44614E-01 1.32015E+00-1.14653E+00 8.31954E-01
 -1       601 1.89284E-01 1.39163E-01 4.15919E-01-1.23459E+00-8.58405E-01 8.20274E-01
 -1       602 6.24434E-01 5.74068E-01 6.54056E-01-7.68450E-01-9.74642E-01 7.86751E-01
 -1       603-2.82717E+00-2.90033E+00 7.33140E-01 2.37358E-01 4.59366E-01 1.51094E-01
 -1       604-5.10735E+00-6.06443E+00 1.52046E+00-3.08259E+00 1.05914E+00 5.85716E-01
 -1       605-1.67404E+00-1.57787E+00 5.21337E-01 4.15582E-02 5.61783E-01-5.30647E-01
 -1       606-2.03864E-02 3.27719E-01 3.80104E-01 1.35155E-01 1.37079E+00-1.35222E+00
 -1       607-3.17240E-01-3.18726E-01-7.60158E-01 3.83979E-01 9.17979E-01-1.58995E+00
 -1       608-1.11618E+00-1.23437E+00 3.54796E-01 2.95754E-01 1.78684E-01-8.64460E-01
 -1       609-2.56989E+00-2.09501E+00 8.60268E-01 1.27034E-01-3.08869E-01-5.86868E-01
 -1       610-2.39933E+00-1.98131E+00 2.92830E-02-1.01319E+00-2.24437E-01-7.05151E-01
 -1       611-2.59249E+00-3.05434E+00-9.99492E-01-2.48202E-01 1.21310E+00 1.65009E+00
 -1       612-3.73152E+00-4.64879E+00-2.06418E+00-1.05470E+00-2.77512E+00-1.76418E+00
 -1       613-2.28088E+00-1.48211E+00-2.44747E-01-8.86120E-04 1.33207E+00 2.99029E-01
 -1       614-1.40911E+00-2.22219E+00-1.65399E+00-2.01132E-01-5.40934E-01-1.79092E+00
 -1       615-2.46046E+00-1.75314E+00-1.13961E+00-8.61175E-01 6.38874E-02-4.46137E-01
 -1       616 3.26096E-01-5.86473E-01 3.15070E-01 2.79182E-02 4.53144E-01-7.44513E-01
 -1       617-1.68798E+00-2.93356E+00-3.97376E+00-5.74804E-01 1.03843E+00 3.33171E+00
 -1       618-1.93261E+00-1.56638E+00-2.15158E+00-4.49969E-01-1.39120E+00 1.12888E+00
 -1       619-1.19099E+00-9.82603E-01-1.07640E-01 6.68626E-03 5.52717E-01-8.55409E-01
 -1       620-9.47740E-01-5.50757E-01-2.94959E-01-2.56471E-01 2.94374E-01-8.91161E-01
 -1       621-2.87380E+00-3.12475E+00 1.33970E-01-3.83827E-01 1.34664E-01-3.78621E-02
 -1       622-2.59359E+00-2.57865E+00 1.19484E-01 8.57187E-02-3.27746E-01-4.31824E-01
 -1       623-4.41292E+00-3.26719E+00 1.34515E-01-2.19641E-01-6.13668E-02 1.81006E+00
 -1       624-4.22581E+00-2.07192E+00 7.43272E-01 3.75217E-01-6.46332E-01 1.11863E+00
 -1       625 2.41886E-01-1.92219E-01 3.28264E-02-4.62509E-01-2.84441E-01 1.94726E-01
 -1       626-2.57314E-01-6.51302E-01-8.50168E-02-7.24642E-01-7.06679E-01-3.25422E-02
 -1       627-4.29883E+00-4.79836E+00-1.53913E+00-2.58390E+00 2.61092E-01-3.07698E-01
 -1       628-2.95818E+00-2.14735E+00 8.18298E-01 4.70140E-01 5.94173E-01 2.00416E-01
 -1       629-1.87728E+00-1.68322E+00 5.38731E-01-3.21519E-02 3.98517E-01-6.18651E-01
 -1       630-1.37694E+00-9.73768E-01-3.10942E-01 4.35498E-02 3.14469E-01-1.19386E+00
 -1       631-1.03268E+00-3.02704E-01-2.06971E-01 1.47226E-01-1.38163E-01-1.17467E+00
 -1       632-1.99393E+00-1.25056E+00 2.62932E-01 4.46698E-01-7.26478E-02-9.40270E-01
 -1       633-2.88711E+00-2.48431E+00 9.80174E-01-1.64379E-02-4.08416E-01-4.49324E-01
 -1       634-9.89662E-01-3.15362E+00-1.04240E-01-8.91903E-01-1.47764E-01-1.13985E+00
 -1       635-3.35547E+00-4.78413E+00-2.19616E+00-4.30009E-01 2.47894E+00 1.73195E+00
 -1       636-3.54482E+00-4.13226E+00-1.78267E+00-7.12736E-01-3.49882E+00-7.77918E-01
 -1       637-1.51501E+00-1.52527E+00-4.00388E-01 4.72380E-02 1.82059E+00-4.66148E-01
 -1       638-1.83994E+00-2.47600E+00-1.60723E+00 4.39633E-01-1.18851E+00-1.47195E+00
 -1       639-7.46991E-01-8.17456E-01 3.74909E-01-6.18058E-01-5.07751E-02-4.43466E-01
 -1       640-1.38541E+00-1.31036E+00-4.32306E-01-2.19434E-01 4.20562E-01-8.22068E-01
 -1       641-1.35288E+00-2.62319E+00-3.91091E+00-3.60037E-01 1.61688E+00 3.04065E+00
 -1       642-1.59317E+00-1.57138E+00-3.12318E+00-3.12977E-01-7.09026E-01 1.54867E+00
 -1       643-6.45887E-01-1.37724E+00-3.36004E-01 3.47829E-01-1.10811E-01-1.08404E+00
 -1       644-3.75350E-01-1.06521E-01-4.00608E-01 2.19018E-01-1.66633E-01-1.05453E+00
 -1       645-2.46903E+00-3.00180E+00 2.28351E-02 4.12854E-02 3.31347E-02-2.79637E-01
 -1       646-2.28906E+00-1.34147E+00-1.01427E-01 3.61936E-01-6.66739E-01-1.79705E-01
 -1       647-3.92078E+00-3.12194E+00 2.04303E-01-3.54256E-01 3.31010E-01 1.35713E+00
 -1       648-3.08687E+00-4.72931E-01 3.97236E-01-1.36070E-01 1.09631E-02 1.38255E+00
 -1       649 4.97708E-01-5.66871E-01-2.64455E-01 2.02607E-01 1.96386E-01 3.23535E-01
 -1       650 1.24435E+00-7.22601E-01 6.94569E-01 2.58005E-01 1.25000E-01 9.34038E-01
 -1       651-2.36259E+00-6.00454E+00-3.95341E-01-7.97677E-01 3.03032E-01-9.45342E-01
 -1       652-2.90810E+00-2.40503E+00 8.77283E-01-1.53553E-01 3.56345E-01-4.54743E-02
 -1       653-1.94118E+00-1.49555E+00 6.57216E-01-4.51962E-01 6.42761E-02-7.91056E-01
 -1       654-6.80945E-01-1.60193E+00 3.08739E-01 6.19700E-01-5.52857E-02-1.29472E+00
 -1       655-1.35346E+00-1.41392E+00-8.09007E-01 2.18153E-01-4.54741E-01-1.42268E+00
 -1       656-1.65043E+00-1.28005E+00 5.54444E-01-2.45136E-01-4.78980E-01-9.04167E-01
 -1       657-3.16173E+00-2.59590E+00 7.02601E-01-5.06535E-01-8.59147E-01-3.74772E-01
 -1       658-2.85889E+00-6.96875E+00-1.44526E+00 6.85530E-01 4.44824E-01-1.35090E+00
 -1       659-2.70157E+00-3.99406E+00-1.43168E+00-9.87849E-02 2.30467E+00 7.75679E-01
 -1       660-3.38434E+00-4.19732E+00-1.51876E+00-5.72754E-01-2.68261E+00 3.26927E-01
 -1       661-2.64197E+00-2.37248E+00-6.85053E-01-5.17564E-01 1.35607E+00-6.82613E-01
 -1       662-1.89907E+00-2.56305E+00-1.02180E+00 5.98241E-02-1.28626E+00-7.47833E-01
 -1       663-2.07469E+00-4.26170E+00-4.80642E-02-1.79507E-01-3.62275E-01-7.33022E-01
 -1       664-1.47618E+00-2.73445E+00-6.73801E-01 4.62585E-01 6.41506E-01-8.94573E-01
 -1       665-8.67877E-01-1.86585E+00-5.54182E+00 1.09681E+00 2.81689E+00 1.85206E+00
 -1       666-1.35175E+00-2.12886E+00-2.79010E+00 4.34206E-02-2.92983E-01 1.83886E+00
 -1       667-3.68175E+00-2.87013E+00 3.68169E-01-8.27773E-02 1.86172E-01 1.50995E+00
 -1       668-3.63380E+00-2.54471E+00 4.54360E-01-3.14217E-01 6.74535E-01 1.06718E+00
 -1       669-2.42691E+00-3.50163E+00 4.67435E-03 2.85399E-01-2.67198E-01-6.08228E-02
 -1       670-2.16877E+00-2.67033E+00 8.96986E-02-1.39160E-01 1.63361E-01-4.13965E-01
 -1       671-6.38462E-01-1.40458E+00-1.91213E-01 3.44254E-01-3.62052E-01-9.46543E-01
 -1       672-3.96434E-01-6.62659E-01-5.04689E-01 4.39476E-01-1.47733E-02-7.86306E-01
 -1       673 4.35186E-01-6.47567E-01 1.55295E-01 5.32013E-01 6.42997E-01 5.13345E-01
 -1       674 1.01852E+00-2.82642E-01 1.11868E-01 4.25092E-01 3.39996E-01 4.92605E-01
 -1       675-2.68610E-01-2.80061E+00 8.69031E-01 1.91053E-01 4.20540E-02-7.96115E-01
 -1       676-3.09595E+00-2.23631E+00 1.27477E+00 3.12034E-01 4.66227E-01-3.93768E-01
 -1       677-1.64748E+00-1.24330E+00 4.20680E-01-4.57387E-02-1.01967E-02-8.73712E-01
 -1       678-5.53839E-01-6.47502E-01-3.03114E-01 1.29219E-01-1.21625E-01-1.19056E+00
 -1       679-4.92627E-01-1.33017E+00-3.70944E-01-1.41497E-02-4.88437E-01-1.12466E+00
 -1       680-1.85072E+00-1.41671E+00 6.29922E-01 2.07251E-01-3.40070E-01-4.86507E-01
 -1       681-2.88426E+00-2.71993E+00 6.66835E-01 2.54430E-02-4.27033E-01-4.10565E-02
 -1       682-3.47965E+00-3.45601E+00-3.35238E-01 2.43728E+00-4.84071E-01-1.80816E+00
 -1       683-3.67397E+00-5.44823E+00-1.92605E+00 8.40126E-01 3.93077E+00-1.04306E+00
 -1       684-1.51503E+00-2.73201E+00-7.92348E-01-3.14791E-02-1.69415E+00 7.82464E-01
 -1       685-2.16906E+00-2.81796E+00-1.76897E+00-3.11543E-02 1.35047E+00-1.83554E+00
 -1       686-2.57585E+00-3.15009E+00-1.17828E+00 2.44132E-01-1.90841E+00-1.29536E-01
 -1       687-1.04276E-01-1.32056E+00 5.77575E-01-4.43573E-01-3.36210E-01-6.16794E-01
 -1       688-4.32475E-01-1.64836E+00-5.92901E-01 4.70733E-03-1.63198E-01-5.30688E-01
 -1       689-2.77054E+00-1.94424E+00-3.65184E+00 3.17332E-01 2.48577E+00 6.91193E-01
 -1       690-2.61121E+00-2.36520E+00-4.13964E+00 6.16888E-01 8.62912E-01 3.57760E+00
 -1       691-3.60312E+00-3.77548E+00 1.91490E-01-5.61916E-01 8.40947E-01 1.06098E+00
 -1       692-1.65928E+00-2.22466E+00 5.01995E-01-1.61872E+00 9.13430E-01 9.18580E-01
 -1       693-2.50918E+00-2.98109E+00 2.34859E-02 2.91950E-01-1.83715E-01-3.72633E-01
 -1       694-1.31939E+00-2.25284E+00 3.64695E-01-2.80698E-01 2.12325E-01-7.07831E-01
 -1       695-1.00666E+00-1.11897E+00-1.30956E-01 8.63666E-02-9.20854E-01-7.94805E-01
 -1       696-5.06333E-01-4.30445E-01 1.46718E-02-4.28783E-01-6.45830E-01-7.07712E-01
 -1       697-1.64635E-01 2.92618E-01-4.65538E-02 5.96726E-01 2.53377E-01 3.20881E-01
 -1       698 3.01293E-01 3.58341E-01-3.03853E-01 3.75056E-01 1.07866E-01 4.32490E-01
 -1       699-4.72981E+00-2.83180E+00 1.84499E+00 2.01021E+00 5.46435E-01-1.49541E+00
 -1       700-3.46636E+00-2.35188E+00 8.00215E-01-4.57478E-01 2.21267E-01-3.76963E-01
 -1       701-1.58089E+00-1.84256E+00 1.11487E-01-1.73423E-01-2.43837E-01-4.84538E-01
 -1       702-5.92421E-01-1.11843E+00-2.85600E-01-1.60271E-01-1.10562E+00-1.35309E+00
 -1       703-1.33900E+00-9.79223E-01 4.58172E-01-2.55245E-01-6.82593E-01-2.75986E-01
 -1       704-2.08674E-01-1.48005E+00 1.32199E-01-1.04166E-01-1.26766E+00-1.67832E+00
 -1       705-2.61204E+00-2.10736E+00 1.48150E+00 1.45893E-01-4.90543E-01 5.39879E-01
 -1       706-3.84501E+00-1.71775E+00 2.77904E-01 1.23972E+00-8.71798E-01-2.95442E-01
 -1       707-3.62654E+00-3.25308E+00-2.40209E+00 3.56613E-01 3.09985E+00-1.72239E+00
 -1       708-4.15446E+00-4.19341E+00-1.67099E+00 9.40710E-01-1.83783E+00 2.64851E+00
 -1       709-2.85015E+00-3.17817E+00-1.87390E+00 5.00755E-01 3.09753E-01-2.00322E+00
 -1       710-2.88876E+00-2.82979E+00-1.68683E+00 3.57893E-01-1.89897E+00 1.87025E-01
 -1       711-2.00245E+00-2.84269E+00-4.30165E-01 6.53502E-01-4.74880E-01-3.96410E-01
 -1       712 1.11175E+00 9.66914E-01 4.07997E-01-5.20448E-01-6.82134E-01-1.09826E+00
 -1       713-2.87824E+00-2.53040E+00-3.25754E+00 7.01483E-01 9.68242E-01 2.68260E+00
 -1       714-2.67012E+00-1.20502E+00-2.49786E+00 4.63727E-01 1.78812E+00-9.51219E-01
 -1       715-3.08896E+00-2.65196E+00 2.25620E-01 3.63200E-01-2.96735E-01-1.57384E-01
 -1       716-2.69381E+00-3.99952E+00 6.79447E-01-5.55583E-01 1.05848E+00 5.10486E-01
 -1       717-1.65657E+00-3.57237E+00 2.25087E-01-6.96411E-01 1.42866E+00 3.74037E-01
 -1       718-1.51771E+00-2.85300E-01-4.70339E-01 4.79572E-01-7.92171E-01-3.12837E-01
 -1       719-8.76313E-01-3.98199E-01-4.12923E-02-6.03931E-02-1.00085E+00-5.28294E-01
 -1       720-2.88840E+00-2.44053E+00 8.76990E-02 6.81701E-03-4.59565E-01 1.94881E-01
 -1       721-9.64215E-01 5.92061E-01-1.21546E-01 4.47635E-01 5.37842E-01 8.19736E-02
 -1       722-1.34010E+00-1.81431E-01 8.61259E-01 5.82018E-01 9.26364E-01 4.03576E-01
 -1       723-3.81987E+00-2.94151E+00-2.35252E-01 1.26207E+00-4.74411E-01 3.54044E-01
 -1       724-2.54841E+00-3.69452E+00-1.13094E-01-3.17244E-01 4.22594E-01-1.04408E+00
 -1       725-1.53038E+00-1.71072E+00 3.71359E-01-5.88549E-02-6.86141E-01-3.26461E-01
 -1       726-1.09016E+00-8.62193E-01-7.37036E-01-6.71038E-01-1.73528E+00 1.21892E-01
 -1       727-1.92201E+00-2.18637E+00-1.89184E-01-1.92779E-01-1.07665E+00 1.89012E-01
 -1       728-2.07626E+00-1.20650E+00-5.34127E-01 2.70989E-01-1.45544E+00-4.04587E-01
 -1       729-3.12038E+00-2.67643E+00 9.38692E-01 4.35542E-01-3.60887E-01 3.85535E-01
 -1       730-3.19025E+00-2.53508E-01 4.32518E-01 2.54786E-02-3.65054E-01 7.07764E-01
 -1       731-1.48855E+00-2.66700E+00-3.38946E+00-2.50836E-01 1.68134E+00-1.76694E+00
 -1       732-2.21458E+00-2.60945E+00-3.40708E-01 2.37266E-01-4.19253E-01 2.15116E+00
 -1       733-1.94763E+00-2.32710E+00-6.90403E-01 1.55781E-01-5.18251E-01-1.31811E+00
 -1       734-1.03204E+00-1.79984E+00-1.15578E+00-7.04406E-01-1.02771E+00 2.14683E-01
 -1       735-1.49350E+00-1.57216E+00 1.03139E+00 9.27597E-01-8.03940E-01-4.67917E-01
 -1       736-1.87487E-02-8.72332E-01-2.69237E-01-1.97432E-02-1.05156E+00-6.38349E-01
 -1       737-2.44085E+00-2.46382E+00-4.19374E+00 2.06607E-01 3.36324E+00 1.24576E+00
 -1       738-2.63601E+00-1.29377E+00-3.63870E+00-1.82366E-01 2.22600E+00-1.70222E+00
 -1       739-2.85273E+00-2.53423E+00 1.89764E-02-2.22378E-01-3.24429E-01-9.61804E-02
 -1       740-3.31241E+00-3.95719E+00 3.80792E-01 2.06203E-01 1.00496E+00 1.13373E-01
 -1       741-1.17988E+00-3.62073E+00 4.99051E-01 1.82603E-01 1.07958E+00-2.79655E-01
 -1       742-7.82778E-01-9.01387E-01-2.94123E-01 1.79638E-01-1.18715E+00-1.10989E-02
 -1       743-4.67687E-02-5.83112E-01-1.83071E-01 4.65849E-02-1.08781E+00-4.54933E-02
 -1       744-1.26192E+00-2.25893E+00-4.98065E-02-3.64899E-01-7.88359E-03 6.45288E-01
 -1       745-4.02155E-01 5.76199E-01-2.37594E-01 2.77764E-03 4.96918E-01 1.87077E-02
 -1       746-2.83560E-01 1.46781E+00 5.06303E-01-1.01127E-01 9.97087E-01 1.13060E-01
 -1       747-6.37717E+00-2.99031E+00 9.99983E-02 5.12627E-01-6.21878E-01 8.30675E-01
 -1       748-2.18872E+00-3.11821E+00 6.36350E-01-1.39161E-01 6.11245E-02-3.48712E-01
 -1       749-1.23878E+00-2.07106E+00 4.06141E-01 2.15440E-01-8.13737E-01-1.30259E-01
 -1       750-6.38635E-02-1.13733E+00 5.93331E-01-6.39109E-02-1.33747E+00-2.46014E-01
 -1       751-1.18173E+00-1.71163E+00 4.62800E-01-5.29718E-02-8.56618E-01 3.51805E-01
 -1       752 1.03619E-01-1.10133E+00 9.67453E-01 1.23380E-01-1.53883E+00 1.58125E-01
 -1       753-2.53163E+00-3.10237E+00 1.07121E+00 1.40536E-01 1.54815E-01 6.67320E-01
 -1       754-8.69835E+00-3.08902E+00-1.47110E+00-1.11550E+00-1.65018E+00-2.86566E-01
 -1       755-2.71895E+00-2.04576E+00-5.93452E-01-3.51675E-01 2.11486E-01-1.70453E+00
 -1       756-4.46234E+00-3.49683E+00-1.59763E+00 3.48290E-03 7.96039E-01 3.21563E+00
 -1       757-2.52304E+00-2.45932E+00-8.12788E-01 4.32051E-01-8.91490E-01-1.11077E+00
 -1       758-2.24313E+00-2.40878E+00-1.25168E+00-1.31591E-01-1.01313E+00 1.26853E+00
 -1       759-3.71218E+00-1.72968E+00-3.33758E-01-2.80669E-01-7.69260E-01 2.98548E-01
 -1       760-2.04625E+00-1.26282E+00-3.97996E-01-5.63572E-01-6.87418E-01 3.25141E-01
 -1       761-2.54521E+00-1.67721E+00-3.11736E+00-5.91763E-01 3.60321E+00 3.60068E-01
 -1       762-2.02972E+00-2.52184E+00-4.35391E+00-3.36600E-01 2.03597E+00-2.12608E+00
 -1       763-2.93364E+00-2.15043E+00 8.86061E-02-2.33894E-02 1.07462E-02 1.42476E-01
 -1       764-1.09938E+00-6.40653E-01-1.76741E-01-2.72140E-01-8.12971E-01 3.99961E-01
 -1       765-5.91667E-01-4.07035E-01-4.75817E-01-5.61375E-01-6.44001E-01 1.73497E-01
 -1       766-2.56955E+00-4.23492E+00 2.73106E-01 3.64177E-01 1.37566E+00-1.80656E-01
 -1       767-3.23138E+00-4.43604E+00 2.55915E-01 1.78861E-01 7.27515E-01-3.72061E-01
 -1       768-2.03981E+00-1.88793E+00-2.81564E-02 3.79493E-01-4.62206E-01-5.60638E-02
 -1       769-4.72719E-01 3.98201E-01 4.02437E-01-1.10081E+00 4.55223E-01-1.21878E+00
 -1       770-7.36178E-02 7.24596E-01 3.56892E-01-7.62955E-01 6.43111E-01-5.31142E-01
 -1       771-2.47563E+00-6.67152E-01-2.71181E-01-5.24555E-01-1.05071E+00-2.04217E-01
 -1       772-1.75237E+00-3.30062E+00 5.92864E-01 1.30225E-01-6.66102E-01-6.97133E-01
 -1       773-1.47913E+00-1.89389E+00-1.90946E-01-3.33845E-01-9.49384E-01 6.04538E-02
 -1       774-3.89896E-01-1.67720E+00 1.35256E-01-2.97634E-01-9.81925E-01 3.14178E-01
 -1       775-1.04678E+00-1.49249E+00 3.34075E-01-1.70255E-01-5.42024E-01 4.19009E-01
 -1       776-2.05934E+00-1.96503E+00-4.20766E-01-3.65052E-01-3.80608E-01 1.82965E+00
 -1       777-3.37432E+00-3.18545E+00 4.78123E-01-6.87486E-01 3.20784E-02 5.89365E-01
 -1       778-1.67032E+00-1.24101E+00 1.53790E+00-4.72024E-01-1.32084E+00 4.17678E-01
 -1       779-4.26522E+00-4.10696E+00-2.49188E+00-8.82934E-01-8.15819E-01-2.96083E+00
 -1       780-9.88096E-01-2.03270E+00-2.08753E+00-3.38085E-01 1.41934E+00 1.74181E+00
 -1       781-7.23220E-01-1.20230E+00-7.25919E-01 2.17346E-01-8.28066E-01-1.27479E-01
 -1       782-1.83477E+00-2.00269E+00-8.30329E-01-9.89414E-02-3.30650E-01 1.18140E+00
 -1       783 1.14322E-01 6.13201E-01 4.87213E-01 4.21169E-01-5.97907E-01 8.55872E-01
 -1       784-7.97220E-01-8.72009E-02 7.98205E-01-2.99207E-01-7.67624E-01 4.68991E-01
 -1       785-2.56352E+00-2.14403E+00-3.71955E+00-4.59477E-01 3.05575E+00-1.07589E+00
 -1       786-2.02356E+00-2.87816E+00-3.41437E+00-5.82048E-01-1.68843E-02-2.58545E+00
 -1       787-3.23339E+00-2.91843E+00 1.38039E-01 2.79906E-01 5.64696E-01-6.96286E-01
 -1       788-1.68912E+00-1.40689E+00 3.94948E-01 1.10000E+00 4.80821E-01-7.63929E-01
 -1       789-2.32717E+00-2.20836E+00-6.55079E-02-4.05501E-01-2.47080E-01 2.76379E-01
 -1       790-1.30253E+00-1.12093E+00-4.12407E-01 4.04875E-01-7.44592E-01-1.63088E-01
 -1       791-1.10162E+00-8.41135E-01-3.76919E-01-6.09152E-01-5.85303E-01 5.08707E-01
 -1       792 9.20337E-02 1.18737E-01-1.82502E-01-1.82646E-01-5.72288E-01 4.80379E-01
 -1       793 7.86514E-01 9.57100E-01 1.90153E-01-7.52172E-01 5.38841E-01-5.17523E-01
 -1       794 6.22209E-01 9.06272E-01 2.57460E-01-6.70871E-01 5.31893E-01-5.83460E-01
 -1       795-5.30079E+00-4.21156E+00 1.61015E+00-2.64972E+00-7.06523E-01 7.52403E-01
 -1       796-2.51271E+00-2.38538E+00 9.07432E-01 2.07472E-01-2.94831E-02-2.15240E-01
 -1       797-1.30913E+00-1.75635E+00 4.71397E-01-1.87351E-01-5.80257E-01 5.13279E-01
 -1       798-1.32890E+00-1.85905E+00 4.46059E-01-5.42207E-01-2.06832E+00 9.05063E-01
 -1       799-6.15885E-01-1.32116E+00 1.15217E+00-4.58657E-01-1.22794E+00 1.23475E+00
 -1       800-8.08311E-01-1.60312E+00 8.91472E-01 9.11120E-02-2.10467E-01 9.04207E-01
 -1       801-2.76918E+00-2.65559E+00 3.84427E-02-1.58817E-01 1.21807E+00 6.99216E-01
 -1       802-5.24070E-01-2.33470E+00 3.40019E-01-9.99206E-01-4.28957E-01 1.48533E+00
 -1       803-4.66327E+00-4.40836E+00-2.65633E+00-1.02348E+00-1.48437E+00-2.90754E+00
 -1       804-2.44300E+00-1.60875E+00-1.34668E+00 7.03880E-01 1.31817E+00 5.78493E-01
 -1       805-1.45607E+00-1.38035E+00-3.67796E-01-3.26245E-01-9.47971E-01-5.41117E-01
 -1       806-2.36690E+00-2.50458E+00-1.04610E+00 7.96328E-02 3.38817E-01 1.88861E+00
 -1       807-1.97620E+00-1.30638E+00-1.45935E-01-8.32277E-01-8.30244E-01 6.53457E-01
 -1       808-2.00320E+00-2.09980E+00-7.23581E-01-1.18571E+00-1.23391E+00 6.68496E-02
 -1       809-1.46645E+00-1.51749E+00-1.28076E+00-2.79660E-01 1.21735E+00-1.22816E+00
 -1       810-1.72240E+00-2.28369E+00-4.47796E+00-2.88624E-01-7.39846E-01-2.94767E+00
 -1       811-4.06489E+00-3.78240E+00 5.15417E-01-2.87015E-01 6.05371E-01-1.35702E+00
 -1       812-3.14065E+00-1.16282E+00 5.65692E-02 4.54313E-01 1.00707E-01-1.38609E+00
 -1       813-1.99498E+00-2.91623E+00 6.91219E-02-6.15687E-03-6.34992E-02 5.66705E-01
 -1       814-2.26164E+00-2.71944E+00-6.33902E-02-3.99347E-02-3.63001E-01 3.17798E-01
 -1       815 1.13705E-01-8.35876E-01-4.51428E-01-4.55259E-01-2.20398E-01 6.81330E-01
 -1       816-2.19599E-01-6.57042E-01-7.06883E-02-3.02102E-01-3.45819E-01 8.84041E-01
 -1       817 9.31958E-01 2.85937E-01 2.80375E-01-8.90737E-01 9.62574E-01-7.05279E-01
 -1       818 6.52702E-01-1.62365E-01 5.04215E-01-9.16701E-01 5.66680E-01-8.41949E-01
 -1       819-2.30141E+00-3.14202E+00-5.55198E-01-9.42488E-01-2.83960E-01 3.16395E-01
 -1       820-3.22508E+00-2.20100E+00 7.36744E-01-2.74216E-02-4.09696E-01 4.88068E-02
 -1       821-1.50036E+00-1.23903E+00 1.77121E-01-1.52494E-01-4.14958E-01 4.37665E-01
 -1       822-7.39065E-01-7.16622E-01-3.84104E-01 1.25814E-01-6.23305E-01 1.00355E+00
 -1       823-1.08203E+00-8.25116E-01-8.70560E-02-2.03837E-01 3.11165E-01 1.07311E+00
 -1       824-1.34448E+00-1.50280E+00 4.74692E-01-1.23360E-01-3.12679E-02 8.03042E-01
 -1       825-2.96760E+00-2.15351E+00 1.16251E+00-3.76011E-01 6.29436E-01 6.04940E-01
 -1       826-1.85201E+00-4.95162E+00 3.95226E-01-1.23328E+00-4.93351E-01 8.03390E-01
 -1       827-3.78588E+00-4.99017E+00-2.86290E+00-1.61906E+00-3.13164E+00-2.13792E+00
 -1       828-3.68285E+00-3.24989E+00-8.35374E-01-5.70740E-01 2.26820E+00 7.23662E-01
 -1       829-2.07829E+00-2.04543E+00-1.07196E+00-2.53908E-01-1.36989E+00 2.76397E-01
 -1       830-1.25662E+00-1.35938E+00-3.46717E-01 1.60528E-01 5.93601E-01 1.02660E+00
 -1       831-2.17714E-01-3.98901E-01 7.02641E-01 3.38403E-01-3.97088E-01 8.13067E-01
 -1       832 6.05773E-01 1.99688E-01 5.40689E-01 7.98347E-01-3.97736E-01 1.08768E+00
 -1       833 9.50870E+00 1.02546E+01 5.92898E+00 4.33280E+00 1.00571E+01 7.26088E+00
 -1       834-9.74963E-01-1.08858E+00 2.08846E+00-7.00845E-01 3.72323E+00 2.71487E+00
 -1       835 6.42125E+00 6.21045E-01 2.02318E+00 6.95168E+00-1.04160E+00 9.17110E+00
 -1       836-3.74867E-02-5.21549E-01-1.51191E+00 4.33249E+00-1.00587E+00 6.20032E+00
 -1       837 1.49844E+00 2.04942E+00-6.22890E-02 1.58904E+00-3.27408E+00 1.16480E+00
 -1       838-6.22930E-01-3.76267E+00 8.25344E-01-6.20065E-01-1.72876E+00 1.96394E+00
 -1       839-1.70986E+00-9.40534E-01-3.64555E+00 5.36431E-01 1.13590E-01 2.74101E+00
 -1       840-1.53650E+01-6.42816E+00-6.53795E+00-1.29040E+00 1.02871E+00 7.61334E+00
 -1       841 3.54296E+00 3.90039E+00 1.91533E+00-4.01977E+00 5.54210E+00-2.15373E+00
 -1       842 1.59524E+00-2.61771E+00-7.60782E-01-5.18675E+00 4.58179E+00-2.08453E+00
 -1       843-4.69223E+00-3.32972E+00 6.09651E-01 2.90910E+00 2.54812E+00-6.11447E+00
 -1       844 4.68121E+00 8.38225E-02-2.59150E+00-6.04622E-01 3.37599E+00-4.14117E+00
 -1       845-2.45151E+00 4.27658E+00-2.06939E+00-1.14811E+00-1.79235E+00 2.58485E+00
 -1       846-6.02304E+00 4.72916E+00-2.12480E+00-2.74812E-01-1.34709E+00 2.87100E+00
 -1       847 1.02776E+00-1.68496E+00-3.16974E+00-3.42247E-01-1.03500E+00 4.15657E-01
 -1       848 1.27625E+01 3.88365E+00 4.46216E+00 3.35750E-01 9.82705E-01 4.37367E-01
 -1       849 3.55572E+00-5.20800E-01-1.21033E+00 4.86230E-01 1.14271E+00-8.41554E-01
 -1       850-7.28100E+00-7.01777E+00-4.28963E+00-3.38995E+00 4.09753E+00 2.35036E+00
 -1       851 2.25937E+00 2.76313E+00-2.36461E+00 1.92799E+00-5.35680E-01 2.07919E+00
 -1       852-4.33058E+00-2.18541E+00-1.95480E+00-9.51004E-01 5.83635E-01 3.91785E+00
 -1       853-1.42755E+00-1.87112E+00-1.81064E+00-3.19421E-01 1.57726E+00-1.40591E+00
 -1       854-6.62409E+00-1.22409E+01-2.32063E+00-3.40757E+00 2.44088E+00-1.33338E+00
 -1       855-1.89341E-01 1.67086E+00-2.54365E-01-1.60884E+00 4.71957E-01 1.91685E+00
 -1       856-3.86108E+00-8.23679E+00-3.62936E+00-2.23549E+00 4.45088E+00 4.07455E+00
 -1       857-1.66104E+00-2.84547E+00-1.93256E+00 3.40789E-02-3.07225E-01-1.54693E+00
 -1       858-5.10630E+00-1.15652E+01-1.47502E+00-2.22966E+00-7.02733E-01-1.22785E+00
 -1       859-4.07749E+00-1.56256E+00-2.27134E+00-8.59638E-01 7.68962E-01-4.91412E+00
 -1       860 4.81357E+00 7.41089E-01-2.45218E+00-1.02979E+00-4.08707E-01-4.35016E+00
 -1       861-1.36456E+01-1.26259E+01-7.88145E+00 5.24427E+00 6.14849E+00-7.69285E+00
 -1       862 1.61076E+00 1.90146E-01-5.81289E+00-1.63125E+00 2.16931E+00-3.32831E+00
 -1       863 1.91371E+00 1.45642E+00-2.77806E+00-1.71806E+00-1.24729E+00 2.52294E-01
 -1       864-1.59288E+00-5.89504E+00-3.06518E-01 1.23386E+00-1.96739E+00 1.77895E+00
 -1       865 5.79580E-01 4.87127E+00-6.04173E-01 2.08075E+00 4.23162E+00 1.14550E+00
 -1       866-1.62755E-02 2.18662E+00 6.95085E-01 3.53764E+00 6.55038E+00 1.27224E+00
 -1       867-7.22418E+00-1.46378E+00-1.53211E+00 3.30729E+00 2.76982E+00-1.19319E+00
 -1       868-1.38167E+01-9.92345E+00-3.70645E+00 6.61466E+00 1.93282E+00-9.60196E-01
 -1       869-4.81941E-01-8.60855E-01-2.00564E+00-6.65158E-02-2.90804E-01 3.00636E+00
 -1       870-1.48500E+01-6.65347E+00-6.45104E+00-1.44120E+00 9.91067E-01 1.00609E+01
 -1       871 2.15623E+00 7.92896E-01 2.58430E-01-1.49615E+00-5.53376E+00 3.04533E+00
 -1       872-1.35334E+00-7.10503E+00 1.84274E-01 1.03234E+00-4.69520E+00 3.85082E+00
 -1       873-2.74662E+00-2.83313E+00-2.01179E+00 9.20346E-01-2.73626E-01-1.13750E+00
 -1       874-1.15958E+01-6.47940E+00 2.28111E-01 4.26651E+00 1.23868E+00-1.47873E+00
 -1       875 4.54986E+00 4.80235E+00 1.99870E+00-4.12232E+00-2.40988E+00 5.40743E+00
 -1       876-2.12847E+00 3.26562E+00 2.28464E+00-3.08157E+00-2.84583E+00 1.26786E+00
 -1       877 8.63095E-01 4.10507E+00 2.12224E+00-3.90323E-01-5.60263E+00 5.16319E+00
 -1       878-6.24849E+00-4.72182E+00-1.97133E+00 2.81247E+00-4.14771E+00 4.01816E+00
 -1       879 3.83657E+00 1.00879E+01 2.43877E+00 9.43944E-01-1.72691E+00 1.39924E+00
 -1       880 2.05150E+00 1.17251E+00 7.37730E+00 9.92941E-01 1.74244E+00 3.35667E+00
 -1       881 3.80205E+00 1.03982E+01 2.82349E+00 2.66030E+00-6.70319E+00-4.74440E-01
 -1       882-1.79393E+00 4.63424E+00-9.10083E-01 4.86787E-01-8.08513E+00 1.10264E+00
 -1       883 1.36631E+00 7.25448E-01 1.18169E+00 2.38752E-01 1.98109E+00-1.99771E+00
 -1       884 9.57215E+00 1.63713E+00-2.48189E+00 1.16057E+00 1.41368E+00-1.08235E+00
 -1       885-3.17081E+00-8.05105E+00-3.36656E+00 5.59207E-01-6.84599E+00-8.03343E-01
 -1       886-5.07721E+00-1.20486E+01-5.13775E+00 1.25393E+00-8.02927E+00 1.54936E+00
 -1       887-3.29485E+00-6.72127E+00-3.00484E+00-1.36916E+00-3.25096E+00-4.16855E-01
 -1       888-4.50856E+00-1.59160E+00-4.22613E-01-1.53613E+00-3.00517E+00-4.25995E+00
 -1       889-6.37771E+00-1.49488E+00 2.63552E-01-7.79316E-01-1.18634E+00-4.38093E+00
 -1       890-5.20005E-01-2.21473E+00-1.31055E-01 3.49876E+00 2.62097E+00-6.37043E+00
 -1       891 5.52811E+00-1.10489E+00 9.07637E-01 4.14336E+00 3.19280E+00-5.16289E+00
 -1       892 2.48720E+00 4.35954E+00 5.49413E-02 2.13921E+00-1.04898E+00-4.07626E+00
 -1       893 4.39653E+00 2.44315E+00-1.07790E+00 2.12705E+00-2.12823E-01-5.07493E+00
 -1       894 2.01740E+00 2.86361E+00-2.50296E+00-3.01262E+00-3.20466E+00-4.52501E+00
 -1       895-1.07661E-01 5.65073E-01-2.81247E-01 8.96815E-01-2.00780E+00 2.27905E-01
 -1       896 1.94288E+00 2.40627E+00-3.89145E+00 2.23274E+00-6.68781E-01 2.27317E+00
 -1       897-5.56289E+00-3.25621E+00 2.70124E-01 9.37387E-02 2.81366E-01-4.65213E-01
 -1       898-1.56676E+00-4.66117E-01-3.78651E-01-3.76647E-01-6.03073E-02-9.12579E-01
 -1       899-5.76884E+00-1.30844E+00 3.37568E-02-5.86073E-02-2.54708E-01-5.23637E-01
 -1       900-3.08246E+00-2.29789E+00 7.79752E-01-3.03504E-01 3.84278E-01 1.77721E-01
 -1       901-1.42169E+00-1.08129E+00 3.80981E-01 3.17431E-01-1.55553E-01 1.04245E+00
 -1       902 9.95160E-01-6.84738E-01-5.50629E-01 1.94474E-01-1.25159E-02-3.80353E-01
 -1       903-1.20244E+00-1.13638E+00 3.51928E-01 3.37834E-01-4.99618E-02 1.12314E+00
 -1       904 6.10450E-01-6.03453E-01-3.51690E-01 4.91848E-01-2.81009E-01 5.92859E-01
 -1       905-1.03769E+00-1.33740E+00 4.40491E-01-2.03293E-02 5.61484E-01 9.60944E-01
 -1       906-3.42142E+00-7.90699E+00-8.14208E-01-6.93284E-01 3.53997E-02 2.01503E+00
 -1       907-1.28278E+00-1.88411E+00-2.52683E-01 2.27915E-02-4.98310E-01 8.81434E-01
 -1       908-1.82791E+00-2.31165E+00-2.74928E-01 2.11235E-02 2.46133E-01 1.37737E+00
 -1       909-1.67251E+00-3.51325E+00-1.53555E+00 1.64781E-01-1.67627E-01 2.71868E-01
 -1       910-2.45966E+00-1.31899E+00-1.36122E-01-8.31521E-01-8.74917E-01-1.03077E+00
 -1       911-5.35197E+00-3.71073E+00 8.50824E-01-1.51879E+00-1.03482E-01-3.50800E-02
 -1       912-1.90809E+00-1.47445E+00-1.40294E-01-3.06398E-01-5.25545E-01-1.09060E+00
 -1       913-9.27283E-01-2.17805E-01-4.92759E-01-3.85986E-01 4.44089E-01 1.20823E+00
 -1       914 2.00119E-01-1.28948E+00-2.73415E-01 3.43077E-02 4.06229E-01 1.02344E+00
 -1       915-1.27151E+00-9.24595E-01 1.52264E-01 8.28169E-02 1.16691E-01 1.10345E+00
 -1       916-2.49756E+00-4.42974E+00 5.70960E-01 2.00957E+00 9.59092E-02 9.35733E-01
 -1       917-7.61253E-01-1.04541E+00 3.65958E-01-1.45912E-01 2.60056E-01 6.71091E-01
 -1       918-1.48627E+00-1.86842E+00 3.48143E-01 2.78254E-01 6.29737E-01 5.41487E-01
 -1       919-1.83332E+00-3.11339E+00 6.06076E-02 1.01534E+00 7.96333E-01 2.82082E-01
 -1       920-2.09437E+00-1.98621E+00 1.64990E-01-9.22389E-02 5.28745E-01 1.66858E-01
 -1       921-2.31248E+00-3.15704E+00 6.40580E-01-3.70583E-01-6.07156E-02-2.66798E-02
 -1       922-1.64913E+00-1.66265E+00-3.80456E-01-3.82516E-01-9.48194E-01-9.97139E-01
 -1       923-3.84404E+00-3.87066E+00 3.94758E-01-1.27956E+00-4.15577E-01-3.40627E-01
 -1       924-1.47985E+00-1.05296E+00-2.80831E-01-9.82479E-01-5.82775E-01-8.07794E-01
 -1       925-2.09068E-01 1.89402E-01 6.19000E-01-7.80483E-03 4.43183E-02 4.55189E-01
 -1       926-2.46926E+00-1.65407E+00 4.31745E-01 3.27188E-01 1.02447E+00 1.02617E+00
 -1       927-4.73295E-01-6.49902E-01-4.35229E-01 8.48661E-01 3.43746E-01 8.86967E-01
 -1       928-1.53538E+00-8.67916E-01 2.90030E-01 1.95136E-02 1.08448E+00 6.75632E-01
 -1       929-7.05740E+00-5.78699E+00-1.41061E+00 3.00307E+00 1.59416E+00 1.99593E+00
 -1       930-9.80636E-01-1.40255E+00-2.63112E-01 1.51073E-01 7.41779E-01 3.06925E-01
 -1       931-1.22262E+00-1.47574E+00-9.82075E-01 1.68017E-01 1.02005E+00 2.95265E-01
 -1       932-2.28649E+00-2.43332E+00-1.26768E+00 1.01227E+00 2.05384E-01-2.82943E-01
 -1       933-1.79385E+00-3.08474E+00 2.74981E-01 2.57888E-01 1.33240E-01 9.22516E-02
 -1       934-9.45558E-01-1.56217E+00 1.89936E-01 1.92029E-02 1.15295E+00 2.46605E-01
 -1       935-1.91507E+00-2.14037E+00-9.57661E-02-2.29827E-01-3.24616E-01 1.16148E+00
 -1       936-1.61007E+00-2.32266E+00 3.46119E-02 2.40205E-01 2.82845E-01 3.05676E-01
 -1       937-2.81099E+00-1.94824E+00 5.48434E-02 1.94280E-01 7.29220E-01 5.51278E-01
 -1       938-1.50640E+00-3.43459E-01-2.37573E-01 4.93452E-01 1.25400E+00 6.66608E-01
 -1       939-1.46698E+00-1.85007E+00-9.64026E-01 6.61104E-02 1.13550E+00 7.16761E-01
 -1       940-6.08472E+00-2.62683E+00-2.20694E-01 1.42550E+00 1.89998E+00 1.03479E+00
 -1       941-2.06381E+00-8.64539E-01-1.91041E-01-2.40335E-01 5.65700E-01 6.74207E-01
 -1       942-2.47018E+00-1.47834E+00-8.50742E-01-7.67359E-03 6.83676E-01 3.03176E-01
 -1       943-2.63434E+00-1.23476E+00-3.55962E-02 1.33808E-01 6.00976E-01 4.08687E-02
 -1       944-2.10473E+00-3.00750E+00 4.52061E-01 1.89853E-01 1.93188E-01-4.24764E-01
 -1       945-1.61382E+00-2.26310E+00-3.72199E-01-5.11022E-02-1.60888E+00-2.24708E-01
 -1       946-2.72252E+00-6.19715E+00 6.37704E-01-1.07501E-01-3.19863E-01 6.54466E-02
 -1       947-6.93166E-01-2.35034E+00-6.30179E-01-1.90980E-01-1.17810E+00-1.57741E-01
 -1       948-1.36981E+00-1.76358E+00 8.43275E-02 1.53655E-01 3.44952E-01-2.07526E-02
 -1       949-2.03370E+00-2.93057E-01 1.11024E+00-5.51632E-02 6.19272E-01 3.36456E-01
 -1       950-2.01590E+00-1.56411E+00-7.87567E-01 2.22961E-01 1.06088E+00-8.31141E-02
 -1       951-8.94690E-01 5.98664E-01 2.15744E-01-1.17512E-01 9.55116E-01-7.73911E-03
 -1       952-1.60987E-01-1.24737E+00-1.57448E-01 2.83991E-01 1.07812E+00-3.64269E-01
 -1       953-9.38284E+00-3.34166E+00-2.45375E-01-2.60393E-01 8.05800E-01 2.14867E-01
 -1       954-3.58082E+00-1.35886E+00-4.62236E-01 4.40100E-02 7.83477E-01-2.04461E-01
 -1       955-3.15338E+00-2.42443E+00-7.32520E-01 7.77566E-01 6.30675E-01 2.08539E-02
 -1       956-1.35763E+00-1.06734E+00-1.96739E-01 2.02054E-02 1.14413E+00-1.87875E-01
 -1       957-3.08876E+00-1.27724E+00-1.29295E+00-3.09347E-01 2.97231E-01 1.32695E-02
 -1       958-1.67884E+00-1.78911E+00 2.88150E-01 3.50237E-01 4.87388E-01 3.26467E-02
 -1       959-1.12116E+00-2.01499E+00 3.47297E-02 1.38360E-01 4.87101E-01-5.76489E-01
 -1       960-2.37058E+00-2.56967E+00 6.15107E-01 4.42786E-01 1.46430E-01-3.94232E-01
 -1       961-3.80054E+00-1.86302E+00 8.16375E-01-6.16654E-01 8.03579E-02-1.16340E-01
 -1       962-2.73377E-01 4.57733E-02-4.66109E-01-3.62008E-01 1.08463E+00-2.99096E-01
 -1       963-2.07768E+00-1.74189E+00-4.40051E-01-8.78809E-02 7.37186E-01-5.28724E-01
 -1       964-6.27450E+00-3.80730E+00-8.93699E-01-1.86148E+00 1.68294E+00-7.20962E-01
 -1       965-2.42553E+00-1.00483E+00 1.82234E-02-2.41766E-01 5.28493E-01-5.62733E-02
 -1       966-1.96605E+00-1.31037E+00 3.09064E-01-3.68842E-01 6.85465E-01-5.07159E-02
 -1       967-1.11063E+00-1.26576E+00-6.96641E-02-1.88206E-01 7.17898E-01-4.51728E-01
 -1       968-3.46874E+00-2.45269E+00-2.80366E+00-9.82181E-01 5.21898E-01-5.14752E-01
 -1       969-2.27802E+00-1.61421E+00 1.28928E-01 1.99759E-01 3.45369E-01-3.01470E-01
 -1       970-9.78231E-01-1.26756E+00-1.02143E-01 1.00734E+00-5.55115E-01 7.30775E-01
 -1       971-5.07024E+00-4.92747E+00 7.58754E-01 1.17154E+00 5.00596E-02 7.38209E-01
 -1       972-1.92608E+00-2.21955E+00-1.30374E-01 1.09471E+00-9.03482E-01 9.77925E-01
 -1       973-5.21172E+00-2.97562E+00-2.26978E-01-1.37096E+00 8.92004E-01-1.08818E-01
 -1       974-1.11378E+00-1.05585E+00-6.91306E-01 2.20768E-01 1.13407E+00-6.38802E-01
 -1       975-1.34369E+00-4.72214E-01-4.83779E-01-1.30519E-01 1.26294E+00-8.00353E-01
 -1       976-1.09492E+00-7.75490E-01-7.48029E-02 2.59005E-01 1.42660E+00-8.45650E-01
 -1       977-2.15796E+00-1.85985E+00-5.82919E-01-4.58149E-01 1.09435E+00-6.98009E-01
 -1       978-1.43472E+00-2.05552E+00-1.14221E+00-8.08451E-01 3.72879E-01 6.71583E-02
 -1       979-1.89627E+00-8.99244E-01 1.99020E-01-2.60504E-01 3.07237E-01-8.67904E-01
 -1       980-2.08490E+00-2.38301E+00-9.93241E-01-4.80360E-01 7.75706E-01-4.85815E-01
 -1       981-1.67031E+00-2.43456E+00-6.09155E-01-9.64574E-01 3.16462E-01-3.55620E-01
 -1       982-2.07911E+00-8.64793E-01 7.99876E-02 3.62910E-01 2.87302E-01-1.12303E+00
 -1       983-2.38863E+00-1.63678E+00 2.72598E-01-1.64267E-01 7.14189E-02-4.67588E-01
 -1       984-1.80091E+00-1.31263E+00-3.74923E-01-1.11614E-01-3.46946E-01 1.30681E+00
 -1       985-6.00441E+00-2.41705E+00 6.40265E-01 5.49725E-01-6.54215E-02 6.20536E-01
 -1       986-3.09003E+00-1.19942E+00-3.03683E-01 5.54129E-01-5.95060E-01 9.55305E-01
 -1       987-2.07160E+00-3.10602E+00 4.14315E-01-8.71299E-01 1.49122E-01-2.02242E-01
 -1       988-8.83186E-01-4.67256E-01 3.81624E-01-6.70170E-02 4.41691E-01-1.30412E+00
 -1       989-1.62031E+00-1.28318E+00-8.27487E-01 3.51236E-01 3.07121E-01-8.76835E-01
 -1       990-3.57220E+00-9.20925E+00-4.02740E-01-9.10727E-01 1.09115E+00-2.08872E+00
 -1       991-1.70630E+00-2.35663E+00-1.00279E+00-7.96952E-01 2.34080E-01-4.93332E-01
 -1       992-1.06044E+00-1.50442E+00 4.73440E-01-1.45752E-01 5.27130E-01-6.83947E-01
 -1       993-1.01574E+00-1.69641E+00-5.41496E-01 3.48485E-01 3.42354E-02-9.43692E-01
 -1       994-1.93330E+00-4.87988E+00-8.19961E-01-3.05214E-01-2.17546E-01-7.33044E-01
 -1       995-2.49367E+00-1.85990E+00 1.56900E-01-4.67947E-01 2.34811E-01-2.48401E-01
 -1       996-2.46022E+00-7.46106E-01-5.48854E-03-5.65283E-03 2.08118E-02 1.05935E+00
 -1       997-5.75114E+00-2.84260E+00 8.06515E-01-5.95075E-01 4.54581E-01 8.91371E-01
 -1       998-2.96091E+00-4.53740E-01-2.60353E-01 2.06388E-01-5.51379E-02 9.27190E-01
 -1       999-9.46267E-01-2.39477E+00-4.83926E-02-5.25562E-01-3.85334E-01-3.90673E-01
 -1      1000-3.20129E-01-3.78154E-01-3.20003E-02 3.74648E-01 3.85494E-01-1.16213E+00
 -1      1001-1.76858E+00-1.41600E+00-3.47709E-01 1.76186E-01 1.94097E-01-1.52914E+00
 -1      1002-2.40296E+00-6.62104E+00-2.43728E+00 8.51213E-01-5.10837E-01-2.40728E+00
 -1      1003-1.49239E+00-4.33853E+00-1.67831E+00 1.79274E-01-1.42739E-01-3.34742E-02
 -1      1004-1.63066E+00-2.36254E+00-5.41490E-01-3.40190E-01-2.08552E-01-8.41508E-01
 -1      1005-1.32637E+00-1.70606E+00 2.91568E-02 1.72904E-01-3.97882E-01-8.40648E-01
 -1      1006-1.88960E+00-3.11439E+00-1.88604E+00 5.94786E-01-5.85121E-01-4.78391E-01
 -1      1007-1.24682E+00-4.96331E-02-3.05657E-01-4.97712E-01 5.45969E-01 9.40394E-01
 -1      1008-5.70200E+00-3.15142E+00 3.59517E-01-5.92997E-01 2.60395E-01-2.64138E-02
 -1      1009-3.25189E+00-2.59874E+00 2.96684E-01 4.14388E-01 1.34191E-01-3.30786E-01
 -1      1010-1.78831E+00-1.56301E+00 1.99734E-01 7.05198E-02 1.00888E-01-4.77355E-01
 -1      1011 1.69985E-01-4.53774E-01-3.36238E-01 5.28218E-01 3.21339E-01-2.69444E-02
 -1      1012-1.49185E+00-3.39696E+00 5.15601E-02 6.14078E-01 6.45536E-01-1.02592E+00
 -1      1013-1.45808E+00-1.15932E+00-1.10124E+00 3.59276E-01-1.58987E-01-1.35131E+00
 -1      1014-3.74867E-01-1.08023E+00-2.38510E-01 5.34740E-01-2.20953E-01-9.65486E-01
 -1      1015-1.66874E+00-1.75311E+00-7.28857E-01 1.80718E-01-1.26527E-01-1.11288E+00
 -1      1016-6.13555E+00-1.07253E+01-2.34578E+00 3.20820E+00-7.80632E-01-1.89410E+00
 -1      1017-2.23580E+00-4.49779E+00-1.42721E+00 8.43644E-01-4.25346E-01-6.33923E-01
 -1      1018-1.72787E+00-2.57735E+00-2.35326E-01 4.44192E-01 2.43979E-01-9.37630E-01
 -1      1019-1.75503E+00-1.26758E+00-6.92637E-01 2.15007E-01-3.12526E-01-5.17125E-01
 -1      1020-1.97729E+00-1.90617E+00-1.32039E+00 7.55024E-01-1.64783E-01-6.47582E-01
 -1      1021-5.04540E+00-3.94455E+00 3.71578E-01-1.56167E+00 9.95279E-02 3.56178E-01
 -1      1022-1.79814E+00-2.11826E+00-3.42056E-02-7.63354E-01 9.87564E-01 6.28278E-01
 -1      1023-4.20877E+00-3.18551E+00 6.90361E-02-2.57556E+00 2.54518E-01 1.02258E-01
 -1      1024-3.39771E+00-2.46084E+00 5.04423E-01-2.44135E-01 1.86729E-01-5.35866E-01
 -1      1025-1.65418E+00-2.05882E+00 1.72861E-01-1.97366E-01-1.68897E-01-4.57159E-01
 -1      1026-1.43199E-01-2.15447E-01-6.00085E-01 3.23679E-01-2.46285E-01-1.30285E-01
 -1      1027 5.33318E-01-9.18746E-01 1.85223E+00-4.32312E-01-9.40515E-04-9.98505E-01
 -1      1028-1.63289E+00-1.40617E+00-6.76123E-01-1.64678E-01-5.75253E-01-6.11179E-01
 -1      1029-5.68012E-01-3.29270E-01 6.08880E-01-4.00931E-01-1.27901E+00-1.14289E+00
 -1      1030-1.84631E+00-1.78133E+00-1.44140E+00-1.67605E-02-3.39739E-01-7.13088E-01
 -1      1031-2.56784E+00-2.17703E+00-7.28352E-01 8.42359E-01-1.71380E+00-1.48104E+00
 -1      1032-3.01646E+00-1.94669E+00-2.12449E+00 1.35358E+00-6.53685E-01-1.39467E-01
 -1      1033-1.29849E+00-2.36380E+00-7.05311E-01 1.58585E-01-8.16174E-01-7.05015E-01
 -1      1034-1.25356E+00-1.52317E+00-1.96395E-01 2.60507E-01-7.81688E-01-5.85746E-01
 -1      1035-2.76756E+00-1.94582E+00-6.76895E-01 9.09230E-01-6.64473E-01-1.98385E-01
 -1      1036-1.80708E+00-2.17737E+00 8.14654E-02 2.33366E-01-4.73422E-01-2.17443E-01
 -1      1037-1.24562E+00-2.97332E+00-2.57707E-01-5.93556E-01 1.00732E+00 8.30524E-01
 -1      1038-2.42707E+00-5.52239E+00 6.64923E-01-1.47320E+00 4.76381E-01-5.38310E-02
 -1      1039-2.16633E+00-3.44181E+00 4.35725E-01 1.33930E-01-2.16692E-01-1.86421E-01
 -1      1040-2.96855E+00-1.38676E+00-6.75513E-01 1.00236E-01-7.94616E-01-5.97038E-02
 -1      1041-1.16123E+00-4.36806E-01-3.43687E-01 5.13268E-01-1.84098E+00-5.43600E-01
 -1      1042-1.13985E+00-9.91466E-01 5.65720E-01-4.87217E-02-1.02431E+00-2.53448E-01
 -1      1043-9.56465E+00-4.00361E+00-1.39198E+00 1.06380E+00-1.54096E+00 4.65988E-01
 -1      1044-2.84081E+00-2.63950E+00-1.02433E+00 1.29437E+00 7.67074E-02-7.29657E-01
 -1      1045-2.22236E+00-1.60564E+00 9.03366E-02 3.23782E-01-7.72503E-01-6.36101E-01
 -1      1046-1.45423E+00-1.33130E+00-6.79278E-01-2.48915E-01-6.42043E-01-2.05977E-01
 -1      1047-2.58344E+00-1.30538E+00-9.70905E-02 6.84605E-01-7.71943E-01-6.49105E-02
 -1      1048-1.55835E+00-2.39299E+00 3.09008E-01 2.64016E-01-4.41195E-01-2.31090E-01
 -1      1049-2.54357E+00-5.85622E+00 4.84958E-01 1.81008E-03 6.40459E-01-4.78587E-02
 -1      1050-1.10496E+00-2.35806E+00-9.61752E-02 1.36975E-01-1.05615E+00 8.52328E-02
 -1      1051-4.89634E-01 4.24371E-01-7.91914E-01 1.36694E-01-2.45559E-01 1.49821E-01
 -1      1052-3.04190E+00-1.92183E+00-1.76459E-01 3.74117E-01-2.92377E-01 2.95090E-01
 -1      1053-1.05339E-01-1.52296E+00-1.93385E-01 5.98979E-01-1.77349E+00 6.10113E-02
 -1      1054-5.34477E-01-1.44276E+00 1.10982E-01 2.86381E-01-1.13985E+00-4.51847E-02
 -1      1055-8.21073E+00-2.73636E+00-5.26714E-01-7.60180E-01-1.76688E+00-1.27520E+00
 -1      1056-1.59996E+00-4.10783E-01-6.11133E-01 4.67747E-01-8.06052E-01-2.09621E-02
 -1      1057-2.59743E+00-1.92159E+00-6.65655E-01 5.88649E-01-1.11060E+00 3.97387E-01
 -1      1058-1.05054E+00-1.37961E+00 4.96255E-02-4.65872E-01-7.53042E-01 2.88765E-01
 -1      1059-2.21071E+00-1.49971E+00-1.50205E+00-5.31729E-01-5.94565E-01 6.95398E-02
 -1      1060-2.12352E+00-2.06013E+00 5.98869E-01-1.19405E-02-4.01309E-01 3.02933E-01
 -1      1061-1.37218E+00-2.21024E+00-3.85238E-01 2.59436E-02 1.66794E+00-3.07155E-01
 -1      1062-3.52850E+00-5.90810E+00 3.73381E-01 6.87765E-02-1.87202E-01-1.28044E-01
 -1      1063-1.46843E+00-3.12426E+00-1.07552E-01 7.09798E-02-4.39353E-01-8.56454E-01
 -1      1064-1.13287E+00-1.43844E+00 9.05034E-02 7.43758E-02-5.42729E-01 1.99592E-01
 -1      1065-3.77702E+00-2.37783E+00-8.47756E-01-8.98987E-01-1.20984E+00-2.35131E-02
 -1      1066-1.41480E+00-1.16595E+00-4.22392E-01 6.54462E-02-8.12274E-01 3.89381E-01
 -1      1067-1.04329E+00-3.26755E-01-3.18817E-01-6.84698E-01-1.05463E+00-1.33629E-01
 -1      1068-5.74605E-01-1.33102E+00-4.70127E-01-3.06876E-01-3.39111E-01 1.10268E+00
 -1      1069-6.44342E+00-5.18121E+00-6.24741E-01-2.34204E+00-8.51937E-01 7.26768E-01
 -1      1070-3.99600E+00-2.59545E+00-1.32346E+00-1.15677E+00-5.77760E-01-2.53451E-01
 -1      1071-1.73712E+00-1.65225E+00-3.78534E-01-2.29577E-01-8.93244E-01 5.53906E-02
 -1      1072-6.44750E-01-1.03086E+00 1.08753E-01 1.36295E-01-5.24442E-01 4.96037E-01
 -1      1073-2.29067E+00-1.35511E+00-6.66446E-01-1.02888E+00-9.99660E-02 9.60588E-01
 -1      1074-2.12480E+00-1.58138E+00 2.18042E-02 7.33147E-01 5.14115E-01-8.29073E-01
 -1      1075-4.08005E+00-3.53105E+00 4.48667E-01 1.09603E+00 2.33111E-01-4.83881E-01
 -1      1076-2.55601E+00-1.92578E+00 5.18494E-01 2.99174E-01 1.46282E-01 3.58704E-01
 -1      1077-1.36732E+00-1.70233E+00-1.00849E-01-2.82286E-02-8.24519E-01 7.72397E-01
 -1      1078 8.03835E-02 1.41916E-01-4.12679E-01-4.69236E-01 2.64282E-02-7.99907E-02
 -1      1079-1.02686E+00-9.95486E-01-2.18084E-01-2.08694E-01-1.38180E+00 9.50460E-01
 -1      1080 3.10453E-01 6.86286E-01 2.21821E-01 1.29715E-01-1.16503E+00 1.03734E+00
 -1      1081-1.34261E+00-4.52915E-01 2.72200E-01-3.46311E-01-1.32092E+00 9.10018E-01
 -1      1082-5.33590E+00-4.31627E+00-9.60683E-01-2.14972E+00-1.16534E+00 1.06520E+00
 -1      1083-9.78490E-01-4.54913E-01-7.88718E-01 9.10335E-02-6.74435E-01 1.15125E-01
 -1      1084-1.84189E+00-2.31333E+00-8.02116E-02-7.05345E-01-8.26233E-01 3.32714E-01
 -1      1085-2.47805E+00-2.80099E+00-1.38809E+00-1.11808E+00-1.49742E-01 1.18336E-01
 -1      1086-2.71074E+00-8.11507E-01 7.26137E-02 3.09123E-01 4.66211E-01-6.12904E-01
 -1      1087-5.96634E+00-2.96707E+00 9.26187E-01 6.12864E-01 3.92933E-02-6.98646E-01
 -1      1088-3.41881E+00-2.00182E+00 4.43729E-01-1.69617E-01 2.20522E-01 3.79452E-01
 -1      1089-1.02281E+00-7.60575E-01 2.98412E-01-2.47094E-01-2.10944E-01 1.00949E+00
 -1      1090 4.60939E-01-4.17713E-01-6.01634E-01-6.83935E-01 3.05443E-02-3.28619E-01
 -1      1091-1.37841E+00-1.13671E+00-8.09850E-01-1.06257E-02-1.78613E-01 9.28932E-01
 -1      1092-2.56971E-01-4.88743E-01-2.76596E-01-1.03385E-01-8.03580E-01 6.84035E-01
 -1      1093-1.26881E+00-8.46040E-01-6.23478E-01 9.98260E-02-2.66275E-01 9.52316E-01
 -1      1094-2.27916E+00-6.47516E+00-1.57763E+00-9.14719E-01-1.23891E+00 1.74727E+00
 -1      1095-1.15570E+00-1.29380E+00-6.75320E-01-1.07772E-01-6.59292E-01 7.90574E-01
 -1      1096-1.14929E+00-1.18362E+00 1.34308E-01-1.24298E-01-3.87670E-02 7.13690E-01
 -1      1097-8.00903E-01-1.02131E+00-3.27143E-01-7.77552E-03-2.80825E-01 7.43275E-01
 -1      1098 3.41470E+00 1.53994E+00 2.11475E+00 1.53320E+00 6.68211E+00 6.88453E+00
 -1      1099-3.22576E-01 2.93257E+00-3.41527E+00 1.03044E-02 1.40454E-01-1.43941E+00
 -1      1100 2.40657E+00 7.31018E+00 3.20585E-01-4.15108E-01 6.13875E+00-2.18182E+00
 -1      1101 1.19763E+00 1.99503E+00-3.77823E-01-1.05515E+00-1.75677E+00 2.83912E+00
 -1      1102-7.73523E+00-3.27758E+00-3.30384E+00-1.30267E+00 4.02997E-02-4.06489E+00
 -1      1103 3.52040E+00 7.41695E+00 3.38546E+00 4.15019E+00 2.30973E+00 4.31423E+00
 -1      1104-3.41855E+00-1.37861E+00-1.43915E+00-4.09466E-01-1.17611E-01 1.83725E+00
 -1      1105 5.21853E+00 2.69454E+00-2.50581E-01 1.73175E+00 3.61384E+00 3.85260E+00
 -1      1106 7.91051E+00 1.14783E+01 5.11998E+00 4.58767E+00 1.66266E+00-8.59719E-01
 -1      1107-3.50382E+00-3.12583E+00 1.59964E-01-2.33155E+00 2.25915E+00 3.93430E+00
 -1      1108 1.12386E+00 1.71305E+00-5.71359E+00 2.49035E+00-1.98228E+00 2.69701E-01
 -1      1109 5.67059E-01 2.69895E+00-1.84927E+00 8.89833E-01 7.07652E-01 8.82299E-01
 -1      1110-1.25119E+00-5.46075E+00 8.59222E-01-7.56044E-01-1.25453E+00-1.01716E+00
 -1      1111 4.71514E-02-1.91667E+00 2.46640E+00-7.25066E-01 1.24172E+00 1.15169E+00
 -1      1112-3.98813E+00 8.79174E+00-1.58169E+00-4.25410E+00 1.36506E+00-1.33512E-01
 -1      1113-2.49618E+00-8.24179E+00-2.83368E-01-1.27182E+00-9.97289E-01 3.51437E-01
 -1      1114-2.61167E+00-1.01849E+00-1.76444E+00 2.90689E+00 5.99693E-01-5.09259E+00
 -1      1115-4.71862E+00-1.88218E+00-2.28065E+00 1.36413E+00 4.08902E+00-4.37442E+00
 -1      1116-3.60138E+00-3.54001E+00-6.12608E+00 7.16064E-01 3.41351E+00-3.91554E+00
 -1      1117-8.99266E-01-6.41443E+00 4.20881E+00 1.70563E+00 1.22225E+00 9.38178E-01
 -1      1118-2.63858E+00 1.99875E+00-3.27530E+00 3.99322E-01-8.14994E-01-2.52828E+00
 -1      1119-6.05047E+00-1.11356E+01-3.82909E+00 2.45914E+00 1.21722E+00 2.00207E+00
 -1      1120-1.15015E+00 1.85378E-01-2.33502E+00-1.25767E+00 9.24534E-01 2.47775E+00
 -1      1121-5.87786E+00-1.37721E+01-5.89498E+00 1.30316E+00 9.06999E+00-1.71761E+00
 -1      1122 8.88713E+00 9.71566E+00 5.58084E+00-3.71104E+00 5.30041E+00-4.35002E+00
 -1      1123 4.00440E+00 4.04506E+00 2.41484E+00-1.88499E+00 2.36821E+00-4.16304E+00
 -1      1124 2.19742E+00 9.13885E-01 2.08359E+00-4.91463E-01 2.22563E+00-2.44741E+00
 -1      1125-8.70193E-01 7.07634E-01 2.06662E+00 7.29809E-01 2.45617E+00 3.93450E+00
 -1      1126 6.99838E+00 4.31193E+00 4.54764E+00 2.59052E+00 1.11806E-01 6.25811E+00
 -1      1127-8.99396E+00-2.61345E+00-4.83601E-01-1.04985E-01 3.11801E+00 5.16362E+00
 -1      1128 2.59794E+00 6.84606E+00 1.68972E-01-1.35288E+00-2.80300E+00 1.42846E+00
 -1      1129-9.18946E+00-1.56919E+00-3.72134E+00-5.35495E-01-9.01600E-01 7.28719E-01
 -1      1130 2.55142E+00 2.09720E-01 2.25150E+00 1.75322E+00-2.70160E+00 5.67284E+00
 -1      1131 5.35158E+00 3.40307E-01-3.12078E+00-5.74395E-01-1.53711E+00-1.01888E-01
 -1      1132-5.09408E+00-3.04084E+00-1.68533E+00 1.96245E+00-2.00824E+00 4.49810E+00
 -1      1133 4.27082E+00 6.81774E-01 1.48099E+00-8.96521E-01-5.55095E+00 4.36110E+00
 -1      1134 3.86144E+00 8.82114E-01 2.00666E+00-4.62977E-01-5.56111E+00 4.62116E+00
 -1      1135 2.92732E+00-3.76328E-01 1.97445E+00 2.43582E-01-4.02052E+00 3.74603E+00
 -1      1136 7.22864E-01 5.52196E+00-1.76573E+00 7.31201E-01 6.34597E-01-7.59138E-01
 -1      1137 4.10852E+00 9.29263E+00 2.33943E+00 1.09657E+00-8.87263E-01-1.88001E+00
 -1      1138-1.21675E+00-2.93493E+00-1.24550E+00 2.25934E-03-2.45158E+00-3.16566E-01
 -1      1139-8.16080E-01-2.93291E+00-1.56828E+00-8.62090E-01-2.59524E+00-7.37337E-01
 -1      1140-3.32897E+00-5.78320E+00-2.73365E+00 1.48725E+00-3.32484E+00 2.30801E+00
 -1      1141-1.99284E+00-5.46487E+00-2.23731E+00-6.30308E-01-3.92431E+00-2.09070E+00
 -1      1142 3.84945E+00 3.45803E+00 3.69260E-01 2.38098E+00 3.14846E-01-2.80056E+00
 -1      1143-5.94006E+00-7.25217E+00-3.95767E+00-2.60152E+00-3.43706E+00-3.10701E+00
 -1      1144-1.89224E+00-9.27248E+00-2.19179E+00-4.10934E+00-4.03989E+00-3.28739E+00
 -1      1145-7.60982E+00-2.95185E+00-2.98904E+00 1.31186E-01-3.47799E-01-7.35192E+00
 -1      1146-3.09419E-01 1.71604E+00 5.63062E+00 8.24590E-01 2.48382E+00 1.36762E+00
 -1      1147 4.51895E-01 8.82238E-01 2.91112E-01-8.56770E-01 2.68692E+00-6.46489E+00
 -1      1148-2.42998E+00-5.00314E+00-3.46690E+00-1.12779E+00-3.29752E+00-3.11065E+00
 -1      1149 1.46333E+00-1.23925E+00-2.57402E+00-7.91557E-02-3.57588E+00-3.85577E+00
 -1      1150 1.42883E-01 3.69296E+00-1.86845E+00-5.67279E-01-4.01902E+00 2.25070E+00
 -1      1151-3.77687E-01 2.50506E+00-2.91355E+00 5.50588E-02-1.16950E+00 1.31654E+00
 -1      1152 4.99104E+00 5.72146E+00 2.37450E+00 2.60491E+00 1.73326E-02-1.54043E+00
 -1      1153-2.06319E+00-1.13152E+00-4.16234E-01-4.71926E-01-1.04111E-01-1.37583E+00
 -1      1154-2.07478E+00-1.63160E+00 4.28654E-01 2.28248E-01 1.96947E-01 6.75955E-01
 -1      1155-1.53280E+00-9.33874E-01-3.16998E-01 2.46658E-01-5.07982E-01 6.16364E-01
 -1      1156-3.02958E+00-1.48629E+00-3.58678E-02 1.91754E-01-9.53087E-01 2.27361E-02
 -1      1157 1.21297E+00-1.13268E-01-1.97841E-01 1.54567E-01 9.20202E-03-6.26468E-01
 -1      1158-1.22576E+00-2.27566E-01-1.87892E-02 3.67314E-01-2.28100E-01 9.52811E-01
 -1      1159-1.29772E+00-2.70646E+00 2.83697E-01 2.45578E-02-3.67346E-01 5.37433E-03
 -1      1160-4.44634E+00-8.95024E+00-1.88154E+00-2.12504E+00-1.14131E+00 2.07530E+00
 -1      1161-2.94609E-01-8.39560E-01-4.28554E-03 5.84139E-02 2.73791E-01 1.42402E+00
 -1      1162-1.00613E+00-2.79462E+00 5.65321E-01 1.61396E-01 1.88721E-01 1.54490E-01
 -1      1163-2.06468E+00-4.94935E+00-1.78244E+00-3.75181E-01-3.48489E-01 6.76420E-01
 -1      1164 9.81966E-01-2.19982E-01 2.65253E-03 3.78520E-01-3.28320E-01-6.69448E-01
 -1      1165-4.59348E-01-2.54719E-01 2.13233E-01-7.52664E-02 1.99565E-01 8.88297E-01
 -1      1166-1.13294E+00-9.82290E-01 1.68627E-01 5.85408E-02 2.62518E-01 9.91225E-01
 -1      1167 1.01041E+00-5.81564E-01-7.12515E-01 5.41416E-01-8.04478E-02-4.04975E-01
 -1      1168-1.43981E+00-1.26190E+00 1.57555E-03-1.90885E-01-2.03716E-01 6.23255E-01
 -1      1169-2.91493E+00-2.23812E+00 4.15376E-01 1.09688E-01 2.31875E-01 3.01650E-01
 -1      1170-2.31064E+00-2.53474E+00-1.22392E-02-7.78296E-01 1.32953E+00-7.48701E-02
 -1      1171-1.81935E+00-1.46272E+00 2.29869E-01 2.09179E-01 2.19825E-01 4.64420E-01
 -1      1172-4.61169E+00-1.50250E+00 7.49355E-01-2.02201E+00-1.94386E-01 2.62538E-01
 -1      1173-4.31867E-01-1.68404E+00-2.47804E-01-2.51067E-01 3.37183E-01 6.07914E-01
 -1      1174-2.97379E+00-8.21092E+00-3.70396E-01 3.05815E+00-1.32286E-01 3.08385E+00
 -1      1175-8.48701E-01-3.52598E-01 2.68600E-02-3.34791E-01 1.41413E+00 1.21996E+00
 -1      1176-1.97877E+00-3.20647E+00 1.37150E+00 8.25086E-01 4.89455E-01 5.55057E-01
 -1      1177-1.35712E+00-2.44573E+00-4.71939E-01 5.91721E-01-9.88200E-02 6.96919E-01
 -1      1178 2.09751E-01 4.80631E-02-2.43242E-01 4.25365E-01-4.26921E-01-1.08105E-01
 -1      1179-1.46056E+00-9.76395E-01 4.66583E-02-7.06990E-01 6.41424E-01 9.38969E-01
 -1      1180-1.63501E+00-1.34168E+00 2.82150E-01-3.37046E-01 7.30216E-01 8.43049E-01
 -1      1181-1.36136E-01-9.98951E-02-4.25814E-01 6.96926E-01-1.74305E-01 3.51569E-02
 -1      1182-9.00975E-01-1.63826E+00 1.07898E-01-4.85983E-01 6.00273E-02 3.76781E-01
 -1      1183-2.54563E+00-1.84240E+00 4.41589E-01-5.05179E-01-6.40889E-01 3.71578E-01
 -1      1184-3.41193E+00-3.80815E+00 3.41233E-03-1.84911E+00-2.60145E-01-4.56019E-01
 -1      1185-6.20716E+00-6.49410E+00-2.09032E+00 2.24289E+00 1.58837E+00 1.26082E+00
 -1      1186 2.48889E-01 2.14973E-01 7.26144E-01 4.81771E-01 1.19306E+00 5.92051E-01
 -1      1187-2.35768E+00-2.55475E+00-1.52966E-01 6.23337E-01 3.30475E-01 3.35941E-01
 -1      1188-2.70377E+00-2.95460E+00-2.34981E+00 9.54346E-01 7.73694E-01 2.52900E-01
 -1      1189-1.08294E+00-1.52514E+00 2.15768E-01-2.23978E-01 4.41713E-01-8.19604E-02
 -1      1190-1.13868E-02 9.31042E-01-3.95867E-01 4.18271E-01-1.01939E-01 9.79519E-02
 -1      1191-9.08776E-01-2.03784E+00 2.20276E-01-4.30680E-02 1.01698E+00 2.81365E-01
 -1      1192-4.09243E-01 4.21500E-01-4.47828E-01 4.50129E-01-2.27890E-01-1.57190E-01
 -1      1193-1.31792E+00-3.42678E+00-3.35499E-01-8.63041E-01-1.11921E+00-7.67584E-01
 -1      1194-1.51868E+00-5.32377E+00 3.79828E-01-1.52629E+00-1.80373E-01 3.29071E-01
 -1      1195-1.84922E+00-1.93488E+00-4.31243E-01-8.33706E-02-1.44447E+00-4.53600E-01
 -1      1196-2.94578E+00-5.20247E+00 3.45171E-01-9.59423E-01 1.28314E-01-3.71106E-02
 -1      1197-1.02703E+01-6.07359E+00-2.43935E+00 2.98215E+00 1.70784E+00 1.26050E+00
 -1      1198-1.46435E+00-2.08889E+00-5.92296E-02 1.31946E-01 1.08480E+00 5.93798E-01
 -1      1199-6.00718E-01-2.94305E-01-2.26464E-01 5.56303E-02 1.08792E+00-2.90734E-01
 -1      1200-4.91770E+00-1.83771E+00 3.79037E-01 6.44252E-01 4.25611E-01 5.14514E-01
 -1      1201-1.71414E+00-2.63266E+00-1.63838E+00 1.24351E+00 9.66610E-02 9.10462E-01
 -1      1202-1.12801E+00-1.63130E+00 5.63871E-03-3.38031E-01 4.85170E-01-5.63597E-01
 -1      1203-1.88424E-01 1.16547E+00-1.84659E-01 6.31762E-02-2.80660E-01 3.59066E-02
 -1      1204-4.49611E-01-1.42403E+00 5.14978E-02 7.94723E-03 9.51741E-01 1.88252E-01
 -1      1205-1.00753E+00-1.33188E+00 2.01203E-01 2.63920E-03 9.50430E-01-1.44678E-03
 -1      1206-7.31070E-01 7.55745E-01-3.60080E-01 5.33466E-02-2.68257E-01-3.30789E-02
 -1      1207-1.57557E+00-5.98812E+00 6.52534E-01 1.17724E-02-4.64436E-01-1.80276E-01
 -1      1208-9.24483E-01-2.81576E+00 2.93394E-01-4.88452E-01 2.69931E-01 3.41377E-01
 -1      1209-1.10048E+01-3.84820E+00-2.06260E+00 2.10751E-01 1.80367E+00 5.28984E-01
 -1      1210-9.70730E-01 2.16467E-01-6.71620E-01-1.47602E-01 1.01369E+00-2.21106E-01
 -1      1211-2.63687E+00-1.88241E+00-8.06849E-02-7.97264E-02 2.73258E-01 4.31670E-01
 -1      1212-1.46673E+00-3.03981E+00 1.91108E-01 1.40462E-01 2.12432E-01 6.44078E-01
 -1      1213-2.27440E+00-5.15642E+00 3.12019E-01 1.63844E+00-7.08608E-01 2.83101E-01
 -1      1214-1.17722E+00-2.92077E+00-1.98884E-01 7.21530E-01-9.17563E-01 7.66489E-01
 -1      1215-1.25768E+00-1.78666E+00-4.94085E-01-1.19787E-02-1.32182E+00 3.67157E-01
 -1      1216-2.84535E+00-5.34121E+00 5.64914E-01 1.36158E+00-3.93511E-01 4.12789E-02
 -1      1217-2.52739E-01 7.22209E-01-2.82536E-01-2.49348E-01-3.93222E-01 1.90991E-01
 -1      1218-1.31047E+00-1.47037E+00 4.19236E-01 3.26408E-01 9.30695E-01-5.37996E-01
 -1      1219-1.20970E+00-1.93372E+00 7.55814E-02 6.81441E-01 1.02002E+00-5.71051E-01
 -1      1220-4.76233E-01 6.81872E-01-7.31039E-01-4.05528E-01 1.86648E-01 1.08136E-01
 -1      1221-1.13930E+01-3.68670E+00 1.25309E+00-1.59462E+00 1.66072E+00-5.23855E-01
 -1      1222-1.33561E+00-1.11807E+00 5.00613E-01-2.02521E-01 1.14785E+00-2.41688E-01
 -1      1223-1.01613E+00-1.58760E-01-3.68885E-01-6.75045E-01 1.27995E+00-7.89636E-01
 -1      1224-2.87283E+00-1.74810E+00-7.38787E-01-3.45354E-01 7.55311E-01 1.92484E-01
 -1      1225 5.03018E-01 6.02222E-01-3.33557E-01-8.26867E-01-1.58941E-01 2.47189E-01
 -1      1226-1.03595E+00-1.01499E+00 3.36921E-01 6.88309E-01 8.76468E-01-7.57555E-01
 -1      1227-1.52318E+00-1.40837E+00 2.77638E-01 4.08161E-01 7.97212E-01-8.64437E-01
 -1      1228-1.15732E-01-7.87038E-02-5.33749E-01-9.59090E-01-2.56671E-01 2.12913E-01
 -1      1229-1.72616E+00-2.37479E+00 2.93293E-01 5.19167E-01 6.72899E-01 4.14610E-01
 -1      1230-2.87402E+00-2.27659E+00 2.85257E-01 3.05983E-01-1.04959E-01-2.81693E-01
 -1      1231-1.45498E+00-1.43197E+00-5.32055E-02 4.08913E-01 2.65118E-03-6.39258E-01
 -1      1232-3.88138E+00-3.87178E+00 3.93540E-01 2.02870E+00-2.08959E-01 2.56048E-01
 -1      1233-2.55599E+00-2.15420E+00-6.03112E-01-1.85612E+00 1.89322E+00-1.22781E+00
 -1      1234-8.95442E-01-1.86281E-01 6.46466E-01-4.95435E-01 4.21684E-01-1.37797E+00
 -1      1235-1.45868E+00-1.98589E+00 8.40763E-01-2.18409E-01 2.09776E-01-4.61604E-01
 -1      1236 2.04422E-01 5.97568E-02-2.31243E-01-3.78051E-01 9.75560E-02-8.43048E-02
 -1      1237-2.41847E+00-9.02640E-01 1.61243E-01 4.54201E-01 3.96128E-01-1.03044E+00
 -1      1238-1.79867E-01-3.51294E-01-4.19995E-01-5.04229E-01-1.79862E-01-1.82928E-01
 -1      1239-2.61835E+00-2.13554E+00 3.44474E-01 4.97294E-01 8.25548E-01 2.15988E-01
 -1      1240-3.54970E+00-2.28963E+00 2.45431E-01-3.15942E-01-2.88719E-01-2.50033E-01
 -1      1241-2.10294E+00-1.54301E+00-4.29015E-02 5.03398E-01-3.13136E-01-5.33325E-01
 -1      1242-6.47698E+00-2.02672E+00 1.19364E-01 8.64129E-01-4.36325E-01 1.32147E-01
 -1      1243-5.20104E+00-1.05309E+01-1.71188E+00-2.53322E+00 7.94995E-01-7.29508E-01
 -1      1244-1.94273E+00-1.72142E+00-1.14732E-01-1.84882E-01 9.14160E-01-8.82106E-01
 -1      1245-8.11792E-01-5.89179E-01 3.05166E-02-1.73662E-01-2.59221E-01-1.08537E+00
 -1      1246-1.81235E+00-3.74896E+00 2.76366E-01-3.64244E-01 4.80808E-01-4.66694E-01
 -1      1247 4.47960E-01-1.37812E-01-3.62669E-01 8.34460E-02 1.31479E-01 1.83901E-02
 -1      1248-2.15239E+00-1.56621E+00 1.81016E-01-2.62540E-01-3.01361E-01-1.30471E+00
 -1      1249-2.33819E+00-9.11008E-01 1.06974E-02-3.46250E-01-3.73796E-01-1.20509E+00
 -1      1250 3.68938E-01-5.74156E-01-4.47535E-01 1.43897E-01 8.39949E-02-4.25771E-02
 -1      1251-2.30916E+00-1.60886E+00 4.48205E-01 1.13606E-01 7.10175E-01 1.09994E-01
 -1      1252-3.19361E+00-2.46967E+00 3.04654E-01-5.34187E-01-4.21598E-01-1.41479E-01
 -1      1253-1.94228E+00-1.03875E+00 8.22191E-02-1.38766E-01-4.31733E-01-3.89685E-01
 -1      1254-5.93530E+00-1.88743E+00 4.14309E-01-8.28868E-01-2.87961E-02 3.46976E-01
 -1      1255-4.66791E+00-1.02977E+01-4.51080E-01-8.31032E-01-1.59677E-02-1.36450E+00
 -1      1256-7.48710E-01-7.20251E-01 7.84946E-01-1.48200E-01 8.51283E-02-1.11907E+00
 -1      1257 2.82285E-01-1.23034E+00-1.21429E-01 2.98176E-01-2.76203E-01-6.35681E-01
 -1      1258-1.46500E+00-2.16825E+00-4.47624E-01 1.12207E-01 3.44722E-02-7.19730E-01
 -1      1259-5.15265E+00-1.33401E+00 7.08028E-01-1.04698E+00-2.88336E-01 6.20996E-01
 -1      1260-2.33891E+00-7.04536E-01-1.82001E-01-3.41870E-01 9.11473E-01 1.33363E+00
 -1      1261-1.87287E+00-1.93415E+00 2.48616E-01-2.32088E-01-9.18738E-01 1.18663E-01
 -1      1262-1.98361E+00-1.08035E+00 1.86232E-01 2.50072E-01-5.46349E-01-1.28603E-01
 -1      1263-2.21579E+00-1.15672E+00 9.57008E-02 2.68032E-01-3.49892E-01-9.17318E-01
 -1      1264 7.78782E-01 1.45296E-01-5.22992E-02 5.31009E-01 1.57523E-02 7.78223E-02
 -1      1265-1.36293E+00-1.64205E-01 1.20859E-01 1.09417E-01-9.50351E-02-1.09592E+00
 -1      1266-3.80306E+00-8.38571E+00-1.10752E+00 1.82770E+00-2.53842E-01-1.21169E+00
 -1      1267-2.49675E-01-1.09240E+00-1.48270E-01 3.81975E-01-8.57754E-01-3.08678E-01
 -1      1268-2.48874E+00-2.75559E+00 1.13911E+00 7.61533E-01 3.48192E-01-5.20643E-01
 -1      1269-1.27379E+00-1.83263E+00-4.01472E-01-1.16157E+00 8.51220E-01 5.37571E-01
 -1      1270-2.17527E+00-2.79822E+00 6.71677E-01-4.25215E-01-8.00552E-01 5.11752E-01
 -1      1271-1.71308E+00-1.09296E+00 3.75512E-01-3.34584E-01-5.88354E-01-9.73760E-02
 -1      1272-1.63620E+00-2.16522E+00 1.42443E-01-4.21501E-01-3.67207E-01-3.75522E-01
 -1      1273 1.54980E-02-2.91767E-03-4.23216E-01 2.08350E-01-1.42825E-01 1.56061E-01
 -1      1274-1.15125E+00-1.68470E+00 3.05459E-02-9.45365E-01-1.67064E-01-3.37389E-01
 -1      1275-2.99163E+00-4.12256E+00 5.19232E-02 2.06845E+00-7.12867E-01-1.35583E+00
 -1      1276-4.85180E-01-2.68130E-01 1.22264E+00 1.03796E-01-1.76899E+00-1.20902E+00
 -1      1277-3.29230E+00-2.00492E+00 2.43923E-01 1.20970E+00-1.63558E-01-5.76561E-01
 -1      1278-1.73272E+00-1.94872E+00 4.18255E-01-8.46455E-01-5.18271E-02-8.45664E-01
 -1      1279-2.31873E+00-5.82552E+00 2.99460E-01-1.51021E+00 3.98251E-01 1.49887E-01
 -1      1280-1.98963E+00-1.64649E+00-6.68352E-01 2.34452E-01 1.37494E+00 2.03382E-01
 -1      1281-8.69274E-02 7.25219E-01-3.20330E-01 4.27920E-01-1.17899E-01-1.93511E-01
 -1      1282-4.38998E-01-1.27719E+00 2.34067E-01-4.44543E-01-8.16662E-01-1.82470E-01
 -1      1283-9.61391E-01 3.27376E-01-3.22187E-01 5.15928E-01 1.53824E-01 9.41898E-02
 -1      1284-1.20685E+00-1.69788E+00 1.65982E-01-3.14631E-01-8.58931E-01-2.64326E-01
 -1      1285-1.22975E+00-1.63679E+00 4.06238E-02-4.32813E-01-5.25015E-01 2.13455E-01
 -1      1286-1.09233E+01-5.84468E+00-1.88152E+00 3.03333E+00-1.92719E+00-4.87688E-01
 -1      1287-8.52279E-01-1.09345E+00-3.98879E-01-2.36435E-01-1.09698E+00-2.75056E-01
 -1      1288-1.10468E+00-1.97686E+00-1.13829E-01 5.02485E-01-1.69416E+00-9.74589E-02
 -1      1289-4.74913E+00-2.14103E+00 1.51946E+00 5.86466E-01-1.33614E-01 3.27368E-02
 -1      1290-1.37727E+00-2.63766E+00 6.14331E-01-5.11580E-01-1.95953E-01-5.27836E-01
 -1      1291-1.63598E-01-1.77642E+00-3.94545E-01 1.29434E-01 1.12349E+00-9.61881E-02
 -1      1292-1.88023E+00-6.32002E+00 2.16303E-01 6.02371E-02 8.01976E-01 2.21107E-01
 -1      1293-8.46139E-01-2.49431E+00-2.03476E-01 1.57033E-01 1.46742E+00 5.29806E-02
 -1      1294-1.82120E-01 5.87925E-01-3.25456E-01 3.80630E-02 2.22720E-01 1.15916E-01
 -1      1295-3.41904E-01-2.23605E+00-3.08553E-02 1.13676E-01-9.25641E-01-8.42827E-02
 -1      1296-2.18098E+00-3.32868E+00 3.95449E-01 1.69818E-01-3.93026E-02 3.97192E-01
 -1      1297-1.01240E+00-2.07178E+00 1.06464E-01-1.00585E-01-4.35340E-01 4.08414E-01
 -1      1298-5.53684E+00-1.84694E+00-4.22119E+00 5.47025E-01-2.61473E+00 2.22817E-01
 -1      1299-7.16135E-01-1.35667E+00 3.45808E-01 2.32838E-01-1.25651E+00-3.04146E-01
 -1      1300-8.96315E-01-3.54275E-01-3.60538E-01 4.81493E-02-1.64434E+00-1.56790E-02
 -1      1301-3.01070E+00-1.77880E+00-8.86989E-02-8.18468E-02-4.18559E-01 3.15864E-01
 -1      1302-8.21355E-01-1.72223E+00 6.49263E-02-3.56915E-05-2.89377E-01 5.46211E-01
 -1      1303-7.24298E-01-1.52188E+00 8.59505E-02-3.19083E-01-8.08883E-01 2.18293E-01
 -1      1304-3.81907E-01 3.58049E-01-4.98536E-01-9.32085E-01 1.89465E-01-1.19472E-01
 -1      1305-1.65612E-02 2.58453E-01-1.02506E-01-6.34436E-01 1.63473E-01-4.98283E-01
 -1      1306-8.53057E-02-1.17873E+00-1.70310E-02-1.90486E-01-8.46991E-01 8.76085E-02
 -1      1307-1.31351E+00-5.46629E+00 4.42900E-01 6.77013E-01 2.27135E-01 5.79664E-01
 -1      1308-1.16148E+00-3.76674E+00-4.27926E-03 6.16229E-01 9.45498E-01-6.42984E-01
 -1      1309-5.69260E+00-1.96208E+00-7.84427E-01-1.22331E+00-1.70853E+00 4.33041E-01
 -1      1310-1.06924E+00-5.04227E-01 1.63053E-01-4.85879E-01-9.99115E-01 9.11533E-01
 -1      1311-2.96801E+00-2.47718E+00-7.57469E-01-8.14114E-01-6.97153E-01-5.55103E-02
 -1      1312-3.22212E+00-3.06043E+00 8.54985E-01 1.41398E+00 6.00461E-01-5.90438E-02
 -1      1313-1.68018E+00-8.38261E-01-3.32977E-01 9.56815E-01 3.78132E-01-7.09535E-01
 -1      1314-1.43856E+00-1.95265E+00 4.24223E-01 4.63674E-02-1.58136E-01 3.34874E-01
 -1      1315-1.03920E+00-1.23749E+00-2.52030E-01 2.99115E-01-5.11829E-01-8.17841E-02
 -1      1316-2.00278E+00-2.03624E+00-7.75327E-02 5.98236E-01-4.72088E-01-7.87759E-01
 -1      1317 2.99541E-01 2.81207E-01-1.62524E-01-3.41379E-01 1.20227E-01-1.25464E-01
 -1      1318-5.78996E-01-8.50240E-01-1.41878E-01 4.13427E-01-8.22627E-01 5.27018E-01
 -1      1319-2.94458E+00-2.93906E+00 1.20210E+00-1.54766E+00-8.93457E-01-1.01360E+00
 -1      1320-3.91490E+00-3.27484E+00-1.82097E-01-2.79738E+00-1.06488E+00 1.91507E+00
 -1      1321-1.99897E-01 1.76721E-01-7.33560E-02-8.41265E-01-8.66611E-01 1.21036E+00
 -1      1322-2.55925E+00-3.03902E+00 1.10507E+00-1.35322E+00 3.74071E-01 4.31466E-01
 -1      1323-3.10519E+00-2.52715E+00-8.86635E-01-1.19571E+00-4.07970E-01-2.53049E-01
 -1      1324-5.84916E+00-2.22025E+00 4.45029E-01 1.08153E+00 3.35187E-01-2.69181E-01
 -1      1325-1.65960E+00-8.13972E-01-3.26450E-01-9.88489E-03 1.74413E-01-1.24395E+00
 -1      1326-1.40469E+00-1.46944E+00 1.37812E-01-2.98621E-02-1.46984E-01 4.46373E-01
 -1      1327-1.52195E+00-9.89146E-01-8.51282E-02-1.53919E-01-5.29568E-01 2.33741E-01
 -1      1328-1.81285E+00-1.81342E+00 3.05926E-01 9.95791E-02-8.89153E-01-3.02500E-01
 -1      1329 7.06392E-01-3.28465E-02-1.91414E-02-4.93481E-01 3.20535E-01-4.49941E-01
 -1      1330-1.33249E+00-6.94320E-01 2.80934E-01-1.59412E-01-3.48856E-01 7.07944E-01
 -1      1331-2.38079E+00-2.69337E+00-7.03368E-01-1.02569E+00 1.38759E-01 5.28061E-01
 -1      1332-5.13338E+00-8.36625E+00-1.76679E+00-1.58667E+00-1.29185E+00 9.81112E-01
 -1      1333-2.22370E-01-9.12151E-01 1.81076E-01-4.37442E-01 1.16817E-01 9.09687E-01
 -1      1334-1.55609E+00-2.89765E+00 2.32276E-01-6.81254E-01-3.81283E-01 7.87100E-01
 -1      1335-2.34655E+00-3.42838E+00-8.51974E-01-1.41354E+00-8.84399E-01 2.57560E-01
 -1      1336 3.45891E+00 6.78466E+00-1.27268E-01 2.33945E+00 3.34666E+00 3.91047E+00
 -1      1337-8.45133E-01-1.48056E+00 1.87550E+00-1.45767E+00 5.20301E+00 3.75047E+00
 -1      1338-1.44609E+00-4.01900E+00-1.04739E+00-1.19517E+00 3.68202E+00 4.23348E+00
 -1      1339-2.22650E+00-1.18545E+00-2.33822E+00-8.19793E-01-9.34912E-01 4.51999E+00
 -1      1340 4.08219E+00 1.98835E+00 2.02342E+00-2.85188E+00 3.36261E-01 5.43443E+00
 -1      1341-1.14252E+01-3.62773E+00-3.20849E+00-2.11276E+00-6.91301E-01 7.01531E+00
 -1      1342-1.65567E+01-7.94156E+00-7.34947E+00 1.60577E+00-1.77694E+00 9.35675E+00
 -1      1343 0.00000E+00 0.00000E+00 0.00000E+00 0.00000E+00 0.00000E+00 0.00000E+00
 -1      1344-2.04036E+00-7.44668E+00 1.54566E+00-1.19386E+00 1.91027E+00-2.49080E-02
 -1      1345-5.88608E+00-1.19939E+01-5.36398E+00-2.36683E+00-6.63315E+00-3.34326E+00
 -1      1346 1.21640E-01-1.16608E+00-2.62832E+00 3.18118E-01-2.07541E+00-8.21065E-01
 -1      1347 6.73844E+00 2.01242E+00 7.21713E-01-3.27950E-02 2.74488E+00 5.43848E+00
 -1      1348-5.50575E+00-3.24985E+00-2.46619E+00-2.43669E+00 2.23409E+00 6.03969E+00
 -1      1349-1.06130E+01-4.20746E+00-1.01608E+00-6.51668E-01-6.12784E-01 2.36716E+00
 -1      1350 1.43067E-02 1.31703E+00-2.66828E+00-1.05403E+00 1.19153E+00-2.66479E-02
 -1      1351-8.05925E+00-1.57072E+01-7.12993E+00 3.33674E+00 7.41689E+00-2.06917E+00
 -1      1352-7.53684E-01-3.56115E+00-2.93672E-01 1.03466E+00 4.37568E+00-2.43854E+00
 -1      1353-1.26112E+01-5.96455E+00-5.57273E+00 1.91038E+00 1.69199E+00-8.63147E+00
 -1      1354-8.10471E+00-3.29789E+00-8.79401E-01 1.83326E+00 3.87766E+00-4.71997E+00
 -1      1355 4.20220E+00 4.20332E+00 2.41220E+00-2.54169E+00 3.10375E+00-5.42501E+00
 -1      1356 1.35750E+00 8.63991E-01-4.21101E+00-1.94888E+00-4.67709E-01-2.55173E+00
 -1      1357-9.91210E+00-1.50660E+00-5.24436E+00-1.47627E-01 3.69395E+00 2.98662E+00
 -1      1358-1.51365E+01-5.32568E+00-4.49022E+00 2.80032E+00 7.66059E-01 3.39783E+00
 -1      1359-6.56760E+00-6.17422E+00-4.57302E+00 2.20568E+00-3.15492E+00 4.43075E+00
 -1      1360-9.96338E+00-2.18639E+00-1.36898E+00-7.15296E-01 1.31719E+00-1.90379E+00
 -1      1361-9.52974E+00-1.75274E+00-3.57146E-01-7.15296E-01 1.48222E+00-1.56583E+00
 -1      1362 2.37130E+00 2.85409E+00-2.23392E+00 2.82298E+00 7.94625E-01-1.23556E+00
 -1      1363 5.07961E+00 4.09481E+00-4.03728E+00 3.59514E+00-1.87667E+00 1.81027E-01
 -1      1364-8.30726E+00 1.76625E-01-4.02815E-01 2.04496E-01 2.27155E+00 2.79105E+00
 -1      1365 3.70498E+00 8.31379E+00 2.22972E+00 3.25638E+00 2.29843E+00-9.22615E-01
 -1      1366-8.44581E+00-1.46526E+01-6.92951E+00-3.46391E+00 7.49692E+00 4.12527E+00
 -1      1367 9.71108E-01 4.41666E+00-3.79452E+00 1.85512E+00 6.92552E-01-1.50392E+00
 -1      1368 2.30041E+00 8.56316E+00-1.54638E-01 8.39058E-01 5.29010E-01-1.19615E+00
 -1      1369-2.05665E+00-3.88204E+00-1.81306E+00 9.15149E-01 8.19004E+00-2.16345E+00
 -1      1370-1.38796E+00-3.40912E+00-1.43913E+00 3.01084E-01 1.80124E+00-6.75351E-01
 -1      1371-6.02691E+00 2.09165E+00-1.87591E+00-5.30358E+00 1.31297E+00 5.13135E-01
 -1      1372-1.41336E+01-6.19374E+00-6.09820E+00 8.72422E-01 3.25261E-01-9.50817E+00
 -1      1373-2.30335E-01-7.43740E-01-2.35292E+00-1.02063E+00-2.57053E-01-2.67972E+00
 -1      1374 3.84862E+00 1.78138E+00 2.62702E+00 1.75099E+00 4.91818E-01-5.50085E+00
 -1      1375-1.37524E+01-1.27010E+01-7.93603E+00 5.28977E+00 6.52003E+00-7.94452E+00
 -1      1376-4.22365E-01 5.42610E-02-3.51648E+00-6.85237E-01 3.33478E+00-4.93606E+00
 -1      1377-4.49735E+00-4.01571E+00-2.55392E+00 2.20310E+00 1.48986E+00-3.69135E+00
 -1      1378-5.62875E-03 3.50927E+00-3.57567E+00 1.75085E-01 1.51738E+00-1.16173E+00
 -1      1379-4.25098E+00-1.09174E+01-4.55051E+00-5.64214E-01 5.75446E+00 1.85822E+00
 -1      1380-1.90591E+00-6.14468E+00 3.13618E+00 2.00717E+00-2.68216E+00-1.35477E+00
 -1      1381-6.96095E+00-1.31377E+00 2.87308E-01 9.67646E-01 5.61874E-01 6.06252E+00
 -1      1382 2.14297E+00 1.90544E+00-6.12418E-02-1.73629E+00-5.16517E+00 3.53026E+00
 -1      1383-3.61848E+00-6.56128E+00-3.63265E+00 8.89315E-01-6.90451E+00 4.58454E+00
 -1      1384-2.02279E+00-3.14058E+00 1.12257E+00 2.14737E+00-5.86401E+00 1.80944E+00
 -1      1385 3.59566E+00 1.46516E+00 1.51825E+00-2.24528E-01 2.48448E-01 2.92685E+00
 -1      1386 1.23058E+00 4.87470E+00 1.40512E+00-3.24485E+00-1.16781E+00 1.25523E+00
 -1      1387-5.21173E+00-3.73047E+00 3.73918E+00 3.44716E+00 1.78598E+00 3.70065E-01
 -1      1388-6.07804E+00-3.56857E+00-2.89398E+00 1.63074E+00-2.49815E+00 3.39077E+00
 -1      1389 6.61149E-01-1.00739E+00 5.85312E-01 3.42291E-01-5.23741E+00 4.29908E+00
 -1      1390 1.90636E+00 2.62074E+00 1.70808E+00 6.10784E-01 2.62605E-01-2.05438E+00
 -1      1391 4.47861E+00-1.71604E+00 2.22258E-01 1.35731E+00-4.26441E+00-4.69837E+00
 -1      1392 3.86648E+00 4.54693E+00-6.17351E+00 3.75347E+00 5.16431E-01 8.41698E-01
 -1      1393 0.00000E+00 0.00000E+00 0.00000E+00 0.00000E+00 0.00000E+00 0.00000E+00
 -1      1394-1.47548E-02-3.42041E+00-2.01729E+00-2.90614E-01-3.27548E+00-3.05989E+00
 -1      1395-9.19837E+00-2.12712E+00-1.26829E+00 1.79086E+00 5.82491E-01-4.89865E+00
 -1      1396-3.89700E-01-1.98225E+00-7.31064E+00 7.80372E-01-1.00256E+00-8.29599E-01
 -1      1397 8.29544E+00 2.52115E+00-1.05221E+00 2.54099E-01-9.69724E-01-1.07764E+00
 -1      1398 2.25310E+00 1.13185E+00-1.48763E+00 2.65005E+00 2.06846E-01-4.74515E+00
 -1      1399-2.27205E+00-5.52041E+00 5.44164E-01 1.61218E+00-5.07095E+00 2.55768E+00
 -1      1400-6.31565E+00-1.11703E+01-5.08677E+00-3.87441E+00-4.75158E+00-5.35190E+00
 -1      1401-4.84280E+00-2.53026E+00-4.84862E-01-2.02328E+00-2.07150E+00-3.33447E+00
 -1      1402-5.61191E+00-1.69324E+00-2.44771E+00-1.11132E-01 3.06406E+00-7.94792E+00
 -1      1403 1.23441E+01 4.96167E+00 5.70929E-01-2.80038E+00 1.34437E+00-1.36147E+00
 -1      1404 4.02897E+00-1.41698E+00 1.03555E+00-3.33394E-01-2.95617E+00-1.47420E+00
 -1      1405 1.93287E+00 1.48953E+00 1.56957E+00 1.34393E+00-7.38312E-01-9.72874E+00
 -1      1406 1.92848E+00 6.18934E+00 3.03340E-01-2.14894E-01 1.08142E-01 2.58298E-01
 -1      1407 9.97887E-01 7.23508E+00-1.66707E+00-2.37751E+00 8.93976E-01-2.24373E+00
 -1      1408-1.85172E+00 5.29245E-01-4.17113E+00 5.83166E-01 6.32856E-01-6.76689E-01
 -1      1409-1.32409E+01-1.26256E+01-4.60055E+00-2.98697E+00-1.62580E-01 1.52501E+00
 -1      1410-1.38936E+01-1.69602E+01-4.88513E+00-3.03184E+00-2.47846E+00 1.10491E+00
 -1      1411-1.72685E+01-1.13945E+01-2.45048E+00-2.16334E+00 1.35755E+00-8.16072E-01
 -1      1412-2.43483E+01-1.67754E+01-7.60576E+00-1.30099E+00-1.29558E-02-2.20820E+00
 -1      1413-1.45211E+01-8.46203E+00-2.21008E+00 7.17532E-01 1.57801E+00 3.53858E-01
 -1      1414-1.96685E+01-1.18623E+01-4.75134E+00 1.73728E-01 1.49671E+00 4.96263E-01
 -1      1415-1.48881E+01-1.58988E+01-7.71554E+00-9.76972E-01-1.02963E+00-5.30366E-02
 -1      1416-1.40393E+01-1.47258E+01-5.49936E+00 3.69342E+00 9.78034E-01 1.23309E+00
 -1      1417-1.89086E+01-1.85627E+01-7.11584E+00 3.27917E+00 3.49459E-01 2.58147E+00
 -1      1418-1.65803E+01-1.36401E+01-5.53664E+00 3.21809E+00 1.56644E+00 5.26207E-01
 -1      1419-2.67797E+01-2.13652E+01-9.66872E+00 4.24327E+00-9.46099E-01 3.62808E+00
 -1      1420-8.13427E+00-1.49396E+01-2.14773E+00-1.04439E+00 9.44928E-01-1.08995E+00
 -1      1421-1.31574E+01-2.14641E+01-5.29485E+00-9.62260E-01 1.22820E+00-2.21718E+00
 -1      1422-1.33346E+01-1.41277E+01-4.09906E+00 3.19174E+00-2.87340E-01-1.52389E+00
 -1      1423-1.46056E+01-1.83343E+01-4.94426E+00 1.80075E+00-1.71117E+00-1.02589E+00
 -1      1424-1.40823E+01-1.13173E+01-5.50380E+00-2.54251E+00-3.57460E-01 7.33051E-01
 -1      1425-2.07338E+01-1.57009E+01-7.59259E+00-2.66129E+00 5.93291E-01 1.59902E+00
 -1      1426-1.09154E+01-1.15642E+01-6.73281E+00 2.13746E+00-2.05879E+00-1.19041E+00
 -1      1427-1.83472E+01-1.50850E+01-5.46460E+00 3.11970E+00-1.34400E+00-8.93662E-01
 -1      1428-9.07798E+00-1.18486E+01 4.04470E-01 3.25065E+00-6.57749E-02 2.36699E+00
 -1      1429-1.34448E+01-1.97283E+01-2.53362E+00-1.36890E+00-3.74257E-02 1.88908E+00
 -1      1430-1.10587E+01-1.74844E+01-6.61827E+00 2.62665E+00-6.36442E-01-2.99870E+00
 -1      1431-1.25820E+01-1.75363E+01-3.92139E+00 1.95549E+00-1.11002E+00-1.28160E+00
 -1      1432-9.17229E+00-1.24893E+01-6.23249E+00-7.56373E-01-1.21915E+00 1.59429E+00
 -1      1433-1.26252E+01-1.69705E+01-7.09173E+00-6.68088E-01-1.97530E+00 1.81674E+00
 -1      1434-1.63188E+01-1.09951E+01-3.99431E+00 1.76751E+00-3.19751E-01 2.81521E-01
 -1      1435-2.23182E+01-1.52119E+01-7.44697E+00 1.60891E+00 5.98629E-01-2.37131E+00
 -1      1436-1.34403E+01-1.40041E+01-6.59838E+00 5.46991E-01 5.37311E-01 4.02267E-01
 -1      1437-1.19231E+01-1.01328E+01-3.88540E+00-2.59050E+00 2.02272E+00-9.03911E-01
 -1      1438-1.53667E+01-1.22675E+01-6.51159E+00-2.52700E+00 1.37288E+00-2.11562E+00
 -1      1439-1.37999E+01-8.85541E+00-2.95203E+00-1.26521E+00-2.10943E+00 4.05966E-01
 -1      1440-1.95358E+01-1.44577E+01-4.97589E+00-1.24705E+00-3.14329E+00-3.99220E-01
 -1      1441-2.45542E+01-2.35095E+01-1.26610E+01 5.24376E+00 1.01831E+00-3.37571E-01
 -1      1442-2.99595E+01-2.34938E+01-1.30567E+01 5.09222E+00-1.82988E+00 2.55583E+00
 -1      1443-1.80905E+01-1.68760E+01-6.53480E+00 4.73957E-01-1.64198E+00-2.90533E-01
 -1      1444-1.29028E+01-1.26968E+01-7.10221E+00-2.40890E+00-4.54163E-02-1.15627E+00
 -1      1445-1.74286E+01-2.05476E+01-8.54864E+00-3.20674E+00 1.79646E+00-3.25360E-01
 -1      1446-1.31335E+01-1.39595E+01-5.23051E+00 9.33769E-01-1.24352E-01 2.26388E-01
 -1      1447-1.47910E+01-1.45695E+01-8.42924E+00-5.94696E-02 4.99233E-01 4.94695E-01
 -1      1448-1.46764E+01-1.66615E+01-7.53947E+00 7.77471E-01-3.41604E-01-1.27753E+00
 -1      1449-1.86315E+01-1.93511E+01-7.04575E+00-6.23005E-01-4.59643E-01 1.13997E+00
 -1      1450-2.00815E+01-2.02920E+01-1.09379E+01-3.02714E+00-3.59102E-01-1.40703E+00
 -1      1451-2.56973E+01-1.83976E+01-1.11117E+01-2.52472E+00 6.10748E-01 1.24376E+00
 -1      1452-1.79720E+01-1.88309E+01-6.77941E+00-6.96530E-01 7.81448E-01 2.31770E+00
 -1      1453-1.80638E+01-1.63522E+01-7.14252E+00-6.54271E-02 1.67080E+00-6.43615E-01
 -1      1454-1.42297E+01-1.44236E+01-7.31687E+00-8.56353E-01 8.78965E-01-4.38865E-01
 -1      1455-1.98312E+01-2.38131E+01-1.03661E+01 3.07102E+00 1.26184E+00-4.72318E-01
 -1      1456-2.21971E+01-3.12398E+01-1.60580E+01 2.41598E+00-2.67632E+00 9.49632E-01
 -1      1457-1.78339E+01-1.57596E+01-7.59577E+00 1.16766E+00 1.24500E+00-4.60390E-02
 -1      1458-2.85152E+01-2.21831E+01-9.73681E+00-3.40035E+00-4.41284E-01-5.34903E-01
 -1      1459-3.27216E+01-2.32178E+01-1.44972E+01-2.15104E+00-2.47433E+00-3.37771E+00
 -1      1460-1.69767E+01-1.59521E+01-7.76604E+00-3.92843E-01-2.05279E+00-5.28781E-01
 -1      1461-1.80180E+01-1.86656E+01-7.17928E+00 2.27402E-01 6.39227E-01-1.73433E+00
 -1      1462-8.54523E+00-1.32810E+01-1.27837E+01-1.22300E+00-4.08566E+00 6.21830E+00
 -1      1463-2.20938E+01-2.29500E+01-9.22232E+00 3.90589E+00-2.28380E-01-1.60290E+00
 -1      1464-2.16988E+01-2.66721E+01-1.14484E+01 3.60756E+00-1.86633E+00-1.54476E-01
 -1      1465-1.43829E+01-6.42510E+00-1.20785E+01-2.72879E-01 5.79687E+00 1.34740E+00
 -1      1466-1.59737E+01-7.85515E+00-1.24697E+01 8.64839E-01-6.49362E+00 2.10667E+00
 -1      1467-1.38803E+01-1.61242E+01-6.46705E+00 3.00183E-01-1.46774E+00-3.57285E-01
 -1      1468-1.80740E+01-2.22990E+01-9.90089E+00-2.18167E+00 1.90739E+00 1.09465E+00
 -1      1469-1.88767E+01-2.70670E+01-1.38892E+01 9.42378E-01-4.61158E+00-8.57821E-01
 -1      1470-1.48948E+01-1.42041E+01-9.09690E+00-4.57617E-01-6.71372E-01 1.13151E+00
 -1      1471-8.98781E+00-7.44594E+00-1.11615E+01 3.30835E+00 5.07547E+00 3.35032E+00
 -1      1472-1.63002E+01-1.62621E+01-5.68583E+00-1.47609E+00 1.65186E-01-2.49970E+00
 -1      1473-2.24731E+01-1.99082E+01-1.32749E+01-3.66867E+00-2.41007E+00-3.74628E-01
 -1      1474-2.37565E+01-2.52382E+01-1.23642E+01-4.28762E+00 1.33643E+00 1.26201E+00
 -1      1475-8.54667E+00-1.36945E+01-1.35268E+01 1.41690E+00-5.40261E+00-6.15745E+00
 -1      1476-2.15624E+01-2.28783E+01-1.14406E+01-5.52058E+00-5.74395E-01 1.32302E-01
 -1      1477-2.19554E+01-2.48742E+01-1.07130E+01-6.38913E+00-2.69805E+00-1.36585E+00
 -1      1478-1.51500E+01-9.42665E+00-1.50415E+01 1.67461E+00-6.10304E+00-4.11612E+00
 -1      1479-8.05541E+00-1.24883E+01-1.06164E+01 2.58365E+00-6.29391E-01-5.56366E+00
 -1      1480-2.05568E+01-2.15094E+01-1.02747E+01-4.01443E+00 1.03593E+00-2.34052E-01
 -1      1481-2.45064E+01-1.99684E+01-1.26524E+01-3.12770E+00-4.92485E-01-1.37687E+00
 -1      1482-2.62546E+01-1.98731E+01-9.59483E+00-1.63829E+00-1.57623E+00-2.64303E+00
 -1      1483-2.76528E+01-2.14308E+01-1.00512E+01-1.17414E+00-7.82280E-01 1.14926E+00
 -1      1484-1.09183E+01-1.09837E+01-8.89213E+00-3.64552E+00-3.49577E+00 4.04765E+00
 -1      1485-2.70276E+01-1.96500E+01-1.07111E+01 2.58082E+00-1.97849E-01-8.06814E-01
 -1      1486-2.84086E+01-1.92632E+01-1.12334E+01-3.36635E-02 9.97802E-03 4.05143E-02
 -1      1487-1.13668E+01-1.03518E+01-1.35534E+01 2.54680E+00-4.50033E+00-5.76624E+00
 -1      1488-2.43405E+01-2.65101E+01-1.15660E+01 3.28643E+00 3.59417E-01-1.51428E+00
 -1      1489-2.53276E+01-2.82860E+01-1.35287E+01 5.30172E+00-6.63352E-01 4.56242E-01
 -1      1490-9.75560E+00-1.16275E+01-9.59000E+00-2.55012E-01-2.45470E+00 6.63528E+00
 -1      1491-1.18966E+01-7.57623E+00-9.41978E+00 2.24243E+00 4.84994E+00 9.87525E-01
 -1      1492-8.25751E+00-1.43770E+01-1.23595E+01-4.64121E-02 1.93291E+00-6.44771E+00
 -1      1493-1.27653E+01-7.40551E+00-1.36042E+01-2.59278E+00-6.29866E+00 1.05277E+00
 -1      1494-7.62426E+00-1.22615E+01-1.07299E+01-2.14924E+00 1.12190E+00-5.56907E+00
 -1      1495-1.94316E+01-2.97338E+01-8.45115E+00 1.84710E+00-7.43528E-02 7.44325E-01
 -1      1496-1.81821E+01-3.25406E+01-9.38325E+00 1.11059E-01 1.07509E+00 1.39277E+00
 -1      1497-2.95861E+01-2.26143E+01-1.35510E+01 2.56586E+00 6.55519E-01 2.09281E+00
 -1      1498-3.25250E+01-2.34714E+01-1.51427E+01 2.86464E+00 1.94487E+00-3.97355E+00
 -1      1499-1.19647E+01-1.15631E+01-1.46366E+01-2.39997E+00 5.20935E+00-5.80971E+00
 -1      1500-1.19971E+01-8.07062E+00-1.27122E+01-5.15021E-01-6.75870E+00-2.66373E+00
 -1      1501-7.70262E+00-1.36383E+01-1.16213E+01-9.30256E-01 2.02109E+00 5.61498E+00
 -1      1502-8.37509E+00-1.07942E+01-1.03600E+01-1.88067E+00-1.09161E+00 6.29042E+00
 -1      1503-2.06804E+01-2.98902E+01-1.12255E+01-3.02707E+00-8.02817E-01 4.15369E-01
 -1      1504-2.31239E+01-3.59881E+01-1.47048E+01-8.24804E-01 1.08727E+00 2.55351E-01
 -1      1505-7.07747E+00-1.31036E+01-1.12683E+01 1.26582E+00 3.82592E+00 4.85426E+00
 -1      1506-2.29146E+01-2.28934E+01-1.30432E+01 4.29320E+00-3.71951E-01 5.21096E-01
 -1      1507-2.71101E+01-2.16950E+01-1.05436E+01 4.45431E+00-1.05393E+00-4.79555E-01
 -1      1508-6.37920E+00-1.29526E+01-9.51545E+00-9.79632E-01 2.63851E+00-5.13655E+00
 -1      1509-1.25464E+01-7.91478E+00-1.06397E+01-1.53608E+00-4.91583E+00 4.06443E+00
 -1      1510-1.09252E+01-8.03966E+00-1.13326E+01-1.72174E+00 5.16789E+00-3.65324E-02
 -1      1511-1.24692E+01-8.88686E+00-1.25407E+01 1.46205E+00 6.14320E+00 2.76703E+00
 -1      1512-8.20684E+00-1.04502E+01-7.75933E+00 2.48018E+00-4.55494E+00-2.80710E+00
 -1      1513-9.23712E+00-1.24348E+01-1.10253E+01-2.01897E+00-5.68045E+00 3.83795E+00
 -1      1514-1.56498E+01-1.49598E+01-7.98751E+00-2.21768E+00 7.93006E-01-1.12432E+00
 -1      1515-9.43075E+00-1.04922E+01-1.05098E+01-2.41808E+00 4.84636E+00-4.29057E+00
 -1      1516-9.64709E+00-1.41703E+01-1.33916E+01-1.58902E+00-2.23035E+00-7.34719E+00
 -1      1517-1.09667E+01-1.06106E+01-1.14659E+01 2.80765E+00 3.67687E+00 5.12774E+00
 -1      1518-1.05796E+01-9.79594E+00-1.14327E+01 2.34069E+00-6.76293E+00-5.35207E-01
 -1      1519-8.60307E+00-1.12513E+01-1.23841E+01 1.79440E+00 1.43623E+00 6.81250E+00
 -1      1520-1.18717E+01-7.60342E+00-8.25611E+00 8.37885E-01 5.07902E+00-2.07239E+00
 -1      1521-1.37737E+01-8.84061E+00-1.40294E+01-8.39950E-01 5.21720E+00-4.35607E+00
 -1      1522 1.24983E+00-8.15406E-01 1.05713E+00 6.68017E-01 5.68371E-01-3.54513E+00
 -1      1523-1.22863E+00-1.38890E+00 4.82019E-01 1.85165E-01-1.38279E+00-1.21581E+00
 -1      1524 1.12680E+01 1.16566E+00-2.09566E+00-3.54761E-01 5.46212E-01 3.22213E+00
 -1      1525 7.98404E-01 6.29171E+00 2.78603E-01 8.01587E-01-1.50008E+00-3.34319E-01
 -1      1526-1.58883E+00-3.38932E-01 3.51340E-01 8.45632E-01-1.30816E+00 3.79447E-01
 -1      1527 8.66233E-01 6.11642E+00-3.66810E-01 5.96903E-01-2.19175E+00 5.61613E-01
 -1      1528 8.15339E-02 7.67211E-02 1.27980E+00 1.78676E+00-2.08747E+00 2.72382E-01
 -1      1529 1.84200E+00 9.46355E-01-1.95908E+00 2.14558E+00 4.54857E-01 2.28212E+00
 -1      1530 3.16067E+00 3.21704E+00-3.41367E-01-2.37049E+00 1.56039E+00-2.59024E+00
 -1      1531-7.63210E-01-1.54739E+00-1.98115E+00 8.37002E-01 2.42549E+00 1.94623E+00
 -1      1532 3.33898E+00 2.91484E+00 3.92957E+00-6.41051E-01-2.81548E+00 5.11189E-01
 -1      1533-1.61347E-01-1.62679E+00 1.73309E+00 6.64709E-01 1.21140E+00 1.35749E+00
 -1      1534 1.21012E+00 4.28611E+00-1.86727E+00 8.08271E-02 3.42713E+00 1.68949E+00
 -1      1535-3.82815E+00-3.54218E-01-7.48274E-01-1.62637E+00-1.03295E+00-2.93981E+00
 -1      1536 2.78646E+00-9.00674E-01 1.89750E+00-7.85730E-02 1.41343E+00-1.62139E+00
 -1      1537 1.19254E+00-5.91736E+00 3.53718E-01-2.97236E-01 2.11919E+00-1.16470E+00
 -1      1538 1.94036E-01 4.66426E+00-1.96993E+00-6.90363E-01 1.04908E+00 5.37025E-01
 -1      1539-7.03572E-01-1.96648E+00-1.32312E+00 9.37584E-01 2.87788E+00 5.64533E-01
 -1      1540 1.76954E+00 4.11896E+00-6.13332E-01-1.23397E+00-1.90912E+00 1.77345E-01
 -1      1541 2.06426E+00 1.15384E+00-1.85383E+00-1.79470E+00-9.35959E-01 2.54341E+00
 -1      1542 1.73301E+00 3.41287E+00-1.24872E+00 7.50360E-01 8.59355E-01 1.73917E+00
 -1      1543-1.12118E-02 3.47118E+00-2.96339E-01-1.55643E+00-1.99470E+00 1.47979E+00
 -1      1544-4.75565E+00 8.45477E-02-6.35973E-01-9.50044E-01-1.15366E+00-1.63227E+00
 -1      1545 3.16686E+00 1.87486E-01 2.43170E-01-4.03189E-03 1.64645E-01-2.76862E+00
 -1      1546-9.90791E-01-1.66067E+00-9.01025E-02-2.08524E+00-2.25532E+00-1.21669E+00
 -1      1547-4.84972E+00-5.62634E+00 2.35894E-01-3.73695E+00-1.61230E+00-2.48512E+00
 -1      1548 2.21874E+00 2.37007E-02-3.23794E-01-1.37721E+00 1.09597E+00 5.39131E-01
 -1      1549-1.06407E+00-2.25229E+00 2.01441E-01 6.27290E-03 1.60762E+00 1.76710E+00
 -1      1550 7.51038E-01 8.60764E-01 2.47763E-01 1.41086E+00 8.72419E-01-2.40723E+00
 -1      1551 2.84097E+00 4.93824E-01 3.72890E+00-3.60775E-01-1.81891E-01 2.69538E+00
 -1      1552-5.09812E+00-2.36318E+00-7.66108E-01-2.61151E+00-6.45428E-01-7.80379E-01
 -1      1553-5.34169E+00 8.72169E-01 2.56732E+00 8.92090E-01-1.61103E+00-2.74351E+00
 -1      1554 4.42385E+00 1.48835E+00 4.26876E+00 2.71345E-01 1.72748E+00-3.36030E+00
 -1      1555 1.07037E+00-1.18540E+00 6.34293E-01 1.59743E+00-1.11618E+00-1.28128E+00
 -1      1556 3.14943E-02-7.86124E-01 8.69024E-01-2.57096E-01 2.26320E+00 1.95671E+00
 -1      1557-1.35894E-02-4.76572E-01-1.62821E-01 8.30233E-02-3.53200E+00-3.83021E+00
 -1      1558-4.61347E+00-2.64084E+00 2.19302E-01 2.56546E+00 6.31714E-01-2.75801E+00
 -1      1559-2.66925E+00-1.90992E+00-4.87654E-01-2.29922E+00 1.79481E+00 1.37968E+00
 -1      1560-6.64521E-01 7.72272E-01 5.81519E-01-6.12750E-01-2.34408E+00-3.43192E-01
 -1      1561 6.11244E-01-1.77722E+00-8.51898E-02 2.56994E-02 2.45588E+00-3.97995E-01
 -1      1562 2.82488E+00-9.00068E-02 2.54668E+00 1.43106E+00-1.23366E+00-2.31287E+00
 -1      1563-1.00648E+00-2.15090E+00 8.55370E-01-3.70470E-01 7.53410E-01-1.70556E+00
 -1      1564-7.06321E+00-7.22375E+00-7.00798E-01 9.57310E-01-8.84029E-01-1.37835E+00
 -1      1565-4.11749E+00-3.62947E+00 2.50814E+00 4.47671E+00 2.91117E+00 1.66964E-01
 -1      1566 9.82817E-01 6.28753E-01 2.20611E-02 1.17939E+00 1.70457E+00 7.76124E-01
 -1      1567-1.20274E+00-1.83642E+00 1.18322E+00-1.98944E-01 1.24998E+00 1.18116E+00
 -1      1568 2.63964E+00 4.23100E+00 1.00081E+00 2.17095E+00 2.44501E+00 1.64034E-01
 -1      1569 4.80067E+00 7.47334E-01 2.64390E+00-3.80241E-01 1.76920E-01 3.31755E+00
 -1      1570 9.63637E-01 2.25506E-01-1.70236E+00-9.79226E-01 3.21589E+00-9.40880E-01
 -1      1571 4.70922E-01-1.31650E+00-1.25768E-01-3.66339E-01-1.40425E+00 1.52193E+00
 -1      1572 4.39908E+00 8.58997E+00 5.65251E-01 4.41686E+00-1.86648E+00-1.84993E+00
 -1      1573 4.21127E-03-1.48740E+00-5.64019E-01 6.06969E-01-3.38442E+00-3.73285E-01
 -1      1574 1.37369E-01 1.08477E+00 1.63549E+00-2.99182E-01-6.28834E-01 1.29795E+00
 -1      1575 1.03781E+00 2.72162E-01-5.41045E-02 2.35580E-01 1.05787E+00-1.52691E+00
 -1      1576 2.97638E+00 6.86088E-01 2.72526E-01 1.05523E+00-6.60962E-01-1.05505E-01
 -1      1577 8.61000E-01 3.09271E+00 9.29950E-01 1.15960E+00-2.78519E+00-2.94254E+00
 -1      1578 1.47777E+00 1.02666E+00-3.96196E-01 8.55388E-01 9.06467E-01-2.28378E-01
 -1      1579-1.24109E+00-1.18324E+00-1.08832E+00 1.28580E+00 1.44729E+00-2.66065E+00
 -1      1580-1.62794E+00-1.82373E+00 3.45030E-02 1.98494E+00 2.04736E+00-1.36754E+00
 -1      1581-7.48606E+00-7.86281E+00 3.80629E-01 5.02300E+00 9.58155E-01-1.50355E+00
 -1      1582 3.09615E+00-1.43205E+00-1.09591E+00-1.85294E+00 1.24503E+00-4.36556E+00
 -1      1583 4.00138E+00 5.96217E+00 1.15121E+00 3.35064E-01 5.62185E-01-7.86733E-01
 -1      1584-6.70971E+00-7.27317E-01 2.91948E+00 1.19837E+00 7.86096E-01-2.13546E+00
 -1      1585 7.16223E+00 9.08680E+00 1.30928E+00-8.65321E-01 1.88897E+00 7.01043E-01
 -1      1586-6.17437E+00-1.77838E+00 2.62939E-01 1.93556E+00 4.51879E-01-2.10791E+00
 -1      1587 1.89456E+00 5.44153E-01-1.11904E+00-1.15472E+00-2.65268E+00 2.96805E+00
 -1      1588-9.63966E-01-1.25567E-01-9.47156E-01 4.30932E-01 2.21244E+00 2.11684E+00
 -1      1589-3.11318E+00-7.07278E-01 1.26634E+00-2.07824E+00 1.17812E+00 6.33563E-01
 -1      1590-1.26468E+00-1.40231E+00-3.15347E-02 2.75211E-01 6.39702E-01 5.79392E-01
 -1      1591-2.74731E+00-1.40910E+00 4.99625E-01 5.14842E-01 2.47428E+00-7.19365E-01
 -1      1592-1.85005E+00 4.41992E-01 5.75956E-02-5.58413E-01 2.17742E+00 4.52151E-01
 -1      1593-5.70510E-01-4.11708E+00-5.54588E-02-2.91938E-01 3.67470E+00 5.92018E-01
 -1      1594-9.98542E+00-5.21151E+00-2.56689E+00 3.06686E+00 6.93694E-01-4.09071E+00
 -1      1595-2.74839E-01 4.38101E-01 4.01409E-01-6.64934E-01-2.37232E+00 4.11332E-01
 -1      1596-1.43291E+00-1.58222E+00-1.76920E-01-5.35112E-01-8.55922E-01 1.87185E+00
 -1      1597 5.77426E-01-9.12179E-01-1.46905E-01-1.33743E+00 1.19627E+00 1.38913E+00
 -1      1598 3.07374E+00-2.10877E-01-7.16349E-01 1.05299E+00 1.15184E+00 2.17666E+00
 -1      1599-2.17231E+00-7.13622E-01 5.17888E-01 1.20252E+00-2.99652E+00 2.50636E+00
 -1      1600-2.69596E+00-3.74281E-01 1.50620E+00-1.29034E+00-5.22646E-01 4.94946E-01
 -1      1601-6.59679E+00-4.51457E+00-6.38031E-01-3.36819E+00 2.81759E+00 2.78803E+00
 -1      1602-1.05616E+00-1.19201E+00-1.89060E+00 6.49868E-01 2.31820E+00-1.40772E-01
 -1      1603-4.32615E+00 1.27731E+00-6.59779E-01 4.35390E-02-6.33522E-01 3.00432E+00
 -1      1604-6.91978E+00 1.96853E-01 1.48853E+00 2.00638E+00 2.91389E-01-1.77145E+00
 -1      1605 2.50832E+00 2.91957E+00 4.21938E-01 5.47498E-01-1.22431E-01 1.14484E+00
 -1      1606-2.50043E-01-6.31183E+00 1.94694E+00-1.01823E+00 1.30896E+00 9.50788E-01
 -1      1607 6.75448E-01 5.41173E-01 1.59490E-01 2.16429E+00 2.32095E+00 2.49741E+00
 -1      1608-6.60841E-01 3.41075E+00-8.94211E-02-1.04916E+00 2.39832E+00 2.66403E-01
 -1      1609 2.13170E+00 2.95727E+00 1.57393E+00 1.42700E+00 7.23945E-01 1.57858E+00
 -1      1610 9.71617E-01 5.12568E+00 3.80602E+00 5.56343E-01 4.11626E+00 1.67835E+00
 -1      1611-6.99953E-01 8.95883E-01 1.05330E+00-2.73791E-01-5.47908E-01-2.34848E+00
 -1      1612-8.37568E-02-3.77117E-01-1.66081E-01 8.97781E-01-6.99049E-01-3.57960E+00
 -1      1613 1.11164E+00 8.32192E-01-2.04854E+00-2.98794E-01 5.34205E-01 2.27569E+00
 -1      1614 3.96581E+00 1.62581E+00 4.20714E+00 6.85625E-01 3.93178E-02 3.16903E+00
 -1      1615-3.50878E+00-7.92758E+00-4.72273E+00 3.18577E-01 4.29403E+00-1.64763E+00
 -1      1616 9.43011E-01 9.72213E-03-6.45281E-01-8.47997E-01-2.83756E-01-1.83016E+00
 -1      1617-3.74053E-01-2.00315E+00-3.99567E+00 2.15382E+00 4.15328E-01-1.01536E+00
 -1      1618 4.58616E+00 4.58170E+00 1.45872E+00-1.13914E+00-1.67101E+00-3.14282E-02
 -1      1619 3.06568E+00 9.73197E-01 9.13616E-01-1.25422E+00 8.48169E-01 1.10011E+00
 -1      1620 1.92550E-01-4.93099E+00-4.58016E-01-6.75991E-01 3.07851E+00-6.72530E-01
 -1      1621-7.72353E+00-2.67892E+00-6.58642E-01-1.73232E+00 8.52027E-01 3.68485E+00
 -1      1622 4.90878E+00 1.85839E+00 1.71087E+00-1.68981E+00-2.72626E+00 4.40829E+00
 -1      1623 4.48228E+00 1.94723E+00 6.67270E-01-1.32342E+00 6.05503E-01 7.42911E-02
 -1      1624 3.15242E+00-2.45493E-01-5.05642E-01 1.41242E+00-1.32868E-01-1.13063E+00
 -1      1625 1.96575E+00 4.97334E+00 8.89694E-01 1.35606E+00-2.70571E+00-5.50026E-01
 -1      1626 1.06764E+00 5.72385E+00 2.75226E+00 9.89999E-01 1.72278E+00 1.94031E+00
 -1      1627-3.87872E-01 2.30493E-01-3.24987E+00-2.67771E+00 3.63142E-01 1.03598E+00
 -1      1628 2.76016E+00 8.67967E-01 1.43323E+00-1.62463E+00-1.18125E+00 2.39236E+00
 -1      1629 1.42119E+00-1.47753E+00 3.12211E+00 2.44590E-01-2.86048E+00 7.72737E-01
 -1      1630-5.02473E-01 2.47696E-01 4.05474E-01 4.38600E-01 1.85349E-01-1.48051E+00
 -1      1631 7.75164E-02 1.40993E+00-7.60138E-03-2.84036E-01-7.90016E-01 5.35714E-03
 -1      1632 6.97947E+00 2.01302E+00 1.23838E+00-1.30353E+00-6.51760E-01 4.02694E+00
 -1      1633-2.01113E+00-5.46621E-01 4.07326E-01-9.72562E-02-9.36741E-01 3.52736E-01
 -1      1634 3.68760E-01 7.75525E-01-6.53317E-02-2.89099E-01-7.06974E-01 4.16221E+00
 -1      1635-3.85257E+00-2.00528E+00-1.40261E+00-1.25390E+00-2.31003E+00-2.02508E+00
 -1      1636 5.44354E-01 3.30980E+00 1.35478E+00-9.36577E-01-1.69917E+00 7.48308E-01
 -1      1637 6.80596E+00 1.58788E+00 1.49098E+00 3.05017E+00-3.37880E-02 3.36287E+00
 -1      1638-1.21409E+00-1.47579E+00 1.93455E+00 2.11102E+00 2.30298E+00-3.14736E+00
 -1      1639-9.58889E-01-3.52547E+00-2.87972E+00-7.58985E-01 1.59813E+00 1.22801E+00
 -1      1640-4.38793E+00-3.14753E+00 7.03300E-01 1.95111E+00-1.70814E+00 1.96172E+00
 -1      1641 5.38201E-02-1.24278E+00-8.87409E-01-9.89044E-01-1.52859E+00-2.34237E+00
 -1      1642-6.32125E-01-8.23417E-01 7.19392E-01-3.21493E-01 1.22054E+00-3.66024E-01
 -1      1643 2.84027E-01 3.41636E+00 1.41540E+00 1.23840E-01 1.85212E+00-4.60584E-01
 -1      1644-4.37094E+00-7.80854E+00-1.09038E+00-2.77781E+00 1.59216E+00 4.09637E-01
 -1      1645-1.33963E+00-7.86152E-01 8.06016E-01-1.00029E-01 1.64671E+00-1.07068E-01
 -1      1646 5.40856E-01-1.50444E+00-6.60208E-01 1.51080E+00 3.85670E+00 1.55243E+00
 -1      1647-2.16760E+00-4.99339E+00-1.39802E+00-1.84175E+00 4.30013E+00 4.54643E-01
 -1      1648-1.65747E+00 8.73478E-01 7.34415E-01-9.78987E-01 3.02349E+00-6.14966E-01
 -1      1649 1.31651E-01 2.25406E+00-5.27388E-01-1.57173E+00 1.49356E+00-1.48523E+00
 -1      1650-2.46891E+00-4.19843E+00-2.19643E-01-4.60062E-01 6.50557E-01-1.70720E+00
 -1      1651 3.22847E+00 1.72203E-01 2.02199E+00 8.84638E-01 2.73783E+00 3.97498E+00
 -1      1652-4.02989E-01-5.05639E+00-1.46246E+00 1.62983E-01 2.68566E+00 5.20044E-01
 -1      1653-3.63324E-01-1.95317E+00 1.14361E-01-1.26986E+00 1.62318E+00 1.04001E+00
 -1      1654-7.74554E-01-3.42924E+00-4.47068E-01-2.17756E+00-2.66332E+00-1.07194E+00
 -1      1655-2.15177E+00-7.35412E+00-1.42452E+00 3.29623E-01 3.01126E+00 7.56707E-01
 -1      1656 4.55935E-01 2.33108E+00-2.80836E+00-1.72967E-01 5.16077E-01-8.03937E-02
 -1      1657 6.22523E-01-4.20456E-01-4.78766E-01-1.23185E+00 3.17714E-01-1.96005E+00
 -1      1658-3.20563E+00-2.19414E+00-6.60030E-01 8.09298E-01 2.44443E+00-7.16585E-01
 -1      1659 1.53788E+00 4.38781E+00-1.64069E+00 1.52134E+00 2.64534E+00 8.34202E-01
 -1      1660-5.35290E+00-2.63450E+00 6.06725E-01 1.81836E+00 6.44001E-01 5.85519E-01
 -1      1661-4.47594E+00-5.52397E+00 1.93804E+00-4.03640E+00-1.29890E+00-2.85104E+00
 -1      1662 2.93412E+00 4.08525E+00 2.19001E+00 4.40626E-01 1.43126E+00-9.29927E-01
 -1      1663 2.67484E+00 1.86963E+00 1.79157E+00 1.66447E+00-3.48057E+00-3.09533E+00
 -1      1664-3.91791E+00-5.06435E-01 4.16735E-01 8.64341E-01-1.25492E+00 3.50972E-01
 -1      1665-1.35249E+00 6.80485E-01-7.94433E-01 1.52491E-01-2.06868E+00-2.96703E-01
 -1      1666-1.69735E+00-1.07332E+00-7.25311E-01-4.09302E-01 1.93457E-01 1.87045E+00
 -1      1667 7.69328E-01 1.05120E+00-1.71879E+00 5.86762E-01 1.51378E+00 9.25832E-01
 -1      1668 5.18064E-01 1.54321E-01-4.60912E-01 8.18191E-01-1.28233E+00-1.09807E+00
 -1      1669-5.17644E-01-1.55625E+00 2.88724E-01-1.23158E+00 1.43084E+00 1.47793E+00
 -1      1670-1.77979E+00-5.35476E+00-3.15251E+00 1.39412E-01 2.51296E+00-3.61403E-02
 -1      1671 3.76366E+00 9.89991E-01-1.43393E-01-2.75319E+00-2.22808E+00 2.83846E-01
 -1      1672 1.00873E+00 3.47131E+00 1.05145E+00-4.36405E-01 1.59352E+00-1.28476E+00
 -1      1673-3.58766E+00-1.26331E+00-2.15550E+00-2.03104E+00 3.11331E+00 2.64827E+00
 -1      1674 3.83906E+00 1.24727E+00 1.00717E+00 1.88701E+00-6.98687E-01-3.16047E+00
 -1      1675-3.23975E+00-1.64604E+00 1.79842E-01-1.55797E-01 5.73650E-01-3.60690E+00
 -1      1676-3.94071E+00 1.57429E+00-6.74385E-01 2.78554E-01 1.23514E+00-2.90307E+00
 -1      1677 1.46450E+00 1.88248E+00 4.17834E-02-2.08851E+00-2.94795E+00 2.37420E+00
 -1      1678 2.95950E+00-2.89262E-01 2.27587E-01-1.02638E+00 1.75292E+00-5.62659E-01
 -1      1679 6.75748E+00 2.23266E+00-6.02490E-01 9.30351E-01-8.49373E-01 2.35115E+00
 -1      1680-6.39744E+00-6.22493E+00 2.10806E+00-3.60358E+00 5.24722E-01 5.44916E-01
 -1      1681-3.05939E-01 1.28696E+00 4.54814E-01 2.36971E-01 3.14501E-01 3.58001E+00
 -1      1682-6.49336E+00-4.01239E+00 8.43024E-01 5.92435E+00 3.32026E+00-8.44061E-01
 -1      1683-1.75312E+00-1.77327E+00-9.79782E-01-1.70953E-02-1.70900E+00-1.36705E+00
 -1      1684 1.78119E+00 1.45297E+00 1.98430E+00 6.02821E-01 2.42989E+00 3.35572E+00
 -1      1685 1.08542E+00 1.61939E+00 3.15842E-01 2.13735E+00-8.22026E-01 6.54453E-01
 -1      1686 7.81669E-01-3.79581E-01 5.87955E-01-1.96391E-01 1.51837E+00 8.54618E-01
 -1      1687 6.77353E-01 4.69980E-01 5.47955E-01 8.46808E-01 2.05800E+00 2.74622E+00
 -1      1688 3.97760E+00 2.25348E+00 4.35712E-01 1.64384E+00 2.56253E+00 3.34793E+00
 -1      1689-3.16782E+00-2.21680E+00 1.82124E+00 3.78043E+00 2.33810E+00-5.88254E+00
 -1      1690 3.73039E+00 3.98189E+00 2.78679E+00 1.34868E+00-1.00275E+00-2.95363E+00
 -1      1691 2.08800E+00 3.81294E+00-1.93214E-01 2.01203E+00 5.27339E+00 1.23115E+00
 -1      1692-1.12314E+01-5.01288E+00-9.72464E-01-4.00989E+00-4.46217E-01-4.26581E+00
 -1      1693-1.78902E+00 1.22650E+00 7.45810E-02 1.27620E+00 4.65175E-01-1.11895E+00
 -1      1694 1.42996E+00 3.33502E+00 1.09262E+00-1.27900E-01 3.41047E+00 5.98101E-01
 -1      1695 4.21257E+00 5.83007E+00-1.50813E+00 2.89584E+00-1.27674E+00 1.28200E+00
 -1      1696 3.28403E+00 1.04235E+00 3.33026E-01-1.49105E+00 1.57916E+00-2.15753E+00
 -1      1697 4.97963E-01 6.62063E-01 2.37660E+00 1.17313E+00 2.76618E+00 1.93939E+00
 -1      1698 1.51061E+00 8.54393E+00-3.11877E+00-2.22807E+00 3.14775E+00-3.60598E+00
 -1      1699 3.27243E-01-9.53707E-01 6.04428E-01-5.68270E-01 1.65289E+00-1.63583E+00
 -1      1700 3.98302E-01 3.38044E+00-2.10327E+00-9.00977E-01-1.73285E-01 2.78020E-01
 -1      1701 4.48095E+00 1.90939E+00 1.73609E+00 1.40220E+00 1.88326E-01-2.10137E+00
 -1      1702-1.79262E+00-2.65621E+00-3.46160E-01 1.07774E-01 1.09373E+00 8.05583E-01
 -1      1703-8.12705E-01 5.72706E-01 5.84195E-01-2.73563E-01 1.92752E+00 2.14763E+00
 -1      1704 4.28449E+00 2.60593E+00 1.29616E+00-1.88971E+00 2.11130E+00-2.32210E+00
 -1      1705 3.74999E-01 3.01906E+00-1.49383E-01 1.25924E+00 2.25141E+00 1.41879E+00
 -1      1706 1.20088E+00-1.01891E+00-6.57398E-02-7.13377E-01-1.38506E+00-6.72502E-01
 -1      1707 2.05203E+00 2.36029E+00-1.12038E+00 8.35405E-01 1.44733E-01-1.02181E+00
 -1      1708-2.39087E+00-1.44532E+00-3.04936E+00-4.57259E-01 1.58198E+00 3.47091E+00
 -1      1709-5.26833E+00-2.41041E+00-2.21260E+00 1.57827E+00 8.40961E-01-3.48567E+00
 -1      1710-2.80175E+00-4.92666E+00 1.42542E+00 3.39500E+00 9.46351E-01-1.03211E+00
 -1      1711-4.48010E+00-2.97804E+00-3.52154E+00 7.23603E-01 1.19432E+00-6.10660E-01
 -1      1712 2.07083E+00 1.34399E+00-2.87131E+00-5.18665E-01 2.13103E+00 1.67051E+00
 -1      1713-2.83282E+00-8.93426E-01 3.31471E-01-6.16152E-01-1.14525E+00-1.75373E+00
 -1      1714 3.47728E+00-3.47574E-01 3.21272E-01 8.35457E-01 8.03664E-01-2.53260E+00
 -1      1715-2.36149E+00-2.19280E+00 1.43517E+00-1.62862E+00-1.83672E+00-1.03241E+00
 -1      1716 5.94811E+00 1.74886E-01-5.78880E-01 9.73548E-01 1.62707E-01 1.47494E+00
 -1      1717-9.54808E-01-1.90693E+00-2.40185E+00-6.19891E-01-1.22824E+00-1.48671E-01
 -1      1718 2.20970E-01 5.41666E+00-5.70412E+00 1.99880E-01 1.68711E+00-6.77918E-02
 -1      1719-6.23836E-01 3.71767E-01-3.33236E-01-3.08110E+00 1.47876E+00 5.98495E-01
 -1      1720 6.44406E-01 4.67895E+00 8.61986E-01 1.24874E+00-2.97079E+00 7.80300E-02
 -1      1721 6.99297E+00 1.39731E+00-2.80474E-01-4.69826E-02-9.84886E-02-1.70883E+00
 -1      1722-2.16424E+00-1.44487E+00 1.43777E+00 8.61360E-02-2.58864E+00 6.69902E-01
 -1      1723-4.18531E-01 3.09324E-01 1.49150E+00-8.31139E-01-1.16077E+00 1.55712E+00
 -1      1724-5.23662E-01-6.68658E+00-1.66529E+00 3.03940E-01-3.60808E+00 5.90061E-01
 -1      1725-5.96891E+00-9.95617E-01 5.10369E-01 9.72930E-01-8.31088E-01-4.11550E+00
 -1      1726 1.29764E+00 1.99274E+00 8.83487E-01-1.26519E+00-6.50523E-01-1.63800E+00
 -1      1727-3.30889E+00-4.83420E+00-3.65965E+00-1.37029E+00-1.46306E+00-2.55980E-01
 -1      1728-3.05349E-01 4.95017E-01-7.72069E-01-3.94920E-01-2.05000E+00 1.53104E+00
 -1      1729 2.92822E-01 1.66154E+00 1.76221E+00-8.06346E-01-9.18868E-01 1.96954E+00
 -1      1730 3.25435E-01-3.80199E+00 2.94158E-02 1.72951E-01 3.18179E+00 4.83845E-01
 -1      1731-2.06713E+00-2.38786E+00-5.73212E-01 2.10064E-01 1.34769E+00 1.56506E+00
 -1      1732-1.26241E-01 1.69634E+00 7.07359E-01-2.93582E-02 2.78434E+00 4.14597E-01
 -1      1733-1.70332E+00-4.08948E+00 7.23637E-01-1.76099E+00-2.78080E+00-3.41992E-02
 -1      1734 3.93411E+00 6.09073E+00 2.85681E+00-2.34308E+00 2.41658E+00-6.38511E-01
 -1      1735-2.45045E+00-2.81109E+00 2.63082E-01-1.99740E+00 1.54409E+00 2.17200E+00
 -1      1736-5.56456E+00-7.35022E+00-3.54716E-01-3.77542E+00-7.55040E-01 5.98586E-01
 -1      1737-9.04435E-02 6.58782E-02 1.49880E+00 4.91513E-01-1.91940E+00 5.93164E-01
 -1      1738-1.17360E+00-1.20126E+00-2.79851E+00 2.00069E-01 2.25942E+00-6.08269E-01
 -1      1739 7.56701E+00 2.49858E+00 1.57536E-01-3.16785E+00 8.48364E-01-2.47948E+00
 -1      1740-2.86573E+00-3.63400E+00 2.17595E+00-2.71325E+00-3.82567E+00-3.35505E+00
 -1      1741-1.67832E+00-4.17661E+00-1.37811E+00 2.31047E+00 1.31921E+00-4.23114E-01
 -1      1742 5.43712E+00 2.38474E+00 3.61507E+00-3.89978E-01 7.00215E-01-3.43436E+00
 -1      1743 6.18940E+00 6.04086E+00-4.66405E-01-1.17549E-01-2.33347E+00 3.12699E+00
 -1      1744 5.07680E+00 4.99342E+00 1.38690E+00-3.22113E+00-2.04221E+00 3.65076E+00
 -1      1745 5.11776E+00 3.82611E+00 1.09262E+00-1.39909E-01 1.16029E+00-4.12583E-01
 -1      1746 1.35806E+00-2.27871E-01 3.83623E-01-9.94124E-01 1.49996E+00-1.62607E-02
 -1      1747 1.24381E+00 2.45636E-01-8.42484E-01-1.31685E+00-5.94144E-01-8.44383E-01
 -1      1748-2.28208E+00-4.29688E+00-6.75878E-01-2.77836E+00 6.97210E-01-6.54500E-03
 -1      1749-1.49623E-01-5.64460E-01 1.20772E+00-8.21741E-01-1.07953E+00-1.54276E+00
 -1      1750-1.21387E+01-3.67136E+00-1.24503E+00-7.83642E-01 9.24808E-01-5.54787E-01
 -1      1751 5.39207E+00 3.72235E+00 1.47038E+00 6.20739E-01 1.09400E+00-4.38559E-01
 -1      1752 6.61006E-01-2.02079E+00 6.12660E-01-1.70383E+00 1.05309E+00 1.37915E+00
 -1      1753-5.51273E+00-2.82550E+00-1.44650E+00 3.16619E+00-1.83350E+00 2.39020E+00
 -1      1754-2.75616E+00-1.08002E+01-1.70302E+00-1.28386E+00 3.25423E+00 4.21888E-01
 -1      1755-1.12232E+00 2.01348E-01 5.50436E-01 2.42762E-01-1.66617E+00 3.14856E-01
 -1      1756-5.15529E-01-5.86916E+00-7.58906E-01-5.77751E-01 2.94989E+00 7.16229E-01
 -1      1757-4.09305E+00 3.32765E-01-4.74291E-01 2.16635E-01-6.49486E-01-2.15602E+00
 -1      1758-1.06059E-01-1.66336E+00-7.48849E-01-1.73420E+00-2.21034E+00-1.85750E+00
 -1      1759-9.25977E-01-1.84883E+00 4.55707E-01 6.19149E-01-1.09960E+00-7.19822E-01
 -1      1760 1.78497E+00 4.45998E+00 1.43218E+00-2.98775E-01 2.10591E+00-3.35747E-01
 -1      1761-1.21466E+00-2.06060E+00-1.68984E+00 2.93153E+00-1.95194E-01 3.81044E+00
 -1      1762-6.83157E-01-1.64943E+00 1.37625E+00 8.59892E-01 3.66337E-01 9.38287E-01
 -1      1763-3.85517E+00-3.60156E-01-6.87509E-01-3.93162E-02 8.34783E-01 3.15510E+00
 -1      1764 1.50062E+01 1.07824E+01 2.40284E+00 6.83173E-02-9.61516E-01-2.70101E+00
 -1      1765 6.49625E+00 9.72312E+00-3.00056E+00-1.16014E+00-6.62752E-01-3.90182E-01
 -1      1766 3.19296E+00 1.38612E+00-1.05251E+00 4.77146E-01 4.84575E-01 7.72434E-01
 -1      1767-1.35244E+00-2.98226E+00 6.25870E-01 2.60713E+00-1.64015E+00 1.59944E+00
 -1      1768-9.28653E+00-4.15393E+00-2.76867E-02-3.27454E+00-2.77880E-01-4.69745E-01
 -1      1769 3.32234E+00 7.32812E+00 4.00157E-01 3.70402E+00 4.13067E+00 2.15381E+00
 -1      1770 4.18997E+00 3.04717E+00 6.54582E-01 2.23752E+00-2.58805E+00-1.31754E+00
 -1      1771-1.00521E+00-1.65700E+00 6.08343E-01-1.22545E-01-1.81535E+00 4.62047E-02
 -1      1772 1.04757E+00 9.87313E+00-3.83761E-01 1.47867E-01 1.77968E+00 9.85077E-03
 -1      1773 4.70837E+00 1.49321E-01-6.54272E-01 1.47862E-01 7.42832E-01-5.47556E-01
 -1      1774-6.70737E+00-2.85770E+00-9.05718E-01-8.35641E-01-1.28140E+00 2.25975E+00
 -1      1775-9.30764E-01-1.08853E+00-3.03583E+00 6.77100E-01-6.87638E-01 3.09792E-01
 -1      1776-2.01284E+00-3.89831E+00-5.64323E-01-1.11550E+00 1.30468E+00-8.81403E-02
 -1      1777-8.55220E+00-4.27897E+00-1.22548E+00 3.54038E+00 1.30998E+00-3.70387E+00
 -1      1778-7.46881E+00-1.54976E+00 1.53918E-01-6.56868E-02 2.33631E-01 2.86930E+00
 -1      1779 3.00067E+00 5.06151E+00 6.12750E-02-6.01000E-01 6.98549E-01-2.50924E+00
 -1      1780 2.75234E-02-7.24403E-01-1.19548E+00-1.04422E+00 1.11005E+00-1.72620E+00
 -1      1781 4.34541E+00 5.60722E+00 2.61905E+00 1.61646E+00-2.71656E+00-2.10942E+00
 -1      1782-9.03850E-01 7.32199E-01 7.52399E-01-2.89191E-01-1.78999E+00 2.65067E-01
 -1      1783-2.67187E-01-2.56161E+00 1.06914E+00-1.32842E-01-1.39522E+00 1.04466E+00
 -1      1784-1.79116E+00-3.55966E+00 6.23807E-01 6.23096E-01 4.83435E+00 1.70357E+00
 -1      1785 3.56580E+00-5.90329E-02 1.30142E-01-1.24967E+00-1.79641E-02-2.10467E+00
 -1      1786-7.29240E-01-1.17163E+00-1.19048E+00-7.20348E-01-6.87265E-01 3.26202E-01
 -1      1787 2.82747E+00 1.65106E+00 2.35093E+00-7.46535E-01-9.72100E-01 1.28889E+00
 -1      1788-2.50731E+00-1.91699E-01 1.26574E-01 1.40275E+00 3.19708E-01-2.18447E+00
 -1      1789-5.81776E+00-1.55313E+00 3.23233E-01-2.46786E+00-6.68377E-01-2.74995E+00
 -1      1790 9.78831E-01 1.50557E+00-8.37550E-01-1.20095E+00 9.84160E-01-8.43153E-01
 -1      1791 5.18046E+00 4.09108E+00 5.28804E-01-3.92048E+00 8.96081E-01-1.15775E+00
 -1      1792-2.05961E+00-1.70839E+00-3.14527E+00 1.01645E+00-9.33217E-02 3.37271E+00
 -1      1793-1.84618E+00 1.36525E-01-8.84193E-01-4.58335E-01-3.63111E-01-1.73971E+00
 -1      1794-2.32484E+00-5.14922E+00-1.90475E+00 1.02349E+00 3.27551E+00-3.04249E-02
 -1      1795 3.59227E+00 3.19231E-01 1.32344E+00 1.77557E+00 8.98173E-02 1.15898E+00
 -1      1796 3.19378E+00 6.66023E-01-1.19284E+00 1.92178E-01 1.28789E+00-8.34713E-01
 -1      1797 3.53112E+00 2.08554E-01-9.85367E-01-1.43351E+00-6.63000E-01-1.41829E+00
 -1      1798 3.12290E+00 2.00858E-01 1.49598E+00-6.84559E-01 8.58612E-01-1.91944E+00
 -1      1799 1.65040E+01 1.91839E+01-1.03380E+00-2.91579E-01 4.47522E+00-2.25795E-01
 -1      1800 3.16774E+00 2.98728E+00-1.49635E+00 9.89109E-01-4.03095E-02-1.10739E+00
 -1      1801 2.59973E+00 3.53784E+00-9.94173E-01-4.50683E-01 5.75870E-01 6.21317E-01
 -1      1802-3.88584E+00-1.21406E+00 7.94128E-01-2.57474E+00-7.23196E-01-1.42746E+00
 -1      1803 4.32728E+00 4.65115E+00-8.58989E-02-6.58030E-02 2.29830E+00 5.77657E-01
 -1      1804 1.45875E-01-5.86527E-01-8.67358E-01 2.23280E-01 6.87512E-01-1.96725E+00
 -1      1805 1.22144E+00 5.47632E+00 3.95750E-01-1.51265E+00-2.13198E+00 3.20642E-01
 -1      1806-4.32890E-01 2.75352E+00-3.14503E-01-4.18687E-01-1.14063E+00 2.57707E+00
 -1      1807-5.24233E+00-1.22231E+01-2.02651E+00 3.06562E+00-9.28577E-01 5.14622E-01
 -1      1808-1.07079E-01 2.96796E-01-9.15739E-01 9.63292E-01-3.51141E-01 9.41989E-01
 -1      1809 1.31240E-01-1.42078E+00-1.29471E-01-8.91853E-01 7.87229E-01 1.02977E+00
 -1      1810-1.49810E+00-1.70644E+00 1.67069E+00 8.70120E-01 2.16154E+00 7.23614E-01
 -1      1811-7.02631E+00 2.14237E-01 3.40812E-01 1.16152E+00 1.05363E+00-1.91402E+00
 -1      1812 5.19237E+00 2.54049E+00 1.72454E+00 1.22303E-02-9.90259E-02-2.40959E+00
 -1      1813 7.20324E+00 3.54426E+00 1.59271E+00 3.54585E+00-1.27105E+00-3.24903E+00
 -1      1814-7.67211E+00-5.10341E+00-2.34246E+00-3.47699E+00 1.98437E+00 2.75588E+00
 -1      1815-5.96048E+00-5.21351E+00 1.82148E-01 2.44742E+00 5.09952E-01 4.58964E-01
 -1      1816 1.80376E+00 1.41344E+00-2.52049E+00 1.31993E+00 6.87664E-01 1.43369E+00
 -1      1817-6.88228E-01-3.98529E+00-1.39108E+00-3.56205E-01 3.10603E+00-3.13038E-02
 -1      1818 8.17000E+00 1.90415E+00-1.06871E+00-9.32792E-01-4.71054E-01-3.98957E+00
 -1      1819 1.80968E+00 8.70351E+00 2.42295E+00-3.91644E-01 3.98345E+00-1.41203E+00
 -1      1820-5.81142E+00-2.50034E+00-2.77002E+00-1.26905E+00 2.12887E-01 1.27308E+00
 -1      1821 4.51647E+00 4.13336E+00 5.46893E-01-9.10602E-01 1.52024E+00 1.37672E-01
 -1      1822-1.38625E+00-5.27081E+00-1.22321E+00-1.41954E+00-3.78391E+00-1.11560E+00
 -1      1823 3.84717E+00 4.79834E+00-2.93894E+00-3.75137E+00 1.01576E+00-1.52351E+00
 -1      1824 4.07867E+00 3.99898E+00 2.16777E-01 2.88026E+00 8.26774E-01 6.12491E-01
 -1      1825-5.00166E+00-5.20593E-01-3.00664E-01-2.78399E-01-4.72597E-01-2.78206E+00
 -1      1826 1.36332E-01-4.10121E+00 2.14329E-01 6.33369E-01 1.74523E+00-5.57125E-01
 -1      1827-2.36292E+00 9.90098E-01-7.82053E-01 1.37866E+00 1.91224E+00-3.67490E+00
 -1      1828-5.96047E-01-4.36164E+00 2.09922E-01-2.99878E+00 4.92232E-01 1.80521E-01
 -1      1829-1.39726E+00 7.73068E-01 5.21755E-01-1.68393E+00-1.94622E+00-2.72064E+00
 -1      1830-2.00096E+00-7.74816E-01 7.47123E-01 1.27172E-01 2.19372E+00 1.98322E-01
 -1      1831 2.27322E+00 4.84484E-01 1.03977E+00 1.60879E+00-6.08056E-01 2.72814E+00
 -1      1832 3.71168E+00 5.99176E+00 1.44353E+00 3.96845E-01-7.72152E-01 6.27380E-01
 -1      1833-5.42140E-01-3.26245E+00 1.78934E+00 2.19243E+00-1.65144E+00 9.96547E-01
 -1      1834-2.61619E+00-3.06651E-01-1.12953E+00 6.55932E-01 5.33643E-01-1.92242E+00
 -1      1835 1.95252E+00-2.60308E+00-2.12927E-01-1.05173E+00-2.39083E+00 5.03327E-01
 -1      1836 4.11453E+00 4.56925E+00-6.33084E-01-6.10377E-01-2.02352E+00 1.23767E-01
 -1      1837 1.55244E+00 1.67974E+00 3.18891E+00 5.11835E-01 3.27140E+00 2.54712E+00
 -1      1838 3.03077E+00 2.72540E+00 8.29308E-01 2.83433E+00 1.24538E+00 2.91540E+00
 -1      1839-5.28381E-01 1.73504E+00-1.29518E-01-7.42236E-01-2.66710E-01 1.61751E+00
 -1      1840 8.69483E-01-1.33711E+00-9.69195E-02-7.58155E-01 2.37379E-01-1.38314E+00
 -1      1841-9.29554E-01-1.42698E+00-8.78446E-01 9.26111E-02-2.86468E-01 2.37446E+00
 -1      1842-1.29602E+00-4.59526E+00 2.48227E+00 1.22395E+00-1.01148E+00 1.51345E+00
 -1      1843 2.82816E+00 4.05358E+00-6.48117E-01 7.10474E-02-7.86909E-02 6.86139E-01
 -1      1844-6.89058E+00-2.75501E+00-4.10113E+00-7.84787E-01 4.15260E-03-2.70363E+00
 -1      1845 3.91686E+00 7.25932E+00-3.37088E-01-2.87655E+00 2.24118E-01 2.94184E-01
 -1      1846 9.00706E-02 5.59456E-01 3.35955E-01-1.79815E+00-7.47621E-01-1.43762E+00
 -1      1847-4.58111E-01-3.27738E-01-9.63617E-01-4.84801E-02 1.52278E+00 1.23301E+00
 -1      1848-3.01136E+00-7.48500E+00 1.59368E+00-2.06772E+00 5.07730E-01 2.34415E-01
 -1      1849 5.87924E-01-7.75574E-01-1.35299E-01-1.91680E-01 1.00197E+00-2.18231E+00
 -1      1850 2.68152E+00 3.40498E+00 1.84687E+00-1.30236E+00 2.91549E+00-9.98119E-01
 -1      1851 1.43676E+00 8.48968E-01 1.12600E+00 8.02257E-01 1.68527E+00 1.51169E+00
 -1      1852 1.28911E+00 1.94072E+00-1.22454E+00 1.19332E+00-3.15787E+00-2.08353E+00
 -1      1853 4.25318E+00 4.78733E+00 4.80044E-01-3.90915E-01 1.22980E+00 1.50452E+00
 -1      1854-6.88452E-01-1.38784E+00 4.31707E+00 5.26938E-01 6.80614E-01-3.35813E+00
 -1      1855 3.36714E+00-6.56649E-01 2.74821E-01 1.29990E+00 1.47234E+00-5.00226E-01
 -1      1856-1.26302E+00-3.71607E+00-1.00875E+00-1.35886E+00 7.20200E-01 7.34302E-01
 -1      1857 2.76115E+00 3.13026E+00-1.10173E+00 5.99391E-02 2.61995E-01-2.12163E-01
 -1      1858 8.51498E+00 8.13782E+00 3.42059E+00-1.29721E+00 6.02293E-01-3.97686E-01
 -1      1859-8.87409E-01-8.52224E-01 1.83812E-02-4.68554E-01-1.51040E+00 1.28628E+00
 -1      1860-9.23470E-01-1.75630E+00 1.61104E+00 7.59942E-01 1.78460E+00-8.60365E-01
 -1      1861 7.95530E+00 6.02142E+00 4.31912E-01-1.52431E+00 1.62346E+00-6.46556E-02
 -1      1862-1.94078E+00-3.06786E+00-1.15653E+00-1.01800E-01-1.78002E-03-1.48677E+00
 -1      1863 8.81499E-02-3.45559E+00-2.93891E-01 1.46065E+00 1.93000E+00-2.81987E+00
 -1      1864-2.74269E+00-3.48927E+00-4.13410E-01 7.94501E-01-1.42511E+00-4.52973E-01
 -1      1865-1.27915E+00-3.40404E-01 1.26184E+00-3.09095E-02-1.70642E+00-9.59685E-01
 -1      1866 2.08713E+00 5.10132E+00 1.54494E+00 1.23904E+00 4.16680E-01-1.11449E+00
 -1      1867 1.79513E+00 1.43630E+00 1.75408E+00 9.52656E-02-8.85936E-01 1.22994E+00
 -1      1868 1.00683E-01-2.18331E+00 1.70606E+00-9.58726E-02 1.48699E+00 1.01085E+00
 -1      1869 9.36785E-01 1.91238E+00 1.70224E+00 6.86695E-01 5.15973E-01 5.12307E-01
 -1      1870 5.80941E-01 3.78191E+00-2.21105E+00 7.60612E-01-1.68099E+00 1.21132E+00
 -1      1871 2.91740E-01-1.84301E+00-2.27283E-01-1.32663E+00-2.42898E+00 1.01120E-01
 -1      1872-1.83989E+00-6.47464E+00 2.10547E+00-3.24654E+00 1.26980E+00 1.67579E+00
 -1      1873 4.29925E+00 2.23872E-02 1.22251E+00 1.89052E+00-4.61016E-01-5.97950E-01
 -1      1874 8.59124E-01-1.19402E+00 4.17158E-01-1.51197E+00-9.39951E-02-3.17644E+00
 -1      1875 2.20722E+00-4.14646E-01 3.68873E-01-9.69162E-01 1.58091E+00 1.11477E+00
 -1      1876-1.67603E+00 7.91440E-01-1.84599E+00 1.18205E+00-8.46546E-01 1.93454E+00
 -1      1877 2.51348E+00-3.25255E+00 1.23360E-01 4.60033E-01-2.03259E+00 5.42861E-01
 -1      1878-3.23561E+00-5.10222E+00-7.73810E-01-2.90425E+00 3.83184E+00 4.32309E+00
 -1      1879 9.51916E-02-6.13594E-01 1.42882E-01-8.69125E-02 3.11595E+00-3.33272E-01
 -1      1880 2.14068E+00 1.48923E+00-5.73650E-01 1.54242E+00 6.78027E-01-8.28897E-01
 -1      1881 1.79938E+00 1.08967E+00 7.35775E-01-2.34908E-01 8.49277E-01-1.16379E+00
 -1      1882 1.70196E-01 1.54978E-01-2.02151E-02-2.62869E+00-1.33854E+00-1.30077E+00
 -1      1883-2.43813E-01-9.64213E-01-4.69068E-01 7.78936E-01 2.77167E+00-5.82775E-02
 -1      1884 6.30986E+00 2.89841E+00-1.48863E+00 2.06994E+00 3.89594E-01-7.19038E-01
 -1      1885 1.24113E+00-8.64042E-01-1.36892E-02-1.62505E+00-2.16478E+00-1.69653E+00
 -1      1886 2.12031E+00 3.11341E+00 1.05812E+00-1.34345E+00 1.78266E+00-1.53467E+00
 -1      1887-3.40463E+00-5.48329E+00 6.76924E-01 2.20452E+00-1.98916E+00 1.03911E+00
 -1      1888 5.58792E+00 7.82940E+00 2.00132E+00 1.30696E+00-9.52012E-02 1.72018E+00
 -1      1889-2.74506E+00-2.32745E+00-2.31383E+00 1.37357E+00 1.91206E+00-2.80921E+00
 -1      1890 3.36669E+00 1.28818E+00 1.28671E+00-1.56955E+00 1.31983E+00-1.81298E+00
 -1      1891 4.32710E+00 1.51060E+00 3.09948E+00-6.85170E-01-1.98804E+00 2.05863E+00
 -1      1892 1.40543E+00-3.33849E-01-4.68246E-01-1.25948E+00 1.13478E+00-2.35223E+00
 -1      1893 2.10264E+00 6.04758E-01 2.74444E+00-6.34854E-01-3.68657E+00 1.93219E+00
 -1      1894 6.43941E-01 3.68412E+00 1.06788E+00-1.78845E+00-2.95510E+00 9.65663E-02
 -1      1895-7.36967E-02-1.38571E+00-1.08994E-01-3.33447E-01-1.90699E+00 1.39886E+00
 -1      1896 3.08511E+00-2.16914E-01 5.00863E-01 9.45528E-01 5.25833E-01-3.57773E+00
 -1      1897 3.96637E+00 3.95384E+00 1.96433E+00-1.39490E+00 3.77653E-01 1.21390E+00
 -1      1898-2.92600E+00-2.85696E+00 1.12189E+00 3.18962E+00 2.30653E+00-9.30918E-01
 -1      1899 1.48866E+00 6.62334E-01 2.46108E+00-9.52078E-01-3.37807E-01 7.91021E-01
 -1      1900 1.39955E+00 3.02718E+00-1.28962E+00 1.20856E+00-2.14733E+00-1.59542E+00
 -1      1901-4.36935E-01 1.02479E+00 9.69673E-01 1.21375E+00 2.67045E+00 1.79453E+00
 -1      1902-1.77538E+00 3.51496E-01 7.66296E-02 8.09044E-01 8.28506E-01-1.55146E+00
 -1      1903-1.85356E+00-5.01601E+00 2.02069E+00-2.54658E+00 2.13288E+00 6.14043E-01
 -1      1904 2.76891E+00 1.92961E+00-6.23131E-01-6.54642E-01 1.75135E+00-4.37291E-01
 -1      1905-5.47698E+00-4.08366E+00 4.69169E-02-2.35542E+00 2.57590E+00 2.38436E+00
 -1      1906-4.79294E-01-1.02456E+00 5.56301E-01 7.74237E-01-2.05407E-01 1.02843E+00
 -1      1907 1.00659E+00 1.23345E+00 1.86548E-01-1.80387E+00 1.28657E+00 9.61298E-01
 -1      1908-3.46052E+00-2.70573E+00-4.78332E-01 2.69602E+00 1.67477E+00-6.54506E-01
 -1      1909-2.69486E+00-1.01099E+01 4.72016E-01 5.74705E-01 2.28234E+00 1.21509E+00
 -1      1910-5.61725E+00-1.12626E+00-1.25946E+00-8.87655E-01 1.98859E+00 2.33893E+00
 -1      1911 4.08835E+00 3.35719E+00 3.37669E+00 1.71451E+00 1.22895E+00 9.73978E-01
 -1      1912 1.95352E+00 3.29546E+00-1.27359E+00 1.13008E+00-6.00717E-01 1.01917E+00
 -1      1913-2.87028E-01 9.66826E-01-2.22213E+00 2.24333E-01-2.48695E+00-8.08882E-01
 -1      1914-3.53938E-01 1.87901E+00 3.20007E-01 3.65457E-01 1.08690E-02 1.07306E+00
 -1      1915-4.11401E+00-1.12910E-01 9.05486E-01-1.98190E-01-4.17235E-01-9.29189E-01
 -1      1916-6.98461E+00-1.79689E+00 3.50196E-01-5.68202E-01-4.91784E-01-9.68345E-01
 -1      1917 1.63184E+00 7.43475E+00 5.47892E-01 1.62105E-01 3.94545E+00-2.14429E+00
 -1      1918 1.05193E-01-1.80746E+00-6.78426E-01-2.22815E-01-8.72118E-01 1.77263E+00
 -1      1919-1.19663E+00-4.06391E-01 1.91925E-01 3.58971E-01-1.45515E+00-7.78017E-01
 -1      1920-6.42590E-01 5.29340E+00-1.73525E-01-2.35848E-01 3.32619E+00-8.71668E-01
 -1      1921-2.45260E-02-8.73375E+00-8.62133E-01-7.39531E-02 3.36920E+00-4.59166E-01
 -1      1922-3.01524E+00-2.88987E+00 6.08916E-01 5.71205E-01-1.63248E+00-4.11571E-01
 -1      1923 1.82510E+00-2.86266E+00 4.69965E-02-4.20893E-01 1.51195E+00 1.01130E-01
 -1      1924 3.28297E+00-7.21227E-02 3.40227E+00 3.02097E+00 2.34359E+00-1.20492E+00
 -1      1925 2.98682E+00-1.00458E+00-7.89903E-01-1.97430E+00-2.82408E+00-7.70371E-01
 -1      1926 2.96060E+00 1.48594E+00-1.04406E+00-1.14366E+00 6.24724E-01 4.50288E-01
 -1      1927 1.16228E+00 2.53614E+00-1.35718E+00 1.76496E+00 3.55420E-01 6.33064E-01
 -1      1928-1.70610E+00 4.62281E-01-1.05329E+00-2.59249E+00-9.77272E-01-1.03241E+00
 -1      1929 3.74421E+00 5.57421E+00 1.52505E+00 1.76425E+00 4.88582E-01 2.58447E+00
 -1      1930-3.75727E+00-4.65828E+00-1.98142E-01-2.17394E+00 1.38144E+00-3.61995E-01
 -1      1931-1.20525E+00 1.05979E+00 8.55500E-02-2.41599E-01-3.27558E+00 1.61495E+00
 -1      1932-1.22093E+00 1.50514E+00 1.48631E+00 3.93197E-01 3.92339E+00-1.92994E+00
 -1      1933-7.89023E-02-2.11874E+00 7.01938E-01-1.67783E+00-8.35434E-01-1.30761E+00
 -1      1934-8.69661E-01-5.42872E+00-5.56829E-01 5.51470E-01 2.09373E+00-3.30222E-01
 -1      1935-1.66888E-01-1.06293E+00-2.82370E+00 6.67235E-01-9.24461E-01 1.49324E+00
 -1      1936-1.09075E+00-1.12941E+00-3.88192E-01-5.31156E-02-1.52625E+00-1.83083E+00
 -1      1937-1.94329E+00-1.44412E+00-4.51920E-01-2.72849E+00-1.52368E+00-1.52307E+00
 -1      1938-2.65868E+00 1.16110E+00 9.09173E-01-1.39194E-01-1.29288E+00-1.47697E+00
 -1      1939 4.69572E+00 3.71064E+00-2.27784E-01-1.30949E+00 3.10918E-01 4.02978E-01
 -1      1940-4.06802E-01 7.37666E-01 2.29023E+00-3.47093E-01-3.01254E+00 1.39815E+00
 -1      1941-8.50817E+00-1.10203E+01-1.39633E+00-1.06881E+00 6.35906E-01 2.67824E-01
 -1      1942-1.35875E+01-1.48610E+01 6.50722E-01-1.42616E+00 1.20046E+00 4.09645E-01
 -1      1943-8.62481E+00-9.41347E+00-5.06849E-01 4.73319E-01-1.36477E-01-3.96364E-04
 -1      1944-6.74877E+00-7.11974E+00-8.82034E-01-9.86199E-01 6.62609E-01-8.19331E-01
 -1      1945-6.77241E+00-6.45533E+00-2.61725E+00 5.03873E-02-2.83532E-01-5.25433E-01
 -1      1946-6.45188E+00-1.01976E+00 1.57432E+00 9.50240E-01 8.16197E-01-1.41027E+00
 -1      1947-4.70388E+00-1.81058E+00-7.68444E-01 2.82065E+00 5.94631E-01-2.68830E+00
 -1      1948 1.67674E+00 2.31021E+00 3.37984E+00 1.09217E+00-1.81805E+00-1.47485E+00
 -1      1949 4.14864E+00 9.32320E+00-6.46548E-01 4.30747E+00 2.83177E+00 4.67023E-01
 -1      1950 8.38204E+00 6.66196E+00-1.18176E+00 4.75470E+00-7.44961E+00 2.42191E-01
 -1      1951-3.89493E+00-4.50900E+00-1.01658E+00-2.33326E+00 2.46159E+00 6.27362E-02
 -1      1952 1.76692E+00 5.86557E+00-6.57124E-01 1.40179E+00 1.93401E+00 5.78248E-01
 -1      1953-4.24174E+00-5.65895E+00 3.94226E+00 2.31134E+00-3.37577E-01 1.24269E-01
 -1      1954 4.40350E+00 9.02919E-01 4.05196E-01-1.77353E+00-1.01255E+00-7.14404E-01
 -1      1955-4.37148E+00-3.51079E+00-1.10462E+00-2.87326E+00 3.03286E+00 1.46830E+00
 -1      1956-1.37220E+00-2.00339E+00-4.25973E-02-2.94929E-01 3.79495E-01-1.81432E+00
 -1      1957-4.84010E-01-3.14104E-01 5.55287E-02 2.25714E+00 6.37563E-01-1.76635E+00
 -1      1958-2.97663E+00-6.50930E+00-3.82669E+00-9.07223E-01-2.60712E+00 2.56202E-01
 -1      1959-3.99529E+00-1.27874E+00-3.72966E+00 4.76496E-01 2.93575E-01-1.51985E+00
 -1      1960-3.42732E+00-2.79604E+00-1.00116E+00-2.94194E+00-9.32579E-01-9.87273E-01
 -1      1961-3.71525E-01 1.12247E+00 4.73274E-01 4.92311E-01 1.00460E+00-1.40064E+00
 -1      1962-3.24316E+00-7.10894E+00 1.05874E+00-3.11542E+00-4.81719E+00-2.12416E+00
 -1      1963-7.53345E+00-2.54465E+00-1.68292E+00-1.24243E+00 1.92859E+00-4.36669E+00
 -1      1964-9.67149E-01 3.84338E-01 1.06308E+00 3.18234E-03 2.31712E+00-1.19607E-01
 -1      1965 7.52607E-01-5.98435E+00-2.14950E-01-7.96466E-01 9.24497E-01 7.46632E-01
 -1      1966 2.93217E+00 2.74222E+00 4.22221E-01 1.29647E+00 4.47784E-01-6.51432E-01
 -1      1967-1.06804E+00-2.48760E+00-3.26766E-01 1.31299E+00 1.62322E+00 1.68107E+00
 -1      1968 7.69438E-01 3.48470E-01 5.68541E-01 1.60075E+00-1.58586E+00-6.33681E-01
 -1      1969-5.13296E+00-5.18454E+00-2.07007E+00 2.85628E+00-2.45189E+00 2.93350E+00
 -1      1970 1.98671E+00 2.75695E-01-2.25374E+00 1.22811E+00 2.28934E+00 3.53409E+00
 -1      1971-1.19541E+00 5.41015E-01-3.81966E-01-6.60519E-01 7.05744E-01 2.34393E+00
 -1      1972 4.54973E+00 1.10381E+00 7.22907E-01-1.43877E-01 6.67797E-01-5.34147E-01
 -1      1973-7.88588E+00-2.81177E+00 4.89494E-02 7.03526E-01 4.88956E-01-2.04598E+00
 -1      1974 2.75790E+00 2.92276E+00 8.24713E-01 1.53480E+00-7.57614E-01 5.77951E-01
 -1      1975-8.25369E-01-2.35367E+00-2.85949E-01-2.50714E-01-3.38594E+00 2.39709E+00
 -1      1976 3.65255E-01 7.21231E-01 1.45655E+00 5.74121E-01-2.10556E+00 2.97580E+00
 -1      1977-6.09862E-01-6.12927E-01-1.15537E-02 1.43550E+00 1.91979E+00-1.17262E+00
 -1      1978 1.12230E+01 8.63077E+00 3.17277E+00-9.17978E-01 2.59835E+00 1.46281E+00
 -1      1979 6.38878E-02 2.59196E+00-5.61788E-02 1.91137E+00 1.15980E+00 1.52168E+00
 -1      1980 3.00686E+00 2.11370E+00-8.45486E-01-2.69867E+00-8.43979E-01-1.41387E+00
 -1      1981-1.01173E+00-3.17598E+00 1.25881E-01 2.30039E+00 1.29263E+00-5.18180E-01
 -1      1982-3.73259E-01 8.77299E-01 8.95001E-01-6.10849E-01 1.89495E+00-8.92417E-01
 -1      1983-4.65451E-01-3.23448E+00 5.85971E-01-2.05933E+00-4.05658E-01-5.42400E-01
 -1      1984 1.85871E+00-1.71246E+00 9.59279E-01-1.90249E+00-1.19932E+00-5.79895E-01
 -1      1985 5.93281E+00 3.10562E+00 3.60441E-01-1.49623E+00 6.60521E-01 7.67720E-01
 -1      1986 1.32816E+00 4.07645E-02-6.70851E-01-1.93387E-01 1.72478E+00 1.00345E-01
 -1      1987 8.37356E-02-2.10941E+00 7.45543E-01-1.90350E+00-1.01962E+00-1.26683E+00
 -1      1988 4.60377E+00 2.64780E+00 2.55458E+00 8.53666E-01 9.17680E-01-1.74455E+00
 -1      1989 7.76267E-01 1.82470E+00-1.87551E-01 5.54366E-01 2.41988E+00 9.77821E-01
 -1      1990-4.86025E-01-2.60503E+00 5.96641E-01 1.09964E+00 2.63096E+00-1.33827E+00
 -1      1991-3.78893E+00-1.16193E+01 1.42740E-01 2.91792E+00 2.47223E+00-9.49611E-01
 -1      1992-4.89840E+00-6.79597E+00-1.39261E+00 3.00531E+00 3.63692E+00-1.82960E+00
 -1      1993-5.84374E+00-1.33298E+00-2.26660E+00 3.74650E+00 2.42639E+00-2.37857E+00
 -1      1994-6.63313E+00-5.47127E+00-1.38657E+00-3.96102E+00 1.60410E+00 3.37727E+00
 -1      1995-4.89694E+00-7.02324E+00-7.32201E-01 3.43213E+00-2.98864E+00 1.70868E+00
 -1      1996 4.01692E+00 4.81700E+00 2.90726E+00-1.03961E+00-8.87768E-01-1.15338E+00
 -1      1997-5.98421E+00-1.68078E+00-1.20975E+00-1.04596E-01 1.63054E-01-4.03506E+00
 -1      1998-6.16396E+00-2.52498E+00-1.27931E+00-5.97602E-01 3.92911E-01 2.17819E+00
 -1      1999-2.22352E+00-5.39131E+00-3.74767E-01-2.50207E+00 2.27978E+00 6.32685E-01
 -1      2000-1.26848E+00-4.31139E+00-1.90781E+00 3.21698E-01 2.17989E+00-1.80002E-02
 -1      2001 8.80024E+00 8.30145E-01 1.56354E-01-1.21128E+00 2.26892E+00-3.18119E+00
 -1      2002-4.68919E-01-1.18222E+00-1.04862E+00 2.38218E-01 1.14984E+00-1.43205E+00
 -1      2003 9.80394E+00 1.19674E+01 1.04225E+00-5.18942E-01 2.39097E+00 2.04455E+00
 -1      2004-3.40332E+00-3.74983E+00-1.39188E-01-2.24592E+00 2.23552E+00 1.00775E+00
 -1      2005-9.93974E-01-2.59829E+00 7.97082E-01-8.96921E-01 2.64657E+00 1.11849E+00
 -1      2006-4.89773E-01-6.23380E+00-3.99742E-02-1.38387E-02-2.66226E+00-1.05020E+00
 -1      2007 2.56310E+00-1.08377E+00 7.89277E-01-5.12518E-01-1.08794E+00-4.67915E-01
 -1      2008-1.95777E-01-5.66276E-01-1.07555E+00-3.09083E-01-2.39270E+00-6.16781E-02
 -1      2009-3.69794E+00-1.01618E-01 2.63004E-01 1.61885E+00-9.28934E-02 1.23360E+00
 -1      2010 1.21526E+00 2.25549E+00-2.10353E+00 1.43319E+00-5.32605E+00-2.14544E-01
 -1      2011-3.65887E+00-5.36413E-01 9.74843E-01 4.12844E-01 1.53955E-01 3.30682E+00
 -1      2012-3.15743E+00 2.32573E-01 7.44422E-01 1.11716E+00-2.06431E+00 8.02687E-01
 -1      2013 1.55726E+00-9.38692E-01-1.65034E+00-1.16547E+00-6.10114E-02 1.90467E+00
 -1      2014 1.46300E+00-6.31408E-02 7.73425E-01-6.39880E-03 2.44534E+00-3.98295E+00
 -1      2015 1.15789E+01 3.31717E+00 1.33713E+00 2.15839E+00 6.32759E-01-3.28318E-01
 -1      2016 5.61081E-01 4.83887E-01-1.17438E+00-6.02672E-01-2.03806E-02 1.60987E+00
 -1      2017 1.98868E-01 2.04787E+00-4.39462E-02 3.48707E-02 9.49735E-01-7.59876E-02
 -1      2018 5.20298E+00 7.10628E+00 9.11842E-01 1.09445E+00 8.14896E-01-9.84260E-01
 -1      2019 5.76799E+00 4.91406E+00 1.76900E+00 8.28074E-01 8.17311E-01-9.48496E-01
 -1      2020 1.71734E+00 1.68401E-01-1.19009E+00 8.45659E-01 4.48454E-01-9.57556E-01
 -1      2021 2.21543E+00-5.49431E-01 4.37672E-01 4.67324E-01 1.11262E+00-5.95855E-01
 -1      2022 3.13777E+00 7.78407E+00-1.43260E+00-4.92871E-01 3.77218E+00 6.02077E-01
 -1      2023 2.98827E-01-6.21915E-01 7.67076E-01 7.91164E-01 1.98402E-01-2.65908E+00
 -1      2024-2.27984E+00-3.39311E+00 1.14547E+00-9.84824E-01 1.51586E+00-1.01555E+00
 -1      2025 6.66186E+00 5.84871E+00-5.00252E-01 4.20381E+00-7.95216E-01 9.78938E-02
 -1      2026 2.63701E+00 6.08923E+00-1.58798E+00 3.54728E+00 7.36235E-01 1.89321E+00
 -1      2027 3.56704E+00 5.06929E+00 2.27653E+00-1.82871E+00-1.88658E+00 1.15311E+00
 -1      2028-1.23356E+00-2.93466E-01 2.36741E-01 1.55326E+00 1.28976E+00-1.21377E+00
 -1      2029-6.01021E-01 2.66980E+00-4.73755E-02 1.76296E+00 3.86682E-01-1.18420E+00
 -1      2030-8.06632E-01-4.22390E-01 8.07804E-01 1.27072E+00 4.75687E-01-2.66087E+00
 -1      2031-4.30736E+00-2.10409E+00 4.14890E-02-1.78178E+00 5.13660E-02-2.44000E+00
 -1      2032 5.02272E+00 7.07444E+00 5.24830E-01 8.60377E-01-7.66781E-03 1.39905E+00
 -1      2033-8.61241E-01-4.04735E+00-9.12298E-02 2.51445E+00-4.59095E-02 1.46602E+00
 -1      2034-2.05084E+00-2.91859E+00-3.20690E-01 2.42497E-01 5.68659E-01 1.20019E+00
 -1      2035 7.42816E-01-7.99557E-01-6.72020E-01 4.38241E-01-6.86516E-01 2.46841E+00
 -1      2036-7.85537E-01 8.16333E-01-7.78976E-01 6.66328E-01-1.43320E-01-1.58851E+00
 -1      2037-1.26227E+00 5.77857E-01 1.16406E+00-1.32949E+00 6.96986E-01 1.14246E+00
 -1      2038-1.42104E+00-5.57800E+00-2.60620E-01-9.92259E-01-2.29454E+00-1.30924E+00
 -1      2039 3.26772E+00 4.63189E+00-1.37585E+00-2.31988E-01 1.12724E+00 3.37901E-01
 -1      2040-6.41194E-01-1.81244E-01 3.32026E-01 9.08635E-01-1.84350E+00 1.64616E+00
 -1      2041 5.51540E-01 7.65323E-01-1.59963E+00-7.74146E-01 7.64314E-01 1.06646E+00
 -1      2042-6.28174E-01 2.83042E-01 3.68888E-01 1.54011E+00 1.04922E+00-1.74627E+00
 -1      2043-5.49505E+00-7.46462E-01 3.63305E-01-3.65717E+00 5.65460E-01 2.76864E+00
 -1      2044-2.38373E+00-4.00189E+00-1.41782E+00-2.25660E-01 1.28024E-01 1.50163E+00
 -1      2045-9.54175E-01-3.40790E-01-5.91615E-01-1.04638E+00-1.03158E+00-1.36191E+00
 -1      2046-3.12307E+00 8.21996E-01-1.94446E-01-4.40039E-01-9.62659E-01-1.33343E+00
 -1      2047 3.37226E+00 9.41490E-01-2.82874E+00-1.11993E+00-6.53111E-01-1.13172E+00
 -1      2048 1.38236E+01 1.33093E+01 5.71582E-01-2.01672E+00-2.04453E+00 1.05758E+00
 -1      2049 6.30611E+00 6.61183E+00 2.28884E+00 7.75475E-01-1.73811E+00 2.14689E+00
 -1      2050 5.23384E+00 7.52446E+00 2.89852E+00-9.27828E-01-5.74362E-01-2.66985E+00
 -1      2051-1.66199E-01-5.23114E+00 4.98761E-01 6.67100E-01-2.81900E+00 7.42812E-02
 -1      2052-1.81314E+00 5.00954E-01-6.17953E-01 4.11836E-01 5.44202E-01-3.03265E+00
 -1      2053-6.14471E+00-3.54137E-01 1.70777E+00 6.36023E-01-2.78187E-02-2.15109E+00
 -1      2054-2.97914E+00 3.51376E-02 5.59274E-01 1.15291E-01 7.87877E-01-1.87995E+00
 -1      2055-4.02671E+00 2.51825E+00-1.18273E-01-1.43445E-01 3.90563E-01-1.51906E+00
 -1      2056 1.21579E+00 6.63111E+00-4.72131E+00 5.57538E-01 6.60635E-02-6.76411E-01
 -1      2057-3.43005E+00-1.97193E+00-7.91374E-01-3.87641E-01 1.23238E+00 1.60093E-01
 -1      2058 1.73669E+00 5.27492E-01-4.48408E-01 2.46743E+00-1.35414E+00-1.34954E+00
 -1      2059-1.09726E+00-4.65303E+00 1.99498E-01 1.82949E+00-1.90770E+00 2.85543E-01
 -1      2060 1.73998E+00 8.88746E-01-2.00681E+00-2.23998E-01 5.76936E-01 9.30557E-01
 -1      2061-2.14261E+00-3.38667E+00 9.23247E-01 2.53353E+00-1.20899E+00 1.18600E+00
 -1      2062 5.59155E-01 1.68117E+00-8.36797E-01-1.33365E+00-6.51154E-02-1.02102E+00
 -1      2063-9.81040E-01 3.44626E-01 2.50252E-01 7.43028E-01 1.81979E+00 1.11851E+00
 -1      2064 1.49383E+00 1.17314E-01-1.00986E+00-1.45270E-01 7.37789E-01 1.91257E-01
 -1      2065 6.45181E-01-4.49286E+00 1.00204E-01 2.38916E-01 2.45219E+00-2.77281E-01
 -1      2066-9.19352E+00-1.23652E+00 1.07073E+00-2.58124E+00-1.29312E+00-1.55689E+00
 -1      2067 3.75187E+00 2.26504E+00 9.62090E-01 1.11222E+00-2.47920E-01 7.36736E-01
 -1      2068 1.14780E+01 9.67618E+00 1.23705E-02-5.23094E-01-9.20337E-01 4.70826E-01
 -1      2069 6.60999E-01 1.64906E+00 3.35399E-01 7.12339E-01 1.55802E+00 2.06187E+00
 -1      2070-6.19468E+00-3.84331E-02 1.14434E+00 5.70440E-01-1.30559E+00 3.05557E+00
 -1      2071 1.63449E+00-3.35817E+00-3.16390E-01-2.06221E-01-1.91323E+00-3.56320E-01
 -1      2072-3.12840E+00-2.24879E+00-1.10563E+00 1.65849E+00 2.18385E+00-6.84996E-01
 -1      2073-7.97657E-01-1.50875E+00 5.43379E-01-1.80616E+00-2.12390E+00-3.87998E-01
 -1      2074-5.69973E+00-1.33586E+00-5.21244E-01-1.47970E+00-1.32019E+00-4.26429E-01
 -1      2075-3.39213E-01 7.25534E-01-6.64310E-01 3.94468E-01-6.22069E-01 1.11723E+00
 -1      2076-2.88235E+00-1.86661E+00-2.18193E+00-1.53699E+00-6.83452E-01-1.38073E+00
 -1      2077-2.54441E+00-1.57496E+00-2.76081E-01 3.39505E-01 1.17752E+00 1.73767E+00
 -1      2078-2.18139E+00 1.89423E+00 9.10462E-02-7.18029E-01 3.70248E-01 1.99578E+00
 -1      2079 4.63683E+00 5.64296E+00 2.46561E+00 1.95639E+00 4.03933E-01 1.33965E+00
 -1      2080-3.05969E+00-1.75678E+00-1.78151E+00-7.88512E-01-2.85058E-01-2.12899E-01
 -1      2081 2.44180E-01-1.04278E+00 2.09392E+00-1.22076E-01-4.89396E-01-1.77825E+00
 -1      2082-5.00846E+00 6.19470E-02 2.41964E+00 1.40172E+00 1.63882E-01-7.66848E-01
 -1      2083-9.64996E-01 9.66107E-01-8.94446E-02-4.23600E-01 2.33758E+00-4.24352E-01
 -1      2084-1.99132E-01-1.00900E+00-3.91338E-01-8.55159E-01 1.51157E+00 1.50150E+00
 -1      2085-2.85405E+00-6.88483E+00-2.49735E+00 7.25944E-01-4.91601E+00-1.81888E+00
 -1      2086-2.14658E+00-2.22074E+00-1.94437E+00-2.08726E+00-8.83051E-01-2.77599E+00
 -1      2087 7.44034E-01 3.98267E+00-1.13848E+00-1.08263E+00-2.03879E+00 1.61610E+00
 -1      2088-5.68620E-01 1.24730E-01-3.81205E-01 7.78160E-01 1.07769E+00-2.26885E+00
 -1      2089 6.92553E-01-3.28555E+00 2.59676E-01 6.98092E-01 1.93927E+00-5.00478E-01
 -1      2090 1.03899E+01 8.59597E+00 1.59634E+00 4.31535E-02 3.13370E+00 5.48796E-01
 -1      2091-9.85266E-01-1.85919E+00 8.76018E-01-2.54583E-01-1.22611E+00-1.57320E+00
 -1      2092-6.45958E+00-1.46280E+00 9.59866E-01 1.89331E+00-1.33623E+00 1.64042E+00
 -1      2093 4.02890E+00 1.75794E+00-1.62556E+00 5.59057E-01 1.25465E+00 3.05865E-02
 -1      2094 1.69323E+00 7.03193E+00 1.29918E+00-1.71244E+00 3.53180E+00-1.11306E+00
 -1      2095 5.38837E+00 2.63269E+00 7.82226E-01-2.80007E+00 1.90105E+00-3.06778E+00
 -1      2096-1.01968E+01-3.16992E+00-9.74730E-01 2.92716E+00-2.45589E-01 2.86482E+00
 -1      2097-3.44222E+00-6.03948E-01 9.40851E-02 1.34757E+00 6.86144E-01-2.05676E+00
 -1      2098-2.14562E+00-2.01596E+00-3.75656E-01-5.14603E-01 1.66378E+00-5.11091E-01
 -1      2099-9.75449E-01-2.38323E+00 1.47289E-01 6.66084E-01 1.81711E+00 1.36486E-01
 -1      2100-3.12562E+00-1.69398E+00 1.02287E+00-2.03545E+00-1.29952E+00-3.31621E+00
 -1      2101 1.92601E+00 1.40545E+00 4.40862E+00-8.21479E-01 9.04753E-01-4.12225E-01
 -1      2102-2.12294E+00-1.89290E+00 1.06452E+00-5.68945E-01 1.73787E+00-4.17883E-02
 -1      2103-5.60577E+00-3.16232E+00-2.38913E+00 1.92761E-01 4.05360E-01-2.58146E+00
 -1      2104-6.23524E+00-2.67340E+00-2.77671E+00 1.60736E+00 8.11165E-01-3.54294E+00
 -1      2105-4.33539E-01-8.28105E+00-1.63664E+00 1.49703E+00 2.62351E+00 3.47946E-01
 -1      2106 3.45134E+00 9.22642E-02 6.57822E+00 1.00984E+00 1.93156E+00-7.24637E-01
 -1      2107 1.54032E+00 5.21827E-01-7.42036E-01-9.17467E-01 1.47048E+00 1.81940E-01
 -1      2108-5.50728E+00-4.74609E+00-1.78765E+00 3.16088E+00 1.33748E-01 8.91534E-01
 -1      2109-6.27571E+00-1.96766E+00 3.75289E-01-1.25694E+00 1.12111E+00-1.94584E+00
 -1      2110 1.68803E+00 2.16016E+00-2.98972E-01 1.46507E+00 4.67291E-01-5.50618E-01
 -1      2111-9.10004E-02 6.73258E-01 1.18831E+00-3.39881E-01-2.30927E+00 3.31258E-01
 -1      2112 7.30508E+00 5.66058E-01 2.01431E+00-3.66715E-01 4.63924E-01 5.20430E+00
 -1      2113 2.00274E+00 3.90093E+00-6.05613E-01 2.00063E+00-3.40728E+00-2.06412E+00
 -1      2114-4.31543E-01 2.35677E+00-8.96697E-02 8.60871E-01-4.69428E-01 1.43299E+00
 -1      2115 1.68032E+00 5.37749E-01 1.54741E+00 5.55315E-01-1.30214E+00 2.30002E+00
 -1      2116-3.60439E+00-1.30675E+00-2.42068E+00-4.61320E-01-1.61120E+00-2.21489E+00
 -1      2117-2.89532E+00-7.44174E+00-3.53996E+00 1.25825E+00-2.35357E+00-8.95150E-01
 -1      2118 4.52142E+00 2.48466E+00 1.45038E+00 6.79380E-01 4.90367E-01-5.61698E-01
 -1      2119-3.76035E-01 3.82621E+00-3.92664E+00-1.47677E+00-1.00458E+00-1.56401E-01
 -1      2120-3.64321E+00-4.86200E-02-8.20540E-01-8.52248E-01 1.95773E-01 2.58295E+00
 -1      2121 2.57266E+00 7.50255E-01-2.03091E+00-5.46775E-01-4.74491E-01-1.70160E+00
 -1      2122-2.84328E-01 4.04022E+00 1.96007E+00-9.34029E-01 3.00673E+00-5.63715E-01
 -1      2123-1.27321E+00-1.23932E+00 8.04990E-01 5.92419E-01 1.61770E+00 1.43002E+00
 -1      2124 1.18705E+00 7.13498E-01 1.93277E+00 7.59347E-01-1.97577E+00 1.06290E-01
 -1      2125 1.31829E+00 3.91174E+00 2.07296E+00 2.10012E-01-3.56231E+00 1.27151E+00
 -1      2126-7.77803E+00-2.22693E+00-9.38642E-01 1.40962E+00-1.63480E-01 3.78407E+00
 -1      2127-1.10034E+00-2.13256E+00 8.30893E-02-1.19692E-01 1.82208E+00-4.37057E-01
 -1      2128-6.61498E+00-6.88898E+00-1.12507E-01 4.54130E+00 2.68289E+00-2.12916E+00
 -1      2129-3.01914E+00-1.03077E+00-1.23957E-01 4.40127E-01-5.87660E-01 1.85171E+00
 -1      2130-2.34548E+00-2.99783E+00-4.48037E-01-6.86805E-01 8.70499E-01-1.68891E+00
 -1      2131-2.64574E+00-1.93851E+00-6.63811E-01-1.08842E+00 6.48189E-01-2.22754E+00
 -1      2132 2.53313E+00 7.89919E+00 1.38967E+00 1.05840E+00 8.23772E-01-6.17239E-01
 -1      2133-3.06838E-01 4.34870E+00 2.25015E+00-4.01156E-01 3.12611E+00 8.92200E-01
 -1      2134 1.14252E+00 8.67081E-01-9.61098E-01-3.62176E-01-1.05323E+00 1.94409E+00
 -1      2135-3.81779E+00-5.61760E-01 1.30867E-01 2.95672E+00 7.76534E-01-3.32226E+00
 -1      2136 2.76571E+00 2.27620E+00 1.56027E+00-2.43103E+00-4.30252E-01 2.13573E-01
 -1      2137 5.54278E+00 3.07143E+00-2.65819E-01-7.26859E-01 2.55010E+00 4.18177E-01
 -1      2138-6.71432E+00-1.29585E+00 2.13649E-01 1.13789E+00-1.52435E-01 3.65604E-01
 -1      2139-2.81427E+00-3.90533E+00-4.20086E+00-1.43663E+00 2.54249E+00 4.86392E-01
 -1      2140 1.19560E+01 1.21042E+01 1.79437E+00 1.85687E+00 7.31097E-01 1.50461E+00
 -1      2141 1.56848E+00 1.67454E+00 1.32013E+00-5.88161E-01 1.75615E+00 5.09783E-01
 -1      2142-2.04391E+00-2.95129E+00-9.19328E-01-4.08657E-01 6.84139E-01 1.74230E+00
 -1      2143-3.04117E+00-2.43763E+00-5.70511E-01-1.95707E+00-2.27278E+00-2.24080E+00
 -1      2144 5.07905E-01 4.16336E-01-1.11136E+00 1.36543E-01-1.36449E-01-1.37417E+00
 -1      2145-4.93293E-01 2.05601E+00-3.41719E-01 6.13299E-01 5.34223E-01-1.59220E+00
 -1      2146-2.05928E+00-2.15962E+00 6.58052E-01-1.43602E+00-1.23883E+00-9.94911E-01
 -1      2147 2.91598E+00 4.11231E-01 7.37625E-01 1.47048E+00 6.74264E-01-1.55663E+00
 -1      2148-1.71801E+00-4.35195E+00-9.84310E-01 6.92310E-01-2.53490E+00 8.18512E-01
 -1      2149-1.82397E+00 1.83280E-01 1.53726E-01-3.11846E-01 2.05043E+00 6.29560E-01
 -1      2150-5.32864E+00-1.54320E+00-7.90134E-01 1.82633E-01 7.54248E-01 3.03186E+00
 -1      2151-1.02889E-01 8.15266E-01 3.66118E-01 1.18728E+00 2.90978E+00-1.39156E+00
 -1      2152 1.03439E+01 1.20966E+01 1.10744E+00 8.65117E-01-2.81905E-01 6.83668E-01
 -1      2153-4.59172E-01 2.49197E+00-2.56427E-01 8.80184E-01-9.55304E-02 1.26147E+00
 -1      2154 5.69134E+00 1.53883E+00 3.22630E+00 6.76743E-01 2.50557E+00 9.32079E-01
 -1      2155-8.87686E-01 9.35786E+00-1.24478E+00-1.67069E+00 2.44145E+00-4.47551E-02
 -1      2156 1.27340E+00-1.78904E-01 7.62510E-01 1.03097E-02 1.08252E+00-6.17792E-01
 -1      2157 5.26515E+00 1.00645E+01 9.94645E-01-4.19114E+00-2.85555E+00 2.62473E+00
 -1      2158 3.86601E-01 6.16793E+00 5.61788E-01-1.18826E+00 2.40461E+00-6.06910E-01
 -1      2159 3.79676E+00 3.23419E+00 2.79086E-01-6.86697E-01-1.34228E+00 5.16160E-01
 -1      2160-3.29609E+00-5.63816E+00-1.90453E+00 3.24566E+00-1.43880E+00 1.96279E+00
 -1      2161 9.24021E-01-2.16616E+00-5.91485E-01 1.47928E+00-2.10496E+00-7.98810E-02
 -1      2162 2.02926E+00 3.85409E+00 3.83972E+00 5.46549E-01-2.45399E+00-3.31227E+00
 -1      2163 4.07920E+00 5.95951E+00 7.35967E-02 2.62972E+00 6.06231E-01 1.38655E+00
 -1      2164-1.64234E+00-2.86247E-01-5.86000E-01-7.24443E-01-4.52104E-01-2.13845E+00
 -1      2165 4.93052E+00 4.59888E+00 1.76117E+00 3.97165E+00-2.27410E+00-2.68428E+00
 -1      2166 4.41524E-01 1.00529E+00-1.39266E+00 4.75534E-01 2.58186E-01-9.03724E-01
 -1      2167-6.61942E-02 3.37678E+00-4.69703E-02 1.21364E+00-5.46740E-01 5.57908E-01
 -1      2168-8.10201E+00-2.41442E-01 2.01943E-01-1.35062E-01 1.65551E+00 3.09537E+00
 -1      2169-2.89802E+00 8.31413E-01 8.05939E-01-3.33238E-01 1.13386E+00 3.05505E+00
 -1      2170-3.14708E+00-2.05767E+00-3.07502E+00-2.60400E+00 2.45456E+00 3.38606E-01
 -1      2171-2.99964E+00-1.34387E+01 1.09162E+00-1.21901E+00-3.69380E-01 5.31388E-01
 -1      2172-3.41659E-02-5.31775E-01-5.58235E-01-1.08896E+00 5.55664E-01 5.56985E-01
 -1      2173-1.22264E+00-2.00927E+00 5.68545E-01 5.86698E-01-1.03493E+00-1.75934E+00
 -1      2174 1.20120E+00 3.35390E+00 5.34971E-01-1.81950E-01-3.88853E-01 1.19994E+00
 -1      2175 1.26388E+00 1.46786E+00-1.84732E-01 1.25764E+00 5.95324E-01-5.31551E-01
 -1      2176 9.97994E-01 1.10816E+00-1.91590E+00-5.22094E-01-1.69801E+00-1.34993E+00
 -1      2177-7.21462E+00-2.63927E+00-2.99337E+00 1.07441E+00-2.26444E+00 1.86841E+00
 -1      2178-6.48449E+00-4.04893E+00-2.37656E+00 1.20155E+00 7.86614E-01 1.14555E+00
 -1      2179 8.05286E-01-8.59768E-01 6.66223E-01 9.63920E-01 1.18070E+00-8.12790E-01
 -1      2180 4.26230E-01-5.12376E-04-5.45195E-01 1.76030E-01 2.95099E+00 9.03255E-01
 -1      2181 5.57650E-02 7.94041E-01-3.79433E-01 1.45294E+00 1.21706E+00-1.65056E+00
 -1      2182 1.16603E+00 4.22072E+00 9.14339E-01 1.29509E+00 1.66226E-01-3.63601E-01
 -1      2183 3.47793E-01 3.42656E+00 1.63615E+00 4.35182E-01 3.81739E+00 1.34057E+00
 -1      2184-5.15723E-01-1.85167E+00 1.22900E+00-4.40556E-01 4.37074E-02 3.28693E+00
 -1      2185 3.38669E+00 6.12635E+00 2.55942E+00 1.07902E+00 5.12846E-01-5.73659E-01
 -1      2186 1.05358E+00 3.49304E+00-1.69491E+00-4.24898E-01-2.61480E-02-1.03136E+00
 -1      2187 6.43491E+00 4.45566E+00 1.54997E+00 6.28906E-02-3.49359E-01 7.81321E-01
 -1      2188 1.30297E+00 7.90486E-01-8.29716E-01-2.30198E+00 1.40568E+00-2.32998E+00
 -1      2189-2.92083E-01 9.59063E-01 3.15440E-01-1.57617E+00-1.49781E+00-1.14642E+00
 -1      2190 1.86398E+00 4.83252E+00-2.32312E+00-1.43390E+00-1.89884E+00-1.90892E+00
 -1      2191 9.41614E-01-5.73748E-01-2.51828E-01-1.04848E+00 1.29261E+00-2.69814E+00
 -1      2192-3.25058E+00-2.56932E+00 2.37819E-01-2.25687E+00-1.87387E+00-2.43942E+00
 -1      2193-6.66012E-01 7.16374E-01-1.84569E+00-8.66177E-01 3.74552E+00-3.71929E-01
 -1      2194 4.75907E+00 2.09013E+00 2.65453E+00 1.66382E-01 1.55093E-03 3.13767E+00
 -1      2195 4.72526E-01-4.68732E-01 1.50766E+00-6.57362E-02-1.89487E+00 1.50238E-01
 -1      2196-2.01599E-01-8.77984E-01-5.84881E-01-9.31456E-01 6.11604E-01-1.12143E+00
 -1      2197 1.70985E+01 1.41824E+01-1.31066E+00-1.68091E+00 1.97929E-01-7.72052E-01
 -1      2198-3.44752E+00-3.77024E-01-6.01672E-01 1.14394E+00 5.73279E-01-2.02478E+00
 -1      2199 8.64082E-01 1.18264E+00-1.89799E+00-4.41258E-01 8.41831E-01 3.23396E-01
 -1      2200-1.89237E+00-1.28898E+00-5.28113E-01-7.93756E-01 1.75405E+00-8.61012E-01
 -1      2201 1.10238E+01 1.48179E+01 4.31089E-01-1.62945E+00 3.96455E+00-5.64170E-01
 -1      2202-1.16880E-01-2.00144E-01-8.63248E-01 7.05400E-01 5.66680E-04-2.18721E+00
 -1      2203 3.42128E-01 2.52790E+00-8.47174E-01-2.14285E+00-7.83615E-01 1.78921E+00
 -1      2204-2.64596E+00-7.56035E+00 1.69741E+00 3.78315E-01 4.01928E-01-1.41766E+00
 -1      2205-4.19984E+00-2.34448E-01 6.34225E-01 1.40500E+00 3.25366E-01-2.57703E+00
 -1      2206 1.63894E+00 2.72600E+00-9.75583E-01 2.03930E+00 7.47108E-01-1.65680E+00
 -1      2207-6.48638E-01 1.15704E+00 1.23486E-01-4.63740E-01-8.60289E-02 1.04090E+00
 -1      2208-2.90164E+00 1.63469E+00-1.85072E-01 8.59464E-01-6.05089E-01 2.16837E+00
 -1      2209-1.88376E+00 1.82749E+00 7.00095E-01 2.19808E+00 2.42191E-01-1.18565E+00
 -1      2210-2.66768E+00-7.42367E+00-3.86010E+00 8.71745E-01-3.13281E+00-3.72442E-01
 -1      2211-4.09494E+00 2.30993E+00-2.64983E-01 7.04802E-01 5.12716E-01-1.54350E+00
 -1      2212 4.01121E+00-6.71227E-02 6.35981E-02-1.47618E+00-4.59518E-01-1.83781E-01
 -1      2213-6.36844E+00-6.15707E-01 1.85550E+00-1.73164E+00-3.57160E-01 2.24222E+00
 -1      2214 1.20412E+01 9.77518E+00-3.22638E+00-1.84832E-01-1.14792E+00-2.22389E+00
 -1      2215-1.48213E+01-5.10968E+00-2.35344E+00-1.84692E+00 2.07150E+00-3.56293E+00
 -1      2216-6.09897E+00-8.06630E-01 6.09126E-01 7.57152E-01-5.92206E-01 2.35726E+00
 -1      2217-4.78364E-01-4.61535E-01-1.24891E+00 8.78308E-01-2.87687E+00 1.57682E+00
 -1      2218 3.17421E+00 1.64665E+00 4.99242E-01-1.51011E+00-8.24858E-01-6.36777E-01
 -1      2219-3.91897E+00-1.42489E+01-1.27146E+00-8.84909E-01-4.00074E+00-1.79998E-01
 -1      2220-8.55731E+00-2.64669E+00-9.49084E-01-5.58724E-01 5.48227E-01 4.59625E+00
 -1      2221-1.32030E+00-2.31433E+00 1.00426E+00-2.11264E+00-1.46623E+00-1.02836E+00
 -1      2222 5.56641E+00 4.02782E+00 1.63261E+00-8.27136E-02-1.03959E+00-6.77346E-01
 -1      2223-2.30870E+00-3.45882E+00-1.11976E+00-3.77746E-01 2.82873E-01-1.17604E+00
 -1      2224-4.72095E+00-3.21735E+00-4.93325E-01 1.45094E+00-3.04127E-01 2.90112E+00
 -1      2225-5.42219E+00-3.89120E+00-6.75626E-01 2.77579E+00-1.58034E+00 2.48362E+00
 -1      2226 4.45905E-01-9.03160E-01 9.65515E-01-1.11040E+00-1.73333E+00-1.83671E+00
 -1      2227 2.12615E+00 1.68784E+00 8.69318E-01-5.36764E-01 3.68829E-01 7.55271E-02
 -1      2228-1.20570E+00-2.30481E+00 2.15029E-01 5.67684E-02-2.17060E-01-2.13699E+00
 -1      2229 1.15493E+00 1.14688E+00 5.46586E-01 1.62405E+00-1.28188E+00 2.01318E+00
 -1      2230 5.32554E+00 2.55747E+00 3.20739E+00-1.22666E+00 4.61562E-01-1.14918E-01
 -1      2231-5.33147E-02 5.08346E-01-1.08794E-01-8.11212E-01-5.45833E-01 1.78020E+00
 -1      2232 4.38964E+00 4.34054E+00 2.26014E+00-1.56688E+00 4.55470E-01 1.01672E+00
 -1      2233 4.19658E+00 5.39848E+00 2.11730E+00 2.47370E+00 3.31270E+00 2.92982E+00
 -1      2234-8.72838E+00-2.57822E+00-2.48165E+00 1.62015E+00 1.96729E+00-1.69944E+00
 -1      2235-5.07103E+00-3.41889E-02-1.36963E+00 5.92929E-01-1.62117E+00 2.15414E+00
 -1      2236 5.52995E-01-2.33454E+00-1.79233E+00-9.65725E-01 1.73910E+00 5.29427E-01
 -1      2237 3.67480E+00 3.46803E+00 1.34362E+00 7.67757E-01-1.28438E+00-1.25628E+00
 -1      2238-3.42394E-01-5.89944E-01 1.94223E+00 3.57623E-01 1.42287E+00-8.96610E-01
 -1      2239-4.04043E+00-2.11249E+00-3.43838E+00-5.73522E-02 9.16565E-01 1.38622E+00
 -1      2240-1.16576E+00-2.32202E+00-4.57657E-04-1.79586E+00 2.03827E+00 1.28056E+00
 -1      2241 3.98319E+00 2.24582E+00-1.00191E+00-1.65927E+00-1.39006E+00-2.86589E-02
 -1      2242 6.96096E-01-2.42526E+00-2.61289E-01-1.38113E+00 1.43685E+00 1.00404E+00
 -1      2243-4.94818E-01 8.49831E-01-4.66413E-01-8.89792E-01-1.26896E+00-1.31726E+00
 -1      2244-4.47600E+00-2.58626E+00 1.91754E+00 3.10060E+00-3.31116E-01 1.54281E+00
 -1      2245-4.63250E+00-5.77131E+00 5.04103E-01 3.09701E+00 4.38097E-01 7.15257E-01
 -1      2246 7.54789E-01 1.88399E+00 5.90072E-01 1.34336E+00-3.25824E-01 1.13042E+00
 -1      2247 1.32073E+00 4.16978E+00 8.38000E-01 6.02888E-02 5.28222E-01 7.60472E-01
 -1      2248-4.95298E+00-1.46027E+00-6.92519E-01 4.26990E-01-4.18635E-01 2.24435E+00
 -1      2249-3.54699E+00-1.10750E+01-2.63448E+00-3.37946E-01-2.73352E-01 3.25488E-01
 -1      2250-4.67687E+00-4.35251E+00-3.05361E+00-2.94374E+00 3.13120E+00 9.24156E-01
 -1      2251 1.49942E+00-6.86327E-02 6.07277E-01-1.43589E-01-1.23332E-01-2.61997E+00
 -1      2252 5.32588E+00 1.31040E+00-2.14461E-01-7.85397E-01-8.62874E-01 3.72421E-01
 -1      2253 5.66232E-01-2.87887E+00-3.71005E-02 6.67900E-01-1.23007E+00 1.57175E+00
 -1      2254-2.46483E-01 2.68689E+00 1.43854E+00-1.35118E+00 2.04783E+00-1.19045E+00
 -1      2255 1.73748E+00 1.12891E+00-2.24943E+00 2.07215E-01 4.27440E-01 1.45107E+00
 -1      2256 2.67819E+00 1.56410E+00-7.11350E-01-9.00344E-01 2.21142E+00-3.00751E+00
 -1      2257 1.02782E+00-4.41843E+00-6.37752E-02-2.95737E-01 2.38576E+00-2.66245E-01
 -1      2258 3.47133E+00 6.19820E+00 2.11110E+00-2.76651E-01-1.59567E-01 1.53830E+00
 -1      2259 2.24624E+00-2.38353E+00-4.31889E-01 5.47734E-03 2.09843E+00-6.98605E-01
 -1      2260 3.92275E+00 4.28162E+00 8.58101E-01-6.49054E-01 8.73891E-02 8.85620E-01
 -1      2261-2.67786E+00-7.53601E+00-1.59363E+00-1.45185E+00-3.87600E+00-3.95297E-01
 -1      2262-1.45450E+00-5.80568E+00 1.93004E-01-1.64498E+00 1.60307E+00 1.03271E+00
 -1      2263-3.78461E-02 2.85087E+00-9.28507E-01 8.38969E-01-1.33911E+00 4.08240E-01
 -1      2264-2.79000E+00-2.30919E+00-6.41405E-01-1.21896E-01-1.05721E+00-1.54591E-01
 -1      2265 1.64300E+00-3.98885E-02 1.26265E+00-1.98661E+00 1.86390E-01 1.03349E+00
 -1      2266-1.31253E+00-3.61840E+00-1.12894E+00 1.60686E+00-1.74191E-02-1.73610E+00
 -1      2267-2.52875E+00-1.06528E+00 1.22550E-01-2.77550E-01 4.94174E-02 1.40742E+00
 -1      2268-2.08244E+00-2.57273E+00-8.80211E-01 3.37104E-01 1.27140E+00 1.39177E+00
 -1      2269 2.73069E-01-4.96220E-01 4.02932E-01-1.81975E+00 2.15236E+00 3.74360E-01
 -1      2270-2.05452E+00-1.21843E+00 6.67572E-01 1.06745E+00 1.51126E+00 1.22353E+00
 -1      2271 1.12779E+00 2.03246E-01-1.01150E+00-8.82094E-01 3.22726E-01-6.82498E-01
 -1      2272 3.27019E-01 2.47337E+00-2.68657E+00-2.24277E+00-2.08462E+00 1.66795E+00
 -1      2273 6.01329E+00 9.12590E+00 1.93791E+00-3.55173E-01 9.62744E-01 2.14913E+00
 -1      2274 5.48100E+00 1.46627E+00-4.18281E-01-1.19820E+00-1.27671E-02-7.53585E-01
 -1      2275 5.14503E-01-2.29164E+00-4.11282E-01 3.00518E-01-3.07308E+00 1.60263E-01
 -1      2276-7.32997E+00-5.75069E+00-5.71673E+00 2.42293E+00 3.21086E+00-3.93868E+00
 -1      2277-7.02047E-02 1.43139E+00 2.56903E-01-8.37183E-01-2.49108E+00-6.63848E-02
 -1      2278-3.11592E+00-2.38044E+00-7.37436E-01-8.74446E-01-7.69063E-01 1.23118E+00
 -1      2279 2.75996E+00 9.70713E+00 2.67117E+00-2.04134E+00 1.38478E+00-1.47824E+00
 -1      2280 6.41150E+00 5.56872E+00 1.52502E+00-2.07824E+00-6.81660E-01-3.79212E-01
 -1      2281 3.18447E+00 2.47929E-01-9.60869E-02-3.73798E-01 8.26669E-01-9.53937E-01
 -1      2282 1.88627E+00 3.42012E+00-1.66812E-01 1.06954E+00 8.81807E-01-1.03344E+00
 -1      2283-2.59294E+00-3.72480E+00-3.40864E-01-5.11988E-01-4.55606E-01 1.56293E+00
 -1      2284-5.95562E-01 1.44839E-02-3.42258E-01 2.91186E+00 1.93294E+00-1.61531E+00
 -1      2285-1.90255E+00-4.05454E-01 8.94080E-02-4.14950E-01-1.81951E+00-2.37951E-01
 -1      2286 1.26432E+00-9.11205E-01-2.39041E-01-4.35700E-02 2.39315E+00 4.56903E+00
 -1      2287-3.01161E-01-3.08604E+00-8.98785E-01 8.30480E-01 1.29373E+00 1.16670E-01
 -1      2288 4.29904E+00 3.77564E+00 1.48874E+00 3.09955E-01 2.15155E+00 2.02300E+00
 -1      2289 7.31956E+00 8.37678E+00 3.33975E+00-9.35129E-01-3.45571E-01 2.81681E-01
 -1      2290 3.16556E+00 3.84852E+00 3.74605E-02 9.44000E-01-5.73810E-01 8.13256E-01
 -1      2291 6.11495E+00 3.87963E+00 1.61744E+00-1.00141E+00-9.24356E-01-6.74939E-01
 -1      2292-5.34400E+00-4.66897E+00-2.88951E+00 2.98465E+00-1.71169E+00-1.24206E+00
 -1      2293 3.66134E-01 2.59386E+00-4.84262E-02-4.94434E-01 5.44697E-02 7.53843E-01
 -1      2294 9.27434E-02 2.29568E+00 1.28763E-01 2.11714E-01 5.49136E-01 9.91219E-01
 -1      2295-6.20190E+00-2.73385E+00-9.82390E-01-1.42539E+00-1.65707E+00-2.68768E+00
 -1      2296-2.50258E+00-2.22858E+00-1.49514E+00 4.40413E-01 1.31238E+00 4.58165E-01
 -1      2297 3.34635E-01 9.43147E-03 6.18299E-01 2.80294E-01 8.90302E-01-2.91677E+00
 -1      2298 5.32219E+00 7.43695E+00 9.00111E-01-3.50901E+00 3.03607E+00-2.94887E+00
 -1      2299 1.36262E+00 4.56333E+00-2.02617E-01-1.10637E+00 2.26427E+00-1.10212E+00
 -1      2300 1.81860E+00 2.50434E+00-2.42503E-02 2.68132E+00-1.66659E+00-1.60273E+00
 -1      2301 5.83535E-02 2.50698E+00-5.72523E-01 6.75417E-01 8.01285E-01-6.41914E-01
 -1      2302-2.14769E-01-4.26991E+00-2.06794E-01 1.39983E+00 7.68238E-01-1.51398E+00
 -1      2303-5.23643E+00-7.42887E+00-9.37042E-01 3.45611E+00 2.26734E+00 1.89219E+00
 -1      2304 3.93843E+00-1.01257E-01 6.29549E-01 6.52058E-02-1.09450E+00 2.33740E-01
 -1      2305 2.31039E+00 4.21327E+00-1.00633E+00 1.26943E+00 6.59676E-01-3.27451E-01
 -1      2306-1.38730E+00 4.22684E-01-3.37003E-01-9.22580E-01-1.61557E+00-1.48930E+00
 -1      2307 2.86060E+00 1.60682E+00 1.55295E+00 1.88546E+00 2.00493E-01-1.97663E+00
 -1      2308-2.02144E+00-6.25582E+00-3.42936E-01 8.69387E-01-1.09944E+00-2.39969E-02
 -1      2309 5.28933E+00 4.01710E+00 3.08526E+00 6.92799E-01-1.14233E+00 1.10073E+00
 -1      2310-1.47901E+00 1.54564E+00 2.25655E-01 4.69459E-01 4.50874E-01 1.78147E+00
 -1      2311 6.32729E-01 1.56850E+00-1.74399E+00 8.39324E-02-2.76025E+00-7.69929E-01
 -1      2312 2.08921E+00 6.07670E-01 5.61901E-01-8.70994E-01-1.44419E+00 2.68762E+00
 -1      2313 4.95244E+00 7.90226E+00 1.52051E+00 5.24872E-02-4.00179E-01-1.81028E+00
 -1      2314 2.94491E+00 2.11400E+00-1.68625E+00-8.42499E-01 3.38023E-01 1.90730E-01
 -1      2315 7.64795E-01-4.18205E-01 2.30213E-03 6.93036E-01-1.61534E+00-1.33864E+00
 -1      2316 3.33180E+00 4.28544E+00 1.02854E+00 2.42601E+00 2.79700E+00 3.37031E+00
 -1      2317-2.20902E+00-3.57192E+00-7.62082E-01 7.28497E-01-1.51498E+00-7.96036E-01
 -1      2318 6.42279E+00 1.02040E+00-4.61771E-01 1.30395E+00 2.85160E+00 2.84814E+00
 -1      2319 2.89500E+00 9.31348E-01 3.20881E+00-3.97576E-01-1.19600E-01 2.52686E+00
 -1      2320 5.37452E+00 6.29878E+00 2.79548E+00-2.38876E+00-4.41165E+00 2.36884E+00
 -1      2321-3.01322E-01 2.07254E-01-1.71760E-01-8.04694E-01 1.65350E+00-8.34396E-01
 -1      2322 7.32052E+00 3.62775E+00 1.70149E+00 8.16392E-01-9.45034E-01-1.73710E+00
 -1      2323-3.07747E+00-3.49222E+00-3.53176E-01 9.02878E-01-7.10423E-01-1.57723E+00
 -1      2324 1.48469E+00 7.27138E-01-9.01137E-01 6.37884E-01-1.14530E+00 4.51526E-01
 -1      2325 5.29346E-01-1.14611E+00 9.34086E-01 1.15626E+00-2.87783E+00-8.41915E-02
 -1      2326 3.79224E+00 1.80574E+00 1.49761E+00 1.60766E-01-7.24735E-01 4.31461E-01
 -1      2327 2.97265E-01 2.28803E-01 5.01966E-01-8.16111E-01-2.39897E+00 1.09693E-01
 -1      2328-1.02854E+00-4.23244E+00-2.01000E-01-1.13530E+00-2.62177E-01 7.27465E-01
 -1      2329-1.90049E+00-1.53074E+00-1.12363E+00-1.93915E+00-1.55062E+00-1.53068E+00
 -1      2330-9.77957E+00-4.26325E+00-1.51793E+00 2.99060E+00 2.42767E+00-4.22522E+00
 -1      2331 4.36285E-01 3.36955E+00-1.92543E-01 1.16647E+00-4.33887E-01 4.73987E-01
 -1      2332 2.35848E+00 1.00729E+00-9.58090E-01 1.40899E+00-1.96317E+00 5.36252E-01
 -1      2333-1.82649E+00-5.79683E+00 5.61386E-01-1.89504E+00 9.78034E-01 5.92550E-01
 -1      2334-5.82273E-01-1.34806E+00 1.96983E+00 2.33997E-01-1.54264E+00-1.70169E+00
 -1      2335-1.90225E+00-5.07802E-01 6.39217E-01 2.27710E+00 7.97479E-01-2.16955E+00
 -1      2336 1.00177E+00-2.67879E-01-2.18908E+00 2.55378E-02-1.38770E+00 1.01798E+00
 -1      2337 3.05498E+00 2.74799E+00 9.87736E-01-1.04262E+00-1.02141E+00-1.55768E-01
 -1      2338-4.11302E+00-3.13968E+00 3.99713E-01 1.23809E+00-1.18893E+00-8.94845E-01
 -1      2339 3.34312E+00 1.57172E+00 3.56024E-01 1.45243E+00-7.07403E-01-3.40328E-01
 -1      2340 2.41830E+00 9.76162E-01 8.73392E-02 1.64891E+00-1.06446E+00-8.28016E-01
 -1      2341-7.57783E+00-4.18648E+00 1.81406E+00-3.91177E+00 3.35923E-01 1.83324E+00
 -1      2342 4.79075E+00 1.66195E+00 6.15646E-01 2.01775E+00-1.21038E+00 2.67739E+00
 -1      2343 5.61651E+00 2.84261E-01 9.57492E-01 3.42337E-01 8.27377E-01 2.15659E+00
 -1      2344 3.88032E+00-4.88250E-02-4.53075E-01 1.53999E-01 2.12330E-01-3.33767E+00
 -1      2345-5.02207E-01-1.03211E+00 1.01621E+00 6.90853E-03 7.20992E-01-9.33872E-01
 -1      2346 1.15533E+00 6.58119E+00 1.59671E+00-3.77774E-01 2.83448E-01-1.09228E+00
 -1      2347 2.76873E+00 6.81584E-01 1.31322E+00 1.25289E+00-4.89288E-01-3.68222E-02
 -1      2348 2.07428E+00 4.02758E+00 1.73864E+00 7.39720E-01-4.86002E-01 6.30548E-01
 -1      2349-5.58036E+00-2.60163E+00-5.42773E-01-2.88426E-01 7.26521E-01-1.32183E-01
 -1      2350 2.02789E+00 3.91958E+00 7.49115E-01-1.14224E+00 9.30745E-01-1.02685E+00
 -1      2351-1.36639E+00-5.71459E+00 1.36733E+00-3.15504E+00-2.09679E-01-7.27924E-01
 -1      2352 5.13219E+00 3.74440E+00 1.72834E+00 2.18781E-01 1.30866E+00-6.23589E-01
 -1      2353-3.24051E+00 1.99213E-01 8.12912E-03-4.99942E-01-4.52848E-01-2.02151E+00
 -1      2354-2.91796E-02 3.83398E+00 7.38696E-01 3.06855E-02-3.76221E-01 2.66935E-01
 -1      2355 3.83371E-01 1.13943E+00 3.26879E+00 3.24895E-02 8.86624E-01 4.39988E-01
 -1      2356-3.12745E-01 3.25315E+00 3.14341E+00-1.80477E+00-8.93104E-01 3.89980E+00
 -1      2357-1.92841E+00-4.60380E+00-2.16039E+00-9.53754E-01-1.41668E+00-3.32050E-01
 -1      2358-1.21566E+01-1.31472E+01-4.23040E+00 1.03533E+00-7.06496E-01 2.48400E-01
 -1      2359 2.36812E+00 4.10352E+00 5.50868E-01-1.36620E+00-3.91343E+00 3.18012E+00
 -1      2360 4.66983E+00 4.29276E+00 1.37543E+00-1.62432E+00-1.12001E+00 1.19672E-01
 -1      2361-8.16612E-02-7.56273E-01-6.06473E-02-5.88899E-01-9.07216E-01-1.05852E+00
 -1      2362-8.52717E-01-1.39870E+00-7.70767E-01-6.85524E-01-9.62328E-01 9.64462E-01
 -1      2363-3.41803E+00-4.88472E+00 9.12392E-01-1.17485E+00 1.04550E-03 1.52458E+00
 -1      2364 5.33296E+00-1.57390E+00-7.04480E-01 5.33906E-02 3.78880E-01-1.82175E-01
 -1      2365 7.08346E-01 1.71843E+00-3.14515E-01 8.59885E-01-3.13575E-01 5.34032E-01
 -1      2366-1.43345E+00-5.37381E-01 7.96071E-01-1.62782E-02-1.70501E+00-3.25380E-01
 -1      2367 1.97622E+00 3.76350E+00 6.11662E-01 6.17929E-01-3.20382E-01-1.37112E+00
 -1      2368 6.89510E-01 2.04069E+00-1.03477E+00-2.18601E-01-8.27948E-01 1.18120E+00
 -1      2369 9.77728E-01-1.71703E+00 4.46796E-01 2.10900E-01 2.91398E+00-1.81019E-01
 -1      2370-3.20037E+00-2.01039E-01-1.66696E-01 8.64912E-01 3.63755E-01-3.90603E+00
 -1      2371 4.36232E+00 1.82093E+00-2.45102E-01 3.69479E+00 3.32995E+00-1.73160E+00
 -1      2372-7.45976E+00-7.33988E+00-2.21857E+00 7.56559E-01 1.43683E+00 5.12346E-01
 -1      2373-1.33236E+01-1.22301E+01-2.94054E+00-1.53242E+00-1.59366E-01-8.05568E-01
 -1      2374-7.08760E+00-6.72810E+00-7.57052E-01 6.11825E-01-1.34526E-01 4.65318E-03
 -1      2375 1.70775E+00 1.17946E-01 2.49048E+00 6.01069E-02-5.50066E+00-4.22368E+00
 -1      2376-2.27739E+00-3.11193E+00-1.90853E+00-1.04788E+00 1.70598E+00 1.28255E+00
 -1      2377 5.88745E-01 5.97006E-01 1.60171E+00 6.48573E-01-2.07234E+00 1.67996E+00
 -1      2378 2.14755E+00-1.31275E+00 2.31887E-01 8.74973E-01 1.58425E+00-1.58660E+00
 -1      2379 1.73011E+00-2.94157E+00-7.38854E-01 1.23960E+00 1.49859E+00-1.06040E+00
 -1      2380 1.31509E+00-1.91738E+00-3.79489E-01 1.15180E+00-2.91197E+00-5.65759E-02
 -1      2381-2.43528E+00-1.18857E+00 1.83535E+00-2.16367E+00 1.75678E+00 1.58368E+00
 -1      2382-1.98387E+00-3.08560E+00-3.15221E+00-1.33624E+00 3.28090E-01 2.23234E+00
 -1      2383-3.59450E+00 1.82841E+00 1.41785E-01-8.51035E-02 3.41630E-01 2.82665E+00
 -1      2384-4.57251E+00-4.68083E+00-1.36255E+00 2.21779E+00-2.29569E+00 2.73709E+00
 -1      2385-4.31089E-01 3.70938E+00-7.16096E-01 4.06171E-01-3.15009E-01-5.47266E-01
 -1      2386-2.72447E+00-6.25685E+00 1.03714E+00-2.69734E+00-4.36220E+00-1.85269E+00
 -1      2387 6.42465E-01-6.33012E+00 7.77298E-01-1.61961E-02 1.52668E+00-8.77204E-01
 -1      2388 3.78990E-01-2.18014E+00 5.16546E-01 4.96284E-01-2.43674E+00-5.63586E-02
 -1      2389-4.28013E+00-7.10950E+00 1.17156E+00 3.14620E+00 6.78144E-01-1.48719E+00
 -1      2390-6.74635E-02-1.13032E+00 1.16739E+00-3.39426E+00 1.85821E+00 1.25057E+00
 -1      2391 7.85466E+00 6.56231E+00-1.62416E+00-3.62796E+00-2.75641E-01-1.77117E+00
 -1      2392-2.02214E+00 1.18965E+00 6.20145E-01 1.64770E+00-4.98540E-01 2.03293E+00
 -1      2393-9.93303E+00-4.77295E+00-2.28946E+00 4.98993E+00 2.79164E+00-2.09319E+00
 -1      2394-7.37222E+00-4.47411E+00-1.78467E+00-2.02711E+00 2.62631E+00 2.45407E+00
 -1      2395-2.08962E+00-2.96379E+00-3.65388E+00-9.74534E-01 3.85400E-01 6.94737E-01
 -1      2396-1.90574E-01 4.55682E-01 1.82994E+00 1.02867E-01-1.26822E+00-2.95993E+00
 -1      2397-4.43407E+00-3.78630E+00-1.11237E+00 2.37021E+00-2.11968E+00 1.59300E+00
 -1      2398 8.37942E-02-5.05242E+00-1.17392E+00-1.85395E+00 1.26973E+00 1.98377E-02
 -1      2399 1.10182E+00 1.10978E+00-1.38395E+00-4.85820E-01 1.22656E+00-4.79382E-01
 -1      2400-4.48785E+00-2.39774E+00 2.41545E-02-3.79758E+00 1.92845E+00 2.47395E-01
 -1      2401-3.21689E+00-7.89261E-01-5.00051E-01-4.79647E-01-1.69536E-01 3.41695E+00
 -1      2402 2.94937E-01 6.28920E+00-1.81171E+00 3.60427E-02 6.52646E-01 7.46078E-01
 -1      2403 3.28262E+00 1.51653E+00 3.51164E-01 4.03944E-01 3.62950E-01-5.03505E-01
 -1      2404 2.79460E+00 1.44285E+00-4.16486E-01-4.25243E-01 1.41471E+00 1.99278E-01
 -1      2405-7.88195E+00-2.72445E+00-1.50364E+00-1.36235E+00-8.76104E-01 2.28359E+00
 -1      2406 1.15462E+01 1.07682E+01-1.51233E-01 5.69498E-01-1.66601E-01-3.46113E+00
 -1      2407-1.84906E+00-8.13655E+00 2.14102E-01 5.26794E-02-5.84646E-01 3.06666E-01
 -1      2408 5.20663E-01 2.11422E+00-1.65745E-01 1.71095E+00 1.00298E+00-1.84055E+00
 -1      2409 3.93593E+00 6.62212E+00 2.37428E+00 1.85172E+00-1.45043E+00 6.06266E-01
 -1      2410-1.05621E+00 7.70858E-02 1.48194E+00 3.83741E-01-2.88835E+00 3.85041E-01
 -1      2411 1.14716E+00-5.44222E-01 9.79742E-01-7.06544E-01 6.41730E-01-1.97862E-01
 -1      2412 2.09715E+00 9.90221E-01-1.43708E-01-3.31306E-01 9.20367E-01-2.45147E-01
 -1      2413 3.41400E+00 1.06256E+00-4.64559E-01 2.03710E-01 1.17770E+00-5.94614E-01
 -1      2414-1.10795E+00-1.92575E+00 1.76146E+00-1.84531E+00 3.14328E+00 3.31268E+00
 -1      2415-6.22662E+00-1.79075E+00-6.54834E-01-9.67736E-01 7.32584E-01 8.99347E-01
 -1      2416 2.31687E+00-1.89686E+00 4.31889E-01-1.32995E-01-1.51302E+00-1.83944E-01
 -1      2417 2.42722E+00-1.51732E-01 2.85192E-01 2.91065E-01 1.53767E+00-4.32039E-01
 -1      2418-1.37288E+00-2.23442E+00 2.71033E-01-2.62229E-01 1.21299E+00-6.57362E-01
 -1      2419 2.15121E+00 2.29892E+00 1.90278E+00-1.50789E+00-3.92354E-01 1.61520E+00
 -1      2420-3.07955E-01-4.45509E+00-1.35755E+00 1.62864E+00 1.47542E+00 1.65756E-02
 -1      2421-3.59425E+00-2.59077E+00-1.32228E+00-3.31196E+00 7.11006E-01 2.64794E+00
 -1      2422 5.45843E+00 3.87029E+00-4.97311E-01-1.80414E+00 8.40485E-01 3.35287E-01
 -1      2423-1.31352E+00 1.36333E+00 3.07677E-01 1.88581E+00 4.75569E-01-1.39068E+00
 -1      2424 4.75865E-01-1.27090E+00-1.60454E-01 1.17230E+00-1.16795E+00 9.61517E-01
 -1      2425 1.73982E+00-6.52551E-02 7.42118E-01-7.70573E-01-8.87531E-01-6.29079E-01
 -1      2426-3.52783E+00-1.06648E+00-5.47581E-01 5.58357E-01 1.06762E+00-1.83677E+00
 -1      2427-2.88826E+00-1.17500E+00-6.21725E-01 2.03977E+00 6.93376E-02 1.36999E+00
 -1      2428-1.13221E+00 7.94198E-01-8.85132E-01 1.18030E+00 1.62145E+00 1.19539E+00
 -1      2429-3.66933E+00-1.33696E-01 7.37935E-01-2.32240E+00 1.03632E+00 1.81937E+00
 -1      2430 1.32977E+01 1.29696E+01-5.94395E-01 2.63565E-01 9.20864E-02 1.42881E+00
 -1      2431-1.47721E+00 1.00509E+00 5.71673E-02 1.23369E+00 3.36883E-01 1.79032E+00
 -1      2432 3.61408E+00 4.92622E+00-1.14020E+00 1.13569E-01-1.80383E+00 1.36248E+00
 -1      2433-3.70063E+00-2.47307E+00-1.95868E+00 1.99016E+00-2.26458E+00 1.24777E+00
 -1      2434 2.52215E+00 1.88088E+00-4.28940E-01-6.11749E-02-5.09772E-01-2.53209E-01
 -1      2435 1.35413E-01 1.65651E+00-2.92954E+00 3.78246E-02 1.47116E+00-1.25946E+00
 -1      2436 2.30001E+00 1.83822E+00-1.47263E+00 1.27508E+00-7.99400E-01 8.89882E-01
 -1      2437-1.89532E+00-3.47417E-01-1.16581E+00 1.69454E+00 1.23329E+00-3.48963E+00
 -1      2438-2.02767E-01 5.44612E+00 3.77643E+00-1.00019E+00 2.12345E+00 1.18066E+00
 -1      2439-4.34446E+00 1.40572E-02 5.76557E-02-7.46679E-01-6.61242E-01-3.83264E-02
 -1      2440-1.09193E+00 2.81230E+00-6.30012E-01 6.89043E-02-2.37594E-01-1.35128E+00
 -1      2441 1.11399E+00 1.51386E+00-2.52018E+00 1.42566E+00-1.25874E+00-1.86771E+00
 -1      2442-2.08550E-01-8.83130E-01-1.51528E+00 3.98364E-01-2.15976E+00-1.45683E+00
 -1      2443-3.93963E+00-1.89222E+00 5.42172E-01-2.90878E+00 2.03493E+00 1.00086E+00
 -1      2444-1.29000E+00 1.36427E+00-1.50611E-03 3.21253E-01 4.36382E-01 1.11824E+00
 -1      2445 2.60625E+00 5.65359E+00-2.43838E+00 2.16617E-01-2.82546E-02 5.93251E-01
 -1      2446 1.02010E+00-1.41539E+00 3.36027E-01 3.68016E-01-1.84988E+00-1.05922E-01
 -1      2447 4.20156E+00 5.08699E+00-1.92734E+00 1.68245E+00 1.69013E+00 3.91659E-01
 -1      2448 6.63369E+00 9.06357E+00-6.18673E-01 2.09948E+00 1.06636E+00-9.49804E-01
 -1      2449 5.74008E+00 7.21392E+00 5.31732E-01 1.25314E+00 1.36403E+00-5.89614E-01
 -1      2450 3.88060E+00 4.59649E+00-4.13908E-01-1.26183E+00 5.68068E-01 7.78251E-01
 -1      2451 6.95209E+00 3.32743E+00 8.59903E-02 5.31934E-02-9.82324E-01-1.09215E+00
 -1      2452-4.79046E-01 7.35887E-01-2.90500E-01-2.17522E+00 5.97655E-01 1.65179E+00
 -1      2453 1.16977E+00-1.87395E+00 1.00629E+00 2.16409E+00-2.98592E+00 4.06705E-01
 -1      2454-1.48786E+00 6.17365E-01 1.07071E+00 9.93839E-01-9.30449E-01 2.02258E+00
 -1      2455 9.94412E-01-5.34251E-01 1.96377E+00 6.09601E-01 2.04996E+00 1.56615E+00
 -1      2456-2.60545E+00-1.62002E+00-1.94722E+00-3.94816E-01 8.12863E-01 1.01353E+00
 -1      2457 1.56546E+00 1.04694E+00 1.19779E+00 1.64221E+00-9.64612E-01-7.92555E-01
 -1      2458 1.78962E+00 4.28177E+00 6.82588E-03 3.43255E+00-2.06394E+00-4.56376E+00
 -1      2459 1.51587E+00 3.85164E+00-1.64955E+00-8.16549E-01-2.50465E-01 9.09132E-01
 -1      2460 1.89647E-01-2.70099E+00-6.40963E-01 5.84264E-01 9.29667E-01 6.78793E-01
 -1      2461 3.79803E+00 6.67952E+00-8.93027E-01 1.47299E+00 9.35790E-01 1.61062E+00
 -1      2462 1.71265E+00 2.02617E+00 3.93379E-02-1.09307E+00 7.89423E-02 5.34520E-01
 -1      2463 1.31300E+00 5.95365E+00-5.18754E+00 1.25748E+00-2.23438E+00-5.63690E-01
 -1      2464 7.74283E-01 2.16796E+00-6.76853E-01 1.37338E-01 4.31765E-01-3.94629E-02
 -1      2465 1.46477E-01 4.76676E+00-3.98449E-01-5.54307E-01-3.44282E+00 4.34427E-01
 -1      2466-1.91863E+00-6.82925E+00-7.55595E-02 3.89723E-01-2.93329E+00 5.41721E-01
 -1      2467 2.95049E+00 1.47228E+00-7.02747E-01-1.43518E+00-2.10976E-01-5.58926E-01
 -1      2468 2.05146E+00 1.42014E+00 2.27315E+00 1.53814E+00 1.52705E+00 1.63809E+00
 -1      2469 3.38148E-01 3.77233E+00-2.12826E+00 1.70843E-01-1.38189E-01-1.06315E+00
 -1      2470 2.44657E+00-1.45212E-01 8.12459E-02 1.31785E+00-5.26048E-01 1.66013E+00
 -1      2471-2.47917E+00-3.08431E+00 3.15161E-01-7.16827E-01 1.26082E+00-1.09272E+00
 -1      2472 8.36686E+00 5.77156E+00 1.67510E+00 1.26873E+00 2.75204E-01-1.92052E+00
 -1      2473-8.13364E+00-9.99484E-01-7.92170E-01 5.45175E-01-7.98459E-01 8.32989E-01
 -1      2474-4.61618E+00-1.43950E+00-2.52805E+00-1.68814E-01-3.74374E-01 2.66755E+00
 -1      2475 2.58838E+00 2.26849E-01-1.08661E+00 1.96935E+00 1.83942E+00 1.86275E-02
 -1      2476-8.40736E-01-6.92331E+00 6.98866E-01-3.24657E-02-1.11824E+00 3.00292E-01
 -1      2477-1.56658E+00 1.53826E+00 5.27270E-01-1.09376E+00-5.53404E-01-1.45495E+00
 -1      2478-3.48519E+00-4.25087E+00-3.13026E+00-1.85228E+00-1.85378E+00-1.43102E+00
 -1      2479-3.21423E+00-1.48581E+00 2.20925E-01 2.13806E+00 5.83847E-01-2.16700E+00
 -1      2480 3.02365E+00 3.02445E+00 1.14490E+00-2.40002E-01 9.92477E-01-7.57111E-01
 -1      2481-1.02963E-01-6.26820E-01 1.86778E+00 8.54380E-01-3.68521E-01-2.67698E+00
 -1      2482-2.07900E+00-3.33092E+00 5.66811E-01 4.87630E-01 2.51456E-01-1.53271E+00
 -1      2483-9.85011E-01-1.78013E+00 7.22021E-01-3.06640E-02-5.48522E-02-1.55467E+00
 -1      2484-2.81585E+00-6.02232E-01 8.24858E-01 5.15252E-01-9.35517E-02 2.55417E+00
 -1      2485 9.65701E-01 7.05550E-01-8.37506E-01-6.74269E-01-1.17569E+00-5.47212E-01
 -1      2486-8.47614E-02 1.00344E+00 1.15262E-01 9.28043E-01-1.23740E+00 1.24560E+00
 -1      2487 2.57115E+00 4.07534E-01-1.18120E+00 6.03515E-01-3.91605E-01-6.76454E-01
 -1      2488 1.46363E+01 1.61851E+01 2.84721E+00-4.29145E-01-3.81925E+00-5.70371E-01
 -1      2489-2.39464E+00 1.06891E+00 2.69859E-01-2.85250E-01 5.56739E-02 1.69604E+00
 -1      2490 1.36787E+00-3.81142E-01 7.24726E-01-1.19895E+00 2.03877E+00 3.68018E-01
 -1      2491 1.44276E+00-5.00637E+00 1.89423E+00 6.19931E-01-2.99095E+00 3.56345E-01
 -1      2492-7.99954E-01 1.27854E+00 2.53990E-01-7.46983E-01-8.67416E-02-1.72932E+00
 -1      2493-3.19396E+00 8.75056E-01 1.93076E+00-1.70241E+00 1.71056E+00 1.25910E+00
 -1      2494 9.44573E-01-8.54172E-01 1.29812E-01 4.10406E-01-1.01573E+00 2.23507E-01
 -1      2495 9.26848E+00 1.10689E+01-1.16622E+00 7.09747E-01 1.89543E+00-2.34261E+00
 -1      2496 4.63107E+00 5.39316E+00 6.75662E-01 1.64508E-02 4.82006E-01-1.01706E+00
 -1      2497 5.81678E+00 6.00054E+00-2.13937E+00-3.13915E+00 2.54879E-01 4.73571E-01
 -1      2498-2.20265E+00-6.75964E-01 7.36535E-02-2.32960E+00 1.79514E+00 2.00642E+00
 -1      2499 9.74894E-01-1.95278E+00 1.06544E+00 1.82001E+00-2.83717E+00 2.43053E-01
 -1      2500-4.14295E+00 4.08051E-01 4.19044E-01 1.91049E+00-8.26201E-01 1.71240E+00
 -1      2501-2.59455E+00-2.95937E+00-1.00220E+00 3.65797E-01-9.26655E-02 1.46638E+00
 -1      2502 3.19436E+00 1.11579E+00 1.82639E-03 8.17513E-01-1.07760E+00-2.32908E+00
 -1      2503 5.59827E+00 3.78116E+00 2.04508E-01 1.05412E+00-6.29865E-02-1.24723E+00
 -1      2504 3.85772E+00 3.45730E+00 4.24586E-01 2.57272E-01 1.00839E+00 4.68816E-01
 -1      2505 2.71486E+00 3.69628E+00-7.68075E-01-1.32209E+00-1.29048E+00-3.10930E-01
 -1      2506 2.20609E+00 4.25038E+00-1.31229E+00-1.00781E+00 4.32870E-01-3.14930E-01
 -1      2507 3.38164E-01 3.08744E+00-1.85384E+00-1.03560E-01-1.55059E+00 4.45594E-01
 -1      2508-2.04289E+00 2.15823E+00-1.17115E-01-7.21477E-01-7.52507E-01 1.89376E+00
 -1      2509 9.76727E-01-2.47272E+00 2.55485E-01 5.19150E-01-1.72947E+00 2.11171E-01
 -1      2510-4.09948E+00 5.62273E-01-4.44046E-01 1.19102E+00 1.77653E-01 2.13593E+00
 -1      2511-1.81345E+00-2.56934E+00-8.70650E-01-2.81045E-01-8.57289E-01 1.13141E+00
 -1      2512-6.19726E-02-2.52496E+00-9.35209E-01 5.63098E-01-1.27734E-01 1.69761E+00
 -1      2513 4.84379E+00 4.85638E+00-6.99488E-01 2.31817E+00-2.80321E-01 4.97729E-01
 -1      2514 1.04821E+01 7.50535E+00 6.25643E-01-2.10359E+00-1.87925E+00-3.20646E+00
 -1      2515 1.45742E+00 3.58767E+00 2.45005E+00 6.99108E-01 1.19026E+00 1.07986E+00
 -1      2516 2.86788E+00 8.50229E-01 1.00923E+00 2.16604E-01-6.46020E-01 9.45036E-01
 -1      2517-3.00129E+00-3.17883E+00-6.81210E-01 1.83015E+00 2.57316E+00-4.31954E-01
 -1      2518-6.58192E+00-4.40862E+00-1.49394E+00-3.39418E+00-5.95634E-01-7.09279E-01
 -1      2519-1.75660E-01 8.47107E-01 7.21724E-01 2.27149E+00-1.58208E+00 2.92956E+00
 -1      2520 2.92207E+00 1.57404E+00-1.02820E+00-4.05763E-01-7.40067E-01 2.65461E-01
 -1      2521-1.34638E+00-7.86384E-01 7.50163E-01-4.02081E-01 1.90101E+00 2.13884E+00
 -1      2522 4.87973E-01-5.63500E-01 5.42653E-01-7.35728E-01-1.25204E+00-9.22493E-01
 -1      2523 1.64549E+00 2.31972E+00 3.65933E+00-2.98859E-01 1.36890E-01-2.71688E+00
 -1      2524-6.90539E-01 1.26921E+00 2.40586E+00 9.91467E-01-3.09185E+00 4.43623E-01
 -1      2525 2.01220E+00 6.22372E-01 8.37312E-01 9.38433E-01-3.74830E-04-3.85283E+00
 -1      2526 1.17964E+00-2.02360E+00 6.20456E-01-2.98507E-01-1.16112E+00-3.89594E-01
 -1      2527 2.21055E+00-6.50501E-01-4.54106E-01-8.64604E-01-6.99162E-01-2.53878E-01
 -1      2528-7.32394E-01-8.75579E+00 5.22276E-01 1.96925E+00-4.04299E-01 8.83823E-01
 -1      2529-1.94729E+00-1.90477E+00 6.36412E-01-8.95610E-02 1.41604E+00-3.64510E-01
 -1      2530-2.13772E+00-1.83407E+00-7.38194E-03 1.04450E+00-6.30763E-01 1.82836E+00
 -1      2531 3.04201E+00 3.46489E+00-5.38164E-01-1.03812E+00-8.11492E-01-6.88165E-01
 -1      2532 1.64255E+00 4.74028E+00 7.56982E-01 2.09352E-01 4.49624E-01-6.13909E-01
 -1      2533 4.29359E+00 4.02361E+00-6.60666E-02-4.42454E-02-1.84096E+00 5.45933E-01
 -1      2534 8.69123E+00 5.40999E+00 9.63336E-01 5.51424E-01 1.19413E+00-6.24651E-01
 -1      2535 7.27833E+00 4.98241E+00 2.15568E+00 5.14525E-01 1.01738E+00 9.37448E-02
 -1      2536 2.65640E+00 2.16294E+00-1.98979E+00-3.58057E-01-3.47671E-01-4.71558E-01
 -1      2537 3.63061E+00 3.30851E+00 7.44990E-02-1.80229E+00 5.55087E-01 1.94506E-01
 -1      2538 4.95581E+00 5.22007E+00 1.87180E+00 1.34194E+00 3.72024E-01-6.40413E-01
 -1      2539-5.97979E-03-2.79650E+00-2.14342E+00-1.19879E+00 1.46447E+00 1.61753E+00
 -1      2540-9.00548E-01-3.07559E-01 3.72603E-01-6.53642E-01-1.25989E-01-1.91453E+00
 -1      2541 2.22358E-02 1.31159E+00 1.37209E+00 6.98719E-01 1.91624E+00 3.35801E-01
 -1      2542-7.23230E+00-2.12024E+00 6.53126E-01 1.72875E+00 4.90648E-01 1.81640E+00
 -1      2543-6.67176E+00-2.94313E+00-4.84932E+00 1.22759E+00-1.02203E+00 6.72083E-01
 -1      2544-2.90350E+00-3.85374E+00-7.46702E-01 1.16231E+00-1.08880E+00-1.03014E+00
 -1      2545 1.24244E+00 1.82346E+00 1.68221E+00-1.80760E-01-5.16001E-01-1.15582E+00
 -1      2546 1.12904E+00-1.06841E+00 1.36899E+00-1.66780E+00-1.59618E+00-1.13896E+00
 -1      2547-3.11479E+00-5.02420E+00-1.74871E+00-5.40999E-01-1.68841E-01-1.27923E+00
 -1      2548-3.26321E-01-8.16546E-01-2.13770E+00 5.46911E-01-1.18118E+00-1.53556E+00
 -1      2549 2.48921E+00 1.93615E+00-1.98180E+00-2.16933E+00 1.06425E+00-2.62071E+00
 -1      2550 1.04648E+00-1.52526E+00-1.55472E-01-1.99405E-02 3.84405E-01 2.35291E+00
 -1      2551 1.06273E-01 2.98545E+00-2.07075E-01 2.04116E-01 2.01365E+00-1.73238E+00
 -1      2552 9.98682E-01 3.47875E+00-6.41984E-01-2.40437E-01 1.38350E-01 1.39380E+00
 -1      2553-1.02931E+00-2.80392E+00 7.10017E-01 3.67538E-01 4.81836E-01 1.40776E+00
 -1      2554-1.70869E+00-1.36461E+00-4.04187E-01 3.56139E-01 4.41384E-01 2.46308E+00
 -1      2555-3.50431E-01-2.33898E+00-2.81633E-01-8.47595E-01 1.71325E+00 1.16591E+00
 -1      2556-1.56637E+00-8.29622E+00-2.43055E+00-6.00002E-01-2.91909E+00-1.44390E+00
 -1      2557-5.87427E+00-8.88487E+00-4.01229E+00-3.28234E+00-2.40425E+00 1.25034E+00
 -1      2558 4.05214E+00 4.83033E+00 1.05973E+00 1.01377E+00 2.25512E-01-1.08423E+00
 -1      2559-1.39915E+00-6.04565E-01-1.01750E+00 1.12981E+00-5.83638E-01 2.25011E+00
 -1      2560 6.65090E+00 5.63816E+00 1.85761E+00-8.95187E-01-9.82985E-01-1.46132E+00
 -1      2561-2.62659E+00-6.86102E-01-2.74031E+00 1.29752E-01-7.05108E-01 3.58392E+00
 -1      2562 1.51751E+00 3.57344E+00-2.47054E+00 1.15472E+00 3.03926E-01-7.90411E-01
 -1      2563 2.56881E+00-1.38165E-02 1.99495E+00-7.06050E-01 1.31459E-01-5.00546E-01
 -1      2564 1.06977E+01 4.29813E+00 1.20898E+00-2.50553E+00-9.22499E-01 4.27999E+00
 -1      2565 6.90235E+00 1.83704E+00-1.71765E+00-1.94669E+00-2.89176E-01 1.78899E+00
 -1      2566 1.70108E+00 1.42128E+00 1.14034E+00 1.23290E+00-5.80169E-01 6.69940E-01
 -1      2567-1.09376E+00-2.01772E+00 1.06580E-01 3.94155E-01 2.18733E+00 6.04402E-01
 -1      2568-6.89849E-02 3.79842E-01-4.85418E-01 1.26228E-01-1.30756E+00 7.94376E-01
 -1      2569 3.01740E+00-1.08514E+00 7.37862E-01 3.26954E-01-2.78193E-01 1.70049E+00
 -1      2570-3.08827E+00 1.19957E-03 1.19551E+00-2.07506E+00 2.18755E+00 1.36740E+00
 -1      2571 2.83362E+00 2.08319E+00 2.54360E+00 1.24540E+00-7.06904E-01-2.41228E+00
 -1      2572-7.37303E+00-7.88215E+00-2.35636E+00 5.36389E-01-2.38160E-01-1.39478E+00
 -1      2573-2.29864E+00-8.53235E+00-1.28259E+00-1.18191E+00 3.81379E-01-1.18313E+00
 -1      2574 2.19467E+00 4.90203E+00-1.83301E+00-2.52739E+00-3.24734E+00 2.68928E+00
 -1      2575 2.28227E+00 3.38950E+00-1.50553E+00-6.33327E-01-7.86616E-01 9.70619E-02
 -1      2576-3.37714E+00-2.78603E+00-1.33040E+00 1.99299E+00-7.73928E-01 1.82362E+00
 -1      2577 9.46696E+00 1.02628E+01 8.03495E-01-9.81747E-01 1.85793E-01 2.28024E+00
 -1      2578 8.22665E+00 2.74040E+00-3.46940E-01-1.13965E+00-8.29838E-01-1.99798E+00
 -1      2579 2.70729E+00-4.32461E-02 5.81367E-01 2.49927E-01-5.71917E-01-7.67774E-01
 -1      2580 4.19417E-01 1.23999E+00-1.01186E+00 5.77921E-01 8.62651E-01-1.44577E+00
 -1      2581-6.31442E-02 1.77060E+00 1.06545E+00 6.28895E-01 1.03077E+00-8.61884E-01
 -1      2582 5.00270E+00 4.24124E+00 3.02028E+00-1.22374E-01 2.12247E+00-4.66655E-01
 -1      2583 8.32491E+00 5.52577E+00 1.75707E+00 1.37859E+00-9.62876E-01-2.23378E-01
 -1      2584-2.71768E+00-2.53798E-01 5.60443E-01 1.22902E+00-6.31420E-01 2.26265E+00
 -1      2585 1.16182E-01-6.67443E-01-9.14873E-01 6.61540E-01 1.68552E+00 2.03805E+00
 -1      2586-6.89913E-01 2.13653E+00 5.45874E-01-1.83652E-01-2.44777E-01 1.52237E+00
 -1      2587 1.13154E-01-8.32662E+00 1.44716E+00 1.34700E+00-3.30499E+00 6.43213E-01
 -1      2588 4.32686E+00 3.36721E+00 6.99996E-01 5.38547E-01-2.86560E-01 7.98781E-01
 -1      2589 5.99760E+00 7.98058E+00 1.21021E+00-1.01621E+00-1.37476E+00-1.39606E+00
 -1      2590 3.40586E+00 6.84641E+00 4.93084E-01-3.83401E-01-1.80141E+00 8.89154E-01
 -1      2591 7.59827E-01 2.01748E+00-4.59205E-02-2.74186E-01-5.23486E-01-1.33610E+00
 -1      2592 2.61987E+00-5.68512E-02 6.42787E-01 3.53285E-01-1.79870E+00-2.57195E-01
 -1      2593-1.82885E+00 1.28381E+00-1.14686E-01-1.45850E+00 1.42917E+00 1.79294E+00
 -1      2594-1.12454E+00-2.26570E+00 8.40239E-01-2.84750E+00 2.79313E-03-8.08827E-01
 -1      2595 7.92348E-01-1.99491E+00 1.09883E+00-1.43794E+00-2.57768E+00 2.25223E-02
 -1      2596-1.49797E+00 2.94087E+00-2.29029E-01-1.62787E+00 4.23841E-01 1.71979E+00
 -1      2597 7.34614E-01 2.30361E+00 1.12219E+00-1.76193E-01-8.03275E-01-6.58022E-01
 -1      2598 4.87878E-01-1.96649E+00 8.99506E-01-1.52965E+00-2.97722E+00-8.63779E-01
 -1      2599 5.05657E+00 7.30373E+00 9.68335E-01-1.10239E+00 6.58189E-01 1.18577E+00
 -1      2600 1.12265E-02-1.42097E-01-8.13506E-02 1.22413E+00-5.88007E-01 9.79616E-01
 -1      2601-2.08116E+00-1.03032E+01-7.40702E-01 2.46012E+00-1.03380E+00 8.76322E-01
 -1      2602 5.65834E+00 5.03608E+00 2.25308E-01-9.11976E-01 1.29849E+00 1.56978E+00
 -1      2603 3.64580E+00 7.41538E+00-6.36220E-01-8.27298E-01-1.37825E+00 3.99382E-01
 -1      2604 2.26509E+00 1.21504E+00-2.48287E-01-1.71704E+00 6.32036E-01 1.05592E+00
 -1      2605 8.35207E+00 4.16407E+00-1.05288E+00 1.10074E+00 4.29478E-01 1.51256E+00
 -1      2606 2.05226E-01 1.65930E+00 1.09494E+00-4.71884E-01 3.06298E-01-1.09129E+00
 -1      2607 1.42873E+00-2.75495E+00-2.78487E-01 1.00147E+00 1.50996E+00-9.31320E-01
 -1      2608 2.43215E+00-1.13778E-01 5.72736E-01 4.20349E-01 1.27031E+00-8.40060E-01
 -1      2609-1.91798E+00-2.52498E+00-1.38813E-01-1.75965E-01 1.07162E+00 1.29829E+00
 -1      2610 1.17120E+00-2.97255E+00-3.33696E-01 4.23561E-01 2.13997E+00-1.24798E-01
 -1      2611-1.96145E-01-1.61053E+00-3.54944E-01-1.82646E-01-1.08999E-01 1.77910E+00
 -1      2612 1.72918E+00 8.20852E-01 3.73690E-01 2.94102E-01-1.19102E+00-7.75047E-01
 -1      2613 3.67195E-01-4.50885E+00 1.07701E-01-3.43211E-01-1.93576E+00-4.06792E-01
 -1      2614 4.89077E+00 8.17998E+00 1.44101E+00 6.27797E-01 7.05081E-01 9.94983E-01
 -1      2615 6.56339E+00 1.14408E+01 3.48180E+00-1.44263E+00 2.36538E-01 1.19664E+00
 -1      2616-1.25371E+00 8.66778E-01 3.61208E-01 4.34588E-01-5.61771E-01 1.72061E+00
 -1      2617-6.07977E+00-6.59529E+00-4.17285E+00 3.66845E+00-1.88942E-01 1.29689E+00
 -1      2618 8.65136E+00 7.36743E+00 5.25445E+00 1.17257E+00-1.15931E-01-5.46483E-01
 -1      2619 3.22856E+00 3.27488E+00-5.83073E-01 7.14060E-01-3.37972E-01-4.43354E-01
 -1      2620-6.25742E+00-4.41275E+00 1.24519E+00-1.97666E+00 3.82149E-01-3.41565E-01
 -1      2621 5.93687E-02-1.55158E+00 1.39426E+00 7.90994E-02 2.86133E-01 8.32781E-01
 -1      2622 2.94599E+00 3.03785E+00-1.35821E+00-1.84127E+00 1.59200E+00-1.81946E+00
 -1      2623-3.17096E+00-4.07973E-01 1.85706E+00 1.25854E+00-8.97994E-01 1.78951E+00
 -1      2624 8.48519E-01 5.11481E-01 4.81892E-01-5.48654E-01-1.54136E+00-9.81175E-01
 -1      2625-8.15227E-01 8.79078E-01-4.98294E+00 2.27145E-01 2.01891E-01-1.78990E-01
 -1      2626-2.61352E+00-3.62112E+00-1.34820E+00 2.86862E+00-6.96018E-01 1.36333E+00
 -1      2627 3.93161E+00 1.88382E+00 1.67833E+00 6.98659E-01 2.11555E+00 3.39319E+00
 -1      2628-1.45626E+00-1.39480E+00 2.41339E+00 1.66437E+00-1.26604E+00 2.07918E+00
 -1      2629-2.59205E+00-2.14627E+00 1.40241E-02-3.15750E-02-1.18263E+00 2.09318E-02
 -1      2630 3.50203E+00 4.38694E-01-5.00801E-01 4.05270E-01 2.15471E-01 2.28136E+00
 -1      2631 3.52040E+00 3.16673E+00 1.30542E+00-4.07487E-01-7.00836E-02-6.43960E-02
 -1      2632 8.66132E+00 7.05423E+00 1.87001E+00 1.76038E+00-1.91791E+00 1.64096E+00
 -1      2633-2.99628E+00-3.38919E+00-3.66071E+00 1.83119E+00-9.54144E-01 2.51529E+00
 -1      2634 2.51505E-01 1.94837E+00 1.45119E+00-8.58618E-01-2.06964E+00 1.44589E+00
 -1      2635 9.18851E-01 1.27841E+00 9.53093E-01-6.36398E-01 1.76681E+00-1.52074E+00
 -1      2636 8.06141E-01-2.44988E+00 1.26143E+00 8.72438E-01-1.74740E+00 8.60334E-02
 -1      2637 8.93726E-01-3.92698E-01-2.22135E-01-3.04053E-01 2.42934E-01-1.75940E+00
 -1      2638 6.43978E+00 7.64843E+00 2.08038E+00-3.67158E-02-1.24106E+00-1.62767E-01
 -1      2639 2.51926E+00 3.94609E+00 3.51302E+00 3.75242E-01-1.03904E+00-9.37402E-01
 -1      2640-5.47732E-01-4.78197E-01 1.84309E-01 4.27139E-01 1.87873E-01 2.55622E+00
 -1      2641-1.28145E+00-4.83218E-01-1.30020E+00 1.07826E+00 2.23315E+00-1.76139E+00
 -1      2642 8.92422E-01 1.54914E+00-2.02167E+00 5.20291E-01-1.81010E+00-6.32743E-01
 -1      2643-1.22172E+00-3.19212E+00 3.83953E+00 2.25499E+00-1.57251E+00 1.20573E+00
 -1      2644 2.05911E+00 3.10352E+00 1.49194E+00 1.75308E+00-1.19953E+00 5.97391E-01
 -1      2645-1.07336E+01-3.55204E+00 4.89259E-01 3.93447E+00-9.32902E-01 4.30236E+00
 -1      2646 2.63333E+00 6.37183E+00 1.24664E+00 4.52167E-01 5.89516E-02-8.67057E-01
 -1      2647-1.19871E+00-1.17060E+00 1.24654E+00-7.90576E-01-1.46330E-01 1.96148E+00
 -1      2648-8.24143E-01-1.82183E+00-6.57253E-01 2.37695E-01-1.51619E+00 1.10537E+00
 -1      2649 2.82559E+00 3.42576E+00 2.01187E+00 1.03959E+00-6.15931E-01-3.20872E+00
 -1      2650-6.57197E-02-1.13026E+00 3.92028E-01-5.83999E-01-1.14228E+00-9.09135E-02
 -1      2651 3.01054E+00 5.85081E+00 1.51013E-02-8.50995E-02-2.67003E+00 4.02218E-01
 -1      2652-3.04955E+00-8.19218E+00-2.04698E+00-4.23023E-01 2.81876E-01-3.57759E-01
 -1      2653 5.95517E+00 4.63997E+00-3.50214E+00 3.27090E+00 1.87209E+00-2.86586E-01
 -1      2654 2.46267E+00 2.01066E+00-6.45341E-01 3.73100E-01 6.30510E-01-1.26860E+00
 -1      2655 1.40523E+00 2.67572E+00-8.80247E-01 1.17705E+00 6.02730E-01-8.40660E-01
 -1      2656 6.13616E-01 6.00787E-01 4.88223E-01 8.33289E-01 1.46007E+00-1.16782E+00
 -1      2657-7.37907E+00-4.24606E+00-2.21885E+00 1.93490E+00-1.72209E-01-8.29795E-01
 -1      2658-5.53519E-01 2.05947E+00 4.91786E-01 5.54489E-01 7.70404E-01-7.70638E-01
 -1      2659 5.98262E+00 4.75280E+00 5.22791E-01 1.54944E+00-7.86231E-01 1.86777E+00
 -1      2660 2.16707E+00 2.23718E+00-1.18374E+00 5.37669E-01-5.03439E-01 1.16767E+00
 -1      2661-3.89493E+00-7.38984E-01-9.48834E-01-8.15802E-01-1.64983E+00 2.68026E-01
 -1      2662-1.50527E-01 1.37581E+00 3.73169E+00 2.25892E+00 1.83890E-02-1.76388E-01
 -1      2663-5.25054E-01-3.75284E+00 2.30833E-01-8.43180E-01-1.42489E+00-3.03572E-01
 -1      2664 2.68160E+00 2.89596E-01 2.37989E-01 5.65834E-01 7.31757E-01-7.10665E-01
 -1      2665-3.49800E+00-3.95830E+00-1.88452E+00-1.96363E+00-1.82151E+00-1.22514E+00
 -1      2666-7.90878E-01 3.19033E-01-4.66508E-01-5.38702E-01-1.54250E+00 5.71745E-01
 -1      2667 1.49156E+00 3.74370E-01 8.12402E-01-3.40114E-01 5.30811E-01-5.39182E-01
 -1      2668 3.90224E+00 6.12405E+00-1.27300E+00 1.86237E+00-3.87547E+00-1.20769E+00
 -1      2669 2.88917E+00-4.71269E-02 8.10937E-01 9.34273E-02-1.29589E+00-5.58439E-01
 -1      2670 3.42404E+00 5.79192E+00 1.39842E-01 5.95132E-02 3.23298E+00-8.66662E-01
 -1      2671 6.77775E+00 8.04214E+00 6.79966E-01 1.74238E+00-1.60044E-01-1.27084E+00
 -1      2672-1.28706E+00-2.19019E+00-3.77083E+00 4.79319E-01-2.68771E+00-1.40341E+00
 -1      2673-1.70219E+00 2.37542E+00 1.45478E-01 1.19698E+00-8.20052E-01 1.78788E+00
 -1      2674 1.84173E+00 1.78487E+00-1.06565E+00 1.94778E-01 1.31991E+00-4.51057E-01
 -1      2675-1.98747E+00 1.86685E+00 8.22333E-01-2.34405E+00 1.23136E+00 1.03316E+00
 -1      2676-4.41118E+00-3.61650E+00-1.96249E+00 1.58782E+00-2.48062E+00 2.82539E+00
 -1      2677 2.33859E+00 1.07181E-01 3.42308E-02-1.33249E+00 1.52413E-01-6.21780E-01
 -1      2678-1.45861E+00-6.81743E+00 2.14048E+00 3.55017E-02-9.03098E-01-4.68129E-01
 -1      2679 6.95447E+00 4.62960E+00 1.04316E+00-6.38223E-01-1.06631E+00 1.14132E+00
 -1      2680 1.27298E+00-1.26547E+00-1.50714E-01-1.51951E-01 1.16398E+00 2.01781E-01
 -1      2681 4.31052E+00 6.46655E-01 3.76431E-01-1.70849E+00 1.46807E+00 2.86958E+00
 -1      2682-1.31865E+00-9.70734E-01 1.08565E-01-2.42700E+00 1.57526E+00 1.88928E+00
 -1      2683-6.10470E-01-1.61632E+00 2.27462E-01-7.52649E-01-1.33561E+00 1.08544E+00
 -1      2684 3.56592E+00 4.48789E+00 5.80145E-01 2.39884E-01-4.95902E-01-1.92602E+00
 -1      2685 1.45214E+00 3.72057E+00-2.65917E-01 5.47458E-01 1.08595E+00 1.20205E+00
 -1      2686-5.00607E-01 3.35052E-01 1.61148E-01-1.44075E+00 1.02042E+00 1.50502E+00
 -1      2687-3.43960E+00-6.75055E-01-9.45132E-01-7.19258E-02 3.33544E-01-1.67831E+00
 -1      2688 2.94066E+00 1.26005E+00-6.21071E-02 1.80897E+00-6.77941E-01 5.91163E-01
 -1      2689 3.56915E+00 1.92186E+00-1.17583E+00-7.75843E-01-6.55194E-02 1.27332E+00
 -1      2690 5.37525E-01 2.95904E+00 4.69824E-01-1.82281E+00 3.63327E-01 1.22556E+00
 -1      2691-6.57118E-01 4.84421E-02 2.83349E-01-9.06979E-01-1.53648E+00-8.34859E-01
 -1      2692 5.66746E+00 4.28284E+00 1.78076E+00-1.40198E+00 8.04123E-01 1.24523E-01
 -1      2693-6.56443E+00-2.13743E+00 8.40723E-01 8.39237E-01 1.35594E+00 3.30584E+00
 -1      2694 1.86168E+00 4.04206E+00 2.52912E+00-2.48283E-01-2.56708E+00-1.55800E-01
 -1      2695-1.40749E+00 1.26540E+00-3.63138E-01-2.17241E+00 9.50417E-01 1.35633E+00
 -1      2696-3.93604E+00-8.41223E+00-2.54299E+00 1.83791E+00-4.21993E+00 2.80621E-01
 -1      2697 3.85533E+00 2.74041E+00 1.39222E-01-7.93909E-01-1.39520E+00-4.05955E-01
 -1      2698-8.03161E+00-1.07695E+00-8.55204E-02 1.11436E+00-1.19588E+00 3.00789E+00
 -1      2699-9.75940E-01 2.46821E+00-1.57835E+00 6.09352E-02-1.39241E+00-1.60951E+00
 -1      2700 1.00420E+00 2.38012E+00-1.76754E-02-7.87539E-01 9.01489E-01 7.27758E-01
 -1      2701-1.93107E+00-3.35955E+00-1.04266E+00-1.13448E+00 4.06452E-01-1.64578E+00
 -1      2702 1.48310E+00 1.64617E-01-2.61510E-01-1.54049E+00 1.73061E+00 1.40130E+00
 -1      2703-4.78625E-01-8.60264E-01-1.32720E+00 9.72794E-01 3.49228E-02 2.40914E+00
 -1      2704 3.92026E+00 1.26599E+00-3.43656E-01-1.53111E+00-1.28608E+00-2.31039E+00
 -1      2705 3.57461E-01 1.53482E+00 1.00246E+00-1.02467E+00 8.48853E-01 5.24624E-01
 -1      2706 1.35646E+00 2.41845E+00-1.28437E+00 1.27374E+00-1.48626E+00 4.64060E-01
 -1      2707-2.67115E+00-4.58210E+00-4.10271E+00 1.19668E+00 2.14916E+00-2.52938E+00
 -1      2708-1.33206E+00-4.90394E-01-1.06278E+00 4.00008E-01-4.99196E-01 3.15623E+00
 -1      2709-1.15915E+00 1.75095E+00-3.26971E-01 1.58020E+00-1.36638E+00 1.53760E+00
 -1      2710 3.02904E+00 3.23071E+00 8.13351E-01 9.61785E-01-4.60027E-01-1.85346E-01
 -1      2711-2.78018E+00-1.68391E+00-7.21318E-01 5.16290E-01-1.00833E+00 1.43514E-01
 -1      2712 3.55171E+00-1.68227E+00-1.23330E+00 1.25257E-01 1.61033E+00-4.69935E-01
 -1      2713 1.33577E+00 1.79813E+00-4.42681E-01 1.51770E+00-9.74126E-01-9.99862E-01
 -1      2714-2.34950E-01-4.55796E+00 7.60012E-01-4.83746E-01-1.70000E+00-2.17036E-01
 -1      2715-2.68791E+00-2.44333E+00 7.87096E-01 2.63754E-01-7.60401E-02 1.31214E+00
 -1      2716 3.17479E+00 2.35255E+00-2.12160E+00-6.71001E-01-7.92540E-01 2.37825E+00
 -1      2717 4.30444E+00 3.98983E+00 2.41223E+00 6.55164E-02 7.42598E-01 2.28953E+00
 -1      2718 5.97866E+00 6.41793E+00-1.42326E+00-6.48488E-02-1.09930E+00-2.82191E+00
 -1      2719 1.64590E+01 1.69601E+01 1.52864E+00-2.36530E+00-1.77412E+00 5.13348E-01
 -1      2720 9.72350E-01 5.04407E+00 8.17499E-01-1.92639E-01 2.90955E-01-1.18476E+00
 -1      2721 1.40224E+00 5.90531E+00 1.53609E+00-1.33695E+00 6.36205E-01-1.21402E+00
 -1      2722 4.86208E+00 4.92128E+00-1.70475E+00 2.82304E-01-1.30617E-01 1.29897E+00
 -1      2723 6.61505E+00 4.16185E+00 1.76280E+00 8.20220E-01-1.69372E+00-9.60915E-01
 -1      2724 3.34068E+00 5.54211E+00 2.48738E+00-1.13100E+00 2.08471E-01 1.08074E+00
 -1      2725-4.70335E+00-5.01076E+00 8.29313E-01 2.02132E+00 7.39075E-01 4.03538E-01
 -1      2726 1.69484E+00 2.49844E+00 2.98818E+00 1.34536E+00-3.90384E-01-7.01199E-02
 -1      2727-1.37676E+00 6.07003E-01 2.76567E-01 1.62622E+00-9.02742E-01 1.28447E+00
 -1      2728-3.38687E-01-2.67818E-01-1.85411E+00 3.10925E+00-1.65765E-01 1.55767E+00
 -1      2729 9.86006E+00 1.19789E+01 2.73800E-02-3.41101E-01-8.88369E-01 9.24472E-01
 -1      2730-5.95493E+00-3.73683E+00-1.08180E+00 5.03776E-01-1.26520E+00 5.93043E-01
 -1      2731-4.75790E+00-2.92329E+00 1.15730E-01 1.42697E-02-1.27664E+00 4.38178E-01
 -1      2732 4.58909E+00 5.90839E+00-2.07419E+00-3.40878E-01 2.28118E+00 1.68785E+00
 -1      2733-1.69167E+00 6.62690E-01 9.76726E-02-9.73655E-01-2.07241E+00-1.65241E+00
 -1      2734-2.41560E+00-3.48853E+00-4.00021E+00 5.15626E-01-1.36013E+00-2.42240E-01
 -1      2735 2.03338E+00 5.54054E+00 2.21861E-01-1.67394E+00-1.27805E-01-1.00638E+00
 -1      2736 5.71227E+00 3.42496E-01 8.27379E-01-2.24749E-01 8.90980E-01 5.76314E+00
 -1      2737 4.79830E+00-1.47673E-01 2.37734E+00-1.75849E+00 1.15691E+00 1.44745E+00
 -1      2738-1.48917E+00-3.06922E+00-2.13579E-01 1.48453E+00-1.58546E+00 8.78073E-01
 -1      2739-2.74586E+00-3.34050E+00-1.74591E+00-1.86131E+00-2.30862E+00-2.48099E+00
 -1      2740 5.34606E-01-1.98112E+00 6.27932E-01 5.02919E-02-1.97235E+00 1.11285E+00
 -1      2741-2.72681E+00-3.07104E+00-1.75221E-02-5.46822E-01-1.53865E+00 3.21286E-01
 -1      2742-2.34769E-01 1.10740E+00 1.79903E+00 9.19652E-01 1.58271E+00-1.28758E+00
 -1      2743 2.57222E+00-1.05841E+00-3.94699E-01 1.23361E+00 1.29699E+00-1.56488E+00
 -1      2744 1.11966E+00 1.23342E+00-3.07808E+00 7.64775E-01-1.79899E+00-2.72449E-01
 -1      2745-2.56880E+00-5.99288E+00-7.33268E-02 1.95080E+00-2.03192E+00 3.73692E-01
 -1      2746-1.52984E+00-2.05196E+00 3.41529E-01-1.07776E-01-1.85393E+00-2.13733E-01
 -1      2747 4.45986E+00 1.62853E+00 5.56327E-01-4.87754E-01-1.00798E+00 2.42126E-01
 -1      2748 1.66208E+00 3.67120E+00 5.01221E-01-1.01696E+00 4.88394E-01 2.64693E-01
 -1      2749-3.52220E+00-4.93382E+00-3.97786E+00 9.73890E-01-2.75301E-01-4.98771E-01
 -1      2750-3.06472E+00-2.33840E+00-4.79032E-01-2.25345E-01-1.06206E+00-3.80390E-01
 -1      2751 8.70737E-01-6.88895E-01 5.91197E-01 4.32892E-01 1.88693E+00-7.17111E-01
 -1      2752 2.34583E+01 2.09497E+01-4.82797E+00 8.76894E-01 3.27645E-01-9.18693E-01
 -1      2753-8.40216E-01-3.99994E+00 2.29399E-01 1.25096E+00-2.72907E+00 3.11621E-02
 -1      2754 4.33808E+00 2.47256E+00 9.14664E-01-1.23799E+00-7.49372E-01-3.31086E-01
 -1      2755 9.86206E-01-1.73893E-02-1.80386E-01 1.11361E+00 1.07982E+00-7.43349E-01
 -1      2756-3.23495E+00-1.16565E+01 4.60810E-01 3.18172E+00 2.08715E+00-1.60234E+00
 -1      2757-1.81664E+00-5.08244E+00-4.10696E+00 6.88263E-01 4.32921E-02-1.68699E+00
 -1      2758-2.06321E+01-1.92125E+01-3.99514E+00 1.79964E+00 1.14250E+00 1.49201E+00
 -1      2759-3.43342E+00-5.39003E+00-3.69385E+00 1.92377E+00-3.11349E+00 1.60328E+00
 -1      2760 1.32498E+00-1.12031E+00 5.59154E-01 8.19281E-02-1.88954E+00-1.41409E-01
 -1      2761 1.65064E+00 7.95385E-01 9.96063E-03 8.72451E-01-4.38484E-01 9.68813E-01
 -1      2762-6.21932E+00-1.66262E-01-1.45178E+00-1.13446E+00-1.50705E+00-1.43166E+00
 -1      2763 4.85449E+00 1.52542E+00-7.94934E-01-1.46204E+00-7.94798E-01-1.97305E-01
 -1      2764-1.69785E+00 4.78939E-01 3.71125E-01 4.30620E-01-2.13104E+00 2.27018E+00
 -1      2765-4.15728E+00-3.04734E+00 9.50996E-01-1.48704E+00-1.18708E+00 8.45604E-01
 -1      2766 3.32880E+00 4.40285E+00-4.03906E-01 1.71689E-01-5.59471E-01-1.45983E+00
 -1      2767 1.67633E+00-1.70854E+00 5.40082E-01 6.06612E-03 1.61247E+00 4.15905E-01
 -1      2768-5.48207E-02 7.81525E-01 2.70792E+00 7.69211E-01-4.85784E-01 1.28391E+00
 -1      2769-1.03799E+01-7.28511E+00-4.12619E+00 7.95901E-01-1.43101E+00-2.54865E+00
 -1      2770 7.48666E+00 8.09260E+00 3.04922E+00-2.09836E+00 1.51753E-01-1.71329E+00
 -1      2771 4.88152E-02-4.47301E-01 1.69692E+00-3.25483E-01 2.83770E+00-1.93033E+00
 -1      2772 4.30065E-01-1.34090E+00 2.88927E-01 6.25697E-01-1.63797E+00 2.65865E+00
 -1      2773-2.11702E+00-1.42283E+00 4.94178E-01-2.02173E-01 2.97633E+00-2.09215E-01
 -1      2774-4.13008E-01-4.45854E+00-2.95724E-01 1.25388E+00-2.78085E+00 1.14347E+00
 -1      2775-3.22682E+00 8.52548E-01-9.24277E-01 2.28649E+00 3.53297E+00-2.67427E+00
 -1      2776 5.55410E-01 1.87954E+00-1.50240E+00 6.73904E-02 7.78795E-01 2.29174E-01
 -1      2777 2.00320E-01-5.33521E+00-1.56867E-01 6.54181E-01-1.33307E+00-9.88697E-02
 -1      2778 7.08309E+00 4.22743E+00 2.49897E+00-1.66674E-01 7.82581E-01-8.52029E-01
 -1      2779 4.55136E-01 2.66280E+00-2.71291E-02-4.84519E-01-3.13318E-01-9.27209E-01
 -1      2780-3.09528E+00 2.43627E-02-5.25722E-01-2.98201E-01-1.59106E-01 2.67941E+00
 -1      2781-1.00741E+00-5.63347E+00-1.44140E+00 4.08315E-01-3.81717E+00 2.22007E-01
 -1      2782 4.34716E+00 5.42433E+00 1.33446E+00-2.36410E+00-4.07486E-01-3.32568E-01
 -1      2783 2.28761E+00 7.11231E+00-2.64500E-01 1.29279E+00 2.23341E-01 1.04916E+00
 -1      2784 4.96746E+00 2.61699E+00 1.86590E+00 6.53381E-01 8.73778E-01 2.96175E-01
 -1      2785 6.24102E+00 5.10642E+00 9.46866E-01 3.19018E+00 2.35756E-01-2.61746E+00
 -1      2786 2.91806E-01-4.44457E-02 1.96114E-02-2.30691E+00 1.14503E+00 4.07664E-01
 -1      2787 2.53022E+00 4.35298E+00 1.78595E+00-9.28265E-01-2.12610E-01-5.36776E-01
 -1      2788-4.12635E-01-1.11368E+00 5.56850E-01 1.63544E+00 1.92129E+00 8.94346E-02
 -1      2789-1.15874E+00-1.18758E+00-1.82226E-01-2.34967E-01-2.71571E-01 1.76316E+00
 -1      2790-3.54834E-01-4.92461E-01 2.38448E+00-1.25305E-01 1.48052E-01-4.16914E-01
 -1      2791 1.63900E+00-2.94764E-01 5.98784E-01 1.11339E+00-1.40419E+00-6.09455E-01
 -1      2792 6.09103E+00 3.27493E+00 1.36541E-02 2.69582E-01-1.23911E+00-5.49861E-01
 -1      2793-8.81422E-01 2.44114E+00-4.39632E+00 1.12372E+00-1.54173E-01 4.99310E-02
 -1      2794 9.83335E-01-3.09766E-01-8.62756E-01 1.41862E+00-1.28785E+00-6.80669E-01
 -1      2795 1.94694E-01-3.87025E+00-1.11142E+00 2.04871E+00 1.98685E+00-1.20712E+00
 -1      2796 1.28449E+00 4.63390E+00-1.40531E+00-8.83110E-01-3.66795E+00-4.05535E-01
 -1      2797-1.18222E+01-3.85361E+00-4.48743E+00 3.14178E-01-1.66620E+00 1.81802E+00
 -1      2798 1.76843E+00 2.99328E+00 1.74985E+00-1.32481E-01 1.19015E+00-6.09958E-01
 -1      2799 2.75856E+00 7.49571E-01 2.27478E+00 1.09328E+00 1.11253E+00 5.50355E-01
 -1      2800-1.24148E+00-5.16982E+00-2.95297E+00 4.68024E-03-2.20264E-01-2.72807E-01
 -1      2801-1.19612E+00 4.84252E-01-7.95716E-01-1.33779E-01 6.47400E-01-1.59821E+00
 -1      2802 3.69943E+00 7.31939E-01-1.61560E+00 4.09262E-01-2.45910E+00-4.14673E+00
 -1      2803-8.95372E-01-1.32130E+00-8.66541E-01 3.43685E-01 7.97746E-01-1.96982E+00
 -1      2804 8.02759E+00 1.02499E+01-1.40558E+00 6.22651E-01-1.26525E+00 3.98882E-01
 -1      2805-2.85182E+00-2.47811E+00-8.07597E-01 7.23747E-01-7.61149E-02-2.02501E+00
 -1      2806 7.53443E-01 4.05957E+00-8.24756E-01-8.22364E-01 7.28839E-01 5.07265E-01
 -1      2807 4.42307E+00 1.03395E+00-9.86713E-02 5.86786E-01-5.85679E-01-1.26015E-01
 -1      2808 3.85436E+00 5.32107E+00 1.74905E+00-4.67026E-02-8.68567E-01 5.14205E-01
 -1      2809 3.39826E+00 2.97081E+00 4.46490E-01-1.49122E+00-1.89040E+00 6.66114E-01
 -1      2810-3.35550E-01-1.31114E+00 4.21023E-01 5.08507E-01 1.98716E+00-1.08253E+00
 -1      2811 2.51923E+00 2.52133E+00-1.93692E+00 1.37540E+00-6.16586E-01 4.48024E-01
 -1      2812-1.79817E+00-1.62323E+00-1.23949E+00 5.68062E-03-1.94860E+00 1.03023E-02
 -1      2813-1.66435E-01-2.66264E+00 1.25144E+00 2.38951E-01-1.37287E+00-6.97181E-01
 -1      2814-1.38037E+00-1.67972E-01 1.11077E+00 6.11852E-01-2.69498E+00 6.29274E-01
 -1      2815 4.74938E-01-6.86021E-01-1.00185E+00 2.38785E-01-9.83411E-01-4.49195E-01
 -1      2816 2.49812E+00 3.33830E+00-1.59462E+00-2.09367E+00 9.30480E-01-1.94628E-01
 -1      2817-4.02948E+00-1.09454E+00-6.51392E-01 4.34788E-01-2.80160E+00 1.45357E+00
 -1      2818 5.50077E+00 1.00147E+01-1.00947E+00 2.37976E+00-1.23281E+00-7.99880E-01
 -1      2819-4.77704E-01 2.21236E+00 6.19092E-01-1.15896E+00 7.93578E-01 1.04467E+00
 -1      2820-8.33917E-01-4.45800E-01-3.80769E-01 8.62831E-01-2.84723E-01 9.49013E-01
 -1      2821-3.11673E+00-2.04914E+00-3.09398E-01 1.49245E-01 2.50703E-02 2.02483E+00
 -1      2822-1.26067E+00-1.29725E+00-3.59244E-01-4.90561E-01 1.03769E+00 1.94934E+00
 -1      2823-1.53870E+00-2.42509E+00 1.93903E-01-6.61638E-01 1.32844E+00-6.37667E-01
 -1      2824-2.69248E+00 9.63650E-01 2.00596E-02 1.81049E+00-1.29078E+00 1.52400E+00
 -1      2825 5.66337E+00 6.83670E+00 4.50685E+00-1.04250E+00 2.34271E-01 1.55023E+00
 -1      2826-2.35108E+00 1.03355E-01 6.58826E-01-3.52624E+00 1.61162E+00 1.36636E+00
 -1      2827-3.60258E+00-1.08671E+00-1.95128E-01 1.62846E+00-3.00292E-02 3.25234E+00
 -1      2828 4.58154E+00 3.22373E+00 2.20854E+00-5.88673E-01-1.15461E+00 3.24521E+00
 -1      2829 3.44643E-01 2.74797E+00 4.34223E-01 8.05396E-01 9.78602E-01-7.88864E-01
 -1      2830 3.94601E+00 5.71412E+00 1.50990E+00-8.44913E-01-6.55540E-01-1.03053E+00
 -1      2831 5.83425E+00 4.43378E+00 1.28732E+00 1.61282E+00-1.18104E+00-8.48911E-01
 -1      2832 5.34896E+00 8.69881E+00-4.91263E-01-2.58815E+00 2.92576E-01 2.20376E-01
 -1      2833 9.20598E-01 4.78768E-01-1.20739E+00 4.27524E-01-1.96126E-01-7.57884E-01
 -1      2834-4.11315E+00-1.26822E+00 8.69937E-01-1.76821E+00-1.80586E+00-2.41354E+00
 -1      2835-2.35614E+00-2.42187E-01-8.77207E-01-5.53662E-01 4.60864E-02 1.99358E+00
 -1      2836 2.02813E+00 3.61591E-01 1.69794E+00 2.73616E-01-1.43879E+00-1.61134E-01
 -1      2837-3.43128E+00-8.26986E+00-4.37158E+00 2.35445E+00 2.69938E+00-1.93483E+00
 -1      2838 5.81148E-01 2.32551E+00 6.57084E-01-1.49533E+00-1.39402E+00-7.41519E-01
 -1      2839 1.74495E+00 2.00359E-01 2.21179E+00 1.16710E+00-2.47233E+00 2.05310E+00
 -1      2840 3.82090E+00-2.56163E-02-5.27560E-01-1.41183E-01 1.21461E+00-1.82041E+00
 -1      2841-3.61864E+00 5.65207E-01 1.01977E+00-6.18532E-01 7.17695E-01 2.11419E+00
 -1      2842 8.45352E-01-2.32319E+00-1.59168E+00 4.29832E-01-2.24330E+00 3.79541E-01
 -1      2843-4.17400E+00-2.37119E+00-1.36383E-01-1.08135E+00 5.49640E-01-1.34992E+00
 -1      2844 4.88851E+00 1.12524E+00 1.60482E+00-2.41535E+00-8.40992E-01 1.49489E+00
 -1      2845 4.52605E+00 6.05550E+00-4.40722E-01-1.54526E+00-7.11512E-01 1.56586E+00
 -1      2846-1.86303E+00-3.17534E+00 1.62773E+00 3.52822E+00-3.54666E-01 1.91213E+00
 -1      2847 6.79732E+00 7.13191E+00-1.32554E+00-4.82796E-01-2.19071E+00 2.47691E+00
 -1      2848 6.09313E+00 1.60952E+00 8.10230E-01 1.51673E-01-1.36547E+00 2.26600E+00
 -1      2849-9.51413E-01-2.17537E+00-2.73215E+00 4.00560E-01-2.61726E+00 6.94520E-01
 -1      2850-5.65953E-02 3.98092E+00 1.06333E-01-1.83121E+00 1.32322E+00 8.61367E-01
 -1      2851-1.27622E+00-4.34680E+00-2.71634E-02-2.11662E-01-1.25471E+00 2.13695E-01
 -1      2852 1.31333E+00 4.62296E-01 4.35533E-01 4.04389E-01 5.85428E-01 2.60504E-02
 -1      2853-2.19427E+00-1.42294E+00-9.06844E-01-2.57638E-01 7.81199E-01-5.62339E-01
 -1      2854 5.57485E-01 2.27701E+00 2.74335E-01-1.80255E+00 6.54266E-01 1.22383E+00
 -1      2855 5.28479E+00 7.97798E+00-2.39769E-01-1.21052E+00 1.22430E+00 1.11206E+00
 -1      2856-2.67281E+00-2.24355E+00-2.50994E-01-3.81494E+00 1.63360E+00 1.50207E+00
 -1      2857 4.87363E+00 3.55476E+00 2.35615E+00-1.58189E+00 5.29074E-01 5.78273E-02
 -1      2858-1.80574E+00-1.46875E+00-2.73965E+00 7.22501E-01-2.01329E+00 9.70284E-01
 -1      2859 9.54268E-01-2.78779E+00-7.78481E-02 2.45182E-02 2.57061E+00-2.92706E-01
 -1      2860-1.46324E+00-9.92866E-01-6.14254E-01-3.05396E-01 2.05023E+00-1.70448E+00
 -1      2861-8.42389E+00-2.81494E+00-1.00450E+00 1.59813E+00-5.62215E-01 1.73576E+00
 -1      2862 4.00972E+00 7.95592E+00-2.05438E-01-2.46621E+00 2.09791E+00-1.95408E-01
 -1      2863-5.80018E-01 1.68656E+00 3.03689E-01-1.63860E+00 4.21895E-01 1.15020E+00
 -1      2864-1.69950E+00-1.72994E+00-1.00320E+00 5.12183E-01-1.98017E+00 9.34329E-01
 -1      2865 9.41597E-01-2.89093E+00 1.02761E+00 5.40581E-02-1.78579E+00-8.91804E-02
 -1      2866 9.21970E+00 6.57927E+00 5.69972E-01 5.42742E-01 3.73546E-01 4.39375E+00
 -1      2867 1.62933E+01 1.39020E+01-8.02968E-02 1.07382E+00-1.77288E+00-1.65982E+00
 -1      2868-3.68868E-01 1.43671E+00-2.85922E-01 5.84083E-01 5.58581E-01-1.49272E+00
 -1      2869 3.56735E+00 5.52102E+00 9.39604E-01-2.63422E+00 1.70091E+00-2.24578E+00
 -1      2870 3.21627E+00 8.03644E+00 2.80846E+00-2.31277E+00 2.31288E+00-2.98990E+00
 -1      2871 6.34811E+00 7.56048E+00 2.68482E+00-8.46449E-01 3.36450E-01 1.19071E+00
 -1      2872-9.92860E-01-2.87606E+00-1.87660E-01 1.74960E+00 2.70012E+00-1.25877E+00
 -1      2873-1.27411E+00-5.61668E+00 6.19335E-01 5.27011E-01 3.07429E+00-2.74675E+00
 -1      2874 8.37746E-01 4.52524E+00-9.93967E-01-1.44144E+00 4.00092E-01 1.00427E+00
 -1      2875-4.17316E+00-2.28053E+00 7.61538E-01-9.35107E-03-1.36508E+00 1.13777E-01
 -1      2876-3.28533E+00-4.64338E+00-3.21320E+00 1.25357E+00 2.29327E+00-2.93117E+00
 -1      2877-1.59894E+00 4.71420E+00-7.64218E-01-1.75584E+00 8.50055E-02 1.79612E+00
 -1      2878-1.76489E+00-3.14167E-01 1.42517E+00-1.24173E-01 1.29644E-01 2.47436E+00
 -1      2879 2.70596E+00 1.10178E+00 1.70092E+00-7.99737E-01-1.74399E-01-4.11421E-01
 -1      2880 5.67086E+00 1.04052E+01 1.67840E+00 4.47717E-01-6.87167E-02-4.33732E-01
 -1      2881 1.56240E+00 3.47240E+00-2.75747E+00 1.57834E+00 1.15715E-01-3.64695E-01
 -1      2882 4.28051E-01-4.94058E+00 1.30738E-01 1.79374E+00-1.66674E+00 2.68450E-01
 -1      2883 2.07673E+00 4.96603E+00-8.98213E-01-5.90994E-01 1.02979E+00-1.29161E+00
 -1      2884-8.07583E-01 9.95753E-01 1.23076E+00-1.43005E-01-2.19760E-01-1.65197E+00
 -1      2885 5.28257E+00 3.36942E+00 1.87852E+00 1.27723E-01 1.15916E+00 5.58807E-01
 -1      2886-5.67530E+00-5.13523E+00 8.62832E-01 3.44516E+00 6.10445E-01 1.44559E+00
 -1      2887 2.30305E+00 2.54933E+00-1.11510E+00 1.91302E+00-8.78144E-01 1.39291E+00
 -1      2888-7.34619E-01 7.10868E-01 1.67539E+00-1.50911E-01 2.45313E+00-8.11162E-01
 -1      2889-1.82747E+00 1.28272E+00-1.18044E+00 9.13280E-02 2.59979E-01-3.06256E+00
 -1      2890-3.09252E+00-4.00906E+00-5.99426E-01 1.43147E+00 9.42935E-01-1.55283E+00
 -1      2891 4.77331E+00 5.08668E+00-4.69712E-03 2.36574E+00-3.01252E+00-3.33881E-01
 -1      2892 1.59411E+01 1.17850E+01-3.47863E+00 3.13396E-01 5.32870E-01 1.96811E+00
 -1      2893-1.98832E-01-2.16554E+00 2.45450E+00 1.17923E+00 3.09400E+00-1.31480E+00
 -1      2894 3.43515E-01 1.78881E+00 4.01128E-01-7.18406E-01 5.89555E-01 1.14062E+00
 -1      2895-4.46609E-02-1.02205E+00 5.87308E-01 1.14493E+00-1.96921E+00 9.13508E-01
 -1      2896 4.82687E+00 3.33805E+00-2.01038E-01 1.26304E+00-1.15723E+00 9.99834E-01
 -1      2897 2.93004E+00 1.75238E+00 1.58623E+00 1.19063E-02-1.70402E-01 1.56868E+00
 -1      2898-6.77793E-01-1.93152E+00-7.19628E-01 5.09340E-01 9.97921E-01 2.27826E+00
 -1      2899 2.40308E+00-5.19691E+00-7.58605E-01 3.91306E-01-1.31593E+00 3.09292E-01
 -1      2900 2.60100E-01 1.13957E+00-1.93825E+00-6.98789E-02 3.81749E-01 1.03355E+00
 -1      2901 7.78214E+00 1.41176E+00 6.40575E-01-3.69445E-02-2.26896E+00 2.47378E+00
 -1      2902 5.91589E-01 2.07460E-01 6.17410E-01-1.15153E+00-1.82070E+00 5.48810E-01
 -1      2903-2.50817E+00-2.03656E-01-4.78529E-01-4.29574E-01 2.15204E+00-7.50464E-01
 -1      2904-8.79885E+00-9.84202E+00-2.25971E+00-1.30818E+00 1.00389E+00-5.70654E-01
 -1      2905-2.10575E+00-4.22394E+00-5.76342E-01 1.82687E+00 1.07423E+00-3.91605E-01
 -1      2906 6.96371E-01 4.24696E+00 6.10428E-01-1.31468E+00 6.10459E-01 5.18036E-01
 -1      2907 1.64878E+00 6.63355E-01 1.28903E+00 6.63233E-01-9.01753E-01 8.88283E-01
 -1      2908 5.70750E+00 7.43926E+00 2.64018E+00-1.00508E+00 1.13738E-01 2.25355E+00
 -1      2909 4.78897E+00 4.98656E+00 2.92831E+00-7.85566E-02-3.06038E-01 2.83547E+00
 -1      2910-1.51137E+01-1.62916E+01-5.53901E+00-4.55352E-01-5.17647E-01 3.11533E-01
 -1      2911 7.86673E+00 7.16573E+00-1.08833E+00-1.19286E+00 8.50684E-01 2.17985E+00
 -1      2912 1.24883E+01 1.01270E+01-1.53350E+00-3.42174E-01 7.76685E-01-3.17037E+00
 -1      2913 1.14261E+01 9.25683E+00 3.96213E+00 1.20249E+00 5.13892E-01 5.21193E-02
 -1      2914 1.52430E+01 1.56794E+01-2.00161E+00 8.99031E-01 3.22671E+00-5.74978E-01
 -1      2915 1.55534E+00 7.96608E+00-1.97196E+00-1.88472E+00-2.71726E+00-3.08784E-01
 -1      2916 1.11608E+01 1.41999E+01-6.53878E-01 3.78909E-02-3.04043E+00 1.27808E+00
 -1      2917-9.66349E+00-1.05714E+01-6.09603E+00 1.29529E+00 1.18301E-01-4.16127E-01
 -1      2918 1.80696E+01 1.74301E+01-2.05632E+00 1.16017E+00-2.45543E+00-1.21127E+00
 -1      2919 1.02100E+01 1.02967E+01 2.32376E+00-1.42590E+00 2.02198E+00-1.68387E+00
 -1      2920 1.58741E+01 2.63070E+01 1.01703E+00-2.00658E+00-2.13321E+00-1.27827E+00
 -1      2921 1.82403E+01 1.39821E+01 7.03687E-01 1.81582E+00-9.13579E-01-1.23445E+00
 -1      2922 8.09011E+00 6.49840E+00 2.88497E+00 2.47770E-01 1.39457E+00-1.78739E-01
 -1      2923-3.04584E+01-2.03524E+01-3.66986E+00-1.21998E+00-1.09288E+00-3.39300E+00
 -1      2924 2.25721E+00 1.87038E+00 6.38725E-01-1.27574E+00-1.41341E+00 6.80466E-01
 -1      2925 1.08738E+01 1.02674E+01 4.23458E+00 7.31842E-01 1.60658E+00-2.50366E-01
 -1      2926-1.48972E+01-1.52205E+01-2.24841E+00 6.63732E-01 9.36590E-01 6.34234E-01
 -1      2927 1.81493E+01 1.90998E+01 7.41890E-01 3.49886E+00-7.80804E-01 5.02347E-01
 -1      2928 2.65928E+01 2.33030E+01 3.30715E+00-3.26083E-01-3.16778E-01-2.05751E+00
 -1      2929-1.00679E+01-8.22884E+00-4.39795E+00 6.61529E-01-5.17682E-01 6.11214E-03
 -1      2930-9.86598E+00-1.09266E+01-3.54010E+00 8.25305E-01 8.55637E-01 9.69400E-01
 -1      2931 1.06756E+01 6.57758E+00 7.42169E-01 1.97543E+00 9.31184E-02 6.85875E-01
 -1      2932-8.68966E+00-1.39150E+01-4.67882E+00-9.34714E-01-1.94698E-01 5.47249E-01
 -1      2933 6.97890E+00 4.28724E+00-2.73298E+00-8.49568E-01 6.10327E-01-3.29556E+00
 -1      2934-1.35190E+01-1.53513E+01-2.57565E-01 1.03293E+00-1.83674E+00-1.88791E-01
 -1      2935-1.95859E+01-2.23868E+01-3.48125E+00-2.45155E+00 5.29497E-01 9.70067E-01
 -1      2936 1.45858E+01 1.49058E+01-1.27382E+00 2.09594E+00 2.12748E-01 1.02837E+00
 -1      2937 1.93071E+01 1.17778E+01-3.65530E-01-1.07055E+00-2.09667E+00-4.20063E+00
 -1      2938 1.03553E+01 1.13420E+01 5.48077E+00 5.53100E-01 2.57901E+00-9.66180E-01
 -1      2939-1.88060E+01-1.91716E+01 4.93409E-01 1.41876E+00 7.93911E-01-1.17796E-01
 -1      2940 5.65329E+00 4.44989E+00 7.49216E-01-6.11434E-01-1.61101E+00-3.05003E-01
 -1      2941 9.56423E+00 9.29643E+00-6.85881E-01 1.27638E+00 9.93263E-01 3.51338E+00
 -1      2942 1.19733E+01 5.85922E+00-5.45369E-01-9.52342E-01 1.38648E+00 1.88668E-02
 -1      2943 1.51384E+01 1.55446E+01 6.46675E-01 2.83028E+00-2.89784E+00 3.59235E-02
 -1      2944-1.02720E+01-1.18634E+01-2.39034E+00-2.47124E-01 1.52267E+00 6.13137E-01
 -1      2945-1.39537E+01-1.65370E+01-8.81500E+00-1.08284E+00-2.31042E+00-1.26755E+00
 -1      2946-1.05826E+01-1.24264E+01-3.45579E+00 2.15797E-01-1.07928E-01 1.89537E+00
 -1      2947 2.33551E+01 1.97684E+01-5.89309E-02-1.86461E-01-2.00234E+00 2.61971E+00
 -1      2948 1.57849E+01 1.55045E+01 1.43891E+00-1.97471E+00 2.32661E+00-1.60416E+00
 -1      2949-1.43212E+01-1.40902E+01-1.63119E+00 2.54514E-01-3.33883E-01-2.66375E+00
 -1      2950 7.42537E+00 1.03108E+01 2.48613E+00 1.05931E+00-2.11452E+00 1.65602E-01
 -1      2951 1.73399E+01 1.59430E+01-1.92693E+00 1.92856E+00 1.06995E-01-3.06821E+00
 -1      2952 1.91533E+01 1.35296E+01-3.15120E-01-2.73294E+00-3.37019E+00 3.21874E+00
 -1      2953-1.60290E+01-2.03916E+01-7.33732E+00 1.21540E+00-3.42424E-02 8.30859E-01
 -1      2954 3.69979E+00 4.12745E+00 2.34825E-02-7.59181E-01-1.43079E+00 1.87452E+00
 -1      2955 1.54161E+01 1.68421E+01-1.76984E+00 1.11677E+00-2.56287E+00 1.45677E+00
 -1      2956 8.68126E+00 8.35965E+00-1.75678E+00 9.66587E-01-2.07484E+00-2.23832E+00
 -1      2957 1.83695E+01 1.93943E+01-3.58618E-01-1.26461E+00 2.14516E+00 3.82481E-01
 -1      2958 1.69991E+01 2.37130E+01 2.72552E-01-2.41674E+00-1.83052E+00 2.43158E-02
 -1      2959 2.42014E+01 2.57701E+01-3.33645E+00-1.56242E+00-7.40908E-01-2.47295E+00
 -1      2960 2.54798E+01 2.89236E+01-1.29698E+00 7.75634E-01 1.67586E+00-7.67145E-02
 -1      2961-1.79293E+01-2.14233E+01-2.18459E+00-1.08946E+00 1.55651E+00 2.09353E+00
 -1      2962-1.54856E+01-1.68171E+01-5.20829E+00-2.25182E+00-1.12228E+00 8.25319E-01
 -1      2963 1.53546E+01 1.65009E+01-1.24205E+00-2.37539E-01 2.91687E-01 2.40384E+00
 -1      2964 1.24392E+01 1.15210E+01 1.70220E-03 5.90827E-01 2.94778E+00 3.69331E+00
 -1      2965-1.94360E+01-1.74087E+01-4.14548E+00 1.06806E-01-1.49383E+00-3.09141E-01
 -1      2966 1.73779E+01 1.87260E+01 1.85943E+00-2.56700E+00-1.30127E+00-1.21824E-01
 -1      2967 1.56008E+01 1.46840E+01-1.21883E+00 1.60072E-01-4.64445E+00-1.41541E-01
 -1      2968 1.12901E+01 1.13194E+01 3.25816E+00 7.86298E-01 1.83707E+00-2.36800E+00
 -1      2969 1.80168E+01 1.91477E+01-2.60014E+00-6.06550E-01 1.60395E+00-5.46617E-01
 -1      2970 2.68489E+01 1.69050E+01 9.40660E-01 3.43494E+00 7.17231E-01 3.94596E+00
 -1      2971-2.19342E+01-2.13156E+01-3.40340E+00-1.53165E+00 1.14484E-01 8.95241E-01
 -1      2972-2.46734E+01-2.47579E+01 2.15396E+00-7.89889E-01 6.40927E-01 9.28415E-01
 -1      2973 3.82348E+00 5.94970E+00-1.96596E+00-2.34019E+00 3.26771E+00-1.74349E+00
 -1      2974-4.19581E+01-4.09867E+01-1.01206E+01-4.29613E-01 9.16512E-01 8.62366E+00
 -1      2975-2.14879E+01-2.73930E+01-2.52798E+00 2.23499E+00 9.13907E-01 2.45642E+00
 -1      2976-2.63174E+01-2.51352E+01 2.11598E+00-1.08638E-01-2.92798E+00 4.05288E+00
 -1      2977-1.03953E+01-1.19412E+01-1.76283E+00 2.19392E-01 1.59995E+00-1.37739E+00
 -1      2978-3.65010E+00-3.22494E+00-3.49278E-01-3.70456E-01 9.29618E-01-1.12671E+00
 -1      2979-2.83768E+01-2.89698E+01-3.64302E+00-6.95328E-02 3.08459E+00-6.68337E-01
 -1      2980-2.36655E+01-2.61087E+01-1.05267E+01 1.64180E+00 2.82365E+00-1.03434E+00
 -1      2981-2.41316E+01-2.47047E+01-3.82573E+00 2.71279E+00 1.58749E+00-2.62859E+00
 -1      2982-3.56189E+01-3.31544E+01-9.58327E+00-1.93252E+00-5.69696E+00 2.35185E-01
 -1      2983-3.67734E+00-4.00355E+00-6.61672E-01-7.35192E-01 3.06637E+00-1.83744E-01
 -1      2984-3.65500E+01-3.67776E+01-1.06192E+01 7.95413E-01-1.30879E+00-8.46123E-01
 -1      2985-4.80845E+00-4.27002E+00-4.96604E-01 9.90517E-01-2.68241E+00-1.84604E-01
 -1      2986 1.42190E+01 1.53515E+01 4.30452E+00 1.64983E+00 3.06308E+00 3.39608E+00
 -1      2987-3.06513E+01-2.04365E+01-7.03834E+00-1.31558E+00-1.94496E+00-1.61279E+00
 -1      2988-2.23467E+00-2.54107E+00 2.58898E-01-2.25968E-01 5.24983E-01-1.45275E+00
 -1      2989-2.34260E+00-2.32719E+00-1.51320E+00-6.63502E-02-2.06844E-01-2.61667E+00
 -1      2990-3.40862E+00-3.93911E+00-7.33378E-01 3.79163E-01-1.39390E-01 2.35974E+00
 -1      2991 2.01956E+01 1.47961E+01-3.26390E+00-2.05324E+00 5.89862E-01 3.59372E-01
 -1      2992-3.80743E+01-3.75224E+01-1.18573E+01-1.97951E+00 1.37475E+00 2.65881E+00
 -1      2993-3.29214E+01-3.57263E+01-5.95796E+00-9.39146E-01 5.89209E+00 5.14282E-01
 -1      2994-2.87744E+00-2.72651E+00-6.91369E-02-2.31448E-02-1.27307E+00 1.03947E+00
 -1      2995-2.28252E+00-2.39337E+00-6.68369E-03-1.24962E-01-2.91800E-02 1.46633E+00
 -1      2996-3.51427E+01-3.31838E+01-2.66814E+00 7.36196E-01-1.37254E+00-5.65713E-01
 -1      2997-3.46872E+00-3.16815E+00-3.31330E+00 7.68883E-01 3.18423E+00 2.04298E+00
 -1      2998-1.70596E+00-1.63789E+00-2.64008E+00 2.11003E-01 1.00988E+00 2.10149E+00
 -1      2999-2.47330E+01-2.05310E+01-8.20352E+00-5.73278E-01 7.21530E-01 6.50643E-01
 -1      3000-2.06352E+01-1.79260E+01-5.88964E+00 2.29830E+00-4.67232E-01-1.21551E+00
 -1      3001-2.38037E+01-2.59190E+01-4.06490E+00-4.26369E-01 1.59425E-01 2.93938E+00
 -1      3002-3.22644E+00-3.62120E+00-1.09636E+00-2.43348E-01-2.39585E+00-1.08531E+00
 -1      3003-2.57392E+00-2.28286E+00-6.00865E-02-1.96582E-01-8.52346E-01-1.17809E+00
 -1      3004-3.59472E+00-3.65905E+00-6.71982E-01 1.59353E-01 1.37747E+00 1.38054E+00
 -1      3005-2.29799E+01-2.54928E+01-5.06881E+00 2.87225E-01-1.18624E+00-4.43358E-01
 -1      3006-2.86731E+01-2.76736E+01-7.50634E+00-2.14673E+00 9.68331E-01-1.35797E+00
 -1      3007-2.62673E+00-3.02070E+00-3.80706E+00-1.38036E+00 2.35328E+00-1.97462E+00
 -1      3008 1.37937E+01 1.14949E+01 9.34171E-01-6.06612E-01-1.48370E+00-2.82492E+00
 -1      3009-2.48481E+01-2.84488E+01-6.74594E+00-2.96290E+00-1.66894E+00 1.03246E+00
 -1      3010-3.17290E+00-2.59438E+00-4.31534E+00-7.10127E-01 3.41873E+00-1.01645E+00
 -1      3011-5.64314E+01-4.52127E+01-9.84864E+00 4.94076E-01-1.82012E-03 7.23519E+00
 -1      3012-2.97781E+00-2.93134E+00 2.75708E-02 9.78803E-02-9.82004E-01 1.47423E+00
 -1      3013-3.48932E+01-3.47964E+01-7.90356E+00 1.95481E+00-1.53529E+00-5.81882E+00
 -1      3014-1.52247E+00-2.84322E+00-3.88923E+00-3.10552E-01 3.95130E-01 3.09847E+00
 -1      3015-3.23835E+01-3.61484E+01-3.90948E+00-6.77698E-01-1.94214E+00-3.87990E+00
 -1      3016-3.53211E+00-2.45567E+00-3.71931E+00 8.33447E-01-2.98164E+00-1.16592E+00
 -1      3017-3.20404E+00-3.36098E+00-1.62394E+00-3.62353E-01-2.75716E+00-2.06784E-01
 -1      3018-2.06202E+00-2.79415E+00-3.10933E-01 1.62075E-01 1.75182E+00-1.11156E+00
 -1      3019-3.41210E+00-3.47080E+00-7.11766E-01 2.32701E-02 2.43373E+00-2.94954E-01
 -1      3020-2.06202E+00-2.34835E+00-3.09266E+00-5.03832E-01 6.48220E-01-2.67195E+00
 -1      3021-2.57681E+00-2.45894E+00-2.98555E-01-3.45852E-01 6.71426E-01-2.02341E+00
 -1      3022-3.32438E+00-1.74786E+00-3.08312E+00 1.48504E-01-2.73634E+00 2.26137E-02
 -1      3023-3.41207E+01-3.08413E+01-2.24133E+00 1.73946E+00-7.99834E-01 2.73173E+00
 -1      3024-2.13229E+00-2.74148E+00-3.17627E+00 5.93775E-01-2.13011E+00-1.82604E+00
 -1      3025-7.40933E+00-7.44821E+00-4.71447E+00-1.14643E+00 3.68762E+00-2.67938E+00
 -1      3026 1.53475E+01 1.37256E+01-7.04710E-01 2.11571E-01-2.83349E+00 2.41125E+00
 -1      3027-1.61149E+00-2.56303E+00-2.71514E+00-4.28462E-01-8.41953E-01-2.40902E+00
 -1      3028-3.39637E+01-3.81198E+01-1.16229E+01 1.28434E-01-1.67997E+00 5.93921E-01
 -1      3029-3.74172E+01-3.31315E+01-1.18108E+01 5.49251E-01 2.78727E+00-3.82592E-01
 -1      3030-2.69975E+00-2.54792E+00-4.08281E+00-8.09107E-01-2.58585E+00 2.16629E+00
 -1      3031-2.92676E+00-2.63037E+00-1.47857E+00-3.99429E-01 1.07086E+00 2.36070E+00
 -1      3032-9.03259E+00-1.07495E+01-4.22139E+00 4.51723E-01 1.98389E+00 2.45303E+00
 -1      3033-3.68415E+01-3.45832E+01-7.36749E+00 8.10986E-01 8.20003E-01 5.32580E+00
 -1      3034-2.84326E+00-4.25725E+00-1.30198E+00-7.69061E-01-5.82169E-01-2.28560E+00
 -1      3035-5.63517E+00-3.89486E+00-6.89168E-01 1.21790E-01-2.49435E+00 4.14092E-01
 -1      3036-2.68436E+00-3.19042E+00 8.73624E-02-3.72041E-01-5.97873E-01 1.57599E+00
 -1      3037-2.37615E+00-2.65846E+00-9.67831E-01 1.62001E-01 2.54503E+00-4.41676E-01
 -1      3038-1.05229E+01-9.01542E+00-2.55073E+00-2.20305E+00 1.08473E-01-2.59985E+00
 -1      3039-3.56350E+01-3.47069E+01-7.73563E+00-3.03617E-02-2.48949E+00-1.76313E+00
 -1      3040-2.73527E+00-2.74659E+00-6.39193E-01-1.55906E-01-1.57495E+00-1.49918E+00
 -1      3041-3.23402E+00-4.40174E+00-2.52899E-01 3.06187E-01-1.39816E+00-1.32313E+00
 -1      3042-1.34959E+01-1.14930E+01-5.90854E+00-4.85365E-01 3.95417E+00 7.23332E-01
 -1      3043-2.84157E+01-3.17697E+01-1.02649E+01-1.37225E+00 2.05269E+00-3.41662E+00
 -1      3044-2.83833E+00-2.41479E+00-3.00490E+00-9.61425E-01-2.79646E+00 3.71576E-01
 -1      3045-1.15523E+01-9.87636E+00-5.90850E+00 7.43520E-01-3.27640E+00-1.81746E+00
 -1      3046-9.21228E+00-8.39725E+00-3.47779E+00-1.35859E+00-2.81234E+00-1.92875E+00
 -1      3047-2.09837E+00-3.25463E+00-3.20863E+00 8.52290E-01-5.32012E-01-2.74257E+00
 -1      3048-6.12473E+00-7.29622E+00-3.69316E+00-3.80019E-01-1.40955E+00 3.66318E+00
 -1      3049-2.93453E+00-2.54213E+00-3.96173E+00 9.67058E-01 2.00232E+00 2.66701E+00
 -1      3050-1.35974E+01-1.04828E+01-4.08475E+00 7.20219E-01-3.65499E+00 9.00049E-01
 -1      3051-8.21611E+00-7.38752E+00-4.09337E+00 1.40197E+00-3.20274E+00-2.80934E+00
 -1      3052-5.12378E+00-6.11799E+00-2.28689E+00-6.73413E-01 2.90208E+00-2.91985E+00
 -1      3053-7.66804E+00-9.67287E+00-5.42832E+00-7.25414E-01-2.48772E-01-4.47015E+00
 -1      3054-2.59204E+00-1.82360E+00-3.43985E+00 9.14459E-02 2.96554E+00-1.85138E-01
 -1      3055-2.86546E+00-2.22418E+00-1.05895E+00-1.25296E-01 5.10748E-01 2.78739E+00
 -1      3056-8.80512E+00-6.65467E+00-3.67670E+00-1.25276E+00 3.36143E+00-4.17666E-01
 -1      3057-2.13924E+00-2.87742E+00-3.11322E+00-8.11743E-01-4.90884E-01 2.61468E+00
 -1      3058 2.09600E+01 1.95781E+01 3.29416E+00 3.72607E+00-3.34158E+00-1.84006E+00
 -1      3059-3.71844E+00-2.40822E+00-3.53346E-01-1.87390E-01 1.23747E+00 1.34086E+00
 -1      3060-1.07159E+01-7.05089E+00-1.79279E+00 1.50720E-01-1.47682E+00 2.55970E+00
 -1      3061-8.53954E+00-9.03074E+00-3.64083E+00 3.60293E-01-7.44475E-01-2.55951E+00
 -1      3062-3.09089E+00-3.26754E+00-1.38880E+00-1.91692E-01-2.34550E+00-1.01407E+00
 -1      3063-8.01142E+00-1.04943E+01-4.22861E+00-6.45774E-01-3.25036E+00-4.02383E+00
 -1      3064-5.91787E+00-7.19733E+00-4.12296E+00-1.90098E+00 1.18413E+00-3.85888E+00
 -1      3065-9.35722E+00-9.30919E+00-2.63777E+00-1.27201E+00-1.80319E+00 1.92094E+00
 -1      3066-3.07513E+00-3.23954E+00-1.39411E+00-4.09287E-01 6.09208E-01 2.77647E+00
 -1      3067-3.22219E+00-3.49408E+00-2.03496E+00 2.05170E-01-2.59892E+00 1.00258E+00
 -1      3068-8.00188E+00-7.20107E+00-1.99093E+00-8.64153E-01-5.79866E-01 2.90227E+00
 -1      3069-1.20979E+01-1.07251E+01-7.01137E+00-8.55739E-01-4.12494E+00 5.91672E-01
 -1      3070-7.67808E+00-7.78574E+00-2.75767E+00 1.34797E+00 9.05623E-01 2.90386E+00
 -1      3071-5.98998E+00-3.57125E+00-1.03801E+00 4.46663E-01 1.69999E+00 3.71473E-01
 -1      3072-6.84044E+00-9.22366E+00-9.57120E-01 1.38719E+00-1.72942E+00-1.11440E+00
 -1      3073-2.86404E+00-2.96581E+00-1.49261E+00 3.18275E-01 3.82321E-01-2.10156E+00
 -1      3074-8.37308E+00-8.74064E+00-3.53644E+00 5.35088E-01-2.60388E+00 1.06018E-01
 -1      3075-1.07770E+01-1.27534E+01-5.65267E+00 7.91707E-01 2.09996E+00-3.58518E+00
 -1      3076-2.47991E+00-3.28886E+00-5.42434E-01-9.09802E-02 2.24225E+00 6.09797E-01
 -1      3077-1.09296E+01-9.73014E+00-4.44598E+00 9.74185E-01 3.35159E+00 5.51222E-01
 -1      3078-3.56108E+00-2.23439E+00-2.66344E+00 9.86283E-01 2.08939E+00 8.44163E-01
 -1      3079-6.05048E+00-7.49348E+00-2.89280E+00-9.64674E-01-2.68393E+00 2.59874E+00
 -1      3080-8.77263E+00-7.87567E+00-3.96612E+00 3.79851E-01 2.82670E+00 1.26202E+00
 -1      3081-1.02202E+01-9.39701E+00-5.54116E+00-9.15993E-02 2.84237E+00-2.32121E+00
 -1      3082-1.01177E+01-1.27594E+01-5.48656E+00-1.07726E+00 1.04316E+00 3.28095E+00
 -1      3083-9.84374E+00-8.41744E+00-2.68074E+00 1.16322E+00 2.35046E+00-1.49129E+00
 -1      3084-8.76350E+00-8.02899E+00-3.38367E+00 1.07680E+00 1.75688E+00 2.04617E+00
 -1      3085-1.38378E+01-1.05669E+01-1.18760E+01 4.66615E+00 1.05245E+00 2.47365E+00
 -1      3086-1.25384E+00-3.05944E+00-1.83701E+00 1.35749E-01 1.34405E-01-2.57833E+00
 -1      3087-3.25687E+00 5.04451E-01-5.05368E+00-5.76071E-01 2.50157E+00-1.75496E+00
 -1      3088 8.97016E-01 1.29415E+00-2.21734E+00-1.60831E-01-2.97048E+00 7.99921E-01
 -1      3089-3.74808E+00-3.90375E+00 3.09481E-01-5.20702E-01 1.03728E+00-6.97669E-01
 -1      3090 6.36555E-02 2.66519E+00-2.87192E+00 4.27425E-01-1.67244E+00-1.67830E+00
 -1      3091-5.27256E+00-4.93017E+00-2.75469E+00 1.01774E+00 1.33974E+00 1.30963E+00
 -1      3092-6.51061E-01-1.77461E+00-5.50047E+00 1.49695E+00-1.82219E+00-3.35983E+00
 -1      3093 3.87490E+00 4.54294E+00-6.23145E+00 8.03457E-01-1.43439E+00 3.67542E+00
 -1      3094-3.77708E+00-1.69684E+00-6.86392E+00-1.46359E+00-9.91949E-01 6.97794E-01
 -1      3095-1.62692E+01-1.68301E+01-9.50473E+00 2.93569E+00-1.54128E+00-1.12839E+00
 -1      3096-5.44919E+00-6.60177E+00-9.34317E-01-1.42262E-01-2.24100E-01 1.23170E-01
 -1      3097-2.32778E+01-2.04874E+01-1.12233E+01 4.09484E+00-4.33760E-02 9.08220E-01
 -1      3098-4.89524E+00-4.75356E+00-2.35253E+00-1.91373E+00-1.78797E+00 1.77680E+00
 -1      3099-4.91838E+00-6.74938E+00-7.04592E+00-2.99157E+00-3.13587E+00 1.08801E+00
 -1      3100 3.31588E+00 7.78408E+00-9.21281E-02 1.91817E+00-3.22597E+00-5.43400E-01
 -1      3101-3.60165E+00-3.84877E+00-5.48839E+00-1.17286E+00 2.07139E+00-1.66815E+00
 -1      3102-3.20882E-01-5.28984E+00-6.55670E+00 1.12431E+00-9.52589E-01-2.94272E+00
 -1      3103-2.11051E+01-2.53087E+01-1.17050E+01 1.63851E+00 7.56224E-02-4.14789E-02
 -1      3104-7.97702E+00-7.59441E+00-2.13608E+00 4.04103E-01 1.18053E+00 1.79509E+00
 -1      3105-3.19567E+00-4.68956E+00-5.68787E+00-8.39346E-01 6.17139E-01-1.87970E+00
 -1      3106-2.84146E+00-3.62958E+00-3.54516E+00 9.63861E-01 9.35934E-01 2.01513E+00
 -1      3107-1.09619E+01-5.38339E+00-6.59902E+00-1.65663E+00-2.71761E+00-2.39714E-01
 -1      3108 8.20194E-01 1.39811E-01-5.26988E-01 2.62521E-01 1.54603E+00 3.06199E-03
 -1      3109-6.83813E+00-1.27559E+00-4.25475E+00 4.10933E-01 2.80145E+00 2.38799E-01
 -1      3110-1.97571E+01-1.44365E+01-7.90761E+00-1.90446E+00-7.93571E-01-1.00856E+00
 -1      3111 8.17285E-01-3.98453E+00-3.08138E+00-9.55932E-01 1.18522E+00-1.96721E+00
 -1      3112-2.20445E+01-1.94251E+01-9.35529E+00-3.08663E-01-7.16229E-01-3.12433E-01
 -1      3113-4.28782E+00-3.15019E+00-5.74746E+00 2.03992E+00 1.23940E+00 1.96490E+00
 -1      3114-2.88094E+00-3.18709E+00-5.45123E+00 3.85930E-01-3.49795E+00-2.12167E+00
 -1      3115-1.73710E+01-1.86521E+01-9.37630E+00-1.18259E+00 6.68733E-01-6.19089E-01
 -1      3116-3.60255E+00-2.51841E+00-3.45917E+00 1.44783E+00-1.50855E+00-1.27845E+00
 -1      3117-2.16936E+01-1.82922E+01-9.94691E+00-2.34236E+00 1.39179E-02 1.61268E-01
 -1      3118-2.39937E+00-3.65324E+00-3.03495E+00 2.12572E+00-8.43145E-01-3.14525E+00
 -1      3119-1.56040E+00 2.82725E+00-5.52090E-01-6.18041E-01-3.17216E+00-1.40550E+00
 -1      3120-7.46370E+00-3.89466E+00-2.51983E+00-1.54031E+00-1.44383E+00 1.37302E+00
 -1      3121-3.76377E+00-2.56029E+00-7.61759E+00-1.37182E+00 7.68822E-01-1.58276E+00
 -1      3122-1.94389E+00-9.16302E+00-2.19204E+00 7.79663E-01 9.79966E-01 3.67583E+00
 -1      3123-2.08509E+01-1.55694E+01-1.10888E+01 3.27923E+00-1.19098E+00-1.24113E+00
 -1      3124-2.09527E+01-2.73153E+01-6.84080E+00 4.02156E-01-1.91288E-01 5.16500E-01
 -1      3125-5.39208E+00-7.81999E+00-3.84586E+00-1.59134E+00 1.21497E+00-1.03779E+00
 -1      3126-1.99842E+01-2.18248E+01-1.32863E+01 1.79745E-01-1.51700E+00 3.19691E+00
 -1      3127-4.38917E+00-2.86848E+00-6.16194E+00-1.69793E+00 1.05536E+00-1.76190E-01
 -1      3128-3.11845E+00 5.31052E-01-7.35856E-01 1.49200E+00 2.07873E+00 1.18077E+00
 -1      3129-5.68029E+00-2.33273E+00-3.49688E+00-3.18958E-01 1.73929E+00-1.78397E-01
 -1      3130-5.66983E-01-1.18304E+00-1.81746E+00-3.81747E-01 5.60290E-02-1.40374E-01
 -1      3131-5.57738E+00-3.85891E+00-1.16491E+00-2.04096E+00 2.13012E+00-1.23750E+00
 -1      3132-3.17888E+00-3.72197E+00-3.45036E+00-1.81358E+00-5.72469E-01 1.15968E+00
 -1      3133 2.64610E-02-2.80500E+00-1.76576E+00 5.60324E-01-2.67247E+00-9.72727E-01
 -1      3134-3.83112E+00-2.23197E+00-2.39721E+00-7.73053E-02-1.65908E+00 1.94539E+00
 -1      3135-6.03931E+00-6.63920E+00-2.10376E+00-1.54322E+00 2.10547E-01 1.71904E+00
 -1      3136-1.70843E+01-1.32762E+01-6.97547E+00-7.36298E-02 4.93727E-01-5.30157E-01
 -1      3137-1.84023E+01-1.58624E+01-6.11701E+00 1.21308E+00-1.68376E+00 5.23897E-01
 -1      3138-1.75848E+01-1.91993E+01-8.27893E+00 1.83223E+00-5.50619E-01 9.26357E-02
 -1      3139-7.36249E+00-9.24466E+00-5.50768E+00-2.95237E-01-9.26273E-01 3.41211E-01
 -1      3140-9.36275E+00-1.04717E+01-4.40389E+00 1.20719E+00 1.58548E+00 3.07396E+00
 -1      3141-4.24280E+00-1.20327E+01-6.08791E+00-8.57283E-01 1.01751E+00-1.97303E+00
 -1      3142-3.39232E+01-3.84503E+01-1.12555E+01-1.31542E+00 3.95784E-01 1.50731E+00
 -1      3143 1.03294E+00-1.36435E+00-1.67908E+00 6.75805E-01 6.45744E-01 3.26996E+00
 -1      3144-1.36406E+01-1.41714E+01-6.84981E+00-1.80126E-01-7.54395E-01 7.29117E-01
 -1      3145-1.94669E+01-3.71567E+01-1.14551E+01 1.14059E+00 3.84942E-01 7.76701E-01
 -1      3146-2.04919E+01-1.99374E+01-7.74162E+00 4.20897E-01 1.03607E+00-1.56119E-01
 -1      3147-2.01329E+01-2.54813E+01-1.05868E+01-7.57614E+00-1.85696E+00-9.77211E-01
 -1      3148-2.14085E+00-3.58910E+00 3.90003E-01 3.43157E-01 3.92753E-01 1.45473E+00
 -1      3149-1.93813E+01-1.77336E+01-1.20501E+01-4.61616E+00 6.20957E-02 8.18776E-01
 -1      3150-1.66593E+01-1.46902E+01-9.80007E+00-1.86331E+00-1.01076E-01 1.73741E+00
 -1      3151-1.96620E+00-5.17070E+00-3.39198E+00 6.26923E-01 6.98201E-01-2.50626E+00
 -1      3152-8.34611E+00-5.28332E+00-2.86156E+00 5.76086E-01-2.16767E+00-1.27685E-01
 -1      3153-2.00279E+00-1.82023E+00-1.65996E+00 2.10680E+00-1.85111E+00-1.32058E+00
 -1      3154 6.81754E-01-1.45073E+00-1.65136E+00-1.25296E+00-2.17291E+00 3.27887E+00
 -3
 9999
