    1C
    1U meshsolid_t.inp                                                  
    1UUSER                                                              
    1UDATE              05.july.2016                                    
    1UTIME              09:16:20                                        
    1UHOST                                                              
    1UPGM               CalculiX                                        
    1UVERSION           Version 2.10                             
    1UCOMPILETIME       Sa 5. MÃ¤r 12:23:33 CET 2016                    
    1UDIR                                                               
    1UDBN                                                               
    1UMAT    1PDMS                                                      
    2C                          3746                                     1
 -1         1 2.32070E+00-4.61617E-01 2.25000E+00
 -1         2-7.15142E+00 3.99049E+00 2.25000E+00
 -1         3-5.06195E+00 1.58259E+00 2.25000E+00
 -1         4-7.69674E+00 2.67396E+00 2.25000E+00
 -1         5-5.24373E+00 1.14375E+00 2.25000E+00
 -1         6-7.87852E+00 2.23512E+00 2.25000E+00
 -1         7-2.89912E+00-4.51663E+00 2.25000E+00
 -1         8-2.89912E+00 4.51663E+00 2.25000E+00
 -1         9-5.41583E+00 6.08758E+00 2.25000E+00
 -1        10-6.08758E+00 5.41583E+00 2.25000E+00
 -1        11-5.28227E+00 4.74999E-01 2.25000E+00
 -1        12-2.32070E+00-4.61617E-01 2.25000E+00
 -1        13-2.38798E+00 4.74999E-01 2.25000E+00
 -1        14-4.69840E+00 2.46028E+00 2.25000E+00
 -1        15-2.23512E+00 7.87852E+00 2.25000E+00
 -1        16 1.14375E+00 5.24373E+00 2.25000E+00
 -1        17 4.68498E+00 1.00693E+01 2.25000E+00
 -1        18 1.58259E+00 5.06195E+00 2.25000E+00
 -1        19 2.46028E+00 4.69840E+00 2.25000E+00
 -1        20 1.31457E+00 1.96740E+00 2.25000E+00
 -1        21 4.74999E-01 2.38798E+00 2.25000E+00
 -1        22 2.02443E+00 1.35268E+00 2.25000E+00
 -1        23 3.39925E+00 4.07100E+00 2.25000E+00
 -1        24 2.38798E+00 4.74999E-01 2.25000E+00
 -1        25 2.32070E+00 4.61617E-01 2.25000E+00
 -1        26 2.38798E+00-4.74999E-01 2.25000E+00
 -1        27 5.28227E+00 4.74999E-01 2.25000E+00
 -1        28 5.28227E+00-4.74999E-01 2.25000E+00
 -1        29 1.10957E+01 4.74999E-01 2.25000E+00
 -1        30 8.13414E+00 4.74999E-01 2.25000E+00
 -1        31 3.55164E+00-7.33319E+00 2.25000E+00
 -1        32 5.41583E+00 6.08758E+00 2.25000E+00
 -1        33 7.87852E+00 2.23512E+00 2.25000E+00
 -1        34 7.15142E+00 3.99049E+00 2.25000E+00
 -1        35 5.06195E+00 1.58259E+00 2.25000E+00
 -1        36 6.42346E+00 5.07995E+00 2.25000E+00
 -1        37 1.58259E+00-5.06195E+00 2.25000E+00
 -1        38 2.46028E+00-4.69840E+00 2.25000E+00
 -1        39 2.67396E+00-7.69674E+00 2.25000E+00
 -1        40 1.35268E+00-2.02443E+00 2.25000E+00
 -1        41 4.74999E-01-2.38798E+00 2.25000E+00
 -1        42-4.74999E-01-2.38798E+00 2.25000E+00
 -1        43-4.74999E-01-5.28227E+00 2.25000E+00
 -1        44 4.69840E+00-2.46028E+00 2.25000E+00
 -1        45 1.96740E+00-1.31457E+00 2.25000E+00
 -1        46 7.69674E+00-2.67396E+00 2.25000E+00
 -1        47 5.06195E+00-1.58259E+00 2.25000E+00
 -1        48 7.33319E+00-3.55164E+00 2.25000E+00
 -1        49 3.39925E+00-4.07100E+00 2.25000E+00
 -1        50 2.02443E+00-1.35268E+00 2.25000E+00
 -1        51 4.07100E+00-3.39925E+00 2.25000E+00
 -1        52 5.41583E+00-6.08758E+00 2.25000E+00
 -1        53 5.07995E+00-6.42346E+00 2.25000E+00
 -1        54 6.08758E+00-5.41583E+00 2.25000E+00
 -1        55 7.50997E+00-8.18172E+00 2.25000E+00
 -1        56-4.74999E-01-8.13414E+00 2.25000E+00
 -1        57-1.35268E+00-2.02443E+00 2.25000E+00
 -1        58-3.55164E+00-7.33319E+00 2.25000E+00
 -1        59-2.67396E+00-7.69674E+00 2.25000E+00
 -1        60-3.80730E+00-1.04329E+01 2.25000E+00
 -1        61-4.68498E+00-1.00693E+01 2.25000E+00
 -1        62-9.50000E-01 8.13414E+00 2.25000E+00
 -1        63-9.50000E-01 5.28227E+00 2.25000E+00
 -1        64-4.74999E-01 5.28227E+00 2.25000E+00
 -1        65 4.74999E-01 1.10957E+01 2.25000E+00
 -1        66-4.74999E-01 8.13414E+00 2.25000E+00
 -1        67 4.61617E-01 2.32070E+00 2.25000E+00
 -1        68-4.74999E-01 2.38798E+00 2.25000E+00
 -1        69-1.31457E+00 1.96740E+00 2.25000E+00
 -1        70-1.58259E+00 5.06195E+00 2.25000E+00
 -1        71-2.67396E+00 7.69674E+00 2.25000E+00
 -1        72-3.80730E+00 1.04329E+01 2.25000E+00
 -1        73-4.68498E+00 1.00693E+01 2.25000E+00
 -1        74 4.74999E-01 8.13414E+00 2.25000E+00
 -1        75 9.50000E-01-8.13414E+00 2.25000E+00
 -1        76 9.50000E-01-5.28227E+00 2.25000E+00
 -1        77-1.96740E+00-1.31457E+00 2.25000E+00
 -1        78-3.39925E+00-4.07100E+00 2.25000E+00
 -1        79-4.07100E+00-3.39925E+00 2.25000E+00
 -1        80-1.35268E+00 2.02443E+00 2.25000E+00
 -1        81-2.02443E+00 1.35268E+00 2.25000E+00
 -1        82-3.39925E+00 4.07100E+00 2.25000E+00
 -1        83-3.06338E+00-4.40688E+00 2.25000E+00
 -1        84-5.07995E+00-6.42346E+00 2.25000E+00
 -1        85-6.08758E+00-5.41583E+00 2.25000E+00
 -1        86-4.69840E+00-2.46028E+00 2.25000E+00
 -1        87-5.06195E+00-1.58259E+00 2.25000E+00
 -1        88-5.24373E+00-1.14375E+00 2.25000E+00
 -1        89-7.33319E+00-3.55164E+00 2.25000E+00
 -1        90-7.69674E+00-2.67396E+00 2.25000E+00
 -1        91-1.00693E+01 4.68498E+00 2.25000E+00
 -1        92-1.04329E+01 3.80730E+00 2.25000E+00
 -1        93-8.18172E+00 7.50997E+00 2.25000E+00
 -1        94-8.13414E+00 4.74999E-01 2.25000E+00
 -1        95-8.13414E+00-9.50000E-01 2.25000E+00
 -1        96-7.50997E+00-8.18172E+00 2.25000E+00
 -1        97-1.00693E+01-4.68498E+00 2.25000E+00
 -1        98 1.10957E+01-4.74999E-01 5.00000E-01
 -1        99 8.13414E+00 4.74999E-01 5.00000E-01
 -1       100 5.28227E+00 4.74999E-01 5.00000E-01
 -1       101 2.38798E+00-4.74999E-01 5.00000E-01
 -1       102 1.10957E+01-4.74999E-01 2.25000E+00
 -1       103 5.28227E+00 9.50000E-01 2.25000E+00
 -1       104 8.13414E+00-4.74999E-01 5.00000E-01
 -1       105 8.13414E+00-4.74999E-01 2.25000E+00
 -1       106 5.28227E+00-9.50000E-01 5.00000E-01
 -1       107 5.28227E+00-9.50000E-01 2.25000E+00
 -1       108 8.13414E+00-9.50000E-01 2.25000E+00
 -1       109 8.13414E+00 9.50000E-01 5.00000E-01
 -1       110 8.13414E+00 9.50000E-01 2.25000E+00
 -1       111 1.96740E+00 1.31457E+00 2.25000E+00
 -1       112 2.32070E+00 4.61617E-01 5.00000E-01
 -1       113 1.04329E+01 3.80730E+00 2.25000E+00
 -1       114 7.33319E+00 3.55164E+00 2.25000E+00
 -1       115 1.00693E+01 4.68498E+00 2.25000E+00
 -1       116 7.33319E+00 3.55164E+00 5.00000E-01
 -1       117 4.69840E+00 2.46028E+00 2.25000E+00
 -1       118 7.69674E+00 2.67396E+00 2.25000E+00
 -1       119 5.06195E+00 1.58259E+00 5.00000E-01
 -1       120 4.51663E+00 2.89912E+00 2.25000E+00
 -1       121 4.51663E+00 2.89912E+00 5.00000E-01
 -1       122 7.69674E+00 2.67396E+00 5.00000E-01
 -1       123 5.24373E+00 1.14375E+00 2.25000E+00
 -1       124 7.15142E+00 3.99049E+00 5.00000E-01
 -1       125 7.50997E+00 8.18172E+00 5.00000E-01
 -1       126 5.41583E+00 6.08758E+00 5.00000E-01
 -1       127 7.50997E+00 8.18172E+00 2.25000E+00
 -1       128 1.35268E+00 2.02443E+00 5.00000E-01
 -1       129 8.18172E+00 7.50997E+00 2.25000E+00
 -1       130 6.08758E+00 5.41583E+00 2.25000E+00
 -1       131 4.07100E+00 3.39925E+00 2.25000E+00
 -1       132 4.07100E+00 3.39925E+00 5.00000E-01
 -1       133 3.39925E+00 4.07100E+00 5.00000E-01
 -1       134 5.07995E+00 6.42346E+00 5.00000E-01
 -1       135 6.42346E+00 5.07995E+00 5.00000E-01
 -1       136 4.40688E+00 3.06338E+00 2.25000E+00
 -1       137 3.06338E+00 4.40688E+00 2.25000E+00
 -1       138 5.07995E+00 6.42346E+00 2.25000E+00
 -1       139 3.06338E+00 4.40688E+00 5.00000E-01
 -1       140 4.61617E-01 2.32070E+00 5.00000E-01
 -1       141 3.80730E+00 1.04329E+01 2.25000E+00
 -1       142 3.80730E+00 1.04329E+01 5.00000E-01
 -1       143 2.67396E+00 7.69674E+00 2.25000E+00
 -1       144 2.46028E+00 4.69840E+00 5.00000E-01
 -1       145 1.35268E+00 2.02443E+00 2.25000E+00
 -1       146 2.89912E+00 4.51663E+00 2.25000E+00
 -1       147 3.55164E+00 7.33319E+00 2.25000E+00
 -1       148 3.99049E+00 7.15142E+00 2.25000E+00
 -1       149 3.55164E+00 7.33319E+00 5.00000E-01
 -1       150 2.67396E+00 7.69674E+00 5.00000E-01
 -1       151 3.99049E+00 7.15142E+00 5.00000E-01
 -1       152 2.23512E+00 7.87852E+00 2.25000E+00
 -1       153-4.61617E-01 2.32070E+00 5.00000E-01
 -1       154-4.61617E-01 2.32070E+00 2.25000E+00
 -1       155-4.74999E-01 1.10957E+01 2.25000E+00
 -1       156-4.74999E-01 8.13414E+00 5.00000E-01
 -1       157-4.74999E-01 5.28227E+00 5.00000E-01
 -1       158 4.74999E-01 5.28227E+00 5.00000E-01
 -1       159 4.74999E-01 5.28227E+00 2.25000E+00
 -1       160 9.50000E-01 5.28227E+00 2.25000E+00
 -1       161 9.50000E-01 8.13414E+00 2.25000E+00
 -1       162-4.68498E+00 1.00693E+01 5.00000E-01
 -1       163-3.55164E+00 7.33319E+00 5.00000E-01
 -1       164-3.55164E+00 7.33319E+00 2.25000E+00
 -1       165-2.46028E+00 4.69840E+00 2.25000E+00
 -1       166-2.89912E+00 4.51663E+00 5.00000E-01
 -1       167-1.14375E+00 5.24373E+00 2.25000E+00
 -1       168-3.99049E+00 7.15142E+00 2.25000E+00
 -1       169-1.96740E+00 1.31457E+00 2.25000E+00
 -1       170-3.39925E+00 4.07100E+00 5.00000E-01
 -1       171-1.35268E+00 2.02443E+00 5.00000E-01
 -1       172-7.50997E+00 8.18172E+00 2.25000E+00
 -1       173-4.07100E+00 3.39925E+00 2.25000E+00
 -1       174-4.40688E+00 3.06338E+00 2.25000E+00
 -1       175-5.41583E+00 6.08758E+00 5.00000E-01
 -1       176-3.06338E+00 4.40688E+00 2.25000E+00
 -1       177-5.07995E+00 6.42346E+00 2.25000E+00
 -1       178-5.07995E+00 6.42346E+00 5.00000E-01
 -1       179-6.42346E+00 5.07995E+00 2.25000E+00
 -1       180-1.96740E+00 1.31457E+00 5.00000E-01
 -1       181-2.32070E+00 4.61617E-01 2.25000E+00
 -1       182-2.32070E+00 4.61617E-01 5.00000E-01
 -1       183-7.69674E+00 2.67396E+00 5.00000E-01
 -1       184-5.06195E+00 1.58259E+00 5.00000E-01
 -1       185-4.69840E+00 2.46028E+00 5.00000E-01
 -1       186-5.24373E+00 1.14375E+00 5.00000E-01
 -1       187-7.33319E+00 3.55164E+00 5.00000E-01
 -1       188-7.33319E+00 3.55164E+00 2.25000E+00
 -1       189-4.51663E+00 2.89912E+00 2.25000E+00
 -1       190-7.15142E+00 3.99049E+00 5.00000E-01
 -1       191-7.87852E+00 2.23512E+00 5.00000E-01
 -1       192-1.10957E+01-4.74999E-01 2.25000E+00
 -1       193-5.28227E+00-4.74999E-01 5.00000E-01
 -1       194-5.28227E+00-4.74999E-01 2.25000E+00
 -1       195-2.38798E+00-4.74999E-01 2.25000E+00
 -1       196-2.38798E+00 4.74999E-01 5.00000E-01
 -1       197-8.13414E+00 4.74999E-01 5.00000E-01
 -1       198-1.10957E+01 4.74999E-01 2.25000E+00
 -1       199-5.28227E+00 9.50000E-01 5.00000E-01
 -1       200-5.28227E+00-9.50000E-01 2.25000E+00
 -1       201-8.13414E+00-4.74999E-01 5.00000E-01
 -1       202-8.13414E+00-4.74999E-01 2.25000E+00
 -1       203-5.28227E+00 9.50000E-01 2.25000E+00
 -1       204-8.13414E+00 9.50000E-01 2.25000E+00
 -1       205-2.32070E+00-4.61617E-01 5.00000E-01
 -1       206-1.04329E+01-3.80730E+00 2.25000E+00
 -1       207-2.02443E+00-1.35268E+00 2.25000E+00
 -1       208-4.69840E+00-2.46028E+00 5.00000E-01
 -1       209-5.24373E+00-1.14375E+00 5.00000E-01
 -1       210-7.87852E+00-2.23512E+00 5.00000E-01
 -1       211-7.69674E+00-2.67396E+00 5.00000E-01
 -1       212-7.15142E+00-3.99049E+00 2.25000E+00
 -1       213-7.87852E+00-2.23512E+00 2.25000E+00
 -1       214-4.51663E+00-2.89912E+00 2.25000E+00
 -1       215-8.18172E+00-7.50997E+00 2.25000E+00
 -1       216-5.41583E+00-6.08758E+00 5.00000E-01
 -1       217-7.50997E+00-8.18172E+00 5.00000E-01
 -1       218-4.40688E+00-3.06338E+00 5.00000E-01
 -1       219-4.07100E+00-3.39925E+00 5.00000E-01
 -1       220-3.39925E+00-4.07100E+00 5.00000E-01
 -1       221-6.42346E+00-5.07995E+00 2.25000E+00
 -1       222-6.08758E+00-5.41583E+00 5.00000E-01
 -1       223-5.41583E+00-6.08758E+00 2.25000E+00
 -1       224-4.40688E+00-3.06338E+00 2.25000E+00
 -1       225-1.31457E+00-1.96740E+00 2.25000E+00
 -1       226-1.58259E+00-5.06195E+00 2.25000E+00
 -1       227-1.58259E+00-5.06195E+00 5.00000E-01
 -1       228-2.46028E+00-4.69840E+00 5.00000E-01
 -1       229-1.35268E+00-2.02443E+00 5.00000E-01
 -1       230-2.46028E+00-4.69840E+00 2.25000E+00
 -1       231-3.99049E+00-7.15142E+00 2.25000E+00
 -1       232-3.55164E+00-7.33319E+00 5.00000E-01
 -1       233-2.67396E+00-7.69674E+00 5.00000E-01
 -1       234-1.14375E+00-5.24373E+00 2.25000E+00
 -1       235-2.23512E+00-7.87852E+00 2.25000E+00
 -1       236 4.61617E-01-2.32070E+00 2.25000E+00
 -1       237-4.61617E-01-2.32070E+00 2.25000E+00
 -1       238 4.74999E-01-1.10957E+01 2.25000E+00
 -1       239-4.74999E-01-1.10957E+01 2.25000E+00
 -1       240 4.74999E-01-5.28227E+00 2.25000E+00
 -1       241 4.74999E-01-2.38798E+00 5.00000E-01
 -1       242-4.74999E-01-1.10957E+01 5.00000E-01
 -1       243-4.74999E-01-5.28227E+00 5.00000E-01
 -1       244 4.74999E-01-5.28227E+00 5.00000E-01
 -1       245-9.50000E-01-8.13414E+00 5.00000E-01
 -1       246-9.50000E-01-8.13414E+00 2.25000E+00
 -1       247 4.74999E-01-8.13414E+00 2.25000E+00
 -1       248 4.74999E-01-8.13414E+00 5.00000E-01
 -1       249 9.50000E-01-8.13414E+00 5.00000E-01
 -1       250-9.50000E-01-5.28227E+00 2.25000E+00
 -1       251 3.80730E+00-1.04329E+01 2.25000E+00
 -1       252 4.68498E+00-1.00693E+01 2.25000E+00
 -1       253 1.35268E+00-2.02443E+00 5.00000E-01
 -1       254 1.58259E+00-5.06195E+00 5.00000E-01
 -1       255 2.89912E+00-4.51663E+00 5.00000E-01
 -1       256 2.89912E+00-4.51663E+00 2.25000E+00
 -1       257 2.23512E+00-7.87852E+00 2.25000E+00
 -1       258 2.67396E+00-7.69674E+00 5.00000E-01
 -1       259 3.55164E+00-7.33319E+00 5.00000E-01
 -1       260 3.99049E+00-7.15142E+00 2.25000E+00
 -1       261 3.99049E+00-7.15142E+00 5.00000E-01
 -1       262 1.14375E+00-5.24373E+00 2.25000E+00
 -1       263 1.31457E+00-1.96740E+00 2.25000E+00
 -1       264 8.18172E+00-7.50997E+00 2.25000E+00
 -1       265 6.08758E+00-5.41583E+00 5.00000E-01
 -1       266 5.41583E+00-6.08758E+00 5.00000E-01
 -1       267 4.07100E+00-3.39925E+00 5.00000E-01
 -1       268 4.40688E+00-3.06338E+00 2.25000E+00
 -1       269 3.06338E+00-4.40688E+00 2.25000E+00
 -1       270 3.06338E+00-4.40688E+00 5.00000E-01
 -1       271 6.42346E+00-5.07995E+00 2.25000E+00
 -1       272 6.42346E+00-5.07995E+00 5.00000E-01
 -1       273 1.04329E+01-3.80730E+00 2.25000E+00
 -1       274 1.04329E+01-3.80730E+00 5.00000E-01
 -1       275 1.00693E+01-4.68498E+00 2.25000E+00
 -1       276 7.69674E+00-2.67396E+00 5.00000E-01
 -1       277 2.02443E+00-1.35268E+00 5.00000E-01
 -1       278 4.51663E+00-2.89912E+00 5.00000E-01
 -1       279 4.69840E+00-2.46028E+00 5.00000E-01
 -1       280 4.51663E+00-2.89912E+00 2.25000E+00
 -1       281 5.24373E+00-1.14375E+00 2.25000E+00
 -1       282 5.06195E+00-1.58259E+00 5.00000E-01
 -1       283 7.15142E+00-3.99049E+00 2.25000E+00
 -1       284 7.87852E+00-2.23512E+00 5.00000E-01
 -1       285 7.87852E+00-2.23512E+00 2.25000E+00
 -1       286 1.50000E+01 0.00000E+00-5.00000E-01
 -1       287-1.47118E+01 2.92635E+00 5.00000E-01
 -1       288 0.00000E+00 1.50000E+01 5.00000E-01
 -1       289 0.00000E+00 1.50000E+01-5.00000E-01
 -1       290-2.92635E+00-1.47118E+01-5.00000E-01
 -1       291 0.00000E+00-1.50000E+01 5.00000E-01
 -1       292-8.33355E+00 1.24720E+01-5.00000E-01
 -1       293-1.06066E+01 1.06066E+01-5.00000E-01
 -1       294-5.74025E+00 1.38582E+01 5.00000E-01
 -1       295-5.74025E+00 1.38582E+01-5.00000E-01
 -1       296 1.24720E+01-8.33355E+00-5.00000E-01
 -1       297 1.24720E+01 8.33355E+00-5.00000E-01
 -1       298 8.33355E+00-1.24720E+01-5.00000E-01
 -1       299 8.33355E+00 1.24720E+01-5.00000E-01
 -1       300 5.74025E+00-1.38582E+01-5.00000E-01
 -1       301 5.74025E+00 1.38582E+01-5.00000E-01
 -1       302 2.92635E+00 1.47118E+01-5.00000E-01
 -1       303 0.00000E+00-1.50000E+01-5.00000E-01
 -1       304-2.92635E+00 1.47118E+01-5.00000E-01
 -1       305-8.33355E+00-1.24720E+01-5.00000E-01
 -1       306-1.47118E+01-2.92635E+00-5.00000E-01
 -1       307 1.38582E+01 5.74025E+00 5.00000E-01
 -1       308 1.38582E+01 5.74025E+00-5.00000E-01
 -1       309 1.47118E+01 2.92635E+00 5.00000E-01
 -1       310 1.47118E+01 2.92635E+00-5.00000E-01
 -1       311 1.06066E+01 1.06066E+01-5.00000E-01
 -1       312-1.38582E+01 5.74025E+00-5.00000E-01
 -1       313-1.24720E+01 8.33355E+00-5.00000E-01
 -1       314-1.38582E+01 5.74025E+00 5.00000E-01
 -1       315-1.47118E+01 2.92635E+00-5.00000E-01
 -1       316-2.38798E+00-4.74999E-01 5.00000E-01
 -1       317-5.06195E+00-1.58259E+00 5.00000E-01
 -1       318-5.28227E+00-9.50000E-01 5.00000E-01
 -1       319-2.02443E+00-1.35268E+00 5.00000E-01
 -1       320-4.51663E+00-2.89912E+00 5.00000E-01
 -1       321-6.42346E+00-5.07995E+00 5.00000E-01
 -1       322-3.06338E+00-4.40688E+00 5.00000E-01
 -1       323-2.89912E+00-4.51663E+00 5.00000E-01
 -1       324-3.99049E+00-7.15142E+00 5.00000E-01
 -1       325-4.68498E+00-1.00693E+01 5.00000E-01
 -1       326-3.99049E+00 7.15142E+00 5.00000E-01
 -1       327-2.46028E+00 4.69840E+00 5.00000E-01
 -1       328-3.06338E+00 4.40688E+00 5.00000E-01
 -1       329-4.74999E-01-2.38798E+00 5.00000E-01
 -1       330-9.50000E-01-5.28227E+00 5.00000E-01
 -1       331-4.74999E-01-8.13414E+00 5.00000E-01
 -1       332 9.50000E-01-5.28227E+00 5.00000E-01
 -1       333 3.39925E+00-4.07100E+00 5.00000E-01
 -1       334 2.46028E+00-4.69840E+00 5.00000E-01
 -1       335 4.40688E+00-3.06338E+00 5.00000E-01
 -1       336 5.28227E+00-4.74999E-01 5.00000E-01
 -1       337 5.24373E+00-1.14375E+00 5.00000E-01
 -1       338 1.04329E+01 3.80730E+00 5.00000E-01
 -1       339 1.06066E+01 1.06066E+01 5.00000E-01
 -1       340 8.33355E+00 1.24720E+01 5.00000E-01
 -1       341 5.74025E+00 1.38582E+01 5.00000E-01
 -1       342 2.92635E+00 1.47118E+01 5.00000E-01
 -1       343 4.74999E-01 1.10957E+01 5.00000E-01
 -1       344 2.23512E+00 7.87852E+00 5.00000E-01
 -1       345-9.50000E-01 8.13414E+00 5.00000E-01
 -1       346-9.50000E-01 5.28227E+00 5.00000E-01
 -1       347-1.14375E+00 5.24373E+00 5.00000E-01
 -1       348-4.74999E-01 1.10957E+01 5.00000E-01
 -1       349-2.23512E+00 7.87852E+00 5.00000E-01
 -1       350-3.80730E+00 1.04329E+01 5.00000E-01
 -1       351-2.67396E+00 7.69674E+00 5.00000E-01
 -1       352-8.33355E+00 1.24720E+01 5.00000E-01
 -1       353 8.18172E+00 7.50997E+00 5.00000E-01
 -1       354 6.08758E+00 5.41583E+00 5.00000E-01
 -1       355 1.50000E+01 0.00000E+00 5.00000E-01
 -1       356 1.00693E+01 4.68498E+00 5.00000E-01
 -1       357 1.24720E+01 8.33355E+00 5.00000E-01
 -1       358 1.47118E+01-2.92635E+00 5.00000E-01
 -1       359 1.10957E+01 4.74999E-01 5.00000E-01
 -1       360 8.13414E+00-9.50000E-01 5.00000E-01
 -1       361 1.24720E+01-8.33355E+00 5.00000E-01
 -1       362 1.06066E+01-1.06066E+01 5.00000E-01
 -1       363 1.00693E+01-4.68498E+00 5.00000E-01
 -1       364 7.33319E+00-3.55164E+00 5.00000E-01
 -1       365 8.18172E+00-7.50997E+00 5.00000E-01
 -1       366 7.15142E+00-3.99049E+00 5.00000E-01
 -1       367 5.07995E+00-6.42346E+00 5.00000E-01
 -1       368 7.50997E+00-8.18172E+00 5.00000E-01
 -1       369 4.68498E+00-1.00693E+01 5.00000E-01
 -1       370 2.23512E+00-7.87852E+00 5.00000E-01
 -1       371 1.14375E+00-5.24373E+00 5.00000E-01
 -1       372 3.80730E+00-1.04329E+01 5.00000E-01
 -1       373 2.92635E+00-1.47118E+01 5.00000E-01
 -1       374 4.74999E-01-1.10957E+01 5.00000E-01
 -1       375-2.23512E+00-7.87852E+00 5.00000E-01
 -1       376-1.14375E+00-5.24373E+00 5.00000E-01
 -1       377-3.80730E+00-1.04329E+01 5.00000E-01
 -1       378-2.92635E+00-1.47118E+01 5.00000E-01
 -1       379-5.07995E+00-6.42346E+00 5.00000E-01
 -1       380 5.28227E+00 9.50000E-01 5.00000E-01
 -1       381 5.24373E+00 1.14375E+00 5.00000E-01
 -1       382 7.87852E+00 2.23512E+00 5.00000E-01
 -1       383 2.38798E+00 4.74999E-01 5.00000E-01
 -1       384 4.40688E+00 3.06338E+00 5.00000E-01
 -1       385 4.68498E+00 1.00693E+01 5.00000E-01
 -1       386 2.89912E+00 4.51663E+00 5.00000E-01
 -1       387 2.02443E+00 1.35268E+00 5.00000E-01
 -1       388 4.69840E+00 2.46028E+00 5.00000E-01
 -1       389 9.50000E-01 5.28227E+00 5.00000E-01
 -1       390 1.14375E+00 5.24373E+00 5.00000E-01
 -1       391 4.74999E-01 2.38798E+00 5.00000E-01
 -1       392 1.58259E+00 5.06195E+00 5.00000E-01
 -1       393 9.50000E-01 8.13414E+00 5.00000E-01
 -1       394 4.74999E-01 8.13414E+00 5.00000E-01
 -1       395-4.74999E-01 2.38798E+00 5.00000E-01
 -1       396-1.58259E+00 5.06195E+00 5.00000E-01
 -1       397-8.18172E+00-7.50997E+00 5.00000E-01
 -1       398-7.33319E+00-3.55164E+00 5.00000E-01
 -1       399-7.15142E+00-3.99049E+00 5.00000E-01
 -1       400-1.00693E+01-4.68498E+00 5.00000E-01
 -1       401-1.04329E+01-3.80730E+00 5.00000E-01
 -1       402-6.08758E+00 5.41583E+00 5.00000E-01
 -1       403-8.18172E+00 7.50997E+00 5.00000E-01
 -1       404-6.42346E+00 5.07995E+00 5.00000E-01
 -1       405-7.50997E+00 8.18172E+00 5.00000E-01
 -1       406-1.06066E+01 1.06066E+01 5.00000E-01
 -1       407-1.24720E+01 8.33355E+00 5.00000E-01
 -1       408-1.00693E+01 4.68498E+00 5.00000E-01
 -1       409-4.07100E+00 3.39925E+00 5.00000E-01
 -1       410-2.02443E+00 1.35268E+00 5.00000E-01
 -1       411-4.40688E+00 3.06338E+00 5.00000E-01
 -1       412-4.51663E+00 2.89912E+00 5.00000E-01
 -1       413-1.04329E+01 3.80730E+00 5.00000E-01
 -1       414-8.13414E+00 9.50000E-01 5.00000E-01
 -1       415-5.28227E+00 4.74999E-01 5.00000E-01
 -1       416-8.13414E+00-9.50000E-01 5.00000E-01
 -1       417-1.10957E+01 4.74999E-01 5.00000E-01
 -1       418-1.24720E+01-8.33355E+00 5.00000E-01
 -1       419-1.10957E+01-4.74999E-01 5.00000E-01
 -1       420-1.50000E+01 0.00000E+00 5.00000E-01
 -1       421 1.96740E+00 1.31457E+00 5.00000E-01
 -1       422 2.32070E+00-4.61617E-01 5.00000E-01
 -1       423 1.96740E+00-1.31457E+00 5.00000E-01
 -1       424 1.31457E+00 1.96740E+00 5.00000E-01
 -1       425 4.61617E-01-2.32070E+00 5.00000E-01
 -1       426 1.31457E+00-1.96740E+00 5.00000E-01
 -1       427-4.61617E-01-2.32070E+00 5.00000E-01
 -1       428-1.31457E+00-1.96740E+00 5.00000E-01
 -1       429-1.31457E+00 1.96740E+00 5.00000E-01
 -1       430-1.96740E+00-1.31457E+00 5.00000E-01
 -1       431-2.92635E+00 1.47118E+01 5.00000E-01
 -1       432 8.33355E+00-1.24720E+01 5.00000E-01
 -1       433-1.38582E+01-5.74025E+00-5.00000E-01
 -1       434-1.38582E+01-5.74025E+00 5.00000E-01
 -1       435-1.24720E+01-8.33355E+00-5.00000E-01
 -1       436-1.06066E+01-1.06066E+01-5.00000E-01
 -1       437-1.06066E+01-1.06066E+01 5.00000E-01
 -1       438-1.50000E+01 0.00000E+00-5.00000E-01
 -1       439 5.74025E+00-1.38582E+01 5.00000E-01
 -1       440 2.92635E+00-1.47118E+01-5.00000E-01
 -1       441 1.06066E+01-1.06066E+01-5.00000E-01
 -1       442-5.74025E+00-1.38582E+01 5.00000E-01
 -1       443-8.33355E+00-1.24720E+01 5.00000E-01
 -1       444-5.74025E+00-1.38582E+01-5.00000E-01
 -1       445-1.47118E+01-2.92635E+00 5.00000E-01
 -1       446 1.47118E+01-2.92635E+00-5.00000E-01
 -1       447 1.38582E+01-5.74025E+00 5.00000E-01
 -1       448 1.38582E+01-5.74025E+00-5.00000E-01
 -1       449 2.32070E+00 4.61617E-01 1.37500E+00
 -1       450 2.32070E+00-4.61617E-01 1.37500E+00
 -1       451-5.83402E+00 3.44480E+00 2.25000E+00
 -1       452-6.56112E+00 1.68944E+00 2.25000E+00
 -1       453-3.44480E+00-5.83402E+00 2.25000E+00
 -1       454-3.44480E+00 5.83402E+00 2.25000E+00
 -1       455-4.07166E+00 5.41517E+00 2.25000E+00
 -1       456-5.41517E+00 4.07166E+00 2.25000E+00
 -1       457-3.83512E+00 4.74999E-01 2.25000E+00
 -1       458-3.83512E+00-4.74999E-01 2.25000E+00
 -1       459-3.36141E+00-1.90648E+00 2.25000E+00
 -1       460-3.72497E+00-1.02879E+00 2.25000E+00
 -1       461-1.68944E+00-6.56112E+00 2.25000E+00
 -1       462-3.36141E+00 1.90648E+00 2.25000E+00
 -1       463-3.72497E+00 1.02879E+00 2.25000E+00
 -1       464-1.68944E+00 6.56112E+00 2.25000E+00
 -1       465 1.68944E+00 6.56112E+00 2.25000E+00
 -1       466 4.11831E+00 8.70125E+00 2.25000E+00
 -1       467 3.24063E+00 9.06482E+00 2.25000E+00
 -1       468 1.90648E+00 3.36141E+00 2.25000E+00
 -1       469 1.02879E+00 3.72497E+00 2.25000E+00
 -1       470 3.44480E+00 5.83402E+00 2.25000E+00
 -1       471 3.04771E+00 2.37597E+00 2.25000E+00
 -1       472 2.37597E+00 3.04771E+00 2.25000E+00
 -1       473 3.72497E+00 1.02879E+00 2.25000E+00
 -1       474 3.36141E+00 1.90648E+00 2.25000E+00
 -1       475 3.83512E+00 4.74999E-01 2.25000E+00
 -1       476 3.83512E+00-4.74999E-01 2.25000E+00
 -1       477 6.70821E+00 9.50000E-01 2.25000E+00
 -1       478 6.70821E+00-9.50000E-01 2.25000E+00
 -1       479 9.61492E+00 4.74999E-01 2.25000E+00
 -1       480 9.61492E+00-4.74999E-01 2.25000E+00
 -1       481 3.44480E+00-5.83402E+00 2.25000E+00
 -1       482 7.13465E+00 6.46290E+00 2.25000E+00
 -1       483 6.46290E+00 7.13465E+00 2.25000E+00
 -1       484 9.06482E+00 3.24063E+00 2.25000E+00
 -1       485 8.70125E+00 4.11831E+00 2.25000E+00
 -1       486 6.56112E+00 1.68944E+00 2.25000E+00
 -1       487 5.83402E+00 3.44480E+00 2.25000E+00
 -1       488 5.41517E+00 4.07166E+00 2.25000E+00
 -1       489 4.07166E+00 5.41517E+00 2.25000E+00
 -1       490 4.11831E+00-8.70125E+00 2.25000E+00
 -1       491 3.24063E+00-9.06482E+00 2.25000E+00
 -1       492 1.90648E+00-3.36141E+00 2.25000E+00
 -1       493 1.02879E+00-3.72497E+00 2.25000E+00
 -1       494 4.74999E-01-3.83512E+00 2.25000E+00
 -1       495-4.74999E-01-3.83512E+00 2.25000E+00
 -1       496 4.74999E-01-9.61492E+00 2.25000E+00
 -1       497-4.74999E-01-9.61492E+00 2.25000E+00
 -1       498 3.72497E+00-1.02879E+00 2.25000E+00
 -1       499 3.36141E+00-1.90648E+00 2.25000E+00
 -1       500 6.56112E+00-1.68944E+00 2.25000E+00
 -1       501 5.83402E+00-3.44480E+00 2.25000E+00
 -1       502 9.06482E+00-3.24063E+00 2.25000E+00
 -1       503 8.70125E+00-4.11831E+00 2.25000E+00
 -1       504 3.04771E+00-2.37597E+00 2.25000E+00
 -1       505 2.37597E+00-3.04771E+00 2.25000E+00
 -1       506 5.41517E+00-4.07166E+00 2.25000E+00
 -1       507 4.07166E+00-5.41517E+00 2.25000E+00
 -1       508 7.13465E+00-6.46290E+00 2.25000E+00
 -1       509 6.46290E+00-7.13465E+00 2.25000E+00
 -1       510 1.68944E+00-6.56112E+00 2.25000E+00
 -1       511-9.50000E-01-6.70821E+00 2.25000E+00
 -1       512-1.02879E+00-3.72497E+00 2.25000E+00
 -1       513-1.90648E+00-3.36141E+00 2.25000E+00
 -1       514-3.24063E+00-9.06482E+00 2.25000E+00
 -1       515-4.11831E+00-8.70125E+00 2.25000E+00
 -1       516-9.50000E-01 6.70821E+00 2.25000E+00
 -1       517 4.74999E-01 9.61492E+00 2.25000E+00
 -1       518 4.74999E-01 3.83512E+00 2.25000E+00
 -1       519-4.74999E-01 3.83512E+00 2.25000E+00
 -1       520-4.74999E-01 9.61492E+00 2.25000E+00
 -1       521-1.02879E+00 3.72497E+00 2.25000E+00
 -1       522-1.90648E+00 3.36141E+00 2.25000E+00
 -1       523-3.24063E+00 9.06482E+00 2.25000E+00
 -1       524-4.11831E+00 8.70125E+00 2.25000E+00
 -1       525 9.50000E-01 6.70821E+00 2.25000E+00
 -1       526 9.50000E-01-6.70821E+00 2.25000E+00
 -1       527-2.37597E+00-3.04771E+00 2.25000E+00
 -1       528-3.04771E+00-2.37597E+00 2.25000E+00
 -1       529-2.37597E+00 3.04771E+00 2.25000E+00
 -1       530-3.04771E+00 2.37597E+00 2.25000E+00
 -1       531-4.07166E+00-5.41517E+00 2.25000E+00
 -1       532-5.41517E+00-4.07166E+00 2.25000E+00
 -1       533-5.83402E+00-3.44480E+00 2.25000E+00
 -1       534-6.56112E+00-1.68944E+00 2.25000E+00
 -1       535-9.61492E+00 4.74999E-01 2.25000E+00
 -1       536-9.61492E+00-4.74999E-01 2.25000E+00
 -1       537-8.70125E+00 4.11831E+00 2.25000E+00
 -1       538-9.06482E+00 3.24063E+00 2.25000E+00
 -1       539-6.46290E+00 7.13465E+00 2.25000E+00
 -1       540-7.13465E+00 6.46290E+00 2.25000E+00
 -1       541-6.70821E+00 9.50000E-01 2.25000E+00
 -1       542-6.70821E+00-9.50000E-01 2.25000E+00
 -1       543-6.46290E+00-7.13465E+00 2.25000E+00
 -1       544-7.13465E+00-6.46290E+00 2.25000E+00
 -1       545-8.70125E+00-4.11831E+00 2.25000E+00
 -1       546-9.06482E+00-3.24063E+00 2.25000E+00
 -1       547 1.10957E+01 4.74999E-01 1.37500E+00
 -1       548 1.10957E+01-4.74999E-01 1.37500E+00
 -1       549 9.61492E+00 4.74999E-01 5.00000E-01
 -1       550 8.13414E+00 4.74999E-01 1.37500E+00
 -1       551 5.28227E+00 4.74999E-01 1.37500E+00
 -1       552 3.83512E+00 4.74999E-01 5.00000E-01
 -1       553 2.38798E+00 4.74999E-01 1.37500E+00
 -1       554 2.38798E+00-4.74999E-01 1.37500E+00
 -1       555 3.83512E+00-4.74999E-01 5.00000E-01
 -1       556 5.28227E+00-4.74999E-01 1.37500E+00
 -1       557 8.13414E+00-4.74999E-01 1.37500E+00
 -1       558 9.61492E+00-4.74999E-01 5.00000E-01
 -1       559 5.28227E+00-9.50000E-01 1.37500E+00
 -1       560 5.28227E+00 9.50000E-01 1.37500E+00
 -1       561 8.13414E+00-9.50000E-01 1.37500E+00
 -1       562 8.13414E+00 9.50000E-01 1.37500E+00
 -1       563 6.70821E+00-9.50000E-01 5.00000E-01
 -1       564 6.70821E+00 9.50000E-01 5.00000E-01
 -1       565 1.96740E+00 1.31457E+00 1.37500E+00
 -1       566 1.00693E+01 4.68498E+00 1.37500E+00
 -1       567 1.04329E+01 3.80730E+00 1.37500E+00
 -1       568 8.70125E+00 4.11831E+00 5.00000E-01
 -1       569 7.33319E+00 3.55164E+00 1.37500E+00
 -1       570 4.69840E+00 2.46028E+00 1.37500E+00
 -1       571 3.36141E+00 1.90648E+00 5.00000E-01
 -1       572 2.02443E+00 1.35268E+00 1.37500E+00
 -1       573 3.72497E+00 1.02879E+00 5.00000E-01
 -1       574 5.06195E+00 1.58259E+00 1.37500E+00
 -1       575 7.69674E+00 2.67396E+00 1.37500E+00
 -1       576 9.06482E+00 3.24063E+00 5.00000E-01
 -1       577 5.24373E+00 1.14375E+00 1.37500E+00
 -1       578 4.51663E+00 2.89912E+00 1.37500E+00
 -1       579 7.87852E+00 2.23512E+00 1.37500E+00
 -1       580 7.15142E+00 3.99049E+00 1.37500E+00
 -1       581 6.56112E+00 1.68944E+00 5.00000E-01
 -1       582 5.83402E+00 3.44480E+00 5.00000E-01
 -1       583 1.31457E+00 1.96740E+00 1.37500E+00
 -1       584 7.50997E+00 8.18172E+00 1.37500E+00
 -1       585 8.18172E+00 7.50997E+00 1.37500E+00
 -1       586 6.46290E+00 7.13465E+00 5.00000E-01
 -1       587 5.41583E+00 6.08758E+00 1.37500E+00
 -1       588 3.39925E+00 4.07100E+00 1.37500E+00
 -1       589 2.37597E+00 3.04771E+00 5.00000E-01
 -1       590 1.35268E+00 2.02443E+00 1.37500E+00
 -1       591 4.07100E+00 3.39925E+00 1.37500E+00
 -1       592 3.04771E+00 2.37597E+00 5.00000E-01
 -1       593 6.08758E+00 5.41583E+00 1.37500E+00
 -1       594 7.13465E+00 6.46290E+00 5.00000E-01
 -1       595 4.40688E+00 3.06338E+00 1.37500E+00
 -1       596 3.06338E+00 4.40688E+00 1.37500E+00
 -1       597 6.42346E+00 5.07995E+00 1.37500E+00
 -1       598 5.07995E+00 6.42346E+00 1.37500E+00
 -1       599 5.41517E+00 4.07166E+00 5.00000E-01
 -1       600 4.07166E+00 5.41517E+00 5.00000E-01
 -1       601 4.61617E-01 2.32070E+00 1.37500E+00
 -1       602 4.68498E+00 1.00693E+01 1.37500E+00
 -1       603 3.80730E+00 1.04329E+01 1.37500E+00
 -1       604 3.24063E+00 9.06482E+00 5.00000E-01
 -1       605 2.67396E+00 7.69674E+00 1.37500E+00
 -1       606 1.58259E+00 5.06195E+00 1.37500E+00
 -1       607 1.02879E+00 3.72497E+00 5.00000E-01
 -1       608 4.74999E-01 2.38798E+00 1.37500E+00
 -1       609 2.46028E+00 4.69840E+00 1.37500E+00
 -1       610 1.90648E+00 3.36141E+00 5.00000E-01
 -1       611 3.55164E+00 7.33319E+00 1.37500E+00
 -1       612 4.11831E+00 8.70125E+00 5.00000E-01
 -1       613 2.89912E+00 4.51663E+00 1.37500E+00
 -1       614 1.14375E+00 5.24373E+00 1.37500E+00
 -1       615 3.99049E+00 7.15142E+00 1.37500E+00
 -1       616 2.23512E+00 7.87852E+00 1.37500E+00
 -1       617 3.44480E+00 5.83402E+00 5.00000E-01
 -1       618 1.68944E+00 6.56112E+00 5.00000E-01
 -1       619-4.61617E-01 2.32070E+00 1.37500E+00
 -1       620 4.74999E-01 1.10957E+01 1.37500E+00
 -1       621-4.74999E-01 1.10957E+01 1.37500E+00
 -1       622-4.74999E-01 9.61492E+00 5.00000E-01
 -1       623-4.74999E-01 8.13414E+00 1.37500E+00
 -1       624-4.74999E-01 5.28227E+00 1.37500E+00
 -1       625-4.74999E-01 3.83512E+00 5.00000E-01
 -1       626-4.74999E-01 2.38798E+00 1.37500E+00
 -1       627 4.74999E-01 5.28227E+00 1.37500E+00
 -1       628 4.74999E-01 3.83512E+00 5.00000E-01
 -1       629 4.74999E-01 8.13414E+00 1.37500E+00
 -1       630 4.74999E-01 9.61492E+00 5.00000E-01
 -1       631 9.50000E-01 5.28227E+00 1.37500E+00
 -1       632-9.50000E-01 5.28227E+00 1.37500E+00
 -1       633 9.50000E-01 8.13414E+00 1.37500E+00
 -1       634-9.50000E-01 8.13414E+00 1.37500E+00
 -1       635 9.50000E-01 6.70821E+00 5.00000E-01
 -1       636-9.50000E-01 6.70821E+00 5.00000E-01
 -1       637-1.31457E+00 1.96740E+00 1.37500E+00
 -1       638-3.80730E+00 1.04329E+01 1.37500E+00
 -1       639-4.68498E+00 1.00693E+01 1.37500E+00
 -1       640-4.11831E+00 8.70125E+00 5.00000E-01
 -1       641-3.55164E+00 7.33319E+00 1.37500E+00
 -1       642-2.46028E+00 4.69840E+00 1.37500E+00
 -1       643-1.90648E+00 3.36141E+00 5.00000E-01
 -1       644-1.35268E+00 2.02443E+00 1.37500E+00
 -1       645-1.58259E+00 5.06195E+00 1.37500E+00
 -1       646-1.02879E+00 3.72497E+00 5.00000E-01
 -1       647-2.67396E+00 7.69674E+00 1.37500E+00
 -1       648-3.24063E+00 9.06482E+00 5.00000E-01
 -1       649-1.14375E+00 5.24373E+00 1.37500E+00
 -1       650-2.89912E+00 4.51663E+00 1.37500E+00
 -1       651-2.23512E+00 7.87852E+00 1.37500E+00
 -1       652-3.99049E+00 7.15142E+00 1.37500E+00
 -1       653-1.68944E+00 6.56112E+00 5.00000E-01
 -1       654-3.44480E+00 5.83402E+00 5.00000E-01
 -1       655-1.96740E+00 1.31457E+00 1.37500E+00
 -1       656-7.50997E+00 8.18172E+00 1.37500E+00
 -1       657-8.18172E+00 7.50997E+00 1.37500E+00
 -1       658-7.13465E+00 6.46290E+00 5.00000E-01
 -1       659-6.08758E+00 5.41583E+00 1.37500E+00
 -1       660-4.07100E+00 3.39925E+00 1.37500E+00
 -1       661-3.04771E+00 2.37597E+00 5.00000E-01
 -1       662-2.02443E+00 1.35268E+00 1.37500E+00
 -1       663-3.39925E+00 4.07100E+00 1.37500E+00
 -1       664-2.37597E+00 3.04771E+00 5.00000E-01
 -1       665-5.41583E+00 6.08758E+00 1.37500E+00
 -1       666-6.46290E+00 7.13465E+00 5.00000E-01
 -1       667-3.06338E+00 4.40688E+00 1.37500E+00
 -1       668-4.40688E+00 3.06338E+00 1.37500E+00
 -1       669-5.07995E+00 6.42346E+00 1.37500E+00
 -1       670-6.42346E+00 5.07995E+00 1.37500E+00
 -1       671-4.07166E+00 5.41517E+00 5.00000E-01
 -1       672-5.41517E+00 4.07166E+00 5.00000E-01
 -1       673-2.32070E+00 4.61617E-01 1.37500E+00
 -1       674-1.00693E+01 4.68498E+00 1.37500E+00
 -1       675-1.04329E+01 3.80730E+00 1.37500E+00
 -1       676-9.06482E+00 3.24063E+00 5.00000E-01
 -1       677-7.69674E+00 2.67396E+00 1.37500E+00
 -1       678-5.06195E+00 1.58259E+00 1.37500E+00
 -1       679-3.72497E+00 1.02879E+00 5.00000E-01
 -1       680-2.38798E+00 4.74999E-01 1.37500E+00
 -1       681-3.36141E+00 1.90648E+00 5.00000E-01
 -1       682-4.69840E+00 2.46028E+00 1.37500E+00
 -1       683-7.33319E+00 3.55164E+00 1.37500E+00
 -1       684-8.70125E+00 4.11831E+00 5.00000E-01
 -1       685-4.51663E+00 2.89912E+00 1.37500E+00
 -1       686-5.24373E+00 1.14375E+00 1.37500E+00
 -1       687-7.15142E+00 3.99049E+00 1.37500E+00
 -1       688-7.87852E+00 2.23512E+00 1.37500E+00
 -1       689-5.83402E+00 3.44480E+00 5.00000E-01
 -1       690-6.56112E+00 1.68944E+00 5.00000E-01
 -1       691-2.32070E+00-4.61617E-01 1.37500E+00
 -1       692-1.10957E+01 4.74999E-01 1.37500E+00
 -1       693-1.10957E+01-4.74999E-01 1.37500E+00
 -1       694-9.61492E+00-4.74999E-01 5.00000E-01
 -1       695-8.13414E+00-4.74999E-01 1.37500E+00
 -1       696-5.28227E+00-4.74999E-01 1.37500E+00
 -1       697-3.83512E+00-4.74999E-01 5.00000E-01
 -1       698-2.38798E+00-4.74999E-01 1.37500E+00
 -1       699-3.83512E+00 4.74999E-01 5.00000E-01
 -1       700-5.28227E+00 4.74999E-01 1.37500E+00
 -1       701-8.13414E+00 4.74999E-01 1.37500E+00
 -1       702-9.61492E+00 4.74999E-01 5.00000E-01
 -1       703-5.28227E+00 9.50000E-01 1.37500E+00
 -1       704-5.28227E+00-9.50000E-01 1.37500E+00
 -1       705-8.13414E+00 9.50000E-01 1.37500E+00
 -1       706-8.13414E+00-9.50000E-01 1.37500E+00
 -1       707-6.70821E+00 9.50000E-01 5.00000E-01
 -1       708-6.70821E+00-9.50000E-01 5.00000E-01
 -1       709-1.96740E+00-1.31457E+00 1.37500E+00
 -1       710-1.04329E+01-3.80730E+00 1.37500E+00
 -1       711-1.00693E+01-4.68498E+00 1.37500E+00
 -1       712-8.70125E+00-4.11831E+00 5.00000E-01
 -1       713-7.33319E+00-3.55164E+00 1.37500E+00
 -1       714-4.69840E+00-2.46028E+00 1.37500E+00
 -1       715-3.36141E+00-1.90648E+00 5.00000E-01
 -1       716-2.02443E+00-1.35268E+00 1.37500E+00
 -1       717-3.72497E+00-1.02879E+00 5.00000E-01
 -1       718-5.06195E+00-1.58259E+00 1.37500E+00
 -1       719-7.69674E+00-2.67396E+00 1.37500E+00
 -1       720-9.06482E+00-3.24063E+00 5.00000E-01
 -1       721-5.24373E+00-1.14375E+00 1.37500E+00
 -1       722-4.51663E+00-2.89912E+00 1.37500E+00
 -1       723-7.87852E+00-2.23512E+00 1.37500E+00
 -1       724-7.15142E+00-3.99049E+00 1.37500E+00
 -1       725-6.56112E+00-1.68944E+00 5.00000E-01
 -1       726-5.83402E+00-3.44480E+00 5.00000E-01
 -1       727-1.31457E+00-1.96740E+00 1.37500E+00
 -1       728-8.18172E+00-7.50997E+00 1.37500E+00
 -1       729-7.50997E+00-8.18172E+00 1.37500E+00
 -1       730-5.41583E+00-6.08758E+00 1.37500E+00
 -1       731-6.46290E+00-7.13465E+00 5.00000E-01
 -1       732-1.35268E+00-2.02443E+00 1.37500E+00
 -1       733-3.39925E+00-4.07100E+00 1.37500E+00
 -1       734-2.37597E+00-3.04771E+00 5.00000E-01
 -1       735-3.04771E+00-2.37597E+00 5.00000E-01
 -1       736-4.07100E+00-3.39925E+00 1.37500E+00
 -1       737-6.08758E+00-5.41583E+00 1.37500E+00
 -1       738-7.13465E+00-6.46290E+00 5.00000E-01
 -1       739-4.40688E+00-3.06338E+00 1.37500E+00
 -1       740-3.06338E+00-4.40688E+00 1.37500E+00
 -1       741-6.42346E+00-5.07995E+00 1.37500E+00
 -1       742-5.07995E+00-6.42346E+00 1.37500E+00
 -1       743-5.41517E+00-4.07166E+00 5.00000E-01
 -1       744-4.07166E+00-5.41517E+00 5.00000E-01
 -1       745-4.61617E-01-2.32070E+00 1.37500E+00
 -1       746-4.68498E+00-1.00693E+01 1.37500E+00
 -1       747-3.80730E+00-1.04329E+01 1.37500E+00
 -1       748-2.67396E+00-7.69674E+00 1.37500E+00
 -1       749-3.24063E+00-9.06482E+00 5.00000E-01
 -1       750-4.74999E-01-2.38798E+00 1.37500E+00
 -1       751-1.58259E+00-5.06195E+00 1.37500E+00
 -1       752-1.02879E+00-3.72497E+00 5.00000E-01
 -1       753-1.90648E+00-3.36141E+00 5.00000E-01
 -1       754-2.46028E+00-4.69840E+00 1.37500E+00
 -1       755-3.55164E+00-7.33319E+00 1.37500E+00
 -1       756-4.11831E+00-8.70125E+00 5.00000E-01
 -1       757-2.89912E+00-4.51663E+00 1.37500E+00
 -1       758-1.14375E+00-5.24373E+00 1.37500E+00
 -1       759-3.99049E+00-7.15142E+00 1.37500E+00
 -1       760-2.23512E+00-7.87852E+00 1.37500E+00
 -1       761-3.44480E+00-5.83402E+00 5.00000E-01
 -1       762-1.68944E+00-6.56112E+00 5.00000E-01
 -1       763 4.61617E-01-2.32070E+00 1.37500E+00
 -1       764-4.74999E-01-1.10957E+01 1.37500E+00
 -1       765 4.74999E-01-1.10957E+01 1.37500E+00
 -1       766 4.74999E-01-8.13414E+00 1.37500E+00
 -1       767 4.74999E-01-9.61492E+00 5.00000E-01
 -1       768 4.74999E-01-2.38798E+00 1.37500E+00
 -1       769 4.74999E-01-5.28227E+00 1.37500E+00
 -1       770 4.74999E-01-3.83512E+00 5.00000E-01
 -1       771-4.74999E-01-3.83512E+00 5.00000E-01
 -1       772-4.74999E-01-5.28227E+00 1.37500E+00
 -1       773-4.74999E-01-8.13414E+00 1.37500E+00
 -1       774-4.74999E-01-9.61492E+00 5.00000E-01
 -1       775-9.50000E-01-5.28227E+00 1.37500E+00
 -1       776 9.50000E-01-5.28227E+00 1.37500E+00
 -1       777-9.50000E-01-8.13414E+00 1.37500E+00
 -1       778 9.50000E-01-8.13414E+00 1.37500E+00
 -1       779-9.50000E-01-6.70821E+00 5.00000E-01
 -1       780 9.50000E-01-6.70821E+00 5.00000E-01
 -1       781 1.31457E+00-1.96740E+00 1.37500E+00
 -1       782 3.80730E+00-1.04329E+01 1.37500E+00
 -1       783 4.68498E+00-1.00693E+01 1.37500E+00
 -1       784 3.55164E+00-7.33319E+00 1.37500E+00
 -1       785 4.11831E+00-8.70125E+00 5.00000E-01
 -1       786 1.35268E+00-2.02443E+00 1.37500E+00
 -1       787 2.46028E+00-4.69840E+00 1.37500E+00
 -1       788 1.90648E+00-3.36141E+00 5.00000E-01
 -1       789 1.02879E+00-3.72497E+00 5.00000E-01
 -1       790 1.58259E+00-5.06195E+00 1.37500E+00
 -1       791 2.67396E+00-7.69674E+00 1.37500E+00
 -1       792 3.24063E+00-9.06482E+00 5.00000E-01
 -1       793 1.14375E+00-5.24373E+00 1.37500E+00
 -1       794 2.89912E+00-4.51663E+00 1.37500E+00
 -1       795 2.23512E+00-7.87852E+00 1.37500E+00
 -1       796 3.99049E+00-7.15142E+00 1.37500E+00
 -1       797 1.68944E+00-6.56112E+00 5.00000E-01
 -1       798 3.44480E+00-5.83402E+00 5.00000E-01
 -1       799 1.96740E+00-1.31457E+00 1.37500E+00
 -1       800 8.18172E+00-7.50997E+00 1.37500E+00
 -1       801 7.50997E+00-8.18172E+00 1.37500E+00
 -1       802 6.08758E+00-5.41583E+00 1.37500E+00
 -1       803 7.13465E+00-6.46290E+00 5.00000E-01
 -1       804 2.02443E+00-1.35268E+00 1.37500E+00
 -1       805 4.07100E+00-3.39925E+00 1.37500E+00
 -1       806 3.04771E+00-2.37597E+00 5.00000E-01
 -1       807 2.37597E+00-3.04771E+00 5.00000E-01
 -1       808 3.39925E+00-4.07100E+00 1.37500E+00
 -1       809 5.41583E+00-6.08758E+00 1.37500E+00
 -1       810 6.46290E+00-7.13465E+00 5.00000E-01
 -1       811 3.06338E+00-4.40688E+00 1.37500E+00
 -1       812 4.40688E+00-3.06338E+00 1.37500E+00
 -1       813 5.07995E+00-6.42346E+00 1.37500E+00
 -1       814 6.42346E+00-5.07995E+00 1.37500E+00
 -1       815 4.07166E+00-5.41517E+00 5.00000E-01
 -1       816 5.41517E+00-4.07166E+00 5.00000E-01
 -1       817 1.04329E+01-3.80730E+00 1.37500E+00
 -1       818 1.00693E+01-4.68498E+00 1.37500E+00
 -1       819 9.06482E+00-3.24063E+00 5.00000E-01
 -1       820 7.69674E+00-2.67396E+00 1.37500E+00
 -1       821 5.06195E+00-1.58259E+00 1.37500E+00
 -1       822 3.72497E+00-1.02879E+00 5.00000E-01
 -1       823 3.36141E+00-1.90648E+00 5.00000E-01
 -1       824 4.69840E+00-2.46028E+00 1.37500E+00
 -1       825 7.33319E+00-3.55164E+00 1.37500E+00
 -1       826 8.70125E+00-4.11831E+00 5.00000E-01
 -1       827 4.51663E+00-2.89912E+00 1.37500E+00
 -1       828 5.24373E+00-1.14375E+00 1.37500E+00
 -1       829 7.15142E+00-3.99049E+00 1.37500E+00
 -1       830 7.87852E+00-2.23512E+00 1.37500E+00
 -1       831 5.83402E+00-3.44480E+00 5.00000E-01
 -1       832 6.56112E+00-1.68944E+00 5.00000E-01
 -1       833 1.48559E+01 1.46318E+00 5.00000E-01
 -1       834 1.48559E+01 1.46318E+00-5.00000E-01
 -1       835-1.48559E+01 1.46318E+00-5.00000E-01
 -1       836-1.48559E+01 1.46318E+00 5.00000E-01
 -1       837 1.46318E+00 1.48559E+01 5.00000E-01
 -1       838 1.46318E+00 1.48559E+01-5.00000E-01
 -1       839-1.46318E+00-1.48559E+01 5.00000E-01
 -1       840-1.46318E+00-1.48559E+01-5.00000E-01
 -1       841 1.15393E+01 9.47007E+00 5.00000E-01
 -1       842 1.15393E+01 9.47007E+00-5.00000E-01
 -1       843-9.47007E+00 1.15393E+01 5.00000E-01
 -1       844-9.47007E+00 1.15393E+01-5.00000E-01
 -1       845-4.33330E+00 1.42850E+01 5.00000E-01
 -1       846-4.33330E+00 1.42850E+01-5.00000E-01
 -1       847 9.47007E+00-1.15393E+01 5.00000E-01
 -1       848 9.47007E+00-1.15393E+01-5.00000E-01
 -1       849 1.48559E+01-1.46318E+00-5.00000E-01
 -1       850 1.42850E+01-4.33330E+00-5.00000E-01
 -1       851 1.42850E+01 4.33330E+00-5.00000E-01
 -1       852 1.31651E+01-7.03690E+00-5.00000E-01
 -1       853 1.31651E+01 7.03690E+00-5.00000E-01
 -1       854 1.15393E+01-9.47007E+00-5.00000E-01
 -1       855 9.47007E+00 1.15393E+01-5.00000E-01
 -1       856 7.03690E+00-1.31651E+01-5.00000E-01
 -1       857 7.03690E+00 1.31651E+01-5.00000E-01
 -1       858 4.33330E+00-1.42850E+01-5.00000E-01
 -1       859 4.33330E+00 1.42850E+01-5.00000E-01
 -1       860 1.46318E+00-1.48559E+01-5.00000E-01
 -1       861-1.46318E+00 1.48559E+01-5.00000E-01
 -1       862-4.33330E+00-1.42850E+01-5.00000E-01
 -1       863-7.03690E+00-1.31651E+01-5.00000E-01
 -1       864-7.03690E+00 1.31651E+01-5.00000E-01
 -1       865-9.47007E+00-1.15393E+01-5.00000E-01
 -1       866-1.15393E+01-9.47007E+00-5.00000E-01
 -1       867-1.15393E+01 9.47007E+00-5.00000E-01
 -1       868-1.31651E+01-7.03690E+00-5.00000E-01
 -1       869-1.31651E+01 7.03690E+00-5.00000E-01
 -1       870-1.42850E+01-4.33330E+00-5.00000E-01
 -1       871-1.42850E+01 4.33330E+00-5.00000E-01
 -1       872-1.48559E+01-1.46318E+00-5.00000E-01
 -1       873 1.31651E+01 7.03690E+00 5.00000E-01
 -1       874 1.42850E+01 4.33330E+00 5.00000E-01
 -1       875 7.03690E+00 1.31651E+01 5.00000E-01
 -1       876 4.33330E+00 1.42850E+01 5.00000E-01
 -1       877 9.47007E+00 1.15393E+01 5.00000E-01
 -1       878-1.31651E+01 7.03690E+00 5.00000E-01
 -1       879-1.15393E+01 9.47007E+00 5.00000E-01
 -1       880-1.42850E+01 4.33330E+00 5.00000E-01
 -1       881-1.46318E+00 1.48559E+01 5.00000E-01
 -1       882-7.03690E+00 1.31651E+01 5.00000E-01
 -1       883 1.48559E+01-1.46318E+00 5.00000E-01
 -1       884 1.42850E+01-4.33330E+00 5.00000E-01
 -1       885 1.31651E+01-7.03690E+00 5.00000E-01
 -1       886 1.15393E+01-9.47007E+00 5.00000E-01
 -1       887 7.03690E+00-1.31651E+01 5.00000E-01
 -1       888 4.33330E+00-1.42850E+01 5.00000E-01
 -1       889 1.46318E+00-1.48559E+01 5.00000E-01
 -1       890-4.33330E+00-1.42850E+01 5.00000E-01
 -1       891-7.03690E+00-1.31651E+01 5.00000E-01
 -1       892-9.47007E+00-1.15393E+01 5.00000E-01
 -1       893-1.15393E+01-9.47007E+00 5.00000E-01
 -1       894-1.31651E+01-7.03690E+00 5.00000E-01
 -1       895-1.42850E+01-4.33330E+00 5.00000E-01
 -1       896-1.48559E+01-1.46318E+00 5.00000E-01
 -1       897-3.71765E+00-6.49272E+00 2.25000E+00
 -1       898-4.57581E+00 5.91931E+00 2.25000E+00
 -1       899-4.55870E+00 4.74999E-01 2.25000E+00
 -1       900-3.11155E+00-4.74999E-01 2.25000E+00
 -1       901-4.39346E+00-1.30569E+00 2.25000E+00
 -1       902-1.41659E+00-5.90243E+00 2.25000E+00
 -1       903-1.96228E+00 7.21982E+00 2.25000E+00
 -1       904 2.95729E+00 8.38078E+00 2.25000E+00
 -1       905 3.71765E+00 6.49272E+00 2.25000E+00
 -1       906 3.55936E+00 2.88761E+00 2.25000E+00
 -1       907 1.86432E+00 2.53607E+00 2.25000E+00
 -1       908 2.69292E+00 1.62958E+00 2.25000E+00
 -1       909 4.55870E+00-4.74999E-01 2.25000E+00
 -1       910 5.99524E+00 9.50000E-01 2.25000E+00
 -1       911 8.87453E+00 4.74999E-01 2.25000E+00
 -1       912 1.03553E+01-4.74999E-01 2.25000E+00
 -1       913 3.17196E+00-5.17533E+00 2.25000E+00
 -1       914 9.74886E+00 3.52396E+00 2.25000E+00
 -1       915 6.49272E+00 3.71765E+00 2.25000E+00
 -1       916 5.17533E+00 3.17196E+00 2.25000E+00
 -1       917 3.56752E+00 4.91103E+00 2.25000E+00
 -1       918 1.30569E+00-4.39346E+00 2.25000E+00
 -1       919 4.74999E-01-3.11155E+00 2.25000E+00
 -1       920-4.74999E-01-1.03553E+01 2.25000E+00
 -1       921 4.02991E+00-2.18338E+00 2.25000E+00
 -1       922 8.38078E+00-2.95729E+00 2.25000E+00
 -1       923 9.38527E+00-4.40165E+00 2.25000E+00
 -1       924 2.53607E+00-1.86432E+00 2.25000E+00
 -1       925 2.88761E+00-3.55936E+00 2.25000E+00
 -1       926 6.61111E+00-5.93936E+00 2.25000E+00
 -1       927 6.98643E+00-7.65819E+00 2.25000E+00
 -1       928 1.41659E+00-5.90243E+00 2.25000E+00
 -1       929 1.96228E+00-7.21982E+00 2.25000E+00
 -1       930-9.50000E-01-7.42117E+00 2.25000E+00
 -1       931 4.74999E-01 4.55870E+00 2.25000E+00
 -1       932-4.74999E-01 3.11155E+00 2.25000E+00
 -1       933-5.91931E+00-4.57581E+00 2.25000E+00
 -1       934-8.38078E+00 2.95729E+00 2.25000E+00
 -1       935-6.98643E+00 7.65819E+00 2.25000E+00
 -1       936-7.42117E+00 9.50000E-01 2.25000E+00
 -1       937-5.93936E+00-6.61111E+00 2.25000E+00
 -1       938-7.65819E+00-6.98643E+00 2.25000E+00
 -1       939-9.74886E+00-3.52396E+00 2.25000E+00
 -1       940 8.87453E+00 4.74999E-01 5.00000E-01
 -1       941 3.11155E+00 4.74999E-01 5.00000E-01
 -1       942 4.55870E+00-4.74999E-01 5.00000E-01
 -1       943 1.03553E+01-4.74999E-01 5.00000E-01
 -1       944 5.99524E+00-9.50000E-01 5.00000E-01
 -1       945 7.42117E+00-9.50000E-01 5.00000E-01
 -1       946 7.42117E+00 9.50000E-01 5.00000E-01
 -1       947 5.99524E+00 9.50000E-01 5.00000E-01
 -1       948 8.01722E+00 3.83498E+00 5.00000E-01
 -1       949 2.69292E+00 1.62958E+00 5.00000E-01
 -1       950 4.39346E+00 1.30569E+00 5.00000E-01
 -1       951 9.74886E+00 3.52396E+00 5.00000E-01
 -1       952 7.21982E+00 1.96228E+00 5.00000E-01
 -1       953 6.49272E+00 3.71765E+00 5.00000E-01
 -1       954 5.17533E+00 3.17196E+00 5.00000E-01
 -1       955 5.93936E+00 6.61111E+00 5.00000E-01
 -1       956 1.86432E+00 2.53607E+00 5.00000E-01
 -1       957 3.55936E+00 2.88761E+00 5.00000E-01
 -1       958 7.65819E+00 6.98643E+00 5.00000E-01
 -1       959 5.91931E+00 4.57581E+00 5.00000E-01
 -1       960 4.57581E+00 5.91931E+00 5.00000E-01
 -1       961 3.56752E+00 4.91103E+00 5.00000E-01
 -1       962 3.52396E+00 9.74886E+00 5.00000E-01
 -1       963 2.95729E+00 8.38078E+00 5.00000E-01
 -1       964 7.51897E-01 3.05647E+00 5.00000E-01
 -1       965 2.18338E+00 4.02991E+00 5.00000E-01
 -1       966 4.40165E+00 9.38527E+00 5.00000E-01
 -1       967 3.17196E+00 5.17533E+00 5.00000E-01
 -1       968 3.71765E+00 6.49272E+00 5.00000E-01
 -1       969 1.96228E+00 7.21982E+00 5.00000E-01
 -1       970 1.41659E+00 5.90243E+00 5.00000E-01
 -1       971-4.74999E-01 8.87453E+00 5.00000E-01
 -1       972-4.74999E-01 3.11155E+00 5.00000E-01
 -1       973 4.74999E-01 4.55870E+00 5.00000E-01
 -1       974 4.74999E-01 1.03553E+01 5.00000E-01
 -1       975 9.50000E-01 5.99524E+00 5.00000E-01
 -1       976 9.50000E-01 7.42117E+00 5.00000E-01
 -1       977-9.50000E-01 7.42117E+00 5.00000E-01
 -1       978-9.50000E-01 5.99524E+00 5.00000E-01
 -1       979-4.40165E+00 9.38527E+00 5.00000E-01
 -1       980-3.83498E+00 8.01722E+00 5.00000E-01
 -1       981-1.62958E+00 2.69292E+00 5.00000E-01
 -1       982-1.30569E+00 4.39346E+00 5.00000E-01
 -1       983-3.52396E+00 9.74886E+00 5.00000E-01
 -1       984-1.41659E+00 5.90243E+00 5.00000E-01
 -1       985-1.96228E+00 7.21982E+00 5.00000E-01
 -1       986-3.71765E+00 6.49272E+00 5.00000E-01
 -1       987-3.17196E+00 5.17533E+00 5.00000E-01
 -1       988-7.65819E+00 6.98643E+00 5.00000E-01
 -1       989-6.61111E+00 5.93936E+00 5.00000E-01
 -1       990-2.53607E+00 1.86432E+00 5.00000E-01
 -1       991-2.88761E+00 3.55936E+00 5.00000E-01
 -1       992-6.98643E+00 7.65819E+00 5.00000E-01
 -1       993-3.56752E+00 4.91103E+00 5.00000E-01
 -1       994-4.57581E+00 5.91931E+00 5.00000E-01
 -1       995-5.91931E+00 4.57581E+00 5.00000E-01
 -1       996-4.91103E+00 3.56752E+00 5.00000E-01
 -1       997-8.38078E+00 2.95729E+00 5.00000E-01
 -1       998-3.05647E+00 7.51897E-01 5.00000E-01
 -1       999-4.02991E+00 2.18338E+00 5.00000E-01
 -1      1000-9.38527E+00 4.40165E+00 5.00000E-01
 -1      1001-5.17533E+00 3.17196E+00 5.00000E-01
 -1      1002-6.49272E+00 3.71765E+00 5.00000E-01
 -1      1003-7.21982E+00 1.96228E+00 5.00000E-01
 -1      1004-5.90243E+00 1.41659E+00 5.00000E-01
 -1      1005-8.87453E+00-4.74999E-01 5.00000E-01
 -1      1006-3.11155E+00-4.74999E-01 5.00000E-01
 -1      1007-4.55870E+00 4.74999E-01 5.00000E-01
 -1      1008-1.03553E+01 4.74999E-01 5.00000E-01
 -1      1009-5.99524E+00 9.50000E-01 5.00000E-01
 -1      1010-7.42117E+00 9.50000E-01 5.00000E-01
 -1      1011-7.42117E+00-9.50000E-01 5.00000E-01
 -1      1012-5.99524E+00-9.50000E-01 5.00000E-01
 -1      1013-9.38527E+00-4.40165E+00 5.00000E-01
 -1      1014-8.01722E+00-3.83498E+00 5.00000E-01
 -1      1015-2.69292E+00-1.62958E+00 5.00000E-01
 -1      1016-4.39346E+00-1.30569E+00 5.00000E-01
 -1      1017-9.74886E+00-3.52396E+00 5.00000E-01
 -1      1018-5.90243E+00-1.41659E+00 5.00000E-01
 -1      1019-7.21982E+00-1.96228E+00 5.00000E-01
 -1      1020-6.49272E+00-3.71765E+00 5.00000E-01
 -1      1021-5.17533E+00-3.17196E+00 5.00000E-01
 -1      1022-6.98643E+00-7.65819E+00 5.00000E-01
 -1      1023-5.93936E+00-6.61111E+00 5.00000E-01
 -1      1024-1.86432E+00-2.53607E+00 5.00000E-01
 -1      1025-3.55936E+00-2.88761E+00 5.00000E-01
 -1      1026-7.65819E+00-6.98643E+00 5.00000E-01
 -1      1027-4.91103E+00-3.56752E+00 5.00000E-01
 -1      1028-5.91931E+00-4.57581E+00 5.00000E-01
 -1      1029-4.57581E+00-5.91931E+00 5.00000E-01
 -1      1030-3.56752E+00-4.91103E+00 5.00000E-01
 -1      1031-2.95729E+00-8.38078E+00 5.00000E-01
 -1      1032-7.51897E-01-3.05647E+00 5.00000E-01
 -1      1033-2.18338E+00-4.02991E+00 5.00000E-01
 -1      1034-4.40165E+00-9.38527E+00 5.00000E-01
 -1      1035-3.17196E+00-5.17533E+00 5.00000E-01
 -1      1036-3.71765E+00-6.49272E+00 5.00000E-01
 -1      1037-1.96228E+00-7.21982E+00 5.00000E-01
 -1      1038-1.41659E+00-5.90243E+00 5.00000E-01
 -1      1039 4.74999E-01-8.87453E+00 5.00000E-01
 -1      1040 4.74999E-01-3.11155E+00 5.00000E-01
 -1      1041-4.74999E-01-4.55870E+00 5.00000E-01
 -1      1042-4.74999E-01-1.03553E+01 5.00000E-01
 -1      1043-9.50000E-01-5.99524E+00 5.00000E-01
 -1      1044-9.50000E-01-7.42117E+00 5.00000E-01
 -1      1045 9.50000E-01-7.42117E+00 5.00000E-01
 -1      1046 9.50000E-01-5.99524E+00 5.00000E-01
 -1      1047 4.40165E+00-9.38527E+00 5.00000E-01
 -1      1048 3.83498E+00-8.01722E+00 5.00000E-01
 -1      1049 1.62958E+00-2.69292E+00 5.00000E-01
 -1      1050 1.30569E+00-4.39346E+00 5.00000E-01
 -1      1051 3.52396E+00-9.74886E+00 5.00000E-01
 -1      1052 1.41659E+00-5.90243E+00 5.00000E-01
 -1      1053 1.96228E+00-7.21982E+00 5.00000E-01
 -1      1054 3.71765E+00-6.49272E+00 5.00000E-01
 -1      1055 3.17196E+00-5.17533E+00 5.00000E-01
 -1      1056 7.65819E+00-6.98643E+00 5.00000E-01
 -1      1057 6.61111E+00-5.93936E+00 5.00000E-01
 -1      1058 2.53607E+00-1.86432E+00 5.00000E-01
 -1      1059 2.88761E+00-3.55936E+00 5.00000E-01
 -1      1060 6.98643E+00-7.65819E+00 5.00000E-01
 -1      1061 3.56752E+00-4.91103E+00 5.00000E-01
 -1      1062 4.57581E+00-5.91931E+00 5.00000E-01
 -1      1063 5.91931E+00-4.57581E+00 5.00000E-01
 -1      1064 4.91103E+00-3.56752E+00 5.00000E-01
 -1      1065 8.38078E+00-2.95729E+00 5.00000E-01
 -1      1066 3.05647E+00-7.51897E-01 5.00000E-01
 -1      1067 4.02991E+00-2.18338E+00 5.00000E-01
 -1      1068 9.38527E+00-4.40165E+00 5.00000E-01
 -1      1069 5.17533E+00-3.17196E+00 5.00000E-01
 -1      1070 6.49272E+00-3.71765E+00 5.00000E-01
 -1      1071 7.21982E+00-1.96228E+00 5.00000E-01
 -1      1072 5.90243E+00-1.41659E+00 5.00000E-01
 -1      1073 1.49279E+01 7.31588E-01 5.00000E-01
 -1      1074 1.49279E+01 7.31588E-01-5.00000E-01
 -1      1075 1.47838E+01 2.19476E+00-5.00000E-01
 -1      1076-1.49279E+01 7.31588E-01-5.00000E-01
 -1      1077 2.19476E+00 1.47838E+01 5.00000E-01
 -1      1078-8.90181E+00 1.20056E+01 5.00000E-01
 -1      1079 1.47838E+01-2.19476E+00-5.00000E-01
 -1      1080 1.40716E+01-5.03678E+00-5.00000E-01
 -1      1081 1.44984E+01 3.62983E+00-5.00000E-01
 -1      1082 1.28186E+01-7.68523E+00-5.00000E-01
 -1      1083 1.28186E+01 7.68523E+00-5.00000E-01
 -1      1084 1.35117E+01 6.38858E+00-5.00000E-01
 -1      1085 1.20056E+01-8.90181E+00-5.00000E-01
 -1      1086 1.10730E+01-1.00383E+01-5.00000E-01
 -1      1087 1.00383E+01 1.10730E+01-5.00000E-01
 -1      1088 7.68523E+00-1.28186E+01-5.00000E-01
 -1      1089 6.38858E+00-1.35117E+01-5.00000E-01
 -1      1090 7.68523E+00 1.28186E+01-5.00000E-01
 -1      1091 3.62983E+00-1.44984E+01-5.00000E-01
 -1      1092 3.62983E+00 1.44984E+01-5.00000E-01
 -1      1093 5.03678E+00 1.40716E+01-5.00000E-01
 -1      1094 2.19476E+00-1.47838E+01-5.00000E-01
 -1      1095 7.31588E-01-1.49279E+01-5.00000E-01
 -1      1096-2.19476E+00 1.47838E+01-5.00000E-01
 -1      1097-7.31588E-01 1.49279E+01-5.00000E-01
 -1      1098-3.62983E+00-1.44984E+01-5.00000E-01
 -1      1099-5.03678E+00-1.40716E+01-5.00000E-01
 -1      1100-7.68523E+00-1.28186E+01-5.00000E-01
 -1      1101-7.68523E+00 1.28186E+01-5.00000E-01
 -1      1102-6.38858E+00 1.35117E+01-5.00000E-01
 -1      1103-1.00383E+01-1.10730E+01-5.00000E-01
 -1      1104-1.20056E+01-8.90181E+00-5.00000E-01
 -1      1105-1.20056E+01 8.90181E+00-5.00000E-01
 -1      1106-1.10730E+01 1.00383E+01-5.00000E-01
 -1      1107-1.35117E+01-6.38858E+00-5.00000E-01
 -1      1108-1.28186E+01 7.68523E+00-5.00000E-01
 -1      1109-1.44984E+01-3.62983E+00-5.00000E-01
 -1      1110-1.40716E+01 5.03678E+00-5.00000E-01
 -1      1111-1.47838E+01-2.19476E+00-5.00000E-01
 -1      1112-1.49279E+01-7.31588E-01-5.00000E-01
 -1      1113 1.35117E+01 6.38858E+00 5.00000E-01
 -1      1114 7.68523E+00 1.28186E+01 5.00000E-01
 -1      1115 1.00383E+01 1.10730E+01 5.00000E-01
 -1      1116-1.10730E+01 1.00383E+01 5.00000E-01
 -1      1117-1.40716E+01 5.03678E+00 5.00000E-01
 -1      1118-2.19476E+00 1.47838E+01 5.00000E-01
 -1      1119-7.68523E+00 1.28186E+01 5.00000E-01
 -1      1120 1.49279E+01-7.31588E-01 5.00000E-01
 -1      1121 1.44984E+01-3.62983E+00 5.00000E-01
 -1      1122 1.35117E+01-6.38858E+00 5.00000E-01
 -1      1123 1.20056E+01-8.90181E+00 5.00000E-01
 -1      1124 7.68523E+00-1.28186E+01 5.00000E-01
 -1      1125 5.03678E+00-1.40716E+01 5.00000E-01
 -1      1126 2.19476E+00-1.47838E+01 5.00000E-01
 -1      1127-3.62983E+00-1.44984E+01 5.00000E-01
 -1      1128-6.38858E+00-1.35117E+01 5.00000E-01
 -1      1129-8.90181E+00-1.20056E+01 5.00000E-01
 -1      1130-1.10730E+01-1.00383E+01 5.00000E-01
 -1      1131-1.28186E+01-7.68523E+00 5.00000E-01
 -1      1132-1.40716E+01-5.03678E+00 5.00000E-01
 -1      1133-1.47838E+01-2.19476E+00 5.00000E-01
 -1      1134-6.49272E+00 3.71765E+00 2.25000E+00
 -1      1135-5.17533E+00 3.17196E+00 2.25000E+00
 -1      1136-5.90243E+00 1.41659E+00 2.25000E+00
 -1      1137-7.21982E+00 1.96228E+00 2.25000E+00
 -1      1138-3.17196E+00-5.17533E+00 2.25000E+00
 -1      1139-3.17196E+00 5.17533E+00 2.25000E+00
 -1      1140-3.71765E+00 6.49272E+00 2.25000E+00
 -1      1141-3.56752E+00 4.91103E+00 2.25000E+00
 -1      1142-4.91103E+00 3.56752E+00 2.25000E+00
 -1      1143-5.91931E+00 4.57581E+00 2.25000E+00
 -1      1144-3.11155E+00 4.74999E-01 2.25000E+00
 -1      1145-4.55870E+00-4.74999E-01 2.25000E+00
 -1      1146-2.69292E+00-1.62958E+00 2.25000E+00
 -1      1147-4.02991E+00-2.18338E+00 2.25000E+00
 -1      1148-3.05647E+00-7.51897E-01 2.25000E+00
 -1      1149-1.96228E+00-7.21982E+00 2.25000E+00
 -1      1150-3.05647E+00 7.51897E-01 2.25000E+00
 -1      1151-4.02991E+00 2.18338E+00 2.25000E+00
 -1      1152-2.69292E+00 1.62958E+00 2.25000E+00
 -1      1153-4.39346E+00 1.30569E+00 2.25000E+00
 -1      1154-1.41659E+00 5.90243E+00 2.25000E+00
 -1      1155 1.41659E+00 5.90243E+00 2.25000E+00
 -1      1156 1.96228E+00 7.21982E+00 2.25000E+00
 -1      1157 4.40165E+00 9.38527E+00 2.25000E+00
 -1      1158 3.83498E+00 8.01722E+00 2.25000E+00
 -1      1159 3.52396E+00 9.74886E+00 2.25000E+00
 -1      1160 7.51897E-01 3.05647E+00 2.25000E+00
 -1      1161 2.18338E+00 4.02991E+00 2.25000E+00
 -1      1162 1.62958E+00 2.69292E+00 2.25000E+00
 -1      1163 1.30569E+00 4.39346E+00 2.25000E+00
 -1      1164 3.17196E+00 5.17533E+00 2.25000E+00
 -1      1165 2.53607E+00 1.86432E+00 2.25000E+00
 -1      1166 2.88761E+00 3.55936E+00 2.25000E+00
 -1      1167 4.39346E+00 1.30569E+00 2.25000E+00
 -1      1168 3.05647E+00 7.51897E-01 2.25000E+00
 -1      1169 4.02991E+00 2.18338E+00 2.25000E+00
 -1      1170 3.11155E+00 4.74999E-01 2.25000E+00
 -1      1171 4.55870E+00 4.74999E-01 2.25000E+00
 -1      1172 3.11155E+00-4.74999E-01 2.25000E+00
 -1      1173 7.42117E+00 9.50000E-01 2.25000E+00
 -1      1174 7.42117E+00-9.50000E-01 2.25000E+00
 -1      1175 5.99524E+00-9.50000E-01 2.25000E+00
 -1      1176 1.03553E+01 4.74999E-01 2.25000E+00
 -1      1177 8.87453E+00-4.74999E-01 2.25000E+00
 -1      1178 3.71765E+00-6.49272E+00 2.25000E+00
 -1      1179 7.65819E+00 6.98643E+00 2.25000E+00
 -1      1180 6.61111E+00 5.93936E+00 2.25000E+00
 -1      1181 5.93936E+00 6.61111E+00 2.25000E+00
 -1      1182 6.98643E+00 7.65819E+00 2.25000E+00
 -1      1183 8.38078E+00 2.95729E+00 2.25000E+00
 -1      1184 8.01722E+00 3.83498E+00 2.25000E+00
 -1      1185 9.38527E+00 4.40165E+00 2.25000E+00
 -1      1186 7.21982E+00 1.96228E+00 2.25000E+00
 -1      1187 5.90243E+00 1.41659E+00 2.25000E+00
 -1      1188 4.57581E+00 5.91931E+00 2.25000E+00
 -1      1189 5.91931E+00 4.57581E+00 2.25000E+00
 -1      1190 4.91103E+00 3.56752E+00 2.25000E+00
 -1      1191 3.83498E+00-8.01722E+00 2.25000E+00
 -1      1192 4.40165E+00-9.38527E+00 2.25000E+00
 -1      1193 3.52396E+00-9.74886E+00 2.25000E+00
 -1      1194 2.95729E+00-8.38078E+00 2.25000E+00
 -1      1195 1.62958E+00-2.69292E+00 2.25000E+00
 -1      1196 2.18338E+00-4.02991E+00 2.25000E+00
 -1      1197 7.51897E-01-3.05647E+00 2.25000E+00
 -1      1198 4.74999E-01-4.55870E+00 2.25000E+00
 -1      1199 4.74999E-01-8.87453E+00 2.25000E+00
 -1      1200-4.74999E-01-4.55870E+00 2.25000E+00
 -1      1201-4.74999E-01-3.11155E+00 2.25000E+00
 -1      1202 4.74999E-01-1.03553E+01 2.25000E+00
 -1      1203-4.74999E-01-8.87453E+00 2.25000E+00
 -1      1204 3.05647E+00-7.51897E-01 2.25000E+00
 -1      1205 4.39346E+00-1.30569E+00 2.25000E+00
 -1      1206 2.69292E+00-1.62958E+00 2.25000E+00
 -1      1207 5.90243E+00-1.41659E+00 2.25000E+00
 -1      1208 7.21982E+00-1.96228E+00 2.25000E+00
 -1      1209 6.49272E+00-3.71765E+00 2.25000E+00
 -1      1210 5.17533E+00-3.17196E+00 2.25000E+00
 -1      1211 9.74886E+00-3.52396E+00 2.25000E+00
 -1      1212 8.01722E+00-3.83498E+00 2.25000E+00
 -1      1213 3.55936E+00-2.88761E+00 2.25000E+00
 -1      1214 1.86432E+00-2.53607E+00 2.25000E+00
 -1      1215 4.91103E+00-3.56752E+00 2.25000E+00
 -1      1216 5.91931E+00-4.57581E+00 2.25000E+00
 -1      1217 4.57581E+00-5.91931E+00 2.25000E+00
 -1      1218 3.56752E+00-4.91103E+00 2.25000E+00
 -1      1219 7.65819E+00-6.98643E+00 2.25000E+00
 -1      1220 5.93936E+00-6.61111E+00 2.25000E+00
 -1      1221-9.50000E-01-5.99524E+00 2.25000E+00
 -1      1222-2.18338E+00-4.02991E+00 2.25000E+00
 -1      1223-7.51897E-01-3.05647E+00 2.25000E+00
 -1      1224-1.30569E+00-4.39346E+00 2.25000E+00
 -1      1225-1.62958E+00-2.69292E+00 2.25000E+00
 -1      1226-4.40165E+00-9.38527E+00 2.25000E+00
 -1      1227-2.95729E+00-8.38078E+00 2.25000E+00
 -1      1228-3.52396E+00-9.74886E+00 2.25000E+00
 -1      1229-3.83498E+00-8.01722E+00 2.25000E+00
 -1      1230-9.50000E-01 5.99524E+00 2.25000E+00
 -1      1231-9.50000E-01 7.42117E+00 2.25000E+00
 -1      1232 4.74999E-01 1.03553E+01 2.25000E+00
 -1      1233 4.74999E-01 8.87453E+00 2.25000E+00
 -1      1234 4.74999E-01 3.11155E+00 2.25000E+00
 -1      1235-4.74999E-01 4.55870E+00 2.25000E+00
 -1      1236-4.74999E-01 8.87453E+00 2.25000E+00
 -1      1237-4.74999E-01 1.03553E+01 2.25000E+00
 -1      1238 9.50000E-01 7.42117E+00 2.25000E+00
 -1      1239-1.30569E+00 4.39346E+00 2.25000E+00
 -1      1240-7.51897E-01 3.05647E+00 2.25000E+00
 -1      1241-1.62958E+00 2.69292E+00 2.25000E+00
 -1      1242-2.18338E+00 4.02991E+00 2.25000E+00
 -1      1243-3.52396E+00 9.74886E+00 2.25000E+00
 -1      1244-2.95729E+00 8.38078E+00 2.25000E+00
 -1      1245-3.83498E+00 8.01722E+00 2.25000E+00
 -1      1246-4.40165E+00 9.38527E+00 2.25000E+00
 -1      1247 9.50000E-01 5.99524E+00 2.25000E+00
 -1      1248-4.91103E+00-3.56752E+00 2.25000E+00
 -1      1249 9.50000E-01-5.99524E+00 2.25000E+00
 -1      1250 9.50000E-01-7.42117E+00 2.25000E+00
 -1      1251-2.53607E+00 1.86432E+00 2.25000E+00
 -1      1252-3.55936E+00-2.88761E+00 2.25000E+00
 -1      1253-1.86432E+00-2.53607E+00 2.25000E+00
 -1      1254-2.88761E+00-3.55936E+00 2.25000E+00
 -1      1255-2.53607E+00-1.86432E+00 2.25000E+00
 -1      1256-2.88761E+00 3.55936E+00 2.25000E+00
 -1      1257-1.86432E+00 2.53607E+00 2.25000E+00
 -1      1258-3.55936E+00 2.88761E+00 2.25000E+00
 -1      1259-3.56752E+00-4.91103E+00 2.25000E+00
 -1      1260-4.57581E+00-5.91931E+00 2.25000E+00
 -1      1261-5.17533E+00-3.17196E+00 2.25000E+00
 -1      1262-6.49272E+00-3.71765E+00 2.25000E+00
 -1      1263-9.38527E+00 4.40165E+00 2.25000E+00
 -1      1264-7.21982E+00-1.96228E+00 2.25000E+00
 -1      1265-5.90243E+00-1.41659E+00 2.25000E+00
 -1      1266-1.03553E+01 4.74999E-01 2.25000E+00
 -1      1267-8.87453E+00 4.74999E-01 2.25000E+00
 -1      1268-8.87453E+00-4.74999E-01 2.25000E+00
 -1      1269-1.03553E+01-4.74999E-01 2.25000E+00
 -1      1270-8.01722E+00 3.83498E+00 2.25000E+00
 -1      1271-9.74886E+00 3.52396E+00 2.25000E+00
 -1      1272-5.93936E+00 6.61111E+00 2.25000E+00
 -1      1273-6.61111E+00 5.93936E+00 2.25000E+00
 -1      1274-7.65819E+00 6.98643E+00 2.25000E+00
 -1      1275-5.99524E+00 9.50000E-01 2.25000E+00
 -1      1276-5.99524E+00-9.50000E-01 2.25000E+00
 -1      1277-7.42117E+00-9.50000E-01 2.25000E+00
 -1      1278-6.98643E+00-7.65819E+00 2.25000E+00
 -1      1279-6.61111E+00-5.93936E+00 2.25000E+00
 -1      1280-8.01722E+00-3.83498E+00 2.25000E+00
 -1      1281-9.38527E+00-4.40165E+00 2.25000E+00
 -1      1282-8.38078E+00-2.95729E+00 2.25000E+00
 -1      1283 1.03553E+01 4.74999E-01 5.00000E-01
 -1      1284 4.55870E+00 4.74999E-01 5.00000E-01
 -1      1285 3.11155E+00-4.74999E-01 5.00000E-01
 -1      1286 8.87453E+00-4.74999E-01 5.00000E-01
 -1      1287 9.38527E+00 4.40165E+00 5.00000E-01
 -1      1288 4.02991E+00 2.18338E+00 5.00000E-01
 -1      1289 3.05647E+00 7.51897E-01 5.00000E-01
 -1      1290 8.38078E+00 2.95729E+00 5.00000E-01
 -1      1291 5.90243E+00 1.41659E+00 5.00000E-01
 -1      1292 6.98643E+00 7.65819E+00 5.00000E-01
 -1      1293 2.88761E+00 3.55936E+00 5.00000E-01
 -1      1294 2.53607E+00 1.86432E+00 5.00000E-01
 -1      1295 6.61111E+00 5.93936E+00 5.00000E-01
 -1      1296 4.91103E+00 3.56752E+00 5.00000E-01
 -1      1297 1.30569E+00 4.39346E+00 5.00000E-01
 -1      1298 1.62958E+00 2.69292E+00 5.00000E-01
 -1      1299 3.83498E+00 8.01722E+00 5.00000E-01
 -1      1300-4.74999E-01 1.03553E+01 5.00000E-01
 -1      1301-4.74999E-01 4.55870E+00 5.00000E-01
 -1      1302 4.74999E-01 3.11155E+00 5.00000E-01
 -1      1303 4.74999E-01 8.87453E+00 5.00000E-01
 -1      1304-2.18338E+00 4.02991E+00 5.00000E-01
 -1      1305-7.51897E-01 3.05647E+00 5.00000E-01
 -1      1306-2.95729E+00 8.38078E+00 5.00000E-01
 -1      1307-3.55936E+00 2.88761E+00 5.00000E-01
 -1      1308-1.86432E+00 2.53607E+00 5.00000E-01
 -1      1309-5.93936E+00 6.61111E+00 5.00000E-01
 -1      1310-9.74886E+00 3.52396E+00 5.00000E-01
 -1      1311-4.39346E+00 1.30569E+00 5.00000E-01
 -1      1312-2.69292E+00 1.62958E+00 5.00000E-01
 -1      1313-8.01722E+00 3.83498E+00 5.00000E-01
 -1      1314-1.03553E+01-4.74999E-01 5.00000E-01
 -1      1315-4.55870E+00-4.74999E-01 5.00000E-01
 -1      1316-3.11155E+00 4.74999E-01 5.00000E-01
 -1      1317-8.87453E+00 4.74999E-01 5.00000E-01
 -1      1318-4.02991E+00-2.18338E+00 5.00000E-01
 -1      1319-3.05647E+00-7.51897E-01 5.00000E-01
 -1      1320-8.38078E+00-2.95729E+00 5.00000E-01
 -1      1321-2.88761E+00-3.55936E+00 5.00000E-01
 -1      1322-2.53607E+00-1.86432E+00 5.00000E-01
 -1      1323-6.61111E+00-5.93936E+00 5.00000E-01
 -1      1324-3.52396E+00-9.74886E+00 5.00000E-01
 -1      1325-1.30569E+00-4.39346E+00 5.00000E-01
 -1      1326-1.62958E+00-2.69292E+00 5.00000E-01
 -1      1327-3.83498E+00-8.01722E+00 5.00000E-01
 -1      1328 4.74999E-01-1.03553E+01 5.00000E-01
 -1      1329 4.74999E-01-4.55870E+00 5.00000E-01
 -1      1330-4.74999E-01-3.11155E+00 5.00000E-01
 -1      1331-4.74999E-01-8.87453E+00 5.00000E-01
 -1      1332 2.18338E+00-4.02991E+00 5.00000E-01
 -1      1333 7.51897E-01-3.05647E+00 5.00000E-01
 -1      1334 2.95729E+00-8.38078E+00 5.00000E-01
 -1      1335 3.55936E+00-2.88761E+00 5.00000E-01
 -1      1336 1.86432E+00-2.53607E+00 5.00000E-01
 -1      1337 5.93936E+00-6.61111E+00 5.00000E-01
 -1      1338 9.74886E+00-3.52396E+00 5.00000E-01
 -1      1339 4.39346E+00-1.30569E+00 5.00000E-01
 -1      1340 2.69292E+00-1.62958E+00 5.00000E-01
 -1      1341 8.01722E+00-3.83498E+00 5.00000E-01
 -1      1342 1.47838E+01 2.19476E+00 5.00000E-01
 -1      1343-1.47838E+01 2.19476E+00-5.00000E-01
 -1      1344-1.47838E+01 2.19476E+00 5.00000E-01
 -1      1345-1.49279E+01 7.31588E-01 5.00000E-01
 -1      1346 7.31588E-01 1.49279E+01 5.00000E-01
 -1      1347 7.31588E-01 1.49279E+01-5.00000E-01
 -1      1348 2.19476E+00 1.47838E+01-5.00000E-01
 -1      1349-2.19476E+00-1.47838E+01 5.00000E-01
 -1      1350-7.31588E-01-1.49279E+01 5.00000E-01
 -1      1351-7.31588E-01-1.49279E+01-5.00000E-01
 -1      1352-2.19476E+00-1.47838E+01-5.00000E-01
 -1      1353 1.20056E+01 8.90181E+00 5.00000E-01
 -1      1354 1.10730E+01 1.00383E+01 5.00000E-01
 -1      1355 1.10730E+01 1.00383E+01-5.00000E-01
 -1      1356 1.20056E+01 8.90181E+00-5.00000E-01
 -1      1357-1.00383E+01 1.10730E+01 5.00000E-01
 -1      1358-1.00383E+01 1.10730E+01-5.00000E-01
 -1      1359-8.90181E+00 1.20056E+01-5.00000E-01
 -1      1360-3.62983E+00 1.44984E+01 5.00000E-01
 -1      1361-5.03678E+00 1.40716E+01 5.00000E-01
 -1      1362-5.03678E+00 1.40716E+01-5.00000E-01
 -1      1363-3.62983E+00 1.44984E+01-5.00000E-01
 -1      1364 8.90181E+00-1.20056E+01 5.00000E-01
 -1      1365 1.00383E+01-1.10730E+01 5.00000E-01
 -1      1366 1.00383E+01-1.10730E+01-5.00000E-01
 -1      1367 8.90181E+00-1.20056E+01-5.00000E-01
 -1      1368 1.49279E+01-7.31588E-01-5.00000E-01
 -1      1369 1.44984E+01-3.62983E+00-5.00000E-01
 -1      1370 1.40716E+01 5.03678E+00-5.00000E-01
 -1      1371 1.35117E+01-6.38858E+00-5.00000E-01
 -1      1372 8.90181E+00 1.20056E+01-5.00000E-01
 -1      1373 6.38858E+00 1.35117E+01-5.00000E-01
 -1      1374 5.03678E+00-1.40716E+01-5.00000E-01
 -1      1375-6.38858E+00-1.35117E+01-5.00000E-01
 -1      1376-8.90181E+00-1.20056E+01-5.00000E-01
 -1      1377-1.10730E+01-1.00383E+01-5.00000E-01
 -1      1378-1.28186E+01-7.68523E+00-5.00000E-01
 -1      1379-1.35117E+01 6.38858E+00-5.00000E-01
 -1      1380-1.40716E+01-5.03678E+00-5.00000E-01
 -1      1381-1.44984E+01 3.62983E+00-5.00000E-01
 -1      1382 1.28186E+01 7.68523E+00 5.00000E-01
 -1      1383 1.44984E+01 3.62983E+00 5.00000E-01
 -1      1384 1.40716E+01 5.03678E+00 5.00000E-01
 -1      1385 6.38858E+00 1.35117E+01 5.00000E-01
 -1      1386 5.03678E+00 1.40716E+01 5.00000E-01
 -1      1387 3.62983E+00 1.44984E+01 5.00000E-01
 -1      1388 8.90181E+00 1.20056E+01 5.00000E-01
 -1      1389-1.28186E+01 7.68523E+00 5.00000E-01
 -1      1390-1.35117E+01 6.38858E+00 5.00000E-01
 -1      1391-1.20056E+01 8.90181E+00 5.00000E-01
 -1      1392-1.44984E+01 3.62983E+00 5.00000E-01
 -1      1393-7.31588E-01 1.49279E+01 5.00000E-01
 -1      1394-6.38858E+00 1.35117E+01 5.00000E-01
 -1      1395 1.47838E+01-2.19476E+00 5.00000E-01
 -1      1396 1.40716E+01-5.03678E+00 5.00000E-01
 -1      1397 1.28186E+01-7.68523E+00 5.00000E-01
 -1      1398 1.10730E+01-1.00383E+01 5.00000E-01
 -1      1399 6.38858E+00-1.35117E+01 5.00000E-01
 -1      1400 3.62983E+00-1.44984E+01 5.00000E-01
 -1      1401 7.31588E-01-1.49279E+01 5.00000E-01
 -1      1402-5.03678E+00-1.40716E+01 5.00000E-01
 -1      1403-7.68523E+00-1.28186E+01 5.00000E-01
 -1      1404-1.00383E+01-1.10730E+01 5.00000E-01
 -1      1405-1.20056E+01-8.90181E+00 5.00000E-01
 -1      1406-1.35117E+01-6.38858E+00 5.00000E-01
 -1      1407-1.44984E+01-3.62983E+00 5.00000E-01
 -1      1408-1.49279E+01-7.31588E-01 5.00000E-01
 -1      1409 1.64099E+00-1.64099E+00 5.00000E-01
 -1      1410-1.64099E+00 1.64099E+00 5.00000E-01
 -1      1411-1.64099E+00-1.64099E+00 5.00000E-01
 -1      1412-1.64099E+00-1.64099E+00 2.25000E+00
 -1      1413-1.35268E+00-2.02443E+00 1.81250E+00
 -1      1414-1.31457E+00-1.96740E+00 1.81250E+00
 -1      1415 8.88093E-01-2.14405E+00 2.25000E+00
 -1      1416 8.88093E-01 2.14405E+00 5.00000E-01
 -1      1417-2.32070E+00 0.00000E+00 5.00000E-01
 -1      1418-2.14405E+00-8.88093E-01 2.25000E+00
 -1      1419 8.88093E-01 2.14405E+00 2.25000E+00
 -1      1420-8.88093E-01-2.14405E+00 5.00000E-01
 -1      1421 0.00000E+00 2.32070E+00 5.00000E-01
 -1      1422 2.14405E+00-8.88093E-01 5.00000E-01
 -1      1423-2.32070E+00 0.00000E+00 2.25000E+00
 -1      1424-2.14405E+00 8.88093E-01 2.25000E+00
 -1      1425-2.02443E+00-1.35268E+00 1.81250E+00
 -1      1426-1.96740E+00-1.31457E+00 1.81250E+00
 -1      1427-2.02443E+00-1.35268E+00 9.37500E-01
 -1      1428-1.96740E+00-1.31457E+00 9.37500E-01
 -1      1429-2.14405E+00 8.88093E-01 5.00000E-01
 -1      1430 0.00000E+00 2.32070E+00 2.25000E+00
 -1      1431 8.88093E-01-2.14405E+00 5.00000E-01
 -1      1432 2.14405E+00 8.88093E-01 5.00000E-01
 -1      1433 1.64099E+00 1.64099E+00 2.25000E+00
 -1      1434 1.64099E+00 1.64099E+00 5.00000E-01
 -1      1435 2.32070E+00 0.00000E+00 5.00000E-01
 -1      1436 2.32070E+00 0.00000E+00 2.25000E+00
 -1      1437 2.14405E+00 8.88093E-01 2.25000E+00
 -1      1438-8.88093E-01 2.14405E+00 5.00000E-01
 -1      1439-1.64099E+00 1.64099E+00 2.25000E+00
 -1      1440-1.35268E+00-2.02443E+00 9.37500E-01
 -1      1441-1.31457E+00-1.96740E+00 9.37500E-01
 -1      1442 0.00000E+00-2.32070E+00 5.00000E-01
 -1      1443 1.35268E+00-2.02443E+00 9.37500E-01
 -1      1444 1.31457E+00-1.96740E+00 9.37500E-01
 -1      1445-2.32070E+00 4.61617E-01 9.37500E-01
 -1      1446-2.38798E+00 4.74999E-01 9.37500E-01
 -1      1447 1.64099E+00-1.64099E+00 2.25000E+00
 -1      1448 0.00000E+00-2.32070E+00 2.25000E+00
 -1      1449 2.14405E+00-8.88093E-01 2.25000E+00
 -1      1450 1.35268E+00 2.02443E+00 1.81250E+00
 -1      1451 1.31457E+00 1.96740E+00 1.81250E+00
 -1      1452-8.88093E-01 2.14405E+00 2.25000E+00
 -1      1453-2.38798E+00-4.74999E-01 9.37500E-01
 -1      1454-2.32070E+00-4.61617E-01 9.37500E-01
 -1      1455-1.35268E+00-2.02443E+00 1.59375E+00
 -1      1456-1.31457E+00-1.96740E+00 1.59375E+00
 -1      1457-4.74999E-01-2.38798E+00 1.81250E+00
 -1      1458-4.61617E-01-2.32070E+00 1.81250E+00
 -1      1459-2.02443E+00-1.35268E+00 1.59375E+00
 -1      1460-1.96740E+00-1.31457E+00 1.59375E+00
 -1      1461 2.02443E+00 1.35268E+00 1.81250E+00
 -1      1462 1.96740E+00 1.31457E+00 1.81250E+00
 -1      1463 1.35268E+00 2.02443E+00 9.37500E-01
 -1      1464 1.31457E+00 1.96740E+00 9.37500E-01
 -1      1465-2.38798E+00-4.74999E-01 1.81250E+00
 -1      1466-2.32070E+00-4.61617E-01 1.81250E+00
 -1      1467 2.38798E+00 4.74999E-01 9.37500E-01
 -1      1468 2.32070E+00 4.61617E-01 9.37500E-01
 -1      1469 2.38798E+00 4.74999E-01 1.81250E+00
 -1      1470 2.32070E+00 4.61617E-01 1.81250E+00
 -1      1471-2.38798E+00 4.74999E-01 1.81250E+00
 -1      1472-2.32070E+00 4.61617E-01 1.81250E+00
 -1      1473-4.74999E-01 2.38798E+00 1.81250E+00
 -1      1474-4.61617E-01 2.32070E+00 1.81250E+00
 -1      1475-4.74999E-01-2.38798E+00 9.37500E-01
 -1      1476-4.61617E-01-2.32070E+00 9.37500E-01
 -1      1477 4.74999E-01-2.38798E+00 9.37500E-01
 -1      1478 4.61617E-01-2.32070E+00 9.37500E-01
 -1      1479 2.38798E+00-4.74999E-01 9.37500E-01
 -1      1480 2.32070E+00-4.61617E-01 9.37500E-01
 -1      1481-4.74999E-01 2.38798E+00 9.37500E-01
 -1      1482-4.61617E-01 2.32070E+00 9.37500E-01
 -1      1483-1.35268E+00-2.02443E+00 2.03125E+00
 -1      1484-1.31457E+00-1.96740E+00 2.03125E+00
 -1      1485 2.38798E+00-4.74999E-01 1.81250E+00
 -1      1486 2.32070E+00-4.61617E-01 1.81250E+00
 -1      1487 2.02443E+00-1.35268E+00 1.81250E+00
 -1      1488 1.96740E+00-1.31457E+00 1.81250E+00
 -1      1489 2.02443E+00 1.35268E+00 1.59375E+00
 -1      1490 1.96740E+00 1.31457E+00 1.59375E+00
 -1      1491 4.74999E-01-2.38798E+00 1.81250E+00
 -1      1492 4.61617E-01-2.32070E+00 1.81250E+00
 -1      1493 4.74999E-01 2.38798E+00 1.81250E+00
 -1      1494 4.61617E-01 2.32070E+00 1.81250E+00
 -1      1495-2.02443E+00 1.35268E+00 1.81250E+00
 -1      1496-1.96740E+00 1.31457E+00 1.81250E+00
 -1      1497-2.14405E+00-8.88093E-01 5.00000E-01
 -1      1498-2.72223E+00 6.13448E-01 2.25000E+00
 -1      1499-1.35268E+00 2.02443E+00 9.37500E-01
 -1      1500-1.31457E+00 1.96740E+00 9.37500E-01
 -1      1501-2.02443E+00-1.35268E+00 7.18750E-01
 -1      1502-1.96740E+00-1.31457E+00 7.18750E-01
 -1      1503-2.38798E+00-4.74999E-01 1.59375E+00
 -1      1504-2.32070E+00-4.61617E-01 1.59375E+00
 -1      1505 1.35268E+00-2.02443E+00 1.81250E+00
 -1      1506 1.31457E+00-1.96740E+00 1.81250E+00
 -1      1507 1.96740E+00-1.31457E+00 9.37500E-01
 -1      1508 2.02443E+00-1.35268E+00 9.37500E-01
 -1      1509-2.02443E+00-1.35268E+00 1.15625E+00
 -1      1510-1.96740E+00-1.31457E+00 1.15625E+00
 -1      1511-2.02443E+00-1.35268E+00 2.03125E+00
 -1      1512-1.96740E+00-1.31457E+00 2.03125E+00
 -1      1513 4.61617E-01 2.32070E+00 9.37500E-01
 -1      1514 4.74999E-01 2.38798E+00 9.37500E-01
 -1      1515-8.88093E-01-2.14405E+00 2.25000E+00
 -1      1516-1.10133E+00-2.05573E+00 5.00000E-01
 -1      1517 2.38798E+00 4.74999E-01 1.59375E+00
 -1      1518 2.32070E+00 4.61617E-01 1.59375E+00
 -1      1519-1.35268E+00 2.02443E+00 1.15625E+00
 -1      1520-1.31457E+00 1.96740E+00 1.15625E+00
 -1      1521-1.47778E+00-1.80419E+00 2.25000E+00
 -1      1522-2.02443E+00 1.35268E+00 1.59375E+00
 -1      1523-1.96740E+00 1.31457E+00 1.59375E+00
 -1      1524-2.38798E+00 4.74999E-01 1.59375E+00
 -1      1525-2.32070E+00 4.61617E-01 1.59375E+00
 -1      1526-1.60850E+00-2.28025E+00 2.25000E+00
 -1      1527-1.31457E+00 1.96740E+00 1.81250E+00
 -1      1528-1.35268E+00 2.02443E+00 1.81250E+00
 -1      1529-1.47778E+00 1.80419E+00 5.00000E-01
 -1      1530 2.23237E+00 6.74855E-01 5.00000E-01
 -1      1531 2.38798E+00-4.74999E-01 1.59375E+00
 -1      1532 2.32070E+00-4.61617E-01 1.59375E+00
 -1      1533 4.74999E-01 2.38798E+00 2.03125E+00
 -1      1534 4.61617E-01 2.32070E+00 2.03125E+00
 -1      1535-2.38798E+00-4.74999E-01 1.48438E+00
 -1      1536-2.32070E+00-4.61617E-01 1.48438E+00
 -1      1537-2.02443E+00 1.35268E+00 2.03125E+00
 -1      1538-1.96740E+00 1.31457E+00 2.03125E+00
 -1      1539 2.02443E+00 1.35268E+00 9.37500E-01
 -1      1540 1.96740E+00 1.31457E+00 9.37500E-01
 -1      1541-2.38798E+00 4.74999E-01 7.18750E-01
 -1      1542-2.32070E+00 4.61617E-01 7.18750E-01
 -1      1543-4.74999E-01 2.38798E+00 7.18750E-01
 -1      1544-4.61617E-01 2.32070E+00 7.18750E-01
 -1      1545-1.80419E+00-1.47778E+00 5.00000E-01
 -1      1546 2.02443E+00-1.35268E+00 2.03125E+00
 -1      1547 1.96740E+00-1.31457E+00 2.03125E+00
 -1      1548-1.10133E+00-2.05573E+00 2.25000E+00
 -1      1549 2.05573E+00-1.10133E+00 2.25000E+00
 -1      1550 2.38798E+00 4.74999E-01 1.48438E+00
 -1      1551 2.32070E+00 4.61617E-01 1.48438E+00
 -1      1552-2.32070E+00 2.30808E-01 5.00000E-01
 -1      1553-4.74999E-01-2.38798E+00 1.59375E+00
 -1      1554-4.61617E-01-2.32070E+00 1.59375E+00
 -1      1555-4.74999E-01 2.38798E+00 1.59375E+00
 -1      1556-4.61617E-01 2.32070E+00 1.59375E+00
 -1      1557 4.74999E-01 2.38798E+00 1.59375E+00
 -1      1558 4.61617E-01 2.32070E+00 1.59375E+00
 -1      1559-1.35268E+00-2.02443E+00 1.15625E+00
 -1      1560-1.31457E+00-1.96740E+00 1.15625E+00
 -1      1561-2.05573E+00-1.10133E+00 5.00000E-01
 -1      1562-4.74999E-01-2.38798E+00 7.18750E-01
 -1      1563-4.61617E-01-2.32070E+00 7.18750E-01
 -1      1564 2.35868E+00-1.49113E+00 2.25000E+00
 -1      1565-1.35268E+00-2.02443E+00 7.18750E-01
 -1      1566-1.31457E+00-1.96740E+00 7.18750E-01
 -1      1567 1.35268E+00 2.02443E+00 7.18750E-01
 -1      1568 1.31457E+00 1.96740E+00 7.18750E-01
 -1      1569-2.02443E+00-1.35268E+00 1.48438E+00
 -1      1570-1.96740E+00-1.31457E+00 1.48438E+00
 -1      1571-2.23237E+00-6.74855E-01 2.25000E+00
 -1      1572-2.38798E+00-4.74999E-01 2.03125E+00
 -1      1573-2.32070E+00-4.61617E-01 2.03125E+00
 -1      1574 1.35268E+00-2.02443E+00 1.59375E+00
 -1      1575 1.31457E+00-1.96740E+00 1.59375E+00
 -1      1576-1.47778E+00-1.80419E+00 5.00000E-01
 -1      1577-1.80419E+00-1.47778E+00 2.25000E+00
 -1      1578-2.05573E+00-1.10133E+00 2.25000E+00
 -1      1579 2.02443E+00 1.35268E+00 2.03125E+00
 -1      1580 1.96740E+00 1.31457E+00 2.03125E+00
 -1      1581-2.02443E+00 1.35268E+00 9.37500E-01
 -1      1582-1.96740E+00 1.31457E+00 9.37500E-01
 -1      1583-4.74999E-01-2.38798E+00 2.03125E+00
 -1      1584-4.61617E-01-2.32070E+00 2.03125E+00
 -1      1585 2.02443E+00-1.35268E+00 7.18750E-01
 -1      1586 1.96740E+00-1.31457E+00 7.18750E-01
 -1      1587-1.80419E+00 1.47778E+00 2.25000E+00
 -1      1588 2.38798E+00 4.74999E-01 1.15625E+00
 -1      1589 2.32070E+00 4.61617E-01 1.15625E+00
 -1      1590 1.47778E+00 1.80419E+00 5.00000E-01
 -1      1591 2.02443E+00-1.35268E+00 1.15625E+00
 -1      1592 1.96740E+00-1.31457E+00 1.15625E+00
 -1      1593-1.35268E+00 2.02443E+00 1.59375E+00
 -1      1594-1.31457E+00 1.96740E+00 1.59375E+00
 -1      1595-2.30808E-01-2.32070E+00 5.00000E-01
 -1      1596 1.10133E+00-2.05573E+00 5.00000E-01
 -1      1597 1.35268E+00-2.02443E+00 2.03125E+00
 -1      1598 1.31457E+00-1.96740E+00 2.03125E+00
 -1      1599 2.32070E+00 2.30808E-01 5.00000E-01
 -1      1600 2.02443E+00-1.35268E+00 1.59375E+00
 -1      1601 1.96740E+00-1.31457E+00 1.59375E+00
 -1      1602-1.20795E+00-2.01156E+00 5.00000E-01
 -1      1603 1.80419E+00 1.47778E+00 2.25000E+00
 -1      1604-2.02443E+00 1.35268E+00 7.18750E-01
 -1      1605-1.96740E+00 1.31457E+00 7.18750E-01
 -1      1606-2.02443E+00 1.35268E+00 1.15625E+00
 -1      1607-1.96740E+00 1.31457E+00 1.15625E+00
 -1      1608-6.74855E-01 2.23237E+00 5.00000E-01
 -1      1609-2.23237E+00 6.74855E-01 5.00000E-01
 -1      1610 2.02443E+00 1.35268E+00 1.48438E+00
 -1      1611 1.96740E+00 1.31457E+00 1.48438E+00
 -1      1612 1.35268E+00 2.02443E+00 1.59375E+00
 -1      1613 1.31457E+00 1.96740E+00 1.59375E+00
 -1      1614 2.38798E+00-4.74999E-01 7.18750E-01
 -1      1615 2.32070E+00-4.61617E-01 7.18750E-01
 -1      1616 1.35268E+00 2.02443E+00 2.03125E+00
 -1      1617 1.31457E+00 1.96740E+00 2.03125E+00
 -1      1618-2.30808E-01-2.32070E+00 2.25000E+00
 -1      1619 2.23237E+00 6.74855E-01 2.25000E+00
 -1      1620-4.74999E-01 2.38798E+00 1.15625E+00
 -1      1621-4.61617E-01 2.32070E+00 1.15625E+00
 -1      1622 2.30808E-01 2.32070E+00 2.25000E+00
 -1      1623 1.96740E+00-1.31457E+00 1.04688E+00
 -1      1624 2.02443E+00-1.35268E+00 1.04688E+00
 -1      1625 2.38798E+00 4.74999E-01 2.03125E+00
 -1      1626 2.32070E+00 4.61617E-01 2.03125E+00
 -1      1627 2.72223E+00-6.13448E-01 2.25000E+00
 -1      1628 2.05573E+00-1.10133E+00 5.00000E-01
 -1      1629 4.74999E-01-2.38798E+00 1.59375E+00
 -1      1630 4.61617E-01-2.32070E+00 1.59375E+00
 -1      1631 4.74999E-01-2.38798E+00 2.03125E+00
 -1      1632 4.61617E-01-2.32070E+00 2.03125E+00
 -1      1633-4.74999E-01 2.38798E+00 2.03125E+00
 -1      1634-4.61617E-01 2.32070E+00 2.03125E+00
 -1      1635-2.32070E+00-2.30808E-01 5.00000E-01
 -1      1636 2.38798E+00-4.74999E-01 1.15625E+00
 -1      1637 2.32070E+00-4.61617E-01 1.15625E+00
 -1      1638 4.74999E-01 2.38798E+00 7.18750E-01
 -1      1639 4.61617E-01 2.32070E+00 7.18750E-01
 -1      1640 1.35268E+00 2.02443E+00 1.15625E+00
 -1      1641 1.31457E+00 1.96740E+00 1.15625E+00
 -1      1642-2.30808E-01 2.32070E+00 2.25000E+00
 -1      1643 2.32070E+00 2.30808E-01 2.25000E+00
 -1      1644 2.38798E+00 4.74999E-01 1.26562E+00
 -1      1645 2.32070E+00 4.61617E-01 1.26562E+00
 -1      1646-2.38798E+00 4.74999E-01 2.03125E+00
 -1      1647-2.32070E+00 4.61617E-01 2.03125E+00
 -1      1648-1.35268E+00 2.02443E+00 1.04688E+00
 -1      1649-1.31457E+00 1.96740E+00 1.04688E+00
 -1      1650-4.74999E-01-2.38798E+00 1.70312E+00
 -1      1651-4.61617E-01-2.32070E+00 1.70312E+00
 -1      1652 2.23237E+00-6.74855E-01 5.00000E-01
 -1      1653 2.32070E+00-2.30808E-01 5.00000E-01
 -1      1654 2.38798E+00-4.74999E-01 1.04688E+00
 -1      1655 2.32070E+00-4.61617E-01 1.04688E+00
 -1      1656 2.30808E-01 2.32070E+00 5.00000E-01
 -1      1657-1.35268E+00 2.02443E+00 7.18750E-01
 -1      1658-1.31457E+00 1.96740E+00 7.18750E-01
 -1      1659 4.74999E-01-2.38798E+00 7.18750E-01
 -1      1660 4.61617E-01-2.32070E+00 7.18750E-01
 -1      1661-2.02443E+00 1.35268E+00 1.70312E+00
 -1      1662-1.96740E+00 1.31457E+00 1.70312E+00
 -1      1663-4.74999E-01 2.74977E+00 2.25000E+00
 -1      1664-2.38798E+00-4.74999E-01 7.18750E-01
 -1      1665-2.32070E+00-4.61617E-01 7.18750E-01
 -1      1666-6.74855E-01 2.23237E+00 2.25000E+00
 -1      1667 4.74999E-01 2.38798E+00 1.15625E+00
 -1      1668 4.61617E-01 2.32070E+00 1.15625E+00
 -1      1669-2.05573E+00 1.10133E+00 2.25000E+00
 -1      1670 2.01156E+00-1.20795E+00 2.25000E+00
 -1      1671-2.32070E+00 2.30808E-01 2.25000E+00
 -1      1672-2.23237E+00-6.74855E-01 5.00000E-01
 -1      1673 6.74855E-01-2.23237E+00 5.00000E-01
 -1      1674-1.39617E+00-1.88580E+00 2.25000E+00
 -1      1675 2.30808E-01-2.32070E+00 2.25000E+00
 -1      1676 4.74999E-01 2.38798E+00 1.04688E+00
 -1      1677 4.61617E-01 2.32070E+00 1.04688E+00
 -1      1678 1.35268E+00 2.02443E+00 1.70312E+00
 -1      1679 1.31457E+00 1.96740E+00 1.70312E+00
 -1      1680-2.74977E+00-4.74999E-01 2.25000E+00
 -1      1681-2.72223E+00-6.13448E-01 2.25000E+00
 -1      1682-2.32070E+00-2.30808E-01 2.25000E+00
 -1      1683-2.74977E+00 4.74999E-01 2.25000E+00
 -1      1684 2.28025E+00-1.60850E+00 2.25000E+00
 -1      1685-2.32070E+00-3.46213E-01 5.00000E-01
 -1      1686-2.35868E+00 1.49113E+00 2.25000E+00
 -1      1687 1.80419E+00-1.47778E+00 2.25000E+00
 -1      1688-4.74999E-01-2.38798E+00 1.15625E+00
 -1      1689-4.61617E-01-2.32070E+00 1.15625E+00
 -1      1690-2.35868E+00-1.49113E+00 2.25000E+00
 -1      1691 2.74977E+00 4.74999E-01 2.25000E+00
 -1      1692 4.74999E-01-2.38798E+00 1.15625E+00
 -1      1693 4.61617E-01-2.32070E+00 1.15625E+00
 -1      1694-1.80419E+00 1.47778E+00 5.00000E-01
 -1      1695-2.28025E+00-1.60850E+00 2.25000E+00
 -1      1696-4.74999E-01 2.38798E+00 1.70312E+00
 -1      1697-4.61617E-01 2.32070E+00 1.70312E+00
 -1      1698 6.13448E-01-2.72223E+00 2.25000E+00
 -1      1699-6.13448E-01 2.72223E+00 2.25000E+00
 -1      1700 1.10133E+00 2.05573E+00 5.00000E-01
 -1      1701 4.74999E-01-2.74977E+00 2.25000E+00
 -1      1702 2.35868E+00 1.49113E+00 2.25000E+00
 -1      1703 2.28025E+00 1.60850E+00 2.25000E+00
 -1      1704 6.74855E-01 2.23237E+00 5.00000E-01
 -1      1705 2.05573E+00 1.10133E+00 2.25000E+00
 -1      1706-4.74999E-01-2.38798E+00 1.48438E+00
 -1      1707-4.61617E-01-2.32070E+00 1.48438E+00
 -1      1708 2.32070E+00-3.46213E-01 5.00000E-01
 -1      1709 2.02443E+00 1.35268E+00 1.70312E+00
 -1      1710 1.96740E+00 1.31457E+00 1.70312E+00
 -1      1711 4.74999E-01 2.38798E+00 1.26562E+00
 -1      1712 4.61617E-01 2.32070E+00 1.26562E+00
 -1      1713 2.02443E+00 1.35268E+00 1.15625E+00
 -1      1714 1.96740E+00 1.31457E+00 1.15625E+00
 -1      1715-2.01156E+00-1.20795E+00 5.00000E-01
 -1      1716 4.74999E-01 2.38798E+00 1.70312E+00
 -1      1717 4.61617E-01 2.32070E+00 1.70312E+00
 -1      1718 1.49113E+00-2.35868E+00 2.25000E+00
 -1      1719 1.35268E+00-2.02443E+00 7.18750E-01
 -1      1720 1.31457E+00-1.96740E+00 7.18750E-01
 -1      1721 1.47778E+00-1.80419E+00 5.00000E-01
 -1      1722-4.74999E-01-2.38798E+00 1.04688E+00
 -1      1723-4.61617E-01-2.32070E+00 1.04688E+00
 -1      1724 1.80419E+00-1.47778E+00 5.00000E-01
 -1      1725-6.74855E-01-2.23237E+00 5.00000E-01
 -1      1726-2.28025E+00 1.60850E+00 2.25000E+00
 -1      1727 4.74999E-01 2.74977E+00 2.25000E+00
 -1      1728-4.74999E-01-2.74977E+00 2.25000E+00
 -1      1729 2.30808E-01-2.32070E+00 5.00000E-01
 -1      1730-1.10133E+00 2.05573E+00 5.00000E-01
 -1      1731 1.35268E+00-2.02443E+00 1.48438E+00
 -1      1732 1.31457E+00-1.96740E+00 1.48438E+00
 -1      1733-4.61617E-01-2.32070E+00 8.28125E-01
 -1      1734-4.74999E-01-2.38798E+00 8.28125E-01
 -1      1735 2.72223E+00 6.13448E-01 2.25000E+00
 -1      1736 2.38798E+00-4.74999E-01 1.26562E+00
 -1      1737 2.32070E+00-4.61617E-01 1.26562E+00
 -1      1738 1.60850E+00-2.28025E+00 2.25000E+00
 -1      1739 1.47778E+00-1.80419E+00 2.25000E+00
 -1      1740 1.10133E+00-2.05573E+00 2.25000E+00
 -1      1741 2.38798E+00 4.74999E-01 7.18750E-01
 -1      1742 2.32070E+00 4.61617E-01 7.18750E-01
 -1      1743-2.02443E+00 1.35268E+00 2.14062E+00
 -1      1744-1.96740E+00 1.31457E+00 2.14062E+00
 -1      1745 2.23237E+00-6.74855E-01 2.25000E+00
 -1      1746 2.02443E+00 1.35268E+00 7.18750E-01
 -1      1747 1.96740E+00 1.31457E+00 7.18750E-01
 -1      1748 2.05573E+00 1.10133E+00 5.00000E-01
 -1      1749 1.80419E+00 1.47778E+00 5.00000E-01
 -1      1750-2.02443E+00 1.35268E+00 6.09375E-01
 -1      1751-1.96740E+00 1.31457E+00 6.09375E-01
 -1      1752-1.88580E+00 1.39617E+00 5.00000E-01
 -1      1753-2.05573E+00 1.10133E+00 5.00000E-01
 -1      1754 6.74855E-01 2.23237E+00 2.25000E+00
 -1      1755 1.35268E+00-2.02443E+00 1.15625E+00
 -1      1756 1.31457E+00-1.96740E+00 1.15625E+00
 -1      1757 1.35268E+00 2.02443E+00 1.26562E+00
 -1      1758 1.31457E+00 1.96740E+00 1.26562E+00
 -1      1759-6.74855E-01-2.23237E+00 2.25000E+00
 -1      1760-2.27654E+00 5.68236E-01 5.00000E-01
 -1      1761 2.74977E+00-4.74999E-01 2.25000E+00
 -1      1762 1.10133E+00 2.05573E+00 2.25000E+00
 -1      1763 1.47778E+00 1.80419E+00 2.25000E+00
 -1      1764-1.35268E+00 2.02443E+00 2.03125E+00
 -1      1765-1.31457E+00 1.96740E+00 2.03125E+00
 -1      1766-6.13448E-01-2.72223E+00 2.25000E+00
 -1      1767 1.35268E+00-2.02443E+00 1.04688E+00
 -1      1768 1.31457E+00-1.96740E+00 1.04688E+00
 -1      1769 2.02443E+00 1.35268E+00 2.14062E+00
 -1      1770 1.96740E+00 1.31457E+00 2.14062E+00
 -1      1771 2.02443E+00-1.35268E+00 1.26562E+00
 -1      1772 1.96740E+00-1.31457E+00 1.26562E+00
 -1      1773 3.46213E-01-2.32070E+00 2.25000E+00
 -1      1774-1.35268E+00-2.02443E+00 1.48438E+00
 -1      1775-1.31457E+00-1.96740E+00 1.48438E+00
 -1      1776 1.35268E+00 2.02443E+00 1.04688E+00
 -1      1777 1.31457E+00 1.96740E+00 1.04688E+00
 -1      1778-4.74999E-01 2.38798E+00 1.04688E+00
 -1      1779-4.61617E-01 2.32070E+00 1.04688E+00
 -1      1780-2.02443E+00 1.35268E+00 1.04688E+00
 -1      1781-1.96740E+00 1.31457E+00 1.04688E+00
 -1      1782-2.38798E+00 4.74999E-01 1.48438E+00
 -1      1783-2.32070E+00 4.61617E-01 1.48438E+00
 -1      1784 1.88580E+00 1.39617E+00 5.00000E-01
 -1      1785-1.10133E+00 2.05573E+00 2.25000E+00
 -1      1786-1.35268E+00-2.02443E+00 1.26562E+00
 -1      1787-1.31457E+00-1.96740E+00 1.26562E+00
 -1      1788-3.46213E-01 2.32070E+00 2.25000E+00
 -1      1789-2.02443E+00 1.35268E+00 1.26562E+00
 -1      1790-1.96740E+00 1.31457E+00 1.26562E+00
 -1      1791 2.32070E+00 3.46213E-01 2.25000E+00
 -1      1792-2.23237E+00 6.74855E-01 2.25000E+00
 -1      1793-2.27654E+00-5.68236E-01 5.00000E-01
 -1      1794 1.35268E+00 2.02443E+00 6.09375E-01
 -1      1795 1.31457E+00 1.96740E+00 6.09375E-01
 -1      1796-2.30808E-01 2.32070E+00 5.00000E-01
 -1      1797 1.20795E+00 2.01156E+00 5.00000E-01
 -1      1798-3.31545E+00 4.65895E+00 5.00000E-01
 -1      1799-3.01041E+00 4.78531E+00 5.00000E-01
 -1      1800 1.39617E+00-1.88580E+00 2.25000E+00
 -1      1801-2.01156E+00 1.20795E+00 5.00000E-01
 -1      1802 1.35268E+00-2.02443E+00 6.09375E-01
 -1      1803 1.31457E+00-1.96740E+00 6.09375E-01
 -1      1804 3.31545E+00 4.65895E+00 5.00000E-01
 -1      1805 3.01041E+00 4.78531E+00 5.00000E-01
 -1      1806 6.74855E-01-2.23237E+00 2.25000E+00
 -1      1807-2.38798E+00 4.74999E-01 1.70312E+00
 -1      1808-2.32070E+00 4.61617E-01 1.70312E+00
 -1      1809-2.38798E+00 4.74999E-01 1.15625E+00
 -1      1810-2.32070E+00 4.61617E-01 1.15625E+00
 -1      1811-4.74999E-01-2.38798E+00 2.14062E+00
 -1      1812-4.61617E-01-2.32070E+00 2.14062E+00
 -1      1813 2.38798E+00-4.74999E-01 2.03125E+00
 -1      1814 2.32070E+00-4.61617E-01 2.03125E+00
 -1      1815-1.47778E+00 1.80419E+00 2.25000E+00
 -1      1816-5.68236E-01-2.27654E+00 2.25000E+00
 -1      1817 2.01156E+00 1.20795E+00 2.25000E+00
 -1      1818 2.02443E+00 1.35268E+00 1.04688E+00
 -1      1819 1.96740E+00 1.31457E+00 1.04688E+00
 -1      1820-5.68236E-01 2.27654E+00 2.25000E+00
 -1      1821 2.32070E+00 3.46213E-01 5.00000E-01
 -1      1822 1.88580E+00-1.39617E+00 2.25000E+00
 -1      1823-5.68236E-01-2.27654E+00 5.00000E-01
 -1      1824 2.38798E+00-4.74999E-01 1.70312E+00
 -1      1825 2.32070E+00-4.61617E-01 1.70312E+00
 -1      1826 2.27654E+00-5.68236E-01 2.25000E+00
 -1      1827 1.39617E+00 1.88580E+00 5.00000E-01
 -1      1828 2.27654E+00 5.68236E-01 5.00000E-01
 -1      1829-4.74999E-01 2.38798E+00 1.26562E+00
 -1      1830-4.61617E-01 2.32070E+00 1.26562E+00
 -1      1831-1.49113E+00 2.35868E+00 2.25000E+00
 -1      1832-2.38798E+00-4.74999E-01 1.15625E+00
 -1      1833-2.32070E+00-4.61617E-01 1.15625E+00
 -1      1834 4.74999E-01 2.38798E+00 6.09375E-01
 -1      1835 4.61617E-01 2.32070E+00 6.09375E-01
 -1      1836 3.46213E-01 2.32070E+00 5.00000E-01
 -1      1837 1.20795E+00-2.01156E+00 5.00000E-01
 -1      1838 1.35268E+00 2.02443E+00 1.48438E+00
 -1      1839 1.31457E+00 1.96740E+00 1.48438E+00
 -1      1840-2.38798E+00 4.74999E-01 8.28125E-01
 -1      1841-2.32070E+00 4.61617E-01 8.28125E-01
 -1      1842 2.15234E+00 1.48059E+00 2.25000E+00
 -1      1843-2.32070E+00-4.61617E-01 1.04688E+00
 -1      1844-2.38798E+00-4.74999E-01 1.04688E+00
 -1      1845-4.74999E-01-2.56887E+00 2.25000E+00
 -1      1846-2.38798E+00 4.74999E-01 1.26562E+00
 -1      1847-2.32070E+00 4.61617E-01 1.26562E+00
 -1      1848 2.19155E+00 1.42191E+00 2.25000E+00
 -1      1849 1.60850E+00 2.28025E+00 2.25000E+00
 -1      1850-1.49113E+00-2.35868E+00 2.25000E+00
 -1      1851-2.32070E+00 4.61617E-01 1.04688E+00
 -1      1852-2.38798E+00 4.74999E-01 1.04688E+00
 -1      1853 2.02443E+00-1.35268E+00 1.48438E+00
 -1      1854 1.96740E+00-1.31457E+00 1.48438E+00
 -1      1855 2.32070E+00-2.30808E-01 2.25000E+00
 -1      1856-2.01156E+00 1.20795E+00 2.25000E+00
 -1      1857-1.35268E+00-2.02443E+00 1.04688E+00
 -1      1858-1.31457E+00-1.96740E+00 1.04688E+00
 -1      1859-3.46213E-01-2.32070E+00 2.25000E+00
 -1      1860-5.44223E-01-2.55510E+00 2.25000E+00
 -1      1861 1.49113E+00 2.35868E+00 2.25000E+00
 -1      1862 3.46213E-01-2.32070E+00 5.00000E-01
 -1      1863 4.74999E-01-2.38798E+00 1.04688E+00
 -1      1864 4.61617E-01-2.32070E+00 1.04688E+00
 -1      1865 1.35268E+00 2.02443E+00 1.92188E+00
 -1      1866 1.31457E+00 1.96740E+00 1.92188E+00
 -1      1867 6.13448E-01 2.72223E+00 2.25000E+00
 -1      1868 1.39617E+00-1.88580E+00 5.00000E-01
 -1      1869 5.68236E-01-2.27654E+00 2.25000E+00
 -1      1870 1.88580E+00-1.39617E+00 5.00000E-01
 -1      1871 4.74999E-01-2.38798E+00 1.26562E+00
 -1      1872 4.61617E-01-2.32070E+00 1.26562E+00
 -1      1873 1.20795E+00-2.01156E+00 2.25000E+00
 -1      1874-2.02443E+00 1.35268E+00 8.28125E-01
 -1      1875-1.96740E+00 1.31457E+00 8.28125E-01
 -1      1876 1.39617E+00 1.88580E+00 2.25000E+00
 -1      1877-1.39617E+00 1.88580E+00 5.00000E-01
 -1      1878-1.20795E+00 2.01156E+00 2.25000E+00
 -1      1879 3.46213E-01 2.32070E+00 2.25000E+00
 -1      1880-1.60850E+00 2.28025E+00 2.25000E+00
 -1      1881-9.50000E-01-5.63875E+00 5.00000E-01
 -1      1882-1.25504E+00-5.51240E+00 5.00000E-01
 -1      1883-2.19155E+00 1.42191E+00 2.25000E+00
 -1      1884 5.68236E-01 2.27654E+00 5.00000E-01
 -1      1885 5.68236E-01-2.27654E+00 5.00000E-01
 -1      1886-3.46213E-01 2.32070E+00 5.00000E-01
 -1      1887-1.35268E+00 2.02443E+00 6.09375E-01
 -1      1888-1.31457E+00 1.96740E+00 6.09375E-01
 -1      1889-9.50000E-01 5.63875E+00 5.00000E-01
 -1      1890-1.25504E+00 5.51240E+00 5.00000E-01
 -1      1891 1.35268E+00-2.02443E+00 2.14062E+00
 -1      1892 1.31457E+00-1.96740E+00 2.14062E+00
 -1      1893-1.20795E+00 2.01156E+00 5.00000E-01
 -1      1894-1.39617E+00 1.88580E+00 2.25000E+00
 -1      1895 2.01156E+00-1.20795E+00 5.00000E-01
 -1      1896-2.38798E+00-4.74999E-01 1.26562E+00
 -1      1897-2.32070E+00-4.61617E-01 1.26562E+00
 -1      1898 1.42191E+00 2.19155E+00 2.25000E+00
 -1      1899 9.50000E-01-5.63875E+00 5.00000E-01
 -1      1900 1.25504E+00-5.51240E+00 5.00000E-01
 -1      1901-2.01156E+00-1.20795E+00 2.25000E+00
 -1      1902-4.65895E+00-3.31545E+00 5.00000E-01
 -1      1903-4.78531E+00-3.01041E+00 5.00000E-01
 -1      1904 9.50000E-01 5.63875E+00 5.00000E-01
 -1      1905 1.25504E+00 5.51240E+00 5.00000E-01
 -1      1906 3.31545E+00-4.65895E+00 5.00000E-01
 -1      1907 3.01041E+00-4.78531E+00 5.00000E-01
 -1      1908-3.46213E-01-2.32070E+00 5.00000E-01
 -1      1909 4.65895E+00 3.31545E+00 5.00000E-01
 -1      1910 4.78531E+00 3.01041E+00 5.00000E-01
 -1      1911-2.32070E+00 3.46213E-01 2.25000E+00
 -1      1912-1.88580E+00-1.39617E+00 2.25000E+00
 -1      1913-1.20795E+00-2.01156E+00 2.25000E+00
 -1      1914-5.63875E+00-9.50000E-01 5.00000E-01
 -1      1915-5.51240E+00-1.25504E+00 5.00000E-01
 -1      1916 5.63875E+00-9.50000E-01 5.00000E-01
 -1      1917 5.51240E+00-1.25504E+00 5.00000E-01
 -1      1918-4.65895E+00 3.31545E+00 5.00000E-01
 -1      1919-4.78531E+00 3.01041E+00 5.00000E-01
 -1      1920 4.65895E+00-3.31545E+00 5.00000E-01
 -1      1921 4.78531E+00-3.01041E+00 5.00000E-01
 -1      1922-5.63875E+00 9.50000E-01 5.00000E-01
 -1      1923-5.51240E+00 1.25504E+00 5.00000E-01
 -1      1924-1.35268E+00-2.02443E+00 2.14062E+00
 -1      1925-1.31457E+00-1.96740E+00 2.14062E+00
 -1      1926-3.31545E+00-4.65895E+00 5.00000E-01
 -1      1927-3.01041E+00-4.78531E+00 5.00000E-01
 -1      1928 5.63875E+00 9.50000E-01 5.00000E-01
 -1      1929 5.51240E+00 1.25504E+00 5.00000E-01
 -1      1930-1.42191E+00-2.19155E+00 2.25000E+00
 -1      1931 3.74924E+00 0.00000E+00-5.00000E-01
 -1      1932 7.95528E+00 7.95528E+00-5.00000E-01
 -1      1933-1.03939E+01-4.30523E+00-5.00000E-01
 -1      1934 1.03287E+01 6.77108E+00-5.00000E-01
 -1      1935 4.30523E+00-1.03939E+01-5.00000E-01
 -1      1936 8.30732E-02 7.02787E+00-5.00000E-01
 -1      1937-9.35357E+00 6.24987E+00-5.00000E-01
 -1      1938 9.20579E+00 9.20579E+00 5.00000E-01
 -1      1939 7.01632E+00 1.05007E+01 5.00000E-01
 -1      1940 4.98223E+00 1.20279E+01 5.00000E-01
 -1      1941 1.06292E+01 6.93171E+00 5.00000E-01
 -1      1942 2.46379E+00 1.23864E+01 5.00000E-01
 -1      1943 0.00000E+00 1.30190E+01 5.00000E-01
 -1      1944-2.46379E+00 1.23864E+01 5.00000E-01
 -1      1945-4.30523E+00 1.03939E+01-5.00000E-01
 -1      1946-4.98223E+00 1.20279E+01 5.00000E-01
 -1      1947-7.01632E+00 1.05007E+01 5.00000E-01
 -1      1948 1.20279E+01 4.98223E+00 5.00000E-01
 -1      1949 4.30523E+00 1.03939E+01-5.00000E-01
 -1      1950 1.30190E+01 0.00000E+00 5.00000E-01
 -1      1951 1.23864E+01-2.46379E+00 5.00000E-01
 -1      1952 1.23864E+01 2.46379E+00 5.00000E-01
 -1      1953 1.20279E+01-4.98223E+00 5.00000E-01
 -1      1954 1.05007E+01-7.01632E+00 5.00000E-01
 -1      1955 9.20579E+00-9.20579E+00 5.00000E-01
 -1      1956 7.95528E+00-7.95528E+00-5.00000E-01
 -1      1957 7.01632E+00-1.05007E+01 5.00000E-01
 -1      1958 4.98223E+00-1.20279E+01 5.00000E-01
 -1      1959 4.12763E+00-1.23408E+01-5.00000E-01
 -1      1960 2.46379E+00-1.23864E+01 5.00000E-01
 -1      1961-1.08983E+01 2.92183E+00-5.00000E-01
 -1      1962 0.00000E+00-1.30190E+01 5.00000E-01
 -1      1963-2.46379E+00-1.23864E+01 5.00000E-01
 -1      1964 0.00000E+00-1.12497E+01-5.00000E-01
 -1      1965-4.98223E+00-1.20279E+01 5.00000E-01
 -1      1966-1.18653E+01-6.06210E-02-5.00000E-01
 -1      1967-7.01632E+00-1.05007E+01 5.00000E-01
 -1      1968-9.20579E+00-9.20579E+00 5.00000E-01
 -1      1969-1.05007E+01-7.01632E+00 5.00000E-01
 -1      1970-1.20279E+01-4.98223E+00 5.00000E-01
 -1      1971-9.20579E+00 9.20579E+00 5.00000E-01
 -1      1972-1.05007E+01 7.01632E+00 5.00000E-01
 -1      1973-1.20279E+01 4.98223E+00 5.00000E-01
 -1      1974-8.46497E+00 5.65612E+00 5.00000E-01
 -1      1975-1.23864E+01-2.46379E+00 5.00000E-01
 -1      1976-1.23864E+01 2.46379E+00 5.00000E-01
 -1      1977-1.30190E+01 0.00000E+00 5.00000E-01
 -1      1978 0.00000E+00 0.00000E+00 5.00000E-01
 -1      1979-4.12763E+00 1.23408E+01-5.00000E-01
 -1      1980 6.89439E+00 1.03183E+01-5.00000E-01
 -1      1981 8.94475E+00-2.34261E+00-5.00000E-01
 -1      1982 1.18375E+01-6.42965E+00 5.00000E-01
 -1      1983 1.01203E+01-7.83009E+00-5.00000E-01
 -1      1984-1.04702E+01 8.47592E+00 5.00000E-01
 -1      1985 1.84671E-01-1.31249E+01-5.00000E-01
 -1      1986 6.83112E+00-1.04410E+01-5.00000E-01
 -1      1987-1.22143E+01-2.55897E+00-5.00000E-01
 -1      1988-1.09119E+01-5.73466E+00 5.00000E-01
 -1      1989 1.22759E+01 1.12232E+00 5.00000E-01
 -1      1990-1.33969E+01 1.41013E+00 5.00000E-01
 -1      1991-4.67348E+00-7.96390E+00-5.00000E-01
 -1      1992-3.85907E+00-3.89298E-01-5.00000E-01
 -1      1993-7.23591E+00 9.39629E+00-5.00000E-01
 -1      1994 1.12232E+00 1.22759E+01 5.00000E-01
 -1      1995-1.09119E+01 5.73466E+00 5.00000E-01
 -1      1996-7.28869E+00-9.46061E+00-5.00000E-01
 -1      1997-6.22585E+00 1.12326E+01-5.00000E-01
 -1      1998-1.28057E+01 2.36929E+00-5.00000E-01
 -1      1999 1.17710E+01 3.66092E+00 5.00000E-01
 -1      2000 1.10341E+01 2.19481E+00-5.00000E-01
 -1      2001 0.00000E+00 1.12497E+01-5.00000E-01
 -1      2002-9.26888E+00 9.03330E+00-5.00000E-01
 -1      2003 3.82402E+00 1.29168E+01 5.00000E-01
 -1      2004-2.31557E+00-1.22603E+01-5.00000E-01
 -1      2005 1.33969E+01-1.41013E+00 5.00000E-01
 -1      2006-6.07092E+00-9.09453E+00 5.00000E-01
 -1      2007-1.31782E+01-1.15074E+00-5.00000E-01
 -1      2008-7.88674E+00 9.47394E+00 5.00000E-01
 -1      2009 3.66092E+00-1.17710E+01 5.00000E-01
 -1      2010-1.08102E+01 7.44525E+00-5.00000E-01
 -1      2011-1.19526E+01 4.77807E+00-5.00000E-01
 -1      2012 2.01011E+00-1.19984E+01-5.00000E-01
 -1      2013-1.08667E+01 5.89122E+00-5.00000E-01
 -1      2014 5.54819E+00-1.14888E+01-5.00000E-01
 -1      2015 3.49196E+00-5.22556E+00-5.00000E-01
 -1      2016-1.22773E+01-4.44672E+00-5.00000E-01
 -1      2017 3.36110E+00 1.23463E+01-5.00000E-01
 -1      2018 8.70281E+00 9.71055E+00-5.00000E-01
 -1      2019 1.07586E+01-8.35386E+00 5.00000E-01
 -1      2020 5.09285E+00-7.62178E+00-5.00000E-01
 -1      2021-8.47592E+00-1.04702E+01 5.00000E-01
 -1      2022-9.08919E+00-6.07320E+00 5.00000E-01
 -1      2023 9.24473E+00-1.83889E+00 5.00000E-01
 -1      2024-1.17710E+01-3.66092E+00 5.00000E-01
 -1      2025-1.17710E+01 3.66092E+00 5.00000E-01
 -1      2026 9.98513E+00 1.98616E+00 5.00000E-01
 -1      2027-5.23672E+00-7.83730E+00 5.00000E-01
 -1      2028-1.15123E+01 1.47292E+00-5.00000E-01
 -1      2029-2.13262E+00-1.07215E+01 5.00000E-01
 -1      2030-6.07092E+00 9.09453E+00 5.00000E-01
 -1      2031-2.18775E+00-9.39491E+00-5.00000E-01
 -1      2032 5.73466E+00 1.09119E+01 5.00000E-01
 -1      2033 6.07320E+00 9.08919E+00 5.00000E-01
 -1      2034-1.07215E+01-2.13262E+00 5.00000E-01
 -1      2035-9.22577E+00 6.72092E+00 5.00000E-01
 -1      2036-7.49284E+00-6.07074E+00-5.00000E-01
 -1      2037 1.17710E+01-3.66092E+00 5.00000E-01
 -1      2038-5.51578E+00 1.24286E+01-5.00000E-01
 -1      2039 9.47394E+00-7.88674E+00 5.00000E-01
 -1      2040 5.73466E+00-1.09119E+01 5.00000E-01
 -1      2041-4.52362E+00 5.28499E+00-5.00000E-01
 -1      2042-7.64950E+00 6.90528E-01-5.00000E-01
 -1      2043 1.18478E+01-2.44165E+00-5.00000E-01
 -1      2044 1.31330E+01-3.60439E+00 5.00000E-01
 -1      2045-1.29984E+01-4.10788E+00 5.00000E-01
 -1      2046-1.31330E+01 3.60439E+00 5.00000E-01
 -1      2047-7.82005E+00-5.22520E+00 5.00000E-01
 -1      2048-1.83484E+00-9.22438E+00 5.00000E-01
 -1      2049 5.22520E+00-7.82005E+00 5.00000E-01
 -1      2050-1.19987E+01 0.00000E+00 5.00000E-01
 -1      2051-2.13262E+00 1.07215E+01 5.00000E-01
 -1      2052 1.16060E+01-7.56446E+00 5.00000E-01
 -1      2053 2.13262E+00 1.07215E+01 5.00000E-01
 -1      2054 9.60431E+00 8.28981E+00-5.00000E-01
 -1      2055-3.82402E+00-1.29168E+01 5.00000E-01
 -1      2056 5.53956E+00 8.29041E+00-5.00000E-01
 -1      2057 5.58152E+00 9.72891E+00-5.00000E-01
 -1      2058 1.41013E+00-1.33969E+01 5.00000E-01
 -1      2059 8.99401E+00 7.06663E+00-5.00000E-01
 -1      2060 1.61739E+00-1.34043E+01-5.00000E-01
 -1      2061 1.07486E+01-5.76486E+00 5.00000E-01
 -1      2062-3.66092E+00 1.17710E+01 5.00000E-01
 -1      2063-1.19435E+00-4.79489E+00-5.00000E-01
 -1      2064-1.13991E+01-3.53110E+00-5.00000E-01
 -1      2065 9.16420E+00-9.42838E+00-5.00000E-01
 -1      2066-1.88495E-01 2.41602E+00-5.00000E-01
 -1      2067 1.14486E+01-7.36973E+00-5.00000E-01
 -1      2068 6.41156E+00-8.75418E+00-5.00000E-01
 -1      2069 2.13802E+00-1.07236E+01 5.00000E-01
 -1      2070 6.70820E+00 8.97619E+00-5.00000E-01
 -1      2071 9.55168E+00 7.83980E+00 5.00000E-01
 -1      2072-8.76259E+00-1.00978E+01-5.00000E-01
 -1      2073-1.37367E+01-9.83608E-01 5.00000E-01
 -1      2074-1.12232E+00 1.22759E+01 5.00000E-01
 -1      2075-3.60439E+00 1.31330E+01 5.00000E-01
 -1      2076-1.04535E+01 4.40196E+00-5.00000E-01
 -1      2077-6.42965E+00-1.18375E+01 5.00000E-01
 -1      2078-8.22487E+00 1.06014E+01-5.00000E-01
 -1      2079 1.32489E+01-2.86668E+00-5.00000E-01
 -1      2080 1.31330E+01 3.60439E+00 5.00000E-01
 -1      2081-9.50120E+00 1.47523E+00-5.00000E-01
 -1      2082-1.07215E+01 2.13262E+00 5.00000E-01
 -1      2083-1.18950E+01 6.70666E+00-5.00000E-01
 -1      2084 1.62493E+00-8.16748E+00-5.00000E-01
 -1      2085 5.65195E+00-2.71279E+00-5.00000E-01
 -1      2086 3.53988E+00 4.51040E+00-5.00000E-01
 -1      2087 2.30502E-01-1.31804E+00-5.00000E-01
 -1      2088-8.35581E+00 1.07539E+01 5.00000E-01
 -1      2089 3.60439E+00-1.31330E+01 5.00000E-01
 -1      2090-3.20813E+00 2.56300E+00-5.00000E-01
 -1      2091-1.53540E+00 3.74350E-01-5.00000E-01
 -1      2092 1.09708E+01-8.52807E+00-5.00000E-01
 -1      2093 2.95596E+00-2.58006E+00-5.00000E-01
 -1      2094-1.86732E+00 1.25386E+01-5.00000E-01
 -1      2095-3.52396E+00-1.16768E+01 5.00000E-01
 -1      2096 1.84671E-01 1.31249E+01-5.00000E-01
 -1      2097 1.82501E+00 9.17390E+00-5.00000E-01
 -1      2098-1.81078E+00 9.10236E+00-5.00000E-01
 -1      2099 5.88811E+00 1.17957E+01-5.00000E-01
 -1      2100 4.61620E-01-1.11444E+00 5.00000E-01
 -1      2101 1.19591E+01-4.59666E+00-5.00000E-01
 -1      2102-1.11444E+00 4.61620E-01 5.00000E-01
 -1      2103 1.22920E+01-3.49909E+00-5.00000E-01
 -1      2104 1.03551E+01-3.59912E+00-5.00000E-01
 -1      2105-6.55174E+00-7.71514E+00-5.00000E-01
 -1      2106-9.47394E+00-7.88674E+00 5.00000E-01
 -1      2107-9.30088E+00 1.01862E+01-5.00000E-01
 -1      2108-7.09903E+00 1.05170E+01-5.00000E-01
 -1      2109-1.35034E+01-2.40731E+00-5.00000E-01
 -1      2110-1.18351E+01-6.73765E+00 5.00000E-01
 -1      2111 1.35126E+01 1.69567E+00 5.00000E-01
 -1      2112 1.29090E+01 2.37946E+00-5.00000E-01
 -1      2113-1.05056E+01 4.33803E-01-5.00000E-01
 -1      2114 1.04346E+01 8.79015E+00 5.00000E-01
 -1      2115-2.40879E+00 6.65470E+00-5.00000E-01
 -1      2116-2.15850E+00-2.36939E+00-5.00000E-01
 -1      2117-1.45412E-01-9.20364E+00-5.00000E-01
 -1      2118 7.57571E+00-4.99481E+00-5.00000E-01
 -1      2119-1.34703E+01-2.99630E+00 5.00000E-01
 -1      2120-1.32793E+01 7.89067E-01-5.00000E-01
 -1      2121 3.62623E-01 5.87326E-01-5.00000E-01
 -1      2122-1.41013E+00-1.33969E+01 5.00000E-01
 -1      2123 3.21338E+00-1.12758E+01-5.00000E-01
 -1      2124-1.05665E+01-1.51565E+00-5.00000E-01
 -1      2125-7.43891E+00 3.76460E+00-5.00000E-01
 -1      2126 1.30462E+01-1.01286E+00-5.00000E-01
 -1      2127-4.18931E-01-3.08228E+00-5.00000E-01
 -1      2128-9.42735E+00 7.64512E+00-5.00000E-01
 -1      2129 3.67222E+00-1.33720E+01-5.00000E-01
 -1      2130-6.73733E+00 6.77489E+00-5.00000E-01
 -1      2131-5.37209E+00 1.49221E+00-5.00000E-01
 -1      2132 8.47592E+00-1.04702E+01 5.00000E-01
 -1      2133-6.27039E+00 5.07916E+00-5.00000E-01
 -1      2134-5.63026E+00 3.33351E+00-5.00000E-01
 -1      2135-5.51681E+00 6.19883E+00-5.00000E-01
 -1      2136-1.72390E+00 1.96382E+00-5.00000E-01
 -1      2137 1.08006E+00-5.75829E+00-5.00000E-01
 -1      2138 2.58240E+00 1.07653E+01-5.00000E-01
 -1      2139 2.38707E+00 2.19683E+00-5.00000E-01
 -1      2140-7.92316E+00 5.37169E+00-5.00000E-01
 -1      2141 4.97972E+00-9.08756E+00-5.00000E-01
 -1      2142-8.68324E+00-7.84351E+00-5.00000E-01
 -1      2143 1.34268E+01 9.53085E-01-5.00000E-01
 -1      2144-8.07486E+00 2.26391E+00-5.00000E-01
 -1      2145-2.42695E+00-6.93598E+00-5.00000E-01
 -1      2146 7.38295E+00 1.12627E+00-5.00000E-01
 -1      2147-7.23224E+00-9.33462E+00 5.00000E-01
 -1      2148-4.10202E+00-4.54632E+00-5.00000E-01
 -1      2149-5.77004E+00 9.78595E+00-5.00000E-01
 -1      2150 1.19221E+01 6.38284E+00 5.00000E-01
 -1      2151-1.05072E+01 1.90156E+00-5.00000E-01
 -1      2152-9.50280E+00 2.87163E+00-5.00000E-01
 -1      2153-6.74275E+00 1.18351E+01 5.00000E-01
 -1      2154 6.73765E+00 1.18351E+01 5.00000E-01
 -1      2155-5.73466E+00 1.09119E+01 5.00000E-01
 -1      2156 4.41288E+00 9.04314E+00-5.00000E-01
 -1      2157 7.41296E+00 1.15295E+01-5.00000E-01
 -1      2158 1.69567E+00 1.35126E+01 5.00000E-01
 -1      2159-1.20957E+01 6.28673E+00 5.00000E-01
 -1      2160-8.47017E+00 3.31652E+00-5.00000E-01
 -1      2161 3.13994E+00 9.52401E+00-5.00000E-01
 -1      2162-4.60681E+00-1.07225E+01-5.00000E-01
 -1      2163-1.36149E+01 2.54935E+00 5.00000E-01
 -1      2164 7.84803E+00 1.13707E+01 5.00000E-01
 -1      2165 3.52396E+00 1.16768E+01 5.00000E-01
 -1      2166-1.20913E+01 3.47175E+00-5.00000E-01
 -1      2167-8.36982E+00-8.98309E+00-5.00000E-01
 -1      2168-8.97399E+00-5.89714E-01-5.00000E-01
 -1      2169-9.89216E+00-9.07325E+00-5.00000E-01
 -1      2170 9.14274E+00 6.10899E+00 5.00000E-01
 -1      2171-2.55232E+00 4.55881E+00-5.00000E-01
 -1      2172 5.99319E+00-9.51464E+00 5.00000E-01
 -1      2173 1.17655E+01 6.70554E+00-5.00000E-01
 -1      2174 9.93979E+00 9.49907E+00-5.00000E-01
 -1      2175 1.15659E+01 2.93471E-01-5.00000E-01
 -1      2176-6.88116E+00 1.20940E+01-5.00000E-01
 -1      2177-1.11068E+01-6.35347E+00-5.00000E-01
 -1      2178 1.32158E+01 3.62485E+00-5.00000E-01
 -1      2179-3.80109E+00-9.32294E+00-5.00000E-01
 -1      2180 2.42756E+00 1.33974E+01-5.00000E-01
 -1      2181 8.43816E+00 1.08897E+01-5.00000E-01
 -1      2182-3.05357E+00-1.06850E+01-5.00000E-01
 -1      2183 1.07241E+01 8.63033E+00-5.00000E-01
 -1      2184 1.22453E+01 1.33138E+00-5.00000E-01
 -1      2185-3.01963E+00 9.73525E-01-5.00000E-01
 -1      2186 9.31521E+00-8.97932E-02-5.00000E-01
 -1      2187-6.85436E+00-2.95756E+00-5.00000E-01
 -1      2188-5.94454E+00-5.17232E-01-5.00000E-01
 -1      2189-4.20917E+00 8.09364E+00-5.00000E-01
 -1      2190-2.63233E+00-2.04975E-01-5.00000E-01
 -1      2191 2.56017E+00 6.79719E+00-5.00000E-01
 -1      2192-2.41252E-01 4.73305E+00-5.00000E-01
 -1      2193-1.30576E+01 4.23491E+00-5.00000E-01
 -1      2194-7.44022E+00-1.34937E+00-5.00000E-01
 -1      2195-5.35432E+00-9.36048E+00-5.00000E-01
 -1      2196-7.59474E+00-8.15703E+00-5.00000E-01
 -1      2197 9.06680E+00 4.23407E+00-5.00000E-01
 -1      2198 1.35181E+01-2.53770E+00 5.00000E-01
 -1      2199 5.22520E+00 7.82006E+00 5.00000E-01
 -1      2200-1.49499E+00-1.07954E+01-5.00000E-01
 -1      2201-9.76935E-01-1.36689E+01-5.00000E-01
 -1      2202-4.71225E+00-2.42505E+00-5.00000E-01
 -1      2203 1.20856E+00 5.69848E+00-5.00000E-01
 -1      2204-1.04088E+01-9.01781E+00 5.00000E-01
 -1      2205-3.89824E+00 6.63690E+00-5.00000E-01
 -1      2206-1.20796E+01 1.24967E+00 5.00000E-01
 -1      2207-3.56836E+00-1.30296E+01-5.00000E-01
 -1      2208 1.26904E+01 7.58164E-02-5.00000E-01
 -1      2209-5.15183E-01-1.02581E+01-5.00000E-01
 -1      2210 7.88674E+00 9.47394E+00 5.00000E-01
 -1      2211-1.46671E+00-1.08387E+00-5.00000E-01
 -1      2212 1.16725E+01-1.07763E+00-5.00000E-01
 -1      2213-1.34620E+00 3.51413E+00-5.00000E-01
 -1      2214-9.34063E+00 7.95816E+00 5.00000E-01
 -1      2215-3.80493E+00-1.17488E+01-5.00000E-01
 -1      2216 1.22371E+01-9.65313E-01 5.00000E-01
 -1      2217 7.63627E+00 9.53142E+00-5.00000E-01
 -1      2218-2.50848E+00 1.08095E+01-5.00000E-01
 -1      2219 9.08193E+00-6.06835E+00 5.00000E-01
 -1      2220-5.50716E+00-3.80213E+00-5.00000E-01
 -1      2221-3.16439E+00 7.55509E+00-5.00000E-01
 -1      2222-5.98173E+00-1.89314E+00-5.00000E-01
 -1      2223-9.38033E+00 4.00821E+00-5.00000E-01
 -1      2224-1.28892E+01-1.63147E-01-5.00000E-01
 -1      2225 1.01290E+01-5.70857E+00-5.00000E-01
 -1      2226-8.93044E+00-2.80307E+00-5.00000E-01
 -1      2227-1.04436E+01 9.04636E+00-5.00000E-01
 -1      2228 1.92209E+00-4.78072E-01-5.00000E-01
 -1      2229-6.92396E+00-4.56535E+00-5.00000E-01
 -1      2230-3.67222E+00 1.33720E+01-5.00000E-01
 -1      2231-1.91997E+00 7.83216E+00-5.00000E-01
 -1      2232 8.22047E-01-1.21154E+01-5.00000E-01
 -1      2233-6.75161E-01 1.27196E+00-5.00000E-01
 -1      2234 7.74753E+00-9.35838E+00-5.00000E-01
 -1      2235-1.21273E+00-1.21365E+01 5.00000E-01
 -1      2236-1.63248E+00-3.56467E+00-5.00000E-01
 -1      2237 1.09659E+01-2.49023E+00 5.00000E-01
 -1      2238-7.22131E+00-1.11709E+01-5.00000E-01
 -1      2239-1.25088E+01-1.12591E+00 5.00000E-01
 -1      2240 8.97257E+00-6.76463E+00-5.00000E-01
 -1      2241-1.01873E+01-7.57396E+00-5.00000E-01
 -1      2242 1.20997E+00 3.60698E+00-5.00000E-01
 -1      2243-1.03929E+00 6.01617E+00-5.00000E-01
 -1      2244 4.65293E+00 6.34051E+00-5.00000E-01
 -1      2245 3.31485E+00 8.06177E+00-5.00000E-01
 -1      2246 1.39868E+00 7.73997E+00-5.00000E-01
 -1      2247-5.84637E+00 8.14957E+00-5.00000E-01
 -1      2248-3.29841E+00 9.28378E+00-5.00000E-01
 -1      2249 1.02939E+01 9.62742E-01-5.00000E-01
 -1      2250-1.88694E-01 3.57513E+00-5.00000E-01
 -1      2251 8.88763E-01-1.01584E+01-5.00000E-01
 -1      2252 1.45290E+00 1.20533E+01-5.00000E-01
 -1      2253 1.25631E+00 1.36710E+01-5.00000E-01
 -1      2254-2.94394E+00-8.22737E+00-5.00000E-01
 -1      2255 1.25879E+01 4.97079E+00-5.00000E-01
 -1      2256 1.18722E+01 3.29537E+00-5.00000E-01
 -1      2257-2.64368E+00-4.61793E+00-5.00000E-01
 -1      2258-5.50663E+00-5.49977E+00-5.00000E-01
 -1      2259 7.96932E+00 5.32493E+00 5.00000E-01
 -1      2260-6.78914E-01 1.22633E+01-5.00000E-01
 -1      2261 4.34728E+00 1.30649E+01-5.00000E-01
 -1      2262-9.16146E-01-1.22866E+01-5.00000E-01
 -1      2263-2.04412E+00-5.73103E+00-5.00000E-01
 -1      2264-3.30978E+00-3.29758E+00-5.00000E-01
 -1      2265 1.01580E+01-1.38525E+00-5.00000E-01
 -1      2266 6.85189E+00-1.17757E+01-5.00000E-01
 -1      2267 6.66060E+00-6.61671E+00-5.00000E-01
 -1      2268-7.90854E+00-3.66731E-01-5.00000E-01
 -1      2269 6.27165E+00 3.73845E+00-5.00000E-01
 -1      2270 3.23825E+00-7.12794E+00-5.00000E-01
 -1      2271 1.59561E+00-1.94390E+00-5.00000E-01
 -1      2272 8.78627E+00-3.94025E+00-5.00000E-01
 -1      2273-1.19237E+01-1.32603E+00-5.00000E-01
 -1      2274-3.44932E+00-1.75769E+00-5.00000E-01
 -1      2275-4.85800E+00-1.16730E+00-5.00000E-01
 -1      2276 1.07584E+01-4.59024E-01-5.00000E-01
 -1      2277 4.54709E+00 1.17153E+01-5.00000E-01
 -1      2278 3.20113E+00-8.99649E+00-5.00000E-01
 -1      2279-8.19860E+00-8.95751E+00 5.00000E-01
 -1      2280 1.73989E-03 9.41111E+00-5.00000E-01
 -1      2281 2.56703E+00 7.87684E-01-5.00000E-01
 -1      2282-1.39876E+00 4.67204E+00-5.00000E-01
 -1      2283-5.05654E+00 7.27980E+00-5.00000E-01
 -1      2284 2.97796E-01-4.43864E+00-5.00000E-01
 -1      2285 6.85637E+00-7.72276E+00-5.00000E-01
 -1      2286 6.68547E+00 7.67628E+00-5.00000E-01
 -1      2287 5.30923E+00-1.27007E+01-5.00000E-01
 -1      2288-7.76577E+00-1.14256E+01 5.00000E-01
 -1      2289-8.07001E+00 8.19330E+00-5.00000E-01
 -1      2290 1.10037E+00 2.31913E+00-5.00000E-01
 -1      2291-3.14163E+00 5.65203E+00-5.00000E-01
 -1      2292-4.94709E+00 2.84874E-01-5.00000E-01
 -1      2293 2.54362E+00 5.43684E+00-5.00000E-01
 -1      2294-8.79918E+00 5.54691E-01-5.00000E-01
 -1      2295-3.62483E+00 4.68611E+00-5.00000E-01
 -1      2296 7.57814E+00-7.02466E+00-5.00000E-01
 -1      2297-4.97929E-01-3.07507E-01-5.00000E-01
 -1      2298-9.17035E+00-6.23037E+00-5.00000E-01
 -1      2299-6.27664E+00-1.02772E+01-5.00000E-01
 -1      2300-7.41900E+00-7.11998E+00-5.00000E-01
 -1      2301 1.90919E+00-6.83698E+00-5.00000E-01
 -1      2302 2.85486E+00 1.35541E+01 5.00000E-01
 -1      2303-1.20772E+01-6.87216E+00-5.00000E-01
 -1      2304 5.90026E+00-5.14973E-01-5.00000E-01
 -1      2305-5.73987E+00-1.19624E+01-5.00000E-01
 -1      2306-3.95787E-01-7.17397E+00-5.00000E-01
 -1      2307-4.39779E+00-3.48300E+00-5.00000E-01
 -1      2308-6.61538E+00 2.25663E+00-5.00000E-01
 -1      2309 1.07975E+01 4.74498E+00-5.00000E-01
 -1      2310-1.00591E+01-5.55820E-01-5.00000E-01
 -1      2311 9.38243E+00 5.65940E+00-5.00000E-01
 -1      2312 5.56483E+00-1.02170E+01-5.00000E-01
 -1      2313 3.19497E+00-1.01362E+01-5.00000E-01
 -1      2314 1.18724E+00 1.04534E+01-5.00000E-01
 -1      2315-4.54695E+00 2.54666E+00-5.00000E-01
 -1      2316-6.41888E+00 4.03452E+00-5.00000E-01
 -1      2317 7.72426E+00-9.43936E+00 5.00000E-01
 -1      2318 5.62558E+00 7.07477E+00-5.00000E-01
 -1      2319-2.20786E+00 2.90289E+00-5.00000E-01
 -1      2320-5.30971E+00 4.44125E+00-5.00000E-01
 -1      2321 4.00556E-01-8.10601E+00-5.00000E-01
 -1      2322-5.48353E+00-6.86487E+00-5.00000E-01
 -1      2323 4.61620E-01 1.11444E+00 5.00000E-01
 -1      2324 1.04971E+01-6.77085E+00-5.00000E-01
 -1      2325 5.51517E+00-4.77997E+00-5.00000E-01
 -1      2326-1.02072E+01-3.02316E+00-5.00000E-01
 -1      2327 7.83730E+00-5.23672E+00 5.00000E-01
 -1      2328 1.09893E+01 2.70487E+00 5.00000E-01
 -1      2329-3.52506E+00-5.92381E+00-5.00000E-01
 -1      2330 7.96657E+00-1.10908E+01-5.00000E-01
 -1      2331 9.81920E-01-3.20959E+00-5.00000E-01
 -1      2332 2.67215E+00-1.41440E+00-5.00000E-01
 -1      2333-4.16032E+00 1.39404E+00-5.00000E-01
 -1      2334-3.67035E+00-7.18738E+00-5.00000E-01
 -1      2335 1.48659E+00-1.17146E+01 5.00000E-01
 -1      2336 9.06026E+00-8.28108E+00-5.00000E-01
 -1      2337-9.24473E+00 1.83889E+00 5.00000E-01
 -1      2338 5.33912E+00 1.08210E+01-5.00000E-01
 -1      2339-5.29167E+00 7.91954E+00 5.00000E-01
 -1      2340 6.73765E+00-1.18351E+01 5.00000E-01
 -1      2341-4.88224E+00 1.14281E+01-5.00000E-01
 -1      2342-9.33865E+00-1.85757E+00 5.00000E-01
 -1      2343-1.12778E+01-5.14576E+00-5.00000E-01
 -1      2344-1.32451E+01-3.63373E+00-5.00000E-01
 -1      2345 1.32756E+01-3.94713E+00-5.00000E-01
 -1      2346 2.69192E+00-8.05173E+00-5.00000E-01
 -1      2347 3.52503E-01-2.36460E+00-5.00000E-01
 -1      2348-1.83889E+00 9.24473E+00 5.00000E-01
 -1      2349 1.83889E+00 9.24473E+00 5.00000E-01
 -1      2350-1.05835E+00 1.35914E+01-5.00000E-01
 -1      2351-3.57034E+00 1.13084E+01-5.00000E-01
 -1      2352-2.98448E+00 1.22913E+01-5.00000E-01
 -1      2353-6.01236E+00 5.88352E-01-5.00000E-01
 -1      2354-6.38128E+00-6.19732E+00-5.00000E-01
 -1      2355 4.36880E+00-1.58911E+00-5.00000E-01
 -1      2356 2.54935E+00-1.36149E+01 5.00000E-01
 -1      2357-9.31815E+00 1.02749E+01 5.00000E-01
 -1      2358-1.08724E+00 1.03294E+01-5.00000E-01
 -1      2359 9.75150E+00-4.60126E+00-5.00000E-01
 -1      2360-9.47516E-01-7.11439E-01 5.00000E-01
 -1      2361 7.69207E+00-9.79747E-01-5.00000E-01
 -1      2362-5.76486E+00-1.07486E+01 5.00000E-01
 -1      2363-1.69567E+00 1.35126E+01 5.00000E-01
 -1      2364 4.21701E+00-3.70161E+00-5.00000E-01
 -1      2365 8.85395E+00 1.32045E+00-5.00000E-01
 -1      2366 1.85819E+00-9.34177E+00 5.00000E-01
 -1      2367-7.95454E+00-3.71534E+00-5.00000E-01
 -1      2368 7.30559E+00-2.59211E+00-5.00000E-01
 -1      2369-5.40193E-01 1.30413E+00 5.00000E-01
 -1      2370 7.90314E+00 2.85449E+00-5.00000E-01
 -1      2371 9.55241E+00 2.73401E+00-5.00000E-01
 -1      2372-2.23169E+00-1.35209E+01-5.00000E-01
 -1      2373 1.08611E+01 5.68080E+00 5.00000E-01
 -1      2374-8.12494E+00-4.97169E+00-5.00000E-01
 -1      2375-9.16811E+00-4.03543E+00-5.00000E-01
 -1      2376 7.58013E+00-3.77778E+00-5.00000E-01
 -1      2377-2.20560E+00 1.36358E+01-5.00000E-01
 -1      2378 8.85222E+00-1.17053E+00-5.00000E-01
 -1      2379 6.98811E+00-7.37823E-03-5.00000E-01
 -1      2380 7.61792E+00 4.27563E+00-5.00000E-01
 -1      2381 3.78273E+00-8.07340E+00-5.00000E-01
 -1      2382 1.20838E+01-6.05315E+00-5.00000E-01
 -1      2383-7.85757E+00-2.41222E+00-5.00000E-01
 -1      2384-2.06539E-01-5.62928E+00-5.00000E-01
 -1      2385 4.47721E+00 7.58464E+00-5.00000E-01
 -1      2386 2.64941E+00-1.36801E+01-5.00000E-01
 -1      2387 7.55406E-01-6.99660E+00-5.00000E-01
 -1      2388-8.08540E+00 6.71146E+00-5.00000E-01
 -1      2389 2.03623E+00-9.56008E+00-5.00000E-01
 -1      2390 8.34724E-01 8.68799E+00-5.00000E-01
 -1      2391 5.50729E+00-1.58351E+00-5.00000E-01
 -1      2392 2.57284E+00 3.54826E+00-5.00000E-01
 -1      2393 1.51736E+00 6.69932E+00-5.00000E-01
 -1      2394 8.58737E-01 4.65249E+00-5.00000E-01
 -1      2395 5.25867E+00 1.55499E+00-5.00000E-01
 -1      2396 6.54970E+00-8.61846E+00 5.00000E-01
 -1      2397 3.50542E+00 6.10541E+00-5.00000E-01
 -1      2398-4.67916E+00 9.22612E+00-5.00000E-01
 -1      2399-6.35166E+00-8.82792E+00-5.00000E-01
 -1      2400-1.11410E+01-8.04857E+00 5.00000E-01
 -1      2401 8.76450E+00 1.04406E+01 5.00000E-01
 -1      2402-1.04788E+00-2.13816E+00-5.00000E-01
 -1      2403 8.36765E+00 5.13651E+00-5.00000E-01
 -1      2404 1.01488E+01 3.75570E+00-5.00000E-01
 -1      2405-1.49698E+00-8.11886E+00-5.00000E-01
 -1      2406-1.35945E+00-6.61184E+00-5.00000E-01
 -1      2407-9.05917E+00 5.12536E+00-5.00000E-01
 -1      2408-9.39092E+00-1.70502E+00-5.00000E-01
 -1      2409 6.55687E+00 2.31731E+00-5.00000E-01
 -1      2410 3.54986E+00 1.12711E+01-5.00000E-01
 -1      2411 4.44618E+00-6.32093E+00-5.00000E-01
 -1      2412 2.34705E+00-4.08048E+00-5.00000E-01
 -1      2413 1.03249E+01-1.58432E+00 5.00000E-01
 -1      2414 8.23538E+00 3.37571E-01-5.00000E-01
 -1      2415-1.13511E+01-7.88919E+00-5.00000E-01
 -1      2416 6.01648E+00 6.55459E-01-5.00000E-01
 -1      2417-1.03498E+00 7.13980E+00-5.00000E-01
 -1      2418 1.06638E+01-2.45593E+00-5.00000E-01
 -1      2419 5.61709E+00-5.99194E+00-5.00000E-01
 -1      2420-3.00305E+00 3.60126E+00-5.00000E-01
 -1      2421 5.10080E+00 4.81460E+00-5.00000E-01
 -1      2422-3.12880E-01 8.20737E+00-5.00000E-01
 -1      2423 8.95041E+00-1.05370E+01-5.00000E-01
 -1      2424 7.60953E+00 6.49975E+00-5.00000E-01
 -1      2425 5.79004E+00 5.84557E+00-5.00000E-01
 -1      2426-6.96358E+00 7.89759E+00-5.00000E-01
 -1      2427 1.42196E+00 1.15909E+00-5.00000E-01
 -1      2428 4.65965E+00 3.15960E+00-5.00000E-01
 -1      2429 2.02698E+00-3.07682E+00-5.00000E-01
 -1      2430-1.24754E+01-5.68404E+00-5.00000E-01
 -1      2431 4.84992E+00 4.41667E-01-5.00000E-01
 -1      2432-1.25409E+01-5.92687E+00 5.00000E-01
 -1      2433-4.81649E+00-1.28264E+01-5.00000E-01
 -1      2434 1.16033E+01 5.56636E+00-5.00000E-01
 -1      2435 4.24916E+00 5.39332E+00-5.00000E-01
 -1      2436-4.58629E+00 3.63166E+00-5.00000E-01
 -1      2437 2.24883E+00-5.32359E+00-5.00000E-01
 -1      2438 7.96178E+00-1.14396E+01 5.00000E-01
 -1      2439-4.61334E+00-6.16740E+00-5.00000E-01
 -1      2440 3.83450E+00 1.44617E+00-5.00000E-01
 -1      2441 6.98287E+00 5.38531E+00-5.00000E-01
 -1      2442 4.56057E+00-2.66459E+00-5.00000E-01
 -1      2443 8.78616E+00-5.47560E+00-5.00000E-01
 -1      2444 5.29277E+00-3.72714E+00-5.00000E-01
 -1      2445 9.02676E+00 1.52681E+00 5.00000E-01
 -1      2446-2.80230E+00-1.35278E+01 5.00000E-01
 -1      2447 6.53301E+00-3.39562E+00-5.00000E-01
 -1      2448 2.09704E+00-1.07801E+01-5.00000E-01
 -1      2449 6.68515E+00-1.59089E+00-5.00000E-01
 -1      2450 1.96249E+00 4.48333E+00-5.00000E-01
 -1      2451 1.31168E+00-4.19807E+00-5.00000E-01
 -1      2452 6.60926E+00-5.51863E+00-5.00000E-01
 -1      2453 3.50046E+00 2.73226E+00-5.00000E-01
 -1      2454 4.61936E+00-5.76093E-01-5.00000E-01
 -1      2455-4.84953E+00-1.30540E+01 5.00000E-01
 -1      2456-1.08566E+00 2.62949E+00-5.00000E-01
 -1      2457 2.82855E+00-4.74396E+00-5.00000E-01
 -1      2458-1.64099E+00-1.64099E+00 1.59375E+00
 -1      2459-3.66153E-01-2.36556E+00-5.00000E-01
 -1      2460-8.88093E-01-2.14405E+00 1.59375E+00
 -1      2461 3.97886E-01 1.59535E+00-5.00000E-01
 -1      2462-2.51297E+00-1.25907E+00-5.00000E-01
 -1      2463-1.55108E+00-1.73089E+00 1.92188E+00
 -1      2464 5.03154E-01 2.99570E+00-5.00000E-01
 -1      2465 1.92142E+00-1.24719E+00-5.00000E-01
 -1      2466 1.16035E+00-1.72187E-01 5.00000E-01
 -1      2467 8.30157E-01-4.02355E-01-5.00000E-01
 -1      2468-1.00476E+00 1.91312E+00-5.00000E-01
 -1      2469-2.32844E+00 5.47786E-01-5.00000E-01
 -1      2470-1.64099E+00-1.64099E+00 9.62285E-01
 -1      2471-1.64099E+00 1.64099E+00 1.69073E+00
 -1      2472-5.10364E+00-3.11709E+00-5.00000E-01
 -1      2473-1.70037E+00-1.78703E+00-5.00000E-01
 -1      2474 1.70612E+00 1.86247E+00-5.00000E-01
 -1      2475-8.88093E-01 2.14405E+00 1.05926E+00
 -1      2476 2.14405E+00-8.88093E-01 1.69074E+00
 -1      2477-1.80419E+00-1.47778E+00 1.48438E+00
 -1      2478 1.08333E+00-2.47713E+00-5.00000E-01
 -1      2479 2.14405E+00 8.88093E-01 1.59375E+00
 -1      2480-2.12014E+00-2.79189E+00 1.37500E+00
 -1      2481 1.64099E+00 1.64099E+00 1.59375E+00
 -1      2482-1.79589E+00-1.48608E+00 7.31143E-01
 -1      2483 4.54694E-01 2.35105E+00-5.00000E-01
 -1      2484-1.64099E+00 1.64099E+00 1.05927E+00
 -1      2485-5.62389E+00-1.21435E+00-5.00000E-01
 -1      2486-1.80466E+00-1.47731E+00 9.62285E-01
 -1      2487-2.56083E+00-1.88908E+00 1.48438E+00
 -1      2488-8.15910E-01-3.21101E+00 1.37500E+00
 -1      2489-1.42018E+00-1.86179E+00 1.92188E+00
 -1      2490-2.32070E+00 0.00000E+00 1.59375E+00
 -1      2491-2.14405E+00-8.88093E-01 1.48438E+00
 -1      2492-2.11523E+00-9.57675E-01 1.86719E+00
 -1      2493 1.80211E+00 3.80247E-01-5.00000E-01
 -1      2494 2.09874E+00 1.29477E+00-5.00000E-01
 -1      2495-3.82874E+00-2.56834E+00-5.00000E-01
 -1      2496-1.75642E+00-1.52555E+00 1.84571E+00
 -1      2497 0.00000E+00 2.32070E+00 1.59375E+00
 -1      2498-9.57675E-01-2.11523E+00 1.15625E+00
 -1      2499-7.85563E-01-2.18652E+00 8.45183E-01
 -1      2500-2.29766E+00 1.37171E+00-5.00000E-01
 -1      2501-1.76339E+00 1.51858E+00 1.97037E+00
 -1      2502 1.64099E+00-1.64099E+00 1.59375E+00
 -1      2503-6.87288E-01 2.31172E+00-5.00000E-01
 -1      2504-4.57431E+00-2.95976E+00-5.00000E-01
 -1      2505 2.14405E+00-8.88093E-01 9.62278E-01
 -1      2506 3.34912E+00 5.30415E+00-5.00000E-01
 -1      2507-2.32070E+00 0.00000E+00 9.62282E-01
 -1      2508 9.52735E-01-4.94209E+00-5.00000E-01
 -1      2509-1.84326E+00-3.70880E-01-5.00000E-01
 -1      2510-2.13010E+00-9.21761E-01 1.04688E+00
 -1      2511-7.28165E-01 2.21029E+00 7.79632E-01
 -1      2512-9.47994E-01-4.76589E+00 5.00000E-01
 -1      2513-1.12352E+00-5.71295E+00-5.00000E-01
 -1      2514-1.51070E+00 1.18319E+00-5.00000E-01
 -1      2515 3.28510E+00-3.90618E+00-5.00000E-01
 -1      2516 2.32070E+00 0.00000E+00 1.59375E+00
 -1      2517-2.14405E+00 8.88093E-01 1.59375E+00
 -1      2518-2.32070E+00 2.19065E-01 7.31141E-01
 -1      2519 1.80419E+00 1.47778E+00 1.48438E+00
 -1      2520-7.12783E-01-1.41924E+00 5.00000E-01
 -1      2521-5.37231E+00 8.13661E-01-5.00000E-01
 -1      2522-2.40034E+00-1.72859E+00 9.99637E-01
 -1      2523-2.06511E+00-1.07867E+00 1.64261E+00
 -1      2524-4.76589E+00-9.47994E-01 5.00000E-01
 -1      2525 2.47596E+00 3.69021E-02-5.00000E-01
 -1      2526 2.96662E+00-7.14679E-01 1.15625E+00
 -1      2527 1.59267E+00 1.68930E+00 1.15133E+00
 -1      2528-8.48596E-01 5.24504E+00-5.00000E-01
 -1      2529 2.06022E+00-1.09048E+00 7.31139E-01
 -1      2530 1.54199E+00 1.73998E+00 8.14563E-01
 -1      2531-1.72784E+00 1.55413E+00 1.37500E+00
 -1      2532 2.60307E+00-1.59236E+00 1.15625E+00
 -1      2533 1.79088E+00 1.49109E+00 1.74286E+00
 -1      2534-2.22459E+00-6.93655E-01 2.00978E+00
 -1      2535 2.05547E+00-1.10195E+00 9.62278E-01
 -1      2536 2.17836E+00-8.05258E-01 1.32651E+00
 -1      2537 3.60579E-01 5.40059E+00-5.00000E-01
 -1      2538-2.23237E+00 6.74855E-01 1.48438E+00
 -1      2539-8.18029E-01 4.66508E+00-5.00000E-01
 -1      2540-1.69359E+00 2.84746E+00 1.37500E+00
 -1      2541-2.21594E+00-7.14527E-01 1.24846E+00
 -1      2542 8.88093E-01-2.14405E+00 1.59375E+00
 -1      2543-2.13208E+00-9.16986E-01 1.26671E+00
 -1      2544-1.64346E+00 5.45761E+00-5.00000E-01
 -1      2545-1.78828E+00-1.49369E+00 1.22330E+00
 -1      2546-2.29954E+00-1.62779E+00 1.36188E+00
 -1      2547 2.12014E+00 2.79189E+00 1.37500E+00
 -1      2548-1.87773E+00-1.40424E+00 8.40833E-01
 -1      2549 4.57142E+00 1.17562E+00-5.00000E-01
 -1      2550-2.09539E+00 1.00556E+00 1.92188E+00
 -1      2551 1.27148E-01 2.32070E+00 1.92188E+00
 -1      2552-2.51815E+00-3.72641E+00-5.00000E-01
 -1      2553-3.39633E+00-5.06032E+00-5.00000E-01
 -1      2554-2.32070E+00-2.30808E-01 1.48438E+00
 -1      2555-1.76329E+00-1.51868E+00 1.66054E+00
 -1      2556 1.48081E+00 5.02593E+00-5.00000E-01
 -1      2557 7.53174E-02 2.32070E+00 1.15625E+00
 -1      2558-2.07229E+00-2.07229E+00 2.25000E+00
 -1      2559-8.88093E-01 2.14405E+00 1.59375E+00
 -1      2560 4.93610E+00-1.19194E+00-5.00000E-01
 -1      2561-1.86121E+00-1.42076E+00 1.10092E+00
 -1      2562-2.12014E+00 2.79189E+00 1.37500E+00
 -1      2563 9.57675E-01-2.11523E+00 1.15625E+00
 -1      2564-3.04385E+00 4.99929E+00-5.00000E-01
 -1      2565-3.87237E+00 2.13178E+00-5.00000E-01
 -1      2566-2.32070E+00 1.33020E-01 1.27802E+00
 -1      2567-2.32070E+00-2.11979E-01 1.74286E+00
 -1      2568-3.27883E+00-4.74999E-01 1.37500E+00
 -1      2569-2.32070E+00-1.46142E-01 1.20974E+00
 -1      2570-1.51359E+00 1.76838E+00 8.06357E-01
 -1      2571 1.64099E+00-1.64099E+00 9.62285E-01
 -1      2572 2.32070E+00 2.30808E-01 1.48438E+00
 -1      2573-1.03222E+00 2.08435E+00 1.32651E+00
 -1      2574 3.21101E+00 8.15910E-01 1.37500E+00
 -1      2575-2.05465E+00-1.10392E+00 1.16149E+00
 -1      2576 2.32070E+00-6.83309E-02 1.15134E+00
 -1      2577 3.60002E+00 7.10209E+00-5.00000E-01
 -1      2578 5.50409E+00-9.75806E-01-5.00000E-01
 -1      2579 2.75399E+00 4.33324E+00-5.00000E-01
 -1      2580 9.47994E-01 4.76589E+00 5.00000E-01
 -1      2581 5.37216E+00 8.81625E-01-5.00000E-01
 -1      2582 2.69967E+00-4.04032E+00 5.00000E-01
 -1      2583 2.32070E+00-1.27148E-01 1.92188E+00
 -1      2584 4.33224E+00 2.26187E+00-5.00000E-01
 -1      2585-2.16238E+00 3.79041E+00-5.00000E-01
 -1      2586-2.65630E+00 4.02290E+00-5.00000E-01
 -1      2587-2.05821E+00-1.09533E+00 1.40552E+00
 -1      2588-2.32070E+00-2.19065E-01 7.31141E-01
 -1      2589-4.99152E+00 3.07375E+00-5.00000E-01
 -1      2590-2.05573E+00 1.10133E+00 1.69301E+00
 -1      2591-2.21662E+00 7.12885E-01 1.98782E+00
 -1      2592-2.16782E+00 8.30697E-01 1.80652E+00
 -1      2593-2.84746E+00 1.69359E+00 1.37500E+00
 -1      2594 4.76454E+00-3.30759E+00-5.00000E-01
 -1      2595 3.74004E+00-2.96817E+00-5.00000E-01
 -1      2596-2.02258E+00-1.18135E+00 1.53184E+00
 -1      2597-3.02717E+00-1.76803E+00 1.37500E+00
 -1      2598 0.00000E+00-2.32070E+00 9.62282E-01
 -1      2599 3.47334E+00 4.74999E-01 1.37500E+00
 -1      2600 3.14656E+00-4.74999E-01 1.48438E+00
 -1      2601 1.79589E+00-1.48608E+00 7.31143E-01
 -1      2602-2.64116E+00-1.09400E+00 2.25000E+00
 -1      2603-2.56207E+00-1.57538E+00 1.07086E+00
 -1      2604-2.05449E+00-1.10431E+00 9.33875E-01
 -1      2605 2.22493E+00-6.92836E-01 1.54961E+00
 -1      2606 2.32070E+00-1.39999E-01 8.14565E-01
 -1      2607 2.46730E+00 1.79555E+00 1.15625E+00
 -1      2608-1.55051E+00-1.73146E+00 1.27802E+00
 -1      2609-2.32070E+00-2.33044E-01 9.91535E-01
 -1      2610 3.47408E+00-4.55246E+00-5.00000E-01
 -1      2611 7.70626E-01-2.19271E+00 1.92188E+00
 -1      2612 2.07781E+00-1.04802E+00 1.97037E+00
 -1      2613 1.06330E+00-2.07148E+00 1.98782E+00
 -1      2614 1.55108E+00-1.73089E+00 1.92188E+00
 -1      2615-3.21101E+00-8.15910E-01 1.37500E+00
 -1      2616-5.79502E-01 2.27187E+00 8.28125E-01
 -1      2617-7.70626E-01-2.19271E+00 1.92188E+00
 -1      2618 2.32070E+00 1.50014E-01 9.28858E-01
 -1      2619 2.91960E+00-4.74999E-01 9.99636E-01
 -1      2620 2.01623E+00-1.19669E+00 1.92188E+00
 -1      2621-2.32070E+00 7.23758E-02 1.92188E+00
 -1      2622-1.64298E+00-2.72527E+00 1.48438E+00
 -1      2623 2.96411E+00 4.74999E-01 1.07326E+00
 -1      2624-7.70626E-01 2.19271E+00 1.92188E+00
 -1      2625 2.27871E+00-5.63001E-01 1.48438E+00
 -1      2626-2.20806E+00-7.33563E-01 7.85797E-01
 -1      2627 1.58981E+00 1.69216E+00 1.92188E+00
 -1      2628 2.09539E+00 1.00556E+00 1.92188E+00
 -1      2629-4.74999E-01-3.01430E+00 1.15625E+00
 -1      2630 1.38070E-01 2.32070E+00 8.16601E-01
 -1      2631-2.91448E+00-4.74999E-01 9.91163E-01
 -1      2632 8.88093E-01 2.14405E+00 1.78772E+00
 -1      2633-1.03891E+00-2.08158E+00 1.84570E+00
 -1      2634-1.05134E+00-2.07643E+00 7.88228E-01
 -1      2635-1.53198E+00-2.45729E+00 1.85472E+00
 -1      2636-2.70758E+00 1.12151E+00 2.25000E+00
 -1      2637-3.21101E+00 8.15910E-01 1.37500E+00
 -1      2638-1.52121E+00 1.76076E+00 1.30693E+00
 -1      2639 2.32070E+00 2.11979E-01 1.74286E+00
 -1      2640 4.74999E-01 3.47334E+00 1.37500E+00
 -1      2641-6.74855E-01 2.23237E+00 1.69301E+00
 -1      2642 7.54968E-01 2.19919E+00 1.48438E+00
 -1      2643-8.15910E-01 3.21101E+00 1.37500E+00
 -1      2644-1.50399E+00-1.77798E+00 7.70255E-01
 -1      2645 1.75642E+00-1.52555E+00 1.84571E+00
 -1      2646-1.06504E+00-2.07076E+00 1.40149E+00
 -1      2647 0.00000E+00-2.32070E+00 1.70312E+00
 -1      2648-1.79716E+00 1.48481E+00 1.59490E+00
 -1      2649-1.63244E-01 2.32070E+00 1.84570E+00
 -1      2650-1.47351E+00 1.80846E+00 1.07903E+00
 -1      2651-6.80353E-01-2.23010E+00 1.12470E+00
 -1      2652 2.32070E+00 2.37275E-01 1.19980E+00
 -1      2653 2.22246E+00 6.98798E-01 1.42969E+00
 -1      2654 2.22788E+00-6.85704E-01 7.31139E-01
 -1      2655 1.50723E+00 1.77474E+00 1.39648E+00
 -1      2656 4.76589E+00-9.47994E-01 5.00000E-01
 -1      2657 1.48608E+00-1.79589E+00 7.31143E-01
 -1      2658 1.76007E+00 2.43182E+00 1.07325E+00
 -1      2659 1.01565E+00-2.09121E+00 8.16601E-01
 -1      2660 2.10266E+00 9.88029E-01 1.15625E+00
 -1      2661-2.55654E+00-1.57309E+00 1.64947E+00
 -1      2662 1.46546E+00 1.81651E+00 1.01361E+00
 -1      2663-2.65435E+00 1.98260E+00 1.37500E+00
 -1      2664-1.72934E+00 1.55263E+00 7.79634E-01
 -1      2665-2.84912E+00 6.66010E-01 1.70312E+00
 -1      2666 2.23539E+00-6.67576E-01 1.09667E+00
 -1      2667-2.05359E+00-1.10649E+00 2.02475E+00
 -1      2668 2.32070E+00-1.89158E-01 1.39648E+00
 -1      2669-2.21816E+00-7.09164E-01 1.01641E+00
 -1      2670 2.19065E-01-2.32070E+00 7.31141E-01
 -1      2671-6.74855E-01-2.23237E+00 1.69301E+00
 -1      2672 2.53595E+00-1.56456E+00 1.71391E+00
 -1      2673-3.11615E+00 4.39017E+00-5.00000E-01
 -1      2674 2.32070E+00 3.03156E-01 1.02906E+00
 -1      2675-1.16225E+00-2.03049E+00 6.61570E-01
 -1      2676-1.82652E+00 1.45545E+00 1.79095E+00
 -1      2677 1.74706E+00 1.53491E+00 9.28851E-01
 -1      2678 1.76803E+00-3.02717E+00 1.37500E+00
 -1      2679 1.07570E+00-1.27623E+00-5.00000E-01
 -1      2680 2.21662E+00 7.12885E-01 1.98782E+00
 -1      2681-1.14185E+00 1.30505E+00 5.00000E-01
 -1      2682 2.32070E+00-2.30808E-01 1.62574E+00
 -1      2683 1.75618E+00 2.42793E+00 1.66310E+00
 -1      2684 2.07021E+00 7.98651E-01-5.00000E-01
 -1      2685-2.01787E+00-1.19272E+00 1.28735E+00
 -1      2686-2.32070E+00 2.31474E-01 9.62282E-01
 -1      2687-6.76480E-01 2.87440E+00 9.91164E-01
 -1      2688 2.56083E+00-1.88908E+00 1.26562E+00
 -1      2689-2.09539E+00 1.00556E+00 8.28125E-01
 -1      2690 2.32070E+00 3.07897E-01 1.61992E+00
 -1      2691 2.05573E+00 1.10133E+00 1.69301E+00
 -1      2692 1.04802E+00 2.07781E+00 2.01886E+00
 -1      2693 2.54197E+00 1.56705E+00 1.70312E+00
 -1      2694 2.89950E+00-6.86876E-01 1.71391E+00
 -1      2695 2.21168E+00 7.24823E-01 1.14601E+00
 -1      2696 2.35884E+00-1.49120E+00 1.40537E+00
 -1      2697-2.12805E+00 9.26714E-01 1.20732E+00
 -1      2698 1.54692E+00-1.73505E+00 1.27802E+00
 -1      2699-5.99599E-01-2.26355E+00 1.92188E+00
 -1      2700-1.79716E+00 1.48481E+00 1.15510E+00
 -1      2701-1.15404E-01-2.32070E+00 1.97656E+00
 -1      2702 2.03909E-01-2.32070E+00 2.00287E+00
 -1      2703-1.42019E+00 1.86178E+00 1.22528E+00
 -1      2704 9.92559E-01-1.87723E+00-5.00000E-01
 -1      2705-7.06280E-01-5.21899E+00-5.00000E-01
 -1      2706-6.76480E-01-2.87440E+00 9.91164E-01
 -1      2707 2.87440E+00 6.76480E-01 9.91164E-01
 -1      2708-1.01679E+00 2.09074E+00 7.79632E-01
 -1      2709-2.87440E+00-6.76480E-01 9.91164E-01
 -1      2710 2.09976E+00-9.95020E-01 1.18392E+00
 -1      2711-2.51085E+00 1.55416E+00 1.75884E+00
 -1      2712 1.98260E+00-2.65435E+00 1.37500E+00
 -1      2713-1.84762E+00 1.43435E+00 1.43129E+00
 -1      2714 1.88580E+00 1.39617E+00 1.42969E+00
 -1      2715-6.45454E-01 2.79950E+00 1.43296E+00
 -1      2716 2.03250E+00 1.15741E+00 1.85841E+00
 -1      2717 1.48218E+00 1.79979E+00 1.71626E+00
 -1      2718-2.21199E+00-7.24079E-01 1.71812E+00
 -1      2719 2.30808E-01 2.32070E+00 1.69301E+00
 -1      2720-2.30808E-01 2.32070E+00 1.62307E+00
 -1      2721 2.32070E+00 1.35540E-01 2.00878E+00
 -1      2722 1.00556E+00 2.09539E+00 8.28125E-01
 -1      2723-4.74999E-01 2.94816E+00 1.70312E+00
 -1      2724-2.05054E+00-1.11384E+00 7.16849E-01
 -1      2725-1.19747E+00-2.01590E+00 8.17920E-01
 -1      2726 2.25261E+00-6.26009E-01 1.28908E+00
 -1      2727-2.32070E+00 2.30808E-01 1.50510E+00
 -1      2728 2.28705E+00-1.61530E+00 1.26562E+00
 -1      2729 5.90889E-01 2.26715E+00 1.48438E+00
 -1      2730-1.49136E-01 2.32070E+00 1.34284E+00
 -1      2731 2.45259E+00-7.91717E-01 2.25000E+00
 -1      2732 2.22833E+00-6.84630E-01 1.79173E+00
 -1      2733-6.45454E-01-2.79950E+00 1.43296E+00
 -1      2734-1.09062E+00-2.06016E+00 9.97915E-01
 -1      2735-1.76417E+00 2.43592E+00 1.07086E+00
 -1      2736-1.10133E+00 2.05573E+00 1.54933E+00
 -1      2737-8.41250E-02-2.32070E+00 1.33270E+00
 -1      2738 2.49139E-01 2.32070E+00 1.01274E+00
 -1      2739-1.81274E+00 1.46923E+00 1.29672E+00
 -1      2740-1.47778E+00-1.80419E+00 1.50349E+00
 -1      2741-6.97630E-01 2.22294E+00 1.43236E+00
 -1      2742-6.35952E-01-2.24849E+00 9.42165E-01
 -1      2743 2.32070E+00 3.05470E-01 1.34371E+00
 -1      2744 1.57316E+00-2.55671E+00 1.07325E+00
 -1      2745 3.05842E+00 4.81449E+00-5.00000E-01
 -1      2746-1.71637E-01 2.32070E+00 8.28125E-01
 -1      2747-3.05555E-01 2.32070E+00 1.76732E+00
 -1      2748-1.93740E-01-2.32070E+00 7.70253E-01
 -1      2749 7.37836E-01-2.20629E+00 1.34052E+00
 -1      2750 3.43246E-01-2.32070E+00 1.92188E+00
 -1      2751 7.18415E-01-2.21433E+00 7.68497E-01
 -1      2752-2.05378E+00 1.10603E+00 1.05180E+00
 -1      2753 2.21409E+00-7.18996E-01 9.16367E-01
 -1      2754 2.00471E-01-2.32070E+00 1.20257E+00
 -1      2755-1.10223E+00 2.05535E+00 1.10312E+00
 -1      2756 1.00740E+00 2.09463E+00 1.26562E+00
 -1      2757-1.18127E+00 2.02261E+00 1.25669E+00
 -1      2758 2.91513E-01 2.32070E+00 1.85841E+00
 -1      2759-1.43137E+00 1.85060E+00 9.24415E-01
 -1      2760 3.09414E+00-6.18443E-01-5.00000E-01
 -1      2761-1.55416E+00 2.51085E+00 9.91163E-01
 -1      2762 4.74999E-01-2.94816E+00 1.70312E+00
 -1      2763-2.30808E-01-2.32070E+00 1.75781E+00
 -1      2764-1.72845E-01 2.32070E+00 1.08603E+00
 -1      2765 4.74999E-01 2.96411E+00 1.07326E+00
 -1      2766-2.99568E-01-2.32070E+00 1.93390E+00
 -1      2767 3.93044E+00-2.22212E+00-5.00000E-01
 -1      2768-1.17946E+00 2.02336E+00 8.28125E-01
 -1      2769 4.04032E+00-2.69966E+00 5.00000E-01
 -1      2770 1.45955E+00 1.82243E+00 1.21089E+00
 -1      2771 2.33140E+00-1.47983E+00 9.92188E-01
 -1      2772-6.46648E-01 2.80238E+00 1.88777E+00
 -1      2773 1.69359E+00 2.84746E+00 1.37500E+00
 -1      2774-5.16596E-01-1.85030E+00 5.00000E-01
 -1      2775-3.09594E-01 2.32070E+00 1.94304E+00
 -1      2776-2.20952E+00 7.30033E-01 7.94155E-01
 -1      2777 5.99599E-01-2.26355E+00 1.92188E+00
 -1      2778-1.58508E+00-1.15404E-01 5.00000E-01
 -1      2779-2.32070E+00 1.83002E-01 1.72543E+00
 -1      2780-2.32070E+00-3.07897E-01 1.61992E+00
 -1      2781 9.47994E-01-4.76589E+00 5.00000E-01
 -1      2782-2.32070E+00 3.12154E-01 1.63810E+00
 -1      2783-2.32070E+00 2.92126E-01 1.34410E+00
 -1      2784 2.32070E+00-2.41908E-01 1.01226E+00
 -1      2785-2.87440E+00-6.76480E-01 1.75884E+00
 -1      2786-9.94713E-01-2.09989E+00 2.06149E+00
 -1      2787 7.23469E-02 2.32070E+00 1.38097E+00
 -1      2788 2.01593E+00-1.19741E+00 8.40829E-01
 -1      2789 8.15910E-01-3.21101E+00 1.37500E+00
 -1      2790-3.27883E+00 4.74999E-01 1.37500E+00
 -1      2791-1.55416E+00 2.51085E+00 1.75884E+00
 -1      2792 6.72928E-01 2.23317E+00 1.71245E+00
 -1      2793 7.62366E-01 2.19613E+00 1.04808E+00
 -1      2794 2.26090E+00-1.25450E+00 2.25000E+00
 -1      2795 1.10133E+00-2.05573E+00 1.48438E+00
 -1      2796-2.25519E+00-6.19783E-01 1.85306E+00
 -1      2797-4.74999E-01-2.94876E+00 1.71328E+00
 -1      2798-2.28541E+00-1.79816E+00-5.00000E-01
 -1      2799-7.98491E-01-2.18116E+00 1.35182E+00
 -1      2800 2.32070E+00 2.99349E-01 1.91192E+00
 -1      2801-1.60872E+00-2.02421E+00 2.25000E+00
 -1      2802-2.32070E+00-3.45612E-01 8.28125E-01
 -1      2803-1.09400E+00-2.64116E+00 2.25000E+00
 -1      2804 1.80466E+00-1.47731E+00 9.62285E-01
 -1      2805 1.08092E+00-2.06418E+00 1.73597E+00
 -1      2806-1.73641E+00-2.40816E+00 1.73208E+00
 -1      2807-1.92573E+00 1.15404E-01 5.00000E-01
 -1      2808-2.03096E+00-9.25937E-01-5.00000E-01
 -1      2809 1.43769E+00 1.84428E+00 1.54743E+00
 -1      2810-2.91611E-01 2.32070E+00 1.22649E+00
 -1      2811-2.91448E+00 4.74999E-01 1.75884E+00
 -1      2812 6.12180E-01 2.25834E+00 9.92188E-01
 -1      2813-1.55612E+00-2.51558E+00 9.99637E-01
 -1      2814 0.00000E+00 2.93066E+00 2.25000E+00
 -1      2815-2.91448E+00-4.74999E-01 1.75884E+00
 -1      2816-1.10426E+00-1.59388E+00 5.00000E-01
 -1      2817-2.30808E-01 1.79154E+00 5.00000E-01
 -1      2818-2.65936E+00-5.87410E-01 1.95398E+00
 -1      2819-2.26936E+00-5.85560E-01 2.12084E+00
 -1      2820-2.32070E+00-1.74190E-01 1.99818E+00
 -1      2821 1.47778E+00-1.80419E+00 1.69301E+00
 -1      2822-2.27346E+00-5.75664E-01 1.69842E+00
 -1      2823-2.72362E+00-6.14026E-01 1.42969E+00
 -1      2824 1.57538E+00-2.56207E+00 1.67914E+00
 -1      2825 2.42394E+00-1.75219E+00 8.90864E-01
 -1      2826 2.06830E+00-1.07098E+00 1.76159E+00
 -1      2827 1.79383E-01-2.32070E+00 1.80032E+00
 -1      2828 1.72282E+00-1.55915E+00 1.19694E+00
 -1      2829-2.39672E+00 1.72497E+00 1.75884E+00
 -1      2830 2.96991E+00 4.74999E-01 1.67914E+00
 -1      2831-2.04174E+00-1.13509E+00 1.83198E+00
 -1      2832 4.74999E-01-2.97688E+00 1.09437E+00
 -1      2833-2.27407E+00-5.74199E-01 1.97699E+00
 -1      2834 1.67014E+00-1.61183E+00 1.39049E+00
 -1      2835-1.42234E+00-1.85963E+00 6.48423E-01
 -1      2836 1.72497E+00-2.39672E+00 1.75884E+00
 -1      2837-2.03773E+00 1.14477E+00 1.48438E+00
 -1      2838 2.27402E+00 5.74318E-01 1.92188E+00
 -1      2839-2.25610E+00 6.17580E-01 6.65728E-01
 -1      2840 6.74855E-01-2.23237E+00 1.56314E+00
 -1      2841-2.93795E-01 2.56887E+00 2.25000E+00
 -1      2842-1.73652E+00-5.94379E-01 5.00000E-01
 -1      2843-2.01031E+00-1.21098E+00 8.30609E-01
 -1      2844 2.32070E+00-2.76017E-01 6.83441E-01
 -1      2845-6.33121E-01-2.24966E+00 7.53358E-01
 -1      2846 2.79983E+00 6.45592E-01 1.43262E+00
 -1      2847-6.18772E-01 2.25560E+00 1.85841E+00
 -1      2848-1.39791E+00-1.88406E+00 8.28125E-01
 -1      2849-2.04157E+00 1.13550E+00 2.05788E+00
 -1      2850-2.95786E-01 2.32070E+00 1.45212E+00
 -1      2851 2.68467E-01 2.32070E+00 1.21318E+00
 -1      2852 2.74767E-01 2.32070E+00 6.84759E-01
 -1      2853 7.63071E-01 2.19584E+00 7.81500E-01
 -1      2854 2.63505E+00 1.05305E+00 2.25000E+00
 -1      2855 2.93795E-01-2.56887E+00 2.25000E+00
 -1      2856-1.74879E+00-2.42054E+00 1.04688E+00
 -1      2857-2.01775E+00 1.19300E+00 1.60576E+00
 -1      2858 1.81770E+00-1.46427E+00 2.03901E+00
 -1      2859 4.74999E-01-2.70061E+00 1.92274E+00
 -1      2860 1.80419E+00-1.47778E+00 1.62307E+00
 -1      2861-1.09623E+00-2.05784E+00 1.62665E+00
 -1      2862 1.76416E+00 1.51781E+00 1.99818E+00
 -1      2863-2.22528E+00 6.91993E-01 1.07680E+00
 -1      2864 1.85752E+00 1.42445E+00 1.88727E+00
 -1      2865-1.50157E+00-2.38388E+00 1.36188E+00
 -1      2866 3.68246E-01 1.71155E+00 5.00000E-01
 -1      2867-5.66227E-01-2.27737E+00 1.64844E+00
 -1      2868-1.59450E-01-2.32070E+00 1.54457E+00
 -1      2869 8.01353E-01 2.17998E+00 1.26707E+00
 -1      2870-2.69245E-01-2.32070E+00 1.38621E+00
 -1      2871 2.32070E+00 3.34262E-01 1.78677E+00
 -1      2872 1.55416E+00 2.51085E+00 1.75884E+00
 -1      2873-1.49070E+00 1.79127E+00 1.55525E+00
 -1      2874 2.04157E+00 1.13550E+00 2.05788E+00
 -1      2875-1.75994E+00 2.43169E+00 1.64947E+00
 -1      2876-2.35843E+00-1.49103E+00 1.35791E+00
 -1      2877-2.39672E+00 1.72497E+00 9.91163E-01
 -1      2878-1.81897E+00 1.46300E+00 9.47241E-01
 -1      2879 7.28165E-01 2.21029E+00 2.01886E+00
 -1      2880-6.46648E-01-2.80238E+00 1.88777E+00
 -1      2881 2.27226E+00-5.78558E-01 6.21163E-01
 -1      2882-2.09737E-01-2.32070E+00 1.10941E+00
 -1      2883 4.74999E-01 2.96057E+00 1.64844E+00
 -1      2884-7.05211E-01 2.21980E+00 9.88408E-01
 -1      2885 2.27381E+00 5.74826E-01 1.42969E+00
 -1      2886 2.21119E+00 7.26004E-01 1.75199E+00
 -1      2887 2.26638E+00 5.92765E-01 1.77689E+00
 -1      2888 7.65294E-01 3.08882E+00 1.48438E+00
 -1      2889 2.08480E+00-1.03114E+00 1.45947E+00
 -1      2890 2.69324E+00 4.74999E-01 1.53906E+00
 -1      2891-7.81474E-01 2.18821E+00 2.10602E+00
 -1      2892-2.03250E+00 1.15741E+00 1.85841E+00
 -1      2893 6.82672E-01-2.88935E+00 1.76193E+00
 -1      2894 2.26967E+00-5.84810E-01 8.48504E-01
 -1      2895 1.11827E+00-2.04871E+00 1.01274E+00
 -1      2896 2.61409E+00 4.74999E-01 1.32031E+00
 -1      2897 1.85881E+00 1.42316E+00 2.10036E+00
 -1      2898 2.80251E+00 6.46703E-01 1.88753E+00
 -1      2899-2.04825E+00 1.11939E+00 1.26872E+00
 -1      2900 2.67730E+00-5.94839E-01 1.10156E+00
 -1      2901 2.06922E+00 1.06876E+00 1.40998E+00
 -1      2902 2.77613E+00-6.35777E-01 1.41295E+00
 -1      2903 1.84156E+00-1.44041E+00 1.13389E+00
 -1      2904 7.62914E-01-2.19590E+00 1.72994E+00
 -1      2905 2.71263E+00-1.17053E+00 2.25000E+00
 -1      2906 6.54293E-01 2.82084E+00 1.85472E+00
 -1      2907 1.87773E+00-1.40424E+00 8.40833E-01
 -1      2908-2.38257E+00 1.71082E+00 1.37500E+00
 -1      2909 2.58363E+00 1.58431E+00 1.09659E+00
 -1      2910 1.42147E+00 1.86050E+00 8.50837E-01
 -1      2911 6.06214E-01-2.26081E+00 1.41864E+00
 -1      2912-1.41046E+00 1.87151E+00 7.78998E-01
 -1      2913-1.87426E+00 1.40771E+00 1.67423E+00
 -1      2914-1.60831E+00 2.28006E+00 1.35791E+00
 -1      2915-1.11864E+00 2.60788E+00 2.25000E+00
 -1      2916-1.15275E+00 2.03443E+00 1.40667E+00
 -1      2917-1.88258E+00 1.39939E+00 1.06681E+00
 -1      2918-1.04215E+00 2.08024E+00 1.83831E+00
 -1      2919 1.50205E+00 4.97260E-01 5.00000E-01
 -1      2920-2.23237E+00-6.74855E-01 1.49336E+00
 -1      2921 2.03773E+00-1.14477E+00 1.59606E+00
 -1      2922-3.17411E-01-2.32070E+00 1.23106E+00
 -1      2923-5.81922E-01-2.64612E+00 1.66151E+00
 -1      2924 8.44187E-01-2.16224E+00 9.57934E-01
 -1      2925 2.32070E+00-3.29530E-01 1.48939E+00
 -1      2926-2.02146E+00 2.02146E+00 2.25000E+00
 -1      2927-2.02421E+00 1.60872E+00 2.25000E+00
 -1      2928-1.85205E+00 1.42992E+00 2.09026E+00
 -1      2929 1.63834E-01 2.32070E+00 1.53077E+00
 -1      2930 2.03476E+00-1.15195E+00 1.13158E+00
 -1      2931-4.74999E-01 2.99325E+00 1.09659E+00
 -1      2932 6.17351E-01 2.73165E+00 1.48035E+00
 -1      2933 2.41684E-01 2.32070E+00 1.38038E+00
 -1      2934-2.93795E-01-2.56887E+00 2.25000E+00
 -1      2935 4.74999E-01 2.72376E+00 1.90317E+00
 -1      2936-2.88822E-01 2.32070E+00 9.56531E-01
 -1      2937 2.03503E+00 1.15130E+00 1.23730E+00
 -1      2938 2.25911E+00-6.10306E-01 9.78795E-01
 -1      2939 2.32070E+00-2.57998E-01 1.21020E+00
 -1      2940-2.79950E+00 6.45454E-01 1.24113E+00
 -1      2941 2.15290E+00 8.66732E-01 8.40851E-01
 -1      2942 2.31474E-01-2.32070E+00 9.62282E-01
 -1      2943 1.52415E-01-2.32070E+00 1.47375E+00
 -1      2944 1.13612E+00-2.04131E+00 1.26562E+00
 -1      2945 2.23371E+00 6.71631E-01 9.25791E-01
 -1      2946-1.93675E+00-2.67644E-01 5.00000E-01
 -1      2947 2.32070E+00-3.08228E-01 8.52962E-01
 -1      2948-4.74999E-01 2.70061E+00 1.92274E+00
 -1      2949-3.09206E-01-2.32070E+00 6.48422E-01
 -1      2950-5.74653E-01-2.62857E+00 9.92188E-01
 -1      2951-2.43595E+00 1.52314E+00 1.31704E+00
 -1      2952 1.55813E+00 2.22988E+00 1.75781E+00
 -1      2953 1.43485E+00-1.84712E+00 1.85841E+00
 -1      2954 1.17097E+00-2.02688E+00 1.87000E+00
 -1      2955 1.51127E+00-1.77070E+00 1.48515E+00
 -1      2956-2.27222E+00-5.78653E-01 1.56948E+00
 -1      2957 2.21949E+00 7.05958E-01 7.13186E-01
 -1      2958-1.83935E+00 1.44262E+00 6.78674E-01
 -1      2959-1.71213E-01-2.32070E+00 9.41272E-01
 -1      2960-1.87217E+00 1.40980E+00 1.93500E+00
 -1      2961 3.21650E-01-2.32070E+00 1.77976E+00
 -1      2962-1.21777E+00 2.00749E+00 1.51631E+00
 -1      2963 3.35039E-01-2.32070E+00 6.21164E-01
 -1      2964 2.42394E+00-1.75219E+00 1.75155E+00
 -1      2965 1.85705E+00-1.42492E+00 1.76732E+00
 -1      2966 2.80181E-01-2.32070E+00 1.60289E+00
 -1      2967-1.54651E+00 2.49236E+00 1.37500E+00
 -1      2968 1.77978E+00 1.50219E+00 1.19264E+00
 -1      2969 6.93250E-01 2.91489E+00 9.98261E-01
 -1      2970 2.27083E+00 5.82022E-01 6.25119E-01
 -1      2971 2.01584E+00-1.19763E+00 6.21163E-01
 -1      2972 2.48576E+00 7.11633E-01 2.25000E+00
 -1      2973-3.11777E-01-2.32070E+00 8.72794E-01
 -1      2974-1.06961E+00 1.67758E+00 5.00000E-01
 -1      2975 2.32070E+00-2.74818E-01 1.80736E+00
 -1      2976 2.83745E+00-3.54956E-02 2.25000E+00
 -1      2977 2.77705E+00-4.74999E-01 1.36188E+00
 -1      2978 5.94358E-01 2.67614E+00 1.17379E+00
 -1      2979 2.26942E+00 5.85420E-01 7.99934E-01
 -1      2980-2.32070E+00 3.34802E-01 8.40831E-01
 -1      2981 2.32070E+00-3.38817E-01 1.10401E+00
 -1      2982-2.91448E+00 4.74999E-01 9.91163E-01
 -1      2983 2.60388E+00 5.64426E-01 1.32031E+00
 -1      2984 3.41310E-01-2.32070E+00 7.43915E-01
 -1      2985 1.11065E+00 2.05186E+00 1.04636E+00
 -1      2986 1.08491E+00 2.06253E+00 1.64844E+00
 -1      2987-1.42964E+00 1.85233E+00 1.41234E+00
 -1      2988-3.14604E-01-2.32070E+00 1.53490E+00
 -1      2989-4.74999E-01-2.73741E+00 1.42969E+00
 -1      2990 1.55416E+00 2.51085E+00 9.91163E-01
 -1      2991 2.61056E+00 5.67196E-01 1.56307E+00
 -1      2992 1.13550E+00 2.04157E+00 6.92120E-01
 -1      2993 1.10168E+00 1.26488E+00 5.00000E-01
 -1      2994 3.41542E-01 2.32070E+00 1.10498E+00
 -1      2995-2.37774E-01-2.32070E+00 2.08599E+00
 -1      2996 2.26639E+00-5.92735E-01 1.66686E+00
 -1      2997-4.74999E-01-2.70114E+00 1.10156E+00
 -1      2998-2.23214E+00 1.56039E+00 1.95398E+00
 -1      2999-6.13620E-01 2.25774E+00 6.59446E-01
 -1      3000 1.84526E+00-1.43671E+00 1.90545E+00
 -1      3001-2.04157E+00 1.13550E+00 6.92120E-01
 -1      3002-2.43883E+00 1.52433E+00 8.62234E-01
 -1      3003-2.00113E+00-5.31818E-01 5.00000E-01
 -1      3004 1.81818E+00-1.46379E+00 1.35996E+00
 -1      3005 1.55938E+00-1.72259E+00 2.10602E+00
 -1      3006 6.72928E-01 2.23317E+00 1.34941E+00
 -1      3007 2.02850E+00 1.16705E+00 1.54044E+00
 -1      3008 1.97860E+00-1.97860E+00 2.25000E+00
 -1      3009 6.48382E-01-2.24334E+00 1.04688E+00
 -1      3010-1.39848E+00 1.88349E+00 1.53651E+00
 -1      3011 2.04979E+00-1.11567E+00 1.30594E+00
 -1      3012-5.84718E-01-2.26971E+00 1.78721E+00
 -1      3013 1.68968E+00-2.00198E+00 2.25000E+00
 -1      3014 1.51850E+00-1.97297E+00 2.25000E+00
 -1      3015 1.39244E+00-1.88953E+00 1.74256E+00
 -1      3016 1.05554E+00 2.07469E+00 1.83237E+00
 -1      3017 6.14991E-01-2.25717E+00 1.22158E+00
 -1      3018 1.46452E+00 1.81745E+00 2.03864E+00
 -1      3019-1.56037E+00 2.23212E+00 9.92188E-01
 -1      3020 6.76480E-01-2.87440E+00 9.91164E-01
 -1      3021 1.33981E+00-8.95234E-01 5.00000E-01
 -1      3022 6.67721E-01 2.23533E+00 1.18138E+00
 -1      3023 1.00221E+00-1.41143E+00 5.00000E-01
 -1      3024-1.54248E+00 1.73949E+00 1.97037E+00
 -1      3025 6.30466E-01-2.76331E+00 1.37924E+00
 -1      3026 1.54946E+00 2.22121E+00 1.04688E+00
 -1      3027 2.60348E+00 5.64261E-01 1.79673E+00
 -1      3028 1.88306E+00 1.39891E+00 1.75781E+00
 -1      3029-4.74999E-01-2.66849E+00 1.70160E+00
 -1      3030 6.00971E-01 2.26298E+00 8.14136E-01
 -1      3031-1.50108E+00 1.78089E+00 1.76668E+00
 -1      3032 1.20530E+00 2.01266E+00 1.64844E+00
 -1      3033 2.24813E+00 6.36812E-01 1.27979E+00
 -1      3034 1.09400E+00 2.64116E+00 2.25000E+00
 -1      3035-2.63288E+00-5.76441E-01 1.68342E+00
 -1      3036 2.07229E+00 2.07229E+00 2.25000E+00
 -1      3037 1.12513E+00 2.04587E+00 1.43830E+00
 -1      3038 1.47477E+00-1.80720E+00 1.04914E+00
 -1      3039 1.56039E+00-2.23214E+00 1.95398E+00
 -1      3040-1.82233E+00 1.45964E+00 8.11920E-01
 -1      3041 6.16172E-01 2.25668E+00 1.88348E+00
 -1      3042-1.40304E+00-1.06422E+00 5.00000E-01
 -1      3043 2.56887E+00 2.93795E-01 2.25000E+00
 -1      3044-2.00899E+00-1.21417E+00 7.21949E-01
 -1      3045-2.02930E+00 1.16514E+00 8.66019E-01
 -1      3046 2.64312E+00-5.80680E-01 1.65693E+00
 -1      3047-5.83527E-01 2.27020E+00 9.62323E-01
 -1      3048-2.66511E+00 4.74999E-01 1.92188E+00
 -1      3049 4.74999E-01 2.74696E+00 1.35952E+00
 -1      3050-2.11712E+00-3.63615E-01 5.00000E-01
 -1      3051 3.16133E-01-2.32070E+00 1.09535E+00
 -1      3052 1.14194E+00-2.03890E+00 6.84759E-01
 -1      3053 1.45849E+00 1.82348E+00 6.78264E-01
 -1      3054-1.48005E+00 1.80192E+00 6.56835E-01
 -1      3055 2.26735E+00 5.90406E-01 1.06641E+00
 -1      3056-1.73705E+00-9.48019E-01 5.00000E-01
 -1      3057-7.32751E-01-2.20839E+00 1.52075E+00
 -1      3058 1.80937E+00 1.47260E+00 7.23416E-01
 -1      3059-1.48563E+00-1.79634E+00 2.07307E+00
 -1      3060 2.93795E-01 2.56887E+00 2.25000E+00
 -1      3061 1.15404E-01 2.32070E+00 2.10602E+00
 -1      3062 2.91617E-01 2.32070E+00 2.08302E+00
 -1      3063 6.07969E-01-2.26008E+00 1.75285E+00
 -1      3064 1.17339E+00-2.02588E+00 1.61799E+00
 -1      3065-2.01020E+00-1.21123E+00 1.70086E+00
 -1      3066 2.62364E+00 5.72612E-01 1.04452E+00
 -1      3067 2.34634E+00-2.11111E+00-5.00000E-01
 -1      3068 8.39695E-01 1.66019E+00 5.00000E-01
 -1      3069 1.45233E+00 2.26502E+00 1.75781E+00
 -1      3070 2.69966E+00 4.04032E+00 5.00000E-01
 -1      3071-1.19737E+00-2.01595E+00 9.45003E-01
 -1      3072 2.26294E+00 6.01061E-01 2.10314E+00
 -1      3073 2.35412E+00 1.18204E+00 2.25000E+00
 -1      3074 1.98424E+00 1.75429E+00 2.25000E+00
 -1      3075 1.84764E+00 1.43433E+00 1.61878E+00
 -1      3076 1.41347E+00 1.86850E+00 1.33961E+00
 -1      3077 1.16098E+00 2.03102E+00 1.21225E+00
 -1      3078-4.74999E-01 2.75884E+00 1.38411E+00
 -1      3079 1.66764E+00-2.33939E+00 1.31704E+00
 -1      3080 1.56176E+00-2.23351E+00 1.57285E+00
 -1      3081 2.01353E+00-1.20320E+00 1.72861E+00
 -1      3082-1.14973E+00-2.03568E+00 1.98549E+00
 -1      3083 1.49380E+00-2.36513E+00 1.37821E+00
 -1      3084 5.98122E-01 2.26416E+00 2.10649E+00
 -1      3085 3.12264E-01 2.32070E+00 1.56444E+00
 -1      3086-2.69426E+00-4.74999E-01 1.53906E+00
 -1      3087 1.85517E+00 1.42680E+00 1.03799E+00
 -1      3088-2.23225E+00 1.56050E+00 1.17148E+00
 -1      3089 2.36706E+00 1.49460E+00 1.38411E+00
 -1      3090-2.56887E+00 2.93795E-01 2.25000E+00
 -1      3091 1.50697E+00 2.39691E+00 1.37500E+00
 -1      3092-1.17393E+00-2.02565E+00 1.49893E+00
 -1      3093 2.24587E+00 1.57412E+00 1.04688E+00
 -1      3094 1.87312E+00 1.40885E+00 1.16956E+00
 -1      3095-1.62289E+00-2.29464E+00 1.38515E+00
 -1      3096-2.25464E+00 6.21112E-01 9.21301E-01
 -1      3097-2.25932E+00-6.09792E-01 8.87275E-01
 -1      3098 1.16119E+00 2.03093E+00 8.79087E-01
 -1      3099 1.53183E+00 2.20358E+00 1.48438E+00
 -1      3100-4.74999E-01-2.55841E+00 1.42969E+00
 -1      3101-2.32070E+00-3.45120E-01 1.74785E+00
 -1      3102 2.21817E+00-1.54642E+00 1.70312E+00
 -1      3103-1.16962E+00 2.02744E+00 1.71730E+00
 -1      3104 1.25450E+00-2.26090E+00 2.25000E+00
 -1      3105-2.89447E+00 4.74999E-01 1.37500E+00
 -1      3106-2.65278E+00-4.74999E-01 1.80085E+00
 -1      3107-2.28256E+00 1.45960E+00 1.08849E+00
 -1      3108-2.67235E+00-4.74999E-01 1.21205E+00
 -1      3109-2.01244E+00 1.20583E+00 9.85093E-01
 -1      3110 1.45674E+00-1.82523E+00 2.02283E+00
 -1      3111 2.27307E+00-5.76608E-01 1.17511E+00
 -1      3112-2.58109E+00-4.74999E-01 1.38240E+00
 -1      3113-2.24906E+00 6.34568E-01 1.27818E+00
 -1      3114 2.83512E+00-4.74999E-01 1.80529E+00
 -1      3115-2.27077E+00 5.82159E-01 1.39789E+00
 -1      3116-0.00000E+00 2.63048E+00 2.25000E+00
 -1      3117-1.13612E+00-2.04131E+00 1.21488E+00
 -1      3118-4.74999E-01 2.69715E+00 9.92188E-01
 -1      3119-4.74999E-01 2.53773E+00 9.92188E-01
 -1      3120-1.43698E+00-1.84499E+00 2.15757E+00
 -1      3121-2.23225E+00 1.56050E+00 1.57852E+00
 -1      3122 1.43171E+00-1.85026E+00 1.21348E+00
 -1      3123-2.25669E+00-6.16147E-01 6.64092E-01
 -1      3124 5.69882E-01 2.27586E+00 1.76893E+00
 -1      3125 5.73215E-01 2.62509E+00 1.70973E+00
 -1      3126-6.64167E-01 2.23680E+00 1.20964E+00
 -1      3127 2.24587E+00 1.57412E+00 1.92188E+00
 -1      3128-1.88210E+00 1.39987E+00 1.20894E+00
 -1      3129 4.74999E-01 2.68443E+00 1.62917E+00
 -1      3130-1.43529E+00-1.84668E+00 1.33988E+00
 -1      3131-1.51397E+00-1.76800E+00 1.71284E+00
 -1      3132 2.21618E+00 1.54443E+00 1.64844E+00
 -1      3133-1.43226E+00 1.84971E+00 1.66721E+00
 -1      3134-5.62884E-01 2.27875E+00 1.48438E+00
 -1      3135-6.63877E-01 2.23692E+00 1.56039E+00
 -1      3136-2.32070E+00 2.78651E-01 1.90866E+00
 -1      3137-2.24431E+00 6.46045E-01 1.80144E+00
 -1      3138 2.85664E-01-2.32070E+00 1.35752E+00
 -1      3139 1.52858E+00-1.75339E+00 8.93566E-01
 -1      3140 1.54754E+00 1.00921E+00 5.00000E-01
 -1      3141 1.45937E+00 2.28201E+00 1.12331E+00
 -1      3142-1.52461E+00 8.70454E-01 5.00000E-01
 -1      3143-1.54318E+00-2.21493E+00 1.04688E+00
 -1      3144-5.71075E-01 2.27536E+00 1.63624E+00
 -1      3145-1.09767E+00-2.34844E+00 2.25000E+00
 -1      3146-2.00957E+00-1.21276E+00 1.94436E+00
 -1      3147 2.32070E+00 2.38127E-01 7.23418E-01
 -1      3148-1.46213E+00-2.28867E+00 1.63132E+00
 -1      3149 2.32070E+00-3.21751E-01 1.33962E+00
 -1      3150 6.08303E-01-2.25994E+00 8.85553E-01
 -1      3151 2.03364E+00-1.15464E+00 2.09232E+00
 -1      3152 1.40408E+00-1.87789E+00 6.21166E-01
 -1      3153-1.13319E+00 2.04253E+00 6.66072E-01
 -1      3154-9.47994E-01 4.76589E+00 5.00000E-01
 -1      3155-1.06345E+00 2.07142E+00 9.40158E-01
 -1      3156-1.18949E+00 2.01921E+00 9.91901E-01
 -1      3157 3.04189E-01 2.32070E+00 8.52051E-01
 -1      3158 3.50292E-01 2.32070E+00 1.97069E+00
 -1      3159-2.32070E+00-3.08051E-01 2.10036E+00
 -1      3160 4.74999E-01 2.67915E+00 9.92188E-01
 -1      3161-2.71143E+00-7.83406E-02 2.25000E+00
 -1      3162 2.06313E+00 1.08346E+00 9.28228E-01
 -1      3163 4.74999E-01 2.56544E+00 1.32031E+00
 -1      3164 1.41589E+00-1.86608E+00 8.60200E-01
 -1      3165 2.22970E+00-1.63202E+00-5.00000E-01
 -1      3166 2.01378E+00 1.20260E+00 8.28125E-01
 -1      3167-1.49503E+00-2.16678E+00 8.28125E-01
 -1      3168-2.99493E+00 1.78237E+00-5.00000E-01
 -1      3169-2.38137E+00 2.02687E+00-5.00000E-01
 -1      3170-6.24150E-01 2.25338E+00 1.08586E+00
 -1      3171-1.55520E+00 2.22695E+00 1.63779E+00
 -1      3172 1.66985E+00-2.34160E+00 8.62234E-01
 -1      3173-1.46515E+00 2.29596E+00 1.17148E+00
 -1      3174-5.56223E-01 2.58407E+00 1.48438E+00
 -1      3175-2.27304E+00 5.76670E-01 1.93782E+00
 -1      3176 1.72506E+00-3.62320E-01 5.00000E-01
 -1      3177-2.16814E+00 1.49639E+00 1.76621E+00
 -1      3178-4.90017E-01-1.60133E+00-5.00000E-01
 -1      3179 1.46260E+00-2.28979E+00 1.66194E+00
 -1      3180-2.32070E+00 3.10817E-01 1.77529E+00
 -1      3181-2.26865E+00 5.87277E-01 1.15210E+00
 -1      3182-2.64282E+00 4.74999E-01 1.04688E+00
 -1      3183-2.58195E+00 5.55345E-01 1.26562E+00
 -1      3184 2.65103E+00-4.74999E-01 9.92188E-01
 -1      3185-2.32070E+00 1.15737E-01 1.09941E+00
 -1      3186-2.25865E+00 6.11414E-01 1.63769E+00
 -1      3187-2.56292E+00-5.47462E-01 1.50823E+00
 -1      3188 2.23687E+00 1.56512E+00 1.34823E+00
 -1      3189 2.02110E+00-2.88511E-01 5.00000E-01
 -1      3190 1.85653E+00 1.42544E+00 8.73638E-01
 -1      3191-2.32070E+00 2.69208E-01 1.17470E+00
 -1      3192 3.41467E-01-1.71666E+00 5.00000E-01
 -1      3193 1.41999E+00-1.86198E+00 1.56506E+00
 -1      3194-1.42970E+00-2.21036E+00 1.44448E+00
 -1      3195-1.54779E+00-2.21954E+00 1.64491E+00
 -1      3196-6.18675E-01 2.25565E+00 2.08302E+00
 -1      3197 2.75215E-01-2.32070E+00 1.48003E+00
 -1      3198-2.71309E+00 6.09664E-01 1.48613E+00
 -1      3199 6.72928E-01 2.23317E+00 1.58113E+00
 -1      3200-6.30722E-01-2.25066E+00 1.37478E+00
 -1      3201-3.17019E+00-7.99681E-01-5.00000E-01
 -1      3202 1.18981E+00-2.01908E+00 1.38824E+00
 -1      3203-2.63898E+00-7.39532E-01-5.00000E-01
 -1      3204-2.32070E+00 1.85398E-01 2.06961E+00
 -1      3205 2.04880E+00 1.11804E+00 1.08259E+00
 -1      3206-2.22650E+00 1.43638E+00 8.66772E-01
 -1      3207-1.41662E+00-1.86535E+00 1.77208E+00
 -1      3208 2.23304E+00-6.73243E-01 2.02070E+00
 -1      3209 6.05229E-01-2.26121E+00 6.51622E-01
 -1      3210 3.53253E-01 2.32070E+00 1.44316E+00
 -1      3211 7.11633E-01-2.48576E+00 2.25000E+00
 -1      3212-2.88221E-01-2.32070E+00 1.00295E+00
 -1      3213-5.80133E-01-2.27161E+00 1.05567E+00
 -1      3214 5.80423E-01 2.27149E+00 1.26866E+00
 -1      3215 2.02421E+00-1.60872E+00 2.25000E+00
 -1      3216-5.64468E-01 2.27810E+00 1.97069E+00
 -1      3217-2.32070E+00 3.22256E-01 2.04142E+00
 -1      3218-1.19282E+00-2.01783E+00 1.08687E+00
 -1      3219-1.81427E+00 5.40262E-01 5.00000E-01
 -1      3220-2.68189E+00 4.74999E-01 1.57852E+00
 -1      3221-2.55029E+00 5.42229E-01 1.53906E+00
 -1      3222 1.45811E+00-1.82386E+00 1.35715E+00
 -1      3223 1.40019E+00 1.88178E+00 1.66333E+00
 -1      3224-2.69966E+00 4.04032E+00 5.00000E-01
 -1      3225-2.04785E+00 3.74492E-01 5.00000E-01
 -1      3226-5.79082E-01 2.63926E+00 1.10156E+00
 -1      3227-1.45592E+00 2.27368E+00 9.00195E-01
 -1      3228-1.20578E+00-2.01246E+00 1.61318E+00
 -1      3229-2.32070E+00-3.26849E-01 1.93696E+00
 -1      3230 2.69024E-01-2.32070E+00 8.44362E-01
 -1      3231-1.42248E+00 1.85949E+00 1.90890E+00
 -1      3232 1.48485E+00-8.62253E-01-5.00000E-01
 -1      3233-1.18601E+00-2.02065E+00 1.34630E+00
 -1      3234-2.32070E+00-2.88511E-01 6.18800E-01
 -1      3235-2.22954E+00-1.43764E+00 1.53906E+00
 -1      3236-2.66507E+00 5.89772E-01 1.94377E+00
 -1      3237 4.74999E-01-2.69717E+00 1.26562E+00
 -1      3238 2.32070E+00 3.52108E-01 8.28125E-01
 -1      3239-2.42975E-01-2.32070E+00 1.63518E+00
 -1      3240-2.26082E+00-6.06172E-01 1.35411E+00
 -1      3241 2.60734E+00-4.74999E-01 1.21341E+00
 -1      3242 1.42946E+00 1.85251E+00 1.87264E+00
 -1      3243-2.38009E+00 1.16186E+00 2.25000E+00
 -1      3244-3.27863E-01 2.32070E+00 8.03226E-01
 -1      3245-3.09037E-01 2.32070E+00 1.09132E+00
 -1      3246 2.32070E+00 2.88511E-01 6.09939E-01
 -1      3247-4.74999E-01-2.61619E+00 8.82812E-01
 -1      3248-1.49269E+00-2.16444E+00 1.46145E+00
 -1      3249-6.21546E-01-2.25446E+00 6.20418E-01
 -1      3250-4.74999E-01 2.67791E+00 1.64782E+00
 -1      3251-2.66421E+00 5.89416E-01 9.77423E-01
 -1      3252-8.23030E-01-2.49972E+00 2.25000E+00
 -1      3253 1.77466E+00 2.58347E+00-5.00000E-01
 -1      3254 1.84499E+00-1.43698E+00 2.14887E+00
 -1      3255-1.47627E+00-1.80570E+00 1.05168E+00
 -1      3256-2.62342E+00-5.72520E-01 1.04688E+00
 -1      3257 1.80113E+00 7.28681E-01 5.00000E-01
 -1      3258 4.74999E-01-2.68464E+00 1.56356E+00
 -1      3259-6.85113E-01-2.22813E+00 2.07307E+00
 -1      3260 5.88052E-01 2.66091E+00 8.71545E-01
 -1      3261 1.18297E+00 2.02191E+00 1.79053E+00
 -1      3262-5.90298E-01-2.26740E+00 1.50935E+00
 -1      3263 1.51139E+00-2.18314E+00 1.35943E+00
 -1      3264-2.29761E+00 1.46583E+00 1.57285E+00
 -1      3265 0.00000E+00-2.96857E+00 2.25000E+00
 -1      3266 1.15404E-01 1.97458E+00 5.00000E-01
 -1      3267 2.02984E+00 1.16382E+00 6.59777E-01
 -1      3268 2.00856E+00 1.21519E+00 1.96699E+00
 -1      3269 2.01956E+00 1.18865E+00 1.36767E+00
 -1      3270 1.88985E+00 3.05054E-01 5.00000E-01
 -1      3271 4.20905E-01 2.01521E+00 5.00000E-01
 -1      3272 2.15574E+00-1.48399E+00 1.21094E+00
 -1      3273-2.32070E+00-2.97181E-01 1.14348E+00
 -1      3274-4.74999E-01 2.56985E+00 1.79514E+00
 -1      3275 2.01235E+00 1.20604E+00 1.74526E+00
 -1      3276 2.31280E+00 1.47213E+00 1.92188E+00
 -1      3277-2.22869E+00 1.43729E+00 1.30542E+00
 -1      3278 1.49750E+00-2.16925E+00 1.76296E+00
 -1      3279-1.87994E+00 1.40203E+00 1.54859E+00
 -1      3280-1.17767E+00-2.02410E+00 1.83818E+00
 -1      3281 1.46411E+00-2.29344E+00 9.92188E-01
 -1      3282 2.32070E+00 2.88511E-01 2.08779E+00
 -1      3283 3.44145E-01 2.32070E+00 1.74526E+00
 -1      3284 1.18596E+00 1.60521E+00 5.00000E-01
 -1      3285 1.16913E+00-2.02764E+00 8.52052E-01
 -1      3286 2.01593E+00 1.19740E+00 9.80040E-01
 -1      3287-2.65293E+00-4.74999E-01 9.47615E-01
 -1      3288 2.24813E+00 6.36812E-01 1.59831E+00
 -1      3289 2.31007E+00 1.47100E+00 9.92188E-01
 -1      3290 3.45527E-01 2.32070E+00 1.31127E+00
 -1      3291 1.87789E+00-1.40408E+00 6.21166E-01
 -1      3292-2.25967E+00-6.08964E-01 1.13522E+00
 -1      3293-2.01235E+00 1.20604E+00 1.74526E+00
 -1      3294-2.00856E+00 1.21519E+00 1.96699E+00
 -1      3295 1.44001E+00 2.23525E+00 1.52777E+00
 -1      3296 2.19705E+00-1.42418E+00 1.32031E+00
 -1      3297-2.01666E+00 1.19564E+00 1.36778E+00
 -1      3298-2.01958E+00 1.18860E+00 1.15479E+00
 -1      3299 1.87592E+00-1.40605E+00 1.49840E+00
 -1      3300-1.11683E+00 2.04931E+00 2.03656E+00
 -1      3301 1.88122E+00-1.40075E+00 1.02310E+00
 -1      3302 1.39430E+00-1.88767E+00 1.10042E+00
 -1      3303 6.85113E-01-2.22813E+00 2.07307E+00
 -1      3304-2.57935E+00 4.74999E-01 1.74560E+00
 -1      3305-1.46308E+00-1.81889E+00 1.19785E+00
 -1      3306 1.31760E+00 1.72562E+00 5.00000E-01
 -1      3307 1.47564E+00 2.14739E+00 1.32031E+00
 -1      3308-2.20979E+00 1.42946E+00 1.75781E+00
 -1      3309-5.82342E-01-2.27069E+00 1.23272E+00
 -1      3310 2.65717E+00-4.74999E-01 1.60309E+00
 -1      3311-2.26390E+00 1.45187E+00 2.01111E+00
 -1      3312-5.93586E-01 2.26604E+00 1.33637E+00
 -1      3313 2.61296E+00-5.68187E-01 1.92188E+00
 -1      3314-6.33210E-01 1.83027E+00 5.00000E-01
 -1      3315-1.45775E+00-2.27809E+00 1.10765E+00
 -1      3316 2.88467E-01-3.06921E+00-5.00000E-01
 -1      3317 1.08250E+00-2.06352E+00 1.14288E+00
 -1      3318 5.74601E-01-2.27390E+00 1.63040E+00
 -1      3319-5.67644E-01-2.61164E+00 2.01522E+00
 -1      3320-1.25450E+00 2.26090E+00 2.25000E+00
 -1      3321-1.18370E+00 2.02161E+00 1.89144E+00
 -1      3322-2.21520E+00 1.54345E+00 9.00195E-01
 -1      3323 1.18941E+00-2.01924E+00 2.00629E+00
 -1      3324 1.43707E+00-2.22816E+00 1.20720E+00
 -1      3325 2.27127E+00-5.80946E-01 1.90051E+00
 -1      3326 1.84499E+00 1.43698E+00 6.09937E-01
 -1      3327 2.32070E+00-2.92429E-01 1.98254E+00
 -1      3328 1.87491E+00-1.40706E+00 1.25625E+00
 -1      3329-1.46515E+00 2.29596E+00 1.57852E+00
 -1      3330-2.26294E+00 6.01061E-01 2.10314E+00
 -1      3331 1.20048E+00-2.01466E+00 1.74431E+00
 -1      3332-2.25853E+00 6.11715E-01 7.93638E-01
 -1      3333-1.42221E+00-2.19229E+00 1.26383E+00
 -1      3334 1.42982E+00 2.21067E+00 1.32071E+00
 -1      3335 2.15611E+00 1.48436E+00 2.06143E+00
 -1      3336 1.42895E+00-2.20855E+00 1.48309E+00
 -1      3337 5.77473E-01 2.27271E+00 1.64679E+00
 -1      3338-2.17817E+00 1.50642E+00 1.37500E+00
 -1      3339 1.66263E+00-1.09140E+00 5.00000E-01
 -1      3340 2.02657E+00-1.17173E+00 1.44612E+00
 -1      3341 2.27758E+00 1.45754E+00 1.64562E+00
 -1      3342-1.51131E+00 1.24459E+00 5.00000E-01
 -1      3343-2.55437E+00-4.74999E-01 1.08778E+00
 -1      3344 1.44468E+00-2.24654E+00 1.92188E+00
 -1      3345-2.53530E+00 5.36022E-01 8.82812E-01
 -1      3346-1.43928E+00-2.23351E+00 1.92188E+00
 -1      3347-1.43124E+00-1.85073E+00 1.63052E+00
 -1      3348-1.58246E+00-2.25421E+00 1.94659E+00
 -1      3349 2.20404E+00 1.42708E+00 1.46745E+00
 -1      3350 2.27541E+00-5.70947E-01 2.10864E+00
 -1      3351 1.60872E+00 2.02421E+00 2.25000E+00
 -1      3352 4.74999E-01 2.55907E+00 1.75781E+00
 -1      3353 8.55491E-01-1.76377E+00 5.00000E-01
 -1      3354 3.31720E-01-2.32070E+00 1.23130E+00
 -1      3355 1.33254E+00-1.49575E+00 5.00000E-01
 -1      3356-1.39148E+00 1.89049E+00 6.56660E-01
 -1      3357 4.74999E-01-2.69884E+00 9.54311E-01
 -1      3358 2.22591E+00-1.55416E+00 9.43765E-01
 -1      3359-5.70624E-01 2.61884E+00 1.73323E+00
 -1      3360-5.74968E-01-2.27375E+00 2.04213E+00
 -1      3361-1.74968E+00 1.06576E+00 5.00000E-01
 -1      3362 1.11353E+00-1.66450E+00 5.00000E-01
 -1      3363 2.13494E+00 1.46319E+00 1.42969E+00
 -1      3364 1.15259E+00 2.03449E+00 1.93038E+00
 -1      3365 5.47357E-01 2.56267E+00 1.02892E+00
 -1      3366-2.21857E+00-1.54682E+00 1.10765E+00
 -1      3367-1.11030E+00-2.05201E+00 2.11448E+00
 -1      3368 2.02269E+00 5.25545E-01 5.00000E-01
 -1      3369 1.84156E+00 1.44041E+00 1.30332E+00
 -1      3370 1.20048E+00-2.01466E+00 1.11004E+00
 -1      3371 2.70494E+00 4.74999E-01 1.85923E+00
 -1      3372-2.31375E+00-1.47252E+00 1.92188E+00
 -1      3373-1.39796E+00-1.88401E+00 1.11183E+00
 -1      3374 1.43698E+00 1.84499E+00 2.14860E+00
 -1      3375 1.19964E+00 2.01501E+00 1.33579E+00
 -1      3376 1.44509E+00 1.34716E+00 5.00000E-01
 -1      3377 1.40119E+00 1.88078E+00 1.10857E+00
 -1      3378 1.08244E+00-1.85933E+00 5.00000E-01
 -1      3379-5.58947E-01-2.59065E+00 1.42969E+00
 -1      3380 2.54588E+00-5.40401E-01 1.21094E+00
 -1      3381-5.69580E-01 2.61632E+00 2.03104E+00
 -1      3382 2.32070E+00-3.40311E-01 2.13440E+00
 -1      3383 6.58823E-01 2.23902E+00 6.62830E-01
 -1      3384 2.32070E+00-3.35454E-01 1.69653E+00
 -1      3385-2.88511E-01 2.32070E+00 2.10122E+00
 -1      3386 2.15112E+00 1.47937E+00 1.80250E+00
 -1      3387-2.64122E+00 4.74999E-01 1.32327E+00
 -1      3388-2.50932E+00 8.61553E-01 2.25000E+00
 -1      3389-1.33719E+00 1.53620E+00 5.00000E-01
 -1      3390 2.19355E+00-1.52180E+00 1.46578E+00
 -1      3391-1.60872E+00 2.02421E+00 2.25000E+00
 -1      3392-1.44376E-01 6.15178E+00-5.00000E-01
 -1      3393-2.54388E+00 5.39576E-01 1.09504E+00
 -1      3394-1.44636E+00 1.83561E+00 2.08067E+00
 -1      3395 6.10285E-01-2.25912E+00 7.68533E-01
 -1      3396-5.57222E-01-2.58649E+00 1.20859E+00
 -1      3397-1.41595E+00 1.86602E+00 1.78713E+00
 -1      3398 1.52222E+00-2.19397E+00 9.92188E-01
 -1      3399 5.74653E-01-2.62857E+00 9.92188E-01
 -1      3400-1.40737E+00-1.87460E+00 9.60733E-01
 -1      3401 5.63219E-01-2.60096E+00 1.22445E+00
 -1      3402 2.51309E-01 2.12157E+00 5.00000E-01
 -1      3403-1.46509E+00 2.29581E+00 1.95398E+00
 -1      3404 1.04117E+00 1.81122E+00 5.00000E-01
 -1      3405 2.18065E+00 1.41739E+00 1.10156E+00
 -1      3406-1.87789E+00-1.40408E+00 6.21166E-01
 -1      3407-1.26727E+00 1.72777E+00 5.00000E-01
 -1      3408 2.88511E-01-2.32070E+00 2.11869E+00
 -1      3409 1.18560E+00 2.34954E+00 2.25000E+00
 -1      3410-5.17118E+00-4.57695E-01-5.00000E-01
 -1      3411 6.21546E-01-2.25446E+00 2.15757E+00
 -1      3412-1.85786E+00-1.42411E+00 1.34632E+00
 -1      3413-2.32070E+00-2.83570E-01 1.31774E+00
 -1      3414-1.15404E-01-1.92857E+00 5.00000E-01
 -1      3415 5.70729E-01 2.27551E+00 1.11059E+00
 -1      3416-2.18779E+00-1.51604E+00 1.53906E+00
 -1      3417-1.86237E+00-1.41960E+00 1.60897E+00
 -1      3418 1.23986E+00 2.17499E+00 2.25000E+00
 -1      3419-1.81770E+00-1.46427E+00 2.03901E+00
 -1      3420 9.51388E-01 5.20300E+00-5.00000E-01
 -1      3421-4.04032E+00-2.69966E+00 5.00000E-01
 -1      3422-2.26090E+00-1.25450E+00 2.25000E+00
 -1      3423-2.26307E-01 2.32070E+00 6.68586E-01
 -1      3424 1.17807E+00 2.02394E+00 2.10649E+00
 -1      3425-1.49199E-01 2.05612E+00 5.00000E-01
 -1      3426-2.27324E+00-5.76196E-01 1.01112E+00
 -1      3427-2.37373E-01 1.76127E+00-5.00000E-01
 -1      3428-2.32070E+00 3.35039E-01 6.21164E-01
 -1      3429-3.51106E-01-2.06937E+00 5.00000E-01
 -1      3430-5.85148E+00 1.15309E+00-5.00000E-01
 -1      3431-4.68395E+00 9.31842E-01-5.00000E-01
 -1      3432-1.86684E+00-1.41513E+00 1.89177E+00
 -1      3433 2.79189E+00 2.12014E+00 1.66663E+00
 -1      3434-4.34500E-01 2.03598E+00 5.00000E-01
 -1      3435-2.01200E+00-1.20689E+00 1.04789E+00
 -1      3436-7.42918E-03-1.91527E+00-5.00000E-01
 -1      3437-2.32070E+00-3.45966E-01 1.42917E+00
 -1      3438 4.76589E+00 9.47992E-01 5.00000E-01
 -1      3439-3.35729E+00-4.26529E+00-5.00000E-01
 -1      3440-2.69966E+00-4.04032E+00 5.00000E-01
 -1      3441-3.88142E+00 2.87293E+00-5.00000E-01
 -1      3442 5.88594E+00 1.31446E+00-5.00000E-01
 -1      3443 4.11563E+00 2.84944E+00-5.00000E-01
 -1      3444-4.40307E+00 3.09509E+00-5.00000E-01
 -1      3445-2.54907E+00-5.41724E-01 1.21094E+00
 -1      3446-1.15464E+00 2.03364E+00 2.14715E+00
 -1      3447 1.40316E+00-1.87881E+00 2.12400E+00
 -1      3448-2.56234E+00 4.74999E-01 8.82812E-01
 -1      3449 2.10528E+00 3.25520E-01 5.00000E-01
 -1      3450-2.88511E-01 2.32070E+00 5.85894E-01
 -1      3451-1.53880E+00 2.21055E+00 1.92188E+00
 -1      3452 5.81341E-01-1.92721E+00 5.00000E-01
 -1      3453 1.96342E-01-2.00223E+00 5.00000E-01
 -1      3454 4.74999E-01-2.57852E+00 1.10933E+00
 -1      3455 1.44837E+00 2.25543E+00 2.00865E+00
 -1      3456 1.86421E+00-8.97093E-01 5.00000E-01
 -1      3457 4.13465E-01-2.09109E+00 5.00000E-01
 -1      3458-8.80186E-01-1.82339E+00 5.00000E-01
 -1      3459 2.13515E+00 1.46340E+00 9.92188E-01
 -1      3460-5.33353E-01 2.52886E+00 9.92188E-01
 -1      3461-2.55101E+00 4.74999E-01 1.18455E+00
 -1      3462-2.64989E+00 5.83487E-01 1.72739E+00
 -1      3463-5.60860E-01-2.05578E+00 5.00000E-01
 -1      3464 1.68075E+00 1.23409E+00 5.00000E-01
 -1      3465 2.61149E+00-2.18912E-01 2.25000E+00
 -1      3466 2.21063E+00-1.42981E+00 1.53906E+00
 -1      3467-2.02421E+00-1.60872E+00 2.25000E+00
 -1      3468 1.53480E+00 2.20655E+00 2.01384E+00
 -1      3469-2.32070E+00 3.28133E-01 1.05467E+00
 -1      3470-4.74999E-01 2.57117E+00 1.47079E+00
 -1      3471-4.74999E-01 2.61083E+00 1.20928E+00
 -1      3472-1.71814E+00 1.27200E+00 5.00000E-01
 -1      3473-1.41242E+00-2.16866E+00 9.92188E-01
 -1      3474-2.03364E+00-1.15464E+00 2.13873E+00
 -1      3475-1.87674E+00-1.40523E+00 1.22409E+00
 -1      3476 1.70355E+00-1.29553E+00 5.00000E-01
 -1      3477-1.64741E+00-1.22851E+00 5.00000E-01
 -1      3478 5.75837E-01-2.63143E+00 1.70312E+00
 -1      3479 1.31101E+00-1.69430E+00 5.00000E-01
 -1      3480-1.08547E+00 1.86665E+00 5.00000E-01
 -1      3481-8.28787E-01 2.50045E+00 2.25000E+00
 -1      3482 5.35814E-01-2.53480E+00 8.28125E-01
 -1      3483-2.16147E+00-1.48972E+00 1.34679E+00
 -1      3484-1.84499E+00-1.43698E+00 2.14887E+00
 -1      3485-4.76589E+00 9.47994E-01 5.00000E-01
 -1      3486-1.83459E+00-1.44738E+00 1.75868E+00
 -1      3487 2.85753E+00-4.21647E+00-5.00000E-01
 -1      3488-2.28745E+00-1.46163E+00 1.07077E+00
 -1      3489 1.85669E+00-1.09101E+00 5.00000E-01
 -1      3490-2.84871E+00-4.13446E+00-5.00000E-01
 -1      3491-4.04032E+00 2.69966E+00 5.00000E-01
 -1      3492 4.04032E+00 2.69966E+00 5.00000E-01
 -1      3493-2.24587E+00-1.57412E+00 1.92188E+00
 -1      3494-1.22818E+00-2.20468E+00 2.25000E+00
 -1      3495-1.13229E+00-2.13046E+00 2.63158E-02
 -1      3496 2.13046E+00-1.13229E+00 1.45801E-03
 -1      3497 1.12162E+00-5.63875E+00 7.02582E-02
 -1      3498 2.30808E-01 2.40158E+00 3.56806E-03
 -1      3499 1.53496E+00 1.86137E+00 1.52572E-02
 -1      3500-4.37192E-01 2.36053E+00-3.13734E-02
 -1      3501-1.53496E+00 1.86137E+00 6.81026E-03
 -1      3502 1.12162E+00 5.63875E+00 7.27036E-02
 -1      3503 4.78031E+00 3.19409E+00 7.03925E-02
 -1      3504-1.99784E+00-1.83067E+00 1.54499E+00
 -1      3505-2.40158E+00-2.30808E-01 2.95052E-03
 -1      3506-2.37862E+00 3.46213E-01-1.32382E-02
 -1      3507-4.78031E+00-3.19409E+00 2.95936E-02
 -1      3508 2.62129E+00 9.60858E-01 1.00059E-01
 -1      3509-1.59489E+00-1.43168E+00-4.57327E-02
 -1      3510 2.30808E-01-2.40158E+00 2.18184E-02
 -1      3511 1.27768E+00-2.44709E+00 7.27953E-02
 -1      3512 1.86137E+00 1.53496E+00 9.95235E-02
 -1      3513-1.86137E+00 1.53496E+00 9.80079E-02
 -1      3514-2.13046E+00 1.13229E+00 8.16662E-02
 -1      3515-2.53296E+00-1.17410E+00 1.12716E-01
 -1      3516 2.60333E+00-1.07834E+00 1.10331E+00
 -1      3517 2.70081E+00 1.64608E-01 1.07368E+00
 -1      3518-3.19409E+00 4.78031E+00 4.30019E-02
 -1      3519-9.84040E-01 4.94711E+00 3.19162E-03
 -1      3520 1.13229E+00 2.13046E+00 7.73927E-02
 -1      3521-1.19498E+00 2.38898E+00 9.40158E-01
 -1      3522 2.53296E+00-1.17410E+00 3.20224E-01
 -1      3523-2.56591E+00-1.11634E+00 8.16336E-01
 -1      3524-2.37862E+00-3.46213E-01 2.54320E-01
 -1      3525-1.80588E+00-1.96909E+00 4.52815E-02
 -1      3526 2.10123E+00-1.15404E-01-5.10670E-02
 -1      3527 1.13849E-02-2.86708E+00 7.57048E-01
 -1      3528 2.33006E+00 5.90404E-01 4.32678E-02
 -1      3529 4.25904E+00-2.84581E+00-2.72815E-02
 -1      3530-9.15014E-01-2.54196E+00 1.00145E+00
 -1      3531 2.74977E+00-2.43955E-01 1.52101E-02
 -1      3532-2.36715E+00-4.03915E-01 3.81283E-01
 -1      3533 4.53540E-02-2.77989E+00 1.49806E+00
 -1      3534-2.63381E+00 8.26903E-01 1.34354E-01
 -1      3535 2.00707E+00 1.95689E+00 1.37040E+00
 -1      3536 3.19409E+00 4.78031E+00 6.84782E-02
 -1      3537 5.02388E+00-9.99311E-01 1.21927E-02
 -1      3538-1.81992E+00 2.02749E+00 9.55529E-01
 -1      3539 1.43713E+00 1.92675E+00 2.60545E-01
 -1      3540-1.99845E+00 1.32984E+00 2.24790E-01
 -1      3541 4.57659E-01 2.00958E+00 1.42692E-01
 -1      3542-2.84512E+00 4.25801E+00-1.05613E-02
 -1      3543-1.00949E+00-5.07504E+00-3.30870E-02
 -1      3544-2.95686E-01-2.56201E+00 9.44137E-03
 -1      3545 1.23012E+00-2.06508E+00 1.32469E-01
 -1      3546-5.90404E-01 2.33006E+00 2.27041E-01
 -1      3547-2.33006E+00-5.90404E-01 3.58596E-01
 -1      3548 2.33006E+00 5.90404E-01 2.89887E-01
 -1      3549-2.53023E+00 1.10511E+00 1.83105E+00
 -1      3550 1.19648E+00 2.37100E+00 1.75781E+00
 -1      3551 1.43713E+00-1.92675E+00 2.54586E-01
 -1      3552 2.90459E+00 4.34702E+00 2.96497E-03
 -1      3553 2.44653E+00-1.15830E+00 1.62864E+00
 -1      3554-1.56596E+00 2.01164E+00 9.92188E-01
 -1      3555-8.52722E-01 2.52135E+00 1.80658E+00
 -1      3556 2.00559E+00-1.77071E+00 1.07590E+00
 -1      3557 2.06508E+00-1.23012E+00 2.53566E-01
 -1      3558-1.90796E+00 2.01166E+00 1.79541E+00
 -1      3559 1.09555E+00-2.55069E+00 1.76511E+00
 -1      3560 6.87945E-01 2.46578E+00 1.21094E+00
 -1      3561 2.59625E+00 1.03571E+00 1.68548E+00
 -1      3562-2.32681E+00 6.51517E-01 1.59179E-01
 -1      3563-9.04397E-01 1.88184E+00 2.89834E-02
 -1      3564-2.72795E-01 2.39323E+00 2.46375E-01
 -1      3565-1.17410E+00 2.53296E+00 1.07957E-01
 -1      3566 1.23498E+00 2.06183E+00 2.88692E-01
 -1      3567-1.94222E+00-9.29405E-01 1.72781E-02
 -1      3568 2.53571E+00 3.07810E-01 1.53906E+00
 -1      3569-5.90404E-01-2.33006E+00 1.28346E-01
 -1      3570-4.36626E-01 2.36064E+00 3.22556E-01
 -1      3571-1.12190E-01-2.67013E+00 1.04328E+00
 -1      3572 2.06508E+00 1.23012E+00 1.52749E-01
 -1      3573-8.11311E-01-2.49110E+00 1.81866E+00
 -1      3574-6.94309E-01-2.43538E+00 1.53906E+00
 -1      3575 2.38887E+00-2.88511E-01 1.29448E-01
 -1      3576 1.57153E+00 2.00376E+00 1.75781E+00
 -1      3577-2.45194E+00-1.18399E+00 1.76350E+00
 -1      3578 1.89084E+00 2.05405E+00 4.03218E-01
 -1      3579 1.57489E+00 1.99900E+00 1.10156E+00
 -1      3580-8.83012E-01 2.43115E+00 1.52772E+00
 -1      3581 1.93501E+00-1.97828E+00 1.48173E+00
 -1      3582-1.12040E+00-5.63264E+00 7.26703E-02
 -1      3583 2.33006E+00-5.90404E-01 2.09577E-01
 -1      3584 2.48542E+00-8.01626E-01 1.00662E+00
 -1      3585 2.36682E+00-4.05540E-01 3.02702E-01
 -1      3586 8.28716E-01-2.30226E+00 5.93546E-02
 -1      3587-2.05405E+00-1.89084E+00 4.54445E-01
 -1      3588-1.10354E+00 5.54789E+00-3.12935E-02
 -1      3589 3.46213E-01 2.37862E+00 2.54633E-01
 -1      3590 1.14749E+00 2.56891E+00 3.54149E-01
 -1      3591 8.58453E-01-2.54308E+00 9.39036E-01
 -1      3592 2.31335E-01 2.57079E+00 1.98004E+00
 -1      3593 2.23935E+00-1.25618E+00 9.92188E-01
 -1      3594-9.60858E-01-2.62129E+00 3.28969E-01
 -1      3595 3.15895E-01 2.52843E+00 9.92188E-01
 -1      3596 1.85600E+00-1.85550E+00 7.43239E-01
 -1      3597-1.11463E+00-2.48670E+00 1.49601E+00
 -1      3598-2.79085E+00 4.08376E-03 1.20035E+00
 -1      3599-2.78946E+00-1.15404E-01 3.99538E-01
 -1      3600 2.33781E+00-5.51432E-01 3.66462E-01
 -1      3601-2.54020E+00-9.27272E-01 4.32233E-01
 -1      3602 2.11689E+00-1.77187E+00 1.49727E-01
 -1      3603-2.76945E+00 1.79268E-02 1.76184E+00
 -1      3604-5.90404E-01-2.33006E+00 3.36604E-01
 -1      3605-1.18131E+00-1.79646E+00 1.92458E-01
 -1      3606-2.56877E+00-9.81080E-01 1.23747E+00
 -1      3607 1.94826E+00 1.74136E+00 1.60425E+00
 -1      3608 1.23012E+00-2.06508E+00 3.38918E-01
 -1      3609-2.36714E+00 4.03967E-01 2.45341E-01
 -1      3610 1.75119E+00-2.02007E+00 1.15924E+00
 -1      3611-5.90404E-01 2.33006E+00 3.94063E-01
 -1      3612 7.30052E-01 2.49268E+00 1.53471E+00
 -1      3613-2.05405E+00 1.89084E+00 3.85168E-01
 -1      3614 2.78946E+00 1.15404E-01 3.63154E-01
 -1      3615 2.06508E+00 1.23012E+00 3.50382E-01
 -1      3616-7.15428E-01 2.46427E+00 1.32031E+00
 -1      3617 4.03915E-01 2.36715E+00 3.81444E-01
 -1      3618 1.44831E+00-1.28511E+00 1.24246E-02
 -1      3619 5.90404E-01 2.33006E+00 3.58565E-01
 -1      3620 1.04426E+00 2.76629E+00 1.28289E+00
 -1      3621 2.30770E+00 1.21454E+00 1.32299E+00
 -1      3622-2.21229E+00 1.25101E+00 1.10156E+00
 -1      3623-1.79744E+00 1.85874E+00 6.80659E-01
 -1      3624 3.46213E-01-2.37862E+00 2.63867E-01
 -1      3625-2.53624E+00-3.07598E-01 1.53906E+00
 -1      3626 2.17066E-01-2.58169E+00 1.41337E+00
 -1      3627 6.85459E-01 2.74533E+00-2.08833E-02
 -1      3628-2.37862E+00 3.46213E-01 3.98599E-01
 -1      3629-1.15404E-01 2.78946E+00 4.74285E-01
 -1      3630-9.10679E-01 2.43369E+00 3.10552E-01
 -1      3631 1.57495E+00 2.39058E+00 8.84812E-02
 -1      3632-2.23341E-01-2.60398E+00 1.56948E+00
 -1      3633 2.49627E+00-7.80034E-01 1.41577E+00
 -1      3634 1.92675E+00-1.43713E+00 2.84841E-01
 -1      3635 2.46446E+00-8.54292E-01 3.51964E-01
 -1      3636 2.44256E-01-2.61218E+00 1.74673E+00
 -1      3637 1.25130E+00 2.21242E+00 1.10156E+00
 -1      3638 1.32132E+00 1.58939E+00 1.53403E-01
 -1      3639-2.38523E-01 2.59646E+00 1.15094E+00
 -1      3640-2.44048E+00 1.59535E+00-2.75609E-03
 -1      3641-1.93511E+00-2.02862E+00 8.81638E-01
 -1      3642 2.36715E+00 4.03915E-01 3.21966E-01
 -1      3643 9.60858E-01-2.62129E+00 4.08821E-01
 -1      3644 2.27322E+00 1.21219E+00 1.95462E+00
 -1      3645 1.13027E+00-2.38138E+00 1.04900E+00
 -1      3646 2.63792E+00 1.05346E+00 6.76265E-01
 -1      3647-1.96494E+00 1.55692E+00 3.24993E-01
 -1      3648 5.90404E-01-2.33006E+00 2.85982E-01
 -1      3649 2.45118E+00-6.84354E-01 1.75781E+00
 -1      3650 1.99121E+00-1.72111E+00 1.94935E+00
 -1      3651-1.95944E+00 1.38821E+00 3.63407E-01
 -1      3652-2.53296E+00 1.17410E+00 4.57119E-01
 -1      3653 2.00177E+00-1.32487E+00 3.53047E-01
 -1      3654-1.97887E+00 1.77442E+00 1.27712E+00
 -1      3655-2.01151E+00 1.57071E+00 9.92188E-01
 -1      3656 1.38821E+00-1.95944E+00 3.81419E-01
 -1      3657 4.04162E-01-1.92657E+00 4.37446E-02
 -1      3658-1.98416E+00-3.96021E-01 9.35520E-02
 -1      3659-2.29113E+00 1.18062E+00 1.38293E+00
 -1      3660-2.43976E+00-6.82951E-01 9.92188E-01
 -1      3661 8.28359E-01-2.50614E+00 1.45274E+00
 -1      3662 3.03391E-02 2.76948E+00 1.48538E+00
 -1      3663-1.38821E+00 1.95944E+00 2.27386E-01
 -1      3664 1.15737E-01-2.58357E+00 8.60488E-01
 -1      3665-3.11410E-01-2.52717E+00 1.75781E+00
 -1      3666-2.15924E+00-1.20666E+00 1.52823E-01
 -1      3667-1.69012E+00-2.00134E+00 1.80845E+00
 -1      3668-1.86706E+00-1.08564E+00 2.64630E-01
 -1      3669-3.01379E-01-2.53978E+00 1.10156E+00
 -1      3670-1.69630E+00-2.00869E+00 1.28280E+00
 -1      3671-1.17913E+00 2.34716E+00 1.45167E+00
 -1      3672-1.99310E+00 1.63089E+00 1.51291E+00
 -1      3673-2.47220E+00 7.56915E-01 1.40145E+00
 -1      3674-2.25981E+00 1.20663E+00 1.95462E+00
 -1      3675 2.01898E+00 1.86437E+00 7.89780E-01
 -1      3676 8.79243E-01 2.51103E+00 1.87497E+00
 -1      3677-1.23334E+00-2.24700E+00 1.57586E+00
 -1      3678-1.23012E+00 2.06508E+00 3.27964E-01
 -1      3679-2.53249E+00 3.07581E-01 1.53906E+00
 -1      3680 1.80259E+00 5.07885E-01 1.62308E-02
 -1      3681-3.46213E-01-2.37862E+00 2.79636E-01
 -1      3682-1.63091E+00 2.01284E+00 1.49247E+00
 -1      3683-1.25650E+00 2.22682E+00 1.10156E+00
 -1      3684-1.38821E+00 1.95944E+00 3.73756E-01
 -1      3685-2.56368E+00 9.25086E-01 7.74768E-01
 -1      3686-2.53131E+00 6.80562E-02 1.94391E-01
 -1      3687-2.45528E+00-7.73530E-01 1.61067E+00
 -1      3688-1.56740E+00-2.00022E+00 9.92188E-01
 -1      3689-8.86908E-01-2.46146E+00 6.71839E-01
 -1      3690 1.98741E+00 1.68714E+00 1.26981E+00
 -1      3691-2.35190E+00 4.80597E-01 3.63303E-01
 -1      3692 2.46902E+00 9.06365E-01 1.29612E+00
 -1      3693-5.63875E+00-1.12162E+00 7.38565E-02
 -1      3694-1.27904E+00-2.03239E+00 2.49126E-01
 -1      3695 5.57783E+00-1.10950E+00 4.47415E-02
 -1      3696 1.01872E+00-5.12144E+00-2.96653E-03
 -1      3697 1.18320E+00-2.30681E+00 1.36824E+00
 -1      3698-1.19622E+00 1.59329E+00 1.10265E-01
 -1      3699-5.02388E+00-9.99311E-01 6.72837E-03
 -1      3700 5.81105E-01-2.81618E+00 4.37446E-02
 -1      3701-2.09198E+00 5.54245E-01 2.90011E-01
 -1      3702 9.26839E-01 2.48115E+00 6.28471E-01
 -1      3703 1.34397E+00 1.98900E+00 3.56838E-01
 -1      3704-2.80925E+00-6.13519E-01 1.76983E-02
 -1      3705 6.79243E-01-2.45657E+00 1.10156E+00
 -1      3706-3.09921E-01 2.52779E+00 1.64844E+00
 -1      3707 4.72497E+00-3.15712E+00 4.28789E-02
 -1      3708 3.19409E+00-4.78031E+00 1.31105E-02
 -1      3709-4.32463E+00-2.88963E+00-1.51526E-02
 -1      3710 1.02134E+00 5.13462E+00 8.66014E-03
 -1      3711-4.78031E+00 3.19409E+00 4.87197E-02
 -1      3712 2.57481E+00-2.44243E-01 1.71863E+00
 -1      3713-1.43713E+00-1.92675E+00 3.35736E-01
 -1      3714-2.88511E-01 2.15803E+00 3.22375E-01
 -1      3715-3.11738E-01-1.86759E+00-2.11719E-02
 -1      3716-1.10981E+00 2.37775E+00 6.10581E-01
 -1      3717 9.96674E-01-1.74575E+00 1.30926E-01
 -1      3718-1.72389E+00 1.93880E+00 3.00571E-01
 -1      3719-1.90083E+00 1.09963E+00 2.92395E-01
 -1      3720 4.61299E-01-2.35573E+00 3.55378E-01
 -1      3721 2.59601E-01 2.56880E+00 1.47907E+00
 -1      3722 2.65644E+00-1.04699E-01 6.41839E-01
 -1      3723 1.95944E+00 1.38821E+00 3.22705E-01
 -1      3724-1.92675E+00-1.43713E+00 1.96087E-01
 -1      3725-2.03239E+00-1.27904E+00 3.03599E-01
 -1      3726 2.56821E+00 2.49507E-01 1.83057E+00
 -1      3727-1.64162E+00 2.00891E+00 1.76715E+00
 -1      3728 1.90433E+00 1.69780E+00 6.14607E-01
 -1      3729-4.55627E-01-2.35686E+00 3.64629E-01
 -1      3730-1.94413E+00-1.41112E+00 3.62661E-01
 -1      3731-5.05078E+00 1.00466E+00-4.16441E-02
 -1      3732-5.62574E+00 1.11903E+00 4.72125E-02
 -1      3733 5.02388E+00 9.99311E-01-3.29747E-02
 -1      3734-3.19409E+00-4.78031E+00 1.86114E-02
 -1      3735 5.63875E+00 1.12162E+00 2.91215E-02
 -1      3736 4.33603E+00 2.89724E+00-9.11910E-03
 -1      3737-4.33634E+00 2.89745E+00-5.50260E-03
 -1      3738-7.87519E-01 2.46703E+00 1.05992E+00
 -1      3739-7.04349E-01-1.91736E+00 1.27289E-01
 -1      3740 2.55304E+00 1.46035E-01 6.14606E-01
 -1      3741-1.19717E+00-2.26982E+00 8.85071E-01
 -1      3742 1.76254E+00-1.18530E+00 2.18709E-01
 -1      3743-4.50406E-01-2.10192E+00 2.32475E-01
 -1      3744 2.84581E+00-4.25904E+00 3.36219E-02
 -1      3745-2.84581E+00-4.25904E+00 2.68335E-02
 -1      3746-1.99977E+00-1.68842E+00 1.80427E+00
 -3
    3C                         12376                                     1
 -1         1    3    0    1
 -2       716      2587      2876      3235
 -1         2    3    0    1
 -2      1501      2482      3587      3406
 -1         3    3    0    1
 -2       973       628      2192      2394
 -1         4    3    0    1
 -2       355       286      1950      2143
 -1         5    3    0    1
 -2      2020       810      2049      2285
 -1         6    3    0    1
 -2      2197      1287      2311      2403
 -1         7    3    0    1
 -2       617       618      2191      2293
 -1         8    3    0    1
 -2      1328       920       764      1202
 -1         9    3    0    1
 -2      1022      2105      2196      2300
 -1        10    3    0    1
 -2      1491      1492      1630      2961
 -1        11    3    0    1
 -2       480      1286       479       558
 -1        12    3    0    1
 -2      1346      1943      2096      2253
 -1        13    3    0    1
 -2       506       802       815       816
 -1        14    3    0    1
 -2       499      2532      2672      2694
 -1        15    3    0    1
 -2      1938       339      2114      2174
 -1        16    3    0    1
 -2       586       482       594       958
 -1        17    3    0    1
 -2      2210      2018      2217      2401
 -1        18    3    0    1
 -2      1971      1984      2002      2214
 -1        19    3    0    1
 -2      1750       410      3613      3647
 -1        20    3    0    1
 -2       805       808       925      1059
 -1        21    3    0    1
 -2      1289       949       571      3508
 -1        22    3    0    1
 -2       449      1644      1645      3033
 -1        23    3    0    1
 -2       963       344      2097      2245
 -1        24    3    0    1
 -2      3071      3218      3473      3741
 -1        25    3    0    1
 -2       767       496       774      1042
 -1        26    3    0    1
 -2       477       550       564       946
 -1        27    3    0    1
 -2      1442      3510      3544      3681
 -1        28    3    0    1
 -2       984      2115      2243      2544
 -1        29    3    0    1
 -2       497      1042       774       496
 -1        30    3    0    1
 -2       541       700       707      1009
 -1        31    3    0    1
 -2      1941      1934      2054      2183
 -1        32    3    0    1
 -2       719       211      1014      1320
 -1        33    3    0    1
 -2       874      1383      2080      2178
 -1        34    3    0    1
 -2       569       114       575      1184
 -1        35    3    0    1
 -2       392       606       970      1905
 -1        36    3    0    1
 -2       682       451       689       690
 -1        37    3    0    1
 -2       403       405       656       992
 -1        38    3    0    1
 -2       831      1070      2444      2447
 -1        39    3    0    1
 -2       132       133       588       961
 -1        40    3    0    1
 -2      1413      1483      1484      2489
 -1        41    3    0    1
 -2       647       651       903       985
 -1        42    3    0    1
 -2      2392      2086      2579      3552
 -1        43    3    0    1
 -2        48        46       825      1208
 -1        44    3    0    1
 -2      2090       681      2565      3168
 -1        45    3    0    1
 -2       617       961       967      2506
 -1        46    3    0    1
 -2       217       397       728      1026
 -1        47    3    0    1
 -2      2086       961      2435      2506
 -1        48    3    0    1
 -2       184       678       682      1004
 -1        49    3    0    1
 -2       962       385       966      1949
 -1        50    3    0    1
 -2      2030      1993      2149      2247
 -1        51    3    0    1
 -2       675       674      1271      1310
 -1        52    3    0    1
 -2       122       116       575       948
 -1        53    3    0    1
 -2       625      1302       972      2250
 -1        54    3    0    1
 -2       774      1042      2048      2200
 -1        55    3    0    1
 -2       619       626      1555      2850
 -1        56    3    0    1
 -2       232      1036      1037      2145
 -1        57    3    0    1
 -2      2100      1978      2466      2467
 -1        58    3    0    1
 -2      3300      1764      3320      3403
 -1        59    3    0    1
 -2       370      2084      2346      2366
 -1        60    3    0    1
 -2       602       962      1157      1159
 -1        61    3    0    1
 -2       219       733       736      1027
 -1        62    3    0    1
 -2       489       587       600       960
 -1        63    3    0    1
 -2       570       486       574       581
 -1        64    3    0    1
 -2       771      1041      1325      2063
 -1        65    3    0    1
 -2        47       821       921      1205
 -1        66    3    0    1
 -2      2003      2017      2261      2277
 -1        67    3    0    1
 -2      1343      1344      1990      2163
 -1        68    3    0    1
 -2      3532       316      3599      3704
 -1        69    3    0    1
 -2       535       536       694      1005
 -1        70    3    0    1
 -2       487       486       570       582
 -1        71    3    0    1
 -2       736       739      1027      1248
 -1        72    3    0    1
 -2      3590      2990       964      3702
 -1        73    3    0    1
 -2      2077      1967      2238      2288
 -1        74    3    0    1
 -2      1039      2084      2251      2321
 -1        75    3    0    1
 -2      1299       904       605      1158
 -1        76    3    0    1
 -2      1834      1638      1835      3383
 -1        77    3    0    1
 -2       636       977      1936      2417
 -1        78    3    0    1
 -2       597       593       959      1189
 -1        79    3    0    1
 -2      1021       726      2222      2472
 -1        80    3    0    1
 -2       314       312      1973      2193
 -1        81    3    0    1
 -2       229      1516      2675      3741
 -1        82    3    0    1
 -2       561       105       557      1174
 -1        83    3    0    1
 -2        99      2146      2379       946
 -1        84    3    0    1
 -2      2985      1640      1776      3637
 -1        85    3    0    1
 -2      2269       135      2380      2441
 -1        86    3    0    1
 -2      2099       857      2154      2157
 -1        87    3    0    1
 -2       552       950      1284      2549
 -1        88    3    0    1
 -2       612       604      2156      2245
 -1        89    3    0    1
 -2      1217       802        52       809
 -1        90    3    0    1
 -2      1987      2007      2239      2273
 -1        91    3    0    1
 -2       503      1068       826       502
 -1        92    3    0    1
 -2       170       409       660       996
 -1        93    3    0    1
 -2       461       748       755       762
 -1        94    3    0    1
 -2      2031      2029      2182      2200
 -1        95    3    0    1
 -2       484       951       576      1287
 -1        96    3    0    1
 -2      1008       702      2081      2337
 -1        97    3    0    1
 -2      2023      2265      2413      2418
 -1        98    3    0    1
 -2      1304      2171      2585      3542
 -1        99    3    0    1
 -2       607       628      2242      2464
 -1       100    3    0    1
 -2       144      2450      2579      3552
 -1       101    3    0    1
 -2       229      1024      3587      3713
 -1       102    3    0    1
 -2      3317      3324      3645      3370
 -1       103    3    0    1
 -2      2106      2169      2204      2241
 -1       104    3    0    1
 -2      1001       185      2589      3711
 -1       105    3    0    1
 -2       344       963      2097      2349
 -1       106    3    0    1
 -2       511       772       779      1043
 -1       107    3    0    1
 -2       563       550       945       946
 -1       108    3    0    1
 -2       617       600       961      2506
 -1       109    3    0    1
 -2       731       543       738      1026
 -1       110    3    0    1
 -2      1950      1120      2005      2126
 -1       111    3    0    1
 -2       501       825      1208      1209
 -1       112    3    0    1
 -2      1574      1575      1732      3064
 -1       113    3    0    1
 -2       725      1019      2194      2222
 -1       114    3    0    1
 -2       707       695      1010      1011
 -1       115    3    0    1
 -2       667       170       663      1798
 -1       116    3    0    1
 -2       248       331      2306      2321
 -1       117    3    0    1
 -2      2121      2233      2323      2461
 -1       118    3    0    1
 -2      3507      1021      1902      1903
 -1       119    3    0    1
 -2       392       144       606       965
 -1       120    3    0    1
 -2       232       233      2254      2334
 -1       121    3    0    1
 -2      1384      1370      2178      2255
 -1       122    3    0    1
 -2       543       938      1022      1278
 -1       123    3    0    1
 -2      3538      2914      3654      3682
 -1       124    3    0    1
 -2       754       762      1035      1038
 -1       125    3    0    1
 -2       869      1389       878      2083
 -1       126    3    0    1
 -2       825        48      1208      1209
 -1       127    3    0    1
 -2       986       163      2115      2221
 -1       128    3    0    1
 -2       642       653       984       987
 -1       129    3    0    1
 -2      2129      2356      1960      2386
 -1       130    3    0    1
 -2       408      1995      2013      2076
 -1       131    3    0    1
 -2      1947      2030      2149      2155
 -1       132    3    0    1
 -2      1987      1975      2034      2273
 -1       133    3    0    1
 -2      3112       698      1896      3413
 -1       134    3    0    1
 -2       429       171      1888      1893
 -1       135    3    0    1
 -2       749      1324      2031      2048
 -1       136    3    0    1
 -2       642       454       654       987
 -1       137    3    0    1
 -2       665       669       898       994
 -1       138    3    0    1
 -2      2921      1600      1853      3466
 -1       139    3    0    1
 -2         3       678       682      1151
 -1       140    3    0    1
 -2        73       639      1243      1246
 -1       141    3    0    1
 -2       503      1341      1065       826
 -1       142    3    0    1
 -2      2022      1013      2047      2374
 -1       143    3    0    1
 -2      2695      1588      3033      3055
 -1       144    3    0    1
 -2      1335       925       805      1213
 -1       145    3    0    1
 -2      2171       327      2564      3518
 -1       146    3    0    1
 -2       577        35       123      1187
 -1       147    3    0    1
 -2       584       958      1179      1182
 -1       148    3    0    1
 -2       109        99       946      2146
 -1       149    3    0    1
 -2      1957      2132      2234      2317
 -1       150    3    0    1
 -2      1461      1462      2716      3268
 -1       151    3    0    1
 -2       851      1383       874      2178
 -1       152    3    0    1
 -2      1190       588       488       591
 -1       153    3    0    1
 -2       185       184      2315      2333
 -1       154    3    0    1
 -2       575       486       952      1186
 -1       155    3    0    1
 -2       719      1014      1280      1282
 -1       156    3    0    1
 -2      1021      2220      2472      3507
 -1       157    3    0    1
 -2       397       217      2196      2300
 -1       158    3    0    1
 -2      3292      1832      3660      3445
 -1       159    3    0    1
 -2       714        86       718      1265
 -1       160    3    0    1
 -2       775       772      1043      1881
 -1       161    3    0    1
 -2       678       184       999      1311
 -1       162    3    0    1
 -2       385      2032      2057      2338
 -1       163    3    0    1
 -2      1986      2040      2172      2312
 -1       164    3    0    1
 -2      2115       984      2243       653
 -1       165    3    0    1
 -2      1659      1477      2984      3230
 -1       166    3    0    1
 -2       575       486       581       952
 -1       167    3    0    1
 -2        37        38       787      1196
 -1       168    3    0    1
 -2       486       570       574      1187
 -1       169    3    0    1
 -2       869      1390      1379      2159
 -1       170    3    0    1
 -2      2807      3506      3609      3701
 -1       171    3    0    1
 -2      1345       835       836      1990
 -1       172    3    0    1
 -2       116       122       575       952
 -1       173    3    0    1
 -2      1980      2099      2154      2157
 -1       174    3    0    1
 -2      2384       244      3497      3696
 -1       175    3    0    1
 -2       414       191      1003      2144
 -1       176    3    0    1
 -2      3505      1417      2807      3686
 -1       177    3    0    1
 -2       485      1287      1185       484
 -1       178    3    0    1
 -2      2132      2065      2234      2317
 -1       179    3    0    1
 -2       756      1327      1991      2027
 -1       180    3    0    1
 -2       478       556       944      1175
 -1       181    3    0    1
 -2      1011       708      2194      2268
 -1       182    3    0    1
 -2       549       479       558       943
 -1       183    3    0    1
 -2       193       415       700      1007
 -1       184    3    0    1
 -2      2070      1939      2210      2217
 -1       185    3    0    1
 -2        12      1572      1573      2819
 -1       186    3    0    1
 -2        97       711       939      1281
 -1       187    3    0    1
 -2       652       164       168      1140
 -1       188    3    0    1
 -2       453      1036       755       897
 -1       189    3    0    1
 -2       465       605       618       969
 -1       190    3    0    1
 -2       719      1014      1282      1320
 -1       191    3    0    1
 -2       536      1314      1269       535
 -1       192    3    0    1
 -2       938       543      1022      1026
 -1       193    3    0    1
 -2      2534      2602      1571      1681
 -1       194    3    0    1
 -2       524       523       979      1246
 -1       195    3    0    1
 -2       641       647       980      1245
 -1       196    3    0    1
 -2       715      1015      1319      3523
 -1       197    3    0    1
 -2      2080       309      2112      2178
 -1       198    3    0    1
 -2      1086      1955       362      1398
 -1       199    3    0    1
 -2       150       149       969      2191
 -1       200    3    0    1
 -2       892      1404      2021      2072
 -1       201    3    0    1
 -2       464       985       647       903
 -1       202    3    0    1
 -2       455       994       665       898
 -1       203    3    0    1
 -2       829       825      1070      1209
 -1       204    3    0    1
 -2       143       605       611      1156
 -1       205    3    0    1
 -2       486       487       569       582
 -1       206    3    0    1
 -2      1004       690      2308      3430
 -1       207    3    0    1
 -2      1240      2540      2643      2791
 -1       208    3    0    1
 -2      1362       845      1361      2230
 -1       209    3    0    1
 -2      1411      3509      3525      3724
 -1       210    3    0    1
 -2      1013       712      2047      2374
 -1       211    3    0    1
 -2       728       729      1022      1278
 -1       212    3    0    1
 -2       157       158       627       973
 -1       213    3    0    1
 -2      1392      1381      2046      2163
 -1       214    3    0    1
 -2       162       979      2030      2149
 -1       215    3    0    1
 -2       333       270      3708      1906
 -1       216    3    0    1
 -2       826      1341      2118      2327
 -1       217    3    0    1
 -2       943      2265      2276      2413
 -1       218    3    0    1
 -2      1422      3496      3557      3456
 -1       219    3    0    1
 -2      1954      1983      2240      2324
 -1       220    3    0    1
 -2       134       126       960      2244
 -1       221    3    0    1
 -2       515       514      1031      1227
 -1       222    3    0    1
 -2      2558      1253      2806      3348
 -1       223    3    0    1
 -2      1321       220      2264      3745
 -1       224    3    0    1
 -2       125      2070      2210      2217
 -1       225    3    0    1
 -2      1943      1994      2096      2253
 -1       226    3    0    1
 -2       689       996      1001      2134
 -1       227    3    0    1
 -2       660       456       996      1142
 -1       228    3    0    1
 -2      2645      2860      2965      3650
 -1       229    3    0    1
 -2       175       178       994      2135
 -1       230    3    0    1
 -2       217       728      1022      1026
 -1       231    3    0    1
 -2      1545      1411      3587      3724
 -1       232    3    0    1
 -2      2010      1984      2128      2227
 -1       233    3    0    1
 -2      2069       372      2123      2313
 -1       234    3    0    1
 -2       451       452       683       690
 -1       235    3    0    1
 -2      1306       980       640      2248
 -1       236    3    0    1
 -2      1511       207      3467      3484
 -1       237    3    0    1
 -2       806      1335      2093      2767
 -1       238    3    0    1
 -2       707      1009      1012      2188
 -1       239    3    0    1
 -2       748       760      1037      1149
 -1       240    3    0    1
 -2       336       942      2431      2454
 -1       241    3    0    1
 -2      1638      2852      3157      3595
 -1       242    3    0    1
 -2       783       251       252      1193
 -1       243    3    0    1
 -2      1041      2063      2284      2705
 -1       244    3    0    1
 -2       317      1016      2202      2275
 -1       245    3    0    1
 -2       552       555       942      2599
 -1       246    3    0    1
 -2       419      2034      2239      2273
 -1       247    3    0    1
 -2       202        95       695      1277
 -1       248    3    0    1
 -2      1957      2266      2330      2438
 -1       249    3    0    1
 -2       163       641       647       980
 -1       250    3    0    1
 -2       303       291      1095      1985
 -1       251    3    0    1
 -2       193       696      1012      1914
 -1       252    3    0    1
 -2      1336      2712      2825      3172
 -1       253    3    0    1
 -2      1959      1960      2012      2129
 -1       254    3    0    1
 -2       587      1189       593        32
 -1       255    3    0    1
 -2       624       516       635       636
 -1       256    3    0    1
 -2       605       616       969      1156
 -1       257    3    0    1
 -2        41      1631      2855      3408
 -1       258    3    0    1
 -2       877      1388      2181      2401
 -1       259    3    0    1
 -2      3053      1590      3578      3728
 -1       260    3    0    1
 -2       984       987      2291      2544
 -1       261    3    0    1
 -2      1935       369      2040      2312
 -1       262    3    0    1
 -2       114       118       575      1184
 -1       263    3    0    1
 -2      1998      1381      2046      2193
 -1       264    3    0    1
 -2       611       615       905       968
 -1       265    3    0    1
 -2      1383       851      1081      2178
 -1       266    3    0    1
 -2      1947      2078      2153      2108
 -1       267    3    0    1
 -2       588      1190       917        23
 -1       268    3    0    1
 -2       100      2581      3733      3735
 -1       269    3    0    1
 -2       624       931      1235      1301
 -1       270    3    0    1
 -2       784       791      1048      1191
 -1       271    3    0    1
 -2       588       132       957      1293
 -1       272    3    0    1
 -2      2244       151      2385      2577
 -1       273    3    0    1
 -2       534       533       714      1261
 -1       274    3    0    1
 -2       324      1327      1991      2334
 -1       275    3    0    1
 -2       624      1247        64       627
 -1       276    3    0    1
 -2       576      1290      2370      2371
 -1       277    3    0    1
 -2       588       488       599       600
 -1       278    3    0    1
 -2      2097       604      2161      2349
 -1       279    3    0    1
 -2      1945       350      2218      2351
 -1       280    3    0    1
 -2       589       957      1293      2547
 -1       281    3    0    1
 -2      2036      1026      2298      2300
 -1       282    3    0    1
 -2       754       751       762      1038
 -1       283    3    0    1
 -2      3505      3599      3686      3704
 -1       284    3    0    1
 -2       375       233      1037      2145
 -1       285    3    0    1
 -2       417      1966      2028      2113
 -1       286    3    0    1
 -2       713       211       719      1019
 -1       287    3    0    1
 -2       546      1017      1013       939
 -1       288    3    0    1
 -2      2442       279      2767      3529
 -1       289    3    0    1
 -2      2469      2185      3506      3534
 -1       290    3    0    1
 -2       682       690      1001      1004
 -1       291    3    0    1
 -2       962       467       966      1157
 -1       292    3    0    1
 -2      1383       309      2080      2178
 -1       293    3    0    1
 -2      3510      3624      3648      3657
 -1       294    3    0    1
 -2       373       440      1094      2386
 -1       295    3    0    1
 -2       210       416      1019      2194
 -1       296    3    0    1
 -2      1385      1940      2099      2154
 -1       297    3    0    1
 -2       547        98       943      1283
 -1       298    3    0    1
 -2       487       953       569       582
 -1       299    3    0    1
 -2      2011      1973      2025      2076
 -1       300    3    0    1
 -2      1553      2923      3574      3379
 -1       301    3    0    1
 -2      1082      1397      1982      2052
 -1       302    3    0    1
 -2        32      1189       593       130
 -1       303    3    0    1
 -2      1377       436      2169      2204
 -1       304    3    0    1
 -2      1234      2814      2883      2935
 -1       305    3    0    1
 -2       642       454       653       654
 -1       306    3    0    1
 -2       606       392       965      1297
 -1       307    3    0    1
 -2      2089      1125      2129      2287
 -1       308    3    0    1
 -2       604       963      2161      2245
 -1       309    3    0    1
 -2      1597      1598      2954      3323
 -1       310    3    0    1
 -2        65      1237       155       621
 -1       311    3    0    1
 -2       767       774      2117      2209
 -1       312    3    0    1
 -2      1661      2676      1496      2913
 -1       313    3    0    1
 -2       623       634       977      1231
 -1       314    3    0    1
 -2      2158      1942      2180      2302
 -1       315    3    0    1
 -2       455      1143       898       659
 -1       316    3    0    1
 -2       334       254       787      1332
 -1       317    3    0    1
 -2      1944      2074      2094      2363
 -1       318    3    0    1
 -2      2453      1288      2584      3443
 -1       319    3    0    1
 -2      1391       313      1105      2010
 -1       320    3    0    1
 -2      2274       717      3515      3201
 -1       321    3    0    1
 -2       967      3536      1804      1805
 -1       322    3    0    1
 -2       678       184       682       999
 -1       323    3    0    1
 -2        36       593       597      1189
 -1       324    3    0    1
 -2       620      1237        65       621
 -1       325    3    0    1
 -2      3509      2520      2816      3605
 -1       326    3    0    1
 -2        90        89       719      1264
 -1       327    3    0    1
 -2      3583      3531      3585      3635
 -1       328    3    0    1
 -2       682       685      1001      1135
 -1       329    3    0    1
 -2      1488      1487      1547      3000
 -1       330    3    0    1
 -2       489       961       588       917
 -1       331    3    0    1
 -2      1247       624        64      1230
 -1       332    3    0    1
 -2         9       659       665       898
 -1       333    3    0    1
 -2       117        35       570      1187
 -1       334    3    0    1
 -2       821       500       824       832
 -1       335    3    0    1
 -2      1717      1716      3124      3337
 -1       336    3    0    1
 -2       456       659       672       995
 -1       337    3    0    1
 -2      1993      1947      2030      2149
 -1       338    3    0    1
 -2       692      1008      1269      1314
 -1       339    3    0    1
 -2      2793      2812      3022      3560
 -1       340    3    0    1
 -2       641       454       903      1140
 -1       341    3    0    1
 -2       627       624       635       975
 -1       342    3    0    1
 -2      1958      1399      2287      2340
 -1       343    3    0    1
 -2       754       453       761       762
 -1       344    3    0    1
 -2      2052      2019      2067      2092
 -1       345    3    0    1
 -2       587      1189       488       593
 -1       346    3    0    1
 -2       787        37       790       928
 -1       347    3    0    1
 -2       813       809      1062      1217
 -1       348    3    0    1
 -2       327       987      2291      2564
 -1       349    3    0    1
 -2      1117       871      1110      2193
 -1       350    3    0    1
 -2       823       806      2093      2767
 -1       351    3    0    1
 -2       127       585       129      1179
 -1       352    3    0    1
 -2       751       461       754       762
 -1       353    3    0    1
 -2      2050      1977      2120      2224
 -1       354    3    0    1
 -2      1978      2102      2297      2360
 -1       355    3    0    1
 -2       539      1273       540       989
 -1       356    3    0    1
 -2      1382       297      1083      2173
 -1       357    3    0    1
 -2       542       695       708      1011
 -1       358    3    0    1
 -2       309       310      1075      2111
 -1       359    3    0    1
 -2      2000      1952      2112      2256
 -1       360    3    0    1
 -2       860      1126      1094      2060
 -1       361    3    0    1
 -2      3501      3563      3663      3698
 -1       362    3    0    1
 -2       659         9       665      1272
 -1       363    3    0    1
 -2       515      1327      1031       756
 -1       364    3    0    1
 -2      3711       411      1918      1919
 -1       365    3    0    1
 -2       400       711      1013      1017
 -1       366    3    0    1
 -2       363      2101      2225      2359
 -1       367    3    0    1
 -2      2044      1953      2101      2345
 -1       368    3    0    1
 -2       606       144       609       965
 -1       369    3    0    1
 -2       385      1949      2277      2338
 -1       370    3    0    1
 -2       113       115       566       914
 -1       371    3    0    1
 -2       211       398       713      1014
 -1       372    3    0    1
 -2       301      1373      1940      2099
 -1       373    3    0    1
 -2       159        64       627       931
 -1       374    3    0    1
 -2      2391      1072      2449      3695
 -1       375    3    0    1
 -2       806       823      1067      2767
 -1       376    3    0    1
 -2       784        31       791      1191
 -1       377    3    0    1
 -2      1937      1972      2035      2128
 -1       378    3    0    1
 -2       511       766       779       780
 -1       379    3    0    1
 -2      1066      1285      3531      3585
 -1       380    3    0    1
 -2       454       464       641       903
 -1       381    3    0    1
 -2      1038      1043      3582      1881
 -1       382    3    0    1
 -2      1398      1086      1955      2092
 -1       383    3    0    1
 -2      2491      2718      2920      3687
 -1       384    3    0    1
 -2       243       244       769      1046
 -1       385    3    0    1
 -2       226       751       754      1222
 -1       386    3    0    1
 -2       876      1386      2003      2261
 -1       387    3    0    1
 -2       867      1391      1105      1984
 -1       388    3    0    1
 -2      2017      1942      2180      2252
 -1       389    3    0    1
 -2       350       983      1945      2248
 -1       390    3    0    1
 -2      1706      1553      3574      3379
 -1       391    3    0    1
 -2       183       187      2125      2160
 -1       392    3    0    1
 -2      1392       871       880      2046
 -1       393    3    0    1
 -2       258       784       791      1048
 -1       394    3    0    1
 -2      1448      2702      1675      2855
 -1       395    3    0    1
 -2      1030      1035      2553      3734
 -1       396    3    0    1
 -2       399      2187      2229      2367
 -1       397    3    0    1
 -2      1962      1401      1985      2058
 -1       398    3    0    1
 -2       550       563       564       946
 -1       399    3    0    1
 -2       295       294      1102      2038
 -1       400    3    0    1
 -2       506       802      1063      1216
 -1       401    3    0    1
 -2      3572      1432      3257      3680
 -1       402    3    0    1
 -2       438       420      1112      2073
 -1       403    3    0    1
 -2       624       627       931       973
 -1       404    3    0    1
 -2       164       641       903      1140
 -1       405    3    0    1
 -2      3641      2470      3670      3688
 -1       406    3    0    1
 -2       593       488       599       959
 -1       407    3    0    1
 -2      2600      1172      2830      2976
 -1       408    3    0    1
 -2        43       769       772      1200
 -1       409    3    0    1
 -2       338       356      1948      2309
 -1       410    3    0    1
 -2      1940      2003      2261      2277
 -1       411    3    0    1
 -2       694      1317      1005      2168
 -1       412    3    0    1
 -2       803       810      2267      2296
 -1       413    3    0    1
 -2      1993       405      2008      2289
 -1       414    3    0    1
 -2       719       534       725      1019
 -1       415    3    0    1
 -2       219      1025      1321      2264
 -1       416    3    0    1
 -2       104        99       557      1286
 -1       417    3    0    1
 -2      2004      1963      2095      2215
 -1       418    3    0    1
 -2       743       726      1027      2220
 -1       419    3    0    1
 -2       465       470       609       617
 -1       420    3    0    1
 -2        30      1174       557       105
 -1       421    3    0    1
 -2       126       354       593       959
 -1       422    3    0    1
 -2      1555      3134      3135      3174
 -1       423    3    0    1
 -2       399       321      2047      2229
 -1       424    3    0    1
 -2       220      2148      2307      3439
 -1       425    3    0    1
 -2        18       606       609      1161
 -1       426    3    0    1
 -2       587        32       593      1180
 -1       427    3    0    1
 -2       671       660       672       996
 -1       428    3    0    1
 -2       921      1339      1067       498
 -1       429    3    0    1
 -2       702      1317      2081      2337
 -1       430    3    0    1
 -2       340      1114      2157      2164
 -1       431    3    0    1
 -2      3551      3608      3656      3717
 -1       432    3    0    1
 -2       575       118      1183      1184
 -1       433    3    0    1
 -2       769        43       772      1221
 -1       434    3    0    1
 -2      2096      1994      2252      2253
 -1       435    3    0    1
 -2      2100      2087      2297      2467
 -1       436    3    0    1
 -2      1646      3175      3236      3330
 -1       437    3    0    1
 -2       156       971      1303      2422
 -1       438    3    0    1
 -2       100       551       944       947
 -1       439    3    0    1
 -2      1995      1972      2083      2159
 -1       440    3    0    1
 -2      2116      1326      2402      3495
 -1       441    3    0    1
 -2       569       486       575      1186
 -1       442    3    0    1
 -2       557       478       945      1174
 -1       443    3    0    1
 -2       593       488       959      1189
 -1       444    3    0    1
 -2       912      1283       943       479
 -1       445    3    0    1
 -2       286      1368      1950      2126
 -1       446    3    0    1
 -2       446      1079      2079      2198
 -1       447    3    0    1
 -2       555       552      1285      2599
 -1       448    3    0    1
 -2        66        74       629      1233
 -1       449    3    0    1
 -2      1162      1160      2888      3034
 -1       450    3    0    1
 -2      2347      2478      3586      3700
 -1       451    3    0    1
 -2      2186       940      2365      2414
 -1       452    3    0    1
 -2       351      2115      2221      2231
 -1       453    3    0    1
 -2      1416      1700      3590      3702
 -1       454    3    0    1
 -2       550      1174       557        30
 -1       455    3    0    1
 -2      2104       363      1338      2359
 -1       456    3    0    1
 -2       588      1190       488       917
 -1       457    3    0    1
 -2       185      2315      3711      3737
 -1       458    3    0    1
 -2      1981       284      2023      2378
 -1       459    3    0    1
 -2      1302       625       972      2640
 -1       460    3    0    1
 -2       785      2020      2049      2141
 -1       461    3    0    1
 -2       865       892      1129      2021
 -1       462    3    0    1
 -2       550       562       946      1173
 -1       463    3    0    1
 -2      3368      3270      3680      3449
 -1       464    3    0    1
 -2      3506      2469      3534      3562
 -1       465    3    0    1
 -2        29       547       912      1176
 -1       466    3    0    1
 -2      1621      1620      2810      3245
 -1       467    3    0    1
 -2       312       314      1973      2159
 -1       468    3    0    1
 -2      1018      3693      1914      1915
 -1       469    3    0    1
 -2       696       542      1012      1276
 -1       470    3    0    1
 -2      2799      3057      3574      3200
 -1       471    3    0    1
 -2        52       802       926      1220
 -1       472    3    0    1
 -2       539      1309      1272       989
 -1       473    3    0    1
 -2      1957      1986      2266      2340
 -1       474    3    0    1
 -2      3497       254      3696      1900
 -1       475    3    0    1
 -2       551       556       909       942
 -1       476    3    0    1
 -2       607      1298      3620       964
 -1       477    3    0    1
 -2      2001       348      2260      2358
 -1       478    3    0    1
 -2      2105       217      2196      2399
 -1       479    3    0    1
 -2        17       603       602      1159
 -1       480    3    0    1
 -2       480      1286      1177       479
 -1       481    3    0    1
 -2       805       506       816      1064
 -1       482    3    0    1
 -2        74       633       161      1238
 -1       483    3    0    1
 -2       551      1175       556       477
 -1       484    3    0    1
 -2       455       456       659       672
 -1       485    3    0    1
 -2        37       787       790      1196
 -1       486    3    0    1
 -2      1977       438      2120      2224
 -1       487    3    0    1
 -2      3182      3105      3598      3387
 -1       488    3    0    1
 -2       802      1217        52      1216
 -1       489    3    0    1
 -2       481      1055       798       787
 -1       490    3    0    1
 -2      1688      1722      1723      3212
 -1       491    3    0    1
 -2       650       642       987      1139
 -1       492    3    0    1
 -2      1946      1361      1979      2038
 -1       493    3    0    1
 -2       689       682       690      1001
 -1       494    3    0    1
 -2      2029      2031      2048      2200
 -1       495    3    0    1
 -2      1491      1631      2750      2859
 -1       496    3    0    1
 -2      2158      2180      2252      2253
 -1       497    3    0    1
 -2       588       132       591       957
 -1       498    3    0    1
 -2       369       372      1935      1958
 -1       499    3    0    1
 -2       602       962       966      1157
 -1       500    3    0    1
 -2       617       609       618       967
 -1       501    3    0    1
 -2       622       517       974      1300
 -1       502    3    0    1
 -2      2263      2513      3543      3582
 -1       503    3    0    1
 -2        64       624       931      1235
 -1       504    3    0    1
 -2      2033      2056      2070      2286
 -1       505    3    0    1
 -2      1356       841       842      2183
 -1       506    3    0    1
 -2      1427      1501      1502      2548
 -1       507    3    0    1
 -2      2615      1319      2709      3523
 -1       508    3    0    1
 -2       813        52       809      1217
 -1       509    3    0    1
 -2       955       587      1180      1181
 -1       510    3    0    1
 -2       517       520       622       971
 -1       511    3    0    1
 -2       477       550       563       564
 -1       512    3    0    1
 -2        23       588       591       906
 -1       513    3    0    1
 -2       465       470       611      1156
 -1       514    3    0    1
 -2       208      1021      2222      2472
 -1       515    3    0    1
 -2       149       150      1299      2245
 -1       516    3    0    1
 -2       287      1381      1392      2163
 -1       517    3    0    1
 -2       488       587       599       600
 -1       518    3    0    1
 -2       863      1100      2077      2238
 -1       519    3    0    1
 -2        94       695       701       936
 -1       520    3    0    1
 -2       640       979      2248      2398
 -1       521    3    0    1
 -2      1953      1080      2101      2345
 -1       522    3    0    1
 -2      1373      1385      2099      2154
 -1       523    3    0    1
 -2       591       588       599      1296
 -1       524    3    0    1
 -2       751       758       902      1038
 -1       525    3    0    1
 -2      1590       128      3539      1827
 -1       526    3    0    1
 -2       510       481       787       913
 -1       527    3    0    1
 -2       489       488       588       600
 -1       528    3    0    1
 -2      1471      1807      1808      3180
 -1       529    3    0    1
 -2       297      1353      1356      2183
 -1       530    3    0    1
 -2        78        79       736      1248
 -1       531    3    0    1
 -2      1407      1109      2119      2344
 -1       532    3    0    1
 -2       618       617       967      2293
 -1       533    3    0    1
 -2      2976      2830      3712      3726
 -1       534    3    0    1
 -2       144       606       609       970
 -1       535    3    0    1
 -2       383       941      1741      3740
 -1       536    3    0    1
 -2      1988      1969      2110      2177
 -1       537    3    0    1
 -2      1033      1325       752      2488
 -1       538    3    0    1
 -2       163       351      2115      2221
 -1       539    3    0    1
 -2       968      2244      2397      2577
 -1       540    3    0    1
 -2       292      1119       352      2176
 -1       541    3    0    1
 -2       470       465       611       617
 -1       542    3    0    1
 -2       487       953       915       569
 -1       543    3    0    1
 -2       499      1067       823       498
 -1       544    3    0    1
 -2       855      1388      1372      2181
 -1       545    3    0    1
 -2      2768      1499      3521      3227
 -1       546    3    0    1
 -2      2054      1938      2071      2114
 -1       547    3    0    1
 -2       228       227       754      1038
 -1       548    3    0    1
 -2       940       549      2365      2445
 -1       549    3    0    1
 -2        86        87       718      1265
 -1       550    3    0    1
 -2       206        97       710       939
 -1       551    3    0    1
 -2      1942      2017      2180      2302
 -1       552    3    0    1
 -2       511      1044       773       930
 -1       553    3    0    1
 -2       551       100       556       942
 -1       554    3    0    1
 -2       185       184       682      1004
 -1       555    3    0    1
 -2      1454      1453      3097      3426
 -1       556    3    0    1
 -2      1465      1572      2818      2833
 -1       557    3    0    1
 -2       678       452       690      1004
 -1       558    3    0    1
 -2      2037      1951      2043      2237
 -1       559    3    0    1
 -2      1968      2021      2072      2279
 -1       560    3    0    1
 -2       279       282       821      1072
 -1       561    3    0    1
 -2      1880      1764      3391      3451
 -1       562    3    0    1
 -2        11       696       700       899
 -1       563    3    0    1
 -2       570       486       916      1187
 -1       564    3    0    1
 -2      1069       279      3707      1921
 -1       565    3    0    1
 -2      1390       312      1379      2159
 -1       566    3    0    1
 -2      2663      2875      1257      3558
 -1       567    3    0    1
 -2       668       660       996      1142
 -1       568    3    0    1
 -2      1983      1955      2065      2092
 -1       569    3    0    1
 -2      1172      1170      2830      2976
 -1       570    3    0    1
 -2       339      1354      2114      2174
 -1       571    3    0    1
 -2       157       624       627       975
 -1       572    3    0    1
 -2       525       627       635       975
 -1       573    3    0    1
 -2      2469      3514      3562      3701
 -1       574    3    0    1
 -2      2101       363      2104      2359
 -1       575    3    0    1
 -2      2074      2051      2094      2218
 -1       576    3    0    1
 -2       820       500       825      1208
 -1       577    3    0    1
 -2       857      1373      2099      2154
 -1       578    3    0    1
 -2       447      1371      1122      2382
 -1       579    3    0    1
 -2       230       226       754      1222
 -1       580    3    0    1
 -2       859       876      2003      2261
 -1       581    3    0    1
 -2       787       481       797       798
 -1       582    3    0    1
 -2      1966       419      2050      2273
 -1       583    3    0    1
 -2       116       569       575       948
 -1       584    3    0    1
 -2       550      1174        30      1173
 -1       585    3    0    1
 -2      2050      1966      2120      2206
 -1       586    3    0    1
 -2       356      1948      2309      2373
 -1       587    3    0    1
 -2       961       600      2421      2435
 -1       588    3    0    1
 -2       646       972      1305      2250
 -1       589    3    0    1
 -2      3206      2689      3622      3685
 -1       590    3    0    1
 -2       477       550       557       563
 -1       591    3    0    1
 -2       461      1038       751       902
 -1       592    3    0    1
 -2      2251      2335      2069       374
 -1       593    3    0    1
 -2      2427      2474      3499      3512
 -1       594    3    0    1
 -2       477       478       556       563
 -1       595    3    0    1
 -2        56       766       773       930
 -1       596    3    0    1
 -2       267       805      1061      1064
 -1       597    3    0    1
 -2      2773       469      1162       468
 -1       598    3    0    1
 -2       417      2028      2082      2151
 -1       599    3    0    1
 -2       190       404      1002      2316
 -1       600    3    0    1
 -2      3547      3505      3567      3203
 -1       601    3    0    1
 -2       770       494       771      1041
 -1       602    3    0    1
 -2       821       824       921      1067
 -1       603    3    0    1
 -2      1938      2018      2210      2401
 -1       604    3    0    1
 -2      1056      2219      2240      2443
 -1       605    3    0    1
 -2      2016      2024      2064      2344
 -1       606    3    0    1
 -2       144       609       967       970
 -1       607    3    0    1
 -2      2107       406      1358       293
 -1       608    3    0    1
 -2      2121      2323      2427      2461
 -1       609    3    0    1
 -2      1000       538      1263      1271
 -1       610    3    0    1
 -2       170       991      2420      3542
 -1       611    3    0    1
 -2      1324      2029      2031      2048
 -1       612    3    0    1
 -2       624       516       978      1230
 -1       613    3    0    1
 -2      1133       872       896      2073
 -1       614    3    0    1
 -2      1774      2740      3130      3248
 -1       615    3    0    1
 -2      1463      2662      2910      3579
 -1       616    3    0    1
 -2       996       672      2041      2320
 -1       617    3    0    1
 -2      1997      1946      2153      2155
 -1       618    3    0    1
 -2       461       453       754       762
 -1       619    3    0    1
 -2      1105      1984      2010      2227
 -1       620    3    0    1
 -2      1075      2111      2112      2143
 -1       621    3    0    1
 -2      2008      1993      2078      2108
 -1       622    3    0    1
 -2       757       754      1035      1927
 -1       623    3    0    1
 -2       115       566       914      1185
 -1       624    3    0    1
 -2      2121      1978      2233      2297
 -1       625    3    0    1
 -2       641       652       986      1140
 -1       626    3    0    1
 -2       956      2658      3578      3675
 -1       627    3    0    1
 -2      2818      1572      2819      2833
 -1       628    3    0    1
 -2       959       599       960      2421
 -1       629    3    0    1
 -2       125       958      1292      1932
 -1       630    3    0    1
 -2       500       821       824      1207
 -1       631    3    0    1
 -2       251       783       782      1193
 -1       632    3    0    1
 -2       927       800      1056      1219
 -1       633    3    0    1
 -2        32       130       593      1180
 -1       634    3    0    1
 -2       304       431      1360      2230
 -1       635    3    0    1
 -2       552      1284      1931      2431
 -1       636    3    0    1
 -2      1382       873      2150      2173
 -1       637    3    0    1
 -2       771      2063      2127      2284
 -1       638    3    0    1
 -2      1352       839       840      2372
 -1       639    3    0    1
 -2       587       126       959       960
 -1       640    3    0    1
 -2      1740      3104      3323      1873
 -1       641    3    0    1
 -2      2121      2323      2919      2993
 -1       642    3    0    1
 -2      2200       242      2235      2262
 -1       643    3    0    1
 -2       612       604       966      2156
 -1       644    3    0    1
 -2       770      1040      1330      3527
 -1       645    3    0    1
 -2      2074      2094      2260      2358
 -1       646    3    0    1
 -2       640       980      2189      2248
 -1       647    3    0    1
 -2       178       175      1309      2135
 -1       648    3    0    1
 -2       526       511       769       780
 -1       649    3    0    1
 -2       787       510       913       928
 -1       650    3    0    1
 -2      2735      3538      2914      3654
 -1       651    3    0    1
 -2       480       943       558       479
 -1       652    3    0    1
 -2      1401       860      1095      2058
 -1       653    3    0    1
 -2      1939      2033      2070      2210
 -1       654    3    0    1
 -2      2923      2733      3574      3379
 -1       655    3    0    1
 -2       217      1022      2105      2196
 -1       656    3    0    1
 -2       306      1407      1109      2119
 -1       657    3    0    1
 -2       824       279      1069      1921
 -1       658    3    0    1
 -2       551       100       942      1284
 -1       659    3    0    1
 -2       805       506      1064      1215
 -1       660    3    0    1
 -2       654       641       985       986
 -1       661    3    0    1
 -2       535      1268      1005      1267
 -1       662    3    0    1
 -2       872      2007      2073      2109
 -1       663    3    0    1
 -2       125       353      1932      1938
 -1       664    3    0    1
 -2      1355       841      1354      2114
 -1       665    3    0    1
 -2      2084      2346      2366      2389
 -1       666    3    0    1
 -2       714       533       726      1021
 -1       667    3    0    1
 -2      1421      2746      3629      3423
 -1       668    3    0    1
 -2       211       713       719      1014
 -1       669    3    0    1
 -2       514       749       756      1031
 -1       670    3    0    1
 -2       678       452       682       690
 -1       671    3    0    1
 -2       871       880      2046      2193
 -1       672    3    0    1
 -2        43      1249       769       240
 -1       673    3    0    1
 -2       485       948      1183      1184
 -1       674    3    0    1
 -2       999      1153      1311      2637
 -1       675    3    0    1
 -2       343       974      2001      2314
 -1       676    3    0    1
 -2      1960      1959      2012      2123
 -1       677    3    0    1
 -2       531       730       743       744
 -1       678    3    0    1
 -2       453       754       761      1035
 -1       679    3    0    1
 -2       730        84       742      1260
 -1       680    3    0    1
 -2      1379      1973      2011      2159
 -1       681    3    0    1
 -2       313      1389      1108      2083
 -1       682    3    0    1
 -2       600      2397      2435      2506
 -1       683    3    0    1
 -2       127       584      1179      1182
 -1       684    3    0    1
 -2       714       725      1018      1021
 -1       685    3    0    1
 -2      3373      1857      3688      3400
 -1       686    3    0    1
 -2      2460      2646      3597      3677
 -1       687    3    0    1
 -2      1483      3120      1924      1925
 -1       688    3    0    1
 -2      1338       274      2104      2237
 -1       689    3    0    1
 -2       227       228       754      1033
 -1       690    3    0    1
 -2       310       309      1081      2178
 -1       691    3    0    1
 -2       641       163       647       985
 -1       692    3    0    1
 -2       334       254      1332      2412
 -1       693    3    0    1
 -2       661       664       991      2562
 -1       694    3    0    1
 -2      1306       640       648      2248
 -1       695    3    0    1
 -2       242       374      1962      1964
 -1       696    3    0    1
 -2      2054      1938      2114      2174
 -1       697    3    0    1
 -2       772       769      1041      1200
 -1       698    3    0    1
 -2        54        52       802       926
 -1       699    3    0    1
 -2       325       747       377      1324
 -1       700    3    0    1
 -2      3577      2602      3372      3422
 -1       701    3    0    1
 -2       220       219       733      1321
 -1       702    3    0    1
 -2      1522      1661      1662      2913
 -1       703    3    0    1
 -2       366      1341      2118      2376
 -1       704    3    0    1
 -2      1742      1741      3147      3246
 -1       705    3    0    1
 -2       733       531       743       744
 -1       706    3    0    1
 -2       352      1119      2153      2176
 -1       707    3    0    1
 -2       455       660       663      1141
 -1       708    3    0    1
 -2      1084      2150      2173      2434
 -1       709    3    0    1
 -2       226       751      1222      1224
 -1       710    3    0    1
 -2       259       258      1053      2270
 -1       711    3    0    1
 -2       660       170       663       991
 -1       712    3    0    1
 -2      1989       359      2000      2184
 -1       713    3    0    1
 -2      1550      1517      1551      2690
 -1       714    3    0    1
 -2       866      1130      1377      2204
 -1       715    3    0    1
 -2         4       188       683      1270
 -1       716    3    0    1
 -2        86       714      1261      1265
 -1       717    3    0    1
 -2      2145      1036      2329      2334
 -1       718    3    0    1
 -2      2315       999      2333      2565
 -1       719    3    0    1
 -2       369       372       782      1051
 -1       720    3    0    1
 -2        71       641       647       903
 -1       721    3    0    1
 -2       938       728      1022      1278
 -1       722    3    0    1
 -2      1625      2838      2972      3027
 -1       723    3    0    1
 -2       400       401       710      1017
 -1       724    3    0    1
 -2       542       541       696       708
 -1       725    3    0    1
 -2       242      1042      1964      2209
 -1       726    3    0    1
 -2      1702       908      2854      3276
 -1       727    3    0    1
 -2       483      1292       482       586
 -1       728    3    0    1
 -2       331      2306      2321      2405
 -1       729    3    0    1
 -2       620      1237       974      1232
 -1       730    3    0    1
 -2       923      1338      1068       502
 -1       731    3    0    1
 -2      2494      2281      3508      2684
 -1       732    3    0    1
 -2       541       542       695       708
 -1       733    3    0    1
 -2      2225      2061      2324      2382
 -1       734    3    0    1
 -2      1332       789       788      2451
 -1       735    3    0    1
 -2      1121      1369      2079      2198
 -1       736    3    0    1
 -2      3498      1421      3589      3629
 -1       737    3    0    1
 -2       421       387      1747      3267
 -1       738    3    0    1
 -2       184      2131      2315      2333
 -1       739    3    0    1
 -2      2708      2475      3521      3155
 -1       740    3    0    1
 -2       454       641       986      1140
 -1       741    3    0    1
 -2       173       668       174      1142
 -1       742    3    0    1
 -2       455       659       671       672
 -1       743    3    0    1
 -2       142       385       962      1949
 -1       744    3    0    1
 -2      1933      2024      2064      2343
 -1       745    3    0    1
 -2       132      2428      3503      3736
 -1       746    3    0    1
 -2      1116       293       406      2227
 -1       747    3    0    1
 -2       400       710       711      1017
 -1       748    3    0    1
 -2      2281      3508      2684      3528
 -1       749    3    0    1
 -2       132       595       384      1909
 -1       750    3    0    1
 -2      2197       576      2370      2371
 -1       751    3    0    1
 -2       935       656       988      1274
 -1       752    3    0    1
 -2      3083      3559      3179      3697
 -1       753    3    0    1
 -2       404       190      1974      2140
 -1       754    3    0    1
 -2      3252      1811      3319      3360
 -1       755    3    0    1
 -2      1068       826      2272      2443
 -1       756    3    0    1
 -2       647       351       980      1306
 -1       757    3    0    1
 -2      2034      2124      2342      2408
 -1       758    3    0    1
 -2       162       350       638       983
 -1       759    3    0    1
 -2      1940       301      2099      2261
 -1       760    3    0    1
 -2      1125       888      2089      2129
 -1       761    3    0    1
 -2       339       311      1354      2174
 -1       762    3    0    1
 -2        82      1142       660       173
 -1       763    3    0    1
 -2       170       660       993       996
 -1       764    3    0    1
 -2       663       660       991      1256
 -1       765    3    0    1
 -2       663       667       993      1141
 -1       766    3    0    1
 -2       351       163       647       980
 -1       767    3    0    1
 -2      1116      1971      1984      2227
 -1       768    3    0    1
 -2       439       300      1125      2287
 -1       769    3    0    1
 -2       620      1237      1232        65
 -1       770    3    0    1
 -2       638       639       983      1243
 -1       771    3    0    1
 -2       100       336       556       942
 -1       772    3    0    1
 -2       966       385      2057      2156
 -1       773    3    0    1
 -2      1961      1976      2025      2166
 -1       774    3    0    1
 -2       960       600      2397      2435
 -1       775    3    0    1
 -2       402       175       659       995
 -1       776    3    0    1
 -2      2380       135      2259      2441
 -1       777    3    0    1
 -2      1409      1721      3551      3596
 -1       778    3    0    1
 -2      2909      3561      3089      3621
 -1       779    3    0    1
 -2       539       992       988       935
 -1       780    3    0    1
 -2       752       771      1325      2063
 -1       781    3    0    1
 -2      1481      1482      2936      1779
 -1       782    3    0    1
 -2       216       222       737      1028
 -1       783    3    0    1
 -2      2226      1017      2326      2375
 -1       784    3    0    1
 -2      3564      1796      1886      3714
 -1       785    3    0    1
 -2      2497      2649      3592      3706
 -1       786    3    0    1
 -2       217      2142      2196      2279
 -1       787    3    0    1
 -2       623      1238       629        66
 -1       788    3    0    1
 -2      2653      2885      2991      3288
 -1       789    3    0    1
 -2      3657      3624      3720      3457
 -1       790    3    0    1
 -2       959      2269      2421      2441
 -1       791    3    0    1
 -2      2086       961      2421      2435
 -1       792    3    0    1
 -2       986      2115      2205      2221
 -1       793    3    0    1
 -2       962       142      1949      2161
 -1       794    3    0    1
 -2        64       624       627       931
 -1       795    3    0    1
 -2       248       331       773      1044
 -1       796    3    0    1
 -2      1995      1973      2011      2076
 -1       797    3    0    1
 -2       452       451       683      1137
 -1       798    3    0    1
 -2       399       398      2187      2367
 -1       799    3    0    1
 -2      1290       948      2197      2370
 -1       800    3    0    1
 -2        87        86       718      1147
 -1       801    3    0    1
 -2      1015      1501      3523      3488
 -1       802    3    0    1
 -2      3624      3657      3453      3457
 -1       803    3    0    1
 -2       702      2113      2294      2310
 -1       804    3    0    1
 -2       318       209      3693      3699
 -1       805    3    0    1
 -2      1399      1089      2287      2340
 -1       806    3    0    1
 -2      1333       789      2678      2789
 -1       807    3    0    1
 -2      1412      1521      2801      3059
 -1       808    3    0    1
 -2       488      1296       591       599
 -1       809    3    0    1
 -2      1595      1442      3681      3414
 -1       810    3    0    1
 -2        94      1268      1267       695
 -1       811    3    0    1
 -2       708       725      2194      2222
 -1       812    3    0    1
 -2       660       170       991      1307
 -1       813    3    0    1
 -2       243       769      1043      1046
 -1       814    3    0    1
 -2      3598      2490      3603      3625
 -1       815    3    0    1
 -2      1603      2897      3074      1842
 -1       816    3    0    1
 -2      1962      1964      2232      2262
 -1       817    3    0    1
 -2      2244       960      2397      2435
 -1       818    3    0    1
 -2       164        71       641      1245
 -1       819    3    0    1
 -2      1489      1610      1611      3075
 -1       820    3    0    1
 -2      1494      1493      1534      3041
 -1       821    3    0    1
 -2      1043      2384      3582      1881
 -1       822    3    0    1
 -2      2013      1995      2083      2159
 -1       823    3    0    1
 -2       544      1323      1279       543
 -1       824    3    0    1
 -2       331       248      1331      2321
 -1       825    3    0    1
 -2       481       510       784       929
 -1       826    3    0    1
 -2      1284       909       551      1171
 -1       827    3    0    1
 -2       470       968       617       611
 -1       828    3    0    1
 -2       633       629       976      1238
 -1       829    3    0    1
 -2       904      1299       963       466
 -1       830    3    0    1
 -2      1095       291      1401      1985
 -1       831    3    0    1
 -2       465       605       611       618
 -1       832    3    0    1
 -2       170       991      1307      2420
 -1       833    3    0    1
 -2       554      2902      3633      3380
 -1       834    3    0    1
 -2       986       654       994      2205
 -1       835    3    0    1
 -2      1984      2002      2128      2227
 -1       836    3    0    1
 -2       871      1392      1381      2046
 -1       837    3    0    1
 -2      1485      3313      3325      3649
 -1       838    3    0    1
 -2       660       455       671       672
 -1       839    3    0    1
 -2      1061      2610      3708      1906
 -1       840    3    0    1
 -2      1326       753      2488      2813
 -1       841    3    0    1
 -2       599       587       959       960
 -1       842    3    0    1
 -2       623        66       629      1233
 -1       843    3    0    1
 -2       533       713      1020      1262
 -1       844    3    0    1
 -2       175       994       995      2041
 -1       845    3    0    1
 -2       476       942       555      2599
 -1       846    3    0    1
 -2       716       709      3412      3475
 -1       847    3    0    1
 -2       354       135       959      2425
 -1       848    3    0    1
 -2       385      1949      2057      2156
 -1       849    3    0    1
 -2       800       801       927      1060
 -1       850    3    0    1
 -2      1238       623       516      1231
 -1       851    3    0    1
 -2       477       550       946      1173
 -1       852    3    0    1
 -2         9      1273      1272       659
 -1       853    3    0    1
 -2       489       488       587      1188
 -1       854    3    0    1
 -2       377      2029      2095      2182
 -1       855    3    0    1
 -2       899       457      2568      2790
 -1       856    3    0    1
 -2      2004      1963      2122      2235
 -1       857    3    0    1
 -2      2143      1989      2184      2208
 -1       858    3    0    1
 -2       942       476       909      2599
 -1       859    3    0    1
 -2      1172      1170      2599      2600
 -1       860    3    0    1
 -2      1485      2975      3327      3712
 -1       861    3    0    1
 -2      3527      1442      3544      3681
 -1       862    3    0    1
 -2       921      1339       821      1067
 -1       863    3    0    1
 -2      2899      2752      3622      3298
 -1       864    3    0    1
 -2       477       947       564       551
 -1       865    3    0    1
 -2      2112      1952      2178      2256
 -1       866    3    0    1
 -2        96       728       938      1278
 -1       867    3    0    1
 -2       574       119      1291      1929
 -1       868    3    0    1
 -2       488      1296      1190       591
 -1       869    3    0    1
 -2       367       261      2020      2049
 -1       870    3    0    1
 -2       747       746      1228      1324
 -1       871    3    0    1
 -2       327       396      1304      2282
 -1       872    3    0    1
 -2       733       743      1027      1030
 -1       873    3    0    1
 -2       857      1385      1373      2154
 -1       874    3    0    1
 -2      2587      3577      3606      3235
 -1       875    3    0    1
 -2        90       719      1280      1282
 -1       876    3    0    1
 -2       208      1021      3507      1903
 -1       877    3    0    1
 -2       131        23       591       906
 -1       878    3    0    1
 -2        99       104       557       945
 -1       879    3    0    1
 -2      2106       397      2142      2298
 -1       880    3    0    1
 -2       496      1328      1042       767
 -1       881    3    0    1
 -2       643      1305       646      2643
 -1       882    3    0    1
 -2       259       796       261      1054
 -1       883    3    0    1
 -2      1715       430      3668      3477
 -1       884    3    0    1
 -2      1450      1451      3223      3242
 -1       885    3    0    1
 -2       609       606       965      1161
 -1       886    3    0    1
 -2       219       733      1027      1030
 -1       887    3    0    1
 -2      1605      1604      3045      1875
 -1       888    3    0    1
 -2      1942      2053      2138      2165
 -1       889    3    0    1
 -2       746      1034      1228      1324
 -1       890    3    0    1
 -2       538       537      1000      1263
 -1       891    3    0    1
 -2      2451      1050      2781      3696
 -1       892    3    0    1
 -2      1746      3166      3267      3289
 -1       893    3    0    1
 -2       452       677      1003      1137
 -1       894    3    0    1
 -2      1387       859       876      2003
 -1       895    3    0    1
 -2       989       658      2130      2140
 -1       896    3    0    1
 -2       723       719      1019      1264
 -1       897    3    0    1
 -2       997       676      2152      2337
 -1       898    3    0    1
 -2       599       588       600       961
 -1       899    3    0    1
 -2      1368      1120      1950      2126
 -1       900    3    0    1
 -2       588       591       906       957
 -1       901    3    0    1
 -2       382       109       952      2146
 -1       902    3    0    1
 -2       622      1303       630       517
 -1       903    3    0    1
 -2       569       575       948      1184
 -1       904    3    0    1
 -2       784       481       929      1178
 -1       905    3    0    1
 -2       841      1356      1353      2183
 -1       906    3    0    1
 -2       575       948      1183      1290
 -1       907    3    0    1
 -2       914       484      1185      1287
 -1       908    3    0    1
 -2       239       238       764       920
 -1       909    3    0    1
 -2       678       999      1153      1311
 -1       910    3    0    1
 -2      2165      2017      2277      2410
 -1       911    3    0    1
 -2        19        18       609      1161
 -1       912    3    0    1
 -2      1234       518      2640      2814
 -1       913    3    0    1
 -2       486       569       575       581
 -1       914    3    0    1
 -2       576      1290      2197      2370
 -1       915    3    0    1
 -2       617      2293      2397      2506
 -1       916    3    0    1
 -2      2122      2004      2262      2372
 -1       917    3    0    1
 -2       625       982      1301      2539
 -1       918    3    0    1
 -2       383       112      1741      2970
 -1       919    3    0    1
 -2       588       488       591       599
 -1       920    3    0    1
 -2      3500      2503      3546      3565
 -1       921    3    0    1
 -2       999       681      2333      2565
 -1       922    3    0    1
 -2        36       130       593      1189
 -1       923    3    0    1
 -2       586      1295       594       482
 -1       924    3    0    1
 -2       488       587       593       599
 -1       925    3    0    1
 -2      3558      2471      3682      3727
 -1       926    3    0    1
 -2       810      2020      2267      2285
 -1       927    3    0    1
 -2      1957      1986      2234      2330
 -1       928    3    0    1
 -2        23       588       906      1166
 -1       929    3    0    1
 -2       648      1306      2098      2348
 -1       930    3    0    1
 -2      1324      1034       749      2179
 -1       931    3    0    1
 -2        39       791      1191      1194
 -1       932    3    0    1
 -2      1657      1658      3356      1888
 -1       933    3    0    1
 -2        28       559       556      1175
 -1       934    3    0    1
 -2       369       782       783      1051
 -1       935    3    0    1
 -2      1333      1049      2331      3511
 -1       936    3    0    1
 -2      1003      2042      2144      2308
 -1       937    3    0    1
 -2      1836      3617      3271      3402
 -1       938    3    0    1
 -2      1072       832      2391      2449
 -1       939    3    0    1
 -2       551      1175        27       556
 -1       940    3    0    1
 -2      2394      1297      2450      2556
 -1       941    3    0    1
 -2      3117      2498      3315      3741
 -1       942    3    0    1
 -2        55       800       801       927
 -1       943    3    0    1
 -2       533       713       725       726
 -1       944    3    0    1
 -2       488       489       588       917
 -1       945    3    0    1
 -2       980       163      2189      2221
 -1       946    3    0    1
 -2       791       258      1048      1334
 -1       947    3    0    1
 -2      2098      2051      2218      2348
 -1       948    3    0    1
 -2       816       815      1064      2364
 -1       949    3    0    1
 -2       119       381      3735      1929
 -1       950    3    0    1
 -2      2097      2053      2314      2349
 -1       951    3    0    1
 -2      1326      2402      3594      2236
 -1       952    3    0    1
 -2       629       525       976      1238
 -1       953    3    0    1
 -2      1630      1629      2911      3318
 -1       954    3    0    1
 -2      2623      2600      2830      3517
 -1       955    3    0    1
 -2       629       525       635       976
 -1       956    3    0    1
 -2      1606      1789      3622      3298
 -1       957    3    0    1
 -2       499       498      2526      2694
 -1       958    3    0    1
 -2       297      1382       357      2173
 -1       959    3    0    1
 -2      2093      1058       807       806
 -1       960    3    0    1
 -2       248      1044      1045      2306
 -1       961    3    0    1
 -2       193       696      1009      1012
 -1       962    3    0    1
 -2      1970       400      1988      2343
 -1       963    3    0    1
 -2       753       513      2488      2622
 -1       964    3    0    1
 -2        11      1276       696       194
 -1       965    3    0    1
 -2       802      1217       506       809
 -1       966    3    0    1
 -2       726       743      1028      2220
 -1       967    3    0    1
 -2      1537      2928      2960      2998
 -1       968    3    0    1
 -2       157       624       975       978
 -1       969    3    0    1
 -2      1685       205      3532      3050
 -1       970    3    0    1
 -2      1021      1027      2220      3507
 -1       971    3    0    1
 -2      2650      1519      1648      3554
 -1       972    3    0    1
 -2      1019      2187      2194      2222
 -1       973    3    0    1
 -2      2118       826      2327      2443
 -1       974    3    0    1
 -2       676       997      2152      2160
 -1       975    3    0    1
 -2       635       624       636       978
 -1       976    3    0    1
 -2      1032      1330      2127      3544
 -1       977    3    0    1
 -2      2099      1940      2261      2277
 -1       978    3    0    1
 -2       319      1501      2724      3523
 -1       979    3    0    1
 -2      2145      1037      2405      2406
 -1       980    3    0    1
 -2       834       833      1075      2111
 -1       981    3    0    1
 -2       852      1082      1982      2067
 -1       982    3    0    1
 -2      3708      1055      1906      1907
 -1       983    3    0    1
 -2       532      1028       743       737
 -1       984    3    0    1
 -2      2508      2451      2781      3696
 -1       985    3    0    1
 -2      1453      1664      1665      3097
 -1       986    3    0    1
 -2      1631      1491      1632      2777
 -1       987    3    0    1
 -2      1019       210      2194      2383
 -1       988    3    0    1
 -2       185       184      2131      2315
 -1       989    3    0    1
 -2       791       795       929      1053
 -1       990    3    0    1
 -2      2017      2003      2180      2302
 -1       991    3    0    1
 -2       912      1283       547       943
 -1       992    3    0    1
 -2      2332      1066      2760      3522
 -1       993    3    0    1
 -2       989       404      1974      2140
 -1       994    3    0    1
 -2       586       482       958      1292
 -1       995    3    0    1
 -2      2043      2126      2212      2216
 -1       996    3    0    1
 -2       951       484       914      1287
 -1       997    3    0    1
 -2      1458      1457      1651      2763
 -1       998    3    0    1
 -2      3581      2614      2502      2821
 -1       999    3    0    1
 -2        98       943      2276      2413
 -1      1000    3    0    1
 -2       870       895      1132      2045
 -1      1001    3    0    1
 -2      2115       984      2291      2544
 -1      1002    3    0    1
 -2      3577      2491      3606      3687
 -1      1003    3    0    1
 -2       489       961       600       588
 -1      1004    3    0    1
 -2       117       570       916      1187
 -1      1005    3    0    1
 -2       487       954       582       570
 -1      1006    3    0    1
 -2      2003      2017      2180      2261
 -1      1007    3    0    1
 -2      1572      2820      3159      3229
 -1      1008    3    0    1
 -2       489       587       960      1188
 -1      1009    3    0    1
 -2      1952      1999      2080      2256
 -1      1010    3    0    1
 -2       774      1042      2200      2209
 -1      1011    3    0    1
 -2       581       570       582       954
 -1      1012    3    0    1
 -2       587      1189        32      1188
 -1      1013    3    0    1
 -2      1620      1621      1779      3245
 -1      1014    3    0    1
 -2       561       557       945      1174
 -1      1015    3    0    1
 -2       714       208       718      1318
 -1      1016    3    0    1
 -2       478       477       557       563
 -1      1017    3    0    1
 -2        31        39       791      1191
 -1      1018    3    0    1
 -2       465       605       969      1156
 -1      1019    3    0    1
 -2      1386       341      1940      2261
 -1      1020    3    0    1
 -2       751       227       754      1033
 -1      1021    3    0    1
 -2       717      1016      1992      2275
 -1      1022    3    0    1
 -2       298       432      1364      2438
 -1      1023    3    0    1
 -2      3550      3034      3676      3409
 -1      1024    3    0    1
 -2       694       535       702      1008
 -1      1025    3    0    1
 -2       979       523       983      1243
 -1      1026    3    0    1
 -2      2829      2908      3558      3672
 -1      1027    3    0    1
 -2       516       623       635       636
 -1      1028    3    0    1
 -2      3391      1815      3394      1894
 -1      1029    3    0    1
 -2       641       163       985       986
 -1      1030    3    0    1
 -2      2617      2786      3145      3252
 -1      1031    3    0    1
 -2       605       465       611      1156
 -1      1032    3    0    1
 -2      2009      1960      2069      2123
 -1      1033    3    0    1
 -2       511      1250       930       766
 -1      1034    3    0    1
 -2       570       486       581       582
 -1      1035    3    0    1
 -2        19       609      1155      1164
 -1      1036    3    0    1
 -2      3505      1417      3524      3658
 -1      1037    3    0    1
 -2       539      1274       988       540
 -1      1038    3    0    1
 -2      2186       558      2265      2276
 -1      1039    3    0    1
 -2       595       131       136      1190
 -1      1040    3    0    1
 -2       230         7       754      1138
 -1      1041    3    0    1
 -2      1631      3211      3303      3411
 -1      1042    3    0    1
 -2      1314       419      2113      2310
 -1      1043    3    0    1
 -2       556       551       563       944
 -1      1044    3    0    1
 -2      3563      3546      3565      3630
 -1      1045    3    0    1
 -2       711       939      1013      1017
 -1      1046    3    0    1
 -2      3498      3589      3619      3627
 -1      1047    3    0    1
 -2       606       465       609       618
 -1      1048    3    0    1
 -2       570        35       574      1187
 -1      1049    3    0    1
 -2       220      2307      2264      3439
 -1      1050    3    0    1
 -2      1399       300       439      2287
 -1      1051    3    0    1
 -2      1415      3559      3104      3211
 -1      1052    3    0    1
 -2       466      1299       963       612
 -1      1053    3    0    1
 -2       619      1555      1556      2850
 -1      1054    3    0    1
 -2      1963      2055      2095      2207
 -1      1055    3    0    1
 -2      2048       774      2200      2209
 -1      1056    3    0    1
 -2       175       402       659       989
 -1      1057    3    0    1
 -2      1189       587       488      1188
 -1      1058    3    0    1
 -2      1749      1784      3464      3723
 -1      1059    3    0    1
 -2        18       606      1161      1163
 -1      1060    3    0    1
 -2       408      1973      1995      2076
 -1      1061    3    0    1
 -2      2225      2219      2240      2324
 -1      1062    3    0    1
 -2      1620      1621      3126      3170
 -1      1063    3    0    1
 -2      3524      3532      3599      3704
 -1      1064    3    0    1
 -2      1727      2935      3060      3592
 -1      1065    3    0    1
 -2       730       742      1029      1260
 -1      1066    3    0    1
 -2       116       580       124       953
 -1      1067    3    0    1
 -2       566       567       914       951
 -1      1068    3    0    1
 -2       853      1113       873      2150
 -1      1069    3    0    1
 -2       779       762      1038      2406
 -1      1070    3    0    1
 -2       948       575      1183      1184
 -1      1071    3    0    1
 -2       517      1237       974      1300
 -1      1072    3    0    1
 -2       982      1301      3519      3154
 -1      1073    3    0    1
 -2       319      1561      1715      3725
 -1      1074    3    0    1
 -2       552       573       950      2549
 -1      1075    3    0    1
 -2       566       338       567       951
 -1      1076    3    0    1
 -2       409       660       996      1918
 -1      1077    3    0    1
 -2       104       360       945      2361
 -1      1078    3    0    1
 -2       261       259      1054      2270
 -1      1079    3    0    1
 -2      1300      2001      2280      2358
 -1      1080    3    0    1
 -2       696       700       899      1007
 -1      1081    3    0    1
 -2       994       671       995      2041
 -1      1082    3    0    1
 -2       825       501      1070      1209
 -1      1083    3    0    1
 -2      1306       349      2098      2348
 -1      1084    3    0    1
 -2      1965       377      2095      2162
 -1      1085    3    0    1
 -2      1955      2065      2132      2317
 -1      1086    3    0    1
 -2       909      1284       551       942
 -1      1087    3    0    1
 -2      1595      1442      3527      3681
 -1      1088    3    0    1
 -2      1008      2081      2113      2151
 -1      1089    3    0    1
 -2      1042       242      2029      2200
 -1      1090    3    0    1
 -2       609       606       618       970
 -1      1091    3    0    1
 -2       575       122       948      1290
 -1      1092    3    0    1
 -2      2427      2993      3140      3638
 -1      1093    3    0    1
 -2       135      1295      2259      2441
 -1      1094    3    0    1
 -2       265       266      2325      2419
 -1      1095    3    0    1
 -2       966       385      2033      2057
 -1      1096    3    0    1
 -2       106       337      2656      3537
 -1      1097    3    0    1
 -2      2012      1960      2058      2060
 -1      1098    3    0    1
 -2      2226      2342      2383      2408
 -1      1099    3    0    1
 -2      1363       845       846      2230
 -1      1100    3    0    1
 -2      2353       415      3732      1922
 -1      1101    3    0    1
 -2      1069       279      1072      2085
 -1      1102    3    0    1
 -2       382      1290      2365      2370
 -1      1103    3    0    1
 -2       486       569       581       582
 -1      1104    3    0    1
 -2      2498      3597      3315      3741
 -1      1105    3    0    1
 -2      2190      3505      3686      3704
 -1      1106    3    0    1
 -2       219       220      2148      2307
 -1      1107    3    0    1
 -2       580       569       915       953
 -1      1108    3    0    1
 -2       401      1017      1933      2326
 -1      1109    3    0    1
 -2       569       116       952       953
 -1      1110    3    0    1
 -2       756       749      1034      2179
 -1      1111    3    0    1
 -2      1572      1573      2819      2833
 -1      1112    3    0    1
 -2       511       772      1043      1221
 -1      1113    3    0    1
 -2      2095      1963      2207      2215
 -1      1114    3    0    1
 -2      2025      2011      2076      2166
 -1      1115    3    0    1
 -2      3536       144      3552      1805
 -1      1116    3    0    1
 -2      2162       325      2179      2195
 -1      1117    3    0    1
 -2       756      1034      2027      2195
 -1      1118    3    0    1
 -2       841      1353      2114      2183
 -1      1119    3    0    1
 -2       787       797      1052      1055
 -1      1120    3    0    1
 -2       142       962      2053      2138
 -1      1121    3    0    1
 -2      1290       948       568      2197
 -1      1122    3    0    1
 -2      2104      1338      2272      2359
 -1      1123    3    0    1
 -2       551       477       556       563
 -1      1124    3    0    1
 -2      2086       133      2392      2453
 -1      1125    3    0    1
 -2      1338       923       818      1211
 -1      1126    3    0    1
 -2       957       589      1293      2453
 -1      1127    3    0    1
 -2       465       611       617       618
 -1      1128    3    0    1
 -2      2180      2003      2261      2302
 -1      1129    3    0    1
 -2       824       832      1069      1072
 -1      1130    3    0    1
 -2      1934      1941      2173      2183
 -1      1131    3    0    1
 -2       500       825       831       832
 -1      1132    3    0    1
 -2       336       100       556       944
 -1      1133    3    0    1
 -2      2733      2880      3573      3597
 -1      1134    3    0    1
 -2      2169       866      2204      2415
 -1      1135    3    0    1
 -2       470       968       611       905
 -1      1136    3    0    1
 -2       482      1295      1180       955
 -1      1137    3    0    1
 -2      3135      3134      3580      3174
 -1      1138    3    0    1
 -2       557       478       563       945
 -1      1139    3    0    1
 -2       467       963       604       466
 -1      1140    3    0    1
 -2       487       954       570       916
 -1      1141    3    0    1
 -2      2040      2014      2266      2340
 -1      1142    3    0    1
 -2       981      1305       643      2540
 -1      1143    3    0    1
 -2       104        99      1286      2414
 -1      1144    3    0    1
 -2      3518       987      1798      1799
 -1      1145    3    0    1
 -2      2130      1309      2135      2283
 -1      1146    3    0    1
 -2      1398      1955      2019      2092
 -1      1147    3    0    1
 -2      2188       708      2194      2222
 -1      1148    3    0    1
 -2      1318       717       715      2274
 -1      1149    3    0    1
 -2      1006      1316      3598      3599
 -1      1150    3    0    1
 -2       753       752      1033      2236
 -1      1151    3    0    1
 -2      1339       921       821      1205
 -1      1152    3    0    1
 -2       109      2146      2365      2414
 -1      1153    3    0    1
 -2      3541      3498      3619      3627
 -1      1154    3    0    1
 -2       228       754      1035      1038
 -1      1155    3    0    1
 -2      1633      2775      2841      3385
 -1      1156    3    0    1
 -2       609       465       617       618
 -1      1157    3    0    1
 -2       558      2023      2265      2413
 -1      1158    3    0    1
 -2      1305      2213      2250      2456
 -1      1159    3    0    1
 -2      2073      1133      2109      2119
 -1      1160    3    0    1
 -2      2700      3128      3654      3655
 -1      1161    3    0    1
 -2      2001      1994      2096      2260
 -1      1162    3    0    1
 -2       890       862      2055      2207
 -1      1163    3    0    1
 -2       388       119       570      1288
 -1      1164    3    0    1
 -2       510      1052       790       797
 -1      1165    3    0    1
 -2      1949       385      2057      2338
 -1      1166    3    0    1
 -2      2126      1950      2208      2216
 -1      1167    3    0    1
 -2       121       384      3503      3736
 -1      1168    3    0    1
 -2      1393       861      1097      2350
 -1      1169    3    0    1
 -2      1538      1537      2928      2960
 -1      1170    3    0    1
 -2       158       157       627       975
 -1      1171    3    0    1
 -2       568      2197      2380      2403
 -1      1172    3    0    1
 -2      1937      1972      2010      2013
 -1      1173    3    0    1
 -2       807       788      1336      2429
 -1      1174    3    0    1
 -2      1102       294      1394      2038
 -1      1175    3    0    1
 -2       357       297      2173      2183
 -1      1176    3    0    1
 -2       992       405      2030      2426
 -1      1177    3    0    1
 -2      1968      2072      2167      2279
 -1      1178    3    0    1
 -2      2126      2208      2212      2216
 -1      1179    3    0    1
 -2      1039       767      2251      2366
 -1      1180    3    0    1
 -2       175       994      2041      2135
 -1      1181    3    0    1
 -2      1444      1443      1720      3164
 -1      1182    3    0    1
 -2       766       773       779      1044
 -1      1183    3    0    1
 -2       671       993       996      2041
 -1      1184    3    0    1
 -2       818       273       817      1211
 -1      1185    3    0    1
 -2      1075       834      2111      2143
 -1      1186    3    0    1
 -2       163       986      2205      2221
 -1      1187    3    0    1
 -2      2043      1951      2216      2237
 -1      1188    3    0    1
 -2       951       576      1287      2197
 -1      1189    3    0    1
 -2      2832      3571      3237      3664
 -1      1190    3    0    1
 -2       840      2122      2201      2372
 -1      1191    3    0    1
 -2       109        99      2146      2414
 -1      1192    3    0    1
 -2       100       551       556       944
 -1      1193    3    0    1
 -2       800       927      1056      1060
 -1      1194    3    0    1
 -2      1327       756      1991      2179
 -1      1195    3    0    1
 -2       824       821       832      1072
 -1      1196    3    0    1
 -2       558       943      2265      2276
 -1      1197    3    0    1
 -2       482      1182       958      1292
 -1      1198    3    0    1
 -2      1966      2050      2239      2273
 -1      1199    3    0    1
 -2      1966      2028      2120      2206
 -1      1200    3    0    1
 -2       550      1177       911        30
 -1      1201    3    0    1
 -2       834       833      2111      2143
 -1      1202    3    0    1
 -2      1987      1975      2119      2344
 -1      1203    3    0    1
 -2       939       711      1013      1281
 -1      1204    3    0    1
 -2        81      1743      1856      1883
 -1      1205    3    0    1
 -2       309      1075      1342      2111
 -1      1206    3    0    1
 -2       326       163       986      2205
 -1      1207    3    0    1
 -2      2006      2195      2299      2399
 -1      1208    3    0    1
 -2       772       769       779      1043
 -1      1209    3    0    1
 -2       208       317      1318      2202
 -1      1210    3    0    1
 -2      1052       254      2437      3497
 -1      1211    3    0    1
 -2      2803      1223      2880      1766
 -1      1212    3    0    1
 -2       580       116       569       953
 -1      1213    3    0    1
 -2      2011      1973      2013      2159
 -1      1214    3    0    1
 -2      1976      1998      2046      2166
 -1      1215    3    0    1
 -2       486       487       570       916
 -1      1216    3    0    1
 -2       603        17       141      1159
 -1      1217    3    0    1
 -2       525       627       975      1247
 -1      1218    3    0    1
 -2      2754      2737      3571      3626
 -1      1219    3    0    1
 -2       989       402      2133      2135
 -1      1220    3    0    1
 -2      1431      3586      3608      3643
 -1      1221    3    0    1
 -2       511       526       766       780
 -1      1222    3    0    1
 -2      1749      1784      3723      3728
 -1      1223    3    0    1
 -2       326      2189      2283      2339
 -1      1224    3    0    1
 -2      2016      1970      2024      2045
 -1      1225    3    0    1
 -2      3273      2609      1844      3343
 -1      1226    3    0    1
 -2       478       556       563       944
 -1      1227    3    0    1
 -2       350      1946      2062      2341
 -1      1228    3    0    1
 -2       684       676      1000      2223
 -1      1229    3    0    1
 -2      2000       359      2026      2249
 -1      1230    3    0    1
 -2       532      1028       737       933
 -1      1231    3    0    1
 -2       443       305      1129      2288
 -1      1232    3    0    1
 -2       341       301      1940      2261
 -1      1233    3    0    1
 -2       696       541       707       708
 -1      1234    3    0    1
 -2      1393       881      2350      2363
 -1      1235    3    0    1
 -2       451       452       682      1135
 -1      1236    3    0    1
 -2      1355      2114      2174      2183
 -1      1237    3    0    1
 -2       541      1277       936       695
 -1      1238    3    0    1
 -2       541       696       700      1275
 -1      1239    3    0    1
 -2      1309       178      2135      2283
 -1      1240    3    0    1
 -2      2141      2049      2172      2396
 -1      1241    3    0    1
 -2       700       696       707      1009
 -1      1242    3    0    1
 -2      2679      2704      3618      3717
 -1      1243    3    0    1
 -2       461       751       754       902
 -1      1244    3    0    1
 -2       319      2724      3044      1715
 -1      1245    3    0    1
 -2       865      1129      1376      2021
 -1      1246    3    0    1
 -2       354       126       593      1295
 -1      1247    3    0    1
 -2        30      1177       105       557
 -1      1248    3    0    1
 -2       517      1303      1233       971
 -1      1249    3    0    1
 -2      1304      2171      2282      2585
 -1      1250    3    0    1
 -2        49       805       808       925
 -1      1251    3    0    1
 -2        27       551       909      1171
 -1      1252    3    0    1
 -2       587       126       593       959
 -1      1253    3    0    1
 -2       372      2009      2069      2123
 -1      1254    3    0    1
 -2      2036       321      2354      2229
 -1      1255    3    0    1
 -2       960       126      2421      2425
 -1      1256    3    0    1
 -2       243       769       772      1043
 -1      1257    3    0    1
 -2      2603      3523      3606      3488
 -1      1258    3    0    1
 -2       695      1005      1267      1317
 -1      1259    3    0    1
 -2       419       417      1966      2050
 -1      1260    3    0    1
 -2      1306       351      2221      2231
 -1      1261    3    0    1
 -2       401      1933      2024      2064
 -1      1262    3    0    1
 -2      2326      2034      2342      2408
 -1      1263    3    0    1
 -2      1100      2077      2238      2288
 -1      1264    3    0    1
 -2       227       228      2063      2257
 -1      1265    3    0    1
 -2      2007      2224      2239      2273
 -1      1266    3    0    1
 -2       297       357      1353      2183
 -1      1267    3    0    1
 -2       563       945      2361      2379
 -1      1268    3    0    1
 -2        76       240       769      1249
 -1      1269    3    0    1
 -2       717      1992      2274      2275
 -1      1270    3    0    1
 -2        28        27       556       909
 -1      1271    3    0    1
 -2      1952      2000      2112      2184
 -1      1272    3    0    1
 -2      2350      2094      2363      2377
 -1      1273    3    0    1
 -2      1042      1328      1964      2209
 -1      1274    3    0    1
 -2       259       258      2270      2346
 -1      1275    3    0    1
 -2       725       726      2187      2222
 -1      1276    3    0    1
 -2      1743      2849      1856      1883
 -1      1277    3    0    1
 -2       356       951      1287      2404
 -1      1278    3    0    1
 -2       641       464       647       903
 -1      1279    3    0    1
 -2       570       578       916       954
 -1      1280    3    0    1
 -2       329       427      1563      2949
 -1      1281    3    0    1
 -2       721        87        88      1265
 -1      1282    3    0    1
 -2      1307       409      2420      3441
 -1      1283    3    0    1
 -2      1447      2858      3215      3650
 -1      1284    3    0    1
 -2      2313      2069      2389      2448
 -1      1285    3    0    1
 -2       604       962       966      2156
 -1      1286    3    0    1
 -2       369      2141      2172      2312
 -1      1287    3    0    1
 -2      2049      2020      2068      2141
 -1      1288    3    0    1
 -2        35       117       570      1169
 -1      1289    3    0    1
 -2       356       338       566       951
 -1      1290    3    0    1
 -2       291      1962      1985      2201
 -1      1291    3    0    1
 -2       625       646       982      2539
 -1      1292    3    0    1
 -2       523       648       979       983
 -1      1293    3    0    1
 -2      1062       367      2411      2419
 -1      1294    3    0    1
 -2      2021      1996      2072      2279
 -1      1295    3    0    1
 -2       783      1047      1051      1193
 -1      1296    3    0    1
 -2      1628      1422      3522      3557
 -1      1297    3    0    1
 -2      1046      1052      3497      1899
 -1      1298    3    0    1
 -2      1034       756      2179      2195
 -1      1299    3    0    1
 -2      3513      2500      3514      3640
 -1      1300    3    0    1
 -2       109       946       952      2146
 -1      1301    3    0    1
 -2       955       126      2318      2425
 -1      1302    3    0    1
 -2       313      1391       407      2010
 -1      1303    3    0    1
 -2      1989      2111      2143      2184
 -1      1304    3    0    1
 -2       607       610       965      2773
 -1      1305    3    0    1
 -2       624       157       627       973
 -1      1306    3    0    1
 -2       359      1283      2026      2249
 -1      1307    3    0    1
 -2      2177      1988      2298      2343
 -1      1308    3    0    1
 -2      1609      1429      3534      3652
 -1      1309    3    0    1
 -2        29       548       102       912
 -1      1310    3    0    1
 -2      1487      1488      2965      3000
 -1      1311    3    0    1
 -2       776       769      1046      1249
 -1      1312    3    0    1
 -2       497      1331      1203       496
 -1      1313    3    0    1
 -2       452       682      1135      1136
 -1      1314    3    0    1
 -2       249      1045      2084      2321
 -1      1315    3    0    1
 -2      1962      1985      2201      2262
 -1      1316    3    0    1
 -2       510       787       790       928
 -1      1317    3    0    1
 -2      1287      2170      2311      2403
 -1      1318    3    0    1
 -2      1318      2202      2495      3709
 -1      1319    3    0    1
 -2       265       272      1057      2452
 -1      1320    3    0    1
 -2       807      1059      2412      2429
 -1      1321    3    0    1
 -2      3524      1635      3050      3658
 -1      1322    3    0    1
 -2      1557      1558      2729      3337
 -1      1323    3    0    1
 -2      1499      3521      3227      3683
 -1      1324    3    0    1
 -2      2197       356      2309      2311
 -1      1325    3    0    1
 -2      1966      2050      2120      2224
 -1      1326    3    0    1
 -2       144       392       606       970
 -1      1327    3    0    1
 -2      2189       326      2205      2221
 -1      1328    3    0    1
 -2      1353       357      1941      2183
 -1      1329    3    0    1
 -2       319      1501      3587      3406
 -1      1330    3    0    1
 -2       677       452       683      1137
 -1      1331    3    0    1
 -2       980      1306      2189      2248
 -1      1332    3    0    1
 -2      1501       430      1502      3406
 -1      1333    3    0    1
 -2       143       147       611      1158
 -1      1334    3    0    1
 -2       815       805       816      1064
 -1      1335    3    0    1
 -2       559        28       107      1175
 -1      1336    3    0    1
 -2       604       466       612       966
 -1      1337    3    0    1
 -2       499      1067       498       921
 -1      1338    3    0    1
 -2      1948      2309      2373      2434
 -1      1339    3    0    1
 -2       750      2922      3100      3669
 -1      1340    3    0    1
 -2       524       980      1244      1245
 -1      1341    3    0    1
 -2      1031       749      2031      2048
 -1      1342    3    0    1
 -2       690      1001      1004      2308
 -1      1343    3    0    1
 -2      2518      2507      3598      3599
 -1      1344    3    0    1
 -2       924      2964      3008      3650
 -1      1345    3    0    1
 -2       751      1033      1222      1224
 -1      1346    3    0    1
 -2       696       193      1007      1315
 -1      1347    3    0    1
 -2      2909      3561      3621      3692
 -1      1348    3    0    1
 -2       133      2086      2392      3552
 -1      1349    3    0    1
 -2       412       185      1919      3737
 -1      1350    3    0    1
 -2       791      1048      1194      1334
 -1      1351    3    0    1
 -2       510      1052       928       790
 -1      1352    3    0    1
 -2       501       824       831      1069
 -1      1353    3    0    1
 -2       805       267       808      1059
 -1      1354    3    0    1
 -2      1463      2910      3026      3579
 -1      1355    3    0    1
 -2       697       717      1016      1992
 -1      1356    3    0    1
 -2      1420      1725      3594      3604
 -1      1357    3    0    1
 -2       963      2097      2161      2245
 -1      1358    3    0    1
 -2      2930      1591      1771      1772
 -1      1359    3    0    1
 -2       193      1007      1315      2292
 -1      1360    3    0    1
 -2      2488       753      2622      2813
 -1      1361    3    0    1
 -2      2021      2072      2238      2288
 -1      1362    3    0    1
 -2      2765      2931      3629      3639
 -1      1363    3    0    1
 -2      1545       319      3587      3406
 -1      1364    3    0    1
 -2      3549      2951      3264      3659
 -1      1365    3    0    1
 -2      1474      1473      1634      2775
 -1      1366    3    0    1
 -2      3087      1539      3190      3459
 -1      1367    3    0    1
 -2      1013      2022      2298      2374
 -1      1368    3    0    1
 -2      2090      1307      2420      3441
 -1      1369    3    0    1
 -2       815       802      1062      1063
 -1      1370    3    0    1
 -2       514       515      1034      1226
 -1      1371    3    0    1
 -2      1983      1955      2019      2039
 -1      1372    3    0    1
 -2       490       491       792      1047
 -1      1373    3    0    1
 -2       266       367      1062      2419
 -1      1374    3    0    1
 -2      1556      1555      2720      2850
 -1      1375    3    0    1
 -2       524       523       640       979
 -1      1376    3    0    1
 -2       398       211      1019      2187
 -1      1377    3    0    1
 -2       375       233      2145      2254
 -1      1378    3    0    1
 -2       309       310      2111      2112
 -1      1379    3    0    1
 -2        70       642       645      1242
 -1      1380    3    0    1
 -2      1112       438      2073      2224
 -1      1381    3    0    1
 -2      1372      1388      2164      2181
 -1      1382    3    0    1
 -2      1734      1562      2973      3247
 -1      1383    3    0    1
 -2      2402      1326      3594      3495
 -1      1384    3    0    1
 -2       698       691      1896      3413
 -1      1385    3    0    1
 -2       934      1313       997       537
 -1      1386    3    0    1
 -2       684      1313      2125      2140
 -1      1387    3    0    1
 -2      1115       311       339      2174
 -1      1388    3    0    1
 -2      1960      2012      2058      2335
 -1      1389    3    0    1
 -2       208       714      1018      1021
 -1      1390    3    0    1
 -2       744      1029      2258      2439
 -1      1391    3    0    1
 -2       749       514       756      1034
 -1      1392    3    0    1
 -2      2686      3182      3185      3469
 -1      1393    3    0    1
 -2       328       166      3518      1799
 -1      1394    3    0    1
 -2      3074      3036      3127      3607
 -1      1395    3    0    1
 -2      1469      1470      1626      2838
 -1      1396    3    0    1
 -2      2002      1971      2008      2107
 -1      1397    3    0    1
 -2      1041       769      1198      1200
 -1      1398    3    0    1
 -2       579       575       952      1186
 -1      1399    3    0    1
 -2      1612      2809      3576      3223
 -1      1400    3    0    1
 -2      1055      1061      2015      3708
 -1      1401    3    0    1
 -2      1511      2667      3372      3422
 -1      1402    3    0    1
 -2      2145       375      2254      2405
 -1      1403    3    0    1
 -2        46       820       825      1208
 -1      1404    3    0    1
 -2       132       588       591      1296
 -1      1405    3    0    1
 -2      1508      2804      2907      3358
 -1      1406    3    0    1
 -2      1314       694      2124      2310
 -1      1407    3    0    1
 -2      3571      2754      3626      3664
 -1      1408    3    0    1
 -2      3630      3565      3678      3716
 -1      1409    3    0    1
 -2      2323      2461      2817      2866
 -1      1410    3    0    1
 -2        41       236      1869      3411
 -1      1411    3    0    1
 -2       676       537       684      1000
 -1      1412    3    0    1
 -2       437      1968      2072      2169
 -1      1413    3    0    1
 -2       925      1335       805      1059
 -1      1414    3    0    1
 -2       279       282      2085      2391
 -1      1415    3    0    1
 -2      1980      1939      2033      2070
 -1      1416    3    0    1
 -2       640       523       648       979
 -1      1417    3    0    1
 -2      2032      1980      2099      2154
 -1      1418    3    0    1
 -2       516      1238       525       629
 -1      1419    3    0    1
 -2       962       467      1157      1159
 -1      1420    3    0    1
 -2      2042       414      2144      2294
 -1      1421    3    0    1
 -2        27       551       556       909
 -1      1422    3    0    1
 -2       551       477       563       564
 -1      1423    3    0    1
 -2       864      1394       882      2176
 -1      1424    3    0    1
 -2      1295       594      2259      2441
 -1      1425    3    0    1
 -2        85       730       737       933
 -1      1426    3    0    1
 -2      2477      1569      1570      3412
 -1      1427    3    0    1
 -2      1617      1616      3018      3242
 -1      1428    3    0    1
 -2        98      2212      2216      2413
 -1      1429    3    0    1
 -2       500       820      1071      1208
 -1      1430    3    0    1
 -2       412       411      3711      1919
 -1      1431    3    0    1
 -2       761       762      1037      2145
 -1      1432    3    0    1
 -2       507       808      1061      1218
 -1      1433    3    0    1
 -2      3209       241      3643      3482
 -1      1434    3    0    1
 -2       666      1309      2283      2339
 -1      1435    3    0    1
 -2      3551      3602      3618      3634
 -1      1436    3    0    1
 -2      2108      2078      2153      2176
 -1      1437    3    0    1
 -2       566       914      1185      1287
 -1      1438    3    0    1
 -2       496      1203      1199      1039
 -1      1439    3    0    1
 -2      1434      3499      3539      3578
 -1      1440    3    0    1
 -2      2503      3500      3546      3563
 -1      1441    3    0    1
 -2      2043      1951      2079      2126
 -1      1442    3    0    1
 -2      1648      1499      2759      3554
 -1      1443    3    0    1
 -2       510      1053       797       791
 -1      1444    3    0    1
 -2       326      2189      2205      2283
 -1      1445    3    0    1
 -2       321       399      1020      2229
 -1      1446    3    0    1
 -2       328      3518      1798      1799
 -1      1447    3    0    1
 -2       766        75       778      1250
 -1      1448    3    0    1
 -2       348       343      2001      2260
 -1      1449    3    0    1
 -2       218       736       739      1902
 -1      1450    3    0    1
 -2       223        85       730       937
 -1      1451    3    0    1
 -2       733        78      1248      1259
 -1      1452    3    0    1
 -2       695       541       701       936
 -1      1453    3    0    1
 -2       658       992       539       666
 -1      1454    3    0    1
 -2       822       823      2332      2355
 -1      1455    3    0    1
 -2       754         7       757      1138
 -1      1456    3    0    1
 -2       488       489       587       600
 -1      1457    3    0    1
 -2       563       551       564       947
 -1      1458    3    0    1
 -2       388       119      1288      2584
 -1      1459    3    0    1
 -2       702      1008      2081      2113
 -1      1460    3    0    1
 -2      2106      2142      2241      2298
 -1      1461    3    0    1
 -2      3603      3220      3304      3679
 -1      1462    3    0    1
 -2      1386       301       341      2261
 -1      1463    3    0    1
 -2       446       358      1079      2198
 -1      1464    3    0    1
 -2       576       568      1287      2197
 -1      1465    3    0    1
 -2      3022      3006      3560      3214
 -1      1466    3    0    1
 -2      1066      1340       823      3516
 -1      1467    3    0    1
 -2        56       766      1199      1203
 -1      1468    3    0    1
 -2       494      1200      1041      1198
 -1      1469    3    0    1
 -2       610       607       965      2242
 -1      1470    3    0    1
 -2       133       132       588      1293
 -1      1471    3    0    1
 -2      1947      1997      2153      2155
 -1      1472    3    0    1
 -2      1932      1938      2018      2210
 -1      1473    3    0    1
 -2        56      1250       766       930
 -1      1474    3    0    1
 -2      1496      1661      1662      3293
 -1      1475    3    0    1
 -2       365      1956      2240      2336
 -1      1476    3    0    1
 -2      1175       551        27       910
 -1      1477    3    0    1
 -2      2801      2463      3059      3667
 -1      1478    3    0    1
 -2      1121      1369      2044      2079
 -1      1479    3    0    1
 -2      1333      1049      3511      3643
 -1      1480    3    0    1
 -2       730       531       737       933
 -1      1481    3    0    1
 -2       714       533      1021      1261
 -1      1482    3    0    1
 -2       628      2242      2250      2394
 -1      1483    3    0    1
 -2       531       532       737       933
 -1      1484    3    0    1
 -2       524      1306       640       523
 -1      1485    3    0    1
 -2      2171       327      2544      2564
 -1      1486    3    0    1
 -2       628      1302      2250      2464
 -1      1487    3    0    1
 -2       730       216      1028      1029
 -1      1488    3    0    1
 -2      2202       208      2222      2472
 -1      1489    3    0    1
 -2       755       759       897      1036
 -1      1490    3    0    1
 -2      2360      2297      2509      2778
 -1      1491    3    0    1
 -2      2738      1513      1676      1677
 -1      1492    3    0    1
 -2       517      1237      1232       974
 -1      1493    3    0    1
 -2      1400       858      1091      2129
 -1      1494    3    0    1
 -2       752       753      1032      2236
 -1      1495    3    0    1
 -2      1348      1077      2180      2302
 -1      1496    3    0    1
 -2       963       604      2097      2349
 -1      1497    3    0    1
 -2      1349      2122      2372      2446
 -1      1498    3    0    1
 -2      2063       227      2257      2263
 -1      1499    3    0    1
 -2      1674        57      1924      1925
 -1      1500    3    0    1
 -2       623       156       976       977
 -1      1501    3    0    1
 -2       516       623       636       977
 -1      1502    3    0    1
 -2       582       581       954      2409
 -1      1503    3    0    1
 -2       525       516       629       635
 -1      1504    3    0    1
 -2       516       525       627       635
 -1      1505    3    0    1
 -2       516       623       629       635
 -1      1506    3    0    1
 -2       156       394       629       976
 -1      1507    3    0    1
 -2       624       516       627       635
 -1      1508    3    0    1
 -2       541      1010       707       701
 -1      1509    3    0    1
 -2      1877       171      1887      1888
 -1      1510    3    0    1
 -2       679       681       999      2637
 -1      1511    3    0    1
 -2       599       959      2269      2421
 -1      1512    3    0    1
 -2       372      1935      2009      2123
 -1      1513    3    0    1
 -2       670        10       179      1143
 -1      1514    3    0    1
 -2      1283      2186      2249      2276
 -1      1515    3    0    1
 -2       419      1966      2124      2273
 -1      1516    3    0    1
 -2       659       670       995      1143
 -1      1517    3    0    1
 -2       287       315      1381      2163
 -1      1518    3    0    1
 -2       641        71       647      1245
 -1      1519    3    0    1
 -2      2025      2011      2166      2193
 -1      1520    3    0    1
 -2       292       352      1078      2088
 -1      1521    3    0    1
 -2      1026       397      2298      2300
 -1      1522    3    0    1
 -2       541       700      1009      1275
 -1      1523    3    0    1
 -2       537      1313       997       684
 -1      1524    3    0    1
 -2       441       362      1086      2065
 -1      1525    3    0    1
 -2      1979      1946      2062      2075
 -1      1526    3    0    1
 -2       454       641       653       654
 -1      1527    3    0    1
 -2       456       455       660       672
 -1      1528    3    0    1
 -2      3060      3061      3116      3592
 -1      1529    3    0    1
 -2      3556      2712      3581      3610
 -1      1530    3    0    1
 -2       801       365       368      1060
 -1      1531    3    0    1
 -2       980       647      1244      1245
 -1      1532    3    0    1
 -2       647        71      1244      1245
 -1      1533    3    0    1
 -2       452       451       682       690
 -1      1534    3    0    1
 -2       660        82       663      1141
 -1      1535    3    0    1
 -2      1654      1655      2938      3111
 -1      1536    3    0    1
 -2       859      1387      1092      2003
 -1      1537    3    0    1
 -2       639       979      1243      1246
 -1      1538    3    0    1
 -2      1952      1989      2000      2184
 -1      1539    3    0    1
 -2      2059      1934      2170      2311
 -1      1540    3    0    1
 -2       465       606       609      1155
 -1      1541    3    0    1
 -2       327       642       645       984
 -1      1542    3    0    1
 -2       624       635       975       978
 -1      1543    3    0    1
 -2      2304       947      2379      2416
 -1      1544    3    0    1
 -2       419      1314      2124      2310
 -1      1545    3    0    1
 -2      2234      1957      2068      1986
 -1      1546    3    0    1
 -2       464       641       647       653
 -1      1547    3    0    1
 -2      2538      1782      3221      3673
 -1      1548    3    0    1
 -2       641       647       653       985
 -1      1549    3    0    1
 -2       642       464       645       653
 -1      1550    3    0    1
 -2       454       464       642       653
 -1      1551    3    0    1
 -2       464       454       641       653
 -1      1552    3    0    1
 -2       964       607      2242      2464
 -1      1553    3    0    1
 -2       163       652       326       986
 -1      1554    3    0    1
 -2       648       640       979      2248
 -1      1555    3    0    1
 -2       931       624       973      1301
 -1      1556    3    0    1
 -2       454       641       654       986
 -1      1557    3    0    1
 -2       641       653       654       985
 -1      1558    3    0    1
 -2       452       678       682      1136
 -1      1559    3    0    1
 -2      2002      1984      2128      2214
 -1      1560    3    0    1
 -2      3616      2573      3671      3738
 -1      1561    3    0    1
 -2       327       642       984       987
 -1      1562    3    0    1
 -2      2189      2247      2339      2398
 -1      1563    3    0    1
 -2       539      1273       989      1272
 -1      1564    3    0    1
 -2       656       657       988      1274
 -1      1565    3    0    1
 -2       656        93       657      1274
 -1      1566    3    0    1
 -2      2266       298      2330      2438
 -1      1567    3    0    1
 -2        10       670       659      1143
 -1      1568    3    0    1
 -2       668       173       660      1142
 -1      1569    3    0    1
 -2      2693       908      2854      3561
 -1      1570    3    0    1
 -2       451       682       689      1001
 -1      1571    3    0    1
 -2       968       151      2244      2577
 -1      1572    3    0    1
 -2       694       535      1008      1314
 -1      1573    3    0    1
 -2       656       935       988       992
 -1      1574    3    0    1
 -2        14         3       682      1151
 -1      1575    3    0    1
 -2        78       733       736      1252
 -1      1576    3    0    1
 -2      1957      1986      2040      2172
 -1      1577    3    0    1
 -2        79        78       736      1252
 -1      1578    3    0    1
 -2       403       656       988       992
 -1      1579    3    0    1
 -2      2078       292      2088      2176
 -1      1580    3    0    1
 -2       408       413      2076      2223
 -1      1581    3    0    1
 -2      1597      1598      3323      1892
 -1      1582    3    0    1
 -2       866      1377      2169      2204
 -1      1583    3    0    1
 -2      2080      1999      2178      2256
 -1      1584    3    0    1
 -2      2019      1954      2052      2067
 -1      1585    3    0    1
 -2        11      1145       194       696
 -1      1586    3    0    1
 -2       941      1289      1931      2281
 -1      1587    3    0    1
 -2       453       461       754      1138
 -1      1588    3    0    1
 -2      2145       761      2263      2329
 -1      1589    3    0    1
 -2      1251       530      2562      2663
 -1      1590    3    0    1
 -2       455       659       665       671
 -1      1591    3    0    1
 -2      1977      2050      2120      2206
 -1      1592    3    0    1
 -2       660       455       663       671
 -1      1593    3    0    1
 -2      1375       863      2077      2305
 -1      1594    3    0    1
 -2       184       185       682       999
 -1      1595    3    0    1
 -2       498      1339      1067       822
 -1      1596    3    0    1
 -2       343      1994      2053      2252
 -1      1597    3    0    1
 -2       659       671       672       995
 -1      1598    3    0    1
 -2       671       659       994       995
 -1      1599    3    0    1
 -2       536      1314       535       694
 -1      1600    3    0    1
 -2      1347       288       289      2096
 -1      1601    3    0    1
 -2      1578      1418      2667      3422
 -1      1602    3    0    1
 -2      1027      2148      2220      2307
 -1      1603    3    0    1
 -2      1997      1946      2038      2153
 -1      1604    3    0    1
 -2      1001       185      3711      1919
 -1      1605    3    0    1
 -2       696       707      1009      1012
 -1      1606    3    0    1
 -2       962      2053      2138      2161
 -1      1607    3    0    1
 -2       686       678      1004      1136
 -1      1608    3    0    1
 -2      1335      1059      2093      2595
 -1      1609    3    0    1
 -2       172        93       656       935
 -1      1610    3    0    1
 -2      1080       447      1396      1953
 -1      1611    3    0    1
 -2       803      1056      2296      2327
 -1      1612    3    0    1
 -2       452       677       683       690
 -1      1613    3    0    1
 -2       736       733       743      1027
 -1      1614    3    0    1
 -2       450       554      2726      1736
 -1      1615    3    0    1
 -2       683       451      1134      1137
 -1      1616    3    0    1
 -2       541       695       707       708
 -1      1617    3    0    1
 -2      1145       696       899      1315
 -1      1618    3    0    1
 -2      1150       463      2636      2637
 -1      1619    3    0    1
 -2       676       538       537      1000
 -1      1620    3    0    1
 -2      2106      2142      2169      2241
 -1      1621    3    0    1
 -2       678         3       682      1136
 -1      1622    3    0    1
 -2      1120       286      1368      1950
 -1      1623    3    0    1
 -2       682       678       999      1151
 -1      1624    3    0    1
 -2       696       193       700      1007
 -1      1625    3    0    1
 -2       494      2629      2762      2832
 -1      1626    3    0    1
 -2         3        14       682      1136
 -1      1627    3    0    1
 -2         4       677       683      1137
 -1      1628    3    0    1
 -2       678       452      1004      1136
 -1      1629    3    0    1
 -2      1967      2021      2238      2288
 -1      1630    3    0    1
 -2      3569      3544      3715      3743
 -1      1631    3    0    1
 -2       677       688      1003      1137
 -1      1632    3    0    1
 -2       416      1011      2194      2268
 -1      1633    3    0    1
 -2       451       682      1001      1135
 -1      1634    3    0    1
 -2       451       683       689       690
 -1      1635    3    0    1
 -2       227       228      2257      2263
 -1      1636    3    0    1
 -2       870      1132      1380      2045
 -1      1637    3    0    1
 -2       537       676       684       997
 -1      1638    3    0    1
 -2      1984      1971      2002      2227
 -1      1639    3    0    1
 -2       660       671       993       996
 -1      1640    3    0    1
 -2       726       713      1019      1020
 -1      1641    3    0    1
 -2      1977      2007      2224      2239
 -1      1642    3    0    1
 -2       216      1023      1323      2354
 -1      1643    3    0    1
 -2       733       219       736      1025
 -1      1644    3    0    1
 -2      3645      3591      3661      3705
 -1      1645    3    0    1
 -2       609       618       967       970
 -1      1646    3    0    1
 -2      1989      1952      2112      2184
 -1      1647    3    0    1
 -2       704       194       696      1276
 -1      1648    3    0    1
 -2       452       677       690      1003
 -1      1649    3    0    1
 -2       683       451       689      1002
 -1      1650    3    0    1
 -2       713       398      1019      1020
 -1      1651    3    0    1
 -2      1007       699      2292      3431
 -1      1652    3    0    1
 -2       531       730      1029      1260
 -1      1653    3    0    1
 -2       194       704       200      1276
 -1      1654    3    0    1
 -2       682       678       690      1004
 -1      1655    3    0    1
 -2       420      1076      1345      2120
 -1      1656    3    0    1
 -2       692       192       693      1269
 -1      1657    3    0    1
 -2      2749      2563      3645      3705
 -1      1658    3    0    1
 -2       695        95       706      1277
 -1      1659    3    0    1
 -2       541      1010       701       936
 -1      1660    3    0    1
 -2       461      1038       762       751
 -1      1661    3    0    1
 -2       714       533       725       726
 -1      1662    3    0    1
 -2      1123       296      1085      2052
 -1      1663    3    0    1
 -2       704       696      1012      1276
 -1      1664    3    0    1
 -2      2030       979      2339      2398
 -1      1665    3    0    1
 -2      1971      2107      2227      2357
 -1      1666    3    0    1
 -2       535      1268       536      1005
 -1      1667    3    0    1
 -2       696       542       708      1012
 -1      1668    3    0    1
 -2       589      1294       956      2139
 -1      1669    3    0    1
 -2      1813      1485      1814      3327
 -1      1670    3    0    1
 -2        58        59       748      1149
 -1      1671    3    0    1
 -2      1306      2098      2231      2248
 -1      1672    3    0    1
 -2       416      1011      1019      2194
 -1      1673    3    0    1
 -2      3505      3506      2807      3658
 -1      1674    3    0    1
 -2      2420      2586      2673      3542
 -1      1675    3    0    1
 -2      1980      2032      2099      2338
 -1      1676    3    0    1
 -2      2746      2936      3119      3244
 -1      1677    3    0    1
 -2       716      2587      2685      2876
 -1      1678    3    0    1
 -2       415       193       700      1009
 -1      1679    3    0    1
 -2       193       696       700      1009
 -1      1680    3    0    1
 -2      1099       442      1402      2455
 -1      1681    3    0    1
 -2      2168       416      2342      2408
 -1      1682    3    0    1
 -2       973       625      1301      2192
 -1      1683    3    0    1
 -2      1065       819      1981      2023
 -1      1684    3    0    1
 -2       357      1382      2150      2173
 -1      1685    3    0    1
 -2       298      1124       432      2438
 -1      1686    3    0    1
 -2       162      1945      2155      2341
 -1      1687    3    0    1
 -2      1316       697       699      1992
 -1      1688    3    0    1
 -2       774      2031      2117      2209
 -1      1689    3    0    1
 -2       374      1962      1964      2232
 -1      1690    3    0    1
 -2       849      1079      2005      2126
 -1      1691    3    0    1
 -2       541       695       701       707
 -1      1692    3    0    1
 -2      2475      2511      3521      3738
 -1      1693    3    0    1
 -2       696       541       700       707
 -1      1694    3    0    1
 -2      3583      3526      3176      3189
 -1      1695    3    0    1
 -2       713       719       725      1019
 -1      1696    3    0    1
 -2       149       968      2191      2577
 -1      1697    3    0    1
 -2       701       705       936      1010
 -1      1698    3    0    1
 -2       707       696       708      1012
 -1      1699    3    0    1
 -2      2213       982      2282      2585
 -1      1700    3    0    1
 -2      1385       301      1373      1940
 -1      1701    3    0    1
 -2      1013       546       939      1281
 -1      1702    3    0    1
 -2      1975      1987      2007      2239
 -1      1703    3    0    1
 -2       211      2187      2367      2383
 -1      1704    3    0    1
 -2        86       714       718      1147
 -1      1705    3    0    1
 -2      1404       865      1103      2072
 -1      1706    3    0    1
 -2       959      2421      2425      2441
 -1      1707    3    0    1
 -2       728       938      1022      1026
 -1      1708    3    0    1
 -2       711       710       939      1017
 -1      1709    3    0    1
 -2       749       756      1031      2254
 -1      1710    3    0    1
 -2      2028       417      2113      2151
 -1      1711    3    0    1
 -2       453       461       755       762
 -1      1712    3    0    1
 -2       751       226       754       902
 -1      1713    3    0    1
 -2       733      1025      1252      1254
 -1      1714    3    0    1
 -2      2921      1853      1854      3340
 -1      1715    3    0    1
 -2      1313       934       677      1270
 -1      1716    3    0    1
 -2       718       721      1018      1265
 -1      1717    3    0    1
 -2       464       454       642      1139
 -1      1718    3    0    1
 -2       226       230       754       902
 -1      1719    3    0    1
 -2       523      1306       640       648
 -1      1720    3    0    1
 -2       691       698      1535      3437
 -1      1721    3    0    1
 -2       779      1038      1043      2406
 -1      1722    3    0    1
 -2       219       220      1030      2148
 -1      1723    3    0    1
 -2      1316      1006      1992      3599
 -1      1724    3    0    1
 -2       803       810      1337      2267
 -1      1725    3    0    1
 -2       198       192       692      1266
 -1      1726    3    0    1
 -2      2061      1982      2324      2382
 -1      1727    3    0    1
 -2       208       714       718      1018
 -1      1728    3    0    1
 -2      1995      1972      2013      2083
 -1      1729    3    0    1
 -2      1118       304      1096      2377
 -1      1730    3    0    1
 -2       712      1014      2047      2374
 -1      1731    3    0    1
 -2       343       974      1300      2001
 -1      1732    3    0    1
 -2      2181      1939      2210      2401
 -1      1733    3    0    1
 -2      2514      3513      3342      3698
 -1      1734    3    0    1
 -2      2051       983      2248      2348
 -1      1735    3    0    1
 -2       534       713       719       725
 -1      1736    3    0    1
 -2       625      1302       628      2640
 -1      1737    3    0    1
 -2      2031       774      2048      2209
 -1      1738    3    0    1
 -2       714       534       718       725
 -1      1739    3    0    1
 -2       714       534      1261      1265
 -1      1740    3    0    1
 -2       533       534       714       725
 -1      1741    3    0    1
 -2       534       533       713       725
 -1      1742    3    0    1
 -2       769       779      1043      1046
 -1      1743    3    0    1
 -2       967       144      2293      3536
 -1      1744    3    0    1
 -2       398       724       399      1020
 -1      1745    3    0    1
 -2      2270       259      2346      2381
 -1      1746    3    0    1
 -2       348       343      1300      2001
 -1      1747    3    0    1
 -2       533       713       726      1020
 -1      1748    3    0    1
 -2       215        96       728       938
 -1      1749    3    0    1
 -2       722       714      1021      1261
 -1      1750    3    0    1
 -2      1002       689      2134      2316
 -1      1751    3    0    1
 -2       971      2098      2280      2422
 -1      1752    3    0    1
 -2        71       164       641       903
 -1      1753    3    0    1
 -2       222       216       737      1323
 -1      1754    3    0    1
 -2       453       755       761       762
 -1      1755    3    0    1
 -2       708      1011      2042      2268
 -1      1756    3    0    1
 -2       713       724      1020      1262
 -1      1757    3    0    1
 -2      2055      1965      2215      2433
 -1      1758    3    0    1
 -2       410       180      1750      1801
 -1      1759    3    0    1
 -2        82       660       663      1256
 -1      1760    3    0    1
 -2       538      1310      1271      1000
 -1      1761    3    0    1
 -2      2149      2030      2247      2398
 -1      1762    3    0    1
 -2       761       754       762      1035
 -1      1763    3    0    1
 -2       624      1247       627       516
 -1      1764    3    0    1
 -2       632       624       978      1230
 -1      1765    3    0    1
 -2       614       606       970      1155
 -1      1766    3    0    1
 -2       882      1394      2153      2176
 -1      1767    3    0    1
 -2       880      1117      2046      2193
 -1      1768    3    0    1
 -2       730       531       933      1260
 -1      1769    3    0    1
 -2       769       526      1046      1249
 -1      1770    3    0    1
 -2       544      1026       738       543
 -1      1771    3    0    1
 -2      1385       857       875      2154
 -1      1772    3    0    1
 -2       538       997       676       537
 -1      1773    3    0    1
 -2      1508      1507      1585      2907
 -1      1774    3    0    1
 -2       393       344       969      2246
 -1      1775    3    0    1
 -2        78       733      1252      1254
 -1      1776    3    0    1
 -2      3034      2872      1861      3455
 -1      1777    3    0    1
 -2       325       377      1965      2162
 -1      1778    3    0    1
 -2       868      1131      1378      2303
 -1      1779    3    0    1
 -2      1401       291      1962      1985
 -1      1780    3    0    1
 -2       532       736       743      1027
 -1      1781    3    0    1
 -2      2454      2560      2578      3537
 -1      1782    3    0    1
 -2      1985      2058      2060      2232
 -1      1783    3    0    1
 -2      2136      2500      2514      3513
 -1      1784    3    0    1
 -2      1452      2891      3320      3481
 -1      1785    3    0    1
 -2       532       531       737       743
 -1      1786    3    0    1
 -2       531       532       736       743
 -1      1787    3    0    1
 -2      1762      2692      3418      3424
 -1      1788    3    0    1
 -2      2031      2048      2200      2209
 -1      1789    3    0    1
 -2      2081      1008      2082      2151
 -1      1790    3    0    1
 -2       531       730       737       743
 -1      1791    3    0    1
 -2      3196        68      1634      1633
 -1      1792    3    0    1
 -2       733       531       736       743
 -1      1793    3    0    1
 -2      1032      1326       753      2488
 -1      1794    3    0    1
 -2       531       730       744      1029
 -1      1795    3    0    1
 -2      2177      1969      2241      2298
 -1      1796    3    0    1
 -2      1034       514      1226      1228
 -1      1797    3    0    1
 -2       751       227      1033      1325
 -1      1798    3    0    1
 -2       746        60       747      1228
 -1      1799    3    0    1
 -2       645       649       984      1154
 -1      1800    3    0    1
 -2      2394      1297      2556      3710
 -1      1801    3    0    1
 -2      2545      2608      3504      3670
 -1      1802    3    0    1
 -2      3540       410      1801      3651
 -1      1803    3    0    1
 -2      2041       402      2135      2320
 -1      1804    3    0    1
 -2        18        19       609      1155
 -1      1805    3    0    1
 -2       571       949      1294      2139
 -1      1806    3    0    1
 -2       642       454       987      1139
 -1      1807    3    0    1
 -2       187       183      1313      2160
 -1      1808    3    0    1
 -2      1047       491      1051      1193
 -1      1809    3    0    1
 -2       798       784      1053      1054
 -1      1810    3    0    1
 -2      3096      1446      1852      3393
 -1      1811    3    0    1
 -2      1961      1976      2028      2082
 -1      1812    3    0    1
 -2       514       515       756      1034
 -1      1813    3    0    1
 -2       455       663       993      1141
 -1      1814    3    0    1
 -2       326       163      2205      2221
 -1      1815    3    0    1
 -2      1435      1599      3526      3449
 -1      1816    3    0    1
 -2       748        58       755      1229
 -1      1817    3    0    1
 -2       464       985       653       647
 -1      1818    3    0    1
 -2       455       994       671       665
 -1      1819    3    0    1
 -2         9      1143       659       898
 -1      1820    3    0    1
 -2      2074      2051      2218      2358
 -1      1821    3    0    1
 -2       678       999      1151      1153
 -1      1822    3    0    1
 -2        89        90       719      1280
 -1      1823    3    0    1
 -2       733       531       744      1030
 -1      1824    3    0    1
 -2       351       980      1306      2221
 -1      1825    3    0    1
 -2       219       220       733      1030
 -1      1826    3    0    1
 -2       659       455       665       898
 -1      1827    3    0    1
 -2      2051       983      2218      2248
 -1      1828    3    0    1
 -2       401      2024      2034      2064
 -1      1829    3    0    1
 -2       244      2384      2508      3696
 -1      1830    3    0    1
 -2      2668      3517      2977      3241
 -1      1831    3    0    1
 -2      2918      2624      3555      3300
 -1      1832    3    0    1
 -2       507       808       815      1061
 -1      1833    3    0    1
 -2      1941       357      2173      2183
 -1      1834    3    0    1
 -2       808       805       815      1061
 -1      1835    3    0    1
 -2      2058       860      1126       889
 -1      1836    3    0    1
 -2       461       748       762      1037
 -1      1837    3    0    1
 -2       943       558      2265      2413
 -1      1838    3    0    1
 -2      1968      2106      2169      2204
 -1      1839    3    0    1
 -2      1380       870      2045      2344
 -1      1840    3    0    1
 -2       227       751       754      1038
 -1      1841    3    0    1
 -2       428       229      1566      2835
 -1      1842    3    0    1
 -2        44        47       821       921
 -1      1843    3    0    1
 -2       787       794       913      1055
 -1      1844    3    0    1
 -2      2095      1965      2162      2215
 -1      1845    3    0    1
 -2      1982       852      2067      2382
 -1      1846    3    0    1
 -2       244       243       769      1329
 -1      1847    3    0    1
 -2       769        43      1198      1200
 -1      1848    3    0    1
 -2       782       783      1051      1193
 -1      1849    3    0    1
 -2       769       511       779       780
 -1      1850    3    0    1
 -2       787       254       790      1332
 -1      1851    3    0    1
 -2      1119       882      2153      2176
 -1      1852    3    0    1
 -2       510      1053       791       929
 -1      1853    3    0    1
 -2      2228      3496      2760      3583
 -1      1854    3    0    1
 -2       247        75       766      1250
 -1      1855    3    0    1
 -2      2481      2655      3576      3607
 -1      1856    3    0    1
 -2      2195      2006      2299      2362
 -1      1857    3    0    1
 -2       754       751      1033      1222
 -1      1858    3    0    1
 -2      1996      2006      2299      2399
 -1      1859    3    0    1
 -2      1051       792      2278      2313
 -1      1860    3    0    1
 -2        47        44       821      1207
 -1      1861    3    0    1
 -2      2098       622      2280      2358
 -1      1862    3    0    1
 -2      1322      2116      2798      3525
 -1      1863    3    0    1
 -2        44       821       824       921
 -1      1864    3    0    1
 -2      1454      1453      2609      2802
 -1      1865    3    0    1
 -2      1422      1652      3583      3456
 -1      1866    3    0    1
 -2       331       248       773      1331
 -1      1867    3    0    1
 -2       317       208      1018      2222
 -1      1868    3    0    1
 -2       810      1337      2020      2049
 -1      1869    3    0    1
 -2       699       679      1316      2185
 -1      1870    3    0    1
 -2      1485      1486      2975      3384
 -1      1871    3    0    1
 -2       564       563       947      2379
 -1      1872    3    0    1
 -2      1976      2028      2082      2206
 -1      1873    3    0    1
 -2      1501      2724      3523      2843
 -1      1874    3    0    1
 -2       773       777       930      1044
 -1      1875    3    0    1
 -2       526       766       780      1045
 -1      1876    3    0    1
 -2       547        98       548       943
 -1      1877    3    0    1
 -2      1954      1983      2039      2240
 -1      1878    3    0    1
 -2       511       766       773       779
 -1      1879    3    0    1
 -2       769       511       772       779
 -1      1880    3    0    1
 -2      1662      1661      2857      3293
 -1      1881    3    0    1
 -2       797       787       798      1055
 -1      1882    3    0    1
 -2       528       527      2480      2558
 -1      1883    3    0    1
 -2       217      1022      2196      2300
 -1      1884    3    0    1
 -2      2098      2051      2348      2358
 -1      1885    3    0    1
 -2      1037      1044      2405      2406
 -1      1886    3    0    1
 -2      1635      3524      3532      3599
 -1      1887    3    0    1
 -2       482      1182      1179       958
 -1      1888    3    0    1
 -2       491      1334       490       792
 -1      1889    3    0    1
 -2      1317       694       702      2168
 -1      1890    3    0    1
 -2        55      1219       800       927
 -1      1891    3    0    1
 -2       784       258       791      1053
 -1      1892    3    0    1
 -2        31       784       791       929
 -1      1893    3    0    1
 -2       818       363      1068      1338
 -1      1894    3    0    1
 -2       113       566       567       914
 -1      1895    3    0    1
 -2       927       508      1056      1060
 -1      1896    3    0    1
 -2       805       506       815       816
 -1      1897    3    0    1
 -2      1130       436      1377      2204
 -1      1898    3    0    1
 -2      2118       803      2296      2327
 -1      1899    3    0    1
 -2      3517      2830      2890      3568
 -1      1900    3    0    1
 -2       156       976       977      1936
 -1      1901    3    0    1
 -2       351       163       980      2221
 -1      1902    3    0    1
 -2       784       510       791       929
 -1      1903    3    0    1
 -2       481       784       797       798
 -1      1904    3    0    1
 -2       769       243       772      1041
 -1      1905    3    0    1
 -2      3606      3187      3687      3445
 -1      1906    3    0    1
 -2      2921      3553      3081      3466
 -1      1907    3    0    1
 -2       511      1044       779       773
 -1      1908    3    0    1
 -2      1533      1493      1534      3158
 -1      1909    3    0    1
 -2      1044       779      1045      2306
 -1      1910    3    0    1
 -2      1620      3170      3616      3738
 -1      1911    3    0    1
 -2       190      2125      2133      2316
 -1      1912    3    0    1
 -2      1963      2004      2122      2372
 -1      1913    3    0    1
 -2      1953      2037      2044      2101
 -1      1914    3    0    1
 -2       232      1036      2145      2334
 -1      1915    3    0    1
 -2       585       584       958      1179
 -1      1916    3    0    1
 -2       766       511       773       930
 -1      1917    3    0    1
 -2       766       248      1044      1045
 -1      1918    3    0    1
 -2      2309      1934      2373      2434
 -1      1919    3    0    1
 -2        39        31       791       929
 -1      1920    3    0    1
 -2       802       265      1062      1063
 -1      1921    3    0    1
 -2      1007       697      1315      1992
 -1      1922    3    0    1
 -2       588       596       917       961
 -1      1923    3    0    1
 -2       510       784       791       797
 -1      1924    3    0    1
 -2       119      2395      2549      2584
 -1      1925    3    0    1
 -2       787       510       790       797
 -1      1926    3    0    1
 -2       972      1305      2250      2456
 -1      1927    3    0    1
 -2       425      1885      3720      3457
 -1      1928    3    0    1
 -2       982      1242      1304      2643
 -1      1929    3    0    1
 -2       481       510       787       797
 -1      1930    3    0    1
 -2       510       481       784       797
 -1      1931    3    0    1
 -2       481       784       798      1054
 -1      1932    3    0    1
 -2      1972      1937      2010      2128
 -1      1933    3    0    1
 -2       259       258       784      1053
 -1      1934    3    0    1
 -2       570       578       954      1910
 -1      1935    3    0    1
 -2      1676      2812      3560      3415
 -1      1936    3    0    1
 -2       809       507      1062      1217
 -1      1937    3    0    1
 -2       319      3044       430      1715
 -1      1938    3    0    1
 -2       509      1337      1220       508
 -1      1939    3    0    1
 -2       334       787      1052      1055
 -1      1940    3    0    1
 -2      1379      2011      2083      2159
 -1      1941    3    0    1
 -2       658      2130      2140      2388
 -1      1942    3    0    1
 -2      1608       395      3630      2999
 -1      1943    3    0    1
 -2      1969      2110      2177      2415
 -1      1944    3    0    1
 -2       808       811      1061      1218
 -1      1945    3    0    1
 -2      1973       413      2025      2076
 -1      1946    3    0    1
 -2      1395       849      1079      2005
 -1      1947    3    0    1
 -2        49      1213        51       805
 -1      1948    3    0    1
 -2       312      1117      1110      2193
 -1      1949    3    0    1
 -2      2930      3011      1771      3296
 -1      1950    3    0    1
 -2       811        49       269      1218
 -1      1951    3    0    1
 -2       577       574      1187      1291
 -1      1952    3    0    1
 -2       100       336       942      2431
 -1      1953    3    0    1
 -2       396      2282      2544      3519
 -1      1954    3    0    1
 -2       628       607      2242      2394
 -1      1955    3    0    1
 -2       502      1338      1068       819
 -1      1956    3    0    1
 -2       445       306      2109      2119
 -1      1957    3    0    1
 -2      1574      1575      3064      3331
 -1      1958    3    0    1
 -2       921      1339       498      1205
 -1      1959    3    0    1
 -2       802      1217      1216       506
 -1      1960    3    0    1
 -2       508       927      1056      1219
 -1      1961    3    0    1
 -2       266       265       809      1337
 -1      1962    3    0    1
 -2       802       814      1063      1216
 -1      1963    3    0    1
 -2      3215      1687      1822      3254
 -1      1964    3    0    1
 -2       258       259       784      1048
 -1      1965    3    0    1
 -2      3503       599       954      2269
 -1      1966    3    0    1
 -2       509      1060       810       508
 -1      1967    3    0    1
 -2       672       689       995      2316
 -1      1968    3    0    1
 -2       296      1397      1082      2052
 -1      1969    3    0    1
 -2       547       548       912       943
 -1      1970    3    0    1
 -2       646       625       972      2250
 -1      1971    3    0    1
 -2       507       506       809       815
 -1      1972    3    0    1
 -2       506       507       808       815
 -1      1973    3    0    1
 -2       810      1060      2285      2296
 -1      1974    3    0    1
 -2      1297       965       607      2242
 -1      1975    3    0    1
 -2       506       802       809       815
 -1      1976    3    0    1
 -2       805       506       808       815
 -1      1977    3    0    1
 -2       595       591      1190      1296
 -1      1978    3    0    1
 -2       245      1044      2306      2405
 -1      1979    3    0    1
 -2      1941      1934      2173      2373
 -1      1980    3    0    1
 -2       809       507       815      1062
 -1      1981    3    0    1
 -2      1114       857      1090      2154
 -1      1982    3    0    1
 -2       506       802       816      1063
 -1      1983    3    0    1
 -2       183      1003      2144      2308
 -1      1984    3    0    1
 -2       824       827      1069      1210
 -1      1985    3    0    1
 -2       831       824       832      1069
 -1      1986    3    0    1
 -2      1987      2034      2064      2326
 -1      1987    3    0    1
 -2      2024      1987      2064      2344
 -1      1988    3    0    1
 -2        44       824      1207      1210
 -1      1989    3    0    1
 -2      3101      2567      3106      3229
 -1      1990    3    0    1
 -2       503      1065       922       502
 -1      1991    3    0    1
 -2       501       824      1069      1210
 -1      1992    3    0    1
 -2      1990      1343      1998      2120
 -1      1993    3    0    1
 -2       273       818       275      1211
 -1      1994    3    0    1
 -2       282       279       821      1067
 -1      1995    3    0    1
 -2       819       502       826      1068
 -1      1996    3    0    1
 -2      1302       625       628      2250
 -1      1997    3    0    1
 -2       821       279       824      1067
 -1      1998    3    0    1
 -2       550        99       945       946
 -1      1999    3    0    1
 -2      1338      2023      2237      2418
 -1      2000    3    0    1
 -2       105       561       108      1174
 -1      2001    3    0    1
 -2       122       382       952      2370
 -1      2002    3    0    1
 -2       500       820       825       832
 -1      2003    3    0    1
 -2        48       829       283      1209
 -1      2004    3    0    1
 -2       125      1932      2070      2217
 -1      2005    3    0    1
 -2       824       500       831       832
 -1      2006    3    0    1
 -2       312      1379      1973      2011
 -1      2007    3    0    1
 -2       805       815      1061      1064
 -1      2008    3    0    1
 -2      3503       388      1910      3736
 -1      2009    3    0    1
 -2      1940      2032      2099      2154
 -1      2010    3    0    1
 -2      1354      1355      2114      2174
 -1      2011    3    0    1
 -2       501       500       825       831
 -1      2012    3    0    1
 -2       500       501       824       831
 -1      2013    3    0    1
 -2      1972      2010      2013      2083
 -1      2014    3    0    1
 -2       365      1056      2240      2296
 -1      2015    3    0    1
 -2       551       560       910       947
 -1      2016    3    0    1
 -2      1072       832      2085      2391
 -1      2017    3    0    1
 -2       551       563       944       947
 -1      2018    3    0    1
 -2       293      1116      1106      2227
 -1      2019    3    0    1
 -2       197      1010      1011      2268
 -1      2020    3    0    1
 -2       637      1593      1594      2962
 -1      2021    3    0    1
 -2       823      2332      2355      2767
 -1      2022    3    0    1
 -2      1588      2652      3517      2896
 -1      2023    3    0    1
 -2       185       682      1001      1004
 -1      2024    3    0    1
 -2      1320       720      2226      2367
 -1      2025    3    0    1
 -2      2132      1957      2234      2330
 -1      2026    3    0    1
 -2       301      1385       341      1940
 -1      2027    3    0    1
 -2      1002      2134      2308      2316
 -1      2028    3    0    1
 -2       771       752      1330      2127
 -1      2029    3    0    1
 -2       486      1291       574       581
 -1      2030    3    0    1
 -2       666      2130      2247      2283
 -1      2031    3    0    1
 -2       815       798      2015      2411
 -1      2032    3    0    1
 -2      1981      1065      2368      2376
 -1      2033    3    0    1
 -2      1523      1522      2837      2857
 -1      2034    3    0    1
 -2       368      1060      1956      2285
 -1      2035    3    0    1
 -2      1338      1981      2023      2418
 -1      2036    3    0    1
 -2       582       569       952       953
 -1      2037    3    0    1
 -2       726      1020      2187      2220
 -1      2038    3    0    1
 -2       969       344      2191      2246
 -1      2039    3    0    1
 -2       587       593       599       959
 -1      2040    3    0    1
 -2       962      1949      2156      2161
 -1      2041    3    0    1
 -2       622       517       630       974
 -1      2042    3    0    1
 -2      1003       690      1010      2042
 -1      2043    3    0    1
 -2       284      1065      1981      2023
 -1      2044    3    0    1
 -2      1938      1932      2018      2054
 -1      2045    3    0    1
 -2      2019      1983      2067      2092
 -1      2046    3    0    1
 -2      1664      1453      1665      2802
 -1      2047    3    0    1
 -2      1941      2071      2114      2183
 -1      2048    3    0    1
 -2       408       675       413      1310
 -1      2049    3    0    1
 -2       304       431      2230      2377
 -1      2050    3    0    1
 -2       405      1993      2008      2030
 -1      2051    3    0    1
 -2       979      2030      2149      2398
 -1      2052    3    0    1
 -2      2178      1999      2255      2256
 -1      2053    3    0    1
 -2       914       566       951      1287
 -1      2054    3    0    1
 -2      1977      1345      1990      2120
 -1      2055    3    0    1
 -2      2612      1449      1549      2794
 -1      2056    3    0    1
 -2       274      2037      2104      2237
 -1      2057    3    0    1
 -2      1119       292      1101      2176
 -1      2058    3    0    1
 -2       413      1961      2076      2152
 -1      2059    3    0    1
 -2       500       820       832      1071
 -1      2060    3    0    1
 -2      2117       331      2321      2405
 -1      2061    3    0    1
 -2      1511      2667      3146      3372
 -1      2062    3    0    1
 -2      1580      1579      2897      1770
 -1      2063    3    0    1
 -2      1343       287      1344      2163
 -1      2064    3    0    1
 -2      1973       312      2011      2193
 -1      2065    3    0    1
 -2      2476      2536      2605      3633
 -1      2066    3    0    1
 -2       787       790      1196      1332
 -1      2067    3    0    1
 -2      3219      3142      3701      3719
 -1      2068    3    0    1
 -2      1023       216      2322      2354
 -1      2069    3    0    1
 -2      2047       399      2229      2374
 -1      2070    3    0    1
 -2      3504      3493      2558      3746
 -1      2071    3    0    1
 -2       122       116       948      2370
 -1      2072    3    0    1
 -2      2101      2037      2103      2104
 -1      2073    3    0    1
 -2      1458      1457      2763      2766
 -1      2074    3    0    1
 -2      2111      2112      2143      2184
 -1      2075    3    0    1
 -2      1077      2158      2180      2302
 -1      2076    3    0    1
 -2      2588      1417      1635      3599
 -1      2077    3    0    1
 -2       831      1069      2085      2444
 -1      2078    3    0    1
 -2      1991      1327      2254      2334
 -1      2079    3    0    1
 -2      2037      2043      2104      2418
 -1      2080    3    0    1
 -2      1954      2039      2219      2240
 -1      2081    3    0    1
 -2       217       397      1026      2300
 -1      2082    3    0    1
 -2       359        98      1283      2276
 -1      2083    3    0    1
 -2      1934      1941      2170      2373
 -1      2084    3    0    1
 -2       726       725      1021      2222
 -1      2085    3    0    1
 -2       961       599      1296      2421
 -1      2086    3    0    1
 -2       842       841      2114      2183
 -1      2087    3    0    1
 -2      1389       869      1108      2083
 -1      2088    3    0    1
 -2       821       282      1067      1339
 -1      2089    3    0    1
 -2      1569       709      1570      3412
 -1      2090    3    0    1
 -2       803       508       810      1060
 -1      2091    3    0    1
 -2       282      1072      2085      2391
 -1      2092    3    0    1
 -2       392       390      1905      3710
 -1      2093    3    0    1
 -2      2233      2121      2323      2369
 -1      2094    3    0    1
 -2       606       465       618       970
 -1      2095    3    0    1
 -2      2902      2900      3633      3380
 -1      2096    3    0    1
 -2       658       989      1974      2140
 -1      2097    3    0    1
 -2       819      1338      1981      2023
 -1      2098    3    0    1
 -2      2039       365      2240      2336
 -1      2099    3    0    1
 -2      2062      2218      2351      2352
 -1      2100    3    0    1
 -2      1127       890      2055      2207
 -1      2101    3    0    1
 -2       375      2031      2254      2405
 -1      2102    3    0    1
 -2       600       960      2421      2435
 -1      2103    3    0    1
 -2        46        48       825      1212
 -1      2104    3    0    1
 -2       957      1288      2453      3492
 -1      2105    3    0    1
 -2      1807      2782      1808      3180
 -1      2106    3    0    1
 -2      2469      3514      3534      3562
 -1      2107    3    0    1
 -2       689       672       996      2134
 -1      2108    3    0    1
 -2       175       989      1309      2135
 -1      2109    3    0    1
 -2      2062      1944      2218      2352
 -1      2110    3    0    1
 -2      1668      1667      3214      3415
 -1      2111    3    0    1
 -2      2169      2204      2241      2415
 -1      2112    3    0    1
 -2      1109      2109      2119      2344
 -1      2113    3    0    1
 -2       484      1290       568       576
 -1      2114    3    0    1
 -2       738       731      1026      2300
 -1      2115    3    0    1
 -2      2132      1957      2330      2438
 -1      2116    3    0    1
 -2       327      2291      2544      2564
 -1      2117    3    0    1
 -2       664       661       991      2090
 -1      2118    3    0    1
 -2       385       602       962       966
 -1      2119    3    0    1
 -2      1934      1941      2054      2071
 -1      2120    3    0    1
 -2      1934      2170      2311      2373
 -1      2121    3    0    1
 -2      1388       855       877      2181
 -1      2122    3    0    1
 -2       630      2097      2314      2349
 -1      2123    3    0    1
 -2      1938       339      2174      2401
 -1      2124    3    0    1
 -2       983       350      2218      2248
 -1      2125    3    0    1
 -2       183      2125      2144      2160
 -1      2126    3    0    1
 -2      1047       369      1935      2141
 -1      2127    3    0    1
 -2      1369       358       446      2198
 -1      2128    3    0    1
 -2      1947      1997      2108      2153
 -1      2129    3    0    1
 -2       370       249      2084      2366
 -1      2130    3    0    1
 -2       862      1127      1098      2207
 -1      2131    3    0    1
 -2       785       490       792      1047
 -1      2132    3    0    1
 -2       491       792      1047      1051
 -1      2133    3    0    1
 -2      1943      1393      2350      2363
 -1      2134    3    0    1
 -2       150       149      2191      2577
 -1      2135    3    0    1
 -2      1013      1933      2298       400
 -1      2136    3    0    1
 -2       491      1047      1192      1193
 -1      2137    3    0    1
 -2      1986      1957      2266      2330
 -1      2138    3    0    1
 -2       769      1041      1198      1329
 -1      2139    3    0    1
 -2       630      2097      2349      2390
 -1      2140    3    0    1
 -2       243       775       330      1881
 -1      2141    3    0    1
 -2       227       228      1033      2063
 -1      2142    3    0    1
 -2      1310       676      2152      2223
 -1      2143    3    0    1
 -2       627       631       975      1247
 -1      2144    3    0    1
 -2       364      2368      2376      2447
 -1      2145    3    0    1
 -2      1119       864       882      2176
 -1      2146    3    0    1
 -2      1946      1997      2038      2341
 -1      2147    3    0    1
 -2       647       980      1244      1306
 -1      2148    3    0    1
 -2      1045      2084      2321      2387
 -1      2149    3    0    1
 -2       142      2165      2277      2410
 -1      2150    3    0    1
 -2      2039       365      2219      2240
 -1      2151    3    0    1
 -2      2297      2211      2360      2509
 -1      2152    3    0    1
 -2      1015      2597      2603      3523
 -1      2153    3    0    1
 -2      1427      1428      1510      2561
 -1      2154    3    0    1
 -2       762       779      1044      2406
 -1      2155    3    0    1
 -2       765       764      1202      1328
 -1      2156    3    0    1
 -2       193       415      1007      2292
 -1      2157    3    0    1
 -2       356      2309      2311      2373
 -1      2158    3    0    1
 -2       514      1324      1228      1034
 -1      2159    3    0    1
 -2       991       661      1307      2090
 -1      2160    3    0    1
 -2       780      1045      2306      2387
 -1      2161    3    0    1
 -2      1084      1113      2150      2255
 -1      2162    3    0    1
 -2       392       144       965      2450
 -1      2163    3    0    1
 -2       743       730      1028      1029
 -1      2164    3    0    1
 -2       377      2162      2179      2182
 -1      2165    3    0    1
 -2      2131      1001      2134      2308
 -1      2166    3    0    1
 -2      1053       370      2084      2301
 -1      2167    3    0    1
 -2       586       955      2318      2425
 -1      2168    3    0    1
 -2      1020       726      1028      2220
 -1      2169    3    0    1
 -2      1019       725      2187      2222
 -1      2170    3    0    1
 -2       184      1004      2131      3732
 -1      2171    3    0    1
 -2      1063      2325      2444      2447
 -1      2172    3    0    1
 -2       404       995      1002      2316
 -1      2173    3    0    1
 -2      2168       702      2294      2310
 -1      2174    3    0    1
 -2      2051      1944      2094      2218
 -1      2175    3    0    1
 -2       401       400      1970      2343
 -1      2176    3    0    1
 -2      1991      1327      2179      2254
 -1      2177    3    0    1
 -2       979       162       983      1945
 -1      2178    3    0    1
 -2       535      1269      1008      1314
 -1      2179    3    0    1
 -2       326       980      2189      2339
 -1      2180    3    0    1
 -2      1973      2025      2046      2193
 -1      2181    3    0    1
 -2       983       350      2051      2218
 -1      2182    3    0    1
 -2      1007       699      1992      2292
 -1      2183    3    0    1
 -2      1947      2008      2078      2108
 -1      2184    3    0    1
 -2      1081       309      1383      2178
 -1      2185    3    0    1
 -2      1328      2069      2251      2366
 -1      2186    3    0    1
 -2       564       581       946      2146
 -1      2187    3    0    1
 -2      2168      1317      2268      2294
 -1      2188    3    0    1
 -2       583      1757      1758      3375
 -1      2189    3    0    1
 -2      1970      2016      2024      2343
 -1      2190    3    0    1
 -2       712       545       720      1013
 -1      2191    3    0    1
 -2        76       769       776      1249
 -1      2192    3    0    1
 -2       752      1032      1330      2127
 -1      2193    3    0    1
 -2      1404       436       437      2072
 -1      2194    3    0    1
 -2      2077      1965      2305      2362
 -1      2195    3    0    1
 -2      2080       309      2111      2112
 -1      2196    3    0    1
 -2      2722      2793      3637      3702
 -1      2197    3    0    1
 -2      1961       413      2025      2082
 -1      2198    3    0    1
 -2       798      1055      1061      2015
 -1      2199    3    0    1
 -2      2003      1942      2017      2165
 -1      2200    3    0    1
 -2      1545       430      3477      3730
 -1      2201    3    0    1
 -2       317      1016      1318      2202
 -1      2202    3    0    1
 -2      1056       365      1956      2296
 -1      2203    3    0    1
 -2      2154      1939      2157      2164
 -1      2204    3    0    1
 -2       230       754       902      1138
 -1      2205    3    0    1
 -2      1950       286      2126      2208
 -1      2206    3    0    1
 -2       104       360      2361      2378
 -1      2207    3    0    1
 -2       125      1292      2033      2070
 -1      2208    3    0    1
 -2       453      1036       761       755
 -1      2209    3    0    1
 -2       784       259      1053      1054
 -1      2210    3    0    1
 -2      3187      2823      3606      3687
 -1      2211    3    0    1
 -2         3       678      1151      1153
 -1      2212    3    0    1
 -2      2093      1059      2515      2595
 -1      2213    3    0    1
 -2      1752       410      3647      3651
 -1      2214    3    0    1
 -2      1877      3054      3356      1887
 -1      2215    3    0    1
 -2        58       759       231       897
 -1      2216    3    0    1
 -2       759        58       755       897
 -1      2217    3    0    1
 -2         9      1143        10       659
 -1      2218    3    0    1
 -2         9       669       177       898
 -1      2219    3    0    1
 -2       669         9       665       898
 -1      2220    3    0    1
 -2      2869      2793      3022      3560
 -1      2221    3    0    1
 -2      1312      3534      3640      3652
 -1      2222    3    0    1
 -2      1290      2365      2371      2445
 -1      2223    3    0    1
 -2      2142      2167      2196      2279
 -1      2224    3    0    1
 -2       226       758       234       902
 -1      2225    3    0    1
 -2       758       226       751       902
 -1      2226    3    0    1
 -2        15       647       651       903
 -1      2227    3    0    1
 -2        15        71       647       903
 -1      2228    3    0    1
 -2       467       963       466       904
 -1      2229    3    0    1
 -2       467       466       966      1157
 -1      2230    3    0    1
 -2       147       615       148       905
 -1      2231    3    0    1
 -2       615       147       611       905
 -1      2232    3    0    1
 -2      3606      2541      3240      3687
 -1      2233    3    0    1
 -2       573       552      2440      2549
 -1      2234    3    0    1
 -2       991       664      2420      2585
 -1      2235    3    0    1
 -2        35       570       574      1169
 -1      2236    3    0    1
 -2      3566      3520      3638      3404
 -1      2237    3    0    1
 -2      2234      1956      2317      2336
 -1      2238    3    0    1
 -2      2783      2727      1782      3679
 -1      2239    3    0    1
 -2       242      2029      2200      2235
 -1      2240    3    0    1
 -2        27      1175        28       556
 -1      2241    3    0    1
 -2        27       560       103       910
 -1      2242    3    0    1
 -2       560        27       551       910
 -1      2243    3    0    1
 -2       481       784      1054      1178
 -1      2244    3    0    1
 -2       784       796      1054      1178
 -1      2245    3    0    1
 -2       548        29       547       912
 -1      2246    3    0    1
 -2       550      1177        30       557
 -1      2247    3    0    1
 -2       480       943       479       912
 -1      2248    3    0    1
 -2       317      2202      2222      2485
 -1      2249    3    0    1
 -2        52       813        53      1217
 -1      2250    3    0    1
 -2        38       794       256       913
 -1      2251    3    0    1
 -2       794        38       787       913
 -1      2252    3    0    1
 -2       118       114       575      1186
 -1      2253    3    0    1
 -2       486      1291      1187       574
 -1      2254    3    0    1
 -2       569        34       580       915
 -1      2255    3    0    1
 -2       114        34       569       915
 -1      2256    3    0    1
 -2       587       598       960      1188
 -1      2257    3    0    1
 -2       117       578       120       916
 -1      2258    3    0    1
 -2       578       117       570       916
 -1      2259    3    0    1
 -2        23      1190       131       591
 -1      2260    3    0    1
 -2        23       596       137       917
 -1      2261    3    0    1
 -2       596        23       588       917
 -1      2262    3    0    1
 -2       353       958      1932      2424
 -1      2263    3    0    1
 -2       920      1328      1042       496
 -1      2264    3    0    1
 -2       238       764       920      1202
 -1      2265    3    0    1
 -2       766        56       773      1203
 -1      2266    3    0    1
 -2       497      1042       496       920
 -1      2267    3    0    1
 -2      1360       431      2075      2230
 -1      2268    3    0    1
 -2      1814      1813      3327      3382
 -1      2269    3    0    1
 -2      1014       712      1320      2367
 -1      2270    3    0    1
 -2       502      1065       819       826
 -1      2271    3    0    1
 -2       661      1308       990      3169
 -1      2272    3    0    1
 -2      1341       922       820      1212
 -1      2273    3    0    1
 -2       922      1341      1065       503
 -1      2274    3    0    1
 -2       503      1068       502       923
 -1      2275    3    0    1
 -2      1530      3548      1828      3368
 -1      2276    3    0    1
 -2        51        49       805      1215
 -1      2277    3    0    1
 -2       812       805      1064      1215
 -1      2278    3    0    1
 -2      2267       810      2285      2296
 -1      2279    3    0    1
 -2      1994      1943      2096      2260
 -1      2280    3    0    1
 -2       526       766      1045      1250
 -1      2281    3    0    1
 -2       511       769       772      1221
 -1      2282    3    0    1
 -2       772       775      1043      1221
 -1      2283    3    0    1
 -2       818       274       363      1338
 -1      2284    3    0    1
 -2        55      1219       264       800
 -1      2285    3    0    1
 -2       940       109      2365      2414
 -1      2286    3    0    1
 -2        38        37       787       928
 -1      2287    3    0    1
 -2        38       787       913       928
 -1      2288    3    0    1
 -2       793        37       262       928
 -1      2289    3    0    1
 -2        37       793       790       928
 -1      2290    3    0    1
 -2        39       795       257       929
 -1      2291    3    0    1
 -2       795        39       791       929
 -1      2292    3    0    1
 -2        56      1250       247       766
 -1      2293    3    0    1
 -2        56       777       246       930
 -1      2294    3    0    1
 -2       777        56       773       930
 -1      2295    3    0    1
 -2       971       623      1233      1236
 -1      2296    3    0    1
 -2       623        66      1233      1236
 -1      2297    3    0    1
 -2      2474      2290      3499      3631
 -1      2298    3    0    1
 -2      1457      1650      1651      2763
 -1      2299    3    0    1
 -2        85      1260       730       933
 -1      2300    3    0    1
 -2        85      1260       223       730
 -1      2301    3    0    1
 -2        85       741       221       933
 -1      2302    3    0    1
 -2       741        85       737       933
 -1      2303    3    0    1
 -2       675        91        92      1271
 -1      2304    3    0    1
 -2       538       997       537       934
 -1      2305    3    0    1
 -2       696        11       700      1275
 -1      2306    3    0    1
 -2       700       703      1009      1275
 -1      2307    3    0    1
 -2       288       289      2096      2350
 -1      2308    3    0    1
 -2        94      1277       695       936
 -1      2309    3    0    1
 -2        94      1277       202       695
 -1      2310    3    0    1
 -2        94       705       204       936
 -1      2311    3    0    1
 -2       705        94       701       936
 -1      2312    3    0    1
 -2       713       719      1014      1280
 -1      2313    3    0    1
 -2        85       730       937      1279
 -1      2314    3    0    1
 -2       730        85       737      1279
 -1      2315    3    0    1
 -2       746       325      1034      1324
 -1      2316    3    0    1
 -2      2689      2697      2752      3622
 -1      2317    3    0    1
 -2       710        97       711       939
 -1      2318    3    0    1
 -2        99       940      1286      2414
 -1      2319    3    0    1
 -2      1316      1992      2185      2190
 -1      2320    3    0    1
 -2       837      1348      1077      2158
 -1      2321    3    0    1
 -2      1117       314      1973      2193
 -1      2322    3    0    1
 -2      1934      1941      2071      2170
 -1      2323    3    0    1
 -2       291      1351      1350      2201
 -1      2324    3    0    1
 -2       484       576       568      1287
 -1      2325    3    0    1
 -2       566       356       951      1287
 -1      2326    3    0    1
 -2      2211      2297      2360      3178
 -1      2327    3    0    1
 -2      1338      1068       819      2272
 -1      2328    3    0    1
 -2      1058      2332      2093      3067
 -1      2329    3    0    1
 -2      2027      1991      2105      2322
 -1      2330    3    0    1
 -2       175       402       989      2135
 -1      2331    3    0    1
 -2      1319       316      3601      3704
 -1      2332    3    0    1
 -2       810       803      1060      2296
 -1      2333    3    0    1
 -2       417      1966      2050      2206
 -1      2334    3    0    1
 -2      1026       738      2036      2047
 -1      2335    3    0    1
 -2      2043      1951      2126      2216
 -1      2336    3    0    1
 -2       211       398      1014      2367
 -1      2337    3    0    1
 -2       477       947       551       910
 -1      2338    3    0    1
 -2       282      1072      2391      1917
 -1      2339    3    0    1
 -2      3695      1072      1916      1917
 -1      2340    3    0    1
 -2       282       821      1072      1917
 -1      2341    3    0    1
 -2       971       622      2098      2348
 -1      2342    3    0    1
 -2      1959      2089      2129      2287
 -1      2343    3    0    1
 -2       550       557       563       945
 -1      2344    3    0    1
 -2       550        99       557       945
 -1      2345    3    0    1
 -2       850      1396       884      2345
 -1      2346    3    0    1
 -2       561       104       360       945
 -1      2347    3    0    1
 -2       104       561       557       945
 -1      2348    3    0    1
 -2        99       562       109       946
 -1      2349    3    0    1
 -2       562        99       550       946
 -1      2350    3    0    1
 -2      1047       369      2141      2172
 -1      2351    3    0    1
 -2        98      2175      2212      2276
 -1      2352    3    0    1
 -2      2104      1338      2237      2418
 -1      2353    3    0    1
 -2       274      2037      2101      2104
 -1      2354    3    0    1
 -2      1955      1086       362      2065
 -1      2355    3    0    1
 -2       398      1019      1020      2187
 -1      2356    3    0    1
 -2      1291       119      3735      1929
 -1      2357    3    0    1
 -2      1008      2081      2082      2337
 -1      2358    3    0    1
 -2       816       831      1063      2444
 -1      2359    3    0    1
 -2      1487      1488      1547      2620
 -1      2360    3    0    1
 -2      2997      3571      3247      3669
 -1      2361    3    0    1
 -2      1300       348      2001      2358
 -1      2362    3    0    1
 -2      1060      1956      2285      2296
 -1      2363    3    0    1
 -2      1320       210      2226      2342
 -1      2364    3    0    1
 -2      3183      3198      3221      3673
 -1      2365    3    0    1
 -2       368      1956      2068      2285
 -1      2366    3    0    1
 -2      1492      1491      1632      2750
 -1      2367    3    0    1
 -2       248       331      1044      2306
 -1      2368    3    0    1
 -2      1957      2068      1986      2172
 -1      2369    3    0    1
 -2       569       575       581       952
 -1      2370    3    0    1
 -2       569       116       575       952
 -1      2371    3    0    1
 -2       569       581       582       952
 -1      2372    3    0    1
 -2       960      2244      2425      2435
 -1      2373    3    0    1
 -2       579       122       382       952
 -1      2374    3    0    1
 -2       122       579       575       952
 -1      2375    3    0    1
 -2      3503       954      1909      1910
 -1      2376    3    0    1
 -2       191       183      1003      2144
 -1      2377    3    0    1
 -2       581      1291      2409      3442
 -1      2378    3    0    1
 -2      2146       581      2409      3442
 -1      2379    3    0    1
 -2       606       965      1163      1297
 -1      2380    3    0    1
 -2      1290       568       576      2197
 -1      2381    3    0    1
 -2       482       483       586       955
 -1      2382    3    0    1
 -2       588       132       961      1296
 -1      2383    3    0    1
 -2       867       879      1984      2227
 -1      2384    3    0    1
 -2      1947      1993      2108      2149
 -1      2385    3    0    1
 -2       587        32      1180      1181
 -1      2386    3    0    1
 -2       599       588       961      1296
 -1      2387    3    0    1
 -2      2075      1979      2230      2352
 -1      2388    3    0    1
 -2      2570      2484      2650      3554
 -1      2389    3    0    1
 -2      1125       300      1374      2287
 -1      2390    3    0    1
 -2      2226      2326      2342      2408
 -1      2391    3    0    1
 -2      2181      2210      2217      2401
 -1      2392    3    0    1
 -2       585       125       353       958
 -1      2393    3    0    1
 -2       125       585       584       958
 -1      2394    3    0    1
 -2       483      1292      1182       482
 -1      2395    3    0    1
 -2       666       992      2247      2426
 -1      2396    3    0    1
 -2      1403       305       443      2288
 -1      2397    3    0    1
 -2       354       135       593       959
 -1      2398    3    0    1
 -2       593       135       597       959
 -1      2399    3    0    1
 -2      1345      1076      1990      2120
 -1      2400    3    0    1
 -2       587       599       600       960
 -1      2401    3    0    1
 -2       126       598       134       960
 -1      2402    3    0    1
 -2       598       126       587       960
 -1      2403    3    0    1
 -2      2509      2808      3567      3658
 -1      2404    3    0    1
 -2      3536       139      1804      1805
 -1      2405    3    0    1
 -2       967       144      3536      1805
 -1      2406    3    0    1
 -2       286      1073      1074      2143
 -1      2407    3    0    1
 -2       386       139      3536      1805
 -1      2408    3    0    1
 -2      2569      3108      3273      3413
 -1      2409    3    0    1
 -2       142       385       602       962
 -1      2410    3    0    1
 -2       142       602       603       962
 -1      2411    3    0    1
 -2       470       609       617       967
 -1      2412    3    0    1
 -2      2848      2644      3167      3688
 -1      2413    3    0    1
 -2       466       604       612       963
 -1      2414    3    0    1
 -2      1983      2039      2240      2336
 -1      2415    3    0    1
 -2       385      1940      2032      2338
 -1      2416    3    0    1
 -2       602       603       962      1159
 -1      2417    3    0    1
 -2      2094      2074      2350      2363
 -1      2418    3    0    1
 -2       149       605       611      1299
 -1      2419    3    0    1
 -2       394       156       629      1303
 -1      2420    3    0    1
 -2       272      1063      2447      2452
 -1      2421    3    0    1
 -2      1500      1499      1649      3156
 -1      2422    3    0    1
 -2      1986      1957      2040      2340
 -1      2423    3    0    1
 -2      1371       447       448      2382
 -1      2424    3    0    1
 -2      3006       608      3560      3214
 -1      2425    3    0    1
 -2      1025      1254      1321      2480
 -1      2426    3    0    1
 -2      1998      1976      2046      2163
 -1      2427    3    0    1
 -2      3590      3520      3619      3627
 -1      2428    3    0    1
 -2       815      1061      1064      2364
 -1      2429    3    0    1
 -2      1637      1636      1655      2981
 -1      2430    3    0    1
 -2       604       467       466       966
 -1      2431    3    0    1
 -2       467       604       962       966
 -1      2432    3    0    1
 -2       279       282      1072      2085
 -1      2433    3    0    1
 -2      1016       717      2274      2275
 -1      2434    3    0    1
 -2      1746      3093      3675      3459
 -1      2435    3    0    1
 -2      3544      3569      3594      3604
 -1      2436    3    0    1
 -2      2132      2330      2423      2438
 -1      2437    3    0    1
 -2      2034       419      2124      2273
 -1      2438    3    0    1
 -2       615       149       151       968
 -1      2439    3    0    1
 -2       149       615       611       968
 -1      2440    3    0    1
 -2      2186       549      2249      2365
 -1      2441    3    0    1
 -2       150       149       605       969
 -1      2442    3    0    1
 -2       605       611       618       969
 -1      2443    3    0    1
 -2       968       617       611       969
 -1      2444    3    0    1
 -2       611       617       618       969
 -1      2445    3    0    1
 -2       605       149       611       969
 -1      2446    3    0    1
 -2       611       149       968       969
 -1      2447    3    0    1
 -2       150       616       344       969
 -1      2448    3    0    1
 -2       616       150       605       969
 -1      2449    3    0    1
 -2       217      2006      2147      2399
 -1      2450    3    0    1
 -2      1299       963       612      2245
 -1      2451    3    0    1
 -2       397      2106      2142      2279
 -1      2452    3    0    1
 -2       409       170       660      1307
 -1      2453    3    0    1
 -2       849      1395       883      2005
 -1      2454    3    0    1
 -2      2191       344      2245      2246
 -1      2455    3    0    1
 -2      2050       419      2239      2273
 -1      2456    3    0    1
 -2       522      1240      2540      2643
 -1      2457    3    0    1
 -2       187       190      1002      2125
 -1      2458    3    0    1
 -2      2544       396      3519      3588
 -1      2459    3    0    1
 -2       708       707      1012      2188
 -1      2460    3    0    1
 -2       311      1115      1087      2174
 -1      2461    3    0    1
 -2       520      1300       517       622
 -1      2462    3    0    1
 -2      3516      2694      2902      3553
 -1      2463    3    0    1
 -2       520      1300      1237       517
 -1      2464    3    0    1
 -2      1625      1469      1626      2838
 -1      2465    3    0    1
 -2      1996      1967      2021      2238
 -1      2466    3    0    1
 -2      3502       970      1904      1905
 -1      2467    3    0    1
 -2       623       629       635       976
 -1      2468    3    0    1
 -2       623       156       629       976
 -1      2469    3    0    1
 -2       642       327       645      1304
 -1      2470    3    0    1
 -2       163       351       647       985
 -1      2471    3    0    1
 -2       624       516       636       978
 -1      2472    3    0    1
 -2       623      1238       516       629
 -1      2473    3    0    1
 -2       516       623       977      1231
 -1      2474    3    0    1
 -2       394       393       629       976
 -1      2475    3    0    1
 -2       629       393       633       976
 -1      2476    3    0    1
 -2       635       623       976       977
 -1      2477    3    0    1
 -2       623       635       636       977
 -1      2478    3    0    1
 -2       156       634       345       977
 -1      2479    3    0    1
 -2       634       156       623       977
 -1      2480    3    0    1
 -2       178       326       986      2205
 -1      2481    3    0    1
 -2       396       347      3588      1890
 -1      2482    3    0    1
 -2      2138      1942      2165      2410
 -1      2483    3    0    1
 -2      2544       396      3588      1890
 -1      2484    3    0    1
 -2       464       645       653       984
 -1      2485    3    0    1
 -2       365      1056      2219      2240
 -1      2486    3    0    1
 -2       396       327       645       984
 -1      2487    3    0    1
 -2       649       645       984      1890
 -1      2488    3    0    1
 -2       606        18       609      1155
 -1      2489    3    0    1
 -2      2612      1449      2731      3208
 -1      2490    3    0    1
 -2       997       183      2144      2160
 -1      2491    3    0    1
 -2      2581      2395      3733      3735
 -1      2492    3    0    1
 -2      1388       299      1372      2164
 -1      2493    3    0    1
 -2       380       100      3733      3735
 -1      2494    3    0    1
 -2       659       175       989      1309
 -1      2495    3    0    1
 -2      1965       325      2162      2362
 -1      2496    3    0    1
 -2      1258      1307      2562      2663
 -1      2497    3    0    1
 -2      1943      2096      2260      2350
 -1      2498    3    0    1
 -2      2532      2672      3516      3553
 -1      2499    3    0    1
 -2      2028      1998      2120      2206
 -1      2500    3    0    1
 -2       974       630      2314      2349
 -1      2501    3    0    1
 -2       639       979       983      1243
 -1      2502    3    0    1
 -2       162       638       639       983
 -1      2503    3    0    1
 -2       162       639       979       983
 -1      2504    3    0    1
 -2       645       642       653       984
 -1      2505    3    0    1
 -2      1984      1972      2128      2214
 -1      2506    3    0    1
 -2       369      1935      2141      2312
 -1      2507    3    0    1
 -2      2014      1935      2040      2312
 -1      2508    3    0    1
 -2       823       806      1058      2093
 -1      2509    3    0    1
 -2      2982      3598      3599      3448
 -1      2510    3    0    1
 -2      2982      3182      3598      3448
 -1      2511    3    0    1
 -2      1738      3014      3039      1891
 -1      2512    3    0    1
 -2      1347      1346      2096      2253
 -1      2513    3    0    1
 -2       351       349       647       985
 -1      2514    3    0    1
 -2       647       349       651       985
 -1      2515    3    0    1
 -2      1944      2062      2075      2352
 -1      2516    3    0    1
 -2       652       163       641       986
 -1      2517    3    0    1
 -2       653       642       654       987
 -1      2518    3    0    1
 -2      1478      1477      1660      3150
 -1      2519    3    0    1
 -2      3501      1410      1529      3718
 -1      2520    3    0    1
 -2       659       175       665       994
 -1      2521    3    0    1
 -2       659       665       671       994
 -1      2522    3    0    1
 -2       663       660       671       993
 -1      2523    3    0    1
 -2       658       992       988       539
 -1      2524    3    0    1
 -2       540       539       658       988
 -1      2525    3    0    1
 -2       403       656       657       988
 -1      2526    3    0    1
 -2       170       660       663       993
 -1      2527    3    0    1
 -2       733      1025      1254      1321
 -1      2528    3    0    1
 -2       539      1274       935       988
 -1      2529    3    0    1
 -2       539       540       658       989
 -1      2530    3    0    1
 -2       989       659      1272      1273
 -1      2531    3    0    1
 -2       658      1309       666       539
 -1      2532    3    0    1
 -2       671       672       995      2041
 -1      2533    3    0    1
 -2       674      1000      1271      1310
 -1      2534    3    0    1
 -2       162       350       983      1945
 -1      2535    3    0    1
 -2      1326       753      2116      2236
 -1      2536    3    0    1
 -2        82      1258       660      1256
 -1      2537    3    0    1
 -2       336       106      3695      1916
 -1      2538    3    0    1
 -2      1951      2005      2126      2216
 -1      2539    3    0    1
 -2       345       971      2098      2348
 -1      2540    3    0    1
 -2       398       211      2187      2367
 -1      2541    3    0    1
 -2      1986      2040      2266      2340
 -1      2542    3    0    1
 -2      1302      3498      3589      3629
 -1      2543    3    0    1
 -2       455       663       671       993
 -1      2544    3    0    1
 -2       959       135      2269      2441
 -1      2545    3    0    1
 -2      1114      2154      2157      2164
 -1      2546    3    0    1
 -2      1719      3052      3281      3285
 -1      2547    3    0    1
 -2       985       654       986      2115
 -1      2548    3    0    1
 -2      1056      2296      2327      2443
 -1      2549    3    0    1
 -2       327       987      3518      1799
 -1      2550    3    0    1
 -2       166       327      3518      1799
 -1      2551    3    0    1
 -2       642       650       987      1799
 -1      2552    3    0    1
 -2       456       659       995      1143
 -1      2553    3    0    1
 -2       660       456       672       996
 -1      2554    3    0    1
 -2       669       175       178       994
 -1      2555    3    0    1
 -2       175       669       665       994
 -1      2556    3    0    1
 -2       659       175       994       995
 -1      2557    3    0    1
 -2       738      1026      2036      2300
 -1      2558    3    0    1
 -2       997      2144      2152      2160
 -1      2559    3    0    1
 -2      1950       359      2175      2216
 -1      2560    3    0    1
 -2       402       670       404       995
 -1      2561    3    0    1
 -2       670       402       659       995
 -1      2562    3    0    1
 -2      3521      2687      3671      3738
 -1      2563    3    0    1
 -2       604       963      2097      2161
 -1      2564    3    0    1
 -2       157       158       973      2192
 -1      2565    3    0    1
 -2       681       679       999      2333
 -1      2566    3    0    1
 -2      1997      1947      2149      2155
 -1      2567    3    0    1
 -2      1292       125      1932      2286
 -1      2568    3    0    1
 -2       187       183       683      1313
 -1      2569    3    0    1
 -2       243      1041      1329      2284
 -1      2570    3    0    1
 -2      3052      1719      1802      1803
 -1      2571    3    0    1
 -2      1369       446      2079      2198
 -1      2572    3    0    1
 -2      1499      1500      1658      2768
 -1      2573    3    0    1
 -2      2014      1958      2287      2340
 -1      2574    3    0    1
 -2       999      1151      1153      2637
 -1      2575    3    0    1
 -2       681       999      2090      2565
 -1      2576    3    0    1
 -2      1029       744      2329      2439
 -1      2577    3    0    1
 -2       719       534      1019      1264
 -1      2578    3    0    1
 -2       538      1310      1000       676
 -1      2579    3    0    1
 -2       415      2292      2521      3731
 -1      2580    3    0    1
 -2       163       326      2189      2221
 -1      2581    3    0    1
 -2      1317      2268       197       201
 -1      2582    3    0    1
 -2       162       979      2149      2398
 -1      2583    3    0    1
 -2      1053       797      2270      2301
 -1      2584    3    0    1
 -2        77      1511      1512      3484
 -1      2585    3    0    1
 -2      1577      3419      3467      3484
 -1      2586    3    0    1
 -2       546      1320       545       720
 -1      2587    3    0    1
 -2      1042       242      2200      2209
 -1      2588    3    0    1
 -2       687       187       190      1002
 -1      2589    3    0    1
 -2       187       687       683      1002
 -1      2590    3    0    1
 -2      1334      2278      2366      2389
 -1      2591    3    0    1
 -2       677       183       683      1003
 -1      2592    3    0    1
 -2       677       683       690      1003
 -1      2593    3    0    1
 -2       689       683      1002      1003
 -1      2594    3    0    1
 -2       683       689       690      1003
 -1      2595    3    0    1
 -2       183       187       683      1003
 -1      2596    3    0    1
 -2       683       187      1002      1003
 -1      2597    3    0    1
 -2       183       688       191      1003
 -1      2598    3    0    1
 -2      1116       867      1106      2227
 -1      2599    3    0    1
 -2       688       183       677      1003
 -1      2600    3    0    1
 -2      2141      2068      2172      2312
 -1      2601    3    0    1
 -2      1124      2266      2340      2438
 -1      2602    3    0    1
 -2      1005       695      1267      1268
 -1      2603    3    0    1
 -2      1017       401      2034      2326
 -1      2604    3    0    1
 -2       694      1317       702       535
 -1      2605    3    0    1
 -2      1317       201       197       695
 -1      2606    3    0    1
 -2      3512      1749      3723      3728
 -1      2607    3    0    1
 -2       197       695       701      1317
 -1      2608    3    0    1
 -2      2212        98      2276      2413
 -1      2609    3    0    1
 -2      2364      1064      2444      2594
 -1      2610    3    0    1
 -2      1941      2054      2071      2183
 -1      2611    3    0    1
 -2       617       618       969      2191
 -1      2612    3    0    1
 -2        11      1145       696       899
 -1      2613    3    0    1
 -2       695        94       701      1267
 -1      2614    3    0    1
 -2       153       395      3570      3611
 -1      2615    3    0    1
 -2      1495      1537      1538      2960
 -1      2616    3    0    1
 -2       408      1937      1995      2035
 -1      2617    3    0    1
 -2      1307      2090      2565      3441
 -1      2618    3    0    1
 -2      1327       232      2254      2334
 -1      2619    3    0    1
 -2       678       686      1004      1923
 -1      2620    3    0    1
 -2      3732      1004      1922      1923
 -1      2621    3    0    1
 -2       695       701       707      1010
 -1      2622    3    0    1
 -2       695       197       701      1010
 -1      2623    3    0    1
 -2       695       706      1011      1277
 -1      2624    3    0    1
 -2       534       714       718      1265
 -1      2625    3    0    1
 -2       282      1067      1339      2355
 -1      2626    3    0    1
 -2       705       197       414      1010
 -1      2627    3    0    1
 -2       197       705       701      1010
 -1      2628    3    0    1
 -2       695       707       708      1011
 -1      2629    3    0    1
 -2       201       197       695      1011
 -1      2630    3    0    1
 -2       695       197      1010      1011
 -1      2631    3    0    1
 -2      1351       839      1350      2201
 -1      2632    3    0    1
 -2      1022       731      2105      2300
 -1      2633    3    0    1
 -2       292      1078      1359      2088
 -1      2634    3    0    1
 -2       201       706       416      1011
 -1      2635    3    0    1
 -2       706       201       695      1011
 -1      2636    3    0    1
 -2       345       349      2098      2231
 -1      2637    3    0    1
 -2       398       211       713      1019
 -1      2638    3    0    1
 -2       718       317      1018      1915
 -1      2639    3    0    1
 -2       534       718       725      1018
 -1      2640    3    0    1
 -2       545       546       720      1013
 -1      2641    3    0    1
 -2       317       208       718      1018
 -1      2642    3    0    1
 -2       546      1017       720      1013
 -1      2643    3    0    1
 -2      2115       653      2243      2417
 -1      2644    3    0    1
 -2       823      1058      1340      2093
 -1      2645    3    0    1
 -2      1100      1403      2077      2288
 -1      2646    3    0    1
 -2       448       447      1080      1953
 -1      2647    3    0    1
 -2      1397       852      1082      1982
 -1      2648    3    0    1
 -2       986       654      2205      2291
 -1      2649    3    0    1
 -2       416       201      1011      2268
 -1      2650    3    0    1
 -2       969       976      2246      2393
 -1      2651    3    0    1
 -2      2701      2855      3265      3636
 -1      2652    3    0    1
 -2      1449      2612      2731      2794
 -1      2653    3    0    1
 -2      1994      2158      2252      2253
 -1      2654    3    0    1
 -2      2626      1497      2724      3523
 -1      2655    3    0    1
 -2      1010       197      2042      2268
 -1      2656    3    0    1
 -2       909       475      1171      2599
 -1      2657    3    0    1
 -2      2920      3187      3240      3687
 -1      2658    3    0    1
 -2       718       714       725      1018
 -1      2659    3    0    1
 -2      2058      2012      2060      2232
 -1      2660    3    0    1
 -2       419       417      1314      2113
 -1      2661    3    0    1
 -2       841      1355       842      2114
 -1      2662    3    0    1
 -2      1942      2017      2165      2410
 -1      2663    3    0    1
 -2      1329      2508      2781      3696
 -1      2664    3    0    1
 -2       653       636       984      2243
 -1      2665    3    0    1
 -2      2059      1934      2071      2170
 -1      2666    3    0    1
 -2      1072       944      3695      1916
 -1      2667    3    0    1
 -2       716      1509      3475      3483
 -1      2668    3    0    1
 -2       713       725       726      1019
 -1      2669    3    0    1
 -2      2454      2355      2560      3537
 -1      2670    3    0    1
 -2       211       210       719      1019
 -1      2671    3    0    1
 -2       719       210       723      1019
 -1      2672    3    0    1
 -2       860      1095      2058      2060
 -1      2673    3    0    1
 -2       724       398       713      1020
 -1      2674    3    0    1
 -2       725       714       726      1021
 -1      2675    3    0    1
 -2       128       424      1797      3703
 -1      2676    3    0    1
 -2      3578       128      3631      3703
 -1      2677    3    0    1
 -2      3566      3539      3631      3703
 -1      2678    3    0    1
 -2       737       741       933      1028
 -1      2679    3    0    1
 -2       191       997      2144      2337
 -1      2680    3    0    1
 -2       544      1026       543       938
 -1      2681    3    0    1
 -2       217       728       729      1022
 -1      2682    3    0    1
 -2       747       325       746      1324
 -1      2683    3    0    1
 -2      1297       965      2242      2450
 -1      2684    3    0    1
 -2      1966       419      2124      2310
 -1      2685    3    0    1
 -2      1582      1581      2878      3040
 -1      2686    3    0    1
 -2       437       436      1130      2204
 -1      2687    3    0    1
 -2      2226      1320      2367      2383
 -1      2688    3    0    1
 -2      1778      1620      1779      3245
 -1      2689    3    0    1
 -2       725       726      1019      2187
 -1      2690    3    0    1
 -2      3558      2875      3451      3727
 -1      2691    3    0    1
 -2      2470      2545      3641      3670
 -1      2692    3    0    1
 -2       717      1318       715      2597
 -1      2693    3    0    1
 -2       807      1335      1059      2093
 -1      2694    3    0    1
 -2      1306       648      2098      2248
 -1      2695    3    0    1
 -2       336       100       944      2304
 -1      2696    3    0    1
 -2       493      1197      2678      2789
 -1      2697    3    0    1
 -2       543       731      1022      1026
 -1      2698    3    0    1
 -2      3524      1635      3532      3050
 -1      2699    3    0    1
 -2      1944      2051      2062      2218
 -1      2700    3    0    1
 -2      1113       853      1084      2150
 -1      2701    3    0    1
 -2      1946       162      2155      2341
 -1      2702    3    0    1
 -2      1903      3709       218      3507
 -1      2703    3    0    1
 -2       218      3507      1902      1903
 -1      2704    3    0    1
 -2       730       737       743      1028
 -1      2705    3    0    1
 -2       730       216       737      1028
 -1      2706    3    0    1
 -2       201       416      2168      2268
 -1      2707    3    0    1
 -2       741       222       321      1028
 -1      2708    3    0    1
 -2       222       741       737      1028
 -1      2709    3    0    1
 -2      2219      1954      2240      2324
 -1      2710    3    0    1
 -2       730       743       744      1029
 -1      2711    3    0    1
 -2       216       742       379      1029
 -1      2712    3    0    1
 -2       742       216       730      1029
 -1      2713    3    0    1
 -2       743       733       744      1030
 -1      2714    3    0    1
 -2      1967      2077      2238      2362
 -1      2715    3    0    1
 -2      1976      1990      1998      2206
 -1      2716    3    0    1
 -2      1948      2150      2255      2434
 -1      2717    3    0    1
 -2       210       211      1320      2383
 -1      2718    3    0    1
 -2      1117       312       314      2193
 -1      2719    3    0    1
 -2       515       514       756      1031
 -1      2720    3    0    1
 -2      2993      2461      3068      3638
 -1      2721    3    0    1
 -2       329       427      2949      1908
 -1      2722    3    0    1
 -2      1980      2033      2057      2070
 -1      2723    3    0    1
 -2       232       748       755      1327
 -1      2724    3    0    1
 -2       156       394       976      1936
 -1      2725    3    0    1
 -2       644       637      1519      2757
 -1      2726    3    0    1
 -2      1310       413      1961      2082
 -1      2727    3    0    1
 -2      3527      2748      2949      3247
 -1      2728    3    0    1
 -2      2133       995      2316      2320
 -1      2729    3    0    1
 -2      1722      1475      1723      3212
 -1      2730    3    0    1
 -2      1112       872      2007      2073
 -1      2731    3    0    1
 -2      1414      1413      1484      2489
 -1      2732    3    0    1
 -2      2592      2591      3549      3137
 -1      2733    3    0    1
 -2      3614      1435      3722      3740
 -1      2734    3    0    1
 -2       514      1324      1034       749
 -1      2735    3    0    1
 -2      1593      1527      1594      3103
 -1      2736    3    0    1
 -2       333       267      2364      2515
 -1      2737    3    0    1
 -2      1997      1946      2155      2341
 -1      2738    3    0    1
 -2       497      1331       496       774
 -1      2739    3    0    1
 -2      2552      1033      3440      3745
 -1      2740    3    0    1
 -2      1321      2552      3440      3745
 -1      2741    3    0    1
 -2       220       322      3734      3745
 -1      2742    3    0    1
 -2      1466      1465      1504      2822
 -1      2743    3    0    1
 -2       780      2306      2384      2387
 -1      2744    3    0    1
 -2       759       232       324      1036
 -1      2745    3    0    1
 -2       232       759       755      1036
 -1      2746    3    0    1
 -2       233       232       748      1037
 -1      2747    3    0    1
 -2       748       755       762      1037
 -1      2748    3    0    1
 -2      1036       761       755      1037
 -1      2749    3    0    1
 -2       755       761       762      1037
 -1      2750    3    0    1
 -2       748       232       755      1037
 -1      2751    3    0    1
 -2       755       232      1036      1037
 -1      2752    3    0    1
 -2       233       760       375      1037
 -1      2753    3    0    1
 -2       353       958      2059      2170
 -1      2754    3    0    1
 -2       760       233       748      1037
 -1      2755    3    0    1
 -2       751      1033      1224      1325
 -1      2756    3    0    1
 -2      3493      3504      2558      2487
 -1      2757    3    0    1
 -2      1992      1315      3410      3699
 -1      2758    3    0    1
 -2       660       991      1258      1307
 -1      2759    3    0    1
 -2      2493      3526      3528      3680
 -1      2760    3    0    1
 -2      1002       689      1003      2308
 -1      2761    3    0    1
 -2       821       500      1072      1207
 -1      2762    3    0    1
 -2       735      2116      2274      2798
 -1      2763    3    0    1
 -2      1956       368      2234      2317
 -1      2764    3    0    1
 -2      1011      1010      2042      2268
 -1      2765    3    0    1
 -2      2037      2104      2237      2418
 -1      2766    3    0    1
 -2       679       998      1316      2185
 -1      2767    3    0    1
 -2       494       495       771      1041
 -1      2768    3    0    1
 -2      2259       568      2380      2403
 -1      2769    3    0    1
 -2      3520      3499      3539      3638
 -1      2770    3    0    1
 -2       247        56       766      1199
 -1      2771    3    0    1
 -2       769       243      1041      1329
 -1      2772    3    0    1
 -2      1541      1542      2839      3332
 -1      2773    3    0    1
 -2       249      1039      2084      2366
 -1      2774    3    0    1
 -2       751       758      1038      1882
 -1      2775    3    0    1
 -2      3582      1038      1881      1882
 -1      2776    3    0    1
 -2       376       227      3582      1882
 -1      2777    3    0    1
 -2       766       248       773      1044
 -1      2778    3    0    1
 -2       784       791       797      1053
 -1      2779    3    0    1
 -2       769       526       780      1046
 -1      2780    3    0    1
 -2       766       778      1045      1250
 -1      2781    3    0    1
 -2       331       245       773      1044
 -1      2782    3    0    1
 -2       773       245       777      1044
 -1      2783    3    0    1
 -2      2058      2012      2232      2335
 -1      2784    3    0    1
 -2       779       766      1044      1045
 -1      2785    3    0    1
 -2       766       779       780      1045
 -1      2786    3    0    1
 -2      1977      2007      2073      2224
 -1      2787    3    0    1
 -2       233       232      1037      2145
 -1      2788    3    0    1
 -2       248       778       249      1045
 -1      2789    3    0    1
 -2       778       248       766      1045
 -1      2790    3    0    1
 -2      1932       125      2210      2217
 -1      2791    3    0    1
 -2       779       769       780      1046
 -1      2792    3    0    1
 -2      1052      3497      1899      1900
 -1      2793    3    0    1
 -2       790       254      1052      1900
 -1      2794    3    0    1
 -2      1052       254      3497      1900
 -1      2795    3    0    1
 -2       254       371      3696      1900
 -1      2796    3    0    1
 -2       793       790       928      1052
 -1      2797    3    0    1
 -2      2058      1126      2060      2356
 -1      2798    3    0    1
 -2       490       491      1047      1192
 -1      2799    3    0    1
 -2      2053      1942      2138      2252
 -1      2800    3    0    1
 -2      1027       219      2148      2307
 -1      2801    3    0    1
 -2       344       150      2191      2245
 -1      2802    3    0    1
 -2      2854      2898      2972      3561
 -1      2803    3    0    1
 -2      2563      2924      3645      3705
 -1      2804    3    0    1
 -2      1348       837       838      2158
 -1      2805    3    0    1
 -2      1318      2202      2274      2495
 -1      2806    3    0    1
 -2      3006      2869      3022      3560
 -1      2807    3    0    1
 -2      1095      1985      2058      2060
 -1      2808    3    0    1
 -2      1413      3280      3346      3677
 -1      2809    3    0    1
 -2      2595      2442      2767      3529
 -1      2810    3    0    1
 -2      2492      2523      3577      3687
 -1      2811    3    0    1
 -2       564      2146      2379      2416
 -1      2812    3    0    1
 -2       369       783      1047      1051
 -1      2813    3    0    1
 -2       254       787       790      1052
 -1      2814    3    0    1
 -2       790       787       797      1052
 -1      2815    3    0    1
 -2       254       334       787      1052
 -1      2816    3    0    1
 -2      1056       365      1060      1956
 -1      2817    3    0    1
 -2       481      1055       787       913
 -1      2818    3    0    1
 -2      1016      1315      1992      3699
 -1      2819    3    0    1
 -2      1016      1992      2275      3699
 -1      2820    3    0    1
 -2      1315       193      3410      3699
 -1      2821    3    0    1
 -2       784       797       798      1053
 -1      2822    3    0    1
 -2      2002      2008      2078      2107
 -1      2823    3    0    1
 -2       795       258       370      1053
 -1      2824    3    0    1
 -2       258       795       791      1053
 -1      2825    3    0    1
 -2       789       770      2331      2451
 -1      2826    3    0    1
 -2       796       259       784      1054
 -1      2827    3    0    1
 -2      1510      1509      2575      3435
 -1      2828    3    0    1
 -2      1313       190      2125      2140
 -1      2829    3    0    1
 -2       265       266       809      1062
 -1      2830    3    0    1
 -2       379       216      1029      2439
 -1      2831    3    0    1
 -2       267       805       808      1061
 -1      2832    3    0    1
 -2       509      1060       508       927
 -1      2833    3    0    1
 -2      1381      1998      2046      2163
 -1      2834    3    0    1
 -2       333       267       808      1061
 -1      2835    3    0    1
 -2       797       798      2270      2301
 -1      2836    3    0    1
 -2      1991       756      2027      2195
 -1      2837    3    0    1
 -2       923      1338       502      1211
 -1      2838    3    0    1
 -2       267       333       808      1059
 -1      2839    3    0    1
 -2       277      1724      3291      1870
 -1      2840    3    0    1
 -2      1287       356      2197      2311
 -1      2841    3    0    1
 -2      1111       872      2073      2109
 -1      2842    3    0    1
 -2      1660      1659      3209      3395
 -1      2843    3    0    1
 -2      1001      2131      2134      2589
 -1      2844    3    0    1
 -2       243      1041      2284      2705
 -1      2845    3    0    1
 -2      1487      1546      1547      3000
 -1      2846    3    0    1
 -2      1939      1980      2033      2057
 -1      2847    3    0    1
 -2        49      1213       805       925
 -1      2848    3    0    1
 -2       365       800      1056      1060
 -1      2849    3    0    1
 -2       365       801       800      1060
 -1      2850    3    0    1
 -2       508       803      1056      1060
 -1      2851    3    0    1
 -2      1979      1361      2075      2230
 -1      2852    3    0    1
 -2      1946      1979      2062      2341
 -1      2853    3    0    1
 -2      2125       190      2133      2140
 -1      2854    3    0    1
 -2       334      1055      3708      1907
 -1      2855    3    0    1
 -2       255       334      3708      1907
 -1      2856    3    0    1
 -2      2097       393      2349      2390
 -1      2857    3    0    1
 -2       802       809       815      1062
 -1      2858    3    0    1
 -2       802       265       809      1062
 -1      2859    3    0    1
 -2       885       852      1982      2382
 -1      2860    3    0    1
 -2        52        54       802      1216
 -1      2861    3    0    1
 -2       813       266       367      1062
 -1      2862    3    0    1
 -2       266       813       809      1062
 -1      2863    3    0    1
 -2       802       815       816      1063
 -1      2864    3    0    1
 -2       884      1396      2044      2345
 -1      2865    3    0    1
 -2      1133       306      1111      2109
 -1      2866    3    0    1
 -2       265       814       272      1063
 -1      2867    3    0    1
 -2       814       265       802      1063
 -1      2868    3    0    1
 -2       279       278      3707      1921
 -1      2869    3    0    1
 -2       825       501       831      1070
 -1      2870    3    0    1
 -2      2034      1017      2326      2342
 -1      2871    3    0    1
 -2      1535      1503      1536      2780
 -1      2872    3    0    1
 -2       503      1065       502       826
 -1      2873    3    0    1
 -2      2071      2054      2114      2183
 -1      2874    3    0    1
 -2       364       276       825      1341
 -1      2875    3    0    1
 -2       404       402       995      2133
 -1      2876    3    0    1
 -2       479      1283       943       549
 -1      2877    3    0    1
 -2       822       498       823      1067
 -1      2878    3    0    1
 -2      1127       862       890      2207
 -1      2879    3    0    1
 -2      2645      2502      2860      3650
 -1      2880    3    0    1
 -2       833      1073      2111      2143
 -1      2881    3    0    1
 -2      1073       355      1950      2143
 -1      2882    3    0    1
 -2       190       187      1313      2125
 -1      2883    3    0    1
 -2      2131      1004      3430      3732
 -1      2884    3    0    1
 -2      1009      2353      3430      3732
 -1      2885    3    0    1
 -2      1950       359      1989      2175
 -1      2886    3    0    1
 -2       821       500       832      1072
 -1      2887    3    0    1
 -2       820       830      1071      1208
 -1      2888    3    0    1
 -2       821       828      1072      1917
 -1      2889    3    0    1
 -2       829       364       366      1070
 -1      2890    3    0    1
 -2       364       829       825      1070
 -1      2891    3    0    1
 -2      2088       352      2153      2176
 -1      2892    3    0    1
 -2       820       276       825      1071
 -1      2893    3    0    1
 -2       820       825       832      1071
 -1      2894    3    0    1
 -2       831       825      1070      1071
 -1      2895    3    0    1
 -2       825       831       832      1071
 -1      2896    3    0    1
 -2       276       364       825      1071
 -1      2897    3    0    1
 -2       825       364      1070      1071
 -1      2898    3    0    1
 -2       276       830       284      1071
 -1      2899    3    0    1
 -2       830       276       820      1071
 -1      2900    3    0    1
 -2      1007       699       697      1992
 -1      2901    3    0    1
 -2       279       824      1069      1072
 -1      2902    3    0    1
 -2       279       821       824      1072
 -1      2903    3    0    1
 -2       413      1310      1961      2152
 -1      2904    3    0    1
 -2      2306      1045      2321      2387
 -1      2905    3    0    1
 -2       837       838      2158      2253
 -1      2906    3    0    1
 -2       303       291      1985      2201
 -1      2907    3    0    1
 -2      2203      3502      3420      3710
 -1      2908    3    0    1
 -2       420       438      1076      2120
 -1      2909    3    0    1
 -2      1362      1361      1979      2230
 -1      2910    3    0    1
 -2      3526      3583      3585      3189
 -1      2911    3    0    1
 -2      2097       630      2314      2390
 -1      2912    3    0    1
 -2      2652      3517      2896      3568
 -1      2913    3    0    1
 -2      1128      1375      2077      2305
 -1      2914    3    0    1
 -2      1394      2038      2153      2176
 -1      2915    3    0    1
 -2       290      1349      1352      2372
 -1      2916    3    0    1
 -2      2218      2051      2248      2348
 -1      2917    3    0    1
 -2       584       958      1182      1292
 -1      2918    3    0    1
 -2      2156      1299      2245      2385
 -1      2919    3    0    1
 -2      1585      2771      3522      3593
 -1      2920    3    0    1
 -2      1312       998      3652      3685
 -1      2921    3    0    1
 -2       392       970      2293      3502
 -1      2922    3    0    1
 -2      2029      1324      2031      2182
 -1      2923    3    0    1
 -2      1328      1042       767      2209
 -1      2924    3    0    1
 -2      2269       116      2370      2380
 -1      2925    3    0    1
 -2       999      1307      2565      3491
 -1      2926    3    0    1
 -2       298      1367      2330      2438
 -1      2927    3    0    1
 -2       292      1359      2078      2088
 -1      2928    3    0    1
 -2      1985      1962      2232      2262
 -1      2929    3    0    1
 -2       331       245      2306      2405
 -1      2930    3    0    1
 -2      1079       358      1395      2198
 -1      2931    3    0    1
 -2       664       643      1308      2319
 -1      2932    3    0    1
 -2      2033      2056      2057      2070
 -1      2933    3    0    1
 -2       355       286      1120      1950
 -1      2934    3    0    1
 -2       325      2006      2195      2362
 -1      2935    3    0    1
 -2      1952      2080      2178      2256
 -1      2936    3    0    1
 -2      1958      1959      2014      2287
 -1      2937    3    0    1
 -2      2033      1292      2056      2286
 -1      2938    3    0    1
 -2      1537      1538      2928      1744
 -1      2939    3    0    1
 -2       697      1016      1315      1992
 -1      2940    3    0    1
 -2      1961      2025      2076      2166
 -1      2941    3    0    1
 -2       864      1119      1101      2176
 -1      2942    3    0    1
 -2       184       999      1311      2333
 -1      2943    3    0    1
 -2       420      1345      1977      2120
 -1      2944    3    0    1
 -2      1764      1527      1765      3231
 -1      2945    3    0    1
 -2       363      2104      1338       274
 -1      2946    3    0    1
 -2      2208      2175      2212      2216
 -1      2947    3    0    1
 -2       725      1018      1021      2222
 -1      2948    3    0    1
 -2       980       640      2189      2339
 -1      2949    3    0    1
 -2       183       997      1313      2160
 -1      2950    3    0    1
 -2       843      1359      1078      2088
 -1      2951    3    0    1
 -2      3510      3657      3436      3715
 -1      2952    3    0    1
 -2       702       694      1008      2310
 -1      2953    3    0    1
 -2       406      1116      2227      2357
 -1      2954    3    0    1
 -2      2037      2043      2103      2104
 -1      2955    3    0    1
 -2       419      1314      2034      2124
 -1      2956    3    0    1
 -2      1299       612      2156      2245
 -1      2957    3    0    1
 -2      2199      2056      2318      2385
 -1      2958    3    0    1
 -2       767       774      1331      2117
 -1      2959    3    0    1
 -2      1008       417      2082      2151
 -1      2960    3    0    1
 -2      2074      1943      2350      2363
 -1      2961    3    0    1
 -2       589      2139      2392      2453
 -1      2962    3    0    1
 -2       399       398      1020      2187
 -1      2963    3    0    1
 -2      1988      1970      2430      2432
 -1      2964    3    0    1
 -2      1982      1954      2061      2324
 -1      2965    3    0    1
 -2       860      2058      1126      2060
 -1      2966    3    0    1
 -2       274       818       817      1338
 -1      2967    3    0    1
 -2       817       818      1211      1338
 -1      2968    3    0    1
 -2      2150      1948      2373      2434
 -1      2969    3    0    1
 -2       436       437      2072      2169
 -1      2970    3    0    1
 -2       803      1056      1060      2296
 -1      2971    3    0    1
 -2       344      2097      2245      2246
 -1      2972    3    0    1
 -2      1034      2006      2027      2195
 -1      2973    3    0    1
 -2      1381       871      2046      2193
 -1      2974    3    0    1
 -2      1981       284      2361      2368
 -1      2975    3    0    1
 -2       966      2033      2056      2156
 -1      2976    3    0    1
 -2      1369      1121      2044      2345
 -1      2977    3    0    1
 -2      1396      1080      1953      2345
 -1      2978    3    0    1
 -2       779      1043      2384      2406
 -1      2979    3    0    1
 -2      1123       854       886      2092
 -1      2980    3    0    1
 -2       672      2134      2316      2320
 -1      2981    3    0    1
 -2      3079      3581      3610      3263
 -1      2982    3    0    1
 -2      2380      2259      2403      2441
 -1      2983    3    0    1
 -2      1353      1941      2114      2183
 -1      2984    3    0    1
 -2       845      1362       846      2230
 -1      2985    3    0    1
 -2       654       671      2205      2291
 -1      2986    3    0    1
 -2       363       274      1953      2101
 -1      2987    3    0    1
 -2       858      1400       888      2129
 -1      2988    3    0    1
 -2       372      1935      1958      2009
 -1      2989    3    0    1
 -2      1953       274      2037      2101
 -1      2990    3    0    1
 -2       259       258      2346      2381
 -1      2991    3    0    1
 -2       735       734      1025      2264
 -1      2992    3    0    1
 -2      1995      2011      2013      2076
 -1      2993    3    0    1
 -2       299      1388       340      2164
 -1      2994    3    0    1
 -2      2060      1960      2356      2386
 -1      2995    3    0    1
 -2      2331      1049      2429      3511
 -1      2996    3    0    1
 -2      1080       448      1953      2101
 -1      2997    3    0    1
 -2      1994       343      2001      2252
 -1      2998    3    0    1
 -2      1367      1364      2330      2438
 -1      2999    3    0    1
 -2       744      2148      2329      2439
 -1      3000    3    0    1
 -2       568      1287      2197      2403
 -1      3001    3    0    1
 -2      1082       296      2052      2067
 -1      3002    3    0    1
 -2      2293       144      2579      2745
 -1      3003    3    0    1
 -2      1989      1952      2111      2112
 -1      3004    3    0    1
 -2       201       197      1011      2268
 -1      3005    3    0    1
 -2       227      1033      1325      2063
 -1      3006    3    0    1
 -2       965       610      2242      2392
 -1      3007    3    0    1
 -2      1988      1970      2343      2430
 -1      3008    3    0    1
 -2       356      1287      2197      2404
 -1      3009    3    0    1
 -2      2078      2088      2153      2176
 -1      3010    3    0    1
 -2       797       780      2137      2301
 -1      3011    3    0    1
 -2       187      1313      2125      2160
 -1      3012    3    0    1
 -2       604       612       963      2245
 -1      3013    3    0    1
 -2      1361      1946      1979      2075
 -1      3014    3    0    1
 -2      2136      1308      2319      3169
 -1      3015    3    0    1
 -2      1341       366      2118      2327
 -1      3016    3    0    1
 -2       187      1002      1003      2308
 -1      3017    3    0    1
 -2       976       635       977      1936
 -1      3018    3    0    1
 -2      1379       312      1973      2159
 -1      3019    3    0    1
 -2       604       962      2156      2161
 -1      3020    3    0    1
 -2       528      2480      2487      2558
 -1      3021    3    0    1
 -2      2036      2022      2047      2374
 -1      3022    3    0    1
 -2       327       166      3518      3542
 -1      3023    3    0    1
 -2       363      1068      1338      2359
 -1      3024    3    0    1
 -2      2672       499      2694      2905
 -1      3025    3    0    1
 -2      1946      1394      2038      2153
 -1      3026    3    0    1
 -2       305      1100      2238      2288
 -1      3027    3    0    1
 -2      3504      2806      3095      3667
 -1      3028    3    0    1
 -2      1969      2106      2241      2298
 -1      3029    3    0    1
 -2        99       104      2379      2414
 -1      3030    3    0    1
 -2      1939      1980      2157      2181
 -1      3031    3    0    1
 -2       494      1329      1041       770
 -1      3032    3    0    1
 -2      2247      2030      2339      2398
 -1      3033    3    0    1
 -2      2468      3501      3563      3565
 -1      3034    3    0    1
 -2       288      1347      1346      2096
 -1      3035    3    0    1
 -2       906      1166      2547      3433
 -1      3036    3    0    1
 -2       178       986       994      2205
 -1      3037    3    0    1
 -2       662       655      1522      2837
 -1      3038    3    0    1
 -2      2237      2023      2413      2418
 -1      3039    3    0    1
 -2      2752      2697      2899      3622
 -1      3040    3    0    1
 -2      1942      2158      2180      2252
 -1      3041    3    0    1
 -2       622      2098      2348      2358
 -1      3042    3    0    1
 -2       689       672      2134      2316
 -1      3043    3    0    1
 -2      1303       622       630      2280
 -1      3044    3    0    1
 -2      1039       767      1331      2117
 -1      3045    3    0    1
 -2      1951      2037      2043      2103
 -1      3046    3    0    1
 -2      1959      1958      2089      2287
 -1      3047    3    0    1
 -2       156       345       971      2422
 -1      3048    3    0    1
 -2      1692      1871      1872      3354
 -1      3049    3    0    1
 -2      1442      2748      3527      3664
 -1      3050    3    0    1
 -2       385      2032      2033      2057
 -1      3051    3    0    1
 -2      1614      1479      1615      2894
 -1      3052    3    0    1
 -2      2100      2087      2679      3717
 -1      3053    3    0    1
 -2      1748      1432      3572      3615
 -1      3054    3    0    1
 -2       636       978       984      2243
 -1      3055    3    0    1
 -2       743      1028      2220      2258
 -1      3056    3    0    1
 -2      2072      1968      2167      2169
 -1      3057    3    0    1
 -2       124       116       953      2269
 -1      3058    3    0    1
 -2      2167      1996      2196      2279
 -1      3059    3    0    1
 -2      2000       359      2175      2184
 -1      3060    3    0    1
 -2       942      1284       552      2599
 -1      3061    3    0    1
 -2       261      1048      2020      2049
 -1      3062    3    0    1
 -2      2006      1996      2147      2399
 -1      3063    3    0    1
 -2      2008      1947      2078      2088
 -1      3064    3    0    1
 -2       402      2133      2135      2320
 -1      3065    3    0    1
 -2       144       392      2293      2450
 -1      3066    3    0    1
 -2      2051       350      2062      2218
 -1      3067    3    0    1
 -2      1112       420      1408      2073
 -1      3068    3    0    1
 -2      1426      1425      1512      3146
 -1      3069    3    0    1
 -2      2006      2027      2195      2399
 -1      3070    3    0    1
 -2       780      1046      2137      2387
 -1      3071    3    0    1
 -2       178       994      2135      2205
 -1      3072    3    0    1
 -2      1004      1001      2131      2308
 -1      3073    3    0    1
 -2      1308      2136      2319      3565
 -1      3074    3    0    1
 -2      2014      1986      2040      2266
 -1      3075    3    0    1
 -2       947       564      2379      2416
 -1      3076    3    0    1
 -2       839      1351       840      2201
 -1      3077    3    0    1
 -2       377      1324      2029      2182
 -1      3078    3    0    1
 -2       635       618       970      2393
 -1      3079    3    0    1
 -2       324       232      1327      2334
 -1      3080    3    0    1
 -2      2032      1939      2033      2057
 -1      3081    3    0    1
 -2       343      1943      1994      2001
 -1      3082    3    0    1
 -2      2029      2004      2200      2235
 -1      3083    3    0    1
 -2      2356      2129      1960      2089
 -1      3084    3    0    1
 -2      2361       104      2378      2414
 -1      3085    3    0    1
 -2      1011       725      1019      2194
 -1      3086    3    0    1
 -2      2191       617      2293      2397
 -1      3087    3    0    1
 -2      2158      1348      2180      2253
 -1      3088    3    0    1
 -2       363      1068      2359      2443
 -1      3089    3    0    1
 -2       731      2105      2300      2354
 -1      3090    3    0    1
 -2      2102      1978      2233      2369
 -1      3091    3    0    1
 -2      2056      2033      2057      2156
 -1      3092    3    0    1
 -2      2356      1094       373      1126
 -1      3093    3    0    1
 -2       979       640      2339      2398
 -1      3094    3    0    1
 -2      2932       608      2978      3560
 -1      3095    3    0    1
 -2       995       672      2316      2320
 -1      3096    3    0    1
 -2       190      1002      2125      2316
 -1      3097    3    0    1
 -2       977       985      2231      2417
 -1      3098    3    0    1
 -2      2192       628      2250      2394
 -1      3099    3    0    1
 -2      2023      1981      2265      2418
 -1      3100    3    0    1
 -2       735       528      2480      2487
 -1      3101    3    0    1
 -2       122       948      1290      2370
 -1      3102    3    0    1
 -2       618      2191      2293      2393
 -1      3103    3    0    1
 -2      2065      1955      2234      2317
 -1      3104    3    0    1
 -2      1384       851       874      2178
 -1      3105    3    0    1
 -2       666      1309      2130      2283
 -1      3106    3    0    1
 -2       733       219      1025      1321
 -1      3107    3    0    1
 -2      1063      2452       265      2325
 -1      3108    3    0    1
 -2      2020      2049      2068      2285
 -1      3109    3    0    1
 -2      3553      2889      3011      3296
 -1      3110    3    0    1
 -2      2018      1938      2054      2174
 -1      3111    3    0    1
 -2       653       654       985      2115
 -1      3112    3    0    1
 -2       738      1323      2036      2047
 -1      3113    3    0    1
 -2      1939      1980      2181      2217
 -1      3114    3    0    1
 -2      1048       785      2020      2049
 -1      3115    3    0    1
 -2      1996      1967      2238      2299
 -1      3116    3    0    1
 -2      1961      2082      2151      2152
 -1      3117    3    0    1
 -2      2607      3535      3132      3433
 -1      3118    3    0    1
 -2      1008       694      1314      2310
 -1      3119    3    0    1
 -2      1935      1958      1959      2014
 -1      3120    3    0    1
 -2      1940       385      2277      2338
 -1      3121    3    0    1
 -2      1394      1102      2038      2176
 -1      3122    3    0    1
 -2      1047       785      2049      2141
 -1      3123    3    0    1
 -2      2072      1376      2238      2288
 -1      3124    3    0    1
 -2       242      1964      2200      2209
 -1      3125    3    0    1
 -2      1620      1778      1779      3170
 -1      3126    3    0    1
 -2       291      1350      1962      2201
 -1      3127    3    0    1
 -2      2604      1427      3435      3488
 -1      3128    3    0    1
 -2       838      1348      2158      2253
 -1      3129    3    0    1
 -2       365       368      1060      1956
 -1      3130    3    0    1
 -2      2623      3517      2890      2896
 -1      3131    3    0    1
 -2       157       973      1301      2192
 -1      3132    3    0    1
 -2      1973      1995      2013      2159
 -1      3133    3    0    1
 -2       855       877      2181      2401
 -1      3134    3    0    1
 -2      3517      2618      3238      3740
 -1      3135    3    0    1
 -2      1972      1389      2083      2159
 -1      3136    3    0    1
 -2      1064       816      2364      2444
 -1      3137    3    0    1
 -2       375      1031      2031      2048
 -1      3138    3    0    1
 -2       353      2059      2071      2170
 -1      3139    3    0    1
 -2       958       586      1292      2286
 -1      3140    3    0    1
 -2      2054      1932      2059      2071
 -1      3141    3    0    1
 -2       296      1085      2052      2092
 -1      3142    3    0    1
 -2      1118       861       881      2363
 -1      3143    3    0    1
 -2       414      2081      2144      2294
 -1      3144    3    0    1
 -2       709       716      2587      2685
 -1      3145    3    0    1
 -2      2545      3504      3412      3483
 -1      3146    3    0    1
 -2       254      2412      2437      2451
 -1      3147    3    0    1
 -2       180      1750      1751      1752
 -1      3148    3    0    1
 -2      1075       833      1342      2111
 -1      3149    3    0    1
 -2      2325      1062      2411      2419
 -1      3150    3    0    1
 -2       865      1404       892      2072
 -1      3151    3    0    1
 -2       690       707      2042      2308
 -1      3152    3    0    1
 -2      2265      2212      2276      2413
 -1      3153    3    0    1
 -2      1975      1987      2239      2273
 -1      3154    3    0    1
 -2       960       968      2244      2397
 -1      3155    3    0    1
 -2       310      1075      2111      2112
 -1      3156    3    0    1
 -2       360       284      2361      2378
 -1      3157    3    0    1
 -2       689       690      1003      2308
 -1      3158    3    0    1
 -2      2330      1364      2423      2438
 -1      3159    3    0    1
 -2      1334       370      2346      2366
 -1      3160    3    0    1
 -2       943       558      2186      2276
 -1      3161    3    0    1
 -2       210       416      2194      2383
 -1      3162    3    0    1
 -2       707      2188      2042      2353
 -1      3163    3    0    1
 -2       359      1989      2000      2328
 -1      3164    3    0    1
 -2       954      1291      2395      2409
 -1      3165    3    0    1
 -2       301      1386      1093      2261
 -1      3166    3    0    1
 -2       826       819      1068      2272
 -1      3167    3    0    1
 -2       163       326       980      2189
 -1      3168    3    0    1
 -2       420       438      1977      2073
 -1      3169    3    0    1
 -2      2118       366      2376      2447
 -1      3170    3    0    1
 -2       687       683      1002      1134
 -1      3171    3    0    1
 -2       683       451      1002      1134
 -1      3172    3    0    1
 -2       453       754      1035      1138
 -1      3173    3    0    1
 -2       754       461       902      1138
 -1      3174    3    0    1
 -2       754       757      1035      1138
 -1      3175    3    0    1
 -2         2       683       687      1134
 -1      3176    3    0    1
 -2         2       188       683      1134
 -1      3177    3    0    1
 -2       685        14       189      1135
 -1      3178    3    0    1
 -2        14       685       682      1135
 -1      3179    3    0    1
 -2       682        14      1135      1136
 -1      3180    3    0    1
 -2         3       686         5      1136
 -1      3181    3    0    1
 -2       686         3       678      1136
 -1      3182    3    0    1
 -2       188         4       683      1137
 -1      3183    3    0    1
 -2       188       683      1134      1137
 -1      3184    3    0    1
 -2       688         4         6      1137
 -1      3185    3    0    1
 -2         4       688       677      1137
 -1      3186    3    0    1
 -2       606       465       970      1155
 -1      3187    3    0    1
 -2         8       642       650      1139
 -1      3188    3    0    1
 -2         8       165       642      1139
 -1      3189    3    0    1
 -2       164       652       641      1140
 -1      3190    3    0    1
 -2       455      1142       456       660
 -1      3191    3    0    1
 -2        82      1142      1141       660
 -1      3192    3    0    1
 -2       455      1142       660      1141
 -1      3193    3    0    1
 -2       667        82       176      1141
 -1      3194    3    0    1
 -2        82       667       663      1141
 -1      3195    3    0    1
 -2      3505      3524      3599      3704
 -1      3196    3    0    1
 -2       455      1143       659       456
 -1      3197    3    0    1
 -2      2094      2074      2260      2350
 -1      3198    3    0    1
 -2      1417      3505      3524      3686
 -1      3199    3    0    1
 -2      2936      2746      3119      3639
 -1      3200    3    0    1
 -2       461       748      1037      1149
 -1      3201    3    0    1
 -2       748       461       755      1149
 -1      3202    3    0    1
 -2      1318       901       718      1147
 -1      3203    3    0    1
 -2      1614      1615      2881      2894
 -1      3204    3    0    1
 -2       901      1318       718      1016
 -1      3205    3    0    1
 -2      2855      2859      3265      3636
 -1      3206    3    0    1
 -2        87       718       901      1147
 -1      3207    3    0    1
 -2      2185      1316      3506      3534
 -1      3208    3    0    1
 -2       461       453       755      1149
 -1      3209    3    0    1
 -2       755       453       897      1149
 -1      3210    3    0    1
 -2        58       755       897      1149
 -1      3211    3    0    1
 -2        58       748       755      1149
 -1      3212    3    0    1
 -2       760        59       235      1149
 -1      3213    3    0    1
 -2        59       760       748      1149
 -1      3214    3    0    1
 -2       464       645       984      1154
 -1      3215    3    0    1
 -2      2688      1336      2712      2825
 -1      3216    3    0    1
 -2       642       464      1139      1154
 -1      3217    3    0    1
 -2       464       642       645      1154
 -1      3218    3    0    1
 -2       642        70       645      1154
 -1      3219    3    0    1
 -2       165        70       642      1154
 -1      3220    3    0    1
 -2       165       642      1139      1154
 -1      3221    3    0    1
 -2       649        70       167      1154
 -1      3222    3    0    1
 -2        70       649       645      1154
 -1      3223    3    0    1
 -2        16       606       614      1155
 -1      3224    3    0    1
 -2        16        18       606      1155
 -1      3225    3    0    1
 -2       611       470       905      1156
 -1      3226    3    0    1
 -2       147       143       611      1156
 -1      3227    3    0    1
 -2       147       611       905      1156
 -1      3228    3    0    1
 -2       616       143       152      1156
 -1      3229    3    0    1
 -2       143       616       605      1156
 -1      3230    3    0    1
 -2       605       143       611      1158
 -1      3231    3    0    1
 -2       904      1299       605       963
 -1      3232    3    0    1
 -2       143       605       904      1158
 -1      3233    3    0    1
 -2        17       602      1157      1159
 -1      3234    3    0    1
 -2      2629       495      2762      2797
 -1      3235    3    0    1
 -2       606       965      1161      1163
 -1      3236    3    0    1
 -2      1638      1639      2852      1835
 -1      3237    3    0    1
 -2       609       613       967      1164
 -1      3238    3    0    1
 -2       470       609       967      1164
 -1      3239    3    0    1
 -2      2671      2867      3574      3262
 -1      3240    3    0    1
 -2      2121      1978      2297      2467
 -1      3241    3    0    1
 -2       470       465       609      1164
 -1      3242    3    0    1
 -2       609       465      1155      1164
 -1      3243    3    0    1
 -2       613        19       146      1164
 -1      3244    3    0    1
 -2        19       613       609      1164
 -1      3245    3    0    1
 -2      1546      2858      3000      3650
 -1      3246    3    0    1
 -2      2207      2055      2433      2455
 -1      3247    3    0    1
 -2      2307      2504      3507      3709
 -1      3248    3    0    1
 -2      2492      1418      2534      2602
 -1      3249    3    0    1
 -2       550      1174       477       557
 -1      3250    3    0    1
 -2      1811        42      1812      1816
 -1      3251    3    0    1
 -2      2594      2442      2595      3529
 -1      3252    3    0    1
 -2       574       950      1167      1169
 -1      3253    3    0    1
 -2        35       574      1167      1169
 -1      3254    3    0    1
 -2        12       195      1572      2819
 -1      3255    3    0    1
 -2       556       559       944      1175
 -1      3256    3    0    1
 -2       477      1174       478       557
 -1      3257    3    0    1
 -2      1174       550       477      1173
 -1      3258    3    0    1
 -2       562        30       110      1173
 -1      3259    3    0    1
 -2        30       562       550      1173
 -1      3260    3    0    1
 -2       551      1175       477       910
 -1      3261    3    0    1
 -2       477      1175       556       478
 -1      3262    3    0    1
 -2      1283       912       547      1176
 -1      3263    3    0    1
 -2       327      1304      2171      2282
 -1      3264    3    0    1
 -2        31       784       929      1178
 -1      3265    3    0    1
 -2       796        31       260      1178
 -1      3266    3    0    1
 -2        31       796       784      1178
 -1      3267    3    0    1
 -2       585       127       584      1179
 -1      3268    3    0    1
 -2       482      1181       483       955
 -1      3269    3    0    1
 -2       482      1181       955      1180
 -1      3270    3    0    1
 -2      1001       689      2134      2308
 -1      3271    3    0    1
 -2       485      1290       568       484
 -1      3272    3    0    1
 -2      1290       485       948      1183
 -1      3273    3    0    1
 -2      1019       726      1020      2187
 -1      3274    3    0    1
 -2       485      1290       948       568
 -1      3275    3    0    1
 -2      2428      2584      3503      3736
 -1      3276    3    0    1
 -2       485      1287       484       568
 -1      3277    3    0    1
 -2       487       486       569      1186
 -1      3278    3    0    1
 -2       915       487       569      1186
 -1      3279    3    0    1
 -2       569       114       915      1186
 -1      3280    3    0    1
 -2       114       569       575      1186
 -1      3281    3    0    1
 -2        33       575       579      1186
 -1      3282    3    0    1
 -2        33       118       575      1186
 -1      3283    3    0    1
 -2        35       577       574      1187
 -1      3284    3    0    1
 -2       598        32       138      1188
 -1      3285    3    0    1
 -2        32       598       587      1188
 -1      3286    3    0    1
 -2       131       595       591      1190
 -1      3287    3    0    1
 -2       588      1190        23       591
 -1      3288    3    0    1
 -2      1528      1764      3321      3403
 -1      3289    3    0    1
 -2        43       240       769      1198
 -1      3290    3    0    1
 -2       491      1334      1194       490
 -1      3291    3    0    1
 -2       805       267      1059      1335
 -1      3292    3    0    1
 -2       791      1048      1191      1194
 -1      3293    3    0    1
 -2       783       252      1192      1193
 -1      3294    3    0    1
 -2      1047       783      1192      1193
 -1      3295    3    0    1
 -2      1048       490      1191      1194
 -1      3296    3    0    1
 -2       494      1329      1198      1041
 -1      3297    3    0    1
 -2      1332       918       790      1196
 -1      3298    3    0    1
 -2      1319      1015      3515      3601
 -1      3299    3    0    1
 -2      1516       229      2675      1602
 -1      3300    3    0    1
 -2       918      1332       790      1050
 -1      3301    3    0    1
 -2        37       790       918      1196
 -1      3302    3    0    1
 -2      1688      1722      3212      3669
 -1      3303    3    0    1
 -2       494      1200       495      1041
 -1      3304    3    0    1
 -2      1285       941      3614      3722
 -1      3305    3    0    1
 -2       828       821      1072      1207
 -1      3306    3    0    1
 -2      2473      2402      3509      3605
 -1      3307    3    0    1
 -2      2909      3621      3646      3692
 -1      3308    3    0    1
 -2      1979      1946      2038      2341
 -1      3309    3    0    1
 -2       764       238       765      1202
 -1      3310    3    0    1
 -2       920      1328       764      1042
 -1      3311    3    0    1
 -2      1517      1518      1551      2690
 -1      3312    3    0    1
 -2       766      1039      1199      1203
 -1      3313    3    0    1
 -2      1289       571       573      3508
 -1      3314    3    0    1
 -2       821        44       824      1207
 -1      3315    3    0    1
 -2      1978      2121      2233      2369
 -1      3316    3    0    1
 -2      2244       134      2318      2385
 -1      3317    3    0    1
 -2      3556      3004      3272      3328
 -1      3318    3    0    1
 -2      1720      1719      3152      3164
 -1      3319    3    0    1
 -2        47       828       281      1207
 -1      3320    3    0    1
 -2       828        47       821      1207
 -1      3321    3    0    1
 -2       500       501       825      1208
 -1      3322    3    0    1
 -2       830        46       285      1208
 -1      3323    3    0    1
 -2        46       830       820      1208
 -1      3324    3    0    1
 -2       829        48       825      1209
 -1      3325    3    0    1
 -2       501       500       824      1210
 -1      3326    3    0    1
 -2       824       500      1207      1210
 -1      3327    3    0    1
 -2       827        44       280      1210
 -1      3328    3    0    1
 -2        44       827       824      1210
 -1      3329    3    0    1
 -2       923      1338       818      1068
 -1      3330    3    0    1
 -2       275       818       923      1211
 -1      3331    3    0    1
 -2       820        46       825      1212
 -1      3332    3    0    1
 -2       922      1341       820      1065
 -1      3333    3    0    1
 -2        46       820       922      1212
 -1      3334    3    0    1
 -2       393       344      2097      2349
 -1      3335    3    0    1
 -2       366       272      2118      2327
 -1      3336    3    0    1
 -2       805      1218        49       808
 -1      3337    3    0    1
 -2       805      1218       808       506
 -1      3338    3    0    1
 -2      1218       805        49      1215
 -1      3339    3    0    1
 -2       506      1218       808       507
 -1      3340    3    0    1
 -2        51       812       268      1215
 -1      3341    3    0    1
 -2       812        51       805      1215
 -1      3342    3    0    1
 -2       506      1217       507       809
 -1      3343    3    0    1
 -2       814        54       271      1216
 -1      3344    3    0    1
 -2        54       814       802      1216
 -1      3345    3    0    1
 -2        49       811       808      1218
 -1      3346    3    0    1
 -2       805      1218       506      1215
 -1      3347    3    0    1
 -2       802        52       809      1220
 -1      3348    3    0    1
 -2       630      1303      2280      2390
 -1      3349    3    0    1
 -2      1959      1960      2009      2123
 -1      3350    3    0    1
 -2       509      1337       508       810
 -1      3351    3    0    1
 -2      2107       406      2227      2357
 -1      3352    3    0    1
 -2       511      1249       526       769
 -1      3353    3    0    1
 -2        43      1249      1221       769
 -1      3354    3    0    1
 -2       511      1249       769      1221
 -1      3355    3    0    1
 -2       775        43       250      1221
 -1      3356    3    0    1
 -2        43       775       772      1221
 -1      3357    3    0    1
 -2      2672      2694      3516      3553
 -1      3358    3    0    1
 -2      1746      1747      3058      3326
 -1      3359    3    0    1
 -2       157       158      2192      2537
 -1      3360    3    0    1
 -2      2192       973      2394      2537
 -1      3361    3    0    1
 -2       515      1327      1229      1031
 -1      3362    3    0    1
 -2      1031       515      1227      1229
 -1      3363    3    0    1
 -2       532       736      1027      1248
 -1      3364    3    0    1
 -2        61        60       746      1228
 -1      3365    3    0    1
 -2       746      1034      1226      1228
 -1      3366    3    0    1
 -2        61       746      1226      1228
 -1      3367    3    0    1
 -2        59        58       748      1229
 -1      3368    3    0    1
 -2       748      1031      1227      1229
 -1      3369    3    0    1
 -2        59       748      1227      1229
 -1      3370    3    0    1
 -2        64      1247       159       627
 -1      3371    3    0    1
 -2        63       624       632      1230
 -1      3372    3    0    1
 -2        63        64       624      1230
 -1      3373    3    0    1
 -2        72       639       638      1243
 -1      3374    3    0    1
 -2       623        62       634      1231
 -1      3375    3    0    1
 -2        66        62       623      1231
 -1      3376    3    0    1
 -2       517      1236       520       971
 -1      3377    3    0    1
 -2       517      1236       971      1233
 -1      3378    3    0    1
 -2       832       831      1069      2085
 -1      3379    3    0    1
 -2       633        74       629      1238
 -1      3380    3    0    1
 -2       623      1238        66      1231
 -1      3381    3    0    1
 -2        66      1238       629        74
 -1      3382    3    0    1
 -2       639        72        73      1243
 -1      3383    3    0    1
 -2       631       159       160      1247
 -1      3384    3    0    1
 -2        70       165       642      1242
 -1      3385    3    0    1
 -2      1832      3273      1844      3343
 -1      3386    3    0    1
 -2       726      1021      2220      2472
 -1      3387    3    0    1
 -2       645       982      1239      1242
 -1      3388    3    0    1
 -2        70       645      1239      1242
 -1      3389    3    0    1
 -2      1306       524       980      1244
 -1      3390    3    0    1
 -2       524      1306       980       640
 -1      3391    3    0    1
 -2       979       523      1243      1246
 -1      3392    3    0    1
 -2       159       631       627      1247
 -1      3393    3    0    1
 -2       624      1247       516      1230
 -1      3394    3    0    1
 -2       516      1247       627       525
 -1      3395    3    0    1
 -2       532       531       736      1248
 -1      3396    3    0    1
 -2       733        78       736      1248
 -1      3397    3    0    1
 -2       531       733       736      1248
 -1      3398    3    0    1
 -2       739        79       224      1248
 -1      3399    3    0    1
 -2        79       739       736      1248
 -1      3400    3    0    1
 -2      2090       661      3168      3169
 -1      3401    3    0    1
 -2       511      1250       766       526
 -1      3402    3    0    1
 -2       175       659       665      1309
 -1      3403    3    0    1
 -2      3591      2789      3645      3661
 -1      3404    3    0    1
 -2       660       991      1256      1258
 -1      3405    3    0    1
 -2       736       733      1025      1252
 -1      3406    3    0    1
 -2      1117      1973      2046      2193
 -1      3407    3    0    1
 -2       128      3539      1827      3703
 -1      3408    3    0    1
 -2        82      1258       173       660
 -1      3409    3    0    1
 -2      1339      2355      2454      3537
 -1      3410    3    0    1
 -2       733       531      1030      1259
 -1      3411    3    0    1
 -2       740       733      1030      1259
 -1      3412    3    0    1
 -2       531       733      1248      1259
 -1      3413    3    0    1
 -2        78       740        83      1259
 -1      3414    3    0    1
 -2       740        78       733      1259
 -1      3415    3    0    1
 -2       223        84       730      1260
 -1      3416    3    0    1
 -2       535      1269      1266      1008
 -1      3417    3    0    1
 -2        86       722       214      1261
 -1      3418    3    0    1
 -2       722        86       714      1261
 -1      3419    3    0    1
 -2       534       718      1018      1265
 -1      3420    3    0    1
 -2       724        89       212      1262
 -1      3421    3    0    1
 -2        89       724       713      1262
 -1      3422    3    0    1
 -2       713       534       719      1264
 -1      3423    3    0    1
 -2       533       534       713      1264
 -1      3424    3    0    1
 -2       533       713      1262      1264
 -1      3425    3    0    1
 -2       713        89      1262      1264
 -1      3426    3    0    1
 -2        89       713       719      1264
 -1      3427    3    0    1
 -2        90       723       213      1264
 -1      3428    3    0    1
 -2       723        90       719      1264
 -1      3429    3    0    1
 -2        87       721       718      1265
 -1      3430    3    0    1
 -2       535      1317      1267      1005
 -1      3431    3    0    1
 -2      2420       991      2585      2586
 -1      3432    3    0    1
 -2       192       692      1266      1269
 -1      3433    3    0    1
 -2        94      1268       695       202
 -1      3434    3    0    1
 -2       692      1008      1266      1269
 -1      3435    3    0    1
 -2      1600      2921      3081      3466
 -1      3436    3    0    1
 -2       677         4       683      1270
 -1      3437    3    0    1
 -2       934      1313       677       997
 -1      3438    3    0    1
 -2         4       677       934      1270
 -1      3439    3    0    1
 -2        91       675       674      1271
 -1      3440    3    0    1
 -2       674      1000      1263      1271
 -1      3441    3    0    1
 -2        91       674      1263      1271
 -1      3442    3    0    1
 -2       970       618      2293      2393
 -1      3443    3    0    1
 -2        93       656       935      1274
 -1      3444    3    0    1
 -2         9      1273       659        10
 -1      3445    3    0    1
 -2       542       695      1011      1277
 -1      3446    3    0    1
 -2       541      1276       542       696
 -1      3447    3    0    1
 -2        11      1276      1275       696
 -1      3448    3    0    1
 -2       541      1276       696      1275
 -1      3449    3    0    1
 -2       703        11       203      1275
 -1      3450    3    0    1
 -2        11       703       700      1275
 -1      3451    3    0    1
 -2       541      1277       695       542
 -1      3452    3    0    1
 -2       728        96       729      1278
 -1      3453    3    0    1
 -2      1954      1982      2067      2324
 -1      3454    3    0    1
 -2       713        89       719      1280
 -1      3455    3    0    1
 -2       544      1323       543       738
 -1      3456    3    0    1
 -2      1036      1029      2329      2439
 -1      3457    3    0    1
 -2      1963      2004      2029      2235
 -1      3458    3    0    1
 -2       545       546      1013      1281
 -1      3459    3    0    1
 -2      1288       950      2440      2584
 -1      3460    3    0    1
 -2       546      1320      1282       545
 -1      3461    3    0    1
 -2      1014       545      1280      1282
 -1      3462    3    0    1
 -2      1061       333      2364      2610
 -1      3463    3    0    1
 -2       388       954      1291      2395
 -1      3464    3    0    1
 -2      2021      1376      2072      2288
 -1      3465    3    0    1
 -2       359        98       547      1283
 -1      3466    3    0    1
 -2       912      1283       479      1176
 -1      3467    3    0    1
 -2      1283       549      2026      2249
 -1      3468    3    0    1
 -2      2906      3125      3612      3676
 -1      3469    3    0    1
 -2      1455      1413      1456      3207
 -1      3470    3    0    1
 -2       145        20      3418      3424
 -1      3471    3    0    1
 -2      1631        41      3211      3411
 -1      3472    3    0    1
 -2       756       749      2179      2254
 -1      3473    3    0    1
 -2      2038      1997      2153      2176
 -1      3474    3    0    1
 -2      2004      2095      2182      2215
 -1      3475    3    0    1
 -2       550      1177       557      1286
 -1      3476    3    0    1
 -2        99       550       557      1286
 -1      3477    3    0    1
 -2       299       340      2157      2164
 -1      3478    3    0    1
 -2       788       789      2331      2451
 -1      3479    3    0    1
 -2       479       549       558      1286
 -1      3480    3    0    1
 -2      1177       550       911      1286
 -1      3481    3    0    1
 -2       415       193      1009      2188
 -1      3482    3    0    1
 -2       550        99       940      1286
 -1      3483    3    0    1
 -2       479       940       549      1286
 -1      3484    3    0    1
 -2       940       479       911      1286
 -1      3485    3    0    1
 -2       479      1177       911      1286
 -1      3486    3    0    1
 -2       911       550       940      1286
 -1      3487    3    0    1
 -2      2631      1006      3599      3287
 -1      3488    3    0    1
 -2       835      1343      1990      2120
 -1      3489    3    0    1
 -2       574       950      1169      1288
 -1      3490    3    0    1
 -2       570       574      1169      1288
 -1      3491    3    0    1
 -2       570       119       574      1288
 -1      3492    3    0    1
 -2       946       581       952      2146
 -1      3493    3    0    1
 -2       574       119       950      1288
 -1      3494    3    0    1
 -2      1716      2719      3283      3352
 -1      3495    3    0    1
 -2      2221      1306      2231      2248
 -1      3496    3    0    1
 -2       125      1292      2070      2286
 -1      3497    3    0    1
 -2      1129       305      1376      2288
 -1      3498    3    0    1
 -2       485      1290       484      1183
 -1      3499    3    0    1
 -2      1338      1068      2272      2359
 -1      3500    3    0    1
 -2       306      1133       445      2109
 -1      3501    3    0    1
 -2       574       570       581      1291
 -1      3502    3    0    1
 -2       581       570       954      1291
 -1      3503    3    0    1
 -2       119       570       574      1291
 -1      3504    3    0    1
 -2       119       388       570      1291
 -1      3505    3    0    1
 -2       570       388       954      1291
 -1      3506    3    0    1
 -2      3467      2558      3493      3746
 -1      3507    3    0    1
 -2      3667      2558      3467      3746
 -1      3508    3    0    1
 -2      2496      2458      3667      3746
 -1      3509    3    0    1
 -2       584       125       958      1292
 -1      3510    3    0    1
 -2      2056      1292      2199      2286
 -1      3511    3    0    1
 -2      1008      1314      2113      2310
 -1      3512    3    0    1
 -2       588       906      1166      1293
 -1      3513    3    0    1
 -2       906       588       957      1293
 -1      3514    3    0    1
 -2       969       618       976      2393
 -1      3515    3    0    1
 -2      1477      2942      3230      3664
 -1      3516    3    0    1
 -2      2307       220      2264       219
 -1      3517    3    0    1
 -2      1951      2043      2079      2103
 -1      3518    3    0    1
 -2       587       955      1180      1295
 -1      3519    3    0    1
 -2       593       587      1180      1295
 -1      3520    3    0    1
 -2       126       587       593      1295
 -1      3521    3    0    1
 -2       216      1028      1029      2258
 -1      3522    3    0    1
 -2       325      1034      2179      2195
 -1      3523    3    0    1
 -2      1942      2017      2138      2252
 -1      3524    3    0    1
 -2      1398       854      1086      2092
 -1      3525    3    0    1
 -2       586      1295       482       955
 -1      3526    3    0    1
 -2      1941       357      2150      2173
 -1      3527    3    0    1
 -2       587       126       955      1295
 -1      3528    3    0    1
 -2      1952      2080      2111      2112
 -1      3529    3    0    1
 -2      1201      2797      1728      3265
 -1      3530    3    0    1
 -2       854      1398       886      2092
 -1      3531    3    0    1
 -2      2129      1400      2356      2386
 -1      3532    3    0    1
 -2       611       605      1158      1299
 -1      3533    3    0    1
 -2       149       150       605      1299
 -1      3534    3    0    1
 -2       904      1299       466      1158
 -1      3535    3    0    1
 -2       605       150       963      1299
 -1      3536    3    0    1
 -2       620      1237       621      1300
 -1      3537    3    0    1
 -2      1237       620       974      1300
 -1      3538    3    0    1
 -2       343       621       348      1300
 -1      3539    3    0    1
 -2       620       343       974      1300
 -1      3540    3    0    1
 -2       621       343       620      1300
 -1      3541    3    0    1
 -2       624       157       973      1301
 -1      3542    3    0    1
 -2      2624      2891      3555      3300
 -1      3543    3    0    1
 -2       370      2084      2301      2346
 -1      3544    3    0    1
 -2      1993      2002      2008      2078
 -1      3545    3    0    1
 -2       439      1125      1958      2287
 -1      3546    3    0    1
 -2       267       333      1059      2515
 -1      3547    3    0    1
 -2      3510      3544      3316      3700
 -1      3548    3    0    1
 -2      3525      1024      3694      3713
 -1      3549    3    0    1
 -2       292       352      2088      2176
 -1      3550    3    0    1
 -2       849       883      1120      2005
 -1      3551    3    0    1
 -2       623       971      1233      1303
 -1      3552    3    0    1
 -2       629       623      1233      1303
 -1      3553    3    0    1
 -2       156       623       629      1303
 -1      3554    3    0    1
 -2        98       943      1283      2276
 -1      3555    3    0    1
 -2       622      1303       517       971
 -1      3556    3    0    1
 -2       623       156       971      1303
 -1      3557    3    0    1
 -2       645       982      1242      1304
 -1      3558    3    0    1
 -2       642       645      1242      1304
 -1      3559    3    0    1
 -2       327       396       645      1304
 -1      3560    3    0    1
 -2       220      2148      3439      3734
 -1      3561    3    0    1
 -2      2668      2977      3149      3241
 -1      3562    3    0    1
 -2      2266      1957      2340      2438
 -1      3563    3    0    1
 -2       645       396       982      1304
 -1      3564    3    0    1
 -2       396       327       984      2544
 -1      3565    3    0    1
 -2       153      1608      3611      3434
 -1      3566    3    0    1
 -2       524      1306       523      1244
 -1      3567    3    0    1
 -2      1042      2029      2048      2200
 -1      3568    3    0    1
 -2      2035       403      2128      2214
 -1      3569    3    0    1
 -2      1479      1480      2894      2938
 -1      3570    3    0    1
 -2      1319      3515      3201      3704
 -1      3571    3    0    1
 -2      1382       853       873      2173
 -1      3572    3    0    1
 -2      1133      1111      2073      2109
 -1      3573    3    0    1
 -2       659       989      1272      1309
 -1      3574    3    0    1
 -2       665       659      1272      1309
 -1      3575    3    0    1
 -2      1129      1376      2021      2288
 -1      3576    3    0    1
 -2       774      2031      2048      2117
 -1      3577    3    0    1
 -2       779       780      1045      2306
 -1      3578    3    0    1
 -2       658      1309       539       989
 -1      3579    3    0    1
 -2       674       408      1000      1310
 -1      3580    3    0    1
 -2       675       408       674      1310
 -1      3581    3    0    1
 -2      1960      1959      2089      2129
 -1      3582    3    0    1
 -2      1388      2164      2181      2401
 -1      3583    3    0    1
 -2      3531      3575      3614      3642
 -1      3584    3    0    1
 -2      1657      1499      1658      2768
 -1      3585    3    0    1
 -2      2098       345      2231      2422
 -1      3586    3    0    1
 -2       683       677      1270      1313
 -1      3587    3    0    1
 -2       183       677       683      1313
 -1      3588    3    0    1
 -2       934      1313       537      1270
 -1      3589    3    0    1
 -2       677       183       997      1313
 -1      3590    3    0    1
 -2       693       692      1269      1314
 -1      3591    3    0    1
 -2      2061       363      2101      2225
 -1      3592    3    0    1
 -2      2266      1124       856      1088
 -1      3593    3    0    1
 -2       359      2000      2026      2328
 -1      3594    3    0    1
 -2       417       693       419      1314
 -1      3595    3    0    1
 -2       692       417      1008      1314
 -1      3596    3    0    1
 -2       693       417       692      1314
 -1      3597    3    0    1
 -2       899       696      1007      1315
 -1      3598    3    0    1
 -2      2212      2043      2216      2237
 -1      3599    3    0    1
 -2      2247       666      2283      2339
 -1      3600    3    0    1
 -2       217       397      2142      2279
 -1      3601    3    0    1
 -2      2596       716      3235      2587
 -1      3602    3    0    1
 -2       701       695      1267      1317
 -1      3603    3    0    1
 -2      1390       869       878      2159
 -1      3604    3    0    1
 -2      2032      1940      2099      2338
 -1      3605    3    0    1
 -2       408      1000      1310      2223
 -1      3606    3    0    1
 -2       694      1317       535      1005
 -1      3607    3    0    1
 -2      1942      2003      2017      2302
 -1      3608    3    0    1
 -2      1996      2021      2147      2279
 -1      3609    3    0    1
 -2       714       718      1147      1318
 -1      3610    3    0    1
 -2       208       317       718      1318
 -1      3611    3    0    1
 -2      2567      3106      3603      3625
 -1      3612    3    0    1
 -2       718       317      1016      1318
 -1      3613    3    0    1
 -2       476       475       909      2599
 -1      3614    3    0    1
 -2      1597      1505      2953      3039
 -1      3615    3    0    1
 -2       749      2031      2179      2254
 -1      3616    3    0    1
 -2      1035      2263      2329      2553
 -1      3617    3    0    1
 -2       545       712       720      1320
 -1      3618    3    0    1
 -2      1014       545      1282      1320
 -1      3619    3    0    1
 -2       555       476      2599      2600
 -1      3620    3    0    1
 -2      1936       635      2203      2393
 -1      3621    3    0    1
 -2       712       545      1014      1320
 -1      3622    3    0    1
 -2       866      1405       893      2400
 -1      3623    3    0    1
 -2      1473      1474      2747      2775
 -1      3624    3    0    1
 -2       343      1943      2001      2260
 -1      3625    3    0    1
 -2      1580      1579      2864      2897
 -1      3626    3    0    1
 -2      2004      2200      2235      2262
 -1      3627    3    0    1
 -2       737       730      1279      1323
 -1      3628    3    0    1
 -2       216       730       737      1323
 -1      3629    3    0    1
 -2      1292      2033      2070      2286
 -1      3630    3    0    1
 -2      1337       810      2020      2267
 -1      3631    3    0    1
 -2       762      1037      2145      2406
 -1      3632    3    0    1
 -2       543       731       738      1323
 -1      3633    3    0    1
 -2       730       937      1279      1323
 -1      3634    3    0    1
 -2       730       216      1023      1323
 -1      3635    3    0    1
 -2       543      1023       731      1323
 -1      3636    3    0    1
 -2      1023       543       937      1323
 -1      3637    3    0    1
 -2       543      1279       937      1323
 -1      3638    3    0    1
 -2       937       730      1023      1323
 -1      3639    3    0    1
 -2      2293       392      3502      2556
 -1      3640    3    0    1
 -2      2712      2688      2825      3556
 -1      3641    3    0    1
 -2      1676      1667      1677      3415
 -1      3642    3    0    1
 -2       748      1031      1229      1327
 -1      3643    3    0    1
 -2       755       748      1229      1327
 -1      3644    3    0    1
 -2       232       233       748      1327
 -1      3645    3    0    1
 -2      1989      2175      2184      2208
 -1      3646    3    0    1
 -2       748       233      1031      1327
 -1      3647    3    0    1
 -2       242       765       374      1328
 -1      3648    3    0    1
 -2       920      1328       496      1202
 -1      3649    3    0    1
 -2       764       242      1042      1328
 -1      3650    3    0    1
 -2       765       242       764      1328
 -1      3651    3    0    1
 -2      2074      1943      2260      2350
 -1      3652    3    0    1
 -2      1467      1588      1589      2674
 -1      3653    3    0    1
 -2       976      1936      2246      2393
 -1      3654    3    0    1
 -2      1485      1824      1825      3384
 -1      3655    3    0    1
 -2      3544      3569      3681      3743
 -1      3656    3    0    1
 -2      2898      1735      2972      3027
 -1      3657    3    0    1
 -2       676       684      2160      2223
 -1      3658    3    0    1
 -2      1972       407      2010      2083
 -1      3659    3    0    1
 -2       496      1203      1039      1331
 -1      3660    3    0    1
 -2       766      1039      1203      1331
 -1      3661    3    0    1
 -2       773       766      1203      1331
 -1      3662    3    0    1
 -2       248       766       773      1331
 -1      3663    3    0    1
 -2      1005       694      2168      2342
 -1      3664    3    0    1
 -2       496       767       774      1331
 -1      3665    3    0    1
 -2       766       248      1039      1331
 -1      3666    3    0    1
 -2       767       496      1039      1331
 -1      3667    3    0    1
 -2       790       254      1050      1332
 -1      3668    3    0    1
 -2      1009       193      1012      2188
 -1      3669    3    0    1
 -2       315       287      1343      2163
 -1      3670    3    0    1
 -2       490       785       792      1334
 -1      3671    3    0    1
 -2      1048       490      1194      1334
 -1      3672    3    0    1
 -2      3533      3258      3626      3636
 -1      3673    3    0    1
 -2        80      1764      1831      3320
 -1      3674    3    0    1
 -2       785       490      1048      1334
 -1      3675    3    0    1
 -2      1709      1710      3028      3075
 -1      3676    3    0    1
 -2      1315      1007      1992      2292
 -1      3677    3    0    1
 -2      2007      2073      2109      2239
 -1      3678    3    0    1
 -2       436      1404      1103      2072
 -1      3679    3    0    1
 -2       809       802      1220      1337
 -1      3680    3    0    1
 -2       265       802       809      1337
 -1      3681    3    0    1
 -2       132       957      2453      3443
 -1      3682    3    0    1
 -2      1981      1338      2104      2418
 -1      3683    3    0    1
 -2      1786      1559      3305      3373
 -1      3684    3    0    1
 -2       508       803       810      1337
 -1      3685    3    0    1
 -2       802       926      1220      1337
 -1      3686    3    0    1
 -2       249      1045      1053      2084
 -1      3687    3    0    1
 -2      2031      1324      2179      2182
 -1      3688    3    0    1
 -2       802       265      1057      1337
 -1      3689    3    0    1
 -2       508      1057       803      1337
 -1      3690    3    0    1
 -2      1057       508       926      1337
 -1      3691    3    0    1
 -2       508      1220       926      1337
 -1      3692    3    0    1
 -2       926       802      1057      1337
 -1      3693    3    0    1
 -2       771      1041      2063      2284
 -1      3694    3    0    1
 -2      1557      2729      3612      3337
 -1      3695    3    0    1
 -2      1432      3508      3528      3572
 -1      3696    3    0    1
 -2      1022       217      2105      2399
 -1      3697    3    0    1
 -2      2142       397      2196      2300
 -1      3698    3    0    1
 -2       770      2284      2331      2451
 -1      3699    3    0    1
 -2       825       820      1212      1341
 -1      3700    3    0    1
 -2       276       820       825      1341
 -1      3701    3    0    1
 -2       922      1341       503      1212
 -1      3702    3    0    1
 -2       820       276      1065      1341
 -1      3703    3    0    1
 -2      1391      1105      1984      2010
 -1      3704    3    0    1
 -2      2005      1079      2079      2126
 -1      3705    3    0    1
 -2      2357      1358       406      1357
 -1      3706    3    0    1
 -2      2028      1961      2082      2151
 -1      3707    3    0    1
 -2      1459      1569      1570      3417
 -1      3708    3    0    1
 -2      2062      1979      2075      2352
 -1      3709    3    0    1
 -2      2229       399      2367      2374
 -1      3710    3    0    1
 -2      1997      2108      2153      2176
 -1      3711    3    0    1
 -2       635       970       975      2393
 -1      3712    3    0    1
 -2      1999       338      2256      2328
 -1      3713    3    0    1
 -2      2353      2521      3430      3732
 -1      3714    3    0    1
 -2       284       276      1071      2368
 -1      3715    3    0    1
 -2       815      2015      2325      2411
 -1      3716    3    0    1
 -2      1961      1976      1998      2028
 -1      3717    3    0    1
 -2       312      1390       314      2159
 -1      3718    3    0    1
 -2      1343      1990      1998      2163
 -1      3719    3    0    1
 -2       679       681       998      2185
 -1      3720    3    0    1
 -2      1967      2238      2299      2362
 -1      3721    3    0    1
 -2      1018       208      1021      2222
 -1      3722    3    0    1
 -2      2144       997      2152      2337
 -1      3723    3    0    1
 -2      1387      1092      2003      2302
 -1      3724    3    0    1
 -2      1001       185      1004      2131
 -1      3725    3    0    1
 -2      1329       244      2284      3696
 -1      3726    3    0    1
 -2      3520      3068      3638      3404
 -1      3727    3    0    1
 -2       216       379      2322      2439
 -1      3728    3    0    1
 -2      2122      1962      2201      2262
 -1      3729    3    0    1
 -2      2838      2680      2972      3027
 -1      3730    3    0    1
 -2      2088       844      2107      2357
 -1      3731    3    0    1
 -2      1020      2187      2220      2229
 -1      3732    3    0    1
 -2       217      2147      2196      2399
 -1      3733    3    0    1
 -2      1091      1400      2129      2386
 -1      3734    3    0    1
 -2      1937       408      1974      2035
 -1      3735    3    0    1
 -2       873       853      2150      2173
 -1      3736    3    0    1
 -2      2022      1026      2036      2047
 -1      3737    3    0    1
 -2      2005      1951      2079      2198
 -1      3738    3    0    1
 -2      1006       697      1992      3201
 -1      3739    3    0    1
 -2      2027      2006      2105      2399
 -1      3740    3    0    1
 -2      1964       242      2200      2262
 -1      3741    3    0    1
 -2      2168       416      2194      2268
 -1      3742    3    0    1
 -2      1477      3051      1863      1864
 -1      3743    3    0    1
 -2      1499      1500      1649      2759
 -1      3744    3    0    1
 -2       333       270      2582      3744
 -1      3745    3    0    1
 -2       210      2226      2342      2383
 -1      3746    3    0    1
 -2       321      2229      2258      2354
 -1      3747    3    0    1
 -2       888      1400      2089      2129
 -1      3748    3    0    1
 -2      1079      2005      2079      2198
 -1      3749    3    0    1
 -2       753       734      1024      2116
 -1      3750    3    0    1
 -2       126       960      2244      2425
 -1      3751    3    0    1
 -2      2212      2237      2413      2418
 -1      3752    3    0    1
 -2       331      1331      2117      2321
 -1      3753    3    0    1
 -2       354       135      2425      2441
 -1      3754    3    0    1
 -2      2170       356      2311      2373
 -1      3755    3    0    1
 -2      1031       375      2031      2254
 -1      3756    3    0    1
 -2       187       183      2125      2308
 -1      3757    3    0    1
 -2       244       243      1329      2284
 -1      3758    3    0    1
 -2       858      1125      1374      2129
 -1      3759    3    0    1
 -2      2162       325      2195      2362
 -1      3760    3    0    1
 -2      1297       392      2450      2556
 -1      3761    3    0    1
 -2      1998      2046      2166      2193
 -1      3762    3    0    1
 -2       753      1024      1326      2116
 -1      3763    3    0    1
 -2      3148      2635      3597      3677
 -1      3764    3    0    1
 -2       370       249      1053      2084
 -1      3765    3    0    1
 -2      1036       761      1037      2145
 -1      3766    3    0    1
 -2      1440      1565      1566      2725
 -1      3767    3    0    1
 -2      2926      2927      2998      3558
 -1      3768    3    0    1
 -2      2130       989      2133      2135
 -1      3769    3    0    1
 -2      1051      1047      1935      2278
 -1      3770    3    0    1
 -2      2900      3584      3633      3380
 -1      3771    3    0    1
 -2       995       404      2133      2316
 -1      3772    3    0    1
 -2      1985      1962      2058      2232
 -1      3773    3    0    1
 -2      1294       589       592      2139
 -1      3774    3    0    1
 -2      1376       865      2021      2072
 -1      3775    3    0    1
 -2      1990      1976      1998      2163
 -1      3776    3    0    1
 -2       872      1133      1111      2073
 -1      3777    3    0    1
 -2       958       594      2286      2424
 -1      3778    3    0    1
 -2       684      2125      2160      2407
 -1      3779    3    0    1
 -2      2079      2044      2103      2345
 -1      3780    3    0    1
 -2       331       245      1044      2306
 -1      3781    3    0    1
 -2       150       344       963      2245
 -1      3782    3    0    1
 -2      1061       267      1064      2364
 -1      3783    3    0    1
 -2       907      3036      1849      3468
 -1      3784    3    0    1
 -2      1972      2035      2128      2214
 -1      3785    3    0    1
 -2       699      1316      1992      2185
 -1      3786    3    0    1
 -2      2007      1112      2073      2224
 -1      3787    3    0    1
 -2        98       359      2175      2276
 -1      3788    3    0    1
 -2      1741      2957      2979      3646
 -1      3789    3    0    1
 -2      1027       219      1030      2148
 -1      3790    3    0    1
 -2      2044      1951      2079      2103
 -1      3791    3    0    1
 -2       125       353       958      1932
 -1      3792    3    0    1
 -2       396       982      1304      2282
 -1      3793    3    0    1
 -2      2030       162      2149      2155
 -1      3794    3    0    1
 -2       393       969       976      2246
 -1      3795    3    0    1
 -2       581       582       952      2409
 -1      3796    3    0    1
 -2      1131      1378      2303      2415
 -1      3797    3    0    1
 -2      1954      1983      2019      2039
 -1      3798    3    0    1
 -2      1362       294       295      2038
 -1      3799    3    0    1
 -2       792      1047      1051      2278
 -1      3800    3    0    1
 -2      1044      2306      2405      2406
 -1      3801    3    0    1
 -2      1962      2058      2232      2335
 -1      3802    3    0    1
 -2       661       999      1307      2090
 -1      3803    3    0    1
 -2      2033       125      2070      2210
 -1      3804    3    0    1
 -2      1994      1942      2053      2252
 -1      3805    3    0    1
 -2      1891      1597      1892      3447
 -1      3806    3    0    1
 -2      1932       125      1938      2210
 -1      3807    3    0    1
 -2      2050      1977      2224      2239
 -1      3808    3    0    1
 -2      2006      1022      2105      2399
 -1      3809    3    0    1
 -2      3209      3591      3395      3482
 -1      3810    3    0    1
 -2      1060      1056      1956      2296
 -1      3811    3    0    1
 -2       279      1067      2355      2767
 -1      3812    3    0    1
 -2       792      1334      2278      2366
 -1      3813    3    0    1
 -2      1010       707      1011      2042
 -1      3814    3    0    1
 -2       404       190      2133      2316
 -1      3815    3    0    1
 -2      2106      1969      2241      2400
 -1      3816    3    0    1
 -2       966       962      1949      2156
 -1      3817    3    0    1
 -2      2150      1084      2255      2434
 -1      3818    3    0    1
 -2      1338       819      1981      2104
 -1      3819    3    0    1
 -2       867      1116       879      2227
 -1      3820    3    0    1
 -2      1968      2142      2167      2169
 -1      3821    3    0    1
 -2       201       416      1005      2168
 -1      3822    3    0    1
 -2       413      1310      2152      2223
 -1      3823    3    0    1
 -2       150       963      1299      2245
 -1      3824    3    0    1
 -2      2055      1965      2095      2215
 -1      3825    3    0    1
 -2      1572        12      1573      3159
 -1      3826    3    0    1
 -2      1014       712      2367      2374
 -1      3827    3    0    1
 -2      1049       788      2331      2429
 -1      3828    3    0    1
 -2       968       617      2191      2397
 -1      3829    3    0    1
 -2       183       187      1003      2308
 -1      3830    3    0    1
 -2      1047       369      1051      1935
 -1      3831    3    0    1
 -2      1372       299      2157      2164
 -1      3832    3    0    1
 -2      1022       731      2027      2105
 -1      3833    3    0    1
 -2       170       409       996      2436
 -1      3834    3    0    1
 -2      2051      2098      2218      2358
 -1      3835    3    0    1
 -2      2095       377      2182      2215
 -1      3836    3    0    1
 -2      1065       819       826      2272
 -1      3837    3    0    1
 -2      1973      2011      2025      2193
 -1      3838    3    0    1
 -2      1635      1417      3524      3686
 -1      3839    3    0    1
 -2      2011      2013      2083      2159
 -1      3840    3    0    1
 -2      2162      2299      2305      2362
 -1      3841    3    0    1
 -2       833      1074      1073      2143
 -1      3842    3    0    1
 -2      1017       720      2226      2326
 -1      3843    3    0    1
 -2       694       702      2168      2310
 -1      3844    3    0    1
 -2       599       600       960      2421
 -1      3845    3    0    1
 -2       163       985       986      2115
 -1      3846    3    0    1
 -2      1324       749      2031      2179
 -1      3847    3    0    1
 -2      1396       850      1080      2345
 -1      3848    3    0    1
 -2       549      1283      2186      2249
 -1      3849    3    0    1
 -2      1999      2255      2256      2309
 -1      3850    3    0    1
 -2      1317       201       695      1005
 -1      3851    3    0    1
 -2       944       100       947      2304
 -1      3852    3    0    1
 -2      2175        98      2212      2216
 -1      3853    3    0    1
 -2       630      2280      2314      2390
 -1      3854    3    0    1
 -2      1014       399      2047      2374
 -1      3855    3    0    1
 -2       697      1316      1006      1992
 -1      3856    3    0    1
 -2       731      1022      1026      2300
 -1      3857    3    0    1
 -2      2029      2004      2182      2200
 -1      3858    3    0    1
 -2      1045      1053      2084      2301
 -1      3859    3    0    1
 -2       866       893      1130      2204
 -1      3860    3    0    1
 -2       353      1932      2059      2424
 -1      3861    3    0    1
 -2      3515      1319      3601      3704
 -1      3862    3    0    1
 -2      1961      1310      2082      2152
 -1      3863    3    0    1
 -2       715      1318      2274      2495
 -1      3864    3    0    1
 -2      1389       407      1972      2083
 -1      3865    3    0    1
 -2      2742      1475      2950      1734
 -1      3866    3    0    1
 -2      1999      1948      2255      2309
 -1      3867    3    0    1
 -2      3528      3531      3614      3642
 -1      3868    3    0    1
 -2      1389       313       407      2083
 -1      3869    3    0    1
 -2      1975      2007      2109      2239
 -1      3870    3    0    1
 -2      2080      1384      2178      2255
 -1      3871    3    0    1
 -2      1400       373      2356      2386
 -1      3872    3    0    1
 -2      1980      1939      2032      2057
 -1      3873    3    0    1
 -2      1989      1952      2000      2328
 -1      3874    3    0    1
 -2       847      1364      2132      2423
 -1      3875    3    0    1
 -2       743      1027      2148      2220
 -1      3876    3    0    1
 -2       958      1292      1932      2286
 -1      3877    3    0    1
 -2      1331       774      2048      2117
 -1      3878    3    0    1
 -2      2224      1966      2239      2273
 -1      3879    3    0    1
 -2       853      1084      2150      2173
 -1      3880    3    0    1
 -2       211      1019      2187      2383
 -1      3881    3    0    1
 -2      1984      1972      2010      2128
 -1      3882    3    0    1
 -2      1408       872      1112      2073
 -1      3883    3    0    1
 -2      1971      2008      2107      2357
 -1      3884    3    0    1
 -2       302       342      1077      2302
 -1      3885    3    0    1
 -2       417      1008      2113      2151
 -1      3886    3    0    1
 -2       859      1386       876      2261
 -1      3887    3    0    1
 -2       648       979       983      2248
 -1      3888    3    0    1
 -2       671      2041      2205      2291
 -1      3889    3    0    1
 -2       879      1116      1984      2227
 -1      3890    3    0    1
 -2       974       622      1300      2280
 -1      3891    3    0    1
 -2      2084      1039      2251      2389
 -1      3892    3    0    1
 -2      1039       767      2117      2251
 -1      3893    3    0    1
 -2       731      1023      2322      2354
 -1      3894    3    0    1
 -2      2191       969      2246      2393
 -1      3895    3    0    1
 -2       612       966      2056      2156
 -1      3896    3    0    1
 -2       622      1303       971      2280
 -1      3897    3    0    1
 -2      2101      2061      2225      2382
 -1      3898    3    0    1
 -2       592       571      1294      2139
 -1      3899    3    0    1
 -2       968       617       969      2191
 -1      3900    3    0    1
 -2       296      2052      2067      2092
 -1      3901    3    0    1
 -2       703       700      1009      1922
 -1      3902    3    0    1
 -2      1516      1602      3605      3694
 -1      3903    3    0    1
 -2      1713       565      1714      2937
 -1      3904    3    0    1
 -2      1954      1982      2052      2067
 -1      3905    3    0    1
 -2       594       586       958      2286
 -1      3906    3    0    1
 -2       403      2128      2289      2388
 -1      3907    3    0    1
 -2      2242       628      2250      2464
 -1      3908    3    0    1
 -2       726      1021      1027      2220
 -1      3909    3    0    1
 -2       344       150       969      2191
 -1      3910    3    0    1
 -2      1996      2021      2072      2238
 -1      3911    3    0    1
 -2      1404       437      1968      2072
 -1      3912    3    0    1
 -2      2278      1334      2346      2389
 -1      3913    3    0    1
 -2      1148      2602      2785      2818
 -1      3914    3    0    1
 -2      2032      1980      2057      2338
 -1      3915    3    0    1
 -2      2202      1016      2274      2275
 -1      3916    3    0    1
 -2      1667      3560      3214      3415
 -1      3917    3    0    1
 -2      2002      1993      2008      2289
 -1      3918    3    0    1
 -2      2043      2037      2237      2418
 -1      3919    3    0    1
 -2       233      2145      2254      2334
 -1      3920    3    0    1
 -2      1312       998       681      2185
 -1      3921    3    0    1
 -2       132       133       961      2086
 -1      3922    3    0    1
 -2      1317       702      2081      2294
 -1      3923    3    0    1
 -2      2044      1121      2079      2198
 -1      3924    3    0    1
 -2       707       708      1011      2042
 -1      3925    3    0    1
 -2       654       671       994      2205
 -1      3926    3    0    1
 -2      1006      1992      3599      3704
 -1      3927    3    0    1
 -2      2002      1971      2107      2227
 -1      3928    3    0    1
 -2       296      1123       361      2052
 -1      3929    3    0    1
 -2       359      2000      2175      2249
 -1      3930    3    0    1
 -2      2005      1950      2126      2216
 -1      3931    3    0    1
 -2      1555      3250      3706      3470
 -1      3932    3    0    1
 -2       774       767      1042      2209
 -1      3933    3    0    1
 -2       266       265      1337      2419
 -1      3934    3    0    1
 -2      1310      1000       676      2223
 -1      3935    3    0    1
 -2      1397       296       361      2052
 -1      3936    3    0    1
 -2      1120      1368      2005      2126
 -1      3937    3    0    1
 -2      1955      1086      2065      2092
 -1      3938    3    0    1
 -2      1004      1009      3430      3732
 -1      3939    3    0    1
 -2       618       969      2191      2393
 -1      3940    3    0    1
 -2      1326      1032       753      2236
 -1      3941    3    0    1
 -2       628       625      2192      2250
 -1      3942    3    0    1
 -2      2102      2091      2233      2297
 -1      3943    3    0    1
 -2       126       955      1295      2425
 -1      3944    3    0    1
 -2      1932       353      2059      2071
 -1      3945    3    0    1
 -2      1972       407      1984      2010
 -1      3946    3    0    1
 -2       852      1397       885      1982
 -1      3947    3    0    1
 -2      1987      1975      2024      2034
 -1      3948    3    0    1
 -2      1958      1935      1959      2009
 -1      3949    3    0    1
 -2       843       844      2088      2357
 -1      3950    3    0    1
 -2       325      1034      1324      2179
 -1      3951    3    0    1
 -2       708      2188      2194      2268
 -1      3952    3    0    1
 -2      2062       350      2341      2351
 -1      3953    3    0    1
 -2       402       995      2133      2320
 -1      3954    3    0    1
 -2       607       964      1302      2464
 -1      3955    3    0    1
 -2      2869      2793      3560      3637
 -1      3956    3    0    1
 -2       849      1120      1368      2005
 -1      3957    3    0    1
 -2      1939      2181      2210      2217
 -1      3958    3    0    1
 -2      1381       315      1998      2163
 -1      3959    3    0    1
 -2      1994      2001      2096      2252
 -1      3960    3    0    1
 -2       359      1989      2175      2184
 -1      3961    3    0    1
 -2       563      2304      2379      2449
 -1      3962    3    0    1
 -2       350      1945      2218      2248
 -1      3963    3    0    1
 -2      2168       694      2310      2408
 -1      3964    3    0    1
 -2       377      2162      2182      2215
 -1      3965    3    0    1
 -2       417       419      1966      2113
 -1      3966    3    0    1
 -2       408       413      1973      2076
 -1      3967    3    0    1
 -2       672       671       996      2041
 -1      3968    3    0    1
 -2      1373      1385      1940      2099
 -1      3969    3    0    1
 -2       872      1408       896      2073
 -1      3970    3    0    1
 -2      1962      1350      2122      2201
 -1      3971    3    0    1
 -2      1898      1616      3418      3455
 -1      3972    3    0    1
 -2       249       248      1045      2321
 -1      3973    3    0    1
 -2      2189      1306      2221      2248
 -1      3974    3    0    1
 -2       400      1933      2298      2343
 -1      3975    3    0    1
 -2       309       310      2112      2178
 -1      3976    3    0    1
 -2      2053       142      2138      2165
 -1      3977    3    0    1
 -2      1105       867      1984      2227
 -1      3978    3    0    1
 -2      2122      2004      2235      2262
 -1      3979    3    0    1
 -2       720      1320      2226      2342
 -1      3980    3    0    1
 -2      2075      1944      2352      2377
 -1      3981    3    0    1
 -2       402       175      2041      2135
 -1      3982    3    0    1
 -2      2049      1047      2141      2172
 -1      3983    3    0    1
 -2      1005       201      2168      2268
 -1      3984    3    0    1
 -2      2170      2311      2403      2424
 -1      3985    3    0    1
 -2      2037      2044      2101      2103
 -1      3986    3    0    1
 -2       338      1999      2256      2309
 -1      3987    3    0    1
 -2      1513      1514      1638      3157
 -1      3988    3    0    1
 -2      1956       368      2068      2234
 -1      3989    3    0    1
 -2       190       404      2133      2140
 -1      3990    3    0    1
 -2      1406       433       434      2432
 -1      3991    3    0    1
 -2      1505      1506      1575      3331
 -1      3992    3    0    1
 -2      1118      1096      2363      2377
 -1      3993    3    0    1
 -2      1045       248      2306      2321
 -1      3994    3    0    1
 -2      1955      1983      2065      2336
 -1      3995    3    0    1
 -2      1935       369      1958      2040
 -1      3996    3    0    1
 -2      1092       859      2003      2261
 -1      3997    3    0    1
 -2      1965      2305      2433      2455
 -1      3998    3    0    1
 -2      1987      1975      2007      2109
 -1      3999    3    0    1
 -2      1359       844      2078      2088
 -1      4000    3    0    1
 -2      1359       843       844      2088
 -1      4001    3    0    1
 -2      1323       321      2036      2047
 -1      4002    3    0    1
 -2      2099      1940      2277      2338
 -1      4003    3    0    1
 -2      1982      1082      2052      2067
 -1      4004    3    0    1
 -2      3192      3657      3414      3715
 -1      4005    3    0    1
 -2      1123      2019      2052      2092
 -1      4006    3    0    1
 -2       689      1002      2134      2308
 -1      4007    3    0    1
 -2      1039      2084      2366      2389
 -1      4008    3    0    1
 -2       752      1032      2127      2236
 -1      4009    3    0    1
 -2      2146        99      2379      2414
 -1      4010    3    0    1
 -2      1966      2050      2224      2239
 -1      4011    3    0    1
 -2      2122      1963      2372      2446
 -1      4012    3    0    1
 -2      1967      1996      2147      2299
 -1      4013    3    0    1
 -2      1404      1968      2021      2072
 -1      4014    3    0    1
 -2       279       282      2391      2442
 -1      4015    3    0    1
 -2      1953      2061      2101      2382
 -1      4016    3    0    1
 -2       989      2130      2133      2140
 -1      4017    3    0    1
 -2      2100      1978      2297      2360
 -1      4018    3    0    1
 -2      2220      1028      2229      2258
 -1      4019    3    0    1
 -2       646      1305      2213      2250
 -1      4020    3    0    1
 -2       819      1981      2104      2272
 -1      4021    3    0    1
 -2      1313       684      1974      2140
 -1      4022    3    0    1
 -2      1283       943      2186      2276
 -1      4023    3    0    1
 -2      2105       731      2322      2354
 -1      4024    3    0    1
 -2      1937       408      1995      2013
 -1      4025    3    0    1
 -2      2088      2107      2008      2357
 -1      4026    3    0    1
 -2       394       393       976      2246
 -1      4027    3    0    1
 -2      2078      1947      2153      2088
 -1      4028    3    0    1
 -2       351       985      2115      2231
 -1      4029    3    0    1
 -2      2201      2122      2262      2372
 -1      4030    3    0    1
 -2       351       349       985      2231
 -1      4031    3    0    1
 -2      1950      2175      2208      2216
 -1      4032    3    0    1
 -2       847      1367      1364      2423
 -1      4033    3    0    1
 -2       708       725      1011      2194
 -1      4034    3    0    1
 -2      1501      1502      2548      3406
 -1      4035    3    0    1
 -2      2004      1963      2207      2446
 -1      4036    3    0    1
 -2      2258       216      2322      2439
 -1      4037    3    0    1
 -2       383      1530      3548      1828
 -1      4038    3    0    1
 -2      1036       761      2145      2329
 -1      4039    3    0    1
 -2       244       332      3497      3696
 -1      4040    3    0    1
 -2      1096       861      2363      2377
 -1      4041    3    0    1
 -2      1045       780      2301      2387
 -1      4042    3    0    1
 -2       994       671      2041      2205
 -1      4043    3    0    1
 -2      1983      1955      2039      2336
 -1      4044    3    0    1
 -2       197      2042      2268      2294
 -1      4045    3    0    1
 -2      1403       863      1100      2077
 -1      4046    3    0    1
 -2       992       658       988      2130
 -1      4047    3    0    1
 -2       716       709      1569      3412
 -1      4048    3    0    1
 -2       343       348      1943      2260
 -1      4049    3    0    1
 -2       974      1300      2001      2280
 -1      4050    3    0    1
 -2      2328      2000      2371      2404
 -1      4051    3    0    1
 -2       216      2258      2322      2354
 -1      4052    3    0    1
 -2      3133      3031      3397      3727
 -1      4053    3    0    1
 -2       622      1300      2280      2358
 -1      4054    3    0    1
 -2       211       210      1019      2383
 -1      4055    3    0    1
 -2       284      1071      2361      2368
 -1      4056    3    0    1
 -2      2251      1039      2366      2389
 -1      4057    3    0    1
 -2      1987      2034      2124      2273
 -1      4058    3    0    1
 -2      1612      1678      1679      3223
 -1      4059    3    0    1
 -2      2421       960      2425      2435
 -1      4060    3    0    1
 -2      2106      1968      2142      2279
 -1      4061    3    0    1
 -2       643      2213      2319      2585
 -1      4062    3    0    1
 -2       438      1977      2073      2224
 -1      4063    3    0    1
 -2      2278       792      2366      2389
 -1      4064    3    0    1
 -2       404       989      2133      2140
 -1      4065    3    0    1
 -2       832      1069      1072      2085
 -1      4066    3    0    1
 -2      1133       445      2109      2119
 -1      4067    3    0    1
 -2      2006      1022      2027      2105
 -1      4068    3    0    1
 -2      2012      2232      2335      2448
 -1      4069    3    0    1
 -2       336       100      2304      2431
 -1      4070    3    0    1
 -2       321      1020      1028      2229
 -1      4071    3    0    1
 -2      2028       417      2082      2206
 -1      4072    3    0    1
 -2      1017      1933      2326      2375
 -1      4073    3    0    1
 -2      2118      1341      2272      2376
 -1      4074    3    0    1
 -2       151       134      2244      2385
 -1      4075    3    0    1
 -2      3441       409      3444      3737
 -1      4076    3    0    1
 -2       358      1369      1121      2198
 -1      4077    3    0    1
 -2      1071       945      2361      2449
 -1      4078    3    0    1
 -2       299      1114      1090      2157
 -1      4079    3    0    1
 -2      2040       369      2172      2312
 -1      4080    3    0    1
 -2       854      1123      1085      2092
 -1      4081    3    0    1
 -2       359        98      2175      2216
 -1      4082    3    0    1
 -2      1361      1362      1979      2038
 -1      4083    3    0    1
 -2      1958      1125      2089      2287
 -1      4084    3    0    1
 -2      1337       367      2020      2049
 -1      4085    3    0    1
 -2      1052       797      2137      2301
 -1      4086    3    0    1
 -2      1034       325      2006      2195
 -1      4087    3    0    1
 -2       582       954      2269      2409
 -1      4088    3    0    1
 -2       401      1933      2064      2326
 -1      4089    3    0    1
 -2      1993       405      2289      2426
 -1      4090    3    0    1
 -2      1313       997       684      2160
 -1      4091    3    0    1
 -2       377       325      1324      2179
 -1      4092    3    0    1
 -2      2203       970      2293      2393
 -1      4093    3    0    1
 -2      1341      1065       826      2272
 -1      4094    3    0    1
 -2      1972      1937      1995      2013
 -1      4095    3    0    1
 -2       413      1961      2025      2076
 -1      4096    3    0    1
 -2       419      1966      2113      2310
 -1      4097    3    0    1
 -2       321      2036      2047      2229
 -1      4098    3    0    1
 -2      1020       399      2187      2229
 -1      4099    3    0    1
 -2      1942      1994      2158      2252
 -1      4100    3    0    1
 -2      1116      1971      2227      2357
 -1      4101    3    0    1
 -2       349      1306      2098      2231
 -1      4102    3    0    1
 -2      2231       345      2417      2422
 -1      4103    3    0    1
 -2       100       947      2304      2416
 -1      4104    3    0    1
 -2      1979      2062      2341      2351
 -1      4105    3    0    1
 -2       555       552       942      1931
 -1      4106    3    0    1
 -2       552       555      1285      1931
 -1      4107    3    0    1
 -2       941       552      1285      1931
 -1      4108    3    0    1
 -2       266      1062      2325      2419
 -1      4109    3    0    1
 -2      2156       604      2161      2245
 -1      4110    3    0    1
 -2      1407       306       445      2119
 -1      4111    3    0    1
 -2       839       840      2122      2201
 -1      4112    3    0    1
 -2       359      1283      2249      2276
 -1      4113    3    0    1
 -2      1309       989      2130      2135
 -1      4114    3    0    1
 -2      2003      1092      2261      2302
 -1      4115    3    0    1
 -2      1955      1365      2132      2423
 -1      4116    3    0    1
 -2      1968      2106      2142      2169
 -1      4117    3    0    1
 -2      1935      1047      2141      2278
 -1      4118    3    0    1
 -2      1950      1989      2111      2143
 -1      4119    3    0    1
 -2      1394       864      1102      2176
 -1      4120    3    0    1
 -2       354       126      1295      2425
 -1      4121    3    0    1
 -2      1976      1998      2028      2206
 -1      4122    3    0    1
 -2      2116       735      2274      2495
 -1      4123    3    0    1
 -2      1386      1940      2003      2261
 -1      4124    3    0    1
 -2      1934      2054      2059      2071
 -1      4125    3    0    1
 -2      1074       833       834      2143
 -1      4126    3    0    1
 -2      1969      2241      2400      2415
 -1      4127    3    0    1
 -2       658      1309       989      2130
 -1      4128    3    0    1
 -2      2309      1934      2311      2373
 -1      4129    3    0    1
 -2      1028      1020      2220      2229
 -1      4130    3    0    1
 -2      1962       242      1964      2262
 -1      4131    3    0    1
 -2       658       992       666      2130
 -1      4132    3    0    1
 -2       450       554      2625      2726
 -1      4133    3    0    1
 -2      1294       589       956      2547
 -1      4134    3    0    1
 -2      1306       980      2189      2221
 -1      4135    3    0    1
 -2       183       191       997      2144
 -1      4136    3    0    1
 -2      2125      1002      2308      2316
 -1      4137    3    0    1
 -2       816      2325      2364      2444
 -1      4138    3    0    1
 -2      2034      1987      2124      2326
 -1      4139    3    0    1
 -2      1991      2027      2105      2399
 -1      4140    3    0    1
 -2       356      2197      2309      2404
 -1      4141    3    0    1
 -2       661       681       999      2090
 -1      4142    3    0    1
 -2      1284       942       552      1931
 -1      4143    3    0    1
 -2       193      3693      3410      3699
 -1      4144    3    0    1
 -2      1057       803      1337      2267
 -1      4145    3    0    1
 -2      2116      1326      2236      2402
 -1      4146    3    0    1
 -2       694      2168      2342      2408
 -1      4147    3    0    1
 -2      2026       576      2371      2445
 -1      4148    3    0    1
 -2       707      1009      2188      2353
 -1      4149    3    0    1
 -2       865       892      2021      2072
 -1      4150    3    0    1
 -2       863      1403       891      2077
 -1      4151    3    0    1
 -2      1967      1996      2021      2147
 -1      4152    3    0    1
 -2       197       414      1010      2042
 -1      4153    3    0    1
 -2      2114      2054      2174      2183
 -1      4154    3    0    1
 -2       973       628       625      2192
 -1      4155    3    0    1
 -2      1951      2005      2079      2126
 -1      4156    3    0    1
 -2      1970      2016      2343      2430
 -1      4157    3    0    1
 -2       394       976      1936      2246
 -1      4158    3    0    1
 -2       672       995      2041      2320
 -1      4159    3    0    1
 -2       844      2078      2088      2107
 -1      4160    3    0    1
 -2       815       798      1061      2015
 -1      4161    3    0    1
 -2      2081       702      2113      2294
 -1      4162    3    0    1
 -2       573       571      1288      2440
 -1      4163    3    0    1
 -2       406       293      2107      2227
 -1      4164    3    0    1
 -2      2034      1975      2239      2273
 -1      4165    3    0    1
 -2       622       971      2098      2280
 -1      4166    3    0    1
 -2       417      1008      1314      2113
 -1      4167    3    0    1
 -2      1010      1003      2042      2144
 -1      4168    3    0    1
 -2       797       798      1053      2270
 -1      4169    3    0    1
 -2      3195      1455      3248      3347
 -1      4170    3    0    1
 -2      2135       178      2205      2283
 -1      4171    3    0    1
 -2      1396      1953      2044      2345
 -1      4172    3    0    1
 -2      1973      1995      2011      2013
 -1      4173    3    0    1
 -2       988       403      2289      2388
 -1      4174    3    0    1
 -2      1939      1980      2032      2154
 -1      4175    3    0    1
 -2       205       316      1685      3532
 -1      4176    3    0    1
 -2      1939      1980      2154      2157
 -1      4177    3    0    1
 -2       286      1950      2143      2208
 -1      4178    3    0    1
 -2      1932       958      2286      2424
 -1      4179    3    0    1
 -2      1935      1959      2009      2123
 -1      4180    3    0    1
 -2      1311       999       679      2333
 -1      4181    3    0    1
 -2      1938      1932      2054      2071
 -1      4182    3    0    1
 -2       744       743      1030      2148
 -1      4183    3    0    1
 -2      1948      2255      2309      2434
 -1      4184    3    0    1
 -2      1965      2162      2215      2305
 -1      4185    3    0    1
 -2       835      1345      1076      1990
 -1      4186    3    0    1
 -2      2593      1152      2636      2711
 -1      4187    3    0    1
 -2      2332      2228      3496      2760
 -1      4188    3    0    1
 -2       399      1014      2367      2374
 -1      4189    3    0    1
 -2      1384       874      2080      2178
 -1      4190    3    0    1
 -2      1993      1947      2008      2030
 -1      4191    3    0    1
 -2       734       735      1322      2116
 -1      4192    3    0    1
 -2       720      2226      2326      2342
 -1      4193    3    0    1
 -2      2094      2074      2218      2358
 -1      4194    3    0    1
 -2       163       351       985      2115
 -1      4195    3    0    1
 -2      1073      1950      2111      2143
 -1      4196    3    0    1
 -2      1292      2033      2056      2199
 -1      4197    3    0    1
 -2      1959      1958      2009      2089
 -1      4198    3    0    1
 -2       857      1114       875      2154
 -1      4199    3    0    1
 -2      2006      1967      2147      2299
 -1      4200    3    0    1
 -2       835      1344       836      1990
 -1      4201    3    0    1
 -2       185       184      1004      2131
 -1      4202    3    0    1
 -2      2091      2807      3219      3701
 -1      4203    3    0    1
 -2      1350       839      2122      2201
 -1      4204    3    0    1
 -2      2137      2384      3497      3696
 -1      4205    3    0    1
 -2       436       437      2169      2204
 -1      4206    3    0    1
 -2      1053       798      1054      2270
 -1      4207    3    0    1
 -2      1364      2132      2423      2438
 -1      4208    3    0    1
 -2       333       267      1061      2364
 -1      4209    3    0    1
 -2       870       895      2045      2344
 -1      4210    3    0    1
 -2       878       869      2083      2159
 -1      4211    3    0    1
 -2      1368       849      2005      2126
 -1      4212    3    0    1
 -2       184       185       999      2333
 -1      4213    3    0    1
 -2      1044       779      2306      2406
 -1      4214    3    0    1
 -2       316      3547      3601      3704
 -1      4215    3    0    1
 -2       819      1065      1981      2272
 -1      4216    3    0    1
 -2       860      1401       889      2058
 -1      4217    3    0    1
 -2       792      2278      2313      2389
 -1      4218    3    0    1
 -2      2215      1965      2305      2433
 -1      4219    3    0    1
 -2      1085      1123      2052      2092
 -1      4220    3    0    1
 -2      2712      3556      3172      3610
 -1      4221    3    0    1
 -2       407       313      2010      2083
 -1      4222    3    0    1
 -2       350      2062      2218      2351
 -1      4223    3    0    1
 -2      1090      1114      2154      2157
 -1      4224    3    0    1
 -2       374       242      1328      1964
 -1      4225    3    0    1
 -2       866       893      2204      2400
 -1      4226    3    0    1
 -2       951      2328      2371      2404
 -1      4227    3    0    1
 -2       618       635       976      2393
 -1      4228    3    0    1
 -2       276       364      2368      2376
 -1      4229    3    0    1
 -2      1997      1947      2108      2149
 -1      4230    3    0    1
 -2       284       360      2023      2378
 -1      4231    3    0    1
 -2      2360      2211      2520      3042
 -1      4232    3    0    1
 -2       385       966      1949      2156
 -1      4233    3    0    1
 -2      1425      1426      3432      3486
 -1      4234    3    0    1
 -2       851      1384      1370      2178
 -1      4235    3    0    1
 -2      1076       835      1990      2120
 -1      4236    3    0    1
 -2      1391       867       879      1984
 -1      4237    3    0    1
 -2      1983      1954      2019      2067
 -1      4238    3    0    1
 -2       196      1609      2839      1760
 -1      4239    3    0    1
 -2       162      1945      2149      2155
 -1      4240    3    0    1
 -2      2027      1991      2195      2399
 -1      4241    3    0    1
 -2      1949       142      2277      2410
 -1      4242    3    0    1
 -2       134      2199      2318      2385
 -1      4243    3    0    1
 -2       408      1937      1974      2407
 -1      4244    3    0    1
 -2       871      1117       880      2193
 -1      4245    3    0    1
 -2      1038       762      2263      2406
 -1      4246    3    0    1
 -2      2726      2536      3584      3633
 -1      4247    3    0    1
 -2       752       771      2063      2236
 -1      4248    3    0    1
 -2      1002       187      2125      2308
 -1      4249    3    0    1
 -2      2534      2602      1681      2818
 -1      4250    3    0    1
 -2       749      1031      2031      2254
 -1      4251    3    0    1
 -2       612      2056      2385      2156
 -1      4252    3    0    1
 -2      1965      2162      2305      2362
 -1      4253    3    0    1
 -2       558       549       943      2186
 -1      4254    3    0    1
 -2      2152       676      2160      2223
 -1      4255    3    0    1
 -2       995       689      1002      2316
 -1      4256    3    0    1
 -2       702      1008      2113      2310
 -1      4257    3    0    1
 -2       350      1945      2341      2351
 -1      4258    3    0    1
 -2       402       404       989      2133
 -1      4259    3    0    1
 -2       646       643      1304      2213
 -1      4260    3    0    1
 -2      1114       299       340      2157
 -1      4261    3    0    1
 -2      1024       734      1322      2116
 -1      4262    3    0    1
 -2       437      1968      2169      2204
 -1      4263    3    0    1
 -2      1951      2044      2079      2198
 -1      4264    3    0    1
 -2      1428      1427      1510      3435
 -1      4265    3    0    1
 -2      1037       762      1044      2406
 -1      4266    3    0    1
 -2       881       861      2350      2363
 -1      4267    3    0    1
 -2       438       420      1977      2120
 -1      4268    3    0    1
 -2       286       355      1073      2143
 -1      4269    3    0    1
 -2       393      2097      2246      2390
 -1      4270    3    0    1
 -2      1005      2268      1317       201
 -1      4271    3    0    1
 -2      3132      3127      3607      3386
 -1      4272    3    0    1
 -2       869      1379      2083      2159
 -1      4273    3    0    1
 -2      1976      1961      2025      2082
 -1      4274    3    0    1
 -2       315      1343      1998      2163
 -1      4275    3    0    1
 -2       306      1109      2109      2119
 -1      4276    3    0    1
 -2      1635      1685      3532      3050
 -1      4277    3    0    1
 -2      1401      1095      1985      2058
 -1      4278    3    0    1
 -2      1283       943       549      2186
 -1      4279    3    0    1
 -2       363      1953      2061      2101
 -1      4280    3    0    1
 -2      2029      2004      2095      2182
 -1      4281    3    0    1
 -2      2805      2611      2904      3559
 -1      4282    3    0    1
 -2       858       888      1125      2129
 -1      4283    3    0    1
 -2      1487      2826      3553      3081
 -1      4284    3    0    1
 -2      2001       974      2280      2314
 -1      4285    3    0    1
 -2       362      1366      1365      2423
 -1      4286    3    0    1
 -2      2085       831      2444      2447
 -1      4287    3    0    1
 -2      1297      2242      2394      2450
 -1      4288    3    0    1
 -2      1950      1989      2143      2208
 -1      4289    3    0    1
 -2      1351       291       303      2201
 -1      4290    3    0    1
 -2       142       962      2138      2161
 -1      4291    3    0    1
 -2      1094      2060      2356      2386
 -1      4292    3    0    1
 -2       967       144       970      2293
 -1      4293    3    0    1
 -2       407      1391      1984      2010
 -1      4294    3    0    1
 -2      1354       311      1355      2174
 -1      4295    3    0    1
 -2      2033       966      2056      2199
 -1      4296    3    0    1
 -2       294      1361      1946      2038
 -1      4297    3    0    1
 -2      2150      1941      2173      2373
 -1      4298    3    0    1
 -2      1324       377      2179      2182
 -1      4299    3    0    1
 -2      1943       348      2074      2260
 -1      4300    3    0    1
 -2       630       622       974      2280
 -1      4301    3    0    1
 -2      3535      2658      3579      3307
 -1      4302    3    0    1
 -2      2044      2101      2103      2345
 -1      4303    3    0    1
 -2      2007      1977      2073      2239
 -1      4304    3    0    1
 -2      1960      2012      2129      2386
 -1      4305    3    0    1
 -2      1394       294      1946      2038
 -1      4306    3    0    1
 -2      1937      1972      1995      2035
 -1      4307    3    0    1
 -2       374      2232      2251      2335
 -1      4308    3    0    1
 -2      1939      2157      2164      2181
 -1      4309    3    0    1
 -2       414      1010      2042      2144
 -1      4310    3    0    1
 -2      1988      1969      2177      2298
 -1      4311    3    0    1
 -2       866      1104      2400      2415
 -1      4312    3    0    1
 -2      2125       183      2144      2308
 -1      4313    3    0    1
 -2      2204      2106      2241      2400
 -1      4314    3    0    1
 -2      1990      1977      2120      2206
 -1      4315    3    0    1
 -2      1332       788      2412      2451
 -1      4316    3    0    1
 -2       409       170      1307      2420
 -1      4317    3    0    1
 -2       369       372      1051      1935
 -1      4318    3    0    1
 -2       149       968       969      2191
 -1      4319    3    0    1
 -2       413       408      1310      2223
 -1      4320    3    0    1
 -2      2296      2118      2327      2443
 -1      4321    3    0    1
 -2       708      2042      2188      2268
 -1      4322    3    0    1
 -2       294      1362      1361      2038
 -1      4323    3    0    1
 -2       362      1365      1955      2065
 -1      4324    3    0    1
 -2       397       217      2142      2196
 -1      4325    3    0    1
 -2      2146       382      2365      2370
 -1      4326    3    0    1
 -2      1013       400      1017      1933
 -1      4327    3    0    1
 -2      1952      2080      2112      2178
 -1      4328    3    0    1
 -2      1960      2012      2069      2123
 -1      4329    3    0    1
 -2       244       243      2284      2384
 -1      4330    3    0    1
 -2      2270       258      2301      2346
 -1      4331    3    0    1
 -2       594      2286      2318       586
 -1      4332    3    0    1
 -2       400       401      1017      1933
 -1      4333    3    0    1
 -2       987       327      2291      2544
 -1      4334    3    0    1
 -2      1955      1983      2019      2092
 -1      4335    3    0    1
 -2      2124      2034      2326      2408
 -1      4336    3    0    1
 -2       940       549      1286      2186
 -1      4337    3    0    1
 -2       600       599       961      2421
 -1      4338    3    0    1
 -2       699      1992      2292      3431
 -1      4339    3    0    1
 -2      1079      1395      2005      2198
 -1      4340    3    0    1
 -2      1361       845      2075      2230
 -1      4341    3    0    1
 -2      1389       878      2083      2159
 -1      4342    3    0    1
 -2      1989      1950      2175      2208
 -1      4343    3    0    1
 -2      1978      2102      2233      2297
 -1      4344    3    0    1
 -2       414      1003      1010      2144
 -1      4345    3    0    1
 -2       984       327       987      2544
 -1      4346    3    0    1
 -2      2109      1987      2119      2344
 -1      4347    3    0    1
 -2      2111      1989      2112      2184
 -1      4348    3    0    1
 -2       958      2059      2170      2424
 -1      4349    3    0    1
 -2      2041       996      2320      2436
 -1      4350    3    0    1
 -2       857      1090      2154      2157
 -1      4351    3    0    1
 -2       377      2095      2162      2215
 -1      4352    3    0    1
 -2       662      2739      3338      3672
 -1      4353    3    0    1
 -2      1765      1764      3231      3394
 -1      4354    3    0    1
 -2      2051      1944      2074      2094
 -1      4355    3    0    1
 -2      2023       558      2265      2378
 -1      4356    3    0    1
 -2      1309       658       666      2130
 -1      4357    3    0    1
 -2       396       982      3519      3154
 -1      4358    3    0    1
 -2      1291      2395      2409      3442
 -1      4359    3    0    1
 -2       966       612      2056      2199
 -1      4360    3    0    1
 -2      1943       288      2096      2350
 -1      4361    3    0    1
 -2      2188       707      2042       708
 -1      4362    3    0    1
 -2      2107      2088      2008      2078
 -1      4363    3    0    1
 -2       378      1349      2372      2446
 -1      4364    3    0    1
 -2       850      1121      1369      2345
 -1      4365    3    0    1
 -2      1355       842      2114      2183
 -1      4366    3    0    1
 -2       981       643      2213      2319
 -1      4367    3    0    1
 -2      1313       684      2125      2160
 -1      4368    3    0    1
 -2      2440       950      2549      2584
 -1      4369    3    0    1
 -2      1338       819      2104      2272
 -1      4370    3    0    1
 -2       242      1042      1328      1964
 -1      4371    3    0    1
 -2       771       752      2127      2236
 -1      4372    3    0    1
 -2      1386       859      1093      2261
 -1      4373    3    0    1
 -2      2849      1424      3243      3674
 -1      4374    3    0    1
 -2      2361       563      2379      2449
 -1      4375    3    0    1
 -2      2034       401      2064      2326
 -1      4376    3    0    1
 -2      1022       217      1026      2300
 -1      4377    3    0    1
 -2       573       941      1289      1931
 -1      4378    3    0    1
 -2      1369      2044      2079      2345
 -1      4379    3    0    1
 -2      1987      1975      2109      2119
 -1      4380    3    0    1
 -2      1976      1961      1998      2166
 -1      4381    3    0    1
 -2      1295       586       594      2425
 -1      4382    3    0    1
 -2       288      1346      1943      2096
 -1      4383    3    0    1
 -2      1348      1077      2158      2180
 -1      4384    3    0    1
 -2       853      1382      1083      2173
 -1      4385    3    0    1
 -2      1988       400      2298      2343
 -1      4386    3    0    1
 -2      2117      1039      2251      2321
 -1      4387    3    0    1
 -2      2055      2095      2207      2215
 -1      4388    3    0    1
 -2      1980      1939      2070      2217
 -1      4389    3    0    1
 -2      2157      1372      2164      2181
 -1      4390    3    0    1
 -2       845      1360      2075      2230
 -1      4391    3    0    1
 -2      2540       981      2687      2761
 -1      4392    3    0    1
 -2      1329      1041       770      2284
 -1      4393    3    0    1
 -2       886      1398      2019      2092
 -1      4394    3    0    1
 -2       600       617       960      2397
 -1      4395    3    0    1
 -2       573       552       941      1931
 -1      4396    3    0    1
 -2       863      1128      1375      2077
 -1      4397    3    0    1
 -2       259      1053      1054      2270
 -1      4398    3    0    1
 -2      1052       334      1055      2437
 -1      4399    3    0    1
 -2       798      2270      2301      2437
 -1      4400    3    0    1
 -2      1943      1994      2001      2260
 -1      4401    3    0    1
 -2       635       975      2203      2393
 -1      4402    3    0    1
 -2      1771       799      1772      3328
 -1      4403    3    0    1
 -2       304      1360      1363      2230
 -1      4404    3    0    1
 -2      2412       334      2437      2457
 -1      4405    3    0    1
 -2      2238      2077      2299      2362
 -1      4406    3    0    1
 -2       290       378      2372      2446
 -1      4407    3    0    1
 -2       712       720      1320      2367
 -1      4408    3    0    1
 -2      1029       216      2258      2439
 -1      4409    3    0    1
 -2       690       707      1010      2042
 -1      4410    3    0    1
 -2      2037      1951      2044      2103
 -1      4411    3    0    1
 -2       676       684       997      2160
 -1      4412    3    0    1
 -2      2142      1968      2167      2279
 -1      4413    3    0    1
 -2      1060       810      2285      2396
 -1      4414    3    0    1
 -2      2110      2177      2430      2432
 -1      4415    3    0    1
 -2      2137      1046      2384      2387
 -1      4416    3    0    1
 -2      2173      2150      2373      2434
 -1      4417    3    0    1
 -2      2077       863      2238      2305
 -1      4418    3    0    1
 -2      2024      1987      2034      2064
 -1      4419    3    0    1
 -2      1376       305      2238      2288
 -1      4420    3    0    1
 -2       635       636       977      1936
 -1      4421    3    0    1
 -2       190      1313      1974      2140
 -1      4422    3    0    1
 -2      2025      1976      2046      2166
 -1      4423    3    0    1
 -2       321      2036      2354      1323
 -1      4424    3    0    1
 -2       982       646      1304      2213
 -1      4425    3    0    1
 -2      1954      2219      2225      2324
 -1      4426    3    0    1
 -2       364      1070      1071      2368
 -1      4427    3    0    1
 -2      2073      1975      2109      2239
 -1      4428    3    0    1
 -2       643       664      1304      2585
 -1      4429    3    0    1
 -2      1960      1959      2009      2089
 -1      4430    3    0    1
 -2       397      2142      2298      2300
 -1      4431    3    0    1
 -2       132       133      2086      2453
 -1      4432    3    0    1
 -2      2018      1932      2210      2217
 -1      4433    3    0    1
 -2       197       414      2042      2294
 -1      4434    3    0    1
 -2      2033       966      2057      2156
 -1      4435    3    0    1
 -2       363       274      2101      2104
 -1      4436    3    0    1
 -2      2012      1960      2060      2386
 -1      4437    3    0    1
 -2       810      2049      2285      2396
 -1      4438    3    0    1
 -2      2077      2238      2299      2305
 -1      4439    3    0    1
 -2       863       891      1128      2077
 -1      4440    3    0    1
 -2      1947      1993      2008      2108
 -1      4441    3    0    1
 -2      2269       599      2421      2428
 -1      4442    3    0    1
 -2      1624      1591      2903      3272
 -1      4443    3    0    1
 -2       948      2197      2370      2380
 -1      4444    3    0    1
 -2      2026      2249      2365      2371
 -1      4445    3    0    1
 -2      1123       886      2019      2092
 -1      4446    3    0    1
 -2       756      1991      2179      2195
 -1      4447    3    0    1
 -2       581       952      2146      2409
 -1      4448    3    0    1
 -2       822      1339      2355      2454
 -1      4449    3    0    1
 -2       762      2145      2263      2406
 -1      4450    3    0    1
 -2       178       326      2205      2283
 -1      4451    3    0    1
 -2       549       558      1286      2186
 -1      4452    3    0    1
 -2      1132      1380      2045      2430
 -1      4453    3    0    1
 -2       402       175       995      2041
 -1      4454    3    0    1
 -2       743      1027      1030      2148
 -1      4455    3    0    1
 -2      2848      2644      3688      3400
 -1      4456    3    0    1
 -2      2020      1337      2267      2419
 -1      4457    3    0    1
 -2       132       961      1296      2086
 -1      4458    3    0    1
 -2      1998      1990      2120      2206
 -1      4459    3    0    1
 -2      2072      1996      2167      2279
 -1      4460    3    0    1
 -2      2046      2025      2166      2193
 -1      4461    3    0    1
 -2      1934      2173      2373      2434
 -1      4462    3    0    1
 -2       395      1608      3630      3611
 -1      4463    3    0    1
 -2      1428      1427      1502      2548
 -1      4464    3    0    1
 -2      2265      2212      2413      2418
 -1      4465    3    0    1
 -2      1975      2073      2109      2119
 -1      4466    3    0    1
 -2       353      1932      1938      2071
 -1      4467    3    0    1
 -2       994      2041      2135      2205
 -1      4468    3    0    1
 -2      2076       413      2152      2223
 -1      4469    3    0    1
 -2       606       614       970      1905
 -1      4470    3    0    1
 -2      1935      1958      2014      2040
 -1      4471    3    0    1
 -2      1327       324      1991      2027
 -1      4472    3    0    1
 -2       325       377      2162      2179
 -1      4473    3    0    1
 -2      1966       417      2028      2206
 -1      4474    3    0    1
 -2       208       317      2202      2222
 -1      4475    3    0    1
 -2       983       979      1945      2248
 -1      4476    3    0    1
 -2      1046       780      2384      2387
 -1      4477    3    0    1
 -2      1963      2004      2207      2215
 -1      4478    3    0    1
 -2      1344       835      1343      1990
 -1      4479    3    0    1
 -2      2004      1963      2029      2095
 -1      4480    3    0    1
 -2       338       356      2309      2404
 -1      4481    3    0    1
 -2       552      1931      2440      2549
 -1      4482    3    0    1
 -2      1857      1559      1858      3373
 -1      4483    3    0    1
 -2      1931       552      2431      2549
 -1      4484    3    0    1
 -2       205      3547      3050      1793
 -1      4485    3    0    1
 -2       109       940      2365      2445
 -1      4486    3    0    1
 -2      2187      1019      2194      2383
 -1      4487    3    0    1
 -2      2589      2436      3711      3444
 -1      4488    3    0    1
 -2      2055      1127      2207      2446
 -1      4489    3    0    1
 -2       363      2061      2219      2225
 -1      4490    3    0    1
 -2      2545      3504      3366      3670
 -1      4491    3    0    1
 -2      2061      1954      2219      2225
 -1      4492    3    0    1
 -2       845      1363      1360      2230
 -1      4493    3    0    1
 -2      2024      2016      2064      2343
 -1      4494    3    0    1
 -2      1043       243      1046      2384
 -1      4495    3    0    1
 -2      1944      2094      2352      2377
 -1      4496    3    0    1
 -2      1128      1375      2305      2455
 -1      4497    3    0    1
 -2      1933       401      2024      2343
 -1      4498    3    0    1
 -2      1339       282      2355      3537
 -1      4499    3    0    1
 -2       401      1970      2024      2343
 -1      4500    3    0    1
 -2      1407       870      1109      2344
 -1      4501    3    0    1
 -2       400       401      1933      2343
 -1      4502    3    0    1
 -2      1975      1987      2024      2344
 -1      4503    3    0    1
 -2      2876      2603      3606      3488
 -1      4504    3    0    1
 -2       396       327      2171      2282
 -1      4505    3    0    1
 -2       999       185      2315      2333
 -1      4506    3    0    1
 -2      2742      2845      1733      1734
 -1      4507    3    0    1
 -2       699       679      2185      2333
 -1      4508    3    0    1
 -2      1341       826      2118      2272
 -1      4509    3    0    1
 -2      2230      2075      2352      2377
 -1      4510    3    0    1
 -2      2212      2043      2237      2418
 -1      4511    3    0    1
 -2       345       977       985      2231
 -1      4512    3    0    1
 -2       349       345       985      2231
 -1      4513    3    0    1
 -2       349       351      1306      2231
 -1      4514    3    0    1
 -2       210      1320      2226      2383
 -1      4515    3    0    1
 -2      2138       142      2161      2410
 -1      4516    3    0    1
 -2       259       261      1048      2381
 -1      4517    3    0    1
 -2      1983      1954      2067      2324
 -1      4518    3    0    1
 -2      2061      1954      2225      2324
 -1      4519    3    0    1
 -2       792       785      2278      2381
 -1      4520    3    0    1
 -2      1063      2325      2447      2452
 -1      4521    3    0    1
 -2       788       789      1333      2331
 -1      4522    3    0    1
 -2       586      2199      2286      2318
 -1      4523    3    0    1
 -2      2199      2056      2286      2318
 -1      4524    3    0    1
 -2      1035       228      1038      2263
 -1      4525    3    0    1
 -2       228       227      1038      2263
 -1      4526    3    0    1
 -2       762      1035      1038      2263
 -1      4527    3    0    1
 -2      2063       771      2127      2236
 -1      4528    3    0    1
 -2       753       734      2116      2236
 -1      4529    3    0    1
 -2      2045      1132      2430      2432
 -1      4530    3    0    1
 -2      1325       752      2063      2236
 -1      4531    3    0    1
 -2      1033      1325      2063      2236
 -1      4532    3    0    1
 -2      1325      1033       752      2236
 -1      4533    3    0    1
 -2      2204       866      2400      2415
 -1      4534    3    0    1
 -2       142      2138      2165      2410
 -1      4535    3    0    1
 -2      2030      1993      2247      2426
 -1      4536    3    0    1
 -2       734       735      1025      2480
 -1      4537    3    0    1
 -2       823       822      1067      2355
 -1      4538    3    0    1
 -2      1030       744      2148      2553
 -1      4539    3    0    1
 -2      2526       823      2532      3516
 -1      4540    3    0    1
 -2       952       382      2146      2370
 -1      4541    3    0    1
 -2       216       222      1028      2258
 -1      4542    3    0    1
 -2       416      1005      2168      2342
 -1      4543    3    0    1
 -2      1049       788      1333      2331
 -1      4544    3    0    1
 -2        40      1800      1891      1892
 -1      4545    3    0    1
 -2      2069      2251      2366      2389
 -1      4546    3    0    1
 -2      2018      1938      2174      2401
 -1      4547    3    0    1
 -2      1996      2006      2147      2299
 -1      4548    3    0    1
 -2      1115      1087      2174      2401
 -1      4549    3    0    1
 -2       868      1406       894      2432
 -1      4550    3    0    1
 -2       855      1115       877      2401
 -1      4551    3    0    1
 -2      2164      1939      2181      2401
 -1      4552    3    0    1
 -2       339      1115      2174      2401
 -1      4553    3    0    1
 -2      2115       986      2205      2291
 -1      4554    3    0    1
 -2      2284      1329      2508      2781
 -1      4555    3    0    1
 -2       607      1297      2242      2394
 -1      4556    3    0    1
 -2       654       653       987      2291
 -1      4557    3    0    1
 -2       654       986      2115      2291
 -1      4558    3    0    1
 -2      1956       365      2240      2296
 -1      4559    3    0    1
 -2       970       975      2393      3502
 -1      4560    3    0    1
 -2       653       654      2115      2291
 -1      4561    3    0    1
 -2      2453      1288      3443      3492
 -1      4562    3    0    1
 -2       362      1365      2065      2423
 -1      4563    3    0    1
 -2      3605      3525      3694      3713
 -1      4564    3    0    1
 -2       976       635      1936      2393
 -1      4565    3    0    1
 -2      1303      2280      2390      2422
 -1      4566    3    0    1
 -2       410      1750      1753      1801
 -1      4567    3    0    1
 -2       702      1317      2168      2294
 -1      4568    3    0    1
 -2       640      2189      2339      2398
 -1      4569    3    0    1
 -2       344       393      2097      2246
 -1      4570    3    0    1
 -2      1332      1050       789      2451
 -1      4571    3    0    1
 -2       300      1399      1089      2287
 -1      4572    3    0    1
 -2      1399       439      1958      2287
 -1      4573    3    0    1
 -2      2246       394      2390      2422
 -1      4574    3    0    1
 -2       664       661      2090      2319
 -1      4575    3    0    1
 -2      2189       640      2248      2398
 -1      4576    3    0    1
 -2       317      1016      2275      3699
 -1      4577    3    0    1
 -2       302      1387       342      2302
 -1      4578    3    0    1
 -2       961      1296      2086      2421
 -1      4579    3    0    1
 -2      1312       998      3534      3652
 -1      4580    3    0    1
 -2       134       960       968      2244
 -1      4581    3    0    1
 -2      1945       162      2149      2398
 -1      4582    3    0    1
 -2       151       134       968      2244
 -1      4583    3    0    1
 -2       979      1945      2248      2398
 -1      4584    3    0    1
 -2       767      1328      2251      2366
 -1      4585    3    0    1
 -2      2069      1051      2313      2366
 -1      4586    3    0    1
 -2      1964       374      2232      2251
 -1      4587    3    0    1
 -2      1328      1964      2209      2251
 -1      4588    3    0    1
 -2      1328       374      1964      2251
 -1      4589    3    0    1
 -2      1996      2147      2196      2279
 -1      4590    3    0    1
 -2      2147       217      2196      2279
 -1      4591    3    0    1
 -2      2117       767      2209      2251
 -1      4592    3    0    1
 -2       767      1328      2209      2251
 -1      4593    3    0    1
 -2      1017      1013      1933      2375
 -1      4594    3    0    1
 -2       374      1328      2069      2251
 -1      4595    3    0    1
 -2       837      1347       838      2253
 -1      4596    3    0    1
 -2      1347       837      1346      2253
 -1      4597    3    0    1
 -2      1346       837      2158      2253
 -1      4598    3    0    1
 -2      1943      1346      2158      2253
 -1      4599    3    0    1
 -2      1994      1943      2158      2253
 -1      4600    3    0    1
 -2      1327       756      2179      2254
 -1      4601    3    0    1
 -2      1327      1031       756      2254
 -1      4602    3    0    1
 -2       233      1031      1327      2254
 -1      4603    3    0    1
 -2       374      1962      2232      2335
 -1      4604    3    0    1
 -2       232       233      1327      2254
 -1      4605    3    0    1
 -2       233       375      1031      2254
 -1      4606    3    0    1
 -2      1999      2080      2178      2255
 -1      4607    3    0    1
 -2      2063      1033      2236      2257
 -1      4608    3    0    1
 -2      2017      2003      2165      2277
 -1      4609    3    0    1
 -2       307       308      1370      2255
 -1      4610    3    0    1
 -2       308       307      1084      2255
 -1      4611    3    0    1
 -2       307      1370      1384      2255
 -1      4612    3    0    1
 -2      1084       307      1113      2255
 -1      4613    3    0    1
 -2       307      1384      1948      2255
 -1      4614    3    0    1
 -2      1948      1384      2080      2255
 -1      4615    3    0    1
 -2      1113      1948      2150      2255
 -1      4616    3    0    1
 -2      1113       307      1948      2255
 -1      4617    3    0    1
 -2       744       761      2329      2553
 -1      4618    3    0    1
 -2      1999      1948      2080      2255
 -1      4619    3    0    1
 -2       228      1033      2063      2257
 -1      4620    3    0    1
 -2      2030       992      2247      2339
 -1      4621    3    0    1
 -2      1321      1025       734      2264
 -1      4622    3    0    1
 -2       220       219      1321      2264
 -1      4623    3    0    1
 -2       734       735      2116      2264
 -1      4624    3    0    1
 -2      2815      1680      3106      3161
 -1      4625    3    0    1
 -2      2148       744      2329      2553
 -1      4626    3    0    1
 -2      2148       743      2220      2258
 -1      4627    3    0    1
 -2      1028       743      1029      2258
 -1      4628    3    0    1
 -2       222       321      1028      2258
 -1      4629    3    0    1
 -2      1028       321      2229      2258
 -1      4630    3    0    1
 -2       744       743      2148      2258
 -1      4631    3    0    1
 -2       743       744      1029      2258
 -1      4632    3    0    1
 -2       958       353      2059      2424
 -1      4633    3    0    1
 -2      1962      2122      2235      2262
 -1      4634    3    0    1
 -2       242      1962      2235      2262
 -1      4635    3    0    1
 -2      2100      3192      3657      3717
 -1      4636    3    0    1
 -2       972      1305      2456      3500
 -1      4637    3    0    1
 -2      2259      2170      2403      2424
 -1      4638    3    0    1
 -2       690       689      1001      2308
 -1      4639    3    0    1
 -2       761       762      2145      2263
 -1      4640    3    0    1
 -2       762       761      1035      2263
 -1      4641    3    0    1
 -2      2704      2478      3545      3586
 -1      4642    3    0    1
 -2      2228      3496      3456      3742
 -1      4643    3    0    1
 -2       408      1000      2223      2407
 -1      4644    3    0    1
 -2      2687      3521      3716      3738
 -1      4645    3    0    1
 -2      2565      1307      3441      3491
 -1      4646    3    0    1
 -2       761      1035      2329      2553
 -1      4647    3    0    1
 -2      1003       690      2042      2308
 -1      4648    3    0    1
 -2       618       967       970      2293
 -1      4649    3    0    1
 -2       104      2361      2379      2414
 -1      4650    3    0    1
 -2       350       162      1946      2341
 -1      4651    3    0    1
 -2      1017       720      2326      2342
 -1      4652    3    0    1
 -2      2149      1997      2155      2341
 -1      4653    3    0    1
 -2      1945      2149      2155      2341
 -1      4654    3    0    1
 -2      1413      2489      3207      3667
 -1      4655    3    0    1
 -2      1979      2062      2351      2352
 -1      4656    3    0    1
 -2      1944      2094      2218      2352
 -1      4657    3    0    1
 -2       162       350      1945      2341
 -1      4658    3    0    1
 -2      2534      2818      2819      2833
 -1      4659    3    0    1
 -2       991       664      2090      2420
 -1      4660    3    0    1
 -2      2110      2177      2303      2430
 -1      4661    3    0    1
 -2      1630      1629      2966      3197
 -1      4662    3    0    1
 -2       941      1289      3508      3642
 -1      4663    3    0    1
 -2      1477      1478      1660      2984
 -1      4664    3    0    1
 -2       951       576      2197      2371
 -1      4665    3    0    1
 -2      1290      2365      2370      2371
 -1      4666    3    0    1
 -2      1405       866      1104      2400
 -1      4667    3    0    1
 -2      1303       971      2280      2422
 -1      4668    3    0    1
 -2       345       977      2417      2422
 -1      4669    3    0    1
 -2       971       345      2098      2422
 -1      4670    3    0    1
 -2       960       617       968      2397
 -1      4671    3    0    1
 -2       217      1022      2006      2399
 -1      4672    3    0    1
 -2      2147      1996      2196      2399
 -1      4673    3    0    1
 -2      2068      2141      2172      2396
 -1      4674    3    0    1
 -2       785       792      1334      2381
 -1      4675    3    0    1
 -2      1125      1374      2129      2287
 -1      4676    3    0    1
 -2      2068      1986      2172      2312
 -1      4677    3    0    1
 -2      1460      1459      1570      3417
 -1      4678    3    0    1
 -2      2068       368      2285      2396
 -1      4679    3    0    1
 -2       953       582       959      2269
 -1      4680    3    0    1
 -2       135       953       959      2269
 -1      4681    3    0    1
 -2       582       599       959      2269
 -1      4682    3    0    1
 -2       135       124       953      2269
 -1      4683    3    0    1
 -2       788       807      2412      2429
 -1      4684    3    0    1
 -2      1468      1467      1589      2674
 -1      4685    3    0    1
 -2      1334      2278      2346      2381
 -1      4686    3    0    1
 -2      1048       785      1334      2381
 -1      4687    3    0    1
 -2      1588      2652      2674      3517
 -1      4688    3    0    1
 -2      2228      3583      3176      3456
 -1      4689    3    0    1
 -2       392      2293      2450      2556
 -1      4690    3    0    1
 -2      1016      1318      2202      2274
 -1      4691    3    0    1
 -2      1318      1016       717      2274
 -1      4692    3    0    1
 -2       715      1015      1322      2274
 -1      4693    3    0    1
 -2       735       715      1322      2274
 -1      4694    3    0    1
 -2      1467      1468      1742      3238
 -1      4695    3    0    1
 -2      2175       359      2249      2276
 -1      4696    3    0    1
 -2       272      2118      2327      2452
 -1      4697    3    0    1
 -2      1062       815      2325      2411
 -1      4698    3    0    1
 -2       142       385      1949      2277
 -1      4699    3    0    1
 -2       992       666      2247      2339
 -1      4700    3    0    1
 -2      2003      1940      2165      2277
 -1      4701    3    0    1
 -2      1940       142      2165      2277
 -1      4702    3    0    1
 -2       385       142      1940      2277
 -1      4703    3    0    1
 -2       792       785      1047      2278
 -1      4704    3    0    1
 -2      1047       785      2141      2278
 -1      4705    3    0    1
 -2       448      1953      2101      2382
 -1      4706    3    0    1
 -2       282      2355      2391      2442
 -1      4707    3    0    1
 -2       586      1295       955      2425
 -1      4708    3    0    1
 -2      3509      2402      3178      3605
 -1      4709    3    0    1
 -2       852      1122      1371      2382
 -1      4710    3    0    1
 -2       448       447      1953      2382
 -1      4711    3    0    1
 -2       354       959      2421      2425
 -1      4712    3    0    1
 -2      1982      2067      2324      2382
 -1      4713    3    0    1
 -2       343      2001      2252      2314
 -1      4714    3    0    1
 -2      2097      2053      2138      2314
 -1      4715    3    0    1
 -2      2234      2132      2330      2423
 -1      4716    3    0    1
 -2      3243      2849      3674      1883
 -1      4717    3    0    1
 -2      2065      1955      2132      2423
 -1      4718    3    0    1
 -2      1296      2086      2421      2428
 -1      4719    3    0    1
 -2      2202       208      2472      3507
 -1      4720    3    0    1
 -2       368      2234      2317      2396
 -1      4721    3    0    1
 -2      2068      2049      2141      2396
 -1      4722    3    0    1
 -2       973      2394      2537      3710
 -1      4723    3    0    1
 -2      2977      2668      3310      3712
 -1      4724    3    0    1
 -2      1958      2014      2040      2340
 -1      4725    3    0    1
 -2      1057       803      2267      2452
 -1      4726    3    0    1
 -2       771       770      1041      2284
 -1      4727    3    0    1
 -2      1340       823      2093      2332
 -1      4728    3    0    1
 -2      3518      2041       671      2291
 -1      4729    3    0    1
 -2       680       673      2783      1846
 -1      4730    3    0    1
 -2      1507      1508      1585      2788
 -1      4731    3    0    1
 -2      3101      1465      3106      3625
 -1      4732    3    0    1
 -2      1335       267      2515      2595
 -1      4733    3    0    1
 -2      1170      2599      2600      2830
 -1      4734    3    0    1
 -2      3508       949      3572      3615
 -1      4735    3    0    1
 -2       803      2118      2296      2452
 -1      4736    3    0    1
 -2      1416      3520      1700      3404
 -1      4737    3    0    1
 -2      1057      2267      2419      2452
 -1      4738    3    0    1
 -2      1932       125      2070      2286
 -1      4739    3    0    1
 -2      1986      2014      2040      2312
 -1      4740    3    0    1
 -2      1292       586      2199      2286
 -1      4741    3    0    1
 -2       305      1403      1100      2288
 -1      4742    3    0    1
 -2      1971      2002      2008      2289
 -1      4743    3    0    1
 -2      2128      2002      2214      2289
 -1      4744    3    0    1
 -2       403      2128      2214      2289
 -1      4745    3    0    1
 -2      2313      2069      2366      2389
 -1      4746    3    0    1
 -2      2680      2972      3027      3561
 -1      4747    3    0    1
 -2      2002      1971      2214      2289
 -1      4748    3    0    1
 -2       405      1971      2008      2289
 -1      4749    3    0    1
 -2       405       403      2214      2289
 -1      4750    3    0    1
 -2      1971       405      2214      2289
 -1      4751    3    0    1
 -2      1320       211      2367      2383
 -1      4752    3    0    1
 -2      1567      1463      1568      2910
 -1      4753    3    0    1
 -2       700       415      1009      1922
 -1      4754    3    0    1
 -2       957       592       589      2453
 -1      4755    3    0    1
 -2       112      3548      3449      1828
 -1      4756    3    0    1
 -2       984       653      2115      2291
 -1      4757    3    0    1
 -2       653       984       987      2291
 -1      4758    3    0    1
 -2       661       991      1307      2562
 -1      4759    3    0    1
 -2       671       654       993      2291
 -1      4760    3    0    1
 -2       654       987       993      2291
 -1      4761    3    0    1
 -2       664       643      2319      2585
 -1      4762    3    0    1
 -2       144       392       970      2293
 -1      4763    3    0    1
 -2       119       388      1291      2395
 -1      4764    3    0    1
 -2      1367       847       848      2423
 -1      4765    3    0    1
 -2      1317      2268      2294       197
 -1      4766    3    0    1
 -2      1317      2168      2268      1005
 -1      4767    3    0    1
 -2       414       197      1317      2294
 -1      4768    3    0    1
 -2       334       254      2412      2437
 -1      4769    3    0    1
 -2      2041       993      3518       671
 -1      4770    3    0    1
 -2      1284       100      2431      3733
 -1      4771    3    0    1
 -2      3591      3209      3643      3482
 -1      4772    3    0    1
 -2      3251      2940      3673      3685
 -1      4773    3    0    1
 -2      1452      2891      3300      3320
 -1      4774    3    0    1
 -2      1952      1999      2256      2328
 -1      4775    3    0    1
 -2      2000      1952      2256      2328
 -1      4776    3    0    1
 -2      2121      1978      2323      2369
 -1      4777    3    0    1
 -2       563       564       946      2379
 -1      4778    3    0    1
 -2      3521      2511      3716      3738
 -1      4779    3    0    1
 -2      1026      2022      2036      2298
 -1      4780    3    0    1
 -2      2016      1380      2045      2344
 -1      4781    3    0    1
 -2      2024      2016      2045      2344
 -1      4782    3    0    1
 -2      2232      2251      2335      2448
 -1      4783    3    0    1
 -2      1933      1013      2298      2375
 -1      4784    3    0    1
 -2       276       364      1071      2368
 -1      4785    3    0    1
 -2      1065       284      1981      2368
 -1      4786    3    0    1
 -2      1969      2022      2106      2298
 -1      4787    3    0    1
 -2      1969      1988      2022      2298
 -1      4788    3    0    1
 -2      2022       397      2106      2298
 -1      4789    3    0    1
 -2      1026       397      2022      2298
 -1      4790    3    0    1
 -2      1988       400      2022      2298
 -1      4791    3    0    1
 -2       400      1013      2022      2298
 -1      4792    3    0    1
 -2      1013       712      2374      2375
 -1      4793    3    0    1
 -2      1553      1706      3574      3262
 -1      4794    3    0    1
 -2       594      1295      2424      2441
 -1      4795    3    0    1
 -2       940       549      2186      2365
 -1      4796    3    0    1
 -2      2177      1988      2430      2432
 -1      4797    3    0    1
 -2       258      1053      2270      2301
 -1      4798    3    0    1
 -2      1667      1676      1677      2994
 -1      4799    3    0    1
 -2      1045       797      1053      2301
 -1      4800    3    0    1
 -2       780       797      1045      2301
 -1      4801    3    0    1
 -2       302      1077      1348      2302
 -1      4802    3    0    1
 -2      1387       302      1092      2302
 -1      4803    3    0    1
 -2       302      1348      2180      2302
 -1      4804    3    0    1
 -2      1092       302      2180      2302
 -1      4805    3    0    1
 -2      1092      2180      2261      2302
 -1      4806    3    0    1
 -2      1402       862      1099      2455
 -1      4807    3    0    1
 -2       100       942      1284      2431
 -1      4808    3    0    1
 -2      3439       220      3734      3745
 -1      4809    3    0    1
 -2       132       957      3443      3736
 -1      4810    3    0    1
 -2       868       894      1131      2303
 -1      4811    3    0    1
 -2      1131       894      2110      2303
 -1      4812    3    0    1
 -2      1132       434      2430      2432
 -1      4813    3    0    1
 -2      2304       100      2416      2431
 -1      4814    3    0    1
 -2      2403      2259      2424      2441
 -1      4815    3    0    1
 -2       862      1402       890      2455
 -1      4816    3    0    1
 -2      2299      2077      2305      2362
 -1      4817    3    0    1
 -2       334      1055      2437      3708
 -1      4818    3    0    1
 -2       434       433      2430      2432
 -1      4819    3    0    1
 -2      1307      3441      3491      3737
 -1      4820    3    0    1
 -2       868      2303      2430      2432
 -1      4821    3    0    1
 -2      1400      2089      2129      2356
 -1      4822    3    0    1
 -2       780      2137      2301      2387
 -1      4823    3    0    1
 -2      1358       843      1357      2357
 -1      4824    3    0    1
 -2      2242       965      2392      2450
 -1      4825    3    0    1
 -2      3020      3705      3591      3399
 -1      4826    3    0    1
 -2       862      2055      2207      2455
 -1      4827    3    0    1
 -2      2006      1967      2299      2362
 -1      4828    3    0    1
 -2      2162      2195      2299      2362
 -1      4829    3    0    1
 -2      1050      1332      2412      2451
 -1      4830    3    0    1
 -2      2049      2068      2285      2396
 -1      4831    3    0    1
 -2      1960      2058      2060      2356
 -1      4832    3    0    1
 -2      1126      1094      2060      2356
 -1      4833    3    0    1
 -2       979       162      1945      2398
 -1      4834    3    0    1
 -2      3510      2459      3544      3715
 -1      4835    3    0    1
 -2      2056       612      2385      2199
 -1      4836    3    0    1
 -2      1974      1937      2140      2407
 -1      4837    3    0    1
 -2      1000       684      2223      2407
 -1      4838    3    0    1
 -2      1065      1981      2272      2376
 -1      4839    3    0    1
 -2       338      1948      1999      2309
 -1      4840    3    0    1
 -2      2022      2036      2298      2374
 -1      4841    3    0    1
 -2       258       259      1048      2381
 -1      4842    3    0    1
 -2       258      1334      2346      2381
 -1      4843    3    0    1
 -2      1334       792      2278      2381
 -1      4844    3    0    1
 -2       785      2141      2278      2381
 -1      4845    3    0    1
 -2      1048       261      2020      2381
 -1      4846    3    0    1
 -2      2197       951      2371      2404
 -1      4847    3    0    1
 -2       356      1287      2170      2311
 -1      4848    3    0    1
 -2      2036      2047      2229      2374
 -1      4849    3    0    1
 -2      1935      1051      2278      2313
 -1      4850    3    0    1
 -2       372      1051      1935      2313
 -1      4851    3    0    1
 -2       372      1935      2123      2313
 -1      4852    3    0    1
 -2       712      2367      2374      2375
 -1      4853    3    0    1
 -2      1051       372      2069      2313
 -1      4854    3    0    1
 -2       974       630      2280      2314
 -1      4855    3    0    1
 -2      2053       343      2252      2314
 -1      4856    3    0    1
 -2      2138      2053      2252      2314
 -1      4857    3    0    1
 -2       974       343      2053      2314
 -1      4858    3    0    1
 -2       558      2186      2265      2378
 -1      4859    3    0    1
 -2      2306       779      2384      2406
 -1      4860    3    0    1
 -2       232       324      1036      2334
 -1      4861    3    0    1
 -2      1512      1511      3419      3484
 -1      4862    3    0    1
 -2      2384       243      2705      3582
 -1      4863    3    0    1
 -2      2701      2855      2934      3265
 -1      4864    3    0    1
 -2       233       232      2145      2334
 -1      4865    3    0    1
 -2       389       158      3502      3710
 -1      4866    3    0    1
 -2      2452      1063       265       272
 -1      4867    3    0    1
 -2      2416       947      3442      3735
 -1      4868    3    0    1
 -2      3520      3541      3068      3404
 -1      4869    3    0    1
 -2      1297      2394      2580      3710
 -1      4870    3    0    1
 -2       390       389      3502      3710
 -1      4871    3    0    1
 -2      3502      2203      2556      3710
 -1      4872    3    0    1
 -2      1957      2234      2068      2317
 -1      4873    3    0    1
 -2       261       259      2270      2381
 -1      4874    3    0    1
 -2       440       373      1091      2386
 -1      4875    3    0    1
 -2      1091       373      1400      2386
 -1      4876    3    0    1
 -2       403       405       992      2426
 -1      4877    3    0    1
 -2      2394       973      2580      3710
 -1      4878    3    0    1
 -2       126       354      2421      2425
 -1      4879    3    0    1
 -2       156       394      1936      2422
 -1      4880    3    0    1
 -2       405       403      2289      2426
 -1      4881    3    0    1
 -2       298      1364      1367      2438
 -1      4882    3    0    1
 -2      1936       394      2246      2422
 -1      4883    3    0    1
 -2       586       955      2199      2318
 -1      4884    3    0    1
 -2       955       134      2199      2318
 -1      4885    3    0    1
 -2       126       134       955      2318
 -1      4886    3    0    1
 -2      3502       392      1905      3710
 -1      4887    3    0    1
 -2       405      1993      2030      2426
 -1      4888    3    0    1
 -2       643       981      1308      2319
 -1      4889    3    0    1
 -2       995       402      2041      2320
 -1      4890    3    0    1
 -2       254       334      1052      2437
 -1      4891    3    0    1
 -2       798      2015      2270      2437
 -1      4892    3    0    1
 -2      2137      1052      2301      2437
 -1      4893    3    0    1
 -2       265      1057      2419      2452
 -1      4894    3    0    1
 -2       248      1039      1331      2321
 -1      4895    3    0    1
 -2      1331      1039      2117      2321
 -1      4896    3    0    1
 -2      1039       249      2084      2321
 -1      4897    3    0    1
 -2      1067      1335      2767      2769
 -1      4898    3    0    1
 -2       248       249      1039      2321
 -1      4899    3    0    1
 -2       731      2027      2105      2322
 -1      4900    3    0    1
 -2      2216      2212      2237      2413
 -1      4901    3    0    1
 -2      2016      1970      2045      2430
 -1      4902    3    0    1
 -2      2015      1061      2610      3708
 -1      4903    3    0    1
 -2      1339      1067       822      2355
 -1      4904    3    0    1
 -2       555       822      1931      2454
 -1      4905    3    0    1
 -2       324      1991      2027      2322
 -1      4906    3    0    1
 -2      2170      2059      2311      2424
 -1      4907    3    0    1
 -2       216       379      1023      2322
 -1      4908    3    0    1
 -2      1023       379      2027      2322
 -1      4909    3    0    1
 -2       731      1023      2027      2322
 -1      4910    3    0    1
 -2       379       324      2027      2322
 -1      4911    3    0    1
 -2      1550       449      1551      2885
 -1      4912    3    0    1
 -2      2365      2026      2371      2445
 -1      4913    3    0    1
 -2       815       816      1063      2325
 -1      4914    3    0    1
 -2      2118       272      2447      2452
 -1      4915    3    0    1
 -2      2123      2069      2313      2448
 -1      4916    3    0    1
 -2      2012      2069      2123      2448
 -1      4917    3    0    1
 -2      1307       991      2090      2420
 -1      4918    3    0    1
 -2       265      1062      1063      2325
 -1      4919    3    0    1
 -2      2026      2000      2249      2371
 -1      4920    3    0    1
 -2      1124      1088      2266      2438
 -1      4921    3    0    1
 -2      1062       815      1063      2325
 -1      4922    3    0    1
 -2       254      1050      1332      2412
 -1      4923    3    0    1
 -2       265       266      1062      2325
 -1      4924    3    0    1
 -2       382       109      2146      2365
 -1      4925    3    0    1
 -2      1963      2004      2372      2446
 -1      4926    3    0    1
 -2      2177      1988      2343      2430
 -1      4927    3    0    1
 -2       803      1057      2327      2452
 -1      4928    3    0    1
 -2      2118       803      2327      2452
 -1      4929    3    0    1
 -2      1290       382      2365      2445
 -1      4930    3    0    1
 -2       816      1063      2325      2444
 -1      4931    3    0    1
 -2      1955      2065      2234      2336
 -1      4932    3    0    1
 -2       145      1849      3351      3468
 -1      4933    3    0    1
 -2      3495      2402      2473      3605
 -1      4934    3    0    1
 -2       253      1596      1802      1837
 -1      4935    3    0    1
 -2       761      1035      2263      2329
 -1      4936    3    0    1
 -2      2593      2940      3659      2637
 -1      4937    3    0    1
 -2       815      1061      2364      2610
 -1      4938    3    0    1
 -2      1029       761      1036      2329
 -1      4939    3    0    1
 -2       744       761      1029      2329
 -1      4940    3    0    1
 -2      2012      1960      2069      2335
 -1      4941    3    0    1
 -2       349       345      2098      2348
 -1      4942    3    0    1
 -2       983       648      2248      2348
 -1      4943    3    0    1
 -2       831       816      1064      2444
 -1      4944    3    0    1
 -2      3591      3399      3705      3482
 -1      4945    3    0    1
 -2       648      2098      2248      2348
 -1      4946    3    0    1
 -2      2267       803      2296      2452
 -1      4947    3    0    1
 -2       789      1040      1333      2331
 -1      4948    3    0    1
 -2       789       770      1040      2331
 -1      4949    3    0    1
 -2       220       733      1030      1926
 -1      4950    3    0    1
 -2      1992       699      2185      2333
 -1      4951    3    0    1
 -2      1511      1512      3419      3432
 -1      4952    3    0    1
 -2      3018      1616      3351      3468
 -1      4953    3    0    1
 -2      1511      1425      1512      3432
 -1      4954    3    0    1
 -2       571       949      2139      2440
 -1      4955    3    0    1
 -2      1955      2234      2317      2336
 -1      4956    3    0    1
 -2       365       368      1956      2336
 -1      4957    3    0    1
 -2      1956       368      2317      2336
 -1      4958    3    0    1
 -2      1955       365      2039      2336
 -1      4959    3    0    1
 -2       368       365      1955      2336
 -1      4960    3    0    1
 -2       368      1955      2317      2336
 -1      4961    3    0    1
 -2      2082      2081      2151      2337
 -1      4962    3    0    1
 -2      2082      2151      2152      2337
 -1      4963    3    0    1
 -2      1310      2082      2152      2337
 -1      4964    3    0    1
 -2       676      1310      2152      2337
 -1      4965    3    0    1
 -2       414       191      2144      2337
 -1      4966    3    0    1
 -2      2081       414      2144      2337
 -1      4967    3    0    1
 -2      2081      1317      2294      2337
 -1      4968    3    0    1
 -2       414      2081      2294      2337
 -1      4969    3    0    1
 -2      1317       414      2294      2337
 -1      4970    3    0    1
 -2      2081      2144      2152      2337
 -1      4971    3    0    1
 -2      2151      2081      2152      2337
 -1      4972    3    0    1
 -2       178       326      2283      2339
 -1      4973    3    0    1
 -2      1309       178      2283      2339
 -1      4974    3    0    1
 -2      2189      2247      2283      2339
 -1      4975    3    0    1
 -2      1036      2329      2334      2439
 -1      4976    3    0    1
 -2      1124       856       887      2340
 -1      4977    3    0    1
 -2       856      1399       887      2340
 -1      4978    3    0    1
 -2      2266      2014      2287      2340
 -1      4979    3    0    1
 -2      1124      2266       856      2340
 -1      4980    3    0    1
 -2      1089       856      2266      2340
 -1      4981    3    0    1
 -2      1399       856      1089      2340
 -1      4982    3    0    1
 -2      1089      2266      2287      2340
 -1      4983    3    0    1
 -2      1314      2034      2124      2342
 -1      4984    3    0    1
 -2       694      1314      2124      2342
 -1      4985    3    0    1
 -2       345       977      2231      2417
 -1      4986    3    0    1
 -2      2250       972      2456      3500
 -1      4987    3    0    1
 -2       952       122      2370      2409
 -1      4988    3    0    1
 -2      2146       952      2370      2409
 -1      4989    3    0    1
 -2       954       581      1291      2409
 -1      4990    3    0    1
 -2       870      1407       895      2344
 -1      4991    3    0    1
 -2      2045      1407      2119      2344
 -1      4992    3    0    1
 -2       895      1407      2045      2344
 -1      4993    3    0    1
 -2      1975      2045      2119      2344
 -1      4994    3    0    1
 -2      1975      2024      2045      2344
 -1      4995    3    0    1
 -2       850       884      1121      2345
 -1      4996    3    0    1
 -2      1121       884      2044      2345
 -1      4997    3    0    1
 -2       370      2301       258      2346
 -1      4998    3    0    1
 -2      2301       370       258      1053
 -1      4999    3    0    1
 -2       370       258      1334      2346
 -1      5000    3    0    1
 -2      2854      2680      2972      3073
 -1      5001    3    0    1
 -2       424      3306      3404      3703
 -1      5002    3    0    1
 -2      2542      2805      2904      3559
 -1      5003    3    0    1
 -2      3597      3530      3315      3741
 -1      5004    3    0    1
 -2       388       954      2395      3503
 -1      5005    3    0    1
 -2      1726      2926      2927      2998
 -1      5006    3    0    1
 -2      1288      2440      2453      2584
 -1      5007    3    0    1
 -2      2650      1648      2759      3554
 -1      5008    3    0    1
 -2      1978      2100      2297      2467
 -1      5009    3    0    1
 -2      2098      2218      2248      2348
 -1      5010    3    0    1
 -2      2053       974      2314      2349
 -1      5011    3    0    1
 -2      2053      2097      2138      2349
 -1      5012    3    0    1
 -2      2053      2138      2161      2349
 -1      5013    3    0    1
 -2       962      2053      2161      2349
 -1      5014    3    0    1
 -2       604       962      2161      2349
 -1      5015    3    0    1
 -2      2138      2097      2161      2349
 -1      5016    3    0    1
 -2       861      1393       881      2350
 -1      5017    3    0    1
 -2      2849      1537      3294      3674
 -1      5018    3    0    1
 -2      1969      2177      2241      2415
 -1      5019    3    0    1
 -2      1097       288      1393      2350
 -1      5020    3    0    1
 -2      1393       288      1943      2350
 -1      5021    3    0    1
 -2       815       816      2325      2364
 -1      5022    3    0    1
 -2       289       288      1097      2350
 -1      5023    3    0    1
 -2      1009       415      2188      2353
 -1      5024    3    0    1
 -2      2437      2137      3497      3696
 -1      5025    3    0    1
 -2      1659      1477      3230      3664
 -1      5026    3    0    1
 -2       661      1308       664      2562
 -1      5027    3    0    1
 -2      1992       699      2333      3431
 -1      5028    3    0    1
 -2       216       222      2258      2354
 -1      5029    3    0    1
 -2       222       216      1323      2354
 -1      5030    3    0    1
 -2      1323       738      2036      2354
 -1      5031    3    0    1
 -2      2036       738      2300      2354
 -1      5032    3    0    1
 -2      1023       731      1323      2354
 -1      5033    3    0    1
 -2       222       321      2258      2354
 -1      5034    3    0    1
 -2       738       731      2300      2354
 -1      5035    3    0    1
 -2       731       738      1323      2354
 -1      5036    3    0    1
 -2       321       222      1323      2354
 -1      5037    3    0    1
 -2      2652      1588      1644      2896
 -1      5038    3    0    1
 -2       282       279      1067      2355
 -1      5039    3    0    1
 -2      1965      2077      2305      2455
 -1      5040    3    0    1
 -2       840       839      2122      2372
 -1      5041    3    0    1
 -2      1104      1405      2400      2415
 -1      5042    3    0    1
 -2       862       890      2055      2455
 -1      5043    3    0    1
 -2      2055      1965      2433      2455
 -1      5044    3    0    1
 -2      2219      2225      2240      2443
 -1      5045    3    0    1
 -2       406      2107      1358      2357
 -1      5046    3    0    1
 -2       844      1358      2107      2357
 -1      5047    3    0    1
 -2       843      1358       844      2357
 -1      5048    3    0    1
 -2       348      2074      2260      2358
 -1      5049    3    0    1
 -2       348      1300      2051      2358
 -1      5050    3    0    1
 -2      2051      1300      2348      2358
 -1      5051    3    0    1
 -2      1300       622      2348      2358
 -1      5052    3    0    1
 -2       348      2051      2074      2358
 -1      5053    3    0    1
 -2       831      1064      1069      2444
 -1      5054    3    0    1
 -2       594      2318      2425       586
 -1      5055    3    0    1
 -2      2110      1131      2303      2415
 -1      5056    3    0    1
 -2      1287       951      2197      2404
 -1      5057    3    0    1
 -2       124       116      2269      2380
 -1      5058    3    0    1
 -2       135       124      2269      2380
 -1      5059    3    0    1
 -2      2256       338      2309      2404
 -1      5060    3    0    1
 -2       394      1303      2390      2422
 -1      5061    3    0    1
 -2       338      2256      2328      2404
 -1      5062    3    0    1
 -2      2875      3171      3451      3727
 -1      5063    3    0    1
 -2       945       360      1071      2361
 -1      5064    3    0    1
 -2       360       284      1071      2361
 -1      5065    3    0    1
 -2       946       564      2146      2379
 -1      5066    3    0    1
 -2       284      1981      2361      2378
 -1      5067    3    0    1
 -2       861      1118      1096      2363
 -1      5068    3    0    1
 -2      1981      2023      2265      2378
 -1      5069    3    0    1
 -2       360      1286      2023      2378
 -1      5070    3    0    1
 -2       558      1286      2186      2378
 -1      5071    3    0    1
 -2       360       104      1286      2378
 -1      5072    3    0    1
 -2      2225       363      2359      2443
 -1      5073    3    0    1
 -2      1068      2219      2327      2443
 -1      5074    3    0    1
 -2      1056      2240      2296      2443
 -1      5075    3    0    1
 -2       826      2118      2272      2443
 -1      5076    3    0    1
 -2      1068      2272      2359      2443
 -1      5077    3    0    1
 -2      2219       363      2225      2443
 -1      5078    3    0    1
 -2       394       393      2246      2390
 -1      5079    3    0    1
 -2       211      1014      1320      2367
 -1      5080    3    0    1
 -2       684      1974      2140      2407
 -1      5081    3    0    1
 -2       243       244      1046      2384
 -1      5082    3    0    1
 -2      2298      1013      2374      2375
 -1      5083    3    0    1
 -2       398       399      1014      2367
 -1      5084    3    0    1
 -2      1528      1527      3103      3321
 -1      5085    3    0    1
 -2      1332      2412      2582      3744
 -1      5086    3    0    1
 -2      2069      2251      2389      2448
 -1      5087    3    0    1
 -2      2069      2012      2335      2448
 -1      5088    3    0    1
 -2       431      2075      2230      2377
 -1      5089    3    0    1
 -2      2094      1944      2363      2377
 -1      5090    3    0    1
 -2       861      2350      2363      2377
 -1      5091    3    0    1
 -2       276       284      1065      2368
 -1      5092    3    0    1
 -2       785      2020      2141      2381
 -1      5093    3    0    1
 -2       785      1048      2020      2381
 -1      5094    3    0    1
 -2       258      1048      1334      2381
 -1      5095    3    0    1
 -2       382       122      1290      2370
 -1      5096    3    0    1
 -2      2031       375      2048      2405
 -1      5097    3    0    1
 -2      2000      2026      2328      2371
 -1      5098    3    0    1
 -2      2076       408      2223      2407
 -1      5099    3    0    1
 -2       576       951      2026      2371
 -1      5100    3    0    1
 -2      1963      2055      2207      2446
 -1      5101    3    0    1
 -2      2026       951      2328      2371
 -1      5102    3    0    1
 -2      1070      1063      2444      2447
 -1      5103    3    0    1
 -2       839      1349      2122      2372
 -1      5104    3    0    1
 -2       839      1352      1349      2372
 -1      5105    3    0    1
 -2       290       378      1349      2372
 -1      5106    3    0    1
 -2       364      1070      2368      2447
 -1      5107    3    0    1
 -2       720       712      1013      2375
 -1      5108    3    0    1
 -2       720      2226      2367      2375
 -1      5109    3    0    1
 -2       712       720      2367      2375
 -1      5110    3    0    1
 -2       720      1017      2226      2375
 -1      5111    3    0    1
 -2      1017       720      1013      2375
 -1      5112    3    0    1
 -2       364       276      1341      2376
 -1      5113    3    0    1
 -2      1341      1065      2272      2376
 -1      5114    3    0    1
 -2      2335      2251      2069      2448
 -1      5115    3    0    1
 -2      1065       276      2368      2376
 -1      5116    3    0    1
 -2       276      1065      1341      2376
 -1      5117    3    0    1
 -2       366       364      1341      2376
 -1      5118    3    0    1
 -2       431      1118      2363      2377
 -1      5119    3    0    1
 -2       304      1118       431      2377
 -1      5120    3    0    1
 -2      2075       431      2363      2377
 -1      5121    3    0    1
 -2      1944      2075      2363      2377
 -1      5122    3    0    1
 -2      1286       558      2023      2378
 -1      5123    3    0    1
 -2       945       563       946      2379
 -1      5124    3    0    1
 -2       944       563      2304      2379
 -1      5125    3    0    1
 -2       563       944       947      2379
 -1      5126    3    0    1
 -2       947       944      2304      2379
 -1      5127    3    0    1
 -2        99       945       946      2379
 -1      5128    3    0    1
 -2      2177      2110      2303      2415
 -1      5129    3    0    1
 -2        99       104       945      2379
 -1      5130    3    0    1
 -2       945       104      2361      2379
 -1      5131    3    0    1
 -2       977      1936      2417      2422
 -1      5132    3    0    1
 -2       948       568      2197      2380
 -1      5133    3    0    1
 -2       356       338       951      2404
 -1      5134    3    0    1
 -2       345       156       977      2422
 -1      5135    3    0    1
 -2       977       156      1936      2422
 -1      5136    3    0    1
 -2      2256      2000      2328      2404
 -1      5137    3    0    1
 -2       951       338      2328      2404
 -1      5138    3    0    1
 -2       116       948      2370      2380
 -1      5139    3    0    1
 -2       382       109      2365      2445
 -1      5140    3    0    1
 -2       948       124      2259      2380
 -1      5141    3    0    1
 -2       568       948      2259      2380
 -1      5142    3    0    1
 -2       116       124       948      2380
 -1      5143    3    0    1
 -2       852       885      1122      2382
 -1      5144    3    0    1
 -2      1953      1982      2061      2382
 -1      5145    3    0    1
 -2      1953      1122      1982      2382
 -1      5146    3    0    1
 -2      1122       885      1982      2382
 -1      5147    3    0    1
 -2       447      1122      1953      2382
 -1      5148    3    0    1
 -2      1365       847      2132      2423
 -1      5149    3    0    1
 -2       684      2160      2223      2407
 -1      5150    3    0    1
 -2      3126      1620      3170      3616
 -1      5151    3    0    1
 -2      3255      3373      3688      3400
 -1      5152    3    0    1
 -2       779      1043      1046      2384
 -1      5153    3    0    1
 -2       779       780      2306      2384
 -1      5154    3    0    1
 -2       780       779      1046      2384
 -1      5155    3    0    1
 -2       612      1299      2156      2385
 -1      5156    3    0    1
 -2       151      1299      2199      2385
 -1      5157    3    0    1
 -2       151       149      1299      2385
 -1      5158    3    0    1
 -2       134       151      2199      2385
 -1      5159    3    0    1
 -2      1299       612      2199      2385
 -1      5160    3    0    1
 -2      1094      2356       373      2386
 -1      5161    3    0    1
 -2      2084      1045      2301      2387
 -1      5162    3    0    1
 -2       658       988      2130      2388
 -1      5163    3    0    1
 -2      1937      1974      2140      2388
 -1      5164    3    0    1
 -2      2035      1937      2128      2388
 -1      5165    3    0    1
 -2       403      2035      2128      2388
 -1      5166    3    0    1
 -2      1974      1937      2035      2388
 -1      5167    3    0    1
 -2      1974       658      2140      2388
 -1      5168    3    0    1
 -2       403       988      2035      2388
 -1      5169    3    0    1
 -2       988      1974      2035      2388
 -1      5170    3    0    1
 -2       988       658      1974      2388
 -1      5171    3    0    1
 -2      2346      1334      2366      2389
 -1      5172    3    0    1
 -2       832      1071      2368      2449
 -1      5173    3    0    1
 -2      2085       832      2368      2449
 -1      5174    3    0    1
 -2      1051      2313      2366      2389
 -1      5175    3    0    1
 -2      1051       792      2313      2389
 -1      5176    3    0    1
 -2      1071      2361      2368      2449
 -1      5177    3    0    1
 -2       832      2085      2391      2449
 -1      5178    3    0    1
 -2       792      1051      2366      2389
 -1      5179    3    0    1
 -2      1364      1367      2330      2423
 -1      5180    3    0    1
 -2       441       362      2065      2423
 -1      5181    3    0    1
 -2      2148       744      2258      2439
 -1      5182    3    0    1
 -2       393       394      1303      2390
 -1      5183    3    0    1
 -2      1303       630      2349      2390
 -1      5184    3    0    1
 -2       393      1303      2349      2390
 -1      5185    3    0    1
 -2       392       965      1297      2450
 -1      5186    3    0    1
 -2      2077      1128      2305      2455
 -1      5187    3    0    1
 -2      2293       144      2450      2579
 -1      5188    3    0    1
 -2      2980      1541      1840      1841
 -1      5189    3    0    1
 -2      1284      1931      2431      2454
 -1      5190    3    0    1
 -2       942      1284      2431      2454
 -1      5191    3    0    1
 -2      2134      1001      2589      3711
 -1      5192    3    0    1
 -2       254      1050      2412      2451
 -1      5193    3    0    1
 -2      2412       788      2429      2451
 -1      5194    3    0    1
 -2       368      1060      2285      2396
 -1      5195    3    0    1
 -2      1380      2016      2045      2430
 -1      5196    3    0    1
 -2       368      2068      2234      2396
 -1      5197    3    0    1
 -2      2234      2068      2317      2396
 -1      5198    3    0    1
 -2      2461      2323      2993      3068
 -1      5199    3    0    1
 -2       589       965      1293      2392
 -1      5200    3    0    1
 -2       589       610       965      2392
 -1      5201    3    0    1
 -2       788      2331      2429      2451
 -1      5202    3    0    1
 -2      1025      1318      2495      3421
 -1      5203    3    0    1
 -2      1713       572      3621      3405
 -1      5204    3    0    1
 -2      1546      2858      3215      3254
 -1      5205    3    0    1
 -2       973      1297      2394      2580
 -1      5206    3    0    1
 -2      2068      2172      2317      2396
 -1      5207    3    0    1
 -2       628       973      1297      2394
 -1      5208    3    0    1
 -2      1307       409      3441      3737
 -1      5209    3    0    1
 -2      2813      2865      3597      3315
 -1      5210    3    0    1
 -2       607       628      1297      2394
 -1      5211    3    0    1
 -2       653       636      2243      2417
 -1      5212    3    0    1
 -2      2017      1942      2138      2410
 -1      5213    3    0    1
 -2       142      1949      2161      2410
 -1      5214    3    0    1
 -2       135       354      1295      2441
 -1      5215    3    0    1
 -2       135      2380      2259       124
 -1      5216    3    0    1
 -2       415      2292      2353      2521
 -1      5217    3    0    1
 -2       868       894      2303      2432
 -1      5218    3    0    1
 -2      2303      2110      2430      2432
 -1      5219    3    0    1
 -2      1295       354      2425      2441
 -1      5220    3    0    1
 -2       847      1366       848      2423
 -1      5221    3    0    1
 -2      1366       847      1365      2423
 -1      5222    3    0    1
 -2      2259       594      2424      2441
 -1      5223    3    0    1
 -2       135       959      2425      2441
 -1      5224    3    0    1
 -2      1059       807      2093      2429
 -1      5225    3    0    1
 -2       394       156      1303      2422
 -1      5226    3    0    1
 -2       788      1049      1336      2429
 -1      5227    3    0    1
 -2      1335       925      1213      2712
 -1      5228    3    0    1
 -2      2325       265      2419      2452
 -1      5229    3    0    1
 -2       894      2110      2303      2432
 -1      5230    3    0    1
 -2      2110      1988      2177      2432
 -1      5231    3    0    1
 -2      1059      1332      2412      2582
 -1      5232    3    0    1
 -2      1970      2045      2430      2432
 -1      5233    3    0    1
 -2      1057       272      2327      2452
 -1      5234    3    0    1
 -2      2018      2181      2217      2401
 -1      5235    3    0    1
 -2      1115       855      1087      2401
 -1      5236    3    0    1
 -2      1087       855      2181      2401
 -1      5237    3    0    1
 -2      2018      1087      2181      2401
 -1      5238    3    0    1
 -2      1087      2018      2174      2401
 -1      5239    3    0    1
 -2      2572      1550      1551      2690
 -1      5240    3    0    1
 -2      1469      1517      1518      2887
 -1      5241    3    0    1
 -2       628       607      1302      2464
 -1      5242    3    0    1
 -2      2369      2233      2681      3698
 -1      5243    3    0    1
 -2       594      2318      2424      2425
 -1      5244    3    0    1
 -2      2170      1287      2259      2403
 -1      5245    3    0    1
 -2      1287       568      2259      2403
 -1      5246    3    0    1
 -2      1037       375      2145      2405
 -1      5247    3    0    1
 -2      1331       331      2117      2405
 -1      5248    3    0    1
 -2      2048      1331      2117      2405
 -1      5249    3    0    1
 -2      2031      2048      2117      2405
 -1      5250    3    0    1
 -2       375       245      2048      2405
 -1      5251    3    0    1
 -2       245      1037      1044      2405
 -1      5252    3    0    1
 -2       245       375      1037      2405
 -1      5253    3    0    1
 -2       245       331      1331      2405
 -1      5254    3    0    1
 -2       245      1331      2048      2405
 -1      5255    3    0    1
 -2      2125       684      2140      2407
 -1      5256    3    0    1
 -2      1937       408      2013      2407
 -1      5257    3    0    1
 -2      2013       408      2076      2407
 -1      5258    3    0    1
 -2       684      1000      1974      2407
 -1      5259    3    0    1
 -2      1000       408      1974      2407
 -1      5260    3    0    1
 -2      2124       694      2342      2408
 -1      5261    3    0    1
 -2       694      2124      2310      2408
 -1      5262    3    0    1
 -2       416      2194      2383      2408
 -1      5263    3    0    1
 -2       416      2168      2194      2408
 -1      5264    3    0    1
 -2       210       416      2383      2408
 -1      5265    3    0    1
 -2      2342       210      2383      2408
 -1      5266    3    0    1
 -2       416       210      2342      2408
 -1      5267    3    0    1
 -2       952       582       953      2409
 -1      5268    3    0    1
 -2       953       582      2269      2409
 -1      5269    3    0    1
 -2       116      2269      2370      2409
 -1      5270    3    0    1
 -2       122       116      2370      2409
 -1      5271    3    0    1
 -2       116       122       952      2409
 -1      5272    3    0    1
 -2       116       953      2269      2409
 -1      5273    3    0    1
 -2       116       952       953      2409
 -1      5274    3    0    1
 -2      1054       261      2270      2411
 -1      5275    3    0    1
 -2       798      1054      2270      2411
 -1      5276    3    0    1
 -2      2015       798      2270      2411
 -1      5277    3    0    1
 -2       261       367      2020      2411
 -1      5278    3    0    1
 -2       261      2020      2381      2411
 -1      5279    3    0    1
 -2      2270       261      2381      2411
 -1      5280    3    0    1
 -2       798       815      1062      2411
 -1      5281    3    0    1
 -2       367      1054      1062      2411
 -1      5282    3    0    1
 -2      1054       798      1062      2411
 -1      5283    3    0    1
 -2       367       261      1054      2411
 -1      5284    3    0    1
 -2      2090       664      2319      2420
 -1      5285    3    0    1
 -2      1299       149      2245      2577
 -1      5286    3    0    1
 -2      1301       157      3519      3154
 -1      5287    3    0    1
 -2       208      1021      2472      3507
 -1      5288    3    0    1
 -2       807      1059      1332      2412
 -1      5289    3    0    1
 -2      1459      1460      2596      3065
 -1      5290    3    0    1
 -2       788       807      1332      2412
 -1      5291    3    0    1
 -2      1316      3599      3628      3448
 -1      5292    3    0    1
 -2       950       119      2549      2584
 -1      5293    3    0    1
 -2      1286       940      2186      2414
 -1      5294    3    0    1
 -2      1286      2186      2378      2414
 -1      5295    3    0    1
 -2       104      1286      2378      2414
 -1      5296    3    0    1
 -2        99       109       940      2414
 -1      5297    3    0    1
 -2      2241      2204      2400      2415
 -1      5298    3    0    1
 -2       418      2110      2400      2415
 -1      5299    3    0    1
 -2       435       418      1104      2415
 -1      5300    3    0    1
 -2      1378       418       435      2415
 -1      5301    3    0    1
 -2      2110      1969      2400      2415
 -1      5302    3    0    1
 -2       418      1131      2110      2415
 -1      5303    3    0    1
 -2      1405       418      2400      2415
 -1      5304    3    0    1
 -2      1104       418      1405      2415
 -1      5305    3    0    1
 -2       418      1378      1131      2415
 -1      5306    3    0    1
 -2       985      2115      2231      2417
 -1      5307    3    0    1
 -2       985       653      2115      2417
 -1      5308    3    0    1
 -2      1365      1955      2065      2423
 -1      5309    3    0    1
 -2      2065      2132      2234      2423
 -1      5310    3    0    1
 -2       636       653       977      2417
 -1      5311    3    0    1
 -2       977       653       985      2417
 -1      5312    3    0    1
 -2       132       957      1293      2453
 -1      5313    3    0    1
 -2       367      2020      2411      2419
 -1      5314    3    0    1
 -2       367      1337      2020      2419
 -1      5315    3    0    1
 -2       265      1057      1337      2419
 -1      5316    3    0    1
 -2      1337      1057      2267      2419
 -1      5317    3    0    1
 -2       589       592      2139      2453
 -1      5318    3    0    1
 -2       367       266      1337      2419
 -1      5319    3    0    1
 -2      2687      2715      3671      3738
 -1      5320    3    0    1
 -2       565       572      1713      3094
 -1      5321    3    0    1
 -2      2531      3654      3672      3682
 -1      5322    3    0    1
 -2       972      1305      3500      3546
 -1      5323    3    0    1
 -2      1650      1651      2867      3012
 -1      5324    3    0    1
 -2       390      3502      1905      3710
 -1      5325    3    0    1
 -2       992       666      2130      2426
 -1      5326    3    0    1
 -2       988       992      2130      2426
 -1      5327    3    0    1
 -2       126       354       959      2421
 -1      5328    3    0    1
 -2       126       959       960      2421
 -1      5329    3    0    1
 -2       282       279      2355      2442
 -1      5330    3    0    1
 -2       988       403       992      2426
 -1      5331    3    0    1
 -2      1295       594      2424      2425
 -1      5332    3    0    1
 -2      1366       362       441      2423
 -1      5333    3    0    1
 -2       992      2030      2247      2426
 -1      5334    3    0    1
 -2      2286       594      2318      2424
 -1      5335    3    0    1
 -2      2627      1433      3074      3351
 -1      5336    3    0    1
 -2      2130       666      2247      2426
 -1      5337    3    0    1
 -2       423      3653      3476      3489
 -1      5338    3    0    1
 -2      2289       988      2388      2426
 -1      5339    3    0    1
 -2       403       988      2289      2426
 -1      5340    3    0    1
 -2       594       958      2259      2424
 -1      5341    3    0    1
 -2       958      2170      2259      2424
 -1      5342    3    0    1
 -2       988      2130      2388      2426
 -1      5343    3    0    1
 -2       134      2244      2318      2425
 -1      5344    3    0    1
 -2       126       134      2318      2425
 -1      5345    3    0    1
 -2       134       126      2244      2425
 -1      5346    3    0    1
 -2      2085       279      2391      2442
 -1      5347    3    0    1
 -2      2680      2838      2972      3072
 -1      5348    3    0    1
 -2      1428      1427      2486      2561
 -1      5349    3    0    1
 -2       555       942      1339      2454
 -1      5350    3    0    1
 -2       395       153      1543      2999
 -1      5351    3    0    1
 -2      1148      2602      2615      2785
 -1      5352    3    0    1
 -2       383       112      2970      1828
 -1      5353    3    0    1
 -2      1509      1427      1510      2561
 -1      5354    3    0    1
 -2      2304       336      2431      2454
 -1      5355    3    0    1
 -2      2615      2602      2661      2785
 -1      5356    3    0    1
 -2      1333      2678      2744      2789
 -1      5357    3    0    1
 -2       643      1304      2213      2585
 -1      5358    3    0    1
 -2      2207      2055      2215      2433
 -1      5359    3    0    1
 -2      1132       433      1380      2430
 -1      5360    3    0    1
 -2      1470      1469      2800      2871
 -1      5361    3    0    1
 -2       434       433      1132      2430
 -1      5362    3    0    1
 -2      2424      1295      2425      2441
 -1      5363    3    0    1
 -2      1107       868      2430      2432
 -1      5364    3    0    1
 -2      1406       868      1107      2432
 -1      5365    3    0    1
 -2       433      1107      2430      2432
 -1      5366    3    0    1
 -2       433      1406      1107      2432
 -1      5367    3    0    1
 -2      1978      2121      2323      2466
 -1      5368    3    0    1
 -2       661       990      2562      2663
 -1      5369    3    0    1
 -2      1978      2121      2466      2467
 -1      5370    3    0    1
 -2        50      1546      3215      3254
 -1      5371    3    0    1
 -2      1001       185      2131      2589
 -1      5372    3    0    1
 -2       170      2295      2420      2436
 -1      5373    3    0    1
 -2       409       170      2420      2436
 -1      5374    3    0    1
 -2      2320       996      2134      2436
 -1      5375    3    0    1
 -2       996      2320      2134       672
 -1      5376    3    0    1
 -2       681       679       998      2637
 -1      5377    3    0    1
 -2       993      2041      2295      2436
 -1      5378    3    0    1
 -2       993       996      2041      2436
 -1      5379    3    0    1
 -2       170       993      2295      2436
 -1      5380    3    0    1
 -2       993       170       996      2436
 -1      5381    3    0    1
 -2      2127      3544      3569      3594
 -1      5382    3    0    1
 -2      3598      3105      3603      3679
 -1      5383    3    0    1
 -2      2696      3553      3296      3466
 -1      5384    3    0    1
 -2       798      1055      2015      2437
 -1      5385    3    0    1
 -2      1052       797      2301      2437
 -1      5386    3    0    1
 -2       797      1052      1055      2437
 -1      5387    3    0    1
 -2       797       798      2301      2437
 -1      5388    3    0    1
 -2       798       797      1055      2437
 -1      5389    3    0    1
 -2      1124       298      1088      2438
 -1      5390    3    0    1
 -2      1088       298      2266      2438
 -1      5391    3    0    1
 -2      1991       324      2334      2439
 -1      5392    3    0    1
 -2       324      1991      2322      2439
 -1      5393    3    0    1
 -2       379       324      2322      2439
 -1      5394    3    0    1
 -2       324      1036      2334      2439
 -1      5395    3    0    1
 -2       379      1029      1036      2439
 -1      5396    3    0    1
 -2       324       379      1036      2439
 -1      5397    3    0    1
 -2       942       555      1931      2454
 -1      5398    3    0    1
 -2       950       573      1288      2440
 -1      5399    3    0    1
 -2      1284       942      1931      2454
 -1      5400    3    0    1
 -2      1289       573      1931      2440
 -1      5401    3    0    1
 -2      1289      1931      2281      2440
 -1      5402    3    0    1
 -2       573       552      1931      2440
 -1      5403    3    0    1
 -2      3495      2402      3605      3739
 -1      5404    3    0    1
 -2       999      1311       679      2637
 -1      5405    3    0    1
 -2      1069      2085      2444      3707
 -1      5406    3    0    1
 -2      1453      1454      2609      1843
 -1      5407    3    0    1
 -2      3555      2918      3320      3403
 -1      5408    3    0    1
 -2      2807      2778      2946      3658
 -1      5409    3    0    1
 -2      2687      2540      2761      3521
 -1      5410    3    0    1
 -2       716       709      2587      2596
 -1      5411    3    0    1
 -2      1068       363      2219      2443
 -1      5412    3    0    1
 -2      2219      1056      2327      2443
 -1      5413    3    0    1
 -2       826      1068      2327      2443
 -1      5414    3    0    1
 -2      1063       831      1070      2444
 -1      5415    3    0    1
 -2       576      1290      2371      2445
 -1      5416    3    0    1
 -2       549      2026      2249      2445
 -1      5417    3    0    1
 -2      2249      2026      2365      2445
 -1      5418    3    0    1
 -2       549      2249      2365      2445
 -1      5419    3    0    1
 -2      1127      1098      2207      2446
 -1      5420    3    0    1
 -2       290      1127       378      2446
 -1      5421    3    0    1
 -2      2004      2207      2372      2446
 -1      5422    3    0    1
 -2      1098       290      2372      2446
 -1      5423    3    0    1
 -2      1127       290      1098      2446
 -1      5424    3    0    1
 -2      2207      1098      2372      2446
 -1      5425    3    0    1
 -2       832      2085      2368      2447
 -1      5426    3    0    1
 -2       832       831      2085      2447
 -1      5427    3    0    1
 -2      1070       831      1071      2447
 -1      5428    3    0    1
 -2      1070      1071      2368      2447
 -1      5429    3    0    1
 -2       366       364      2376      2447
 -1      5430    3    0    1
 -2       364       366      1070      2447
 -1      5431    3    0    1
 -2       577       574      1291      1929
 -1      5432    3    0    1
 -2       272       366      2118      2447
 -1      5433    3    0    1
 -2       831       832      1071      2447
 -1      5434    3    0    1
 -2      1071       832      2368      2447
 -1      5435    3    0    1
 -2       272      1063      1070      2447
 -1      5436    3    0    1
 -2       366       272      1070      2447
 -1      5437    3    0    1
 -2       965      2392      2450      2579
 -1      5438    3    0    1
 -2       945       563      2361      2449
 -1      5439    3    0    1
 -2       563       944      2304      2449
 -1      5440    3    0    1
 -2       832       945      1071      2449
 -1      5441    3    0    1
 -2       563       832      1072      2449
 -1      5442    3    0    1
 -2       832       563       945      2449
 -1      5443    3    0    1
 -2       944       563      1072      2449
 -1      5444    3    0    1
 -2      2436      2134      2589      3711
 -1      5445    3    0    1
 -2      2914      2875      3558      3682
 -1      5446    3    0    1
 -2       770      1329      2284      2451
 -1      5447    3    0    1
 -2       770       789      1050      2451
 -1      5448    3    0    1
 -2       770      1050      1329      2451
 -1      5449    3    0    1
 -2      1293       589      2392      2453
 -1      5450    3    0    1
 -2       133      1293      2392      2453
 -1      5451    3    0    1
 -2       133       132      1293      2453
 -1      5452    3    0    1
 -2       592       571      2139      2453
 -1      5453    3    0    1
 -2      2139       571      2440      2453
 -1      5454    3    0    1
 -2       571      1288      2440      2453
 -1      5455    3    0    1
 -2       947      1291      3442      3735
 -1      5456    3    0    1
 -2       381       380      3438      3733
 -1      5457    3    0    1
 -2       592       957      1288      2453
 -1      5458    3    0    1
 -2      3549      2592      3137      3673
 -1      5459    3    0    1
 -2       571       592      1288      2453
 -1      5460    3    0    1
 -2       822       555      1339      2454
 -1      5461    3    0    1
 -2       442      1375      1128      2455
 -1      5462    3    0    1
 -2       444       442      1099      2455
 -1      5463    3    0    1
 -2       862      2207      2433      2455
 -1      5464    3    0    1
 -2      1099       862      2433      2455
 -1      5465    3    0    1
 -2       444      1099      2433      2455
 -1      5466    3    0    1
 -2      1375       442       444      2455
 -1      5467    3    0    1
 -2      1375       444      2433      2455
 -1      5468    3    0    1
 -2      2305      1375      2433      2455
 -1      5469    3    0    1
 -2      1583      1457      1584      2766
 -1      5470    3    0    1
 -2      3515      2462      3201      3203
 -1      5471    3    0    1
 -2      1582      1581      3040      1875
 -1      5472    3    0    1
 -2      3163      3049      3595      3721
 -1      5473    3    0    1
 -2      2606      3517      2784      3722
 -1      5474    3    0    1
 -2      2663      1251      2829      3558
 -1      5475    3    0    1
 -2      2482      1501      2548      3406
 -1      5476    3    0    1
 -2      2482      1545      3587      3406
 -1      5477    3    0    1
 -2      2758      1493      3283      3352
 -1      5478    3    0    1
 -2      2202       317      2275      2485
 -1      5479    3    0    1
 -2      2188       708      2222      2485
 -1      5480    3    0    1
 -2       430       319      1545      3406
 -1      5481    3    0    1
 -2      1636      1637      2939      2981
 -1      5482    3    0    1
 -2      2892      2849      3294      3674
 -1      5483    3    0    1
 -2      1519      2914      3554      3682
 -1      5484    3    0    1
 -2       494       919      2762      3265
 -1      5485    3    0    1
 -2      3527       241      1729      3664
 -1      5486    3    0    1
 -2      1040       770      1330      3316
 -1      5487    3    0    1
 -2      1325      2063      2512      3543
 -1      5488    3    0    1
 -2      2632      2642      3550      2986
 -1      5489    3    0    1
 -2      1706      2870      1707      2988
 -1      5490    3    0    1
 -2      2570      2650      2759      3554
 -1      5491    3    0    1
 -2      2323      2233      2369      2461
 -1      5492    3    0    1
 -2      2602      1148      1681      2818
 -1      5493    3    0    1
 -2       282      2391      2560      3537
 -1      5494    3    0    1
 -2      3526      2228      3575      3583
 -1      5495    3    0    1
 -2       133       139      3552      3070
 -1      5496    3    0    1
 -2        12       195      1682      3159
 -1      5497    3    0    1
 -2      3526      3176      3189      3270
 -1      5498    3    0    1
 -2        80      1765      1764      3446
 -1      5499    3    0    1
 -2      1678      1450      1679      3223
 -1      5500    3    0    1
 -2      1595       329      2949      1908
 -1      5501    3    0    1
 -2      1326      1032      2236      3594
 -1      5502    3    0    1
 -2      1455      1456      1775      3347
 -1      5503    3    0    1
 -2      2711      1686      3549      3311
 -1      5504    3    0    1
 -2       218       219      3507      3709
 -1      5505    3    0    1
 -2      3639      2850      3706      3470
 -1      5506    3    0    1
 -2      1329      2284      2451      2781
 -1      5507    3    0    1
 -2      3516      2526      2900      2902
 -1      5508    3    0    1
 -2      1018       317      2222      3693
 -1      5509    3    0    1
 -2       655       662      2713      2739
 -1      5510    3    0    1
 -2      3535      2683      3036      3433
 -1      5511    3    0    1
 -2      2213       646      2250      2539
 -1      5512    3    0    1
 -2       158       973      2192      2537
 -1      5513    3    0    1
 -2      2192       157      2528      3519
 -1      5514    3    0    1
 -2      2733      3573      3574      3597
 -1      5515    3    0    1
 -2      1464      1463      2662      2910
 -1      5516    3    0    1
 -2       139       386      3536      3552
 -1      5517    3    0    1
 -2       628       973       625      2640
 -1      5518    3    0    1
 -2      1225      1223      2622      2803
 -1      5519    3    0    1
 -2      1853       799      1854      3340
 -1      5520    3    0    1
 -2      1482      1481      1544      2616
 -1      5521    3    0    1
 -2        50      3215      1822      3254
 -1      5522    3    0    1
 -2      2483      2464      3498      3627
 -1      5523    3    0    1
 -2      2191       968      2397      2577
 -1      5524    3    0    1
 -2       646       625      2250      2539
 -1      5525    3    0    1
 -2       732      1774      3130      3248
 -1      5526    3    0    1
 -2      2858      1687      3215      3254
 -1      5527    3    0    1
 -2      1537      1495      1538      3294
 -1      5528    3    0    1
 -2      3604      3569      3739      3743
 -1      5529    3    0    1
 -2      2587      2575      2876      3606
 -1      5530    3    0    1
 -2       600       617      2397      2506
 -1      5531    3    0    1
 -2      1536      1535      2780      3437
 -1      5532    3    0    1
 -2       391       140      1834      1836
 -1      5533    3    0    1
 -2      2712      3556      3581      2688
 -1      5534    3    0    1
 -2      1474      1473      2747      1697
 -1      5535    3    0    1
 -2       328       170      3518      3542
 -1      5536    3    0    1
 -2      3305      3373      3670      3688
 -1      5537    3    0    1
 -2      1541      2518      2980      3448
 -1      5538    3    0    1
 -2      3124      2792      3612      3676
 -1      5539    3    0    1
 -2      1434      3512      3578      3728
 -1      5540    3    0    1
 -2      3526      2228      3583      3176
 -1      5541    3    0    1
 -2       907      2683      3036      3468
 -1      5542    3    0    1
 -2      1041      1325      2063      2512
 -1      5543    3    0    1
 -2      3205      1713      1818      1819
 -1      5544    3    0    1
 -2      1296      2428       599      3503
 -1      5545    3    0    1
 -2      1585      2601      3596      3358
 -1      5546    3    0    1
 -2      2655      2527      3535      3690
 -1      5547    3    0    1
 -2      2762      2629      2797      3533
 -1      5548    3    0    1
 -2       572       565      1610      2714
 -1      5549    3    0    1
 -2      3018      1763      3351      3374
 -1      5550    3    0    1
 -2      2593      2636      2637      3549
 -1      5551    3    0    1
 -2       625      2192      2250      2539
 -1      5552    3    0    1
 -2      2520      2211      3509      3042
 -1      5553    3    0    1
 -2      1459      1425      1460      3065
 -1      5554    3    0    1
 -2      3025      3705      3020      3401
 -1      5555    3    0    1
 -2      1465      1466      1504      3101
 -1      5556    3    0    1
 -2      2490      2566      3598      3679
 -1      5557    3    0    1
 -2       699      1007       697      2790
 -1      5558    3    0    1
 -2      2535      1508      2788      3593
 -1      5559    3    0    1
 -2       150      2191      2245      2577
 -1      5560    3    0    1
 -2      1522      2913      3279      3672
 -1      5561    3    0    1
 -2      1033      2236      2257      2552
 -1      5562    3    0    1
 -2      2809      1612      1838      1839
 -1      5563    3    0    1
 -2      2517      2592      3549      3673
 -1      5564    3    0    1
 -2      3140      3512      3638      3464
 -1      5565    3    0    1
 -2       625       972      2640      2931
 -1      5566    3    0    1
 -2      2547       956      2607      2658
 -1      5567    3    0    1
 -2      1296      2086      2428      3503
 -1      5568    3    0    1
 -2      1409      3618      3476      3742
 -1      5569    3    0    1
 -2      2355       282      2560      3537
 -1      5570    3    0    1
 -2      3576      1450      3242      1865
 -1      5571    3    0    1
 -2      1307       661      2562      2663
 -1      5572    3    0    1
 -2       476      1172      2599      2600
 -1      5573    3    0    1
 -2      3532      3524      3050      3658
 -1      5574    3    0    1
 -2      1529      3501      3663      3698
 -1      5575    3    0    1
 -2      1644       553      2743      2896
 -1      5576    3    0    1
 -2      2875      2914      3558      3654
 -1      5577    3    0    1
 -2       236        41      1773      3408
 -1      5578    3    0    1
 -2       965      2392      2579      3552
 -1      5579    3    0    1
 -2       901       460      2597      2615
 -1      5580    3    0    1
 -2      2880      2803      1766      3252
 -1      5581    3    0    1
 -2       565       572      1610      3269
 -1      5582    3    0    1
 -2      2507      2518      2588      3599
 -1      5583    3    0    1
 -2      2087      2520      3178      3715
 -1      5584    3    0    1
 -2       982      2213      2282      2539
 -1      5585    3    0    1
 -2       617       967      2293      2506
 -1      5586    3    0    1
 -2      1025      1321       734      2480
 -1      5587    3    0    1
 -2       662      2739      1789      3338
 -1      5588    3    0    1
 -2      1413      1414      1484      3280
 -1      5589    3    0    1
 -2       750       745      2870      2922
 -1      5590    3    0    1
 -2      1059      1335      2515      2595
 -1      5591    3    0    1
 -2       553      2885      2983      3033
 -1      5592    3    0    1
 -2      1483      1484      3082      3280
 -1      5593    3    0    1
 -2       745       750      1688      2922
 -1      5594    3    0    1
 -2      3107      1606      3277      3622
 -1      5595    3    0    1
 -2      2488       513      1223      2622
 -1      5596    3    0    1
 -2      2091      2102      2233      2514
 -1      5597    3    0    1
 -2      2596      1459      1569      1570
 -1      5598    3    0    1
 -2      2812      3022      3560      3415
 -1      5599    3    0    1
 -2      3252      3573      3259      3319
 -1      5600    3    0    1
 -2      2923      2733      3573      3574
 -1      5601    3    0    1
 -2      2459      2347      3510      3544
 -1      5602    3    0    1
 -2      3509      3178      2520      3605
 -1      5603    3    0    1
 -2      1049      1336      2429      3511
 -1      5604    3    0    1
 -2       571       949      2440      3508
 -1      5605    3    0    1
 -2      1811      2995      1812      1859
 -1      5606    3    0    1
 -2      1172       475       476      2599
 -1      5607    3    0    1
 -2      2100      2087      2467      2679
 -1      5608    3    0    1
 -2      1416      1704      3541      3271
 -1      5609    3    0    1
 -2      1425      1426      1512      3432
 -1      5610    3    0    1
 -2      1435      2606      3722      3740
 -1      5611    3    0    1
 -2      2646      3233      3333      3677
 -1      5612    3    0    1
 -2      2295       170      2420      2673
 -1      5613    3    0    1
 -2      3608       426      3656      3378
 -1      5614    3    0    1
 -2       987       993      3518      1798
 -1      5615    3    0    1
 -2       626       619      2810      2850
 -1      5616    3    0    1
 -2      2664      2484      3623      3655
 -1      5617    3    0    1
 -2       195        12      1571      2819
 -1      5618    3    0    1
 -2      1477      1478      3009      3150
 -1      5619    3    0    1
 -2      1646      3048      3136      3217
 -1      5620    3    0    1
 -2       241      1659      1660      2963
 -1      5621    3    0    1
 -2       954      1296      3503      1909
 -1      5622    3    0    1
 -2      2869      3560      3612      3620
 -1      5623    3    0    1
 -2      1148      1146      2597      2602
 -1      5624    3    0    1
 -2      1046       780      2137      3497
 -1      5625    3    0    1
 -2      3363       572      3369      3690
 -1      5626    3    0    1
 -2      2137      1052       780       797
 -1      5627    3    0    1
 -2      1585      2529      2788      3593
 -1      5628    3    0    1
 -2      2514      2102      2681      3142
 -1      5629    3    0    1
 -2      2761      3521      3173      3227
 -1      5630    3    0    1
 -2      2724      2604      3523      2843
 -1      5631    3    0    1
 -2      3049      3129      3662      3721
 -1      5632    3    0    1
 -2      1699      2772      3381      3481
 -1      5633    3    0    1
 -2      2516      2668      3568      3712
 -1      5634    3    0    1
 -2       346       347      3519      3154
 -1      5635    3    0    1
 -2      3586      3657      3452      3717
 -1      5636    3    0    1
 -2       991      1304      2585      3224
 -1      5637    3    0    1
 -2       715       717      2597      3523
 -1      5638    3    0    1
 -2      3117      1559      3218      3333
 -1      5639    3    0    1
 -2      1024      3525      3587      3713
 -1      5640    3    0    1
 -2      1557       608      3210      3721
 -1      5641    3    0    1
 -2      2459      3510      3436      3715
 -1      5642    3    0    1
 -2       726      2187      2222      2472
 -1      5643    3    0    1
 -2      2187       726      2220      2472
 -1      5644    3    0    1
 -2      1809      3181      1846      1847
 -1      5645    3    0    1
 -2       982      1304      2282      2585
 -1      5646    3    0    1
 -2      2529      3522      3584      3593
 -1      5647    3    0    1
 -2      2845      1562      1733      1734
 -1      5648    3    0    1
 -2      1764      1765      3300      3446
 -1      5649    3    0    1
 -2      2745      2086      3536      3552
 -1      5650    3    0    1
 -2      1473      2641      2847      3555
 -1      5651    3    0    1
 -2      2782      1524      1807      1808
 -1      5652    3    0    1
 -2      3205      3621      3289      3405
 -1      5653    3    0    1
 -2      2569      2609      3273      3343
 -1      5654    3    0    1
 -2      2567      3101      3106      3625
 -1      5655    3    0    1
 -2      1470      1469      1626      2800
 -1      5656    3    0    1
 -2      2290      2483      3520      3627
 -1      5657    3    0    1
 -2       494       770      2629      2832
 -1      5658    3    0    1
 -2      2462      3515      2808      3203
 -1      5659    3    0    1
 -2      2465      2332      3496      3165
 -1      5660    3    0    1
 -2      1653      3575      3585      3189
 -1      5661    3    0    1
 -2      1519      2650      1648      1649
 -1      5662    3    0    1
 -2      3041      1533      3084      3676
 -1      5663    3    0    1
 -2      3064      2795      3336      3697
 -1      5664    3    0    1
 -2      3576      3018      3351      3468
 -1      5665    3    0    1
 -2      3186      2538      3221      3673
 -1      5666    3    0    1
 -2      1657      2768      3521      3227
 -1      5667    3    0    1
 -2      1713      1714      3094      1819
 -1      5668    3    0    1
 -2      2707      2574      2909      3692
 -1      5669    3    0    1
 -2      2887      2886      3027      3288
 -1      5670    3    0    1
 -2      2723      3250      3662      3706
 -1      5671    3    0    1
 -2      1667      1711      1712      3214
 -1      5672    3    0    1
 -2       981      2213      1305      3565
 -1      5673    3    0    1
 -2      1585      2601      2907      3291
 -1      5674    3    0    1
 -2      3477      3668      3724      3730
 -1      5675    3    0    1
 -2      1604      1605      3040      1875
 -1      5676    3    0    1
 -2      2211      2360      2842      3042
 -1      5677    3    0    1
 -2      1475      2742      1733      1734
 -1      5678    3    0    1
 -2      1516       229      3594      3741
 -1      5679    3    0    1
 -2       735      2116      2264      2495
 -1      5680    3    0    1
 -2      3681      1595      3429      1908
 -1      5681    3    0    1
 -2      2492      1418      2602      3422
 -1      5682    3    0    1
 -2      2688      2728      3556      3581
 -1      5683    3    0    1
 -2       735       715      2274      2495
 -1      5684    3    0    1
 -2      2746      3118      3629      3423
 -1      5685    3    0    1
 -2       972       395      3570      3629
 -1      5686    3    0    1
 -2        45        50      1822      3254
 -1      5687    3    0    1
 -2      3024      2471      3558      3727
 -1      5688    3    0    1
 -2      2461      2483      3498      3541
 -1      5689    3    0    1
 -2      1472      1471      1808      3180
 -1      5690    3    0    1
 -2      1061       815      2015      2610
 -1      5691    3    0    1
 -2      3599      2190      3686      3704
 -1      5692    3    0    1
 -2       429      1877      3684      3407
 -1      5693    3    0    1
 -2       716      2596      3235      1569
 -1      5694    3    0    1
 -2       788      1049      1333      2678
 -1      5695    3    0    1
 -2       661       990      3168      3169
 -1      5696    3    0    1
 -2      1931      2281      3531      3614
 -1      5697    3    0    1
 -2      2480      2487      2558      2806
 -1      5698    3    0    1
 -2      2546      2487      3504      3416
 -1      5699    3    0    1
 -2      2468      2503      3563      3427
 -1      5700    3    0    1
 -2      2662      1463      1776      3579
 -1      5701    3    0    1
 -2      2233      2102      2369      2681
 -1      5702    3    0    1
 -2      2532      2672      2694      3516
 -1      5703    3    0    1
 -2      1015      2274      2462      2798
 -1      5704    3    0    1
 -2      3556      2825      3172      3596
 -1      5705    3    0    1
 -2      3504      2522      3366      3641
 -1      5706    3    0    1
 -2      1032      1326      2813      3530
 -1      5707    3    0    1
 -2      2137      1052      2437      3497
 -1      5708    3    0    1
 -2      3232      3021      3618      3742
 -1      5709    3    0    1
 -2      2528      2282      2539      3519
 -1      5710    3    0    1
 -2       965      2392      3552      3070
 -1      5711    3    0    1
 -2       157      2192      2528      2537
 -1      5712    3    0    1
 -2      2332      1058      2093      1340
 -1      5713    3    0    1
 -2       551       560       947      1928
 -1      5714    3    0    1
 -2      1411      3509      3605      3713
 -1      5715    3    0    1
 -2       709      2596      1569      1570
 -1      5716    3    0    1
 -2      2709      2615      3523      3606
 -1      5717    3    0    1
 -2       734      2116      2236      2552
 -1      5718    3    0    1
 -2       734      1321      2264      2552
 -1      5719    3    0    1
 -2      1458      1457      1584      2699
 -1      5720    3    0    1
 -2       387      1746      3267      3646
 -1      5721    3    0    1
 -2      2754      3626      3664      3454
 -1      5722    3    0    1
 -2      2444      2085      2594      3707
 -1      5723    3    0    1
 -2      1611      1610      2714      3075
 -1      5724    3    0    1
 -2      1025      1252      1254      2480
 -1      5725    3    0    1
 -2       909      1284       942      2599
 -1      5726    3    0    1
 -2      1322      3587      3724      3730
 -1      5727    3    0    1
 -2       119       388      2395      2584
 -1      5728    3    0    1
 -2      1604      1605      2958      3040
 -1      5729    3    0    1
 -2       196      1316      3609      3628
 -1      5730    3    0    1
 -2      1561      1497      3056      3668
 -1      5731    3    0    1
 -2      1562      1733      1734      2973
 -1      5732    3    0    1
 -2      3592      2758      3283      3352
 -1      5733    3    0    1
 -2      3581      2614      3278      3650
 -1      5734    3    0    1
 -2      2466      2100      2467      3021
 -1      5735    3    0    1
 -2      1665      1664      2802      3234
 -1      5736    3    0    1
 -2      3546      1608      3563      3314
 -1      5737    3    0    1
 -2      2228      2466      2467      3232
 -1      5738    3    0    1
 -2      2770      1757      3076      3579
 -1      5739    3    0    1
 -2       383      1530      2970      3646
 -1      5740    3    0    1
 -2      1588      2652      1589      2674
 -1      5741    3    0    1
 -2      2939      1636      1736      1737
 -1      5742    3    0    1
 -2      1693      1692      1872      3354
 -1      5743    3    0    1
 -2      2615      2785      3577      3606
 -1      5744    3    0    1
 -2      1631      2702      2750      2859
 -1      5745    3    0    1
 -2      2810      1620      1829      3639
 -1      5746    3    0    1
 -2      3544      1040      3316      3700
 -1      5747    3    0    1
 -2      1713       572      2937      3621
 -1      5748    3    0    1
 -2      3090      1423      3161      3204
 -1      5749    3    0    1
 -2      1833      1832      3273      1843
 -1      5750    3    0    1
 -2      3624      3510      3648      3700
 -1      5751    3    0    1
 -2       528       527      1252      2480
 -1      5752    3    0    1
 -2      1252       527      1254      2480
 -1      5753    3    0    1
 -2       735       528      1025      2480
 -1      5754    3    0    1
 -2      3504      2477      3416      3417
 -1      5755    3    0    1
 -2      1025       528      1252      2480
 -1      5756    3    0    1
 -2       753       752      1032      2488
 -1      5757    3    0    1
 -2       145      1616      3351      3374
 -1      5758    3    0    1
 -2      2599       555      2600      2619
 -1      5759    3    0    1
 -2       552       941      1285      2599
 -1      5760    3    0    1
 -2      3508      3528      3614      3642
 -1      5761    3    0    1
 -2      2507      2518      3598      3448
 -1      5762    3    0    1
 -2      1007       899      2568      2790
 -1      5763    3    0    1
 -2      2620      1546      2794      3151
 -1      5764    3    0    1
 -2      1066      1340      3516      3522
 -1      5765    3    0    1
 -2      3171      3558      3682      3727
 -1      5766    3    0    1
 -2      3093      1713      3690      3459
 -1      5767    3    0    1
 -2      2786      2633      3573      3145
 -1      5768    3    0    1
 -2      1871      3626      3354      3454
 -1      5769    3    0    1
 -2      3034      1861      3409      3455
 -1      5770    3    0    1
 -2      1531      1532      2625      2996
 -1      5771    3    0    1
 -2      2647      3632      3636      3665
 -1      5772    3    0    1
 -2      3163      2851      3290      3721
 -1      5773    3    0    1
 -2      2712      3079      3581      3610
 -1      5774    3    0    1
 -2       450      1736      1737      3149
 -1      5775    3    0    1
 -2      1326      3495      3525      3694
 -1      5776    3    0    1
 -2       698       691      1535      3240
 -1      5777    3    0    1
 -2      2621      2820      3161      3603
 -1      5778    3    0    1
 -2       327       642       987      1799
 -1      5779    3    0    1
 -2      3088      2877      3654      3655
 -1      5780    3    0    1
 -2      2102      2233      2514      2681
 -1      5781    3    0    1
 -2       625      1301      2192      2539
 -1      5782    3    0    1
 -2       149       151       968      2577
 -1      5783    3    0    1
 -2      2528      2544      3519      3588
 -1      5784    3    0    1
 -2       717      1319      3515      3201
 -1      5785    3    0    1
 -2       195        12      1572      3159
 -1      5786    3    0    1
 -2      2773      2872      2888      3620
 -1      5787    3    0    1
 -2      3178      3509      2520      2211
 -1      5788    3    0    1
 -2      1515      1759      3252      3259
 -1      5789    3    0    1
 -2       942      1339      2454      2656
 -1      5790    3    0    1
 -2      1605      1604      3001      3045
 -1      5791    3    0    1
 -2      2692      3550      3676      3409
 -1      5792    3    0    1
 -2       530      1258      2562      2663
 -1      5793    3    0    1
 -2      2655      3535      3576      3607
 -1      5794    3    0    1
 -2      2087      2100      2297      2520
 -1      5795    3    0    1
 -2      1511        77      1512      3474
 -1      5796    3    0    1
 -2      1304       982      2213      2585
 -1      5797    3    0    1
 -2      1550      2572      2743      3568
 -1      5798    3    0    1
 -2       552      1284      2431      2549
 -1      5799    3    0    1
 -2       474      2574      2693      2909
 -1      5800    3    0    1
 -2      2332       822      2355      2760
 -1      5801    3    0    1
 -2      2297      2100      2360      2520
 -1      5802    3    0    1
 -2      1730      1438      3563      3678
 -1      5803    3    0    1
 -2       781       786      1731      3202
 -1      5804    3    0    1
 -2      1440      2725      3071      3741
 -1      5805    3    0    1
 -2       229       428      1602      3694
 -1      5806    3    0    1
 -2      2758      2551      3158      3592
 -1      5807    3    0    1
 -2       993      2295      3518      1798
 -1      5808    3    0    1
 -2      1491      1631      1632      2750
 -1      5809    3    0    1
 -2      2211      2360      2520      3178
 -1      5810    3    0    1
 -2       193      2188      3693      1914
 -1      5811    3    0    1
 -2       781       786      1755      3122
 -1      5812    3    0    1
 -2      1012      1018      3693      1914
 -1      5813    3    0    1
 -2      2332      2228      2465      3496
 -1      5814    3    0    1
 -2      2866      2461      3541      3068
 -1      5815    3    0    1
 -2      1410      3501      3513      3718
 -1      5816    3    0    1
 -2      3514      1429      1753      3652
 -1      5817    3    0    1
 -2      3592      2883      3129      3662
 -1      5818    3    0    1
 -2       961       600      2435      2506
 -1      5819    3    0    1
 -2       981      1305      2687      3521
 -1      5820    3    0    1
 -2      2905      2731      3313      3649
 -1      5821    3    0    1
 -2      1025       735      2264      2495
 -1      5822    3    0    1
 -2       637       644      1519      2703
 -1      5823    3    0    1
 -2      2886      2479      3561      3288
 -1      5824    3    0    1
 -2      2885      1550      2991      3288
 -1      5825    3    0    1
 -2       823       499      2526      2532
 -1      5826    3    0    1
 -2      1067       823      2355      2767
 -1      5827    3    0    1
 -2      1654      2666      2938      3584
 -1      5828    3    0    1
 -2       391       140      3617      3619
 -1      5829    3    0    1
 -2        41      1631      1632      3411
 -1      5830    3    0    1
 -2      1046      2137      2384      3497
 -1      5831    3    0    1
 -2       244      1046      2384      3497
 -1      5832    3    0    1
 -2      1533      1493      3158      3592
 -1      5833    3    0    1
 -2       128       424      1795      1797
 -1      5834    3    0    1
 -2       371      3497      3696      1900
 -1      5835    3    0    1
 -2       780      1046      1052      3497
 -1      5836    3    0    1
 -2      2886      2838      2887      3027
 -1      5837    3    0    1
 -2      1052      2137       780      3497
 -1      5838    3    0    1
 -2      3085      1557      3210      3721
 -1      5839    3    0    1
 -2       998       196      1316      3534
 -1      5840    3    0    1
 -2       332       371      3497      3696
 -1      5841    3    0    1
 -2      1024       229      3694      3713
 -1      5842    3    0    1
 -2      2116       734      2264      2552
 -1      5843    3    0    1
 -2      2973      2748      3571      3247
 -1      5844    3    0    1
 -2      3162      1539      3286      3289
 -1      5845    3    0    1
 -2      1544      1543      3244      3450
 -1      5846    3    0    1
 -2      2601      2907      3596      3358
 -1      5847    3    0    1
 -2       975      2203      2393      3502
 -1      5848    3    0    1
 -2      1584      1583      1812      3360
 -1      5849    3    0    1
 -2       392       970      3502      1905
 -1      5850    3    0    1
 -2      1476      1475      1733      2973
 -1      5851    3    0    1
 -2      1301       157      2192      3519
 -1      5852    3    0    1
 -2       752       753      1033      2488
 -1      5853    3    0    1
 -2      1033      1222      1224      2488
 -1      5854    3    0    1
 -2      1033      1224      1325      2488
 -1      5855    3    0    1
 -2       697      1007      1315      2568
 -1      5856    3    0    1
 -2      2477      2545      3504      3412
 -1      5857    3    0    1
 -2      1616       145      1898      3418
 -1      5858    3    0    1
 -2      2600      2599      2619      2623
 -1      5859    3    0    1
 -2       513       512      1222      2488
 -1      5860    3    0    1
 -2       753       513      1033      2488
 -1      5861    3    0    1
 -2      3273      1896      1897      3413
 -1      5862    3    0    1
 -2      1033       513      1222      2488
 -1      5863    3    0    1
 -2      1222       512      1224      2488
 -1      5864    3    0    1
 -2      2086       133      3536      3552
 -1      5865    3    0    1
 -2      2619       941      2599      1285
 -1      5866    3    0    1
 -2      2636      1150      2637      2665
 -1      5867    3    0    1
 -2      3509      1411      3525      3713
 -1      5868    3    0    1
 -2      2990      3590       964      1298
 -1      5869    3    0    1
 -2      1294       592      2547      2607
 -1      5870    3    0    1
 -2      2542      2805      3559      3697
 -1      5871    3    0    1
 -2      1016       901      2597      2615
 -1      5872    3    0    1
 -2       750       745      1688      3309
 -1      5873    3    0    1
 -2      1806      3211      1869      3411
 -1      5874    3    0    1
 -2      2466      2467      2493      3526
 -1      5875    3    0    1
 -2       236        41      1632      3411
 -1      5876    3    0    1
 -2      3211        41      1869      3411
 -1      5877    3    0    1
 -2      2853      3030      3260      3702
 -1      5878    3    0    1
 -2      2284       244      2384      2508
 -1      5879    3    0    1
 -2      3211      1806      3303      3411
 -1      5880    3    0    1
 -2      2749      2542      3661      3697
 -1      5881    3    0    1
 -2       673      2783      1846      1847
 -1      5882    3    0    1
 -2       227      1038      3582      1882
 -1      5883    3    0    1
 -2       717       715      1319      3523
 -1      5884    3    0    1
 -2      1340      1066       823      3522
 -1      5885    3    0    1
 -2       319      1322      3725      3730
 -1      5886    3    0    1
 -2       329      1595      3681      1908
 -1      5887    3    0    1
 -2      2491      2541      3606      3687
 -1      5888    3    0    1
 -2      1471      1472      3136      3180
 -1      5889    3    0    1
 -2       626      3134      3174      3616
 -1      5890    3    0    1
 -2      1631      1701      2855      2859
 -1      5891    3    0    1
 -2      2691      2479      3561      3644
 -1      5892    3    0    1
 -2      2220      1027      2307      3507
 -1      5893    3    0    1
 -2      2526      2532      2694      3516
 -1      5894    3    0    1
 -2      2402      2127      3569      3594
 -1      5895    3    0    1
 -2      3545      2704      3586      3717
 -1      5896    3    0    1
 -2      1746      1539      1747      3166
 -1      5897    3    0    1
 -2      1330      3527      3544      3681
 -1      5898    3    0    1
 -2      1652      3583      3189      3600
 -1      5899    3    0    1
 -2      2619      3517      3184      3241
 -1      5900    3    0    1
 -2      3517      2576      3184      3241
 -1      5901    3    0    1
 -2      2663      2829      2908      3558
 -1      5902    3    0    1
 -2      1055      2015      2437      3708
 -1      5903    3    0    1
 -2      1294      2139      2494      3512
 -1      5904    3    0    1
 -2       279      1067      2767      3529
 -1      5905    3    0    1
 -2       140      1834      1835      1884
 -1      5906    3    0    1
 -2       949      1294      2139      2494
 -1      5907    3    0    1
 -2       625       973      1301      2640
 -1      5908    3    0    1
 -2      1335       267      2595      3529
 -1      5909    3    0    1
 -2      1519       637      1520      2757
 -1      5910    3    0    1
 -2       735      1025      1318      2495
 -1      5911    3    0    1
 -2      2492      2602      3577      3422
 -1      5912    3    0    1
 -2       715       735      1318      2495
 -1      5913    3    0    1
 -2      2667      3577      3372      3422
 -1      5914    3    0    1
 -2      2667      2492      3577      3422
 -1      5915    3    0    1
 -2       185      2315      2589      3711
 -1      5916    3    0    1
 -2       715      1015      2274      3515
 -1      5917    3    0    1
 -2      1565      1566      2835      2848
 -1      5918    3    0    1
 -2      1001      3711      1918      1919
 -1      5919    3    0    1
 -2      2951      2711      3549      3264
 -1      5920    3    0    1
 -2      2600      1172      2976      3114
 -1      5921    3    0    1
 -2      2475      3521      3683      3738
 -1      5922    3    0    1
 -2      1465      1466      2796      2822
 -1      5923    3    0    1
 -2       941      2619      2599      2623
 -1      5924    3    0    1
 -2      2282       982      2539      3519
 -1      5925    3    0    1
 -2      1541      1840      3332      3345
 -1      5926    3    0    1
 -2       475      1172      1170      2599
 -1      5927    3    0    1
 -2       229       428      1566      2675
 -1      5928    3    0    1
 -2      3112      3108      3625      3413
 -1      5929    3    0    1
 -2      1565       229      1566      2675
 -1      5930    3    0    1
 -2      1043      2384      2406      2513
 -1      5931    3    0    1
 -2       956      1294      2547      2607
 -1      5932    3    0    1
 -2       998      1316      2185      3534
 -1      5933    3    0    1
 -2      1316      2982      3598      3599
 -1      5934    3    0    1
 -2      3299      1600      1853      1854
 -1      5935    3    0    1
 -2      3242      1616      1865      1866
 -1      5936    3    0    1
 -2      3134      2741      3616      3312
 -1      5937    3    0    1
 -2       149       150      2245      2577
 -1      5938    3    0    1
 -2       661      2090      2319      3169
 -1      5939    3    0    1
 -2       499      2526      2532      2694
 -1      5940    3    0    1
 -2       329      1562      1563      3249
 -1      5941    3    0    1
 -2      1419      2692      3676      3409
 -1      5942    3    0    1
 -2      3053      3578      3675      3728
 -1      5943    3    0    1
 -2      3142      2514      3342      3698
 -1      5944    3    0    1
 -2      3399      1863      3401      3705
 -1      5945    3    0    1
 -2      3555      1473      3359      3381
 -1      5946    3    0    1
 -2       101       422      3585      3600
 -1      5947    3    0    1
 -2      1506      1505      1598      2954
 -1      5948    3    0    1
 -2       316       205      1685      3234
 -1      5949    3    0    1
 -2      3516      3011      3593      3296
 -1      5950    3    0    1
 -2       383      1741      3246      3740
 -1      5951    3    0    1
 -2       949      2139      2440      3508
 -1      5952    3    0    1
 -2       644       637      2757      2916
 -1      5953    3    0    1
 -2       993      2041      3518      2295
 -1      5954    3    0    1
 -2       229       428      1576      2835
 -1      5955    3    0    1
 -2       327       396      2171      2544
 -1      5956    3    0    1
 -2      2093      1059      2429      2515
 -1      5957    3    0    1
 -2       335       267      2769      3529
 -1      5958    3    0    1
 -2      1485      2996      1824      3649
 -1      5959    3    0    1
 -2       993       671      2291      3518
 -1      5960    3    0    1
 -2      1059      2412      2429      2515
 -1      5961    3    0    1
 -2       608       601      1557      3210
 -1      5962    3    0    1
 -2      1555       619      1556      3134
 -1      5963    3    0    1
 -2      3520      1416      3541      3404
 -1      5964    3    0    1
 -2      1439      2501      1587      2927
 -1      5965    3    0    1
 -2      1501      2724      2843      3044
 -1      5966    3    0    1
 -2      1796      1421      3629      3423
 -1      5967    3    0    1
 -2      2830      3568      3712      3726
 -1      5968    3    0    1
 -2      2602      1690      3372      3422
 -1      5969    3    0    1
 -2      3009      1477      3150      3705
 -1      5970    3    0    1
 -2      1519      1520      2755      2757
 -1      5971    3    0    1
 -2      2347      3510      3657      3436
 -1      5972    3    0    1
 -2       527      1253      2480      2558
 -1      5973    3    0    1
 -2      2087      2704      3657      3436
 -1      5974    3    0    1
 -2      1546      1564      2672      2794
 -1      5975    3    0    1
 -2      1427      1501      2548      3366
 -1      5976    3    0    1
 -2      2127      2459      3544      3316
 -1      5977    3    0    1
 -2       643       646      1304      2643
 -1      5978    3    0    1
 -2      1488      1487      1601      3081
 -1      5979    3    0    1
 -2      2772      3555      3381      3481
 -1      5980    3    0    1
 -2      2731      1813      3208      3350
 -1      5981    3    0    1
 -2      1322       735      2274      2798
 -1      5982    3    0    1
 -2      3003      1497      3567      3668
 -1      5983    3    0    1
 -2      2812      2853      3260      3702
 -1      5984    3    0    1
 -2      1638      2852      3595      1834
 -1      5985    3    0    1
 -2      2924      3591      3645      3705
 -1      5986    3    0    1
 -2       646       982      1304      2643
 -1      5987    3    0    1
 -2      2465      3496      3232      3742
 -1      5988    3    0    1
 -2      3509      1545      3477      3724
 -1      5989    3    0    1
 -2      2464      2066      2483      3498
 -1      5990    3    0    1
 -2      1992      2190      3599      3704
 -1      5991    3    0    1
 -2      1514      1513      2738      3157
 -1      5992    3    0    1
 -2      2874      1705      3073      1817
 -1      5993    3    0    1
 -2      1438      3546      3563      3630
 -1      5994    3    0    1
 -2      1546        45      1547      3254
 -1      5995    3    0    1
 -2      1865      3550      3364      3455
 -1      5996    3    0    1
 -2      1465      1466      1573      2833
 -1      5997    3    0    1
 -2       254      2437      3497      3696
 -1      5998    3    0    1
 -2      1581      1582      2878      2917
 -1      5999    3    0    1
 -2       655       662      1789      3297
 -1      6000    3    0    1
 -2      3506      2469      3562      3701
 -1      6001    3    0    1
 -2      1050      1329      2451      2781
 -1      6002    3    0    1
 -2      1561      3515      3601      3666
 -1      6003    3    0    1
 -2      1285      1931      2760      3531
 -1      6004    3    0    1
 -2      3496      2465      3165      3602
 -1      6005    3    0    1
 -2      2870       750      2922      3100
 -1      6006    3    0    1
 -2      2766      1583      2934      2995
 -1      6007    3    0    1
 -2       627       158       975      1904
 -1      6008    3    0    1
 -2      2804      2907      3556      3596
 -1      6009    3    0    1
 -2      1496      1661      3293      1495
 -1      6010    3    0    1
 -2      2171       396      2282      2544
 -1      6011    3    0    1
 -2      2613      2611      2805      3559
 -1      6012    3    0    1
 -2      3550      1450      3069      1865
 -1      6013    3    0    1
 -2      2779      3603      3304      3679
 -1      6014    3    0    1
 -2      1711       601      1712      3214
 -1      6015    3    0    1
 -2      1467      2623      3517      1741
 -1      6016    3    0    1
 -2      1445      1446      3096      1840
 -1      6017    3    0    1
 -2      3105      3598      3387      3679
 -1      6018    3    0    1
 -2      2694      2902      3553      3633
 -1      6019    3    0    1
 -2      1496      1495      1538      2960
 -1      6020    3    0    1
 -2      1746       387      1747      3326
 -1      6021    3    0    1
 -2      2066      2456      2503      3500
 -1      6022    3    0    1
 -2      3547      3515      3601      3704
 -1      6023    3    0    1
 -2      2066      2250      2456      3500
 -1      6024    3    0    1
 -2      2635      2803      3145      1850
 -1      6025    3    0    1
 -2       316      1006      3599      3704
 -1      6026    3    0    1
 -2      3561      2854      3276      3644
 -1      6027    3    0    1
 -2      1741      2957      2970      2979
 -1      6028    3    0    1
 -2       982      1239      1242      2643
 -1      6029    3    0    1
 -2       267      1059      1335      2515
 -1      6030    3    0    1
 -2       573       571      2440      3508
 -1      6031    3    0    1
 -2      3220      2811      3603      3304
 -1      6032    3    0    1
 -2      3060      1622      3061      3062
 -1      6033    3    0    1
 -2      1168      2854      2898      1735
 -1      6034    3    0    1
 -2       708      2222      2485      3693
 -1      6035    3    0    1
 -2      3668       430      3725      3730
 -1      6036    3    0    1
 -2      1625        24      1735      2972
 -1      6037    3    0    1
 -2      1467      2945      3055      3066
 -1      6038    3    0    1
 -2      2643      2772      2791      3555
 -1      6039    3    0    1
 -2      3155      3521      3156      3683
 -1      6040    3    0    1
 -2      2462      3515      2798      3666
 -1      6041    3    0    1
 -2       157       346      3519      3154
 -1      6042    3    0    1
 -2      1426      1425      2831      3065
 -1      6043    3    0    1
 -2      1427      1428      2486      2548
 -1      6044    3    0    1
 -2       457       900      2568      2790
 -1      6045    3    0    1
 -2       279      2355      2442      2767
 -1      6046    3    0    1
 -2       253      1721      1802      3596
 -1      6047    3    0    1
 -2      1009       415      2353      1922
 -1      6048    3    0    1
 -2      1616       145      3351      3468
 -1      6049    3    0    1
 -2       664      2319      2420      2585
 -1      6050    3    0    1
 -2      2480       735      2487      2522
 -1      6051    3    0    1
 -2      1308       661       990      2562
 -1      6052    3    0    1
 -2      3217        13      1647      1646
 -1      6053    3    0    1
 -2      1479      1480      2784      2947
 -1      6054    3    0    1
 -2       327       166       642      1799
 -1      6055    3    0    1
 -2      2203       970      2393      3502
 -1      6056    3    0    1
 -2       460      1148      2597      2615
 -1      6057    3    0    1
 -2      2347      2459      3510      3436
 -1      6058    3    0    1
 -2      3541      3498      3266      3402
 -1      6059    3    0    1
 -2      2984      1659      3230      3664
 -1      6060    3    0    1
 -2      2780      1535      3625      3437
 -1      6061    3    0    1
 -2      2724       319      3044      1501
 -1      6062    3    0    1
 -2       106       337      3537      3695
 -1      6063    3    0    1
 -2      3567      3056      3003      3668
 -1      6064    3    0    1
 -2      2468      2136      2514      3501
 -1      6065    3    0    1
 -2      1781      1780      3109      3298
 -1      6066    3    0    1
 -2      2456      2136      2468      3501
 -1      6067    3    0    1
 -2       128      3566      3590      3631
 -1      6068    3    0    1
 -2      3053      1567      3578      1794
 -1      6069    3    0    1
 -2       336       106      2656      3537
 -1      6070    3    0    1
 -2       998      1312       681      2593
 -1      6071    3    0    1
 -2       387      1746      1747      3267
 -1      6072    3    0    1
 -2      1588      1467      1589      3055
 -1      6073    3    0    1
 -2      2622      2488      3530      3597
 -1      6074    3    0    1
 -2      3373      1559      3670      3688
 -1      6075    3    0    1
 -2       982       646      2213      2539
 -1      6076    3    0    1
 -2      3097      1453      3660      3426
 -1      6077    3    0    1
 -2      2955      3080      3581      3193
 -1      6078    3    0    1
 -2      2934        42      1811      1845
 -1      6079    3    0    1
 -2       925      1335      1059      2712
 -1      6080    3    0    1
 -2      3618      1409      3634      3742
 -1      6081    3    0    1
 -2      1755      3610      3263      3398
 -1      6082    3    0    1
 -2      2636      2665      3549      3236
 -1      6083    3    0    1
 -2       498       822       823      2526
 -1      6084    3    0    1
 -2       981      1308      3663      3684
 -1      6085    3    0    1
 -2       823       499       498      2526
 -1      6086    3    0    1
 -2      1304       327      2171      3542
 -1      6087    3    0    1
 -2      2741      3126      3616      3312
 -1      6088    3    0    1
 -2      1585       277      3596      3291
 -1      6089    3    0    1
 -2       277       423      2971      1895
 -1      6090    3    0    1
 -2      3301      1592      1624      1623
 -1      6091    3    0    1
 -2      2846      2991      3561      3692
 -1      6092    3    0    1
 -2       789      1332       788      2678
 -1      6093    3    0    1
 -2       950       573      2440      2549
 -1      6094    3    0    1
 -2       786      1755      3122      3263
 -1      6095    3    0    1
 -2      3090      3136      2621      3048
 -1      6096    3    0    1
 -2       745       750      2870      1706
 -1      6097    3    0    1
 -2      3532      3524      3547      3704
 -1      6098    3    0    1
 -2      2360      2297      2520      3178
 -1      6099    3    0    1
 -2       241      1040      3527      3624
 -1      6100    3    0    1
 -2      2274      1015      2462      3515
 -1      6101    3    0    1
 -2      1517      1550      1551      3288
 -1      6102    3    0    1
 -2      1671      1423      3090      3204
 -1      6103    3    0    1
 -2       243      2284      2384      2705
 -1      6104    3    0    1
 -2      1440      1857      1858      3400
 -1      6105    3    0    1
 -2      3538      2877      3623      3322
 -1      6106    3    0    1
 -2      1297       392      2556      3710
 -1      6107    3    0    1
 -2       336       942      2454      3537
 -1      6108    3    0    1
 -2       229       428      2675      1602
 -1      6109    3    0    1
 -2       941      2619      2623      3517
 -1      6110    3    0    1
 -2      1493      1533      1534      3041
 -1      6111    3    0    1
 -2      1507      1508      2535      1624
 -1      6112    3    0    1
 -2      2697      2899      3622      3659
 -1      6113    3    0    1
 -2      1027      2307      3507      1902
 -1      6114    3    0    1
 -2       182       196      1760      3691
 -1      6115    3    0    1
 -2      1455      1774      3092      3677
 -1      6116    3    0    1
 -2      2921      1853      3340      3466
 -1      6117    3    0    1
 -2      2618      2674      3517      3238
 -1      6118    3    0    1
 -2      2601      1585      2907      3358
 -1      6119    3    0    1
 -2      2121      2323      2466      2919
 -1      6120    3    0    1
 -2      2748      2959      3571      3664
 -1      6121    3    0    1
 -2      2570      1410      2664      3623
 -1      6122    3    0    1
 -2      2583      3327      3712      3465
 -1      6123    3    0    1
 -2      2854      2693      3561      3276
 -1      6124    3    0    1
 -2      3025       768      3661      3401
 -1      6125    3    0    1
 -2      3500       972      3564      3629
 -1      6126    3    0    1
 -2      1443      3038      3164      3302
 -1      6127    3    0    1
 -2       429      3678      1893      3480
 -1      6128    3    0    1
 -2      3062      1533      3158      3592
 -1      6129    3    0    1
 -2      2948      2814      3116      3592
 -1      6130    3    0    1
 -2      2937       572      3269      3621
 -1      6131    3    0    1
 -2      3054      1529      3623      1887
 -1      6132    3    0    1
 -2      2868      2737      3626      3632
 -1      6133    3    0    1
 -2      3118      2746      3244      3423
 -1      6134    3    0    1
 -2       781      1755      1756      3122
 -1      6135    3    0    1
 -2       589      1294       592      2547
 -1      6136    3    0    1
 -2      1333      3020      3591      3482
 -1      6137    3    0    1
 -2      1477      1659      3150      3482
 -1      6138    3    0    1
 -2      2457      2015      2610      3708
 -1      6139    3    0    1
 -2      2586      2171      2673      3542
 -1      6140    3    0    1
 -2       267      2364      2515      2595
 -1      6141    3    0    1
 -2      1427      1509      1510      3435
 -1      6142    3    0    1
 -2       334       787      1055      1907
 -1      6143    3    0    1
 -2      1431      3586      3452      3717
 -1      6144    3    0    1
 -2       334      2437      2457      3708
 -1      6145    3    0    1
 -2      2534      2796      2818      2833
 -1      6146    3    0    1
 -2       410      3540      3640      3647
 -1      6147    3    0    1
 -2      1591      2771      3593      3296
 -1      6148    3    0    1
 -2      2509      3505      2808      3658
 -1      6149    3    0    1
 -2       522      1240      1241      2540
 -1      6150    3    0    1
 -2      1741       383      2970      3646
 -1      6151    3    0    1
 -2      2619      2600      2623      3517
 -1      6152    3    0    1
 -2      1731      1732      3193      3222
 -1      6153    3    0    1
 -2      2480      3504      2806      3095
 -1      6154    3    0    1
 -2      2355       282      2391      2560
 -1      6155    3    0    1
 -2      1487      1488      1601      2965
 -1      6156    3    0    1
 -2      2676      1495      2960      3177
 -1      6157    3    0    1
 -2       823      2093      2332      2767
 -1      6158    3    0    1
 -2      2608      2458      3504      3670
 -1      6159    3    0    1
 -2      1729       241      3624      1862
 -1      6160    3    0    1
 -2       347       396      3519      3154
 -1      6161    3    0    1
 -2       970      2203      2293      3502
 -1      6162    3    0    1
 -2      1539      1540      3166      3286
 -1      6163    3    0    1
 -2       101      1652      3600      3635
 -1      6164    3    0    1
 -2      2572      1550      2690      3568
 -1      6165    3    0    1
 -2       253       426      3608      1837
 -1      6166    3    0    1
 -2      1467      1588      2674      3517
 -1      6167    3    0    1
 -2       241      3527      3357      3664
 -1      6168    3    0    1
 -2      1460      1459      2596      1570
 -1      6169    3    0    1
 -2      1529      3663      3407      3698
 -1      6170    3    0    1
 -2      2203      2293      3502      2556
 -1      6171    3    0    1
 -2      2468      2233      3563      3698
 -1      6172    3    0    1
 -2      2623      1467      3517      2896
 -1      6173    3    0    1
 -2       592       957       589      2547
 -1      6174    3    0    1
 -2       906      1166      1293      2547
 -1      6175    3    0    1
 -2       957       906      1293      2547
 -1      6176    3    0    1
 -2      3559      2824      3179      3344
 -1      6177    3    0    1
 -2      2190      3505      3506      3686
 -1      6178    3    0    1
 -2      1438      1608      3546      3630
 -1      6179    3    0    1
 -2       717      1016      2597      2615
 -1      6180    3    0    1
 -2      1692      1871      3354      3454
 -1      6181    3    0    1
 -2      3563      3546      3314      3434
 -1      6182    3    0    1
 -2      1714      1713      3205      1819
 -1      6183    3    0    1
 -2      1731       781      1732      3222
 -1      6184    3    0    1
 -2      2854      1168      2898      3561
 -1      6185    3    0    1
 -2      2420       409      2436      3441
 -1      6186    3    0    1
 -2       753       734      2236      2552
 -1      6187    3    0    1
 -2      1033       753      2236      2552
 -1      6188    3    0    1
 -2       734      1033      1321      2552
 -1      6189    3    0    1
 -2       734       753      1033      2552
 -1      6190    3    0    1
 -2      1033      1321      2552      3440
 -1      6191    3    0    1
 -2       100      2416      3735      1928
 -1      6192    3    0    1
 -2       761      1030      1035      2553
 -1      6193    3    0    1
 -2      3735       380      1928      1929
 -1      6194    3    0    1
 -2       761       744      1030      2553
 -1      6195    3    0    1
 -2       947      1291      3735      1928
 -1      6196    3    0    1
 -2      1657      1499      2768      3227
 -1      6197    3    0    1
 -2      1478      1477      2942      3230
 -1      6198    3    0    1
 -2      2607      2547      3535      3433
 -1      6199    3    0    1
 -2       607      2773      2888      3620
 -1      6200    3    0    1
 -2      1836      1656      3617      3402
 -1      6201    3    0    1
 -2      3501      1529      3663      3718
 -1      6202    3    0    1
 -2      2573      2475      3671      3738
 -1      6203    3    0    1
 -2       100      2416      2431      2581
 -1      6204    3    0    1
 -2      3205      3162      3286      3405
 -1      6205    3    0    1
 -2      3546      1608      3314      3434
 -1      6206    3    0    1
 -2      2771      2696      3593      3296
 -1      6207    3    0    1
 -2       554       450      1531      2925
 -1      6208    3    0    1
 -2      2720      2747      1696      1697
 -1      6209    3    0    1
 -2      2526      3516      2900      3584
 -1      6210    3    0    1
 -2      1727      2814      2935      3592
 -1      6211    3    0    1
 -2      1497      1561      3666      3668
 -1      6212    3    0    1
 -2      1648      1519      3019      3554
 -1      6213    3    0    1
 -2      2264       220      3439      3745
 -1      6214    3    0    1
 -2      1255       528      2487      2558
 -1      6215    3    0    1
 -2      1540      1539      1819      3286
 -1      6216    3    0    1
 -2      2597      1148      2602      2615
 -1      6217    3    0    1
 -2       101       422      1708      3585
 -1      6218    3    0    1
 -2       319      3044      1501       430
 -1      6219    3    0    1
 -2       991      1258      1307      2562
 -1      6220    3    0    1
 -2       991      1256      1258      2562
 -1      6221    3    0    1
 -2      1058      1336      2825      3596
 -1      6222    3    0    1
 -2      2870      2737      3632      3669
 -1      6223    3    0    1
 -2      1500      1499      1658      2912
 -1      6224    3    0    1
 -2      1251       529      1257      2562
 -1      6225    3    0    1
 -2      3533      2832      3571      3237
 -1      6226    3    0    1
 -2      2751      1431      3591      3643
 -1      6227    3    0    1
 -2       530       529      1251      2562
 -1      6228    3    0    1
 -2      1476      1475      2742      1733
 -1      6229    3    0    1
 -2      1525      1524      2782      1808
 -1      6230    3    0    1
 -2      1258       529       530      2562
 -1      6231    3    0    1
 -2       529      1258      1256      2562
 -1      6232    3    0    1
 -2       987       993      2291      3518
 -1      6233    3    0    1
 -2       999      1307      2090      2565
 -1      6234    3    0    1
 -2       392      3502      2556      3710
 -1      6235    3    0    1
 -2      1487      1546      3000      3650
 -1      6236    3    0    1
 -2      3684       429      3407      3480
 -1      6237    3    0    1
 -2      1850      3145      3346      3494
 -1      6238    3    0    1
 -2      2694      2672      2905      3553
 -1      6239    3    0    1
 -2      2668      2925      3310      3712
 -1      6240    3    0    1
 -2      2520      3178      3715      3739
 -1      6241    3    0    1
 -2      2500      2514      3513      3514
 -1      6242    3    0    1
 -2      2542      3559      3661      3697
 -1      6243    3    0    1
 -2      2609      1453      1843      1844
 -1      6244    3    0    1
 -2       229      1516      3594      3694
 -1      6245    3    0    1
 -2      1543      3118      3244      3423
 -1      6246    3    0    1
 -2      2527      2530      3579      3675
 -1      6247    3    0    1
 -2      1144       900      2790      3603
 -1      6248    3    0    1
 -2      1547      1546      2858      3000
 -1      6249    3    0    1
 -2      2364       333      2515      2610
 -1      6250    3    0    1
 -2      1430      1642      3116      3385
 -1      6251    3    0    1
 -2      2520      3509      2816      3042
 -1      6252    3    0    1
 -2       716       709      2596      1569
 -1      6253    3    0    1
 -2      1561       319      2724      3523
 -1      6254    3    0    1
 -2      2603      1015      3523      3488
 -1      6255    3    0    1
 -2      1425      2831      3065      3577
 -1      6256    3    0    1
 -2      3657      3192      3353      3717
 -1      6257    3    0    1
 -2       899      1145      1315      2568
 -1      6258    3    0    1
 -2      1007       899      1315      2568
 -1      6259    3    0    1
 -2        22       111      1770      1817
 -1      6260    3    0    1
 -2      3675      3093      3690      3459
 -1      6261    3    0    1
 -2      3087      3094      1818      3459
 -1      6262    3    0    1
 -2      1197      2678      2789      3559
 -1      6263    3    0    1
 -2      1513      1514      2738      1676
 -1      6264    3    0    1
 -2      1632      1631      3303      3411
 -1      6265    3    0    1
 -2       458       457       900      2568
 -1      6266    3    0    1
 -2      2604      2626      2724      3523
 -1      6267    3    0    1
 -2      2604      2510      2626      3523
 -1      6268    3    0    1
 -2      1145       457       458      2568
 -1      6269    3    0    1
 -2      1058      1336      3596      3602
 -1      6270    3    0    1
 -2       457      1145       899      2568
 -1      6271    3    0    1
 -2      2597       717      2615      3523
 -1      6272    3    0    1
 -2       632       157       346      1889
 -1      6273    3    0    1
 -2       228       323      3734      1927
 -1      6274    3    0    1
 -2      2042       707      2353      3430
 -1      6275    3    0    1
 -2      1429      1609      3562      3701
 -1      6276    3    0    1
 -2       149      1299      2385      2577
 -1      6277    3    0    1
 -2       151       149      2385      2577
 -1      6278    3    0    1
 -2      2934      1618      2995      1859
 -1      6279    3    0    1
 -2      2139       949      2494      3508
 -1      6280    3    0    1
 -2      1299      2245      2385      2577
 -1      6281    3    0    1
 -2      2499      2634      3689      3741
 -1      6282    3    0    1
 -2      1431      2659      2751      3591
 -1      6283    3    0    1
 -2      1474      1473      1697      2847
 -1      6284    3    0    1
 -2      2654      1614      2894      3584
 -1      6285    3    0    1
 -2       571       573      1288      2574
 -1      6286    3    0    1
 -2       573       950      1288      2574
 -1      6287    3    0    1
 -2       950      1169      1288      2574
 -1      6288    3    0    1
 -2       950      1167      1169      2574
 -1      6289    3    0    1
 -2      1253      2480      2558      2806
 -1      6290    3    0    1
 -2      1446      3096      1840      3345
 -1      6291    3    0    1
 -2      2295       170      2673      3518
 -1      6292    3    0    1
 -2      1873        40      1891      1892
 -1      6293    3    0    1
 -2      2836      1214      3008      3039
 -1      6294    3    0    1
 -2       473       474      1169      2574
 -1      6295    3    0    1
 -2      1750      3001      3206      3652
 -1      6296    3    0    1
 -2      1288       474       571      2574
 -1      6297    3    0    1
 -2       474      1288      1169      2574
 -1      6298    3    0    1
 -2      1167       473      1169      2574
 -1      6299    3    0    1
 -2      1489      1490      1710      3075
 -1      6300    3    0    1
 -2      1646        13      3330      3388
 -1      6301    3    0    1
 -2      1871      3017      3661      3705
 -1      6302    3    0    1
 -2      1676      1677      2812      3415
 -1      6303    3    0    1
 -2      2416       947      3735      1928
 -1      6304    3    0    1
 -2       409       411      3711      3737
 -1      6305    3    0    1
 -2       132      2086      2428      3443
 -1      6306    3    0    1
 -2      2086       132      2453      3443
 -1      6307    3    0    1
 -2       811       808      1061      1906
 -1      6308    3    0    1
 -2       733       740      1030      1926
 -1      6309    3    0    1
 -2      1427      1509      3435      3488
 -1      6310    3    0    1
 -2      1055      1061      3708      1906
 -1      6311    3    0    1
 -2      3523      1501      2843      3488
 -1      6312    3    0    1
 -2      2518      1552      3599      3448
 -1      6313    3    0    1
 -2      2747      1473      2775      3274
 -1      6314    3    0    1
 -2       941      1289      2281      3508
 -1      6315    3    0    1
 -2       196      1316      3628      3448
 -1      6316    3    0    1
 -2      2814      2841      2948      3116
 -1      6317    3    0    1
 -2      3511      3551      3608      3656
 -1      6318    3    0    1
 -2       119       950      1288      2584
 -1      6319    3    0    1
 -2      2475      2573      3616      3738
 -1      6320    3    0    1
 -2      3126      2475      3616      3738
 -1      6321    3    0    1
 -2      2428       132      3443      3736
 -1      6322    3    0    1
 -2       409      2436      3441      3444
 -1      6323    3    0    1
 -2       664       991      1304      2585
 -1      6324    3    0    1
 -2      1562       329      1563      2949
 -1      6325    3    0    1
 -2      2738      1514      3157      3595
 -1      6326    3    0    1
 -2      2748      1595      3527      2949
 -1      6327    3    0    1
 -2      1661      2676      2913      3177
 -1      6328    3    0    1
 -2      1284       909      1171      2599
 -1      6329    3    0    1
 -2      2964      2836      3008      3581
 -1      6330    3    0    1
 -2      1296       132      2086      3503
 -1      6331    3    0    1
 -2      3226      1620      3616      3738
 -1      6332    3    0    1
 -2      3521      3671      3683      3738
 -1      6333    3    0    1
 -2      2269       599      2428      3503
 -1      6334    3    0    1
 -2      2428      1296       599      2421
 -1      6335    3    0    1
 -2       954      2269      2409      3503
 -1      6336    3    0    1
 -2      2086       132      2428      3503
 -1      6337    3    0    1
 -2       388       954      3503      1910
 -1      6338    3    0    1
 -2       987      2291      2564      3518
 -1      6339    3    0    1
 -2      2315       999      2565      3737
 -1      6340    3    0    1
 -2      2395       954      2409      3503
 -1      6341    3    0    1
 -2       388      2395      2584      3503
 -1      6342    3    0    1
 -2       388       570       954      1910
 -1      6343    3    0    1
 -2      2269       599       954       582
 -1      6344    3    0    1
 -2       599      3503       954      1296
 -1      6345    3    0    1
 -2      2409      2269      2428      3503
 -1      6346    3    0    1
 -2      2395      2409      2428      3503
 -1      6347    3    0    1
 -2      2395      2428      2584      3503
 -1      6348    3    0    1
 -2      1636      3111      3584      3380
 -1      6349    3    0    1
 -2      2131       185      2315      2589
 -1      6350    3    0    1
 -2       595       591      1296      1909
 -1      6351    3    0    1
 -2       591       132      1296      1909
 -1      6352    3    0    1
 -2       132       384      3503      1909
 -1      6353    3    0    1
 -2      2775      1633      2841      2948
 -1      6354    3    0    1
 -2       932      2723      2814      2948
 -1      6355    3    0    1
 -2      1590      3053      3578      1794
 -1      6356    3    0    1
 -2      1464      1463      1568      3098
 -1      6357    3    0    1
 -2      1424      1669      2849      3243
 -1      6358    3    0    1
 -2       681       998      2593      2637
 -1      6359    3    0    1
 -2      1506      1505      2954      3331
 -1      6360    3    0    1
 -2      1195      2824      3559      3344
 -1      6361    3    0    1
 -2      1840      3096      3332      3345
 -1      6362    3    0    1
 -2      3598      3108      3287      3343
 -1      6363    3    0    1
 -2      2534      2602      2818      3577
 -1      6364    3    0    1
 -2      2917      1606      3128      3655
 -1      6365    3    0    1
 -2       763       768      1629      3197
 -1      6366    3    0    1
 -2      3531      3526      3575      3642
 -1      6367    3    0    1
 -2      2644      2470      3641      3688
 -1      6368    3    0    1
 -2       608      1711      3560      3214
 -1      6369    3    0    1
 -2      1526      2558      2801      3348
 -1      6370    3    0    1
 -2      2603      2597      2615      3523
 -1      6371    3    0    1
 -2      2740      3248      3667      3670
 -1      6372    3    0    1
 -2      2466      2228      2467      3526
 -1      6373    3    0    1
 -2      1757       590      3076      3307
 -1      6374    3    0    1
 -2      1505      1506      1598      2953
 -1      6375    3    0    1
 -2       462      2593      2636      2637
 -1      6376    3    0    1
 -2      2568      2815      3598      3603
 -1      6377    3    0    1
 -2      1473      1474      1634      3216
 -1      6378    3    0    1
 -2      1058       807      2688      1336
 -1      6379    3    0    1
 -2      3399      1477      3705      3482
 -1      6380    3    0    1
 -2      2395      2549      2581      3733
 -1      6381    3    0    1
 -2      1016      1318       717      2597
 -1      6382    3    0    1
 -2       219      2264      2307      3709
 -1      6383    3    0    1
 -2      1285       555      2599      2619
 -1      6384    3    0    1
 -2      1318       901      1147      2597
 -1      6385    3    0    1
 -2      1546      1487      1547      2620
 -1      6386    3    0    1
 -2       327       987      2564      3518
 -1      6387    3    0    1
 -2       219      1025      2264      3709
 -1      6388    3    0    1
 -2       901      1318      1016      2597
 -1      6389    3    0    1
 -2      1146       459      1148      2597
 -1      6390    3    0    1
 -2       459       460      1148      2597
 -1      6391    3    0    1
 -2      1552      3599      3628      3686
 -1      6392    3    0    1
 -2      1146      2602      1690      3372
 -1      6393    3    0    1
 -2       460       459      1147      2597
 -1      6394    3    0    1
 -2      1597      3104      3323      3344
 -1      6395    3    0    1
 -2      1318      2495      3421      3709
 -1      6396    3    0    1
 -2       901       460      1147      2597
 -1      6397    3    0    1
 -2      2504      2202      3507      3709
 -1      6398    3    0    1
 -2      3498      1302      3589      3627
 -1      6399    3    0    1
 -2      2923      1457      3573      3319
 -1      6400    3    0    1
 -2      3530      2499      3689      3741
 -1      6401    3    0    1
 -2      2952      1450      3576      1865
 -1      6402    3    0    1
 -2      3547      3505      3203      3704
 -1      6403    3    0    1
 -2       429       171      3678      3684
 -1      6404    3    0    1
 -2      3129      2935      3592      3352
 -1      6405    3    0    1
 -2       961       967      2506      3536
 -1      6406    3    0    1
 -2      1058       807       806      2688
 -1      6407    3    0    1
 -2       469       607      2773      2888
 -1      6408    3    0    1
 -2      1448      2701      2934      2995
 -1      6409    3    0    1
 -2       768       763      3138      3197
 -1      6410    3    0    1
 -2      3708      2610      3487      3744
 -1      6411    3    0    1
 -2      1481      1543      1544      2616
 -1      6412    3    0    1
 -2      1305      2213      2456      3565
 -1      6413    3    0    1
 -2      2673      2171      3518      3542
 -1      6414    3    0    1
 -2      1653      1435      3526      3189
 -1      6415    3    0    1
 -2      1533        21      3060      3062
 -1      6416    3    0    1
 -2       768       763      1629      2911
 -1      6417    3    0    1
 -2        68       154      1634      3385
 -1      6418    3    0    1
 -2      2063      1041      2512      3543
 -1      6419    3    0    1
 -2      3103      1528      3321      3403
 -1      6420    3    0    1
 -2      2991      2886      3027      3561
 -1      6421    3    0    1
 -2      1467      1588      3517      2896
 -1      6422    3    0    1
 -2      3024      1439      1815      3391
 -1      6423    3    0    1
 -2      3265      2701      3636      3665
 -1      6424    3    0    1
 -2      3329      3103      3671      3403
 -1      6425    3    0    1
 -2       337       282      2656      3537
 -1      6426    3    0    1
 -2      3342      3513      3389      3698
 -1      6427    3    0    1
 -2      2756      2869      3612      3620
 -1      6428    3    0    1
 -2      2824      2744      3559      3083
 -1      6429    3    0    1
 -2       395       153      3570      1886
 -1      6430    3    0    1
 -2       244       769      1046      1899
 -1      6431    3    0    1
 -2      1581      1582      1781      3109
 -1      6432    3    0    1
 -2      3550      2756      3612      3620
 -1      6433    3    0    1
 -2      2737      3533      3571      3626
 -1      6434    3    0    1
 -2      2233      2369      3563      3698
 -1      6435    3    0    1
 -2      3569      3604      3729      3743
 -1      6436    3    0    1
 -2      2015       815      2325      2610
 -1      6437    3    0    1
 -2      2325       815      2364      2610
 -1      6438    3    0    1
 -2       270       333       808      1906
 -1      6439    3    0    1
 -2      2610       333      3708      1906
 -1      6440    3    0    1
 -2       808       333      1061      1906
 -1      6441    3    0    1
 -2      1061       333      2610      1906
 -1      6442    3    0    1
 -2      1569      2477      1570      3417
 -1      6443    3    0    1
 -2      3663      3678      3684      3407
 -1      6444    3    0    1
 -2       170       667       328      1798
 -1      6445    3    0    1
 -2       663       170       993      1798
 -1      6446    3    0    1
 -2      1583      2766      2934      3665
 -1      6447    3    0    1
 -2      2102      2297      2360      2778
 -1      6448    3    0    1
 -2      1435      1599      3614      3642
 -1      6449    3    0    1
 -2      2870       745      1706      1707
 -1      6450    3    0    1
 -2      2264      1025      2495      3709
 -1      6451    3    0    1
 -2      1543      1481      1544      3244
 -1      6452    3    0    1
 -2      2490      3598      3603      3679
 -1      6453    3    0    1
 -2      3025      2893      3661      3478
 -1      6454    3    0    1
 -2      1522       655      1523      2837
 -1      6455    3    0    1
 -2      3013      2614      3039      3110
 -1      6456    3    0    1
 -2      3074      2862      3127      3335
 -1      6457    3    0    1
 -2      1432      2941      2957      3646
 -1      6458    3    0    1
 -2      1683      3048      3090      3603
 -1      6459    3    0    1
 -2       154        68      1634      1820
 -1      6460    3    0    1
 -2      3563      1438      3630      3678
 -1      6461    3    0    1
 -2      2640      1234      2814      2883
 -1      6462    3    0    1
 -2      2688      2712      2964      3581
 -1      6463    3    0    1
 -2      1058      1340      2332      3602
 -1      6464    3    0    1
 -2      2767      1067      2769      3529
 -1      6465    3    0    1
 -2      1335      2595      2767      3529
 -1      6466    3    0    1
 -2       322       220      3734      1926
 -1      6467    3    0    1
 -2       383       112      3548      3642
 -1      6468    3    0    1
 -2      1066      1285      2760      3531
 -1      6469    3    0    1
 -2      1762      2692      3409      3418
 -1      6470    3    0    1
 -2      2681      2514      3142      3698
 -1      6471    3    0    1
 -2      1913      3367      1924      1925
 -1      6472    3    0    1
 -2       279       278      3529      3707
 -1      6473    3    0    1
 -2      2569      2554      3625      3413
 -1      6474    3    0    1
 -2       769       776      1046      1899
 -1      6475    3    0    1
 -2      1661      1522      1662      2857
 -1      6476    3    0    1
 -2      2514      3501      3513      3698
 -1      6477    3    0    1
 -2      2487      2522      2546      3504
 -1      6478    3    0    1
 -2      2477      2458      2555      3504
 -1      6479    3    0    1
 -2      3367      3145      3082      2786
 -1      6480    3    0    1
 -2      1335      2767      2769      3529
 -1      6481    3    0    1
 -2      1480      1479      1615      2947
 -1      6482    3    0    1
 -2      2458      2477      2608      3504
 -1      6483    3    0    1
 -2      1477      2942      3664      3454
 -1      6484    3    0    1
 -2       267      2364      2595      3529
 -1      6485    3    0    1
 -2      1410      3501      1529      3698
 -1      6486    3    0    1
 -2       329      1330      3527      3247
 -1      6487    3    0    1
 -2      1668      1667      1677      2994
 -1      6488    3    0    1
 -2      2477      2545      2608      3504
 -1      6489    3    0    1
 -2      1006      1319      3201      3704
 -1      6490    3    0    1
 -2      2442       279      3529      3707
 -1      6491    3    0    1
 -2      3419      1511      3467      3484
 -1      6492    3    0    1
 -2      3138       768      3197      3626
 -1      6493    3    0    1
 -2      1638      2852      1834      1835
 -1      6494    3    0    1
 -2      3187      2956      2920      1535
 -1      6495    3    0    1
 -2      2712      2836      2964      3581
 -1      6496    3    0    1
 -2      3038      1443      3164      3398
 -1      6497    3    0    1
 -2       195      1571      1681      2819
 -1      6498    3    0    1
 -2        45        50      1546      1670
 -1      6499    3    0    1
 -2       144      2579      2745      3552
 -1      6500    3    0    1
 -2      2749      3645      3661      3705
 -1      6501    3    0    1
 -2      1552       182      3628      3428
 -1      6502    3    0    1
 -2      2602      1146      2661      3577
 -1      6503    3    0    1
 -2      3549      2636      3236      3388
 -1      6504    3    0    1
 -2       101      2844      1615      1614
 -1      6505    3    0    1
 -2      1601      1600      2921      3081
 -1      6506    3    0    1
 -2      1223       513      1225      2622
 -1      6507    3    0    1
 -2       513      2488      1223       512
 -1      6508    3    0    1
 -2      2688       807      1335      2712
 -1      6509    3    0    1
 -2      2281      1289      2440      3508
 -1      6510    3    0    1
 -2      1285       941      1931      3614
 -1      6511    3    0    1
 -2       804       799      3299      1853
 -1      6512    3    0    1
 -2      2292       415      2353      3410
 -1      6513    3    0    1
 -2      3026      2658      3579      3675
 -1      6514    3    0    1
 -2      3017      2749      3661      3705
 -1      6515    3    0    1
 -2      3505      2509      2808      3203
 -1      6516    3    0    1
 -2      3661      3025      3401      3705
 -1      6517    3    0    1
 -2      1477      3009      1863      3705
 -1      6518    3    0    1
 -2      1871      3661      3401      3705
 -1      6519    3    0    1
 -2      3009      1692      1863      3705
 -1      6520    3    0    1
 -2      2867      1650      3012      3574
 -1      6521    3    0    1
 -2      2801      1521      1674      3120
 -1      6522    3    0    1
 -2      2509      2190      3505      3506
 -1      6523    3    0    1
 -2      3009      2749      3017      3705
 -1      6524    3    0    1
 -2      3167      2644      3641      3688
 -1      6525    3    0    1
 -2      2190      2509      3505      3203
 -1      6526    3    0    1
 -2      1592      1591      2930      1772
 -1      6527    3    0    1
 -2      3573      2460      3597      3677
 -1      6528    3    0    1
 -2      2293       144      2745      3536
 -1      6529    3    0    1
 -2      3678       429      3684      3480
 -1      6530    3    0    1
 -2      2891      2624      3555      3196
 -1      6531    3    0    1
 -2      1461      1579      1580      3268
 -1      6532    3    0    1
 -2      1527      1593      1594      3133
 -1      6533    3    0    1
 -2      3508      2494      2684      3572
 -1      6534    3    0    1
 -2       967      2293      2506      3536
 -1      6535    3    0    1
 -2      1688       745      1689      3309
 -1      6536    3    0    1
 -2      2392      1293      3552      3070
 -1      6537    3    0    1
 -2      3498      2461      3541      3427
 -1      6538    3    0    1
 -2      2185      2190      2469      3506
 -1      6539    3    0    1
 -2      2469      2190      2509      3506
 -1      6540    3    0    1
 -2      2091      2469      2509      3506
 -1      6541    3    0    1
 -2      1444      1443      3164      3302
 -1      6542    3    0    1
 -2      1445      2980      1840      1841
 -1      6543    3    0    1
 -2      3514      2500      3534      3640
 -1      6544    3    0    1
 -2      1705      1437      2874      3073
 -1      6545    3    0    1
 -2       450      1531      1532      2625
 -1      6546    3    0    1
 -2       636      2243      2417      3392
 -1      6547    3    0    1
 -2      1503      1504      1536      2780
 -1      6548    3    0    1
 -2      1528      1527      1764      3231
 -1      6549    3    0    1
 -2       450       554      1531      2625
 -1      6550    3    0    1
 -2      1418      2534      2602      1571
 -1      6551    3    0    1
 -2      1877      1529      3684      3407
 -1      6552    3    0    1
 -2         1      1813      1814      3382
 -1      6553    3    0    1
 -2       789      1050      2678      2789
 -1      6554    3    0    1
 -2      2934      2701      3265      3665
 -1      6555    3    0    1
 -2       626      3134      3616      3312
 -1      6556    3    0    1
 -2      1553      1706      2988      3632
 -1      6557    3    0    1
 -2        21      3062      1534      1879
 -1      6558    3    0    1
 -2      1441      1440      1566      2725
 -1      6559    3    0    1
 -2      1579      2874      1769      1770
 -1      6560    3    0    1
 -2      1620      3126      1829      3616
 -1      6561    3    0    1
 -2      3693      2485      3410      3699
 -1      6562    3    0    1
 -2      1539      3286      3289      3405
 -1      6563    3    0    1
 -2      2935      1533      3060      3592
 -1      6564    3    0    1
 -2      1566      1565      2675      2725
 -1      6565    3    0    1
 -2      3525      1411      3587      3713
 -1      6566    3    0    1
 -2      3145      3082      3346      3494
 -1      6567    3    0    1
 -2      2869      3560      3620      3637
 -1      6568    3    0    1
 -2      3681      3429      3414      3743
 -1      6569    3    0    1
 -2      2743      2652      2896      3568
 -1      6570    3    0    1
 -2       806      1067      1335      2767
 -1      6571    3    0    1
 -2      3618      3339      3355      3476
 -1      6572    3    0    1
 -2      1420      1725      3604      3739
 -1      6573    3    0    1
 -2      1519      1520      2650      1649
 -1      6574    3    0    1
 -2      2472      2307      2504      3507
 -1      6575    3    0    1
 -2      2220      2307      2472      3507
 -1      6576    3    0    1
 -2      2202      2472      2504      3507
 -1      6577    3    0    1
 -2       668       409       411      1918
 -1      6578    3    0    1
 -2      2578       336      2454      3537
 -1      6579    3    0    1
 -2      2541      3606      3240      3445
 -1      6580    3    0    1
 -2      2271      3545      3551      3717
 -1      6581    3    0    1
 -2      3565       981      3663      3678
 -1      6582    3    0    1
 -2      2817      2461      3541      2866
 -1      6583    3    0    1
 -2      2498      2499      3530      3741
 -1      6584    3    0    1
 -2      2541      3240      3292      3445
 -1      6585    3    0    1
 -2      1591      1771      1772      3328
 -1      6586    3    0    1
 -2      3549      2637      3659      3673
 -1      6587    3    0    1
 -2      3119      1620      3639      3471
 -1      6588    3    0    1
 -2      2295       170      3518      1798
 -1      6589    3    0    1
 -2      3517      3614      3722      3740
 -1      6590    3    0    1
 -2      2877       990      3613      3322
 -1      6591    3    0    1
 -2      1572      1465      1573      2833
 -1      6592    3    0    1
 -2       608       601      1711      3214
 -1      6593    3    0    1
 -2      2672      1487      3553      3466
 -1      6594    3    0    1
 -2      1626      1625      1791      3282
 -1      6595    3    0    1
 -2      2525      2493      3526      3528
 -1      6596    3    0    1
 -2      1816      1811      3252      3259
 -1      6597    3    0    1
 -2       495       494       771      2629
 -1      6598    3    0    1
 -2      1024      1326      3525      3694
 -1      6599    3    0    1
 -2       396       982      2282      3519
 -1      6600    3    0    1
 -2       494       770       771      2629
 -1      6601    3    0    1
 -2      1543      3629      3423      3450
 -1      6602    3    0    1
 -2      2901      2660      2937      3621
 -1      6603    3    0    1
 -2      3187      3240      3687      3445
 -1      6604    3    0    1
 -2      2384       243      3582      1881
 -1      6605    3    0    1
 -2      1519      1648      3173      3683
 -1      6606    3    0    1
 -2       982      1301      2539      3519
 -1      6607    3    0    1
 -2       241       425      1885      3720
 -1      6608    3    0    1
 -2       554      2625      2726      3633
 -1      6609    3    0    1
 -2      2669      3097      3660      3426
 -1      6610    3    0    1
 -2      1582      1581      3045      3109
 -1      6611    3    0    1
 -2       781       786      2944      1755
 -1      6612    3    0    1
 -2      3585       422      3189      3600
 -1      6613    3    0    1
 -2        67        21      1754      3084
 -1      6614    3    0    1
 -2      1414      1413      1456      3228
 -1      6615    3    0    1
 -2      1844      3292      3660      3426
 -1      6616    3    0    1
 -2      1731      1574      3080      3193
 -1      6617    3    0    1
 -2      2969      3560      3260      3620
 -1      6618    3    0    1
 -2      3080      2955      3581      3263
 -1      6619    3    0    1
 -2       153      1543      1544      3450
 -1      6620    3    0    1
 -2      1419      2692      2879      3676
 -1      6621    3    0    1
 -2      1305       643      2540      2643
 -1      6622    3    0    1
 -2      1448      2701      2702      2855
 -1      6623    3    0    1
 -2      2566      2490      3598      3625
 -1      6624    3    0    1
 -2      2591      3549      3236      3388
 -1      6625    3    0    1
 -2      1473      3144      1697      2847
 -1      6626    3    0    1
 -2      1461      3276      3644      3341
 -1      6627    3    0    1
 -2      3589      1656      3617      3629
 -1      6628    3    0    1
 -2      1572      1681      2818      2819
 -1      6629    3    0    1
 -2      2904      2542      3559      3661
 -1      6630    3    0    1
 -2      2559      2918      3580      3671
 -1      6631    3    0    1
 -2      1767      2895      3645      3370
 -1      6632    3    0    1
 -2       996      2134      2436      3711
 -1      6633    3    0    1
 -2      3513      3169      2500      3640
 -1      6634    3    0    1
 -2      1489      2691      3007      3341
 -1      6635    3    0    1
 -2      2944      1755      3324      3370
 -1      6636    3    0    1
 -2       219       218      3507      1902
 -1      6637    3    0    1
 -2      3555      2791      3671      3403
 -1      6638    3    0    1
 -2      1711      1667      2978      3560
 -1      6639    3    0    1
 -2      3026      1640      3579      3307
 -1      6640    3    0    1
 -2       601      1711      1712      3290
 -1      6641    3    0    1
 -2      2102      2091      2297      2778
 -1      6642    3    0    1
 -2      1152       462      2593      2636
 -1      6643    3    0    1
 -2       637       644      2703      2987
 -1      6644    3    0    1
 -2      2600      2623      2830      2599
 -1      6645    3    0    1
 -2      2791      2772      2915      3555
 -1      6646    3    0    1
 -2      1581      1582      3045      1875
 -1      6647    3    0    1
 -2      2331      1333      3643      3700
 -1      6648    3    0    1
 -2      1801      3540      3651      3719
 -1      6649    3    0    1
 -2       463       462      2636      2637
 -1      6650    3    0    1
 -2      1436      2721      3043      3465
 -1      6651    3    0    1
 -2        68      1633      1663      2841
 -1      6652    3    0    1
 -2       462       463      1151      2637
 -1      6653    3    0    1
 -2       462      1151      2593      2637
 -1      6654    3    0    1
 -2       999       681      2593      2637
 -1      6655    3    0    1
 -2      1151       463      1153      2637
 -1      6656    3    0    1
 -2      1151       999      2593      2637
 -1      6657    3    0    1
 -2      3195      3095      3667      3670
 -1      6658    3    0    1
 -2      1289       573      2440      3508
 -1      6659    3    0    1
 -2      2537      2203      3502      3420
 -1      6660    3    0    1
 -2       996      1001      2134      3711
 -1      6661    3    0    1
 -2      1440      1565      2725      3741
 -1      6662    3    0    1
 -2      3546      3611      3434      3714
 -1      6663    3    0    1
 -2      2281      2139      2494      3508
 -1      6664    3    0    1
 -2      2139      2281      2440      3508
 -1      6665    3    0    1
 -2      1322      1015      3515      2798
 -1      6666    3    0    1
 -2      1457      1458      1584      2766
 -1      6667    3    0    1
 -2       973       931      1301      2640
 -1      6668    3    0    1
 -2      3124      1716      3612      3337
 -1      6669    3    0    1
 -2      2706      1032      2813      3530
 -1      6670    3    0    1
 -2       931      1235      1301      2640
 -1      6671    3    0    1
 -2      3078      3639      3662      3470
 -1      6672    3    0    1
 -2      2849      1743      3674      1883
 -1      6673    3    0    1
 -2      1301       519       625      2640
 -1      6674    3    0    1
 -2      1235       518       519      2640
 -1      6675    3    0    1
 -2       518      1235       931      2640
 -1      6676    3    0    1
 -2       519      1301      1235      2640
 -1      6677    3    0    1
 -2       181        13      1792      3330
 -1      6678    3    0    1
 -2      1302      2250      2464      3629
 -1      6679    3    0    1
 -2      1574      3064      3179      3331
 -1      6680    3    0    1
 -2      3205      2937      3621      3405
 -1      6681    3    0    1
 -2      2814      1727      3060      3592
 -1      6682    3    0    1
 -2      2658      3535      3579      3675
 -1      6683    3    0    1
 -2      1546      1547      2858      3254
 -1      6684    3    0    1
 -2      3495      1516      3605      3694
 -1      6685    3    0    1
 -2       522       521      1240      2643
 -1      6686    3    0    1
 -2       521       522      1242      2643
 -1      6687    3    0    1
 -2      1242       522      2540      2643
 -1      6688    3    0    1
 -2      1239       521      1242      2643
 -1      6689    3    0    1
 -2      3527      2832      3357      3664
 -1      6690    3    0    1
 -2       643      1304      2540      2643
 -1      6691    3    0    1
 -2      1304      1242      2540      2643
 -1      6692    3    0    1
 -2      2369      2974      3563      3698
 -1      6693    3    0    1
 -2      1513      1638      1639      3157
 -1      6694    3    0    1
 -2      2857      1522      3264      3308
 -1      6695    3    0    1
 -2       799      3299      1853      1854
 -1      6696    3    0    1
 -2      3629      1796      3423      3450
 -1      6697    3    0    1
 -2      1529       171      3623      1877
 -1      6698    3    0    1
 -2      3613       990      3640      3647
 -1      6699    3    0    1
 -2      1617      1616      3242      1866
 -1      6700    3    0    1
 -2      1414      1413      2489      3207
 -1      6701    3    0    1
 -2      1501      1427      1502      2843
 -1      6702    3    0    1
 -2      3598      2518      3599      3448
 -1      6703    3    0    1
 -2      2593      2951      3549      3659
 -1      6704    3    0    1
 -2      1678      3550      3032      3261
 -1      6705    3    0    1
 -2      1553      1650      1651      2867
 -1      6706    3    0    1
 -2      2402      2211      2473      3509
 -1      6707    3    0    1
 -2      2831      2667      3577      3146
 -1      6708    3    0    1
 -2      1815      3024      3391      3394
 -1      6709    3    0    1
 -2      2093      1335      2595      2767
 -1      6710    3    0    1
 -2      3589      3541      3617      3402
 -1      6711    3    0    1
 -2      1469      1470      1518      2871
 -1      6712    3    0    1
 -2      1336       807      2688      2712
 -1      6713    3    0    1
 -2      1688      1689      3213      3309
 -1      6714    3    0    1
 -2      1336      3551      3596      3602
 -1      6715    3    0    1
 -2      1562      2748      2949      2973
 -1      6716    3    0    1
 -2      1440      1441      1566      2848
 -1      6717    3    0    1
 -2      1565      1440      1566      2848
 -1      6718    3    0    1
 -2      2683      2658      3535      3099
 -1      6719    3    0    1
 -2      3198      3221      3673      3462
 -1      6720    3    0    1
 -2      1457      1583      1584      2699
 -1      6721    3    0    1
 -2       101      1614      1615      2881
 -1      6722    3    0    1
 -2      3162      3205      3289      3405
 -1      6723    3    0    1
 -2      1301      2192      2539      3519
 -1      6724    3    0    1
 -2      2613      1740      3104      3323
 -1      6725    3    0    1
 -2      1049      1333      2678      2744
 -1      6726    3    0    1
 -2       383      1821      3642      3740
 -1      6727    3    0    1
 -2      2602      2597      2615      2661
 -1      6728    3    0    1
 -2       277      1628      3557      1895
 -1      6729    3    0    1
 -2      2945      3066      3646      3692
 -1      6730    3    0    1
 -2      2503      2468      3563      3565
 -1      6731    3    0    1
 -2      1555      2720      1696      1697
 -1      6732    3    0    1
 -2      1146      2597      2602      2661
 -1      6733    3    0    1
 -2      2897      1579      1769      1770
 -1      6734    3    0    1
 -2       972      1302      2640      2931
 -1      6735    3    0    1
 -2      2906      3620      2872      3676
 -1      6736    3    0    1
 -2      2854      2680      3073      3644
 -1      6737    3    0    1
 -2      2454       942      2656      3537
 -1      6738    3    0    1
 -2      2635      1225      2803      1850
 -1      6739    3    0    1
 -2      2652      1644      2743      2896
 -1      6740    3    0    1
 -2       619       626      2810      1829
 -1      6741    3    0    1
 -2      1579      1580      2874      1770
 -1      6742    3    0    1
 -2      2228      2465      3496      3232
 -1      6743    3    0    1
 -2      1470      1469      1518      2887
 -1      6744    3    0    1
 -2       789       788      1333      2678
 -1      6745    3    0    1
 -2      1835      1834      3383      1884
 -1      6746    3    0    1
 -2      2627      3074      3576      3351
 -1      6747    3    0    1
 -2       241      1673      3648      1885
 -1      6748    3    0    1
 -2      2862      1603      2897      3074
 -1      6749    3    0    1
 -2      1463      1464      1568      2910
 -1      6750    3    0    1
 -2      1599      3614      3642      3740
 -1      6751    3    0    1
 -2      2744      3645      3661      3697
 -1      6752    3    0    1
 -2      1409      3551      3618      3634
 -1      6753    3    0    1
 -2      1596       253      3608      1837
 -1      6754    3    0    1
 -2       736       219      1027      1902
 -1      6755    3    0    1
 -2      1601      1600      2860      3299
 -1      6756    3    0    1
 -2      3505      2808      3567      3203
 -1      6757    3    0    1
 -2      1588      1467      3055      3066
 -1      6758    3    0    1
 -2      2852      1656      1834      1836
 -1      6759    3    0    1
 -2       426      1868      3656      3479
 -1      6760    3    0    1
 -2       207      3422      1901      3474
 -1      6761    3    0    1
 -2      2821      2614      2953      3278
 -1      6762    3    0    1
 -2      3509      3525      3605      3713
 -1      6763    3    0    1
 -2      2845      1562      1734      3689
 -1      6764    3    0    1
 -2      2831      1425      3146      3372
 -1      6765    3    0    1
 -2      2663       990      2735      2877
 -1      6766    3    0    1
 -2      3527      2629      3571      3247
 -1      6767    3    0    1
 -2      1610       565      1611      2714
 -1      6768    3    0    1
 -2       101       422      1615      1708
 -1      6769    3    0    1
 -2      1607      1606      2917      1781
 -1      6770    3    0    1
 -2      2772      2643      2791      2915
 -1      6771    3    0    1
 -2      2784      3517      3184      3722
 -1      6772    3    0    1
 -2       763      1629      1630      3197
 -1      6773    3    0    1
 -2      2931      3118      3629      3639
 -1      6774    3    0    1
 -2      2613      1415      3559      3104
 -1      6775    3    0    1
 -2       387       421      1747      3326
 -1      6776    3    0    1
 -2      3574       750      3200      3262
 -1      6777    3    0    1
 -2      1619      2680      2972      3072
 -1      6778    3    0    1
 -2      3147      1599      3246      3740
 -1      6779    3    0    1
 -2      2696      3516      3593      3296
 -1      6780    3    0    1
 -2      2746      2630      3629      3639
 -1      6781    3    0    1
 -2      3623       171      1308      1887
 -1      6782    3    0    1
 -2      2566      3191      3598      3461
 -1      6783    3    0    1
 -2      3092      1455      1775      1774
 -1      6784    3    0    1
 -2      1624      1592      2930      1623
 -1      6785    3    0    1
 -2      1747      1746      3058      3190
 -1      6786    3    0    1
 -2      1524      1525      1783      3186
 -1      6787    3    0    1
 -2      2500      2185      3534      3640
 -1      6788    3    0    1
 -2      1322      1024      3587      3641
 -1      6789    3    0    1
 -2      1541      1542      2980      3428
 -1      6790    3    0    1
 -2      2510      3523      3606      3660
 -1      6791    3    0    1
 -2      3586      3511      3608      3643
 -1      6792    3    0    1
 -2      2748      3527      3571      3247
 -1      6793    3    0    1
 -2      1517      1518      2690      2871
 -1      6794    3    0    1
 -2      3583      1652      3176      3456
 -1      6795    3    0    1
 -2       219      2307      3507      3709
 -1      6796    3    0    1
 -2      1640      3141      3637      3334
 -1      6797    3    0    1
 -2      3182      2686      3598      3448
 -1      6798    3    0    1
 -2      2635      2803      3573      3145
 -1      6799    3    0    1
 -2      1420      3495      3569      3594
 -1      6800    3    0    1
 -2      1214      1738      3008      3039
 -1      6801    3    0    1
 -2      1608      1438      3546      3563
 -1      6802    3    0    1
 -2      3532       205      3547      3050
 -1      6803    3    0    1
 -2      2956      3187      2920      3687
 -1      6804    3    0    1
 -2      2487      2522      3504      3641
 -1      6805    3    0    1
 -2      2538      1782      3186      3221
 -1      6806    3    0    1
 -2      1692      3017      1871      3705
 -1      6807    3    0    1
 -2      1479      1654      1655      2938
 -1      6808    3    0    1
 -2      2704      2347      3586      3657
 -1      6809    3    0    1
 -2      1809      3181      1851      1852
 -1      6810    3    0    1
 -2      1539      1746      1747      3190
 -1      6811    3    0    1
 -2       964      2242      3590      3627
 -1      6812    3    0    1
 -2      1616      1865      1866      3364
 -1      6813    3    0    1
 -2      3276      3073      1848      3644
 -1      6814    3    0    1
 -2      1339      2454      2656      3537
 -1      6815    3    0    1
 -2      1477      1478      3051      1864
 -1      6816    3    0    1
 -2      1448      2701      2855      2934
 -1      6817    3    0    1
 -2      1455      3207      3347      3667
 -1      6818    3    0    1
 -2       499       498      2694      2905
 -1      6819    3    0    1
 -2       244      1046      3497      1899
 -1      6820    3    0    1
 -2      1597      1505      1598      2953
 -1      6821    3    0    1
 -2      2744      1049      3591      3645
 -1      6822    3    0    1
 -2       949       387      3615      3646
 -1      6823    3    0    1
 -2       243      1041      2705      3543
 -1      6824    3    0    1
 -2      1041      2063      2705      3543
 -1      6825    3    0    1
 -2      3250      3078      3662      3706
 -1      6826    3    0    1
 -2      2360      2211      2842      3658
 -1      6827    3    0    1
 -2      1453      1844      3660      3426
 -1      6828    3    0    1
 -2      1413      3228      3280      3677
 -1      6829    3    0    1
 -2      1473      1633      1634      2775
 -1      6830    3    0    1
 -2       424      1827      3306      3703
 -1      6831    3    0    1
 -2      1504      1503      1536      2956
 -1      6832    3    0    1
 -2      1487      1600      1601      3081
 -1      6833    3    0    1
 -2      2185      1316      2190      3686
 -1      6834    3    0    1
 -2      1503      1504      2822      2956
 -1      6835    3    0    1
 -2      3069      3550      1865      3455
 -1      6836    3    0    1
 -2      2759      1499      2912      3554
 -1      6837    3    0    1
 -2      2534      2492      3577      3687
 -1      6838    3    0    1
 -2      2799      3530      3574      3597
 -1      6839    3    0    1
 -2      1444      1443      2895      3285
 -1      6840    3    0    1
 -2      3064      2805      3179      3331
 -1      6841    3    0    1
 -2      3511      2271      3545      3551
 -1      6842    3    0    1
 -2      3534      3514      3640      3652
 -1      6843    3    0    1
 -2      1789      3277      3622      3659
 -1      6844    3    0    1
 -2      2991      2886      3561      3288
 -1      6845    3    0    1
 -2      1049       253      1336      3511
 -1      6846    3    0    1
 -2      2429      2271      2478      3511
 -1      6847    3    0    1
 -2      2331      2429      2478      3511
 -1      6848    3    0    1
 -2       644       637      2916      2962
 -1      6849    3    0    1
 -2      2927      2501      2928      2960
 -1      6850    3    0    1
 -2       171      1887      1893      3716
 -1      6851    3    0    1
 -2      3076       590      1838      3307
 -1      6852    3    0    1
 -2      3048      3136      3603      3304
 -1      6853    3    0    1
 -2      1629      1491      1630      2961
 -1      6854    3    0    1
 -2      1555       626      3134      3174
 -1      6855    3    0    1
 -2      1417      2518      1552      3599
 -1      6856    3    0    1
 -2      1172      1170      2600      2830
 -1      6857    3    0    1
 -2       504      2688      2712      2964
 -1      6858    3    0    1
 -2       644      3173      3671      3683
 -1      6859    3    0    1
 -2      2086      2506      2745      3536
 -1      6860    3    0    1
 -2      2228      3531      3575      3583
 -1      6861    3    0    1
 -2      1415      2611      3559      3211
 -1      6862    3    0    1
 -2      3614       383      3642      3740
 -1      6863    3    0    1
 -2      1040      1333      2331      3700
 -1      6864    3    0    1
 -2      1050      1332       789      2678
 -1      6865    3    0    1
 -2      1332       918      1196      2678
 -1      6866    3    0    1
 -2       918      1332      1050      2678
 -1      6867    3    0    1
 -2      1195       492      1197      2678
 -1      6868    3    0    1
 -2       492       493      1197      2678
 -1      6869    3    0    1
 -2       697      1007      2568      2790
 -1      6870    3    0    1
 -2      1316       697      1006      2790
 -1      6871    3    0    1
 -2       493       492      1196      2678
 -1      6872    3    0    1
 -2       918       493      1196      2678
 -1      6873    3    0    1
 -2      1741       112      1742      2970
 -1      6874    3    0    1
 -2       316       205      1664      3123
 -1      6875    3    0    1
 -2        41      1631      1701      2855
 -1      6876    3    0    1
 -2      2945      2695      3066      3692
 -1      6877    3    0    1
 -2       282      1339      2656      3537
 -1      6878    3    0    1
 -2      1813         1      1814      3350
 -1      6879    3    0    1
 -2      2483      3498      3541      3627
 -1      6880    3    0    1
 -2      1604      2958      1750      3322
 -1      6881    3    0    1
 -2       942       336      2656      3537
 -1      6882    3    0    1
 -2       279       278      2769      3529
 -1      6883    3    0    1
 -2      1600      1601      2860      2965
 -1      6884    3    0    1
 -2      2484      2700      3654      3655
 -1      6885    3    0    1
 -2      2136      2514      3501      3513
 -1      6886    3    0    1
 -2       112      1741      1742      3246
 -1      6887    3    0    1
 -2      3517      2619      2977      3241
 -1      6888    3    0    1
 -2      1664      1453      2802      3287
 -1      6889    3    0    1
 -2      1693      1692      3009      3017
 -1      6890    3    0    1
 -2      2864      2862      2897      3335
 -1      6891    3    0    1
 -2      3561      2479      3621      3692
 -1      6892    3    0    1
 -2      2770      1757      1758      3076
 -1      6893    3    0    1
 -2      2139      2474      2494      3512
 -1      6894    3    0    1
 -2      2474      2427      2494      3512
 -1      6895    3    0    1
 -2      2952      2683      3036      3576
 -1      6896    3    0    1
 -2      1747      1746      3166      3267
 -1      6897    3    0    1
 -2      3531      3526      2228      3575
 -1      6898    3    0    1
 -2      1467      1468      1589      3055
 -1      6899    3    0    1
 -2       716       709      1509      2685
 -1      6900    3    0    1
 -2      1509      1510      2575      2685
 -1      6901    3    0    1
 -2      1509       709      1510      2685
 -1      6902    3    0    1
 -2      1629       763      1630      2911
 -1      6903    3    0    1
 -2      1531       450      1532      2925
 -1      6904    3    0    1
 -2      2576      2606      3517      2784
 -1      6905    3    0    1
 -2      3008      1738      3013      3039
 -1      6906    3    0    1
 -2      2735      2663      3538      3654
 -1      6907    3    0    1
 -2      1463      1464      2985      3098
 -1      6908    3    0    1
 -2      3496      2465      3602      3634
 -1      6909    3    0    1
 -2      2908      2663      3558      3654
 -1      6910    3    0    1
 -2      3394        80      1765      1764
 -1      6911    3    0    1
 -2      1312       998      2185      3534
 -1      6912    3    0    1
 -2      2921      2889      3553      3340
 -1      6913    3    0    1
 -2      2540      1305      2643      2687
 -1      6914    3    0    1
 -2       981      1305      2540      2687
 -1      6915    3    0    1
 -2       449       553      1644      3033
 -1      6916    3    0    1
 -2      3191      3185      3598      3461
 -1      6917    3    0    1
 -2      3569      1420      3594      3604
 -1      6918    3    0    1
 -2      1223      2488      2622      2803
 -1      6919    3    0    1
 -2      1569      1459      3416      3417
 -1      6920    3    0    1
 -2      1493      1494      1534      3158
 -1      6921    3    0    1
 -2      1487      1488      2620      3081
 -1      6922    3    0    1
 -2      3026      2910      3053      3579
 -1      6923    3    0    1
 -2      2723      2640      2814      2883
 -1      6924    3    0    1
 -2      2629      2762      2832      3533
 -1      6925    3    0    1
 -2      2820      1572      3106      3229
 -1      6926    3    0    1
 -2      1584      1583      2766      2995
 -1      6927    3    0    1
 -2       601      1557      1558      2729
 -1      6928    3    0    1
 -2       601       608      1557      2729
 -1      6929    3    0    1
 -2      2629      2832      3527      3533
 -1      6930    3    0    1
 -2      3097      1664      3123      3660
 -1      6931    3    0    1
 -2      1724       277      3596      3602
 -1      6932    3    0    1
 -2      2602      2785      2818      3577
 -1      6933    3    0    1
 -2      1709      1489      1710      3075
 -1      6934    3    0    1
 -2      1537      2927      2928      2998
 -1      6935    3    0    1
 -2      1531      1532      2996      1825
 -1      6936    3    0    1
 -2      3511      2271      3551      3602
 -1      6937    3    0    1
 -2      1437      2874      3073      3644
 -1      6938    3    0    1
 -2      2591      2550      3549      3674
 -1      6939    3    0    1
 -2      1430      1622      3061      3116
 -1      6940    3    0    1
 -2      2491      2587      3577      3606
 -1      6941    3    0    1
 -2      1757       590      3334      3375
 -1      6942    3    0    1
 -2      3152      1721      1802      1868
 -1      6943    3    0    1
 -2      1528      3231      3451      3727
 -1      6944    3    0    1
 -2      1559      1786      1787      3373
 -1      6945    3    0    1
 -2       697      1316       699      2790
 -1      6946    3    0    1
 -2       427      3429      1908      3729
 -1      6947    3    0    1
 -2      2570      2759      2912      3554
 -1      6948    3    0    1
 -2      1484      1483      3082      3367
 -1      6949    3    0    1
 -2      1595       329      3527      2949
 -1      6950    3    0    1
 -2      1495      2676      1661      3177
 -1      6951    3    0    1
 -2      2395       119      2549      3733
 -1      6952    3    0    1
 -2      2678      2744      2789      3559
 -1      6953    3    0    1
 -2      1505      1506      2953      3015
 -1      6954    3    0    1
 -2      1480      1479      1655      2938
 -1      6955    3    0    1
 -2      1646      1683      3048      3090
 -1      6956    3    0    1
 -2      2755      3155      3156      3683
 -1      6957    3    0    1
 -2      1724      2601      3596      3291
 -1      6958    3    0    1
 -2      1644      1588      1645      3033
 -1      6959    3    0    1
 -2      3561      2691      3644      3341
 -1      6960    3    0    1
 -2      3550      2632      2986      3016
 -1      6961    3    0    1
 -2      2658      3535      3099      3307
 -1      6962    3    0    1
 -2      1475      2742      2950      3213
 -1      6963    3    0    1
 -2      3277      2951      3622      3659
 -1      6964    3    0    1
 -2      3096      2863      3345      3393
 -1      6965    3    0    1
 -2        68      1633      2841      3385
 -1      6966    3    0    1
 -2      1491      1492      1632      2777
 -1      6967    3    0    1
 -2      3531      1066      3585      3635
 -1      6968    3    0    1
 -2      2902      3516      3553      3633
 -1      6969    3    0    1
 -2      1794       128      1795      1797
 -1      6970    3    0    1
 -2      2633      2786      3082      3145
 -1      6971    3    0    1
 -2       170      2420      2673      3542
 -1      6972    3    0    1
 -2      1581      3045      3109      3622
 -1      6973    3    0    1
 -2      1797       424      3404      3703
 -1      6974    3    0    1
 -2      3638      3512      3376      3464
 -1      6975    3    0    1
 -2      2484      2570      3538      3554
 -1      6976    3    0    1
 -2      1451      1450      3261      1866
 -1      6977    3    0    1
 -2      2872      3550      3034      3676
 -1      6978    3    0    1
 -2       655       662      1522      3279
 -1      6979    3    0    1
 -2      3004      2834      3556      3581
 -1      6980    3    0    1
 -2      3094       572      3690      3369
 -1      6981    3    0    1
 -2      2894      1479      2938      3584
 -1      6982    3    0    1
 -2      2171       327      3518      3542
 -1      6983    3    0    1
 -2      1472      1471      1647      3175
 -1      6984    3    0    1
 -2      1461      1462      1710      3275
 -1      6985    3    0    1
 -2      2488      2733      3530      3597
 -1      6986    3    0    1
 -2      1721       253      1802      1868
 -1      6987    3    0    1
 -2      2420       991      2586      3542
 -1      6988    3    0    1
 -2      1298       128      3590      3631
 -1      6989    3    0    1
 -2      1624      2903      1592      3301
 -1      6990    3    0    1
 -2      2836      1214      2964      3008
 -1      6991    3    0    1
 -2      2471      2873      3682      3727
 -1      6992    3    0    1
 -2      2741      2573      3580      3616
 -1      6993    3    0    1
 -2      1583      2934      1811      1845
 -1      6994    3    0    1
 -2      1774       727      1775      3092
 -1      6995    3    0    1
 -2      1579      1461      1580      2864
 -1      6996    3    0    1
 -2      1613      1612      2809      1839
 -1      6997    3    0    1
 -2      2530      3053      3675      3728
 -1      6998    3    0    1
 -2      3556      2825      3596      3358
 -1      6999    3    0    1
 -2      1461      1462      1580      2864
 -1      7000    3    0    1
 -2      1764      3300      3321      3403
 -1      7001    3    0    1
 -2      1731      1574      3064      3336
 -1      7002    3    0    1
 -2      3115      3113      1846      3673
 -1      7003    3    0    1
 -2      1760      1542       196       182
 -1      7004    3    0    1
 -2      2839       196      1542      1541
 -1      7005    3    0    1
 -2      1719      3052      1802      3281
 -1      7006    3    0    1
 -2      3106      2815      3161      3603
 -1      7007    3    0    1
 -2       193       318      3693      3699
 -1      7008    3    0    1
 -2       637      1519      1520      2703
 -1      7009    3    0    1
 -2      1520      1519      2650      2703
 -1      7010    3    0    1
 -2       981      2687      2761      3521
 -1      7011    3    0    1
 -2      1453      1454      1665      2802
 -1      7012    3    0    1
 -2      2211      2360      2509      3658
 -1      7013    3    0    1
 -2      1741      2979      3066      3646
 -1      7014    3    0    1
 -2      1635      2946      3050      3658
 -1      7015    3    0    1
 -2      3510      3624      3657      3453
 -1      7016    3    0    1
 -2      1482      1481      2616      3047
 -1      7017    3    0    1
 -2      3073      1769      1848      3644
 -1      7018    3    0    1
 -2      3135      2741      3580      3616
 -1      7019    3    0    1
 -2      2677      3190      3675      3459
 -1      7020    3    0    1
 -2      3530      2813      3597      3315
 -1      7021    3    0    1
 -2      2640       519      2723      2814
 -1      7022    3    0    1
 -2      3128      3088      3654      3655
 -1      7023    3    0    1
 -2      1493      1716      3283      3352
 -1      7024    3    0    1
 -2      3590      2290      3627      3631
 -1      7025    3    0    1
 -2      3508      1432      3528      3548
 -1      7026    3    0    1
 -2      1600      1487      1601      2965
 -1      7027    3    0    1
 -2        45      1546      1547      1670
 -1      7028    3    0    1
 -2       158       631       389      1904
 -1      7029    3    0    1
 -2      1574      1575      3015      3193
 -1      7030    3    0    1
 -2      2872      1162      2888      3034
 -1      7031    3    0    1
 -2      1742      1741      2970      2979
 -1      7032    3    0    1
 -2      1473      3144      1696      1697
 -1      7033    3    0    1
 -2      1555      1556      2720      1697
 -1      7034    3    0    1
 -2      1588      1589      1645      3033
 -1      7035    3    0    1
 -2        68      1699      3381      3481
 -1      7036    3    0    1
 -2       170      2673      3518      3542
 -1      7037    3    0    1
 -2       990      3168      3169      3640
 -1      7038    3    0    1
 -2      2641      1473      3144      1696
 -1      7039    3    0    1
 -2      3080      2821      3193      3278
 -1      7040    3    0    1
 -2      1453      1664      3097      3660
 -1      7041    3    0    1
 -2      3080      2836      3581      3278
 -1      7042    3    0    1
 -2      1583      1811      1812      3360
 -1      7043    3    0    1
 -2        25        24      1626      3072
 -1      7044    3    0    1
 -2      1499      1648      3156      3683
 -1      7045    3    0    1
 -2      1477      1478      2984      3230
 -1      7046    3    0    1
 -2      1584      1583      2995      1812
 -1      7047    3    0    1
 -2       727       732      1786      3233
 -1      7048    3    0    1
 -2      2458      3504      2740      3667
 -1      7049    3    0    1
 -2      1588      1589      3033      3055
 -1      7050    3    0    1
 -2      1785      1452      3300      3320
 -1      7051    3    0    1
 -2      1507      2535      1623      1624
 -1      7052    3    0    1
 -2      2629      2797      3533      2989
 -1      7053    3    0    1
 -2      2953      2614      3039      3278
 -1      7054    3    0    1
 -2      1440      1441      2848      3400
 -1      7055    3    0    1
 -2      3113      3183      1846      3673
 -1      7056    3    0    1
 -2      2500      2469      2514      3514
 -1      7057    3    0    1
 -2      2469      2091      2514      3514
 -1      7058    3    0    1
 -2      2721      1643      3043      3282
 -1      7059    3    0    1
 -2      3520      2483      2461      3541
 -1      7060    3    0    1
 -2      2573      2475      2755      3683
 -1      7061    3    0    1
 -2      1648      1519      3156      3683
 -1      7062    3    0    1
 -2      3551      3618      3717      3479
 -1      7063    3    0    1
 -2       807      2688      1335       806
 -1      7064    3    0    1
 -2      1335      2712       807      1059
 -1      7065    3    0    1
 -2      3306      3284      3638      3376
 -1      7066    3    0    1
 -2      1465      1503      1504      2822
 -1      7067    3    0    1
 -2      1214       504       505      2712
 -1      7068    3    0    1
 -2       505       504       925      2712
 -1      7069    3    0    1
 -2       504      1214       924      2712
 -1      7070    3    0    1
 -2      1597      3323      1891      1892
 -1      7071    3    0    1
 -2       925       504      1213      2712
 -1      7072    3    0    1
 -2      2688      2712      1335       504
 -1      7073    3    0    1
 -2       504      1335      1213      2712
 -1      7074    3    0    1
 -2      2928        81      1743      1744
 -1      7075    3    0    1
 -2      2427      2494      3512      3572
 -1      7076    3    0    1
 -2      2494      1294      3512      3572
 -1      7077    3    0    1
 -2      2490      2554      2567      3625
 -1      7078    3    0    1
 -2      1871      3138      1872      3354
 -1      7079    3    0    1
 -2       553       449      1550      2885
 -1      7080    3    0    1
 -2      2485      2188      3693      3410
 -1      7081    3    0    1
 -2      2648      2531      2713      3672
 -1      7082    3    0    1
 -2      2533      3028      3607      3386
 -1      7083    3    0    1
 -2      2710      2505      3516      3593
 -1      7084    3    0    1
 -2      1308       990      3169      3613
 -1      7085    3    0    1
 -2      2505      2529      3584      3593
 -1      7086    3    0    1
 -2      2958      3623      3322      3655
 -1      7087    3    0    1
 -2      3231      1528      3397      3727
 -1      7088    3    0    1
 -2      3624      1862      3720      3457
 -1      7089    3    0    1
 -2      2497      2551      2719      3592
 -1      7090    3    0    1
 -2      2803      3573      3145      3252
 -1      7091    3    0    1
 -2      3191      1809      1846      1847
 -1      7092    3    0    1
 -2      1322      1024      2116      3587
 -1      7093    3    0    1
 -2       768      1629      3197      3626
 -1      7094    3    0    1
 -2      1495      1496      1538      3294
 -1      7095    3    0    1
 -2      1599      1821      3642      3449
 -1      7096    3    0    1
 -2      1650      2923      3573      3574
 -1      7097    3    0    1
 -2       430      3044      1501      1502
 -1      7098    3    0    1
 -2      1709      1489      3075      3132
 -1      7099    3    0    1
 -2      3160      1638      3595      1834
 -1      7100    3    0    1
 -2      2985      1463      1776      1777
 -1      7101    3    0    1
 -2      2519      1610      2714      3363
 -1      7102    3    0    1
 -2      3047      1481      1778      1779
 -1      7103    3    0    1
 -2      2915      2791      3555      3403
 -1      7104    3    0    1
 -2      1680      1682      3159      3161
 -1      7105    3    0    1
 -2      1015       715      1319      3515
 -1      7106    3    0    1
 -2      1612      1613      3032      1839
 -1      7107    3    0    1
 -2      1461      1462      2864      3028
 -1      7108    3    0    1
 -2      2795      1731      1732      3064
 -1      7109    3    0    1
 -2       583      3076      1838      1839
 -1      7110    3    0    1
 -2       804       799      3011      1771
 -1      7111    3    0    1
 -2      1423      2621      3161      3204
 -1      7112    3    0    1
 -2      1764        80      3391      3394
 -1      7113    3    0    1
 -2      1316      1992      2190      3599
 -1      7114    3    0    1
 -2       717       715      2274      3515
 -1      7115    3    0    1
 -2       715       717      1319      3515
 -1      7116    3    0    1
 -2      1545      3477      3724      3730
 -1      7117    3    0    1
 -2      3187       698      3240      3445
 -1      7118    3    0    1
 -2       786      2944      1755      3324
 -1      7119    3    0    1
 -2      1559      1560      3117      3218
 -1      7120    3    0    1
 -2      3034      1419      3676      3409
 -1      7121    3    0    1
 -2       267      1335      2769      3529
 -1      7122    3    0    1
 -2      2694      2905      3313      3649
 -1      7123    3    0    1
 -2      1755      1756      1768      3370
 -1      7124    3    0    1
 -2      2826      2921      3553      3081
 -1      7125    3    0    1
 -2       637       644      2987      3010
 -1      7126    3    0    1
 -2      2661      2615      2785      3577
 -1      7127    3    0    1
 -2      1752       180      3651      3472
 -1      7128    3    0    1
 -2       383       941      3614      3642
 -1      7129    3    0    1
 -2      1471      1472      3137      3175
 -1      7130    3    0    1
 -2      2263      1038      2406      3582
 -1      7131    3    0    1
 -2       166       328      3518      3542
 -1      7132    3    0    1
 -2      1555      1556      1697      3144
 -1      7133    3    0    1
 -2      2586      2585      3542      3224
 -1      7134    3    0    1
 -2       750      2870      1706      3100
 -1      7135    3    0    1
 -2      3009      3150      3591      3705
 -1      7136    3    0    1
 -2      1667      1676      3560      3415
 -1      7137    3    0    1
 -2      2451      2284      2508      2781
 -1      7138    3    0    1
 -2      3005      1447      3013      3650
 -1      7139    3    0    1
 -2      3237      3357      3664      3454
 -1      7140    3    0    1
 -2       101       422      1652      2881
 -1      7141    3    0    1
 -2       745       750      3200      3309
 -1      7142    3    0    1
 -2      1601      1600      3299      1854
 -1      7143    3    0    1
 -2      3573      2617      3252      3259
 -1      7144    3    0    1
 -2      3496      3522      3557      3602
 -1      7145    3    0    1
 -2       553       449      2885      3033
 -1      7146    3    0    1
 -2      2667      3577      3146      3372
 -1      7147    3    0    1
 -2      1659      1660      2963      2984
 -1      7148    3    0    1
 -2      1659      1477      1660      2984
 -1      7149    3    0    1
 -2      1646      1471      1647      3136
 -1      7150    3    0    1
 -2      1058      1336      2688      2825
 -1      7151    3    0    1
 -2      1992      1006      3201      3704
 -1      7152    3    0    1
 -2      1305       395      1543      3630
 -1      7153    3    0    1
 -2      2486      1427      2548      3366
 -1      7154    3    0    1
 -2      3606      2709      3256      3660
 -1      7155    3    0    1
 -2       518       519      2640      2814
 -1      7156    3    0    1
 -2      1469      1625      1626      2800
 -1      7157    3    0    1
 -2      2900      1654      3584      3380
 -1      7158    3    0    1
 -2      2501      1587      2927      2928
 -1      7159    3    0    1
 -2      1831      2915      3320      3403
 -1      7160    3    0    1
 -2      2563      2749      3661      3697
 -1      7161    3    0    1
 -2      3533      2629      2989      3571
 -1      7162    3    0    1
 -2       981      3663      3678      3684
 -1      7163    3    0    1
 -2      1590      1434      3539      3578
 -1      7164    3    0    1
 -2      3533      2647      3626      3632
 -1      7165    3    0    1
 -2      3284      2993      3638      3376
 -1      7166    3    0    1
 -2      1594      1593      3010      3133
 -1      7167    3    0    1
 -2      2990       964      3702      3620
 -1      7168    3    0    1
 -2       519       932      2723      2814
 -1      7169    3    0    1
 -2      2609      3598      3287      3343
 -1      7170    3    0    1
 -2      1066       822      2332      2760
 -1      7171    3    0    1
 -2      1661      2913      1496      1662
 -1      7172    3    0    1
 -2      2570      2484      3538      3623
 -1      7173    3    0    1
 -2      1340      2532      3516      2771
 -1      7174    3    0    1
 -2      3083      3324      3645      3697
 -1      7175    3    0    1
 -2      1450      1451      3242      1866
 -1      7176    3    0    1
 -2      3218      3117      3315      3741
 -1      7177    3    0    1
 -2       990      2562      2663      2735
 -1      7178    3    0    1
 -2       990      1308      2562      2735
 -1      7179    3    0    1
 -2      2517      3549      3659      3673
 -1      7180    3    0    1
 -2      1152      2636      2711      1686
 -1      7181    3    0    1
 -2      2739       662      1789      3128
 -1      7182    3    0    1
 -2      3533      2647      3632      3636
 -1      7183    3    0    1
 -2      1436      2721      1643      3043
 -1      7184    3    0    1
 -2      1425      1511      3146      3372
 -1      7185    3    0    1
 -2      1302      3589      3617      3629
 -1      7186    3    0    1
 -2      2729       608      3006      3214
 -1      7187    3    0    1
 -2      2643      1240      2791      2915
 -1      7188    3    0    1
 -2      3505      2509      3506      3658
 -1      7189    3    0    1
 -2      2958      3613      3623      3647
 -1      7190    3    0    1
 -2      1414      1413      3228      3280
 -1      7191    3    0    1
 -2      1487      1600      3081      3466
 -1      7192    3    0    1
 -2       990      2735      2877      3538
 -1      7193    3    0    1
 -2      3256      3606      3660      3445
 -1      7194    3    0    1
 -2      1493      2758      3592      3352
 -1      7195    3    0    1
 -2      2758      2719      3592      3283
 -1      7196    3    0    1
 -2      1509      1427      2561      3366
 -1      7197    3    0    1
 -2      3005      2614      3013      3110
 -1      7198    3    0    1
 -2      2700      2484      2878      3655
 -1      7199    3    0    1
 -2      1308      3501      3565      3718
 -1      7200    3    0    1
 -2      3064      1574      3179      3336
 -1      7201    3    0    1
 -2      2946      3003      3050      3658
 -1      7202    3    0    1
 -2      1653      3526      3575      3189
 -1      7203    3    0    1
 -2      3012      1650      3573      3574
 -1      7204    3    0    1
 -2      3136      1471      3180      3304
 -1      7205    3    0    1
 -2      3541      3266      3271      3402
 -1      7206    3    0    1
 -2      3261      1865      3550      3364
 -1      7207    3    0    1
 -2      2587      2523      3577      3235
 -1      7208    3    0    1
 -2      1708      1653      3585      3189
 -1      7209    3    0    1
 -2      2862      2864      3607      3386
 -1      7210    3    0    1
 -2       128      3566      3631      3703
 -1      7211    3    0    1
 -2      1664       316      3599      3234
 -1      7212    3    0    1
 -2      2505      2710      3516      3584
 -1      7213    3    0    1
 -2      1513      1676      1677      2812
 -1      7214    3    0    1
 -2      2795      1731      3064      3336
 -1      7215    3    0    1
 -2      1588      2652      1644      1645
 -1      7216    3    0    1
 -2      2652      1588      1589      1645
 -1      7217    3    0    1
 -2      1700      2992      1794      3590
 -1      7218    3    0    1
 -2      3589      1302      3617      3627
 -1      7219    3    0    1
 -2      1633      1663      2841      2948
 -1      7220    3    0    1
 -2      3243      3549      3311      3674
 -1      7221    3    0    1
 -2      3553      2694      3633      3649
 -1      7222    3    0    1
 -2      1547      1546      2620      3151
 -1      7223    3    0    1
 -2      2936      1481      3119      3244
 -1      7224    3    0    1
 -2       553       449      1644      2743
 -1      7225    3    0    1
 -2      3617      3541      3619      3271
 -1      7226    3    0    1
 -2      1214       924      2964      3008
 -1      7227    3    0    1
 -2       449       553      1550      2743
 -1      7228    3    0    1
 -2      1612      1613      1679      3032
 -1      7229    3    0    1
 -2      2886      2680      3027      3561
 -1      7230    3    0    1
 -2      1568      1567      3053      1795
 -1      7231    3    0    1
 -2      1644       449      1645      2743
 -1      7232    3    0    1
 -2      2652      1644      1645      2743
 -1      7233    3    0    1
 -2      1550      2572      1551      2743
 -1      7234    3    0    1
 -2       449      1550      1551      2743
 -1      7235    3    0    1
 -2      1668      1667      1712      3214
 -1      7236    3    0    1
 -2       770       771      2629      3527
 -1      7237    3    0    1
 -2        26      1813      3382      3465
 -1      7238    3    0    1
 -2      2471      2501      3024      3558
 -1      7239    3    0    1
 -2      3088      1780      3322      3655
 -1      7240    3    0    1
 -2      2588      1664      2802      3287
 -1      7241    3    0    1
 -2      2649      2775      2948      3274
 -1      7242    3    0    1
 -2      1043      2384      2513      3582
 -1      7243    3    0    1
 -2      2972      2898      3027      3561
 -1      7244    3    0    1
 -2      3136      3090      3204      3217
 -1      7245    3    0    1
 -2       429       171      1877      1888
 -1      7246    3    0    1
 -2      1606      2917      1780      3655
 -1      7247    3    0    1
 -2       775       243       772      1881
 -1      7248    3    0    1
 -2      3595      3049      3662      3721
 -1      7249    3    0    1
 -2      2917      1606      1780      1781
 -1      7250    3    0    1
 -2      1508      1507      2535      2788
 -1      7251    3    0    1
 -2      1626      1625      2838      3072
 -1      7252    3    0    1
 -2      2919      2427      3140      3680
 -1      7253    3    0    1
 -2      2623      3517      2830      2890
 -1      7254    3    0    1
 -2       822       823      2526      3516
 -1      7255    3    0    1
 -2       823       822      1066      3516
 -1      7256    3    0    1
 -2      2737      2882      3571      3669
 -1      7257    3    0    1
 -2      3516      2900      3584      3633
 -1      7258    3    0    1
 -2      1507      1585      1586      2788
 -1      7259    3    0    1
 -2      1636      1736      1737      3111
 -1      7260    3    0    1
 -2      2466      2228      3526      3176
 -1      7261    3    0    1
 -2      3520      2290      3590      3631
 -1      7262    3    0    1
 -2      2683      3535      3036      3607
 -1      7263    3    0    1
 -2      3108      2569      3625      3413
 -1      7264    3    0    1
 -2       823      1340      2532      3516
 -1      7265    3    0    1
 -2      2747      1473      1696      1697
 -1      7266    3    0    1
 -2      3094      2968      3369      3690
 -1      7267    3    0    1
 -2      2997      2989      3571      3669
 -1      7268    3    0    1
 -2      1637      1636      1737      3111
 -1      7269    3    0    1
 -2      1066       822      2526      3516
 -1      7270    3    0    1
 -2      2624      2847      3555      3216
 -1      7271    3    0    1
 -2      1467      1741      2979      3066
 -1      7272    3    0    1
 -2      2576      2618      2652      3517
 -1      7273    3    0    1
 -2      2576      2606      2618      3517
 -1      7274    3    0    1
 -2      2459      2127      3544      3569
 -1      7275    3    0    1
 -2      2652      2618      2674      3517
 -1      7276    3    0    1
 -2      1425      1426      1460      3065
 -1      7277    3    0    1
 -2      2478      3511      3545      3586
 -1      7278    3    0    1
 -2      2402      2127      2459      3569
 -1      7279    3    0    1
 -2      2091      2778      2807      3658
 -1      7280    3    0    1
 -2      2529      1585      2788      2971
 -1      7281    3    0    1
 -2        22       111      1603      2897
 -1      7282    3    0    1
 -2      3162      1539      3166      3286
 -1      7283    3    0    1
 -2      1519      2755      3156      3683
 -1      7284    3    0    1
 -2      1542      1541      1841      3332
 -1      7285    3    0    1
 -2      2614      2953      3039      3110
 -1      7286    3    0    1
 -2      2945      1467      2979      3066
 -1      7287    3    0    1
 -2      2564      2295      2673      3518
 -1      7288    3    0    1
 -2      2291      2295      2564      3518
 -1      7289    3    0    1
 -2      2171      2564      2673      3518
 -1      7290    3    0    1
 -2      3313      3208      3325      3649
 -1      7291    3    0    1
 -2       391       140      3619      1884
 -1      7292    3    0    1
 -2      1551      1550      2885      3288
 -1      7293    3    0    1
 -2      3625      3112      3413      3437
 -1      7294    3    0    1
 -2      1756      1755      1768      3302
 -1      7295    3    0    1
 -2      2666      1654      2938      3111
 -1      7296    3    0    1
 -2      3666      3567      3668      3724
 -1      7297    3    0    1
 -2      2897      2862      3074      3335
 -1      7298    3    0    1
 -2      2242       964      2464      3627
 -1      7299    3    0    1
 -2      2927      2501      2960      2998
 -1      7300    3    0    1
 -2       590      3037      1838      3334
 -1      7301    3    0    1
 -2       768      3237      3626      1871
 -1      7302    3    0    1
 -2      3066      2695      1588      3692
 -1      7303    3    0    1
 -2      2927      1537      2928      1743
 -1      7304    3    0    1
 -2      2796      1465      2818      2833
 -1      7305    3    0    1
 -2      1635      3524      3599      3686
 -1      7306    3    0    1
 -2        81      2927      2928      1743
 -1      7307    3    0    1
 -2      1485      1813      1814      3325
 -1      7308    3    0    1
 -2      1015      1322      2274      2798
 -1      7309    3    0    1
 -2      2282      2528      2544      3519
 -1      7310    3    0    1
 -2      1631      2702      2855      3408
 -1      7311    3    0    1
 -2      2192      2528      2539      3519
 -1      7312    3    0    1
 -2      2768      2708      3521      3155
 -1      7313    3    0    1
 -2      3597      2646      3333      3677
 -1      7314    3    0    1
 -2      1572      1680      3159      3161
 -1      7315    3    0    1
 -2      1466      1465      2796      2833
 -1      7316    3    0    1
 -2      3142      2091      3701      3719
 -1      7317    3    0    1
 -2       495       494      2629      2762
 -1      7318    3    0    1
 -2      1680      1572      3106      3161
 -1      7319    3    0    1
 -2      1640      1641      1758      3077
 -1      7320    3    0    1
 -2       330       376      3543      3582
 -1      7321    3    0    1
 -2      1450      1451      1679      3223
 -1      7322    3    0    1
 -2      1767      1443      1768      3302
 -1      7323    3    0    1
 -2      2297      2087      2520      3178
 -1      7324    3    0    1
 -2      1676      2738      1677      2994
 -1      7325    3    0    1
 -2      2638      2484      3538      3554
 -1      7326    3    0    1
 -2       140       391      1834      1884
 -1      7327    3    0    1
 -2      1581      3322      3655      1874
 -1      7328    3    0    1
 -2       956       128      3578      1794
 -1      7329    3    0    1
 -2      1667      1668      1677      3415
 -1      7330    3    0    1
 -2      3546      2503      3563      3565
 -1      7331    3    0    1
 -2      3520      1700      3590      1416
 -1      7332    3    0    1
 -2      1501      2522      3641      3366
 -1      7333    3    0    1
 -2      3609       182      3225      3691
 -1      7334    3    0    1
 -2      1340       823      2332      3522
 -1      7335    3    0    1
 -2      1648      1499      1649      2759
 -1      7336    3    0    1
 -2      2650      1648      1649      2759
 -1      7337    3    0    1
 -2      2540      2761      3521      2967
 -1      7338    3    0    1
 -2       474       571      2574      2909
 -1      7339    3    0    1
 -2      3004       804      3299      3390
 -1      7340    3    0    1
 -2      3074      2627      3576      3607
 -1      7341    3    0    1
 -2      2490      2567      3603      3625
 -1      7342    3    0    1
 -2      1479      1480      1615      2894
 -1      7343    3    0    1
 -2       169        81      2928      1744
 -1      7344    3    0    1
 -2      2538      3113      3115      3673
 -1      7345    3    0    1
 -2       229      1565      1566      2835
 -1      7346    3    0    1
 -2      2355       822      2454      2760
 -1      7347    3    0    1
 -2       822      1931      2454      2760
 -1      7348    3    0    1
 -2       555      1285      1931      2760
 -1      7349    3    0    1
 -2       822       555      1931      2760
 -1      7350    3    0    1
 -2       822      1066      1285      2760
 -1      7351    3    0    1
 -2       555       822      1285      2760
 -1      7352    3    0    1
 -2       336      2578      2454      2304
 -1      7353    3    0    1
 -2      2532      2696      3516      2771
 -1      7354    3    0    1
 -2      1789      2899      3622      3298
 -1      7355    3    0    1
 -2      1477      1659      1660      3150
 -1      7356    3    0    1
 -2      3526      3642      3680      3449
 -1      7357    3    0    1
 -2      1555      2720      2850      3706
 -1      7358    3    0    1
 -2       735      1322      2116      2798
 -1      7359    3    0    1
 -2      1015      2462      3515      2798
 -1      7360    3    0    1
 -2      3013      1738      3014      3039
 -1      7361    3    0    1
 -2       318       193      3693      1914
 -1      7362    3    0    1
 -2      1499      1500      2759      2912
 -1      7363    3    0    1
 -2        24      1625      1626      3072
 -1      7364    3    0    1
 -2      1533      1534      3062      3158
 -1      7365    3    0    1
 -2      2911      3017      1871      1872
 -1      7366    3    0    1
 -2      2927      2501      2998      3558
 -1      7367    3    0    1
 -2      2801      1526      3348      1924
 -1      7368    3    0    1
 -2      3018      2627      3576      3351
 -1      7369    3    0    1
 -2      1750       180      1751      1801
 -1      7370    3    0    1
 -2      1829       626      3616      3312
 -1      7371    3    0    1
 -2      1829      3126      1830      3312
 -1      7372    3    0    1
 -2      1497      1672      3547      3601
 -1      7373    3    0    1
 -2      3201      3515      3203      3704
 -1      7374    3    0    1
 -2      1487      1546      2672      2794
 -1      7375    3    0    1
 -2       608       601      3210      3290
 -1      7376    3    0    1
 -2      2936      1481      1778      3119
 -1      7377    3    0    1
 -2      2467      2466      2493      3680
 -1      7378    3    0    1
 -2      1721      3551      3656      3479
 -1      7379    3    0    1
 -2      1791      1625      3043      3282
 -1      7380    3    0    1
 -2      1413      1455      3228      3677
 -1      7381    3    0    1
 -2      3233      3194      3333      3677
 -1      7382    3    0    1
 -2      1832      3273      1843      1844
 -1      7383    3    0    1
 -2      3504      2480      2856      3095
 -1      7384    3    0    1
 -2      2643      2540      2687      3521
 -1      7385    3    0    1
 -2       637       644      1593      2962
 -1      7386    3    0    1
 -2       662      1522      3279      3672
 -1      7387    3    0    1
 -2      1413      1455      1456      3228
 -1      7388    3    0    1
 -2      3495      2473      3525      3605
 -1      7389    3    0    1
 -2       424       128      1827      3703
 -1      7390    3    0    1
 -2      1600      1601      2921      1854
 -1      7391    3    0    1
 -2      1574      1505      1575      3331
 -1      7392    3    0    1
 -2      3638      3566      3404      3703
 -1      7393    3    0    1
 -2      1499      1500      2768      3156
 -1      7394    3    0    1
 -2      2475      2511      2708      3521
 -1      7395    3    0    1
 -2      1040      3510      3527      3624
 -1      7396    3    0    1
 -2       171       981      3678      3684
 -1      7397    3    0    1
 -2       181        13      1647      1911
 -1      7398    3    0    1
 -2       571      1289       573      3646
 -1      7399    3    0    1
 -2      3077      1757      3637      3375
 -1      7400    3    0    1
 -2      3516      2505      3584      3593
 -1      7401    3    0    1
 -2       590      3037      3334      3375
 -1      7402    3    0    1
 -2      1456      1455      1775      3228
 -1      7403    3    0    1
 -2      1489      2691      1709      3275
 -1      7404    3    0    1
 -2       387      1784      3326      3728
 -1      7405    3    0    1
 -2      1223      2488      2803      2880
 -1      7406    3    0    1
 -2      2471      2531      2648      3672
 -1      7407    3    0    1
 -2      1240      1241      2540      2791
 -1      7408    3    0    1
 -2      2323      2121      2427      2993
 -1      7409    3    0    1
 -2       253      1802      1803      1837
 -1      7410    3    0    1
 -2      1616      3364      3424      3455
 -1      7411    3    0    1
 -2      2844       101      1615      1708
 -1      7412    3    0    1
 -2      1435      3526      3189      3270
 -1      7413    3    0    1
 -2      1064      1069      2444      3707
 -1      7414    3    0    1
 -2       965      1161      1163      2773
 -1      7415    3    0    1
 -2      1454      1453      1665      3097
 -1      7416    3    0    1
 -2       965      1297       607      2773
 -1      7417    3    0    1
 -2      3106      3086      3603      3625
 -1      7418    3    0    1
 -2      1546        50      1564      2794
 -1      7419    3    0    1
 -2       965      1163      1297      2773
 -1      7420    3    0    1
 -2      1618      1448      2934      2995
 -1      7421    3    0    1
 -2       468       469      1161      2773
 -1      7422    3    0    1
 -2       196      2839      1542      1760
 -1      7423    3    0    1
 -2      1161       469      1163      2773
 -1      7424    3    0    1
 -2      2832      3527      3571      3664
 -1      7425    3    0    1
 -2       469      1297      1163      2773
 -1      7426    3    0    1
 -2      1297       469       607      2773
 -1      7427    3    0    1
 -2      2213       643      1305       646
 -1      7428    3    0    1
 -2      1312       410      3640      3647
 -1      7429    3    0    1
 -2      1465      1466      3101      3229
 -1      7430    3    0    1
 -2      3621       572      3349      3405
 -1      7431    3    0    1
 -2      2801      1483      3059      3120
 -1      7432    3    0    1
 -2      3136      3090      2621      3204
 -1      7433    3    0    1
 -2      1858      1857      3373      3400
 -1      7434    3    0    1
 -2      2501      2998      3558      3177
 -1      7435    3    0    1
 -2      2211      2473      3509      2808
 -1      7436    3    0    1
 -2      2622      2488      2813      3530
 -1      7437    3    0    1
 -2      2297      2091      2509      2778
 -1      7438    3    0    1
 -2      2803      2880      3573      3252
 -1      7439    3    0    1
 -2      2429      2271      3511      3067
 -1      7440    3    0    1
 -2      3613      1308      3623      3718
 -1      7441    3    0    1
 -2      2412       334      2457      3744
 -1      7442    3    0    1
 -2      3181      3113      1846      1847
 -1      7443    3    0    1
 -2      3629       395      1886      3450
 -1      7444    3    0    1
 -2      1700       128      3566      3590
 -1      7445    3    0    1
 -2      2782      2727      1782      1783
 -1      7446    3    0    1
 -2      2290      3253      3627      3631
 -1      7447    3    0    1
 -2      2733      3574      3379      3396
 -1      7448    3    0    1
 -2      3030      2812      3260      3365
 -1      7449    3    0    1
 -2      1571      2534      1681      2819
 -1      7450    3    0    1
 -2      1572       195      1681      2819
 -1      7451    3    0    1
 -2      1459      2596      1569      3235
 -1      7452    3    0    1
 -2      2671      3012      3573      3574
 -1      7453    3    0    1
 -2      2263      2406      2513      3582
 -1      7454    3    0    1
 -2      1302       972      2250      3629
 -1      7455    3    0    1
 -2      2347      3510      3586      3657
 -1      7456    3    0    1
 -2      2617      2786      3573      3145
 -1      7457    3    0    1
 -2      2926      2501      2927      3558
 -1      7458    3    0    1
 -2      3656      3551      3717      3479
 -1      7459    3    0    1
 -2       822      1066      2332      3522
 -1      7460    3    0    1
 -2       823       822      2332      3522
 -1      7461    3    0    1
 -2       822       823      1066      3522
 -1      7462    3    0    1
 -2      3516      1340      2771      3522
 -1      7463    3    0    1
 -2      3620      2906      2872      2888
 -1      7464    3    0    1
 -2      2683      3036      3576      3607
 -1      7465    3    0    1
 -2      2854      2898      1735      2972
 -1      7466    3    0    1
 -2      1422      2529      1628      3522
 -1      7467    3    0    1
 -2      1809      3181      3183      1846
 -1      7468    3    0    1
 -2      1340       277      1585      3522
 -1      7469    3    0    1
 -2      2663      1257      2562      1251
 -1      7470    3    0    1
 -2      1340      1585      2771      3522
 -1      7471    3    0    1
 -2      2127      1032      3544      3594
 -1      7472    3    0    1
 -2      1669      2849      3243      1856
 -1      7473    3    0    1
 -2      2654      1614      2881      2894
 -1      7474    3    0    1
 -2      3008      2964      3581      3650
 -1      7475    3    0    1
 -2       918       493      2678      2789
 -1      7476    3    0    1
 -2      1050       918      2678      2789
 -1      7477    3    0    1
 -2      1560      1559      1787      3373
 -1      7478    3    0    1
 -2       347       346      3519      3588
 -1      7479    3    0    1
 -2      2461      2817      3541      3427
 -1      7480    3    0    1
 -2      2467      2100      2679      3021
 -1      7481    3    0    1
 -2      1541       196      3428      3448
 -1      7482    3    0    1
 -2      2484      2664      2878      3655
 -1      7483    3    0    1
 -2      1625      1469      2838      3027
 -1      7484    3    0    1
 -2      1550       553      2885      2983
 -1      7485    3    0    1
 -2      1316      2185      3506      3686
 -1      7486    3    0    1
 -2      1711      1667      3560      3214
 -1      7487    3    0    1
 -2       900       457      1144      2790
 -1      7488    3    0    1
 -2      1443      2895      1767      1768
 -1      7489    3    0    1
 -2      1006       697      2568      2790
 -1      7490    3    0    1
 -2      1657      1499      3019      3554
 -1      7491    3    0    1
 -2       745      1688      1689      2922
 -1      7492    3    0    1
 -2      2815       900      1680      3161
 -1      7493    3    0    1
 -2      3557      3653      1895      3489
 -1      7494    3    0    1
 -2      2100      2679      3023      3717
 -1      7495    3    0    1
 -2      2862      2627      3074      3607
 -1      7496    3    0    1
 -2      3196        68      3381      3481
 -1      7497    3    0    1
 -2      1462      1461      1580      3268
 -1      7498    3    0    1
 -2      1497      1561      2724      3523
 -1      7499    3    0    1
 -2      1015       715      2597      3523
 -1      7500    3    0    1
 -2       319      1015      1501      3523
 -1      7501    3    0    1
 -2       277      1058      3596      3602
 -1      7502    3    0    1
 -2       717      1319      2615      3523
 -1      7503    3    0    1
 -2      1160      2906      3034      1867
 -1      7504    3    0    1
 -2      2774      3463      3739      3743
 -1      7505    3    0    1
 -2      2495      1025      3421      3709
 -1      7506    3    0    1
 -2      1687      1447      2858      3215
 -1      7507    3    0    1
 -2      1531      1532      1825      3384
 -1      7508    3    0    1
 -2      1427      1428      1502      2843
 -1      7509    3    0    1
 -2      1692      1871      3401      3705
 -1      7510    3    0    1
 -2      2271      1336      3067      3602
 -1      7511    3    0    1
 -2      1709      1461      3644      3341
 -1      7512    3    0    1
 -2      1605      1604      1751      3001
 -1      7513    3    0    1
 -2      2558      2487      3504      2806
 -1      7514    3    0    1
 -2      2684      2493      3528      3680
 -1      7515    3    0    1
 -2      1522      1523      1662      2857
 -1      7516    3    0    1
 -2      2487      2480      3504      2806
 -1      7517    3    0    1
 -2      1549      2612      2794      3151
 -1      7518    3    0    1
 -2      1681      2534      2818      2819
 -1      7519    3    0    1
 -2      2817      3563      3314      3714
 -1      7520    3    0    1
 -2      3323      1873      1891      1892
 -1      7521    3    0    1
 -2      2518      1541      3428      3448
 -1      7522    3    0    1
 -2      2917      1581      1780      3655
 -1      7523    3    0    1
 -2      1667      1668      2851      2994
 -1      7524    3    0    1
 -2      2762       495      3265      2797
 -1      7525    3    0    1
 -2       205       316      3532      3547
 -1      7526    3    0    1
 -2      2479      2691      3561      3621
 -1      7527    3    0    1
 -2      3194      3597      3333      3677
 -1      7528    3    0    1
 -2      2914      3538      3019      3554
 -1      7529    3    0    1
 -2      1517      1469      1518      2871
 -1      7530    3    0    1
 -2      1251      2829      2926      2998
 -1      7531    3    0    1
 -2      3178      2402      3715      3739
 -1      7532    3    0    1
 -2      1494      1493      3041      3124
 -1      7533    3    0    1
 -2      3551      1409      3596      3602
 -1      7534    3    0    1
 -2      2989      3100      3632      3669
 -1      7535    3    0    1
 -2      1580      1579      2874      3268
 -1      7536    3    0    1
 -2      1493      1494      1717      3124
 -1      7537    3    0    1
 -2      3530      2733      3574      3597
 -1      7538    3    0    1
 -2      2729      3199      3612      3337
 -1      7539    3    0    1
 -2      3634      1409      3476      3742
 -1      7540    3    0    1
 -2      1757      3076      3579      3307
 -1      7541    3    0    1
 -2      1443      1719      3281      3285
 -1      7542    3    0    1
 -2      2087      2100      3192      3657
 -1      7543    3    0    1
 -2      2803      2635      3573      3597
 -1      7544    3    0    1
 -2       636       978      2243      3392
 -1      7545    3    0    1
 -2      3061      2551      3116      3592
 -1      7546    3    0    1
 -2      2551      2649      3116      3592
 -1      7547    3    0    1
 -2      3108      3112      1896      3413
 -1      7548    3    0    1
 -2       422       101      1615      2881
 -1      7549    3    0    1
 -2      2607      2547      2658      3535
 -1      7550    3    0    1
 -2      1530      1432      3548      3368
 -1      7551    3    0    1
 -2      1225      2622      2635      2803
 -1      7552    3    0    1
 -2      2992      1794      1795      1797
 -1      7553    3    0    1
 -2      2992      1700      1794      1797
 -1      7554    3    0    1
 -2      1066       101      3585      3635
 -1      7555    3    0    1
 -2      1748      1432      3615      3646
 -1      7556    3    0    1
 -2      3531      3575      3583      3585
 -1      7557    3    0    1
 -2      1722      1688      1723      3213
 -1      7558    3    0    1
 -2      2661      2876      3577      3235
 -1      7559    3    0    1
 -2       572      1610      3269      3349
 -1      7560    3    0    1
 -2      3621      3007      3341      3349
 -1      7561    3    0    1
 -2      3575      3526      3585      3189
 -1      7562    3    0    1
 -2      3048      3090      3136      3217
 -1      7563    3    0    1
 -2      3100      2870      3632      3669
 -1      7564    3    0    1
 -2      3090      1671      3204      3217
 -1      7565    3    0    1
 -2      3269      3007      3621      3349
 -1      7566    3    0    1
 -2      2986      3550      3016      3261
 -1      7567    3    0    1
 -2      2488      2706      2813      3530
 -1      7568    3    0    1
 -2        21        67      1534      3084
 -1      7569    3    0    1
 -2      3509      2473      2798      2808
 -1      7570    3    0    1
 -2      2895      3317      3645      3370
 -1      7571    3    0    1
 -2      2820      3106      3159      3161
 -1      7572    3    0    1
 -2       619      1829      1830      3312
 -1      7573    3    0    1
 -2      2874      1769      1770      1817
 -1      7574    3    0    1
 -2      2727      2783      1782      1783
 -1      7575    3    0    1
 -2      2855      1675      1773      3408
 -1      7576    3    0    1
 -2      3528      1432      3572      3680
 -1      7577    3    0    1
 -2      2783       673      1782      1783
 -1      7578    3    0    1
 -2      3178      2520      3605      3739
 -1      7579    3    0    1
 -2      1586      1585      2907      3291
 -1      7580    3    0    1
 -2      3521       981      3227      2761
 -1      7581    3    0    1
 -2      1491      1629      1630      3318
 -1      7582    3    0    1
 -2      1058      2332      3067      3602
 -1      7583    3    0    1
 -2      1493      1716      1717      3283
 -1      7584    3    0    1
 -2       644      2987      3010      3682
 -1      7585    3    0    1
 -2      3206      3002      3652      3685
 -1      7586    3    0    1
 -2      2790      2568      3598      3603
 -1      7587    3    0    1
 -2      2815      3086      3598      3603
 -1      7588    3    0    1
 -2      1496      1495      2892      3294
 -1      7589    3    0    1
 -2       395      3564      3570      3629
 -1      7590    3    0    1
 -2      1513      1514      1676      2812
 -1      7591    3    0    1
 -2       415       199      3732      1922
 -1      7592    3    0    1
 -2      1613      1612      1679      3223
 -1      7593    3    0    1
 -2      3681      3414      3715      3743
 -1      7594    3    0    1
 -2      1519      2914      3019      3554
 -1      7595    3    0    1
 -2      1304       327      3542      3224
 -1      7596    3    0    1
 -2      3569      1420      3604      3739
 -1      7597    3    0    1
 -2      1609       196      3534      3691
 -1      7598    3    0    1
 -2      2692      2632      2879      3676
 -1      7599    3    0    1
 -2      2934      2766      2995      3665
 -1      7600    3    0    1
 -2      1440      2848      3688      3400
 -1      7601    3    0    1
 -2      3075      2519      3607      3363
 -1      7602    3    0    1
 -2      3422      1578      1901      3474
 -1      7603    3    0    1
 -2      3578      1294      3675      3728
 -1      7604    3    0    1
 -2      1032      1326      2488      2813
 -1      7605    3    0    1
 -2      2694      2526      3516      2902
 -1      7606    3    0    1
 -2      1614      1066      3584      3635
 -1      7607    3    0    1
 -2      1469      1470      2838      2887
 -1      7608    3    0    1
 -2       662       655      2837      3297
 -1      7609    3    0    1
 -2      1559      3218      1857      1858
 -1      7610    3    0    1
 -2      2891      3555      3300      3320
 -1      7611    3    0    1
 -2      3527      2629      3533      3571
 -1      7612    3    0    1
 -2      3125      3124      3612      3676
 -1      7613    3    0    1
 -2      1032      2488      2706      2813
 -1      7614    3    0    1
 -2      1458      1457      2699      3012
 -1      7615    3    0    1
 -2      3225      2807      3609      3701
 -1      7616    3    0    1
 -2      2649      2775      2841      2948
 -1      7617    3    0    1
 -2      2705       243      3543      3582
 -1      7618    3    0    1
 -2      3182      2686      3185      3598
 -1      7619    3    0    1
 -2        24      1625      1691      3043
 -1      7620    3    0    1
 -2      1528      1527      3231      3397
 -1      7621    3    0    1
 -2      2829      3558      3177      3672
 -1      7622    3    0    1
 -2      1554      1553      1651      2867
 -1      7623    3    0    1
 -2      1495      1496      2676      2960
 -1      7624    3    0    1
 -2      2636      2711      1686      3549
 -1      7625    3    0    1
 -2      1543       153      1544      2999
 -1      7626    3    0    1
 -2      1691      1170      2976      3371
 -1      7627    3    0    1
 -2      2799      2651      3309      3396
 -1      7628    3    0    1
 -2      2907      3556      3596      3358
 -1      7629    3    0    1
 -2      1769      2897      1842      3335
 -1      7630    3    0    1
 -2       415       193      2188      3410
 -1      7631    3    0    1
 -2        50        45      1546      3254
 -1      7632    3    0    1
 -2      1483      1924      1930      3494
 -1      7633    3    0    1
 -2       770      2331      3316      3700
 -1      7634    3    0    1
 -2      2702      1631      2855      2859
 -1      7635    3    0    1
 -2      2924      3009      3591      3705
 -1      7636    3    0    1
 -2      3586      3643      3648      3700
 -1      7637    3    0    1
 -2      2651      3530      3213      3396
 -1      7638    3    0    1
 -2       554      1531      2625      3633
 -1      7639    3    0    1
 -2      1789       655      1790      3128
 -1      7640    3    0    1
 -2      2611      2777      3559      3211
 -1      7641    3    0    1
 -2      2919      2427      2993      3140
 -1      7642    3    0    1
 -2      2900      3516      2902      3633
 -1      7643    3    0    1
 -2       428      1576      3605      3713
 -1      7644    3    0    1
 -2      3075      1709      3132      3607
 -1      7645    3    0    1
 -2      3549      3137      3236      3462
 -1      7646    3    0    1
 -2      1507      1508      1624      3301
 -1      7647    3    0    1
 -2      2988      1706      3100      3632
 -1      7648    3    0    1
 -2      2086       961      2506      3536
 -1      7649    3    0    1
 -2       727      1774      1775      3130
 -1      7650    3    0    1
 -2      2506      2293      2745      3536
 -1      7651    3    0    1
 -2      2901      2660      3621      3692
 -1      7652    3    0    1
 -2      3021      2466      3176      3232
 -1      7653    3    0    1
 -2      1610      2519      2714      3075
 -1      7654    3    0    1
 -2      1464      1463      2985      1777
 -1      7655    3    0    1
 -2      1024      1326      2116      3525
 -1      7656    3    0    1
 -2      2116      1326      3495      3525
 -1      7657    3    0    1
 -2      2402      3495      2473      3525
 -1      7658    3    0    1
 -2      2402      2116      3495      3525
 -1      7659    3    0    1
 -2       642       166       650      1799
 -1      7660    3    0    1
 -2      1455      1413      3207      3667
 -1      7661    3    0    1
 -2      3317      2944      3324      3370
 -1      7662    3    0    1
 -2      2578       336      3537      3695
 -1      7663    3    0    1
 -2       667       663       993      1798
 -1      7664    3    0    1
 -2      2925      2668      2977      3149
 -1      7665    3    0    1
 -2      3551      3545      3608      3717
 -1      7666    3    0    1
 -2      2116      2473      2798      3525
 -1      7667    3    0    1
 -2      2116      2402      2473      3525
 -1      7668    3    0    1
 -2      1072       944      2449      3695
 -1      7669    3    0    1
 -2        68      3196      1634      1820
 -1      7670    3    0    1
 -2       253      1721      3596      3656
 -1      7671    3    0    1
 -2      1336       253      3596      3656
 -1      7672    3    0    1
 -2      1413      1414      1456      3207
 -1      7673    3    0    1
 -2       119       381      3438      3733
 -1      7674    3    0    1
 -2      3132      3535      3188      3607
 -1      7675    3    0    1
 -2      1459      1425      3065      3235
 -1      7676    3    0    1
 -2      2271      2478      3511      3545
 -1      7677    3    0    1
 -2       423       277      3653      1895
 -1      7678    3    0    1
 -2      1587        81      2927      2928
 -1      7679    3    0    1
 -2      1509       716      2685      2876
 -1      7680    3    0    1
 -2       319      1561      2724      1715
 -1      7681    3    0    1
 -2      1533        21      1727      3060
 -1      7682    3    0    1
 -2      2867      1553      3574      3262
 -1      7683    3    0    1
 -2      2511      1543      2616      2999
 -1      7684    3    0    1
 -2      3074      3036      3576      3351
 -1      7685    3    0    1
 -2       169        81      1587      2928
 -1      7686    3    0    1
 -2      3653       423      1895      3489
 -1      7687    3    0    1
 -2      1654      1479      2784      3184
 -1      7688    3    0    1
 -2       655       662      2739      3128
 -1      7689    3    0    1
 -2      1445      1851      1852      3469
 -1      7690    3    0    1
 -2      2619      2600      3517      2977
 -1      7691    3    0    1
 -2      3617       391      3619      3627
 -1      7692    3    0    1
 -2      2744      1333      2789      3020
 -1      7693    3    0    1
 -2       316      1635      1685      3532
 -1      7694    3    0    1
 -2      1615      1614      2844      2947
 -1      7695    3    0    1
 -2      1585       277      1586      2971
 -1      7696    3    0    1
 -2      1610      1489      1611      3007
 -1      7697    3    0    1
 -2      2364      2594      2595      3529
 -1      7698    3    0    1
 -2      2993      3140      3638      3376
 -1      7699    3    0    1
 -2      3126      1829      3616      3312
 -1      7700    3    0    1
 -2       422       101      1652      3600
 -1      7701    3    0    1
 -2       807      1335      2093       806
 -1      7702    3    0    1
 -2      2493      2228      2525      3526
 -1      7703    3    0    1
 -2       278       335      2769      3529
 -1      7704    3    0    1
 -2      2467      2228      2493      3526
 -1      7705    3    0    1
 -2      1032      2127      2236      3594
 -1      7706    3    0    1
 -2      1067       279      2769      3529
 -1      7707    3    0    1
 -2       554      1736      3149      3241
 -1      7708    3    0    1
 -2      1426      1425      1460      3417
 -1      7709    3    0    1
 -2      1336      2271      3511      3602
 -1      7710    3    0    1
 -2       316       205      3123      1793
 -1      7711    3    0    1
 -2      1640      2985      3077      3637
 -1      7712    3    0    1
 -2      3516      2696      3553      3296
 -1      7713    3    0    1
 -2      1600      2921      1853      1854
 -1      7714    3    0    1
 -2      3005      3013      3014      3110
 -1      7715    3    0    1
 -2      2737      3571      3632      3669
 -1      7716    3    0    1
 -2      1782      2538      1783      3115
 -1      7717    3    0    1
 -2       170       328      3518      1798
 -1      7718    3    0    1
 -2      2945      2695      3055      3066
 -1      7719    3    0    1
 -2      3512      2427      3140      3638
 -1      7720    3    0    1
 -2      2632      2692      3550      3676
 -1      7721    3    0    1
 -2      1686      2636      3549      3243
 -1      7722    3    0    1
 -2      1468      1467      2945      3055
 -1      7723    3    0    1
 -2      1924        57      1930      3494
 -1      7724    3    0    1
 -2       771       770      1330      3527
 -1      7725    3    0    1
 -2       770      2629      2832      3527
 -1      7726    3    0    1
 -2      2185      2469      2500      3534
 -1      7727    3    0    1
 -2      1466      1465      1573      3229
 -1      7728    3    0    1
 -2      2998      2829      3558      3177
 -1      7729    3    0    1
 -2      2953      1505      3015      3278
 -1      7730    3    0    1
 -2      1531      2996      1824      1825
 -1      7731    3    0    1
 -2      1427      2486      2561      3366
 -1      7732    3    0    1
 -2      2500      2469      3514      3534
 -1      7733    3    0    1
 -2      2995      1583      1811      1812
 -1      7734    3    0    1
 -2      2914      3558      3654      3682
 -1      7735    3    0    1
 -2      3546      3565      1305      3500
 -1      7736    3    0    1
 -2       395       153      1886      3450
 -1      7737    3    0    1
 -2      1040       770      2832      3527
 -1      7738    3    0    1
 -2      1595      1442      2748      3527
 -1      7739    3    0    1
 -2      3556      2804      3301      3358
 -1      7740    3    0    1
 -2      3508       383      3642      1289
 -1      7741    3    0    1
 -2       771      1330      2629      3527
 -1      7742    3    0    1
 -2       277      1585      3596      3358
 -1      7743    3    0    1
 -2      3275      1709      3644      3341
 -1      7744    3    0    1
 -2       990      1308      3538      3613
 -1      7745    3    0    1
 -2      2558      1695      3467      3493
 -1      7746    3    0    1
 -2      2525      2281      2684      3528
 -1      7747    3    0    1
 -2      2493      2525      2684      3528
 -1      7748    3    0    1
 -2      2585      2171      2586      3542
 -1      7749    3    0    1
 -2      1625      1691      3043      3371
 -1      7750    3    0    1
 -2      3514      1429      3534      3562
 -1      7751    3    0    1
 -2      2754      2598      2942      3664
 -1      7752    3    0    1
 -2      1485      1486      1814      3327
 -1      7753    3    0    1
 -2      2839      1541      3332      3345
 -1      7754    3    0    1
 -2      1630      1629      2961      2966
 -1      7755    3    0    1
 -2      1479      1614      1615      2947
 -1      7756    3    0    1
 -2      1559      3117      1786      3333
 -1      7757    3    0    1
 -2      2518      1417      2588      3599
 -1      7758    3    0    1
 -2      1308      3538      3613      3623
 -1      7759    3    0    1
 -2      3566      3520      3590      3631
 -1      7760    3    0    1
 -2      2696      2532      3516      3553
 -1      7761    3    0    1
 -2      2501      2960      2998      3177
 -1      7762    3    0    1
 -2      1483      3367      1924      3494
 -1      7763    3    0    1
 -2      2498      2499      2651      3530
 -1      7764    3    0    1
 -2      2714      2519      3363      3690
 -1      7765    3    0    1
 -2        57      2801      1674      1924
 -1      7766    3    0    1
 -2      2651      2499      2742      3530
 -1      7767    3    0    1
 -2      3499      3520      3539      3631
 -1      7768    3    0    1
 -2      2498      2651      2799      3530
 -1      7769    3    0    1
 -2      2706      2488      2733      3530
 -1      7770    3    0    1
 -2      2960      1495      2998      3177
 -1      7771    3    0    1
 -2       941      3508      3614      3642
 -1      7772    3    0    1
 -2      2737      3533      3626      3632
 -1      7773    3    0    1
 -2      2641      1696      3144      3359
 -1      7774    3    0    1
 -2      2913      1661      3177      3672
 -1      7775    3    0    1
 -2      2676      2501      3558      3177
 -1      7776    3    0    1
 -2      1487      2620      2826      3081
 -1      7777    3    0    1
 -2      2467      2466      3021      3232
 -1      7778    3    0    1
 -2      1024       229      1326      3694
 -1      7779    3    0    1
 -2      1326       229      3594      3694
 -1      7780    3    0    1
 -2      1495      1496      2892      3293
 -1      7781    3    0    1
 -2      2969      2978      3560      3620
 -1      7782    3    0    1
 -2      1027       219      2307      1902
 -1      7783    3    0    1
 -2       607       610      2773      3620
 -1      7784    3    0    1
 -2      1463      1567      1568      3098
 -1      7785    3    0    1
 -2      1483      2801      3348      1924
 -1      7786    3    0    1
 -2      1553      1706      1707      2988
 -1      7787    3    0    1
 -2      1518      1517      1551      3288
 -1      7788    3    0    1
 -2       624       632       978      1889
 -1      7789    3    0    1
 -2      1759      1816      3252      3259
 -1      7790    3    0    1
 -2      3541      3589      3617      3619
 -1      7791    3    0    1
 -2       428      3605      3694      3713
 -1      7792    3    0    1
 -2      3240      3292      1896      1897
 -1      7793    3    0    1
 -2      2875      1257      3558      3451
 -1      7794    3    0    1
 -2      3054      3623      3356      1887
 -1      7795    3    0    1
 -2       964      1302      2464      3627
 -1      7796    3    0    1
 -2      2525      2228      2760      3531
 -1      7797    3    0    1
 -2      1931      2525      2760      3531
 -1      7798    3    0    1
 -2      1931      2281      2525      3531
 -1      7799    3    0    1
 -2      2874      1769      3073      3644
 -1      7800    3    0    1
 -2       590       583      3076      1838
 -1      7801    3    0    1
 -2      3530      2813      3315      3741
 -1      7802    3    0    1
 -2      2427      2121      2919      2993
 -1      7803    3    0    1
 -2      1674      2801      3120      1924
 -1      7804    3    0    1
 -2      3555      2641      3580      3144
 -1      7805    3    0    1
 -2      3038      1443      1767      3302
 -1      7806    3    0    1
 -2       941       383      1289      3642
 -1      7807    3    0    1
 -2      1473      2641      3144      2847
 -1      7808    3    0    1
 -2      1736      2939      1737      3149
 -1      7809    3    0    1
 -2      1432      3508      3572      3615
 -1      7810    3    0    1
 -2      1494      1493      2758      3158
 -1      7811    3    0    1
 -2      2514      3142      3342      3719
 -1      7812    3    0    1
 -2      2852      1834      1835      1836
 -1      7813    3    0    1
 -2      1465      3101      3106      3229
 -1      7814    3    0    1
 -2      2775      2649      2841      3385
 -1      7815    3    0    1
 -2      1628       277      3522      2971
 -1      7816    3    0    1
 -2      3499      2290      3520      3631
 -1      7817    3    0    1
 -2      2315      2589      3711      3737
 -1      7818    3    0    1
 -2      1240      2772      1699      2915
 -1      7819    3    0    1
 -2      3577      2831      3146      3372
 -1      7820    3    0    1
 -2      3237      3533      3258      3626
 -1      7821    3    0    1
 -2      3571      3533      3237      3626
 -1      7822    3    0    1
 -2      3045      1581      3206      3622
 -1      7823    3    0    1
 -2      3121      2829      3177      3672
 -1      7824    3    0    1
 -2      1786      3117      3233      3333
 -1      7825    3    0    1
 -2      3538      2877      3613      3623
 -1      7826    3    0    1
 -2      1416      3541      3068      3271
 -1      7827    3    0    1
 -2      3222      3122      3610      3263
 -1      7828    3    0    1
 -2      2460      2671      3573      3574
 -1      7829    3    0    1
 -2      1556      1555      3134      3144
 -1      7830    3    0    1
 -2      1696      1555      1697      3144
 -1      7831    3    0    1
 -2      2779      2490      3603      3679
 -1      7832    3    0    1
 -2      1474      1473      2847      3216
 -1      7833    3    0    1
 -2      3500       972      3546      3570
 -1      7834    3    0    1
 -2      2707      2909      3646      3692
 -1      7835    3    0    1
 -2      1305      1543      2687      3630
 -1      7836    3    0    1
 -2      2617      2786      3252      3259
 -1      7837    3    0    1
 -2      3102      2860      3581      3650
 -1      7838    3    0    1
 -2       391       140      1836      3617
 -1      7839    3    0    1
 -2      2751      2924      3150      3591
 -1      7840    3    0    1
 -2      3292      2669      3660      3426
 -1      7841    3    0    1
 -2         1        26      1813      3382
 -1      7842    3    0    1
 -2       786      3122      3222      3263
 -1      7843    3    0    1
 -2      3079      3080      3581      3263
 -1      7844    3    0    1
 -2       425       241      2963      1862
 -1      7845    3    0    1
 -2      1503      1535      2956      3187
 -1      7846    3    0    1
 -2      1333      2744      3591      3020
 -1      7847    3    0    1
 -2      1433      1603      2862      3074
 -1      7848    3    0    1
 -2       673      1782      1783      3115
 -1      7849    3    0    1
 -2      2851      1711      3163      3290
 -1      7850    3    0    1
 -2       421       387      1784      3326
 -1      7851    3    0    1
 -2        20      1616      1617      3424
 -1      7852    3    0    1
 -2      1679      1678      3032      3261
 -1      7853    3    0    1
 -2      3042      3056      3567      3668
 -1      7854    3    0    1
 -2        57       225      1913      1925
 -1      7855    3    0    1
 -2      1066       101      1285      3585
 -1      7856    3    0    1
 -2      3575      3526      3583      3585
 -1      7857    3    0    1
 -2      1479      1614      2947      3184
 -1      7858    3    0    1
 -2      3506      2091      2807      3658
 -1      7859    3    0    1
 -2         1        26      1826      3350
 -1      7860    3    0    1
 -2      3569      3544      3681      3729
 -1      7861    3    0    1
 -2      1294      2139      3512      3578
 -1      7862    3    0    1
 -2      1294       956      2139      3578
 -1      7863    3    0    1
 -2      3117      1559      1786      1787
 -1      7864    3    0    1
 -2      3558      1880      3391      3451
 -1      7865    3    0    1
 -2      3581      3222      3610      3263
 -1      7866    3    0    1
 -2      1411      1576      3587      3713
 -1      7867    3    0    1
 -2      3172      3556      3596      3610
 -1      7868    3    0    1
 -2      1489      1490      1611      3007
 -1      7869    3    0    1
 -2        13      3090      3217      1911
 -1      7870    3    0    1
 -2      2990       964      3620      1298
 -1      7871    3    0    1
 -2      1035      3734      1926      1927
 -1      7872    3    0    1
 -2      1567      2992      1794      1795
 -1      7873    3    0    1
 -2      1640      1641      2985      1777
 -1      7874    3    0    1
 -2      1656       391      1836      3617
 -1      7875    3    0    1
 -2      3550      2872      3620      3676
 -1      7876    3    0    1
 -2      3066      2707      3646      3692
 -1      7877    3    0    1
 -2      2909      2574      3561      3692
 -1      7878    3    0    1
 -2      1757      1640      3637      3334
 -1      7879    3    0    1
 -2      1453      1454      1843      3426
 -1      7880    3    0    1
 -2      2680      2854      2972      3561
 -1      7881    3    0    1
 -2       253       426      1803      1868
 -1      7882    3    0    1
 -2      1528      1593      3133      3727
 -1      7883    3    0    1
 -2      2674      1467      3517      3238
 -1      7884    3    0    1
 -2      2903      1624      1592      1591
 -1      7885    3    0    1
 -2      2866      3541      3266      3271
 -1      7886    3    0    1
 -2      1620      1621      2810      1830
 -1      7887    3    0    1
 -2      2680      1437      2972      3073
 -1      7888    3    0    1
 -2      3346      1483      1930      3494
 -1      7889    3    0    1
 -2      2573      2559      3580      3671
 -1      7890    3    0    1
 -2      3456      3557      3489      3742
 -1      7891    3    0    1
 -2      1624      2903      3556      3272
 -1      7892    3    0    1
 -2      2731      1627      2905      3313
 -1      7893    3    0    1
 -2      1700      3520      3590      3566
 -1      7894    3    0    1
 -2       386       144      3552      3070
 -1      7895    3    0    1
 -2       144       965      3552      3070
 -1      7896    3    0    1
 -2      2825      1336      3172      3596
 -1      7897    3    0    1
 -2       139       386      3552      3070
 -1      7898    3    0    1
 -2      1541      1840      1841      3332
 -1      7899    3    0    1
 -2       972      3500      3564      3570
 -1      7900    3    0    1
 -2      3500      3546      3563      3714
 -1      7901    3    0    1
 -2      3138       768      3626      1871
 -1      7902    3    0    1
 -2      1467      1468      2945      2979
 -1      7903    3    0    1
 -2      2895      1443      1767      3645
 -1      7904    3    0    1
 -2      3509      3042      3567      3668
 -1      7905    3    0    1
 -2      2872      1162      3034      1861
 -1      7906    3    0    1
 -2      1471      1646      3175      3236
 -1      7907    3    0    1
 -2      3137      3549      3673      3462
 -1      7908    3    0    1
 -2      2816      1602      3605      3458
 -1      7909    3    0    1
 -2      2468      2456      3501      3565
 -1      7910    3    0    1
 -2      3589      3617      3619      3627
 -1      7911    3    0    1
 -2       263        40      1873      1892
 -1      7912    3    0    1
 -2      1007      1311      3431      3485
 -1      7913    3    0    1
 -2      3011      2930      3593      3296
 -1      7914    3    0    1
 -2      1702      2854      3073      3276
 -1      7915    3    0    1
 -2      2877      3613      3623      3322
 -1      7916    3    0    1
 -2        22       111      2897      1770
 -1      7917    3    0    1
 -2      1640      1757      3579      3307
 -1      7918    3    0    1
 -2      1606      1607      2917      3128
 -1      7919    3    0    1
 -2      1625        24      1626      1791
 -1      7920    3    0    1
 -2      2902      2694      3046      3633
 -1      7921    3    0    1
 -2      1776      1640      1777      3377
 -1      7922    3    0    1
 -2        22      2897      1769      1770
 -1      7923    3    0    1
 -2      2735      2663      2877      3538
 -1      7924    3    0    1
 -2       990      1308      2735      3538
 -1      7925    3    0    1
 -2      2740      3248      3347      3667
 -1      7926    3    0    1
 -2      3094      3087      1818      1819
 -1      7927    3    0    1
 -2      1538      1537      2849      1744
 -1      7928    3    0    1
 -2      1701      2855      2859      3265
 -1      7929    3    0    1
 -2      2849      1537      1743      1744
 -1      7930    3    0    1
 -2      1492      1491      2750      2961
 -1      7931    3    0    1
 -2      1537      2928      1743      1744
 -1      7932    3    0    1
 -2      2677      2530      3675      3728
 -1      7933    3    0    1
 -2      2587      2575      2685      2876
 -1      7934    3    0    1
 -2      2669      2510      3606      3660
 -1      7935    3    0    1
 -2      2783       680      1846      3387
 -1      7936    3    0    1
 -2      2700      2878      2917      3655
 -1      7937    3    0    1
 -2      1692      3009      1863      1864
 -1      7938    3    0    1
 -2      1554      1553      1707      2988
 -1      7939    3    0    1
 -2      1523      1522      1662      2913
 -1      7940    3    0    1
 -2      2676      1661      1496      1495
 -1      7941    3    0    1
 -2      2951      3107      3277      3622
 -1      7942    3    0    1
 -2      1559      1560      1858      3373
 -1      7943    3    0    1
 -2      1475      1734      2973      3247
 -1      7944    3    0    1
 -2      1511      2667      3422      3474
 -1      7945    3    0    1
 -2      3037      3620      3550      3334
 -1      7946    3    0    1
 -2       133       139      3536      3552
 -1      7947    3    0    1
 -2       153       395      1543      3450
 -1      7948    3    0    1
 -2      1543      1544      2616      2999
 -1      7949    3    0    1
 -2      1585      1507      1586      2907
 -1      7950    3    0    1
 -2      1611      1610      3007      3269
 -1      7951    3    0    1
 -2       144       965      2450      3552
 -1      7952    3    0    1
 -2      2450       965      2579      3552
 -1      7953    3    0    1
 -2      1796      3629      1886      3450
 -1      7954    3    0    1
 -2      1833      1832      1843      3292
 -1      7955    3    0    1
 -2      1625      1626      2800      3282
 -1      7956    3    0    1
 -2      1600      1487      2965      3102
 -1      7957    3    0    1
 -2      3558      2676      3177      3672
 -1      7958    3    0    1
 -2       662       655      2713      3279
 -1      7959    3    0    1
 -2       644       637      1593      3010
 -1      7960    3    0    1
 -2      2670      2984      3230      3664
 -1      7961    3    0    1
 -2      1603        22      2897      1842
 -1      7962    3    0    1
 -2      2719      1716      3085      3352
 -1      7963    3    0    1
 -2      3051      1477      3454      2942
 -1      7964    3    0    1
 -2      1456      1455      3207      3347
 -1      7965    3    0    1
 -2      1506      1505      1575      3015
 -1      7966    3    0    1
 -2      2928      2927      2960      2998
 -1      7967    3    0    1
 -2       229       428      3694      3713
 -1      7968    3    0    1
 -2       241      3527      1729      3624
 -1      7969    3    0    1
 -2      1766      2880      3252      3319
 -1      7970    3    0    1
 -2      2606      2784      3184      3722
 -1      7971    3    0    1
 -2      3253      3590      3627      3631
 -1      7972    3    0    1
 -2      1667      1668      1712      3290
 -1      7973    3    0    1
 -2      1305      2456      3500      3565
 -1      7974    3    0    1
 -2      2573      2755      2757      3683
 -1      7975    3    0    1
 -2      1490      1489      1710      3275
 -1      7976    3    0    1
 -2      3367      1483      1924      1925
 -1      7977    3    0    1
 -2      2872      3550      3091      3295
 -1      7978    3    0    1
 -2      1602       428      3605      3694
 -1      7979    3    0    1
 -2      1517      1518      2887      3288
 -1      7980    3    0    1
 -2      1012       708      2188      3693
 -1      7981    3    0    1
 -2      1450      1678      3576      3223
 -1      7982    3    0    1
 -2      2680      1437      1619      2972
 -1      7983    3    0    1
 -2      3108      2569      3598      3625
 -1      7984    3    0    1
 -2      2456      2136      3501      3565
 -1      7985    3    0    1
 -2      2829      1251      2926      3558
 -1      7986    3    0    1
 -2      2501      2926      3024      3558
 -1      7987    3    0    1
 -2      2622      2635      2803      3597
 -1      7988    3    0    1
 -2      2601      1585      3596      3291
 -1      7989    3    0    1
 -2      2228      2760      3531      3583
 -1      7990    3    0    1
 -2       750      1706      3574      3379
 -1      7991    3    0    1
 -2      2323      2461      2866      3068
 -1      7992    3    0    1
 -2      1698      1197      3559      3211
 -1      7993    3    0    1
 -2      1453      2609      3287      3343
 -1      7994    3    0    1
 -2      1716      1493      1717      3124
 -1      7995    3    0    1
 -2      2888      1162       469      1160
 -1      7996    3    0    1
 -2       469      2773      1162      2888
 -1      7997    3    0    1
 -2      1162      2773      2872      2888
 -1      7998    3    0    1
 -2      1495      1661      3293      3308
 -1      7999    3    0    1
 -2      2213       981      1305       643
 -1      8000    3    0    1
 -2      3591      2751      3209      3395
 -1      8001    3    0    1
 -2      2733      2706      3530      3396
 -1      8002    3    0    1
 -2      2665      2637      3549      3673
 -1      8003    3    0    1
 -2      1664       205      1665      3123
 -1      8004    3    0    1
 -2      3613      1410      3647      3718
 -1      8005    3    0    1
 -2      3535      2683      3099      3576
 -1      8006    3    0    1
 -2      1499      1657      1658      2912
 -1      8007    3    0    1
 -2      2562      2663      2735      3654
 -1      8008    3    0    1
 -2      2885      1550      2983      2991
 -1      8009    3    0    1
 -2      1567      1463      2910      3026
 -1      8010    3    0    1
 -2       227       751      1038      1882
 -1      8011    3    0    1
 -2      1676      1667      3560      3365
 -1      8012    3    0    1
 -2       949      2494      3508      3572
 -1      8013    3    0    1
 -2      2825      2712      3556      3172
 -1      8014    3    0    1
 -2      2838      1469      2887      3027
 -1      8015    3    0    1
 -2      1540      1539      3087      1819
 -1      8016    3    0    1
 -2      1553      1650      2867      3574
 -1      8017    3    0    1
 -2      1606      1789      1790      3128
 -1      8018    3    0    1
 -2       205      1664      1665      3234
 -1      8019    3    0    1
 -2      1667      2851      1711      3163
 -1      8020    3    0    1
 -2      2643      2715      3555      3580
 -1      8021    3    0    1
 -2      1527      1528      1593      3133
 -1      8022    3    0    1
 -2      2658      2547      2683      3535
 -1      8023    3    0    1
 -2      1469      1517      2887      3027
 -1      8024    3    0    1
 -2      1535       691      1536      3240
 -1      8025    3    0    1
 -2      1824      1531      1825      3384
 -1      8026    3    0    1
 -2      3498      3500      3564      3629
 -1      8027    3    0    1
 -2      2641      3135      3580      3144
 -1      8028    3    0    1
 -2      3013      3008      3039      3650
 -1      8029    3    0    1
 -2      3134      1555      3135      3144
 -1      8030    3    0    1
 -2      2598      2670      3230      3664
 -1      8031    3    0    1
 -2       227      1038      2263      3582
 -1      8032    3    0    1
 -2      1716      2719      3085      3283
 -1      8033    3    0    1
 -2       662       655      1789      3128
 -1      8034    3    0    1
 -2      1606      3088      1789      3128
 -1      8035    3    0    1
 -2      1553      1554      1707      3262
 -1      8036    3    0    1
 -2      1433      2627      3018      3351
 -1      8037    3    0    1
 -2      2526      1066      3516      3584
 -1      8038    3    0    1
 -2      1735      1625      2972      3027
 -1      8039    3    0    1
 -2      3508      2684      3528      3572
 -1      8040    3    0    1
 -2       241      1729      2963      1862
 -1      8041    3    0    1
 -2       277      1585      1586      3291
 -1      8042    3    0    1
 -2      2091      2469      3506      3701
 -1      8043    3    0    1
 -2      2736      1593      2962      3103
 -1      8044    3    0    1
 -2      3580      2715      3174      3616
 -1      8045    3    0    1
 -2       804       799      3004      3299
 -1      8046    3    0    1
 -2      1417      3505      2807      3658
 -1      8047    3    0    1
 -2      1694      2958      1750      1752
 -1      8048    3    0    1
 -2      1658      1657      2768      3153
 -1      8049    3    0    1
 -2      3252      1811      1860      3319
 -1      8050    3    0    1
 -2      1659       241      1660      3209
 -1      8051    3    0    1
 -2       588       596       961      1804
 -1      8052    3    0    1
 -2      1834       140      1835      1836
 -1      8053    3    0    1
 -2      1757      2770      1758      3377
 -1      8054    3    0    1
 -2      3642      3548      3680      3449
 -1      8055    3    0    1
 -2      2889      2476      3553      3633
 -1      8056    3    0    1
 -2      1739      3005      3013      3014
 -1      8057    3    0    1
 -2      3036      3074      3576      3607
 -1      8058    3    0    1
 -2      1741      1467      1742      3238
 -1      8059    3    0    1
 -2      3633      2710      3584      3516
 -1      8060    3    0    1
 -2      3516      2710      3553      3633
 -1      8061    3    0    1
 -2      3196      1633      3216      3381
 -1      8062    3    0    1
 -2       975       158      2537      1904
 -1      8063    3    0    1
 -2      3327      1813      3712      3465
 -1      8064    3    0    1
 -2      3558      1257      1880      3451
 -1      8065    3    0    1
 -2       383       112      1821      3246
 -1      8066    3    0    1
 -2      1490      1489      1611      3075
 -1      8067    3    0    1
 -2      1652      3583      3600      3635
 -1      8068    3    0    1
 -2      2953      1597      3039      3110
 -1      8069    3    0    1
 -2      1731      1574      1732      3064
 -1      8070    3    0    1
 -2       277      3602      3634      3653
 -1      8071    3    0    1
 -2      3545      3511      3551      3608
 -1      8072    3    0    1
 -2      3521      1657      3227      3716
 -1      8073    3    0    1
 -2      1640      2985      1776      1777
 -1      8074    3    0    1
 -2      2694      1204      1627      2905
 -1      8075    3    0    1
 -2      1206       499      2672      2905
 -1      8076    3    0    1
 -2       498      1204      2694      2905
 -1      8077    3    0    1
 -2      1564      1206      2672      2905
 -1      8078    3    0    1
 -2      1746      1539      3166      3289
 -1      8079    3    0    1
 -2      2762      2832      3533      3237
 -1      8080    3    0    1
 -2      1293       133      2392      3552
 -1      8081    3    0    1
 -2      2629      2997      3571      3247
 -1      8082    3    0    1
 -2      3585       101      3600      3635
 -1      8083    3    0    1
 -2      1468      1467      1742      2979
 -1      8084    3    0    1
 -2      2780      1503      3101      3625
 -1      8085    3    0    1
 -2       277      1628      3522      3557
 -1      8086    3    0    1
 -2      1489      1610      3075      3363
 -1      8087    3    0    1
 -2      2514      2468      3501      3698
 -1      8088    3    0    1
 -2      3137      1471      1807      1808
 -1      8089    3    0    1
 -2      2523      2491      3577      3687
 -1      8090    3    0    1
 -2      2958      1694      1750      3647
 -1      8091    3    0    1
 -2      1646        13      1683      3090
 -1      8092    3    0    1
 -2      1608      1438      3563      3314
 -1      8093    3    0    1
 -2      1724       277      3602      3634
 -1      8094    3    0    1
 -2       745      1706      1707      3262
 -1      8095    3    0    1
 -2      2946      2842      3003      3658
 -1      8096    3    0    1
 -2      1294      1746      3675      3728
 -1      8097    3    0    1
 -2      1240      1241      2791      2915
 -1      8098    3    0    1
 -2      2614      2821      3581      3278
 -1      8099    3    0    1
 -2      1718      1195      3559      3344
 -1      8100    3    0    1
 -2       709      1509      1510      3475
 -1      8101    3    0    1
 -2      3007      2691      3621      3341
 -1      8102    3    0    1
 -2      3561      3089      3621      3341
 -1      8103    3    0    1
 -2      1704      3619      3271      1884
 -1      8104    3    0    1
 -2      1638      1513      1639      3030
 -1      8105    3    0    1
 -2      1043       243      2384      1881
 -1      8106    3    0    1
 -2      1780      1581      3322      3655
 -1      8107    3    0    1
 -2      1505      1574      3015      3278
 -1      8108    3    0    1
 -2      2762      3533      3265      3636
 -1      8109    3    0    1
 -2      3089      3621      3349      3405
 -1      8110    3    0    1
 -2      2693      2909      3561      3089
 -1      8111    3    0    1
 -2      3058      1746      3326      3728
 -1      8112    3    0    1
 -2      1410      1694      3623      3647
 -1      8113    3    0    1
 -2      2918      3555      3580      3671
 -1      8114    3    0    1
 -2      1032       329      3594      3689
 -1      8115    3    0    1
 -2      3057      2671      3574      3262
 -1      8116    3    0    1
 -2      3513      3514      3540      3640
 -1      8117    3    0    1
 -2      1440      2848      3167      3688
 -1      8118    3    0    1
 -2      1421      3498      3564      3629
 -1      8119    3    0    1
 -2       768      1871      3661      3401
 -1      8120    3    0    1
 -2       410      1312      3640      3652
 -1      8121    3    0    1
 -2      1240      2643      2772      2915
 -1      8122    3    0    1
 -2      3526      1599      3642      3449
 -1      8123    3    0    1
 -2      2569      2566      3598      3625
 -1      8124    3    0    1
 -2      2242      1298      3590      3631
 -1      8125    3    0    1
 -2      3539      3520      3566      3631
 -1      8126    3    0    1
 -2       727       732      1774      3130
 -1      8127    3    0    1
 -2      1298      2242      3253      3631
 -1      8128    3    0    1
 -2      3181      1809      3183      3393
 -1      8129    3    0    1
 -2      1521      2801      3059      3120
 -1      8130    3    0    1
 -2      3557      3634      3653      3742
 -1      8131    3    0    1
 -2      3565       981      3678      3716
 -1      8132    3    0    1
 -2      2466      2228      3176      3232
 -1      8133    3    0    1
 -2      3623      1657      3356      1887
 -1      8134    3    0    1
 -2       171      3623      1877      1887
 -1      8135    3    0    1
 -2       410      1750      3613      3322
 -1      8136    3    0    1
 -2      2812      1676      3560      3365
 -1      8137    3    0    1
 -2       391       964      3619      3627
 -1      8138    3    0    1
 -2      2369      2233      3563      3427
 -1      8139    3    0    1
 -2      3495      1420      1516      3594
 -1      8140    3    0    1
 -2      2644      3255      3688      3400
 -1      8141    3    0    1
 -2      1733      1475      1734      2973
 -1      8142    3    0    1
 -2       978       984      3588      1889
 -1      8143    3    0    1
 -2      3019      1657      3623      1887
 -1      8144    3    0    1
 -2      1420      3495      1516      3739
 -1      8145    3    0    1
 -2      1438      1730      3563      3480
 -1      8146    3    0    1
 -2      3533      2737      3571      3632
 -1      8147    3    0    1
 -2      2909      3621      3289      3646
 -1      8148    3    0    1
 -2      2989      3533      3571      3632
 -1      8149    3    0    1
 -2      1667      2978      3560      3365
 -1      8150    3    0    1
 -2      1736       554      3633      3380
 -1      8151    3    0    1
 -2      1703      3074      3127      3335
 -1      8152    3    0    1
 -2      1439      2501      2926      3024
 -1      8153    3    0    1
 -2      1305      3546      3611      3630
 -1      8154    3    0    1
 -2      1593       637      1594      3010
 -1      8155    3    0    1
 -2       128      1590      3578      1794
 -1      8156    3    0    1
 -2      3619       140      3271      1884
 -1      8157    3    0    1
 -2      1434      3499      3512      3638
 -1      8158    3    0    1
 -2      2888      1160      2906      3034
 -1      8159    3    0    1
 -2      1588      1644      2983      3033
 -1      8160    3    0    1
 -2      2701      2702      2855      3636
 -1      8161    3    0    1
 -2      1809      3191      3461      3469
 -1      8162    3    0    1
 -2      2939      1636      2981      3241
 -1      8163    3    0    1
 -2      1644       553      2983      3033
 -1      8164    3    0    1
 -2      1678      1612      1679      3032
 -1      8165    3    0    1
 -2      3512      2427      3572      3140
 -1      8166    3    0    1
 -2      2501      1439      2926      2927
 -1      8167    3    0    1
 -2      1823       329      3249      3689
 -1      8168    3    0    1
 -2      2486      2548      3641      3366
 -1      8169    3    0    1
 -2      2534      2492      2602      3577
 -1      8170    3    0    1
 -2      2809      2717      3576      3223
 -1      8171    3    0    1
 -2      2456      2503      3500      3565
 -1      8172    3    0    1
 -2      1574      1731      1732      3193
 -1      8173    3    0    1
 -2      1482      1481      3047      1779
 -1      8174    3    0    1
 -2      3618      3339      3476      3742
 -1      8175    3    0    1
 -2      2744      3559      3083      3697
 -1      8176    3    0    1
 -2      3515      2462      2808      3666
 -1      8177    3    0    1
 -2      1015      1319      3523      3601
 -1      8178    3    0    1
 -2      1624      1592      1591      2930
 -1      8179    3    0    1
 -2      2535      1623      1624      2930
 -1      8180    3    0    1
 -2      1650      1457      1651      3012
 -1      8181    3    0    1
 -2      1457      1458      1651      3012
 -1      8182    3    0    1
 -2      3060      1533      3062      3592
 -1      8183    3    0    1
 -2       626      1555      2850      3470
 -1      8184    3    0    1
 -2      2841      2649      3116      3385
 -1      8185    3    0    1
 -2      3573      3259      3319      3360
 -1      8186    3    0    1
 -2       519       625      2640      2931
 -1      8187    3    0    1
 -2       519      2640      2723      2931
 -1      8188    3    0    1
 -2      1606      1780      1781      3298
 -1      8189    3    0    1
 -2      2402      2459      3715      3739
 -1      8190    3    0    1
 -2      2930      1591      3593      3296
 -1      8191    3    0    1
 -2      2213       981      2319      3565
 -1      8192    3    0    1
 -2      3011       804      1771      3296
 -1      8193    3    0    1
 -2      3678      1730      1893      3480
 -1      8194    3    0    1
 -2      1591      2930      1771      3296
 -1      8195    3    0    1
 -2      2640      1302      2765      2931
 -1      8196    3    0    1
 -2      2548      1501      3641      3366
 -1      8197    3    0    1
 -2      2908      3121      3338      3672
 -1      8198    3    0    1
 -2      1811      1816      3252      1860
 -1      8199    3    0    1
 -2      3651       180      3719      3472
 -1      8200    3    0    1
 -2      3504      2856      3641      3670
 -1      8201    3    0    1
 -2      1750      1694      1752      3647
 -1      8202    3    0    1
 -2      3039      2836      3581      3650
 -1      8203    3    0    1
 -2      1467      1741      1742      2979
 -1      8204    3    0    1
 -2       277       423      1586      2971
 -1      8205    3    0    1
 -2        41       236      1632      3408
 -1      8206    3    0    1
 -2      1462      1461      1710      3028
 -1      8207    3    0    1
 -2       277      1585      3522      2971
 -1      8208    3    0    1
 -2      1197      1195      2678      3559
 -1      8209    3    0    1
 -2      3120      1674      1924      1925
 -1      8210    3    0    1
 -2      2662      1776      1777      3377
 -1      8211    3    0    1
 -2      2809      1612      3099      1838
 -1      8212    3    0    1
 -2      1639      1638      2852      3157
 -1      8213    3    0    1
 -2      2484      2638      3538      3654
 -1      8214    3    0    1
 -2      1800      1891      1892      3447
 -1      8215    3    0    1
 -2      1503      1465      3101      3625
 -1      8216    3    0    1
 -2      2483      3520      2461      2290
 -1      8217    3    0    1
 -2       972      1305      3546      3570
 -1      8218    3    0    1
 -2      2721      2976      3043      3465
 -1      8219    3    0    1
 -2      1711       608      3163      3290
 -1      8220    3    0    1
 -2      1739      3014      1800      3447
 -1      8221    3    0    1
 -2      2652      2576      3517      3568
 -1      8222    3    0    1
 -2      2770      1640      1757      3579
 -1      8223    3    0    1
 -2      2402      2211      3509      3178
 -1      8224    3    0    1
 -2       205       316      1664      3234
 -1      8225    3    0    1
 -2      1754      3084      1867      3676
 -1      8226    3    0    1
 -2      2814      1234      1727      2935
 -1      8227    3    0    1
 -2      3538      3019      3554      3623
 -1      8228    3    0    1
 -2      3662      3639      3706      3470
 -1      8229    3    0    1
 -2       572       565      1713      2937
 -1      8230    3    0    1
 -2       128      1700      1794      3590
 -1      8231    3    0    1
 -2      1529       171      1877      3718
 -1      8232    3    0    1
 -2      1425      1426      2831      3146
 -1      8233    3    0    1
 -2      2658      3026      3579      3307
 -1      8234    3    0    1
 -2      1515      1548      2786      3145
 -1      8235    3    0    1
 -2       993       170      2295      1798
 -1      8236    3    0    1
 -2      1511      1512      3146      3474
 -1      8237    3    0    1
 -2      2631      1006      3598      3599
 -1      8238    3    0    1
 -2      2726       450      1736      1737
 -1      8239    3    0    1
 -2      1637      1636      2939      1737
 -1      8240    3    0    1
 -2      3061      3060      3062      3592
 -1      8241    3    0    1
 -2      3517      2890      2896      3568
 -1      8242    3    0    1
 -2      1562      1563      2845      1733
 -1      8243    3    0    1
 -2      2510      2626      3523      3660
 -1      8244    3    0    1
 -2      1530      1432      3508      3548
 -1      8245    3    0    1
 -2      3575      1435      3614      3642
 -1      8246    3    0    1
 -2      1477      1478      2942      3051
 -1      8247    3    0    1
 -2       241       425      1660      3209
 -1      8248    3    0    1
 -2      1441      1440      2725      3071
 -1      8249    3    0    1
 -2      2243       984      2544      3588
 -1      8250    3    0    1
 -2      2551      2497      2649      3592
 -1      8251    3    0    1
 -2       396       347      3519      3588
 -1      8252    3    0    1
 -2       346       157      3519      3588
 -1      8253    3    0    1
 -2       157      2528      3519      3588
 -1      8254    3    0    1
 -2      1438      3563      3314      3480
 -1      8255    3    0    1
 -2      2996      1485      1824      1825
 -1      8256    3    0    1
 -2      2948      2649      3274      3706
 -1      8257    3    0    1
 -2       978       984      2243      3588
 -1      8258    3    0    1
 -2      1465      1503      2822      3035
 -1      8259    3    0    1
 -2        81      1726      2927      1743
 -1      8260    3    0    1
 -2      1308      3663      3684      3718
 -1      8261    3    0    1
 -2      1533        21      1534      3084
 -1      8262    3    0    1
 -2      2944       781      1755      1756
 -1      8263    3    0    1
 -2      2574      2693      2909      3561
 -1      8264    3    0    1
 -2      2893      3559      3661      3478
 -1      8265    3    0    1
 -2      2638      3538      3654      3682
 -1      8266    3    0    1
 -2      2331      1333      3511      3643
 -1      8267    3    0    1
 -2      1539      1818      3286      3405
 -1      8268    3    0    1
 -2      1652       101      2881      3635
 -1      8269    3    0    1
 -2      1040      1330      3527      3544
 -1      8270    3    0    1
 -2        42      2934      1811      1859
 -1      8271    3    0    1
 -2      1774      1455      1775      3347
 -1      8272    3    0    1
 -2      1774      2740      3248      3347
 -1      8273    3    0    1
 -2      3668      3666      3724      3725
 -1      8274    3    0    1
 -2      2756      2869      3620      3637
 -1      8275    3    0    1
 -2       721       718      1018      1915
 -1      8276    3    0    1
 -2      2731        26      1813      3350
 -1      8277    3    0    1
 -2      1663      2814      2841      2948
 -1      8278    3    0    1
 -2      1663       932      2814      2948
 -1      8279    3    0    1
 -2      2897        22      1769      1842
 -1      8280    3    0    1
 -2        42       237      1812      1816
 -1      8281    3    0    1
 -2       610      2242      2392      3253
 -1      8282    3    0    1
 -2      1452      1666      2891      3481
 -1      8283    3    0    1
 -2      2493      2466      3526      3680
 -1      8284    3    0    1
 -2      1461      1709      1710      3028
 -1      8285    3    0    1
 -2        80      3391      3394      1894
 -1      8286    3    0    1
 -2      3132      1489      3607      3363
 -1      8287    3    0    1
 -2      2463      1412      2801      3059
 -1      8288    3    0    1
 -2      2657      1719      3152      3596
 -1      8289    3    0    1
 -2       410       990      3613      3647
 -1      8290    3    0    1
 -2      1330      2629      3527      3247
 -1      8291    3    0    1
 -2      3296      3553      3340      3466
 -1      8292    3    0    1
 -2      2940      2593      3659      2951
 -1      8293    3    0    1
 -2       128       956      3578      3631
 -1      8294    3    0    1
 -2      1827      3539      3306      3703
 -1      8295    3    0    1
 -2      2965      1487      3000      3650
 -1      8296    3    0    1
 -2       949      1294      2494      3572
 -1      8297    3    0    1
 -2      1483      1484      2489      3059
 -1      8298    3    0    1
 -2      1755      1767      1768      3302
 -1      8299    3    0    1
 -2      2692      2632      3550      3016
 -1      8300    3    0    1
 -2      2877      3538      3654      3655
 -1      8301    3    0    1
 -2      1322      2116      3525      3587
 -1      8302    3    0    1
 -2      2242      3590      3253      3631
 -1      8303    3    0    1
 -2       193       415      2292      3410
 -1      8304    3    0    1
 -2      2813      2622      3530      3597
 -1      8305    3    0    1
 -2      1446      1445      1852      3469
 -1      8306    3    0    1
 -2      2793      2812      3560      3365
 -1      8307    3    0    1
 -2      1636      1637      1655      3111
 -1      8308    3    0    1
 -2      1505      1597      1598      2954
 -1      8309    3    0    1
 -2      1514      2812      3030      3365
 -1      8310    3    0    1
 -2      3504      2558      2806      3667
 -1      8311    3    0    1
 -2      2466      2121      2919      3680
 -1      8312    3    0    1
 -2      1325       227      2063      3543
 -1      8313    3    0    1
 -2      3598      2566      3387      3679
 -1      8314    3    0    1
 -2       241      3624      1862      3720
 -1      8315    3    0    1
 -2      2063       227      2263      3543
 -1      8316    3    0    1
 -2      1617      1616      3364      3424
 -1      8317    3    0    1
 -2       243       330      2512      3543
 -1      8318    3    0    1
 -2       330       376      2512      3543
 -1      8319    3    0    1
 -2      1041       243      2512      3543
 -1      8320    3    0    1
 -2      2063      2513      2705      3543
 -1      8321    3    0    1
 -2       376       227      2512      3543
 -1      8322    3    0    1
 -2       227      1325      2512      3543
 -1      8323    3    0    1
 -2      2063      2263      2513      3543
 -1      8324    3    0    1
 -2      2529      1628      3522      2971
 -1      8325    3    0    1
 -2      2719      2497      3592      3721
 -1      8326    3    0    1
 -2      3591      1049      3643      3645
 -1      8327    3    0    1
 -2       383      1289      3508      3646
 -1      8328    3    0    1
 -2      3118      1543      3629      3423
 -1      8329    3    0    1
 -2      3248      3195      3347      3667
 -1      8330    3    0    1
 -2      2958      1604      1750      1751
 -1      8331    3    0    1
 -2      1049      1333      3591      3643
 -1      8332    3    0    1
 -2      1491      1492      2777      3063
 -1      8333    3    0    1
 -2      3355      3362      3717      3479
 -1      8334    3    0    1
 -2      3550      2692      3364      3455
 -1      8335    3    0    1
 -2      1442      3510      3527      3544
 -1      8336    3    0    1
 -2      3555      3196      3381      3481
 -1      8337    3    0    1
 -2       644      2703      2987      3682
 -1      8338    3    0    1
 -2      2754      3138      3626      3354
 -1      8339    3    0    1
 -2      1049      3281      3643      3645
 -1      8340    3    0    1
 -2      3654      3558      3672      3682
 -1      8341    3    0    1
 -2      2427      2461      2993      3638
 -1      8342    3    0    1
 -2      2290      3499      3520      3638
 -1      8343    3    0    1
 -2      3520      3539      3566      3638
 -1      8344    3    0    1
 -2      2494      2427      2684      3572
 -1      8345    3    0    1
 -2      1503      1535      1536      2956
 -1      8346    3    0    1
 -2      1736      2939      3149      3241
 -1      8347    3    0    1
 -2      1585      1586      2788      2971
 -1      8348    3    0    1
 -2      1743      3311      3674      1883
 -1      8349    3    0    1
 -2       410      1750      1752      3647
 -1      8350    3    0    1
 -2      3613      1410      3623      3647
 -1      8351    3    0    1
 -2       428       229      1576      3713
 -1      8352    3    0    1
 -2      3051      1692      1863      1864
 -1      8353    3    0    1
 -2       329      3527      2949      3247
 -1      8354    3    0    1
 -2      2761      3521      2967      3173
 -1      8355    3    0    1
 -2      2748      1562      2949      3247
 -1      8356    3    0    1
 -2      1605      1604      2958      1751
 -1      8357    3    0    1
 -2      1716      1557      3612      3337
 -1      8358    3    0    1
 -2      2710      2889      3553      3633
 -1      8359    3    0    1
 -2      1562       329      2949      3247
 -1      8360    3    0    1
 -2      3208      1813      3313      3325
 -1      8361    3    0    1
 -2      1750      2958      1751      1752
 -1      8362    3    0    1
 -2      3039      3581      3278      3650
 -1      8363    3    0    1
 -2      2478      2271      2704      3545
 -1      8364    3    0    1
 -2       144      2745      3536      3552
 -1      8365    3    0    1
 -2      2627      3018      3576      3242
 -1      8366    3    0    1
 -2       180       410      1750      1752
 -1      8367    3    0    1
 -2      1713      2937      3205      3405
 -1      8368    3    0    1
 -2      1834      1638      3383      3702
 -1      8369    3    0    1
 -2      1481      2936      1778      1779
 -1      8370    3    0    1
 -2      3499      1434      3512      3578
 -1      8371    3    0    1
 -2      3106      1572      3159      3161
 -1      8372    3    0    1
 -2       153       395      1608      2999
 -1      8373    3    0    1
 -2      3516      3553      3011      3296
 -1      8374    3    0    1
 -2      2789      2744      3645      3661
 -1      8375    3    0    1
 -2      2699      2617      3573      3259
 -1      8376    3    0    1
 -2      1548      2786      3145      3367
 -1      8377    3    0    1
 -2      1429      3514      3534      3652
 -1      8378    3    0    1
 -2       425       241      1660      2963
 -1      8379    3    0    1
 -2       924       504      2712      2964
 -1      8380    3    0    1
 -2      2862      3074      3127      3607
 -1      8381    3    0    1
 -2      3550      3034      3409      3455
 -1      8382    3    0    1
 -2      1214       924      2712      2964
 -1      8383    3    0    1
 -2      3583      3585      3189      3600
 -1      8384    3    0    1
 -2      1415      2613      1740      3104
 -1      8385    3    0    1
 -2      1195      1718      3559      3104
 -1      8386    3    0    1
 -2      2594      2442      3529      3707
 -1      8387    3    0    1
 -2      2612      2620      2794      3151
 -1      8388    3    0    1
 -2      1546      1547      1670      3151
 -1      8389    3    0    1
 -2      1315       193      2292      3410
 -1      8390    3    0    1
 -2      2633      2460      3573      3677
 -1      8391    3    0    1
 -2       961       967      3536      1804
 -1      8392    3    0    1
 -2      1214      2712      2836      2964
 -1      8393    3    0    1
 -2      1591      2903      3272      3328
 -1      8394    3    0    1
 -2      1465      1572      1573      3229
 -1      8395    3    0    1
 -2      3102      2964      3581      3390
 -1      8396    3    0    1
 -2       626       619      1555      3134
 -1      8397    3    0    1
 -2      3034      1754      1867      3676
 -1      8398    3    0    1
 -2      1813      2731      3208      3313
 -1      8399    3    0    1
 -2      2540      3671      3521      2643
 -1      8400    3    0    1
 -2      3037      3637      3334      3375
 -1      8401    3    0    1
 -2      2473      3509      3525      3605
 -1      8402    3    0    1
 -2      1638      1514      3030      3260
 -1      8403    3    0    1
 -2      1505      1574      3179      3331
 -1      8404    3    0    1
 -2        13       181      1647      3330
 -1      8405    3    0    1
 -2      1583      1584      2699      3360
 -1      8406    3    0    1
 -2      3522      3516      3584      3593
 -1      8407    3    0    1
 -2      3076      2809      1838      1839
 -1      8408    3    0    1
 -2      1810      1809      3181      1851
 -1      8409    3    0    1
 -2      2609      2569      3598      3343
 -1      8410    3    0    1
 -2      1757      1640      1758      3077
 -1      8411    3    0    1
 -2      1694      2958      3623      3647
 -1      8412    3    0    1
 -2      1607      1606      1790      3128
 -1      8413    3    0    1
 -2       590       583      1757      3076
 -1      8414    3    0    1
 -2      3105      3220      3603      3679
 -1      8415    3    0    1
 -2      3511      1336      3551      3656
 -1      8416    3    0    1
 -2      1434      3306      3638      3376
 -1      8417    3    0    1
 -2      3583      3585      3600      3635
 -1      8418    3    0    1
 -2      1473      1633      2775      3274
 -1      8419    3    0    1
 -2      1497      3547      3567      3666
 -1      8420    3    0    1
 -2      2347      3510      3316      3700
 -1      8421    3    0    1
 -2      3089      2909      3621      3289
 -1      8422    3    0    1
 -2      1443      1444      1768      3302
 -1      8423    3    0    1
 -2      3082      1483      3346      3494
 -1      8424    3    0    1
 -2      1241      2915      1831      3403
 -1      8425    3    0    1
 -2      1559      3218      3315      3473
 -1      8426    3    0    1
 -2      3564       972      3570      3629
 -1      8427    3    0    1
 -2      2290      3520      3590      3627
 -1      8428    3    0    1
 -2      3541      3498      3589      3619
 -1      8429    3    0    1
 -2      3520      2483      3541      3627
 -1      8430    3    0    1
 -2      1468      1467      2674      3238
 -1      8431    3    0    1
 -2      1495      1537      2960      2998
 -1      8432    3    0    1
 -2      2742      2651      3530      3213
 -1      8433    3    0    1
 -2      1562      1563      1733      2973
 -1      8434    3    0    1
 -2      1563      1562      2949      2973
 -1      8435    3    0    1
 -2      1475      1722      1723      3213
 -1      8436    3    0    1
 -2      1475      1476      2742      3213
 -1      8437    3    0    1
 -2        68      3196      1820      3481
 -1      8438    3    0    1
 -2      1625        24      2972      3072
 -1      8439    3    0    1
 -2      2742      3530      2950      3213
 -1      8440    3    0    1
 -2      1688      1689      1723      3213
 -1      8441    3    0    1
 -2      1476      1475      1723      3213
 -1      8442    3    0    1
 -2      3008      2836      3039      3650
 -1      8443    3    0    1
 -2       237        42      1812      1859
 -1      8444    3    0    1
 -2      3506      1417      2807      3609
 -1      8445    3    0    1
 -2      1502      1501      2843      3044
 -1      8446    3    0    1
 -2      2637      2636      2665      3549
 -1      8447    3    0    1
 -2      2636      2593      2711      3549
 -1      8448    3    0    1
 -2      2947      2606      3184      3722
 -1      8449    3    0    1
 -2      1040      3510      3624      3700
 -1      8450    3    0    1
 -2      2501      2676      2960      3177
 -1      8451    3    0    1
 -2      3011       804      3296      3340
 -1      8452    3    0    1
 -2       673       680      1782      3115
 -1      8453    3    0    1
 -2      3003      2842      3567      3658
 -1      8454    3    0    1
 -2      3540      3513      3640      3647
 -1      8455    3    0    1
 -2       732      1786      3233      3333
 -1      8456    3    0    1
 -2      2863      3251      3673      3685
 -1      8457    3    0    1
 -2      2841      2649      2948      3116
 -1      8458    3    0    1
 -2        81      1743      1744      1856
 -1      8459    3    0    1
 -2      3037      2756      3637      3375
 -1      8460    3    0    1
 -2      2590      2517      2592      3549
 -1      8461    3    0    1
 -2       395       153      1608      3611
 -1      8462    3    0    1
 -2      3563      3546      3434      3714
 -1      8463    3    0    1
 -2      2591      2550      2592      3549
 -1      8464    3    0    1
 -2      2711      2593      2951      3549
 -1      8465    3    0    1
 -2      3565      3501      3663      3718
 -1      8466    3    0    1
 -2      1305      3546      3570      3611
 -1      8467    3    0    1
 -2      2771      3516      3522      3593
 -1      8468    3    0    1
 -2      3495      1326      3594      3694
 -1      8469    3    0    1
 -2       990      3169      3613      3640
 -1      8470    3    0    1
 -2       278       335      3529      3707
 -1      8471    3    0    1
 -2       395      1305      3570      3611
 -1      8472    3    0    1
 -2      3134      3580      3174      3616
 -1      8473    3    0    1
 -2      1627      2731      1813      3313
 -1      8474    3    0    1
 -2      2985      1463      3098      3637
 -1      8475    3    0    1
 -2      3037       590      1838      3375
 -1      8476    3    0    1
 -2      2756      3077      3637      3375
 -1      8477    3    0    1
 -2      3136      2779      3603      3304
 -1      8478    3    0    1
 -2       965      1293      2392      3070
 -1      8479    3    0    1
 -2      2475      2573      3671      3683
 -1      8480    3    0    1
 -2      2665      3198      3673      3462
 -1      8481    3    0    1
 -2      2875      2663      1257      2562
 -1      8482    3    0    1
 -2      2829      2926      2998      3558
 -1      8483    3    0    1
 -2       601       608      2729      3214
 -1      8484    3    0    1
 -2      1633        68      1634      3385
 -1      8485    3    0    1
 -2      2484      3538      3623      3655
 -1      8486    3    0    1
 -2      3086      3108      3598      3625
 -1      8487    3    0    1
 -2      3243      3549      3674      3388
 -1      8488    3    0    1
 -2       112       383      3548      1828
 -1      8489    3    0    1
 -2      2391      1072      3695      1917
 -1      8490    3    0    1
 -2      3236      1646      3330      3388
 -1      8491    3    0    1
 -2      2233      2369      2461      3427
 -1      8492    3    0    1
 -2      3626      3138      1871      3354
 -1      8493    3    0    1
 -2      1719      1720      3152      1803
 -1      8494    3    0    1
 -2      3620      2990      3637      3702
 -1      8495    3    0    1
 -2      1417      1552      3609      3686
 -1      8496    3    0    1
 -2      3499      3539      3578      3631
 -1      8497    3    0    1
 -2      2691      1489      1709      3341
 -1      8498    3    0    1
 -2      2691      3275      3644      3341
 -1      8499    3    0    1
 -2      1606      3088      3128      3655
 -1      8500    3    0    1
 -2      2719      3592      3352      3721
 -1      8501    3    0    1
 -2      2579      2086      2745      3552
 -1      8502    3    0    1
 -2      1636      1654      1655      2981
 -1      8503    3    0    1
 -2      3518      2041      2291      2295
 -1      8504    3    0    1
 -2      1480      1479      2784      2981
 -1      8505    3    0    1
 -2      1479      1480      1655      2981
 -1      8506    3    0    1
 -2      2522      1322      3587      3641
 -1      8507    3    0    1
 -2      1479      1654      2784      2981
 -1      8508    3    0    1
 -2      1654      1479      1655      2981
 -1      8509    3    0    1
 -2      1539      1818      1819      3286
 -1      8510    3    0    1
 -2      1527      1764      1765      3321
 -1      8511    3    0    1
 -2       697       717      1992      3201
 -1      8512    3    0    1
 -2       316      1635      3532      3599
 -1      8513    3    0    1
 -2      3192      3657      3353      3452
 -1      8514    3    0    1
 -2      2507      2588      3598      3599
 -1      8515    3    0    1
 -2      2934      2995      1811      1859
 -1      8516    3    0    1
 -2      3550      2872      3069      3295
 -1      8517    3    0    1
 -2      2775      1633      2948      3274
 -1      8518    3    0    1
 -2       717      1006      1319      3201
 -1      8519    3    0    1
 -2      3113      3115      1846      1847
 -1      8520    3    0    1
 -2      1435      3526      3270      3449
 -1      8521    3    0    1
 -2       717       697      1006      3201
 -1      8522    3    0    1
 -2      1409      1724      3596      3602
 -1      8523    3    0    1
 -2      3495      2402      3569      3594
 -1      8524    3    0    1
 -2      2612      2731      2794      3553
 -1      8525    3    0    1
 -2      2620      2612      2794      3553
 -1      8526    3    0    1
 -2      2672      2794      2905      3553
 -1      8527    3    0    1
 -2      2794      2672      2905      1564
 -1      8528    3    0    1
 -2      2620      1487      2826      3553
 -1      8529    3    0    1
 -2      2672      1487      2794      3553
 -1      8530    3    0    1
 -2      2794      1487      2620      3553
 -1      8531    3    0    1
 -2      1487      2794      2620      1546
 -1      8532    3    0    1
 -2      2672      2532      2696      3553
 -1      8533    3    0    1
 -2       423       277      3291      1870
 -1      8534    3    0    1
 -2      2188       708      2485      3693
 -1      8535    3    0    1
 -2      2476      2826      2921      3553
 -1      8536    3    0    1
 -2      1692      1693      3051      3354
 -1      8537    3    0    1
 -2      2889      2476      2921      3553
 -1      8538    3    0    1
 -2      2476      2612      2826      3553
 -1      8539    3    0    1
 -2      2634      1516      3689      3741
 -1      8540    3    0    1
 -2      2860      2502      3581      3650
 -1      8541    3    0    1
 -2      2612      2620      2826      3553
 -1      8542    3    0    1
 -2      2801      1412      3667      3467
 -1      8543    3    0    1
 -2      1813      1814      3325      3350
 -1      8544    3    0    1
 -2      2794      2731      2905      3553
 -1      8545    3    0    1
 -2      1726      2927      1743      2998
 -1      8546    3    0    1
 -2      1499      1648      3019      3554
 -1      8547    3    0    1
 -2      2484      2638      2650      3554
 -1      8548    3    0    1
 -2      2650      2638      2703      3554
 -1      8549    3    0    1
 -2      2757       644      3671      3683
 -1      8550    3    0    1
 -2      1499      1657      2912      3554
 -1      8551    3    0    1
 -2      2838      1625      2972      3072
 -1      8552    3    0    1
 -2      2927      1537      1743      2998
 -1      8553    3    0    1
 -2      3561      3276      3341      3644
 -1      8554    3    0    1
 -2      1519      2650      2703      3554
 -1      8555    3    0    1
 -2      1478      1477      3009      1864
 -1      8556    3    0    1
 -2      3276      3561      3341      2693
 -1      8557    3    0    1
 -2      3569      3715      3739      3743
 -1      8558    3    0    1
 -2      3017      1692      1871      1872
 -1      8559    3    0    1
 -2      3587      1545      3724      3730
 -1      8560    3    0    1
 -2      2642      2756      3550      3037
 -1      8561    3    0    1
 -2      2574       474      2693      3561
 -1      8562    3    0    1
 -2      1059      2412      2515      3744
 -1      8563    3    0    1
 -2      2642      3550      2986      3037
 -1      8564    3    0    1
 -2      1434      3512      1749      3376
 -1      8565    3    0    1
 -2      3613      1750      3623      3322
 -1      8566    3    0    1
 -2      1298       610      2242      3590
 -1      8567    3    0    1
 -2      1461      2716      3275      3644
 -1      8568    3    0    1
 -2      2609      1453      1844      3343
 -1      8569    3    0    1
 -2      3524      3505      3599      3686
 -1      8570    3    0    1
 -2      3653      3634      3476      3742
 -1      8571    3    0    1
 -2      1432      1530      3508      3646
 -1      8572    3    0    1
 -2       335       267      3707      1920
 -1      8573    3    0    1
 -2      3043      1643      1791      3282
 -1      8574    3    0    1
 -2      3053      1567      1794      1795
 -1      8575    3    0    1
 -2       972       395      1305      3570
 -1      8576    3    0    1
 -2      1293       133      3552      3070
 -1      8577    3    0    1
 -2      1659       241      3357      3664
 -1      8578    3    0    1
 -2      1719      1443      1720      3285
 -1      8579    3    0    1
 -2      1443      1444      1720      3285
 -1      8580    3    0    1
 -2      3551      1336      3596      3656
 -1      8581    3    0    1
 -2      1757       583      1758      3076
 -1      8582    3    0    1
 -2      3080      2821      3581      3193
 -1      8583    3    0    1
 -2      3261      1450      1865      1866
 -1      8584    3    0    1
 -2      1450      1678      3550      3069
 -1      8585    3    0    1
 -2      3512      1749      3464      3723
 -1      8586    3    0    1
 -2      2855      2702      2859      3636
 -1      8587    3    0    1
 -2      2323      2427      2461      2993
 -1      8588    3    0    1
 -2      1421      1656      3589      3629
 -1      8589    3    0    1
 -2      3087      1539      1818      1819
 -1      8590    3    0    1
 -2      1753      3540      1801      3719
 -1      8591    3    0    1
 -2      2890      1469      3568      3371
 -1      8592    3    0    1
 -2      1015      1322      3666      3725
 -1      8593    3    0    1
 -2      2702      2750      2859      3636
 -1      8594    3    0    1
 -2        24      1619      2972      3072
 -1      8595    3    0    1
 -2      1616        20      1617      3374
 -1      8596    3    0    1
 -2        24        25      1619      3072
 -1      8597    3    0    1
 -2      1524      1807      3186      3221
 -1      8598    3    0    1
 -2      1782      1524      3186      3221
 -1      8599    3    0    1
 -2      1750      2958      3613      3623
 -1      8600    3    0    1
 -2       673       680      2783      1782
 -1      8601    3    0    1
 -2      1563      1562      2845      3249
 -1      8602    3    0    1
 -2      2541      2669      3606      3660
 -1      8603    3    0    1
 -2      1486      1485      1814      3325
 -1      8604    3    0    1
 -2      1750      2958      3623      3322
 -1      8605    3    0    1
 -2       572       565      2937      3269
 -1      8606    3    0    1
 -2      1251      2926      1726      2998
 -1      8607    3    0    1
 -2      1780      1606      3622      3298
 -1      8608    3    0    1
 -2      1706       750      3574      3262
 -1      8609    3    0    1
 -2      1409      1724      3602      3634
 -1      8610    3    0    1
 -2        42      1811      1812      1859
 -1      8611    3    0    1
 -2      3579      2527      3675      3690
 -1      8612    3    0    1
 -2      1567       956      3578      1794
 -1      8613    3    0    1
 -2      1604      1750      1751      3001
 -1      8614    3    0    1
 -2      3637      1757      3334      3375
 -1      8615    3    0    1
 -2      1598      1597      2953      3110
 -1      8616    3    0    1
 -2      2940      3251      3673      3393
 -1      8617    3    0    1
 -2      2487      3504      3416      3493
 -1      8618    3    0    1
 -2      3546      1608      3611      3630
 -1      8619    3    0    1
 -2      3573      2617      3145      3252
 -1      8620    3    0    1
 -2      3144      1555      3174      3359
 -1      8621    3    0    1
 -2      3089      3621      3341      3349
 -1      8622    3    0    1
 -2      1604      3040      1874      1875
 -1      8623    3    0    1
 -2      3181      3183      3673      3393
 -1      8624    3    0    1
 -2      3183      2940      3673      3393
 -1      8625    3    0    1
 -2      3553      2889      3296      3340
 -1      8626    3    0    1
 -2      3088      1606      1780      3655
 -1      8627    3    0    1
 -2      2700      2917      3128      3655
 -1      8628    3    0    1
 -2      2139      2474      3578      3631
 -1      8629    3    0    1
 -2       409       668       660      1918
 -1      8630    3    0    1
 -2       956      2139      3578      3631
 -1      8631    3    0    1
 -2      2877      3088      3322      3655
 -1      8632    3    0    1
 -2      1552      1417      3599      3686
 -1      8633    3    0    1
 -2      2792      3124      3612      3337
 -1      8634    3    0    1
 -2      2957      1741      2970      3646
 -1      8635    3    0    1
 -2      2476      3553      3633      3649
 -1      8636    3    0    1
 -2       732       727      1774      3092
 -1      8637    3    0    1
 -2      3661      3020      3705      3591
 -1      8638    3    0    1
 -2      3550      2986      3032      3261
 -1      8639    3    0    1
 -2      2821      2955      3581      3193
 -1      8640    3    0    1
 -2      1620      2810      1829      1830
 -1      8641    3    0    1
 -2      1421      3564      1796      3629
 -1      8642    3    0    1
 -2      1040       241      3527      3357
 -1      8643    3    0    1
 -2      2731      2905      3553      3649
 -1      8644    3    0    1
 -2      3549      1686      3243      3311
 -1      8645    3    0    1
 -2      2897      3074      1842      3335
 -1      8646    3    0    1
 -2      3557      3496      3602      3634
 -1      8647    3    0    1
 -2      2624      3555      3196      3216
 -1      8648    3    0    1
 -2      1654      1636      1655      3111
 -1      8649    3    0    1
 -2      1721       253      1868      3656
 -1      8650    3    0    1
 -2      2862      2864      3127      3335
 -1      8651    3    0    1
 -2       205       316      3547      1793
 -1      8652    3    0    1
 -2      1633      1634      3196      3216
 -1      8653    3    0    1
 -2       799      3011      1771      1772
 -1      8654    3    0    1
 -2      2889      2710      3553      3011
 -1      8655    3    0    1
 -2      2710      3516      3553      3011
 -1      8656    3    0    1
 -2      2768      1499      3156      3683
 -1      8657    3    0    1
 -2      3267      1746      3289      3646
 -1      8658    3    0    1
 -2      3556      2571      3596      3610
 -1      8659    3    0    1
 -2      1447      1739      3005      3013
 -1      8660    3    0    1
 -2      1505      1574      1575      3015
 -1      8661    3    0    1
 -2      1429      1609      3534      3562
 -1      8662    3    0    1
 -2      1719      3152      1802      1803
 -1      8663    3    0    1
 -2      1736      2726      1737      3111
 -1      8664    3    0    1
 -2      1514      1513      1638      3030
 -1      8665    3    0    1
 -2      1513      1514      2812      3030
 -1      8666    3    0    1
 -2      3538      2735      2914      3019
 -1      8667    3    0    1
 -2      1308      2735      3538      3019
 -1      8668    3    0    1
 -2      1657      3356      1887      1888
 -1      8669    3    0    1
 -2      3057      3574      3200      3262
 -1      8670    3    0    1
 -2      1706      1553      1707      3262
 -1      8671    3    0    1
 -2      3056      3567      3003      2842
 -1      8672    3    0    1
 -2      1693      1692      3017      1872
 -1      8673    3    0    1
 -2      3681      3569      3729      3743
 -1      8674    3    0    1
 -2      1706      2870      2988      3100
 -1      8675    3    0    1
 -2      2935      1533      3592      3352
 -1      8676    3    0    1
 -2      1678      1450      3550      3261
 -1      8677    3    0    1
 -2      2694      3046      3633      3649
 -1      8678    3    0    1
 -2       112       383      1741      3246
 -1      8679    3    0    1
 -2      2812      2793      3260      3365
 -1      8680    3    0    1
 -2      2596      1459      3065      3235
 -1      8681    3    0    1
 -2      3563      3565      3663      3678
 -1      8682    3    0    1
 -2      2744      1333      3591      1049
 -1      8683    3    0    1
 -2      2719      2551      2758      3592
 -1      8684    3    0    1
 -2      3117      3218      3315      3333
 -1      8685    3    0    1
 -2      2814      3060      3116      3592
 -1      8686    3    0    1
 -2      2551      3061      3062      3592
 -1      8687    3    0    1
 -2      2486      2545      2561      3366
 -1      8688    3    0    1
 -2      2551      3062      3158      3592
 -1      8689    3    0    1
 -2      2627      2481      3576      3607
 -1      8690    3    0    1
 -2      2808      3505      3567      3658
 -1      8691    3    0    1
 -2      3028      3075      3607      3386
 -1      8692    3    0    1
 -2      3505      3547      3567      3658
 -1      8693    3    0    1
 -2      2789      2893      3559      3661
 -1      8694    3    0    1
 -2      2513      2705      3543      3582
 -1      8695    3    0    1
 -2      1778      3047      1779      3170
 -1      8696    3    0    1
 -2      3188      3132      3607      3363
 -1      8697    3    0    1
 -2      1457      2763      2766      3665
 -1      8698    3    0    1
 -2      3378      3656      3717      3479
 -1      8699    3    0    1
 -2      1493      2758      3158      3592
 -1      8700    3    0    1
 -2      3014      3013      3039      3110
 -1      8701    3    0    1
 -2      1597      3014      3039      3110
 -1      8702    3    0    1
 -2      2680      2838      2886      3027
 -1      8703    3    0    1
 -2      1597      1598      1892      3447
 -1      8704    3    0    1
 -2        80      1764      3320      3446
 -1      8705    3    0    1
 -2      1713      3094      1818      1819
 -1      8706    3    0    1
 -2      3657      3353      3452      3717
 -1      8707    3    0    1
 -2      2976      2721      3043      3726
 -1      8708    3    0    1
 -2      1561       319      3515      3666
 -1      8709    3    0    1
 -2       430      1715      3668      3725
 -1      8710    3    0    1
 -2      1561       319      3666      3725
 -1      8711    3    0    1
 -2       430       319      1715      3725
 -1      8712    3    0    1
 -2      1535      2920      3187      3240
 -1      8713    3    0    1
 -2      2804      2903      3556      3301
 -1      8714    3    0    1
 -2      2497      3592      3662      3706
 -1      8715    3    0    1
 -2      1832      3273      1896      1897
 -1      8716    3    0    1
 -2      2540      2643      2791      3555
 -1      8717    3    0    1
 -2      1678      1612      3576      3223
 -1      8718    3    0    1
 -2      2969       964      3620      3702
 -1      8719    3    0    1
 -2      3035      2823      3187      3687
 -1      8720    3    0    1
 -2      1479      1654      2938      3584
 -1      8721    3    0    1
 -2      2641      1473      1696      3555
 -1      8722    3    0    1
 -2      1471      1472      1647      3136
 -1      8723    3    0    1
 -2      1647      1646      3136      3217
 -1      8724    3    0    1
 -2      2624      2559      2918      3555
 -1      8725    3    0    1
 -2      2559      2624      2641      3555
 -1      8726    3    0    1
 -2      2643      2715      2772      3555
 -1      8727    3    0    1
 -2       956      1298      3253      3631
 -1      8728    3    0    1
 -2      2641      2624      2847      3555
 -1      8729    3    0    1
 -2       583       590      1757      3375
 -1      8730    3    0    1
 -2      3306      3638      3404      3703
 -1      8731    3    0    1
 -2      3115       673      1846      1847
 -1      8732    3    0    1
 -2      2696      3516      2771      3593
 -1      8733    3    0    1
 -2      3573      2699      3259      3360
 -1      8734    3    0    1
 -2      3129      3592      3662      3721
 -1      8735    3    0    1
 -2      1583      2699      3319      3360
 -1      8736    3    0    1
 -2      3011      2930      1771      1772
 -1      8737    3    0    1
 -2      1593      1528      3103      3329
 -1      8738    3    0    1
 -2      3678      3684      3407      3480
 -1      8739    3    0    1
 -2      1446      3096      3345      3393
 -1      8740    3    0    1
 -2      2815       900      3161      3603
 -1      8741    3    0    1
 -2       981      1305      3521      3716
 -1      8742    3    0    1
 -2      2688      2728      2825      3556
 -1      8743    3    0    1
 -2      2571      2804      2828      3556
 -1      8744    3    0    1
 -2      2863      3181      3673      3393
 -1      8745    3    0    1
 -2      2717      2627      3576      3242
 -1      8746    3    0    1
 -2      2828      2804      2903      3556
 -1      8747    3    0    1
 -2      3572      3512      3464      3723
 -1      8748    3    0    1
 -2      3520      1416      3590      3619
 -1      8749    3    0    1
 -2      2692      3409      3418      3455
 -1      8750    3    0    1
 -2      2676      2913      3177      3672
 -1      8751    3    0    1
 -2      2190      1316      3599      3686
 -1      8752    3    0    1
 -2      2834      2828      3004      3556
 -1      8753    3    0    1
 -2      2501      2471      2676      3558
 -1      8754    3    0    1
 -2      2691      3561      3621      3341
 -1      8755    3    0    1
 -2      3561      2693      3089      3341
 -1      8756    3    0    1
 -2      2139       956      3253      3631
 -1      8757    3    0    1
 -2      2958      1604      3040      3655
 -1      8758    3    0    1
 -2      1251      1257      2926      3558
 -1      8759    3    0    1
 -2      1764      1831      3320      3403
 -1      8760    3    0    1
 -2      1530       383      2970      1828
 -1      8761    3    0    1
 -2      2878      2664      3040      3655
 -1      8762    3    0    1
 -2      3501      2468      3563      3698
 -1      8763    3    0    1
 -2      1489      3075      3607      3363
 -1      8764    3    0    1
 -2      2701      2934      2995      3665
 -1      8765    3    0    1
 -2      2613      2805      2954      3559
 -1      8766    3    0    1
 -2      2820      3106      3161      3603
 -1      8767    3    0    1
 -2      1415      2611      2613      3559
 -1      8768    3    0    1
 -2      2574      2707      2909      3646
 -1      8769    3    0    1
 -2      2647      2763      3632      3665
 -1      8770    3    0    1
 -2      2692      3418      3424      3455
 -1      8771    3    0    1
 -2      1698      1197      2893      3559
 -1      8772    3    0    1
 -2      1809      1810      3181      1847
 -1      8773    3    0    1
 -2      2678      1195      2824      3559
 -1      8774    3    0    1
 -2      3153      1657      1887      1888
 -1      8775    3    0    1
 -2      1472      1471      3137      1808
 -1      8776    3    0    1
 -2      2744      2678      2824      3559
 -1      8777    3    0    1
 -2      1197      2789      2893      3559
 -1      8778    3    0    1
 -2      2918      3103      3321      3403
 -1      8779    3    0    1
 -2      2760      1066      3531      3635
 -1      8780    3    0    1
 -2      1620      2810      3245      3639
 -1      8781    3    0    1
 -2      1533      1534      3041      3084
 -1      8782    3    0    1
 -2       608      1711      2978      3560
 -1      8783    3    0    1
 -2      2723      2640      2883      3662
 -1      8784    3    0    1
 -2      1604      3040      3655      1874
 -1      8785    3    0    1
 -2       473       474      2574      3561
 -1      8786    3    0    1
 -2      3623      3538      3322      3655
 -1      8787    3    0    1
 -2      2898      2846      2991      3561
 -1      8788    3    0    1
 -2      2898      2991      3027      3561
 -1      8789    3    0    1
 -2      2574      2846      2898      3561
 -1      8790    3    0    1
 -2      3103      2918      3671      3403
 -1      8791    3    0    1
 -2      1539      3162      3166      3289
 -1      8792    3    0    1
 -2      1765      1764      3300      3321
 -1      8793    3    0    1
 -2      2479      2628      2886      3561
 -1      8794    3    0    1
 -2      1168      2574      2898      3561
 -1      8795    3    0    1
 -2      1528      3103      3329      3403
 -1      8796    3    0    1
 -2      3107      3002      3206      3622
 -1      8797    3    0    1
 -2      2805      2954      3559      3344
 -1      8798    3    0    1
 -2      2628      2680      2886      3561
 -1      8799    3    0    1
 -2       908      1168      2854      3561
 -1      8800    3    0    1
 -2      1168       473      2574      3561
 -1      8801    3    0    1
 -2      2922      1688      3212      3669
 -1      8802    3    0    1
 -2      3068      3284      3638      3404
 -1      8803    3    0    1
 -2       908       474      1168      3561
 -1      8804    3    0    1
 -2       474       908      2693      3561
 -1      8805    3    0    1
 -2       474       473      1168      3561
 -1      8806    3    0    1
 -2      1724       277      3634      1870
 -1      8807    3    0    1
 -2      1755      1756      3122      3302
 -1      8808    3    0    1
 -2      3122      3038      3610      3302
 -1      8809    3    0    1
 -2      2658      2607      3535      3675
 -1      8810    3    0    1
 -2      1755      3122      3610      3302
 -1      8811    3    0    1
 -2      2754      3051      3354      3454
 -1      8812    3    0    1
 -2      1411      3525      3587      3724
 -1      8813    3    0    1
 -2      2555      2477      3504      3417
 -1      8814    3    0    1
 -2       768      3025      3661      3478
 -1      8815    3    0    1
 -2      3505      2190      3203      3704
 -1      8816    3    0    1
 -2      3510      3544      3681      3715
 -1      8817    3    0    1
 -2      2477      1569      3416      3417
 -1      8818    3    0    1
 -2       900      2568      2790      3603
 -1      8819    3    0    1
 -2      2977       554      3149      3241
 -1      8820    3    0    1
 -2      3090      2621      3161      3603
 -1      8821    3    0    1
 -2      2121      2466      2467      3680
 -1      8822    3    0    1
 -2      1457      1650      2763      3665
 -1      8823    3    0    1
 -2      1493      1533      3041      3676
 -1      8824    3    0    1
 -2      1811      3252      3259      3360
 -1      8825    3    0    1
 -2      1443      1719      1720      3164
 -1      8826    3    0    1
 -2      1533      2906      1867      3676
 -1      8827    3    0    1
 -2      2527      2662      2770      3579
 -1      8828    3    0    1
 -2      1664      1665      3097      3123
 -1      8829    3    0    1
 -2      1646        13      1647      3330
 -1      8830    3    0    1
 -2      2699      3573      3319      3360
 -1      8831    3    0    1
 -2       991      2586      3542      3224
 -1      8832    3    0    1
 -2      2585      1304      3542      3224
 -1      8833    3    0    1
 -2      3549      2590      3308      3674
 -1      8834    3    0    1
 -2      1440      3071      1857      3473
 -1      8835    3    0    1
 -2      3429      3681      3414      1595
 -1      8836    3    0    1
 -2       171      1308      3684      3718
 -1      8837    3    0    1
 -2       981      1308      2319      3565
 -1      8838    3    0    1
 -2      2136      1308      3501      3565
 -1      8839    3    0    1
 -2      2213      2319      2456      3565
 -1      8840    3    0    1
 -2      2456      2468      2503      3565
 -1      8841    3    0    1
 -2      2319      2136      2456      3565
 -1      8842    3    0    1
 -2      1720      1719      3052      1803
 -1      8843    3    0    1
 -2      2474      3499      3578      3631
 -1      8844    3    0    1
 -2      2808      3509      3567      3666
 -1      8845    3    0    1
 -2      2136      3613      1308      3169
 -1      8846    3    0    1
 -2      2910      1567      3026      3053
 -1      8847    3    0    1
 -2      1568      1567      2910      3053
 -1      8848    3    0    1
 -2      1302       391      3617      3627
 -1      8849    3    0    1
 -2      1505      2953      3039      3278
 -1      8850    3    0    1
 -2      3523      2709      3606      3660
 -1      8851    3    0    1
 -2      1832      1844      3292      3660
 -1      8852    3    0    1
 -2      2091      3506      2807      3701
 -1      8853    3    0    1
 -2      1579      2897      1769      3335
 -1      8854    3    0    1
 -2      3067       807      1058      1336
 -1      8855    3    0    1
 -2      1533      1727      2935      3060
 -1      8856    3    0    1
 -2      2797      3533      3632      3665
 -1      8857    3    0    1
 -2      3063      1491      3318      3478
 -1      8858    3    0    1
 -2      2576      2668      3517      3568
 -1      8859    3    0    1
 -2      1572      2820      3106      3159
 -1      8860    3    0    1
 -2      3062        21      1534      1533
 -1      8861    3    0    1
 -2        67        21      1534      1879
 -1      8862    3    0    1
 -2      1431      3545      3586      3717
 -1      8863    3    0    1
 -2       184      1004      3732      1923
 -1      8864    3    0    1
 -2      1435      1653      3526      3575
 -1      8865    3    0    1
 -2      1700       128      1794      1797
 -1      8866    3    0    1
 -2      2797      3533      2989      3632
 -1      8867    3    0    1
 -2      1528      1527      1593      3103
 -1      8868    3    0    1
 -2       565      1713      1714      3094
 -1      8869    3    0    1
 -2      2701      2647      3636      3665
 -1      8870    3    0    1
 -2      3632      3533      3636      3665
 -1      8871    3    0    1
 -2      2760      3531      3583      3635
 -1      8872    3    0    1
 -2       422      1652      3189      3600
 -1      8873    3    0    1
 -2      2895      1767      1768      3370
 -1      8874    3    0    1
 -2      1755      1767      3324      3370
 -1      8875    3    0    1
 -2      3509      2211      2808      3567
 -1      8876    3    0    1
 -2      1483      2801      3059      3667
 -1      8877    3    0    1
 -2      3195      1455      3347      3667
 -1      8878    3    0    1
 -2      1443      1444      2895      1768
 -1      8879    3    0    1
 -2      3351      1763      1876      3374
 -1      8880    3    0    1
 -2      1412      2463      2801      3667
 -1      8881    3    0    1
 -2      2211      3509      3042      3567
 -1      8882    3    0    1
 -2      1672      3547      3003      3567
 -1      8883    3    0    1
 -2      1672      1497      3547      3567
 -1      8884    3    0    1
 -2      1769        22      1770      1817
 -1      8885    3    0    1
 -2      2801      1483      3348      3667
 -1      8886    3    0    1
 -2      2489      1483      3059      3667
 -1      8887    3    0    1
 -2      3324      1767      3645      3370
 -1      8888    3    0    1
 -2      1413      1483      2489      3667
 -1      8889    3    0    1
 -2      2842      2211      3042      3567
 -1      8890    3    0    1
 -2      2740      1774      1775      3347
 -1      8891    3    0    1
 -2      1455      1774      3248      3347
 -1      8892    3    0    1
 -2      1528      3133      3397      3727
 -1      8893    3    0    1
 -2      3567      1497      3666      3668
 -1      8894    3    0    1
 -2      3171      1528      3451      3727
 -1      8895    3    0    1
 -2      1629       768      3661      3478
 -1      8896    3    0    1
 -2      3060      1622      3062      1879
 -1      8897    3    0    1
 -2      2875      3558      3171      3727
 -1      8898    3    0    1
 -2      1497      1672      3003      3567
 -1      8899    3    0    1
 -2      2842      3042      3056      3567
 -1      8900    3    0    1
 -2      2211      2509      2808      3567
 -1      8901    3    0    1
 -2      1715      1561      3668      3725
 -1      8902    3    0    1
 -2      1170      2830      2976      3371
 -1      8903    3    0    1
 -2       553      2743      2896      3568
 -1      8904    3    0    1
 -2       553      1550      2743      3568
 -1      8905    3    0    1
 -2      1550      1517      2690      3568
 -1      8906    3    0    1
 -2      3510      2347      3586      3700
 -1      8907    3    0    1
 -2      1517      1469      2871      3568
 -1      8908    3    0    1
 -2      2690      1517      2871      3568
 -1      8909    3    0    1
 -2      1146      2661      3577      3372
 -1      8910    3    0    1
 -2      1425      3577      3235      3372
 -1      8911    3    0    1
 -2      1425      2831      3577      3372
 -1      8912    3    0    1
 -2      3510      3586      3648      3700
 -1      8913    3    0    1
 -2      3577      2661      3235      3372
 -1      8914    3    0    1
 -2      2516      2572      2639      3568
 -1      8915    3    0    1
 -2      2572      2516      2668      3568
 -1      8916    3    0    1
 -2      2890      1550      2896      3568
 -1      8917    3    0    1
 -2      2639      2572      2690      3568
 -1      8918    3    0    1
 -2      2576      2572      2668      3568
 -1      8919    3    0    1
 -2      2572      2652      2743      3568
 -1      8920    3    0    1
 -2      3024      3558      3391      3727
 -1      8921    3    0    1
 -2      2572      2576      2652      3568
 -1      8922    3    0    1
 -2      1550       553      2896      3568
 -1      8923    3    0    1
 -2      1517      1550      2890      3568
 -1      8924    3    0    1
 -2      2602      1146      3577      3372
 -1      8925    3    0    1
 -2      1469      1517      2890      3568
 -1      8926    3    0    1
 -2      2958      1750      3613      3647
 -1      8927    3    0    1
 -2       908      2693      2854      3276
 -1      8928    3    0    1
 -2       990      1312      3640      3647
 -1      8929    3    0    1
 -2      2211      2509      3567      3658
 -1      8930    3    0    1
 -2      1336      2429      3511      3067
 -1      8931    3    0    1
 -2      2271      1336      3511      3067
 -1      8932    3    0    1
 -2       807      2093      2429      3067
 -1      8933    3    0    1
 -2      1336       807      2429      3067
 -1      8934    3    0    1
 -2      1058      2093       807      3067
 -1      8935    3    0    1
 -2      1453      2609      2802      3287
 -1      8936    3    0    1
 -2      1539      1540      1747      3166
 -1      8937    3    0    1
 -2      3595      2765      3629      3639
 -1      8938    3    0    1
 -2      2091      2514      3514      3719
 -1      8939    3    0    1
 -2      2670      2598      2748      3664
 -1      8940    3    0    1
 -2      2746      3118      3119      3639
 -1      8941    3    0    1
 -2      1719      1720      3052      3285
 -1      8942    3    0    1
 -2      3510      1442      3527      3624
 -1      8943    3    0    1
 -2      2810       626      2850      3639
 -1      8944    3    0    1
 -2      1811        42      1816      1860
 -1      8945    3    0    1
 -2      1813      3327      3382      3465
 -1      8946    3    0    1
 -2      2091      2102      3142      3219
 -1      8947    3    0    1
 -2      3504      2458      2740      3670
 -1      8948    3    0    1
 -2      3504      2740      3667      3670
 -1      8949    3    0    1
 -2      3548       112      3449      3642
 -1      8950    3    0    1
 -2      2228      3496      3583      3456
 -1      8951    3    0    1
 -2      2832      3527      3533      3571
 -1      8952    3    0    1
 -2      2091      3514      3701      3719
 -1      8953    3    0    1
 -2      2903      3556      3272      3328
 -1      8954    3    0    1
 -2      1484      1483      3367      1925
 -1      8955    3    0    1
 -2        21      3060      3062      1879
 -1      8956    3    0    1
 -2      2709      2823      3606      3256
 -1      8957    3    0    1
 -2      3498      1421      3266      3402
 -1      8958    3    0    1
 -2      1561      3666      3668      3725
 -1      8959    3    0    1
 -2      1332       334      2412      3744
 -1      8960    3    0    1
 -2      1489      1709      1710      3275
 -1      8961    3    0    1
 -2      2598      2737      2882      3571
 -1      8962    3    0    1
 -2      2598      2882      2959      3571
 -1      8963    3    0    1
 -2      2989      2629      2997      3571
 -1      8964    3    0    1
 -2      2737      2598      2754      3571
 -1      8965    3    0    1
 -2        57      1913      1924      1925
 -1      8966    3    0    1
 -2      2740      3130      3248      3670
 -1      8967    3    0    1
 -2      2748      2959      2973      3571
 -1      8968    3    0    1
 -2      1421      3498      3589      3402
 -1      8969    3    0    1
 -2      1497      3003      3056      3668
 -1      8970    3    0    1
 -2      2643      2715      3580      3671
 -1      8971    3    0    1
 -2      2615      2603      3523      3606
 -1      8972    3    0    1
 -2       145        20      1616      3374
 -1      8973    3    0    1
 -2      3248      3195      3667      3670
 -1      8974    3    0    1
 -2      1505      2954      3331      3344
 -1      8975    3    0    1
 -2      3523      2626      3601      3660
 -1      8976    3    0    1
 -2      3020      3705      3399      3401
 -1      8977    3    0    1
 -2      2709      3523      3601      3660
 -1      8978    3    0    1
 -2      2956      1503      3187      3687
 -1      8979    3    0    1
 -2      2627      1433      2862      3074
 -1      8980    3    0    1
 -2      1657      2912      3554      3623
 -1      8981    3    0    1
 -2      1606      1607      1790      3298
 -1      8982    3    0    1
 -2        24        25      1626      1791
 -1      8983    3    0    1
 -2      2757       644      2916      3671
 -1      8984    3    0    1
 -2      2916       644      2962      3671
 -1      8985    3    0    1
 -2      3071      3218      1857      3473
 -1      8986    3    0    1
 -2      2765      2640      2931      3662
 -1      8987    3    0    1
 -2      1593      1594      2962      3103
 -1      8988    3    0    1
 -2      2471      2648      2676      3672
 -1      8989    3    0    1
 -2      1641      1640      2985      3077
 -1      8990    3    0    1
 -2      3615      3572      3464      3723
 -1      8991    3    0    1
 -2      3512      1294      3578      3723
 -1      8992    3    0    1
 -2      1573      1572      3159      3229
 -1      8993    3    0    1
 -2      2642      2632      3550      3612
 -1      8994    3    0    1
 -2      3599      1316      3628      3686
 -1      8995    3    0    1
 -2      3169      3513      2500      2136
 -1      8996    3    0    1
 -2      3168      2500      3169      3640
 -1      8997    3    0    1
 -2      2936      1778      1779      3245
 -1      8998    3    0    1
 -2      2850      1555      3706      3470
 -1      8999    3    0    1
 -2      2527      2655      3535      3579
 -1      9000    3    0    1
 -2      1441      1440      3071      1858
 -1      9001    3    0    1
 -2      1936       636      2417      3392
 -1      9002    3    0    1
 -2       786      1731      3202      3336
 -1      9003    3    0    1
 -2       426      3608      1837      3378
 -1      9004    3    0    1
 -2      3506      3505      2807      3686
 -1      9005    3    0    1
 -2      3071      1440      1857      1858
 -1      9006    3    0    1
 -2      1257      2926      3558      1880
 -1      9007    3    0    1
 -2      1326      2813      3689      3741
 -1      9008    3    0    1
 -2      2637      2593      3549      3659
 -1      9009    3    0    1
 -2      3558      2908      3654      3672
 -1      9010    3    0    1
 -2      3525      3495      3605      3694
 -1      9011    3    0    1
 -2        26         1      1813      3350
 -1      9012    3    0    1
 -2      1516       229      1602      3694
 -1      9013    3    0    1
 -2      3113      3181      3183      3673
 -1      9014    3    0    1
 -2      3549      2711      3311      3674
 -1      9015    3    0    1
 -2      2116      1024      3525      3587
 -1      9016    3    0    1
 -2      1457      2699      3012      3573
 -1      9017    3    0    1
 -2      1542      1541      2980      1841
 -1      9018    3    0    1
 -2      1704      1416      3541      3619
 -1      9019    3    0    1
 -2      1650      1457      3012      3573
 -1      9020    3    0    1
 -2      2483      2461      3498      3427
 -1      9021    3    0    1
 -2      1308      3019      3623      1887
 -1      9022    3    0    1
 -2      3021      2467      3232      3618
 -1      9023    3    0    1
 -2      2460      2617      2633      3573
 -1      9024    3    0    1
 -2      1787      1786      3305      3373
 -1      9025    3    0    1
 -2      2617      2460      2671      3573
 -1      9026    3    0    1
 -2      2633      2617      2786      3573
 -1      9027    3    0    1
 -2      3528      3508      3548      3642
 -1      9028    3    0    1
 -2      1539      1540      3087      3190
 -1      9029    3    0    1
 -2      2733      2880      2923      3573
 -1      9030    3    0    1
 -2      3007      1489      3341      3349
 -1      9031    3    0    1
 -2      2699      2617      3012      3573
 -1      9032    3    0    1
 -2      1473      1696      3555      3359
 -1      9033    3    0    1
 -2      2617      2671      3012      3573
 -1      9034    3    0    1
 -2      1653       101      1708      3585
 -1      9035    3    0    1
 -2      2554      3625      3413      3437
 -1      9036    3    0    1
 -2       572      3269      3621      3349
 -1      9037    3    0    1
 -2      3526      3531      2228      2525
 -1      9038    3    0    1
 -2        80      1765      3446        69
 -1      9039    3    0    1
 -2      1457      1650      2923      3573
 -1      9040    3    0    1
 -2       128      1700      3566      1797
 -1      9041    3    0    1
 -2      3535      2607      3132      3188
 -1      9042    3    0    1
 -2      2860      1600      2965      3102
 -1      9043    3    0    1
 -2      1537      1495      3294      3674
 -1      9044    3    0    1
 -2      1622      3060      3061      3116
 -1      9045    3    0    1
 -2      3085      2719      3352      3721
 -1      9046    3    0    1
 -2      1714      1713      2937      3205
 -1      9047    3    0    1
 -2      3501      3563      3565      3663
 -1      9048    3    0    1
 -2      1463      2662      1776      1777
 -1      9049    3    0    1
 -2      1463      1464      2662      1777
 -1      9050    3    0    1
 -2      1537      2849      1743      3674
 -1      9051    3    0    1
 -2      3061      1430      3116      3385
 -1      9052    3    0    1
 -2      1489      1490      3007      3275
 -1      9053    3    0    1
 -2      1483      1484      3059      3120
 -1      9054    3    0    1
 -2      2528      2243      3588      3392
 -1      9055    3    0    1
 -2      1581      1582      2917      1781
 -1      9056    3    0    1
 -2      3513      1410      3342      3389
 -1      9057    3    0    1
 -2      3602      3557      3634      3653
 -1      9058    3    0    1
 -2      2663      2877      3538      3654
 -1      9059    3    0    1
 -2      2188       193      3693      3410
 -1      9060    3    0    1
 -2      2691      1709      3275      3341
 -1      9061    3    0    1
 -2      1612      1613      2809      3223
 -1      9062    3    0    1
 -2      1581      2917      1780      1781
 -1      9063    3    0    1
 -2      2590      2517      3549      3659
 -1      9064    3    0    1
 -2      3602      2465      3618      3634
 -1      9065    3    0    1
 -2      2711      3549      3308      3674
 -1      9066    3    0    1
 -2      2711      3308      3311      3674
 -1      9067    3    0    1
 -2      2689      2752      3045      3622
 -1      9068    3    0    1
 -2      2941      2945      3646      3692
 -1      9069    3    0    1
 -2      1450      1678      1679      3261
 -1      9070    3    0    1
 -2       607       964      2242      3590
 -1      9071    3    0    1
 -2      2817      2866      3541      3266
 -1      9072    3    0    1
 -2      2566      2783      3387      3679
 -1      9073    3    0    1
 -2      2915      3555      3320      3403
 -1      9074    3    0    1
 -2      2937      2660      3205      3621
 -1      9075    3    0    1
 -2      1527      1528      1764      3321
 -1      9076    3    0    1
 -2      1546      1684      3215      3650
 -1      9077    3    0    1
 -2      3292      1832      1896      1897
 -1      9078    3    0    1
 -2      3085      1716      1558      1557
 -1      9079    3    0    1
 -2       227      2263      3543      3582
 -1      9080    3    0    1
 -2       376       227      3543      3582
 -1      9081    3    0    1
 -2      1608      3546      3611      3434
 -1      9082    3    0    1
 -2      3409      1898      3418      3455
 -1      9083    3    0    1
 -2      1006      1316      2790      3598
 -1      9084    3    0    1
 -2      3042      3056      3668      3477
 -1      9085    3    0    1
 -2      2636      3549      3243      3388
 -1      9086    3    0    1
 -2      2726      1736      3633      3380
 -1      9087    3    0    1
 -2      3391      3558      3451      3727
 -1      9088    3    0    1
 -2      1636      1736      3111      3380
 -1      9089    3    0    1
 -2      1736      2726      3111      3380
 -1      9090    3    0    1
 -2      1650      1553      2923      3574
 -1      9091    3    0    1
 -2      2671      2867      3012      3574
 -1      9092    3    0    1
 -2      2671      2460      3057      3574
 -1      9093    3    0    1
 -2      2568      1006      2790      3598
 -1      9094    3    0    1
 -2      1610      1489      3007      3349
 -1      9095    3    0    1
 -2      1654      1636      3584      3380
 -1      9096    3    0    1
 -2      1568      1567      2992      3098
 -1      9097    3    0    1
 -2      2406      1043      2513      3582
 -1      9098    3    0    1
 -2       243       330      3543      3582
 -1      9099    3    0    1
 -2      1038      1043      2406      3582
 -1      9100    3    0    1
 -2      1786       727      1787      3130
 -1      9101    3    0    1
 -2      1851      1809      1852      3469
 -1      9102    3    0    1
 -2      1612      3037      1839      3032
 -1      9103    3    0    1
 -2      1623      1507      1624      3301
 -1      9104    3    0    1
 -2      2605      2536      2726      3633
 -1      9105    3    0    1
 -2      2859      2762      3265      3636
 -1      9106    3    0    1
 -2      1774      2740      1775      3130
 -1      9107    3    0    1
 -2      3078      3662      3706      3470
 -1      9108    3    0    1
 -2      3014      3005      3110      3447
 -1      9109    3    0    1
 -2      1780      1581      3109      3622
 -1      9110    3    0    1
 -2      1612      2809      3099      3576
 -1      9111    3    0    1
 -2      2655      3535      3099      3576
 -1      9112    3    0    1
 -2      2809      2655      3099      3576
 -1      9113    3    0    1
 -2      3499      2427      3512      3638
 -1      9114    3    0    1
 -2      1818      3205      3286      3405
 -1      9115    3    0    1
 -2       327       166      3542      3224
 -1      9116    3    0    1
 -2      1635      2588      3599      3234
 -1      9117    3    0    1
 -2      3541      3498      3427      3714
 -1      9118    3    0    1
 -2       166       328      3542      3224
 -1      9119    3    0    1
 -2      2627      2481      2717      3576
 -1      9120    3    0    1
 -2      2683      2952      3099      3576
 -1      9121    3    0    1
 -2      2717      2481      2809      3576
 -1      9122    3    0    1
 -2      2952      1612      3099      3576
 -1      9123    3    0    1
 -2      1450      3242      1865      1866
 -1      9124    3    0    1
 -2       171      1887      1888      1893
 -1      9125    3    0    1
 -2      1450      1678      2952      3576
 -1      9126    3    0    1
 -2      2481      2655      2809      3576
 -1      9127    3    0    1
 -2      1678      1612      2952      3576
 -1      9128    3    0    1
 -2      1524      2782      1782      1783
 -1      9129    3    0    1
 -2      1524      1525      2782      1783
 -1      9130    3    0    1
 -2      1503      1504      2780      3101
 -1      9131    3    0    1
 -2      1503      1465      1504      3101
 -1      9132    3    0    1
 -2      2602      2661      2785      3577
 -1      9133    3    0    1
 -2      2651      2799      3530      3396
 -1      9134    3    0    1
 -2      1832      1833      3273      1897
 -1      9135    3    0    1
 -2      1581      3045      1874      1875
 -1      9136    3    0    1
 -2      1633      1473      1634      3216
 -1      9137    3    0    1
 -2      3547      3003      3050      1793
 -1      9138    3    0    1
 -2      3138       763      1871      1872
 -1      9139    3    0    1
 -2      1336      1058      3067      3602
 -1      9140    3    0    1
 -2       421      3615      3464      3723
 -1      9141    3    0    1
 -2      1748       387      3267      3646
 -1      9142    3    0    1
 -2       786       781      1731      3222
 -1      9143    3    0    1
 -2      3300      2918      3321      3403
 -1      9144    3    0    1
 -2      2978      2969      3560      3260
 -1      9145    3    0    1
 -2      1750      1753      3001      3652
 -1      9146    3    0    1
 -2      1465      2796      2818      3687
 -1      9147    3    0    1
 -2      3547      1672      3003      1793
 -1      9148    3    0    1
 -2      1992       717      2274      3201
 -1      9149    3    0    1
 -2      2886      2991      3027      3288
 -1      9150    3    0    1
 -2      1517      2887      3027      3288
 -1      9151    3    0    1
 -2      1780      1581      1781      3109
 -1      9152    3    0    1
 -2       182       196      3628      3428
 -1      9153    3    0    1
 -2      3095      3504      3667      3670
 -1      9154    3    0    1
 -2      1640      1757      1758      3377
 -1      9155    3    0    1
 -2      3108      2569      3273      3343
 -1      9156    3    0    1
 -2       277      3634      1870      3653
 -1      9157    3    0    1
 -2      1451      1450      1679      3261
 -1      9158    3    0    1
 -2      1673      1431      3648      3452
 -1      9159    3    0    1
 -2      1489      3075      3132      3607
 -1      9160    3    0    1
 -2       319      1545      3587      3730
 -1      9161    3    0    1
 -2      1688      2651      3213      3396
 -1      9162    3    0    1
 -2      3545      1431      3586      3608
 -1      9163    3    0    1
 -2      2121      2427      2919      3680
 -1      9164    3    0    1
 -2       425       241      1862      3720
 -1      9165    3    0    1
 -2      3511       253      3643      1049
 -1      9166    3    0    1
 -2      3511      3545      3586      3608
 -1      9167    3    0    1
 -2      2492      2523      2831      3577
 -1      9168    3    0    1
 -2      2667      2492      2831      3577
 -1      9169    3    0    1
 -2       572       565      2714      3369
 -1      9170    3    0    1
 -2       319       430      1545      3730
 -1      9171    3    0    1
 -2      1722      1475      3212      3669
 -1      9172    3    0    1
 -2      2922      2870      3100      3669
 -1      9173    3    0    1
 -2       750      1688      2922      3669
 -1      9174    3    0    1
 -2      2831      2523      3065      3577
 -1      9175    3    0    1
 -2      2733      3530      3574      3396
 -1      9176    3    0    1
 -2      3200       750      3379      3396
 -1      9177    3    0    1
 -2      3571      2989      3632      3669
 -1      9178    3    0    1
 -2      1894      1765        80        69
 -1      9179    3    0    1
 -2      3150      2751      3591      3395
 -1      9180    3    0    1
 -2      2744      2789      3559      3661
 -1      9181    3    0    1
 -2       565      1610      1611      3269
 -1      9182    3    0    1
 -2      2523      2491      2587      3577
 -1      9183    3    0    1
 -2      3322      1604      3655      1874
 -1      9184    3    0    1
 -2      2793      3560      3260      3365
 -1      9185    3    0    1
 -2       610      1298      2242      3253
 -1      9186    3    0    1
 -2      2621      3090      3161      3204
 -1      9187    3    0    1
 -2      3048      1471      3136      3304
 -1      9188    3    0    1
 -2      2784      1479      2947      3184
 -1      9189    3    0    1
 -2      1654      2784      2981      3184
 -1      9190    3    0    1
 -2      3587      1024      3167      3641
 -1      9191    3    0    1
 -2      1294       956      3578      3675
 -1      9192    3    0    1
 -2      3499      2427      2290      2474
 -1      9193    3    0    1
 -2      1486      1485      2996      1825
 -1      9194    3    0    1
 -2      1743      2849      1744      1856
 -1      9195    3    0    1
 -2      3240       698      1896      3445
 -1      9196    3    0    1
 -2      3240      3606      3687      3445
 -1      9197    3    0    1
 -2      2830      2600      2976      3114
 -1      9198    3    0    1
 -2      2461      2290      3520      3638
 -1      9199    3    0    1
 -2      2976      1172      1761      3114
 -1      9200    3    0    1
 -2       169        81      1744      1856
 -1      9201    3    0    1
 -2      2865      3148      3597      3677
 -1      9202    3    0    1
 -2      2551      2649      3061      3116
 -1      9203    3    0    1
 -2      3194      2865      3597      3677
 -1      9204    3    0    1
 -2      3030      1638      3260      3702
 -1      9205    3    0    1
 -2      1560      1559      3117      1787
 -1      9206    3    0    1
 -2      2474      3499      3512      3578
 -1      9207    3    0    1
 -2      2139      2474      3512      3578
 -1      9208    3    0    1
 -2      2932      3612      3620      3676
 -1      9209    3    0    1
 -2      1567      1568      2992      1795
 -1      9210    3    0    1
 -2      2792      2632      3612      3676
 -1      9211    3    0    1
 -2      3533      2762      3258      3636
 -1      9212    3    0    1
 -2      3084      1533      1867      3676
 -1      9213    3    0    1
 -2       267      1064      2364      1920
 -1      9214    3    0    1
 -2       732       727      1786      3130
 -1      9215    3    0    1
 -2      1493      3041      3124      3676
 -1      9216    3    0    1
 -2      1493      3124      3125      3676
 -1      9217    3    0    1
 -2      3311      3243      3674      1883
 -1      9218    3    0    1
 -2      2849      3243      1856      1883
 -1      9219    3    0    1
 -2       329      3594      3604      3729
 -1      9220    3    0    1
 -2       956      2658      3026      3578
 -1      9221    3    0    1
 -2      3612      3550      3620      3676
 -1      9222    3    0    1
 -2      1567       956      3026      3578
 -1      9223    3    0    1
 -2      2906      2932      3620      3676
 -1      9224    3    0    1
 -2      2632      3550      3612      3676
 -1      9225    3    0    1
 -2      1425      1511      1512      3146
 -1      9226    3    0    1
 -2      3109      1780      3622      3298
 -1      9227    3    0    1
 -2      3559      2744      3661      3697
 -1      9228    3    0    1
 -2      2680      1437      3073      3644
 -1      9229    3    0    1
 -2      2545      2486      3641      3366
 -1      9230    3    0    1
 -2      3645      2563      3661      3697
 -1      9231    3    0    1
 -2      2858      1546      3215      3650
 -1      9232    3    0    1
 -2      1486      1485      1825      3384
 -1      9233    3    0    1
 -2      2744      3083      3645      3697
 -1      9234    3    0    1
 -2      2637      2940      3659      3673
 -1      9235    3    0    1
 -2      1853      3296      3340      3466
 -1      9236    3    0    1
 -2      1716      1493      3124      3125
 -1      9237    3    0    1
 -2       154        68      1788      3385
 -1      9238    3    0    1
 -2       241       425      3209      1885
 -1      9239    3    0    1
 -2      3657      3192      3453      3457
 -1      9240    3    0    1
 -2      2906      3034      1867      3676
 -1      9241    3    0    1
 -2      1455      3092      3228      3677
 -1      9242    3    0    1
 -2      3280      2633      3346      3677
 -1      9243    3    0    1
 -2       732      3194      3233      3677
 -1      9244    3    0    1
 -2      2633      3573      3346      3677
 -1      9245    3    0    1
 -2       991      2585      2586      3224
 -1      9246    3    0    1
 -2      1627      2694      2905      3313
 -1      9247    3    0    1
 -2      2786      3252      1515      3145
 -1      9248    3    0    1
 -2      1333      3591      3643      3482
 -1      9249    3    0    1
 -2      1624      2535      2930      3593
 -1      9250    3    0    1
 -2      3555      2891      3196      3481
 -1      9251    3    0    1
 -2      1648      1499      3227      3683
 -1      9252    3    0    1
 -2      2623      3517      1741      3740
 -1      9253    3    0    1
 -2      3590      2242      3253      3627
 -1      9254    3    0    1
 -2      2876      2587      3606      3235
 -1      9255    3    0    1
 -2      3513      1694      3647      3651
 -1      9256    3    0    1
 -2      3577      2876      3606      3235
 -1      9257    3    0    1
 -2      2523      3065      3577      3235
 -1      9258    3    0    1
 -2       410      3540      3647      3651
 -1      9259    3    0    1
 -2      1635       316      1685      3234
 -1      9260    3    0    1
 -2       180       410      1752      3651
 -1      9261    3    0    1
 -2      1694      1752      3647      3651
 -1      9262    3    0    1
 -2      3540      3513      3647      3651
 -1      9263    3    0    1
 -2      1165      1703      3036      3127
 -1      9264    3    0    1
 -2      3036      1703      3074      3127
 -1      9265    3    0    1
 -2       410       180      1801      3651
 -1      9266    3    0    1
 -2      1709      3132      3607      3386
 -1      9267    3    0    1
 -2      1719      2657      3152      3164
 -1      9268    3    0    1
 -2      1024       229      3587      3167
 -1      9269    3    0    1
 -2      1565      1440      2848      3167
 -1      9270    3    0    1
 -2      1442      3527      1729      3664
 -1      9271    3    0    1
 -2      2427      2684      3572      3680
 -1      9272    3    0    1
 -2      3563      1730      3678      3480
 -1      9273    3    0    1
 -2       253      1336      3511      3656
 -1      9274    3    0    1
 -2      2677      3675      3690      3459
 -1      9275    3    0    1
 -2      1322      2798      3666      3724
 -1      9276    3    0    1
 -2      2655      2527      2770      3579
 -1      9277    3    0    1
 -2      1417      3506      2807      3686
 -1      9278    3    0    1
 -2      2527      2530      2662      3579
 -1      9279    3    0    1
 -2      2932      2906      3612      3676
 -1      9280    3    0    1
 -2      1661      1522      2857      3308
 -1      9281    3    0    1
 -2      2655      2770      3076      3579
 -1      9282    3    0    1
 -2      2662      2530      2910      3579
 -1      9283    3    0    1
 -2      3026      1640      1776      3579
 -1      9284    3    0    1
 -2      2910      2530      3053      3579
 -1      9285    3    0    1
 -2      1463      3026      1776      3579
 -1      9286    3    0    1
 -2        26         1      1855      3382
 -1      9287    3    0    1
 -2      3065      1425      3577      3235
 -1      9288    3    0    1
 -2      1432      3548      3368      3680
 -1      9289    3    0    1
 -2       727      1786      1787      3233
 -1      9290    3    0    1
 -2       316      1635      3599      3234
 -1      9291    3    0    1
 -2      3141      3091      3637      3334
 -1      9292    3    0    1
 -2      2665      3549      3236      3462
 -1      9293    3    0    1
 -2      1786      3117      1787      3233
 -1      9294    3    0    1
 -2      1471      1646      3048      3136
 -1      9295    3    0    1
 -2      1471      1646      1647      3175
 -1      9296    3    0    1
 -2      1508      1507      2907      3301
 -1      9297    3    0    1
 -2      1758      1757      3077      3375
 -1      9298    3    0    1
 -2      3356      1877      1887      1888
 -1      9299    3    0    1
 -2      2559      2918      3555      3580
 -1      9300    3    0    1
 -2      2641      2559      3555      3580
 -1      9301    3    0    1
 -2      1424      2591      1792      3388
 -1      9302    3    0    1
 -2      1004      1009      3732      1922
 -1      9303    3    0    1
 -2      3520      3541      3619      3627
 -1      9304    3    0    1
 -2      1559      3143      3670      3688
 -1      9305    3    0    1
 -2      1614      1479      2894      3584
 -1      9306    3    0    1
 -2      1686      3243      3311      1883
 -1      9307    3    0    1
 -2      1646      1647      3175      3330
 -1      9308    3    0    1
 -2      2573      2559      2741      3580
 -1      9309    3    0    1
 -2       949      3572      3615      3723
 -1      9310    3    0    1
 -2      2741      2559      3135      3580
 -1      9311    3    0    1
 -2      2798      3509      2808      3666
 -1      9312    3    0    1
 -2       662      2713      2739      3672
 -1      9313    3    0    1
 -2      2648      2713      3279      3672
 -1      9314    3    0    1
 -2      2559      2641      3135      3580
 -1      9315    3    0    1
 -2      3522      2529      2971      3593
 -1      9316    3    0    1
 -2      1523      1522      2913      3279
 -1      9317    3    0    1
 -2      2796      1465      2822      3687
 -1      9318    3    0    1
 -2      1503      2822      3035      3687
 -1      9319    3    0    1
 -2      3540      3514      1753      3652
 -1      9320    3    0    1
 -2      2836      3079      3080      3581
 -1      9321    3    0    1
 -2      2836      2712      3079      3581
 -1      9322    3    0    1
 -2      3544      2459      3569      3715
 -1      9323    3    0    1
 -2      2728      2688      2964      3581
 -1      9324    3    0    1
 -2      2834      2502      2955      3581
 -1      9325    3    0    1
 -2      2698      2834      2955      3581
 -1      9326    3    0    1
 -2      2502      2821      2955      3581
 -1      9327    3    0    1
 -2      2502      2834      2860      3581
 -1      9328    3    0    1
 -2      2860      2834      3004      3581
 -1      9329    3    0    1
 -2      1750       410      1753      3652
 -1      9330    3    0    1
 -2      1579      2864      2897      3335
 -1      9331    3    0    1
 -2      2290      2464      2483      3627
 -1      9332    3    0    1
 -2      3533      2762      3237      3258
 -1      9333    3    0    1
 -2      2503      2066      3500      3427
 -1      9334    3    0    1
 -2      3565      3563      3630      3678
 -1      9335    3    0    1
 -2      2630      2557      3595      3639
 -1      9336    3    0    1
 -2      2651      1688      3213      3309
 -1      9337    3    0    1
 -2      1809      1810      3191      3469
 -1      9338    3    0    1
 -2      2513      2384      2705      3582
 -1      9339    3    0    1
 -2      2087      2100      3657      3717
 -1      9340    3    0    1
 -2      3090      1671      3217      1911
 -1      9341    3    0    1
 -2      1543       395      2999      3630
 -1      9342    3    0    1
 -2      2091      2102      2514      3142
 -1      9343    3    0    1
 -2      2958      3040      3623      3655
 -1      9344    3    0    1
 -2      2878      1581      2917      3655
 -1      9345    3    0    1
 -2      1604      2958      3322      3655
 -1      9346    3    0    1
 -2      3526      3176      3270      3680
 -1      9347    3    0    1
 -2      3528      3526      3642      3680
 -1      9348    3    0    1
 -2      3549      2591      3674      3388
 -1      9349    3    0    1
 -2      3252      2786      1515      3259
 -1      9350    3    0    1
 -2      2550      1424      2849      3674
 -1      9351    3    0    1
 -2        13      1792      3330      3388
 -1      9352    3    0    1
 -2       949      1289       571      3646
 -1      9353    3    0    1
 -2       450       554      1736      3149
 -1      9354    3    0    1
 -2       554       450      2925      3149
 -1      9355    3    0    1
 -2      1559      1560      3218      1858
 -1      9356    3    0    1
 -2      2978      2932      3560      3620
 -1      9357    3    0    1
 -2      1806      1415      3211      3303
 -1      9358    3    0    1
 -2      3551      1409      3602      3634
 -1      9359    3    0    1
 -2      2710      3633      3584      2536
 -1      9360    3    0    1
 -2      1640      1641      1777      3377
 -1      9361    3    0    1
 -2      3181      3113      3183      1846
 -1      9362    3    0    1
 -2      2687      1305      3630      3716
 -1      9363    3    0    1
 -2      1641      1640      1758      3377
 -1      9364    3    0    1
 -2      1654      1636      3111      3584
 -1      9365    3    0    1
 -2      2666      1654      3111      3584
 -1      9366    3    0    1
 -2      2811      3048      3603      3304
 -1      9367    3    0    1
 -2      2550      1424      3674      3388
 -1      9368    3    0    1
 -2      1471      1807      3180      3304
 -1      9369    3    0    1
 -2      1424      3243      3674      3388
 -1      9370    3    0    1
 -2      2753      2654      2894      3584
 -1      9371    3    0    1
 -2      2505      2654      2753      3584
 -1      9372    3    0    1
 -2      2753      2894      2938      3584
 -1      9373    3    0    1
 -2      2666      2753      2938      3584
 -1      9374    3    0    1
 -2      2666      2505      2753      3584
 -1      9375    3    0    1
 -2      1614      1066      2900      3584
 -1      9376    3    0    1
 -2      2505      2529      2654      3584
 -1      9377    3    0    1
 -2      1479      1614      2900      3584
 -1      9378    3    0    1
 -2      2726      2666      3111      3584
 -1      9379    3    0    1
 -2      2536      2666      2726      3584
 -1      9380    3    0    1
 -2      2505      2666      2710      3584
 -1      9381    3    0    1
 -2      1066      2526      2900      3584
 -1      9382    3    0    1
 -2      2529      1422      2654      3584
 -1      9383    3    0    1
 -2      1654      1479      2900      3584
 -1      9384    3    0    1
 -2      2772      3555      3359      3381
 -1      9385    3    0    1
 -2      2666      2536      2710      3584
 -1      9386    3    0    1
 -2      2636      1498      3236      3388
 -1      9387    3    0    1
 -2       673       680      3115      1846
 -1      9388    3    0    1
 -2      1741      1742      3147      3238
 -1      9389    3    0    1
 -2      2487      1255      2558      3493
 -1      9390    3    0    1
 -2       554      2726      1736      3633
 -1      9391    3    0    1
 -2       387       949      3615      3723
 -1      9392    3    0    1
 -2      2842      2211      3567      3658
 -1      9393    3    0    1
 -2      1417      1635      3524      3658
 -1      9394    3    0    1
 -2      1575      1574      1732      3193
 -1      9395    3    0    1
 -2       655      1522      1523      3279
 -1      9396    3    0    1
 -2      2347      2478      2704      3586
 -1      9397    3    0    1
 -2      3508      1530      3548      3646
 -1      9398    3    0    1
 -2      3573      2460      3574      3597
 -1      9399    3    0    1
 -2      1610      3007      3269      3349
 -1      9400    3    0    1
 -2      1755      2944      1756      3370
 -1      9401    3    0    1
 -2      2798      1322      3525      3587
 -1      9402    3    0    1
 -2      1767      1755      1768      3370
 -1      9403    3    0    1
 -2      2127       771      2284      3316
 -1      9404    3    0    1
 -2       681      1312      2185      3168
 -1      9405    3    0    1
 -2       572      2714      3363      3369
 -1      9406    3    0    1
 -2        77       207      1901      3474
 -1      9407    3    0    1
 -2       626       619      3134      3312
 -1      9408    3    0    1
 -2       771       770      2284      3316
 -1      9409    3    0    1
 -2      1411      2482      1545      3587
 -1      9410    3    0    1
 -2      1411      1545      3509      3724
 -1      9411    3    0    1
 -2      1322       319      1501      3587
 -1      9412    3    0    1
 -2      2369      2817      3563      3314
 -1      9413    3    0    1
 -2      1322      1501      2522      3587
 -1      9414    3    0    1
 -2       619       626      1829      3312
 -1      9415    3    0    1
 -2      2085       279      2442      3707
 -1      9416    3    0    1
 -2      1750      1751      3001      1801
 -1      9417    3    0    1
 -2      3538      2484      3654      3655
 -1      9418    3    0    1
 -2       207        77      1511      3474
 -1      9419    3    0    1
 -2      2814      2883      2935      3592
 -1      9420    3    0    1
 -2      2964      2728      3581      3390
 -1      9421    3    0    1
 -2      1670      1546      2794        50
 -1      9422    3    0    1
 -2      1546      1670      2794      3151
 -1      9423    3    0    1
 -2      1549      2794      1670      3151
 -1      9424    3    0    1
 -2       607      1298      3590       610
 -1      9425    3    0    1
 -2        40       263      1800      1892
 -1      9426    3    0    1
 -2      2996      1485      3325      3649
 -1      9427    3    0    1
 -2      2905      2694      3553      3649
 -1      9428    3    0    1
 -2       346       157      3588      1889
 -1      9429    3    0    1
 -2      3001      2689      3206      3685
 -1      9430    3    0    1
 -2      1658      1657      3153      1888
 -1      9431    3    0    1
 -2       984      3588      1889      1890
 -1      9432    3    0    1
 -2      2528      2243      2544      3588
 -1      9433    3    0    1
 -2      1620      1829      3639      3471
 -1      9434    3    0    1
 -2       645       396       984      1890
 -1      9435    3    0    1
 -2       984       396      2544      1890
 -1      9436    3    0    1
 -2      1316      2982      3599      3448
 -1      9437    3    0    1
 -2       421       387      1748      3615
 -1      9438    3    0    1
 -2      2628      2680      3561      3644
 -1      9439    3    0    1
 -2       140      1836      3617      3271
 -1      9440    3    0    1
 -2      3514      3540      1753      3719
 -1      9441    3    0    1
 -2      3521      2768      3155      3156
 -1      9442    3    0    1
 -2      1499      1648      1649      3156
 -1      9443    3    0    1
 -2      1535       698      3625      3437
 -1      9444    3    0    1
 -2      2514      2091      3142      3719
 -1      9445    3    0    1
 -2       171       429      1877      3684
 -1      9446    3    0    1
 -2      1520      1519      2755      3156
 -1      9447    3    0    1
 -2      1519      1520      1649      3156
 -1      9448    3    0    1
 -2      3513      2514      3342      3719
 -1      9449    3    0    1
 -2      1648      1519      1649      3156
 -1      9450    3    0    1
 -2      2979      2945      3066      3646
 -1      9451    3    0    1
 -2      3306      3539      3638      3703
 -1      9452    3    0    1
 -2      2751      2659      2924      3591
 -1      9453    3    0    1
 -2      3508       949      3615      3646
 -1      9454    3    0    1
 -2      2983      1588      3033      3692
 -1      9455    3    0    1
 -2      2789      2744      3020      3591
 -1      9456    3    0    1
 -2      1625      1791      3043        24
 -1      9457    3    0    1
 -2      3621      3162      3289      3646
 -1      9458    3    0    1
 -2      1604      1750      3001      3206
 -1      9459    3    0    1
 -2       195      1680      1682      3159
 -1      9460    3    0    1
 -2       195      1572      1680      3159
 -1      9461    3    0    1
 -2      1721      3152      1802      3596
 -1      9462    3    0    1
 -2      2951      3002      3622      3685
 -1      9463    3    0    1
 -2      2470      3255      3670      3688
 -1      9464    3    0    1
 -2      3152      1719      1802      3596
 -1      9465    3    0    1
 -2      2601      1409      1724      3596
 -1      9466    3    0    1
 -2      3143      3167      3641      3688
 -1      9467    3    0    1
 -2       277      1058      2825      3596
 -1      9468    3    0    1
 -2       957       906      2547      3433
 -1      9469    3    0    1
 -2      3003      3547      3050      3658
 -1      9470    3    0    1
 -2      3547      3003      3567      3658
 -1      9471    3    0    1
 -2      2571      2804      3556      3596
 -1      9472    3    0    1
 -2      2554      2780      3625      3437
 -1      9473    3    0    1
 -2      1682      1423      2820      3161
 -1      9474    3    0    1
 -2      1423      2621      2820      3161
 -1      9475    3    0    1
 -2      1682      2820      3159      3161
 -1      9476    3    0    1
 -2       610       607      2242      3590
 -1      9477    3    0    1
 -2       607      1298       964      3590
 -1      9478    3    0    1
 -2      3621      3162      3646      3692
 -1      9479    3    0    1
 -2      2660      3162      3621      3692
 -1      9480    3    0    1
 -2      1596      3052      1802      1837
 -1      9481    3    0    1
 -2       426       253      1803      1837
 -1      9482    3    0    1
 -2      2906      2872      2888      3034
 -1      9483    3    0    1
 -2      3541      1704      3619      3271
 -1      9484    3    0    1
 -2       140      3617      3619      3271
 -1      9485    3    0    1
 -2      3566       128      1797      3703
 -1      9486    3    0    1
 -2       739       736      1027      1902
 -1      9487    3    0    1
 -2       722       208       320      1903
 -1      9488    3    0    1
 -2      3539       128      3578      3703
 -1      9489    3    0    1
 -2      2461      2369      2817      3427
 -1      9490    3    0    1
 -2      1298       128      1794      3590
 -1      9491    3    0    1
 -2      1802      3052      1803      1837
 -1      9492    3    0    1
 -2      1757      1640      3077      3637
 -1      9493    3    0    1
 -2      2990      1298      1794      3590
 -1      9494    3    0    1
 -2      1567      2990      1794      3590
 -1      9495    3    0    1
 -2      2924      3009      3150      3591
 -1      9496    3    0    1
 -2      1725      3594      3604      3689
 -1      9497    3    0    1
 -2      2880      3573      3252      3319
 -1      9498    3    0    1
 -2      3604       329      1823      3689
 -1      9499    3    0    1
 -2      1766      3252      1860      3319
 -1      9500    3    0    1
 -2       941      2619      3517      3722
 -1      9501    3    0    1
 -2      3009      1477      1863      1864
 -1      9502    3    0    1
 -2      2880      2923      3573      3319
 -1      9503    3    0    1
 -2      3048      1646      3090      3217
 -1      9504    3    0    1
 -2        50      1546      1684      3215
 -1      9505    3    0    1
 -2      2704      2271      3618      3717
 -1      9506    3    0    1
 -2      1646        13      3090      3217
 -1      9507    3    0    1
 -2      3023      3618      3355      3717
 -1      9508    3    0    1
 -2      2667      1511      3146      3474
 -1      9509    3    0    1
 -2      3367      1913      1924      3494
 -1      9510    3    0    1
 -2       335       267      3529      3707
 -1      9511    3    0    1
 -2      2990      3141      3620      3637
 -1      9512    3    0    1
 -2       229      1565      2835      3167
 -1      9513    3    0    1
 -2      2835      1565      2848      3167
 -1      9514    3    0    1
 -2      2974      2369      3563      3314
 -1      9515    3    0    1
 -2       229      1576      3587      3167
 -1      9516    3    0    1
 -2      1576       229      2835      3167
 -1      9517    3    0    1
 -2      2644      2835      2848      3167
 -1      9518    3    0    1
 -2      1753      1750      3001      1801
 -1      9519    3    0    1
 -2       681      2333      2565      3168
 -1      9520    3    0    1
 -2       661       681      2090      3168
 -1      9521    3    0    1
 -2       679      2185      2333      3168
 -1      9522    3    0    1
 -2       681       679      2333      3168
 -1      9523    3    0    1
 -2       679       681      2185      3168
 -1      9524    3    0    1
 -2       681       990      1312      3168
 -1      9525    3    0    1
 -2       681       661       990      3168
 -1      9526    3    0    1
 -2      1562      2748      2973      3247
 -1      9527    3    0    1
 -2      1308       661       664      3169
 -1      9528    3    0    1
 -2       664       661      2319      3169
 -1      9529    3    0    1
 -2      1308       664      2319      3169
 -1      9530    3    0    1
 -2      2731      3208      3313      3649
 -1      9531    3    0    1
 -2       133       588       961      1804
 -1      9532    3    0    1
 -2      1457      2699      3573      3319
 -1      9533    3    0    1
 -2      3175      2591      3236      3330
 -1      9534    3    0    1
 -2      1593      3010      3133      3682
 -1      9535    3    0    1
 -2       139       133      3536      1804
 -1      9536    3    0    1
 -2       133       961      2086      1804
 -1      9537    3    0    1
 -2      2086       961      3536      1804
 -1      9538    3    0    1
 -2       133      2086      3536      1804
 -1      9539    3    0    1
 -2       596       133       139      1804
 -1      9540    3    0    1
 -2       133       596       588      1804
 -1      9541    3    0    1
 -2       386      3536      3552      1805
 -1      9542    3    0    1
 -2       144       386      3552      1805
 -1      9543    3    0    1
 -2       609       144       967      1805
 -1      9544    3    0    1
 -2       613       609       967      1805
 -1      9545    3    0    1
 -2       144       613       386      1805
 -1      9546    3    0    1
 -2       613       144       609      1805
 -1      9547    3    0    1
 -2      1411      3509      2816      3605
 -1      9548    3    0    1
 -2      2558      1255      1695      3493
 -1      9549    3    0    1
 -2      2531      2638      3654      3682
 -1      9550    3    0    1
 -2      1621      1620      1779      3170
 -1      9551    3    0    1
 -2      3558      2875      3171      3682
 -1      9552    3    0    1
 -2      3521      2768      3156      3683
 -1      9553    3    0    1
 -2      1529      1877      3684      3718
 -1      9554    3    0    1
 -2       171      1529      3623      3718
 -1      9555    3    0    1
 -2      2755      1519      2757      3683
 -1      9556    3    0    1
 -2      3173      3521      3671      3683
 -1      9557    3    0    1
 -2      1499      2768      3521      3683
 -1      9558    3    0    1
 -2      3521      3173      3227      3683
 -1      9559    3    0    1
 -2      2573      2757      3671      3683
 -1      9560    3    0    1
 -2      2475      3521      3155      3683
 -1      9561    3    0    1
 -2      1519       644      2757      3683
 -1      9562    3    0    1
 -2      1769        22      1817      1848
 -1      9563    3    0    1
 -2      1716      1558      1557      3337
 -1      9564    3    0    1
 -2      1840      3096      1841      3332
 -1      9565    3    0    1
 -2      3199      2792      3612      3337
 -1      9566    3    0    1
 -2      3559      2824      3083      3179
 -1      9567    3    0    1
 -2      3255      3305      3670      3688
 -1      9568    3    0    1
 -2      3576      1450      3223      3242
 -1      9569    3    0    1
 -2      3463      1725      3739      3743
 -1      9570    3    0    1
 -2      3135      3580      3144      3174
 -1      9571    3    0    1
 -2      1555      3135      3144      3174
 -1      9572    3    0    1
 -2      1585      3522      2971      3593
 -1      9573    3    0    1
 -2      2529      1585      2971      3593
 -1      9574    3    0    1
 -2      1508      2535      1624      3593
 -1      9575    3    0    1
 -2      1591      1624      2930      3593
 -1      9576    3    0    1
 -2      1789      2899      1790      3297
 -1      9577    3    0    1
 -2      2710      3516      3011      3593
 -1      9578    3    0    1
 -2      1508      1585      2788      3593
 -1      9579    3    0    1
 -2      2752      3109      3622      3298
 -1      9580    3    0    1
 -2      2899      1789      1790      3298
 -1      9581    3    0    1
 -2       655      1789      1790      3297
 -1      9582    3    0    1
 -2      2529      2535      2788      3593
 -1      9583    3    0    1
 -2      2529      2505      2535      3593
 -1      9584    3    0    1
 -2      2535      2710      2930      3593
 -1      9585    3    0    1
 -2      2535      2505      2710      3593
 -1      9586    3    0    1
 -2      1508      1624      2771      3593
 -1      9587    3    0    1
 -2      1624      1591      2771      3593
 -1      9588    3    0    1
 -2      1789      1606      1790      3298
 -1      9589    3    0    1
 -2      2930      2710      3011      3593
 -1      9590    3    0    1
 -2      1585      1508      2771      3593
 -1      9591    3    0    1
 -2      1607      1606      1781      3298
 -1      9592    3    0    1
 -2      1540      1539      1747      3190
 -1      9593    3    0    1
 -2      2889      3011      3296      3340
 -1      9594    3    0    1
 -2      1305      3565      3630      3716
 -1      9595    3    0    1
 -2      3535      2683      3576      3607
 -1      9596    3    0    1
 -2       112       383      1821      3642
 -1      9597    3    0    1
 -2      2520      2774      3458      3739
 -1      9598    3    0    1
 -2      2931      3118      3639      3471
 -1      9599    3    0    1
 -2      2691      1489      3007      3275
 -1      9600    3    0    1
 -2      2607      3093      3188      3690
 -1      9601    3    0    1
 -2      2948      2723      3662      3706
 -1      9602    3    0    1
 -2      1441      1440      1858      3400
 -1      9603    3    0    1
 -2       572      3094      3690      1713
 -1      9604    3    0    1
 -2      2236      2127      2402      3594
 -1      9605    3    0    1
 -2      3592      2948      3662      3706
 -1      9606    3    0    1
 -2      2655      3535      3607      3690
 -1      9607    3    0    1
 -2      1857      1440      3688      3400
 -1      9608    3    0    1
 -2      2860      3102      3581      3390
 -1      9609    3    0    1
 -2      1716      1558      3337      1717
 -1      9610    3    0    1
 -2      1676      2738      2994      3595
 -1      9611    3    0    1
 -2      1514      2738      1676      3595
 -1      9612    3    0    1
 -2      1514      1638      3157      3595
 -1      9613    3    0    1
 -2      1667      2851      3163      3595
 -1      9614    3    0    1
 -2      2851      1667      2994      3595
 -1      9615    3    0    1
 -2      1667      1676      2994      3595
 -1      9616    3    0    1
 -2      2630      2557      2738      3595
 -1      9617    3    0    1
 -2      2614      3005      3013      3650
 -1      9618    3    0    1
 -2      3656      3608      3378      3717
 -1      9619    3    0    1
 -2      3049      2765      3160      3595
 -1      9620    3    0    1
 -2      2738      2557      2851      3595
 -1      9621    3    0    1
 -2      2630      2738      3157      3595
 -1      9622    3    0    1
 -2      3565      3546      1305      3630
 -1      9623    3    0    1
 -2      2852      2630      3157      3595
 -1      9624    3    0    1
 -2      3049      3160      3163      3595
 -1      9625    3    0    1
 -2       644      1593      2962      3671
 -1      9626    3    0    1
 -2        13      3217      1647      1911
 -1      9627    3    0    1
 -2      2738      2851      2994      3595
 -1      9628    3    0    1
 -2       395      1305      3611      3630
 -1      9629    3    0    1
 -2      1600      3299      1853      3390
 -1      9630    3    0    1
 -2      1514      1676      3160      3595
 -1      9631    3    0    1
 -2      1638      1514      3160      3595
 -1      9632    3    0    1
 -2      3160      1667      3163      3595
 -1      9633    3    0    1
 -2      1676      1667      3160      3595
 -1      9634    3    0    1
 -2      1409      2657      1721      3596
 -1      9635    3    0    1
 -2      1409      2601      2657      3596
 -1      9636    3    0    1
 -2      1336       253      3172      3596
 -1      9637    3    0    1
 -2      1800      3014      1891      3447
 -1      9638    3    0    1
 -2      2657      2601      3139      3596
 -1      9639    3    0    1
 -2      2657      3139      3164      3596
 -1      9640    3    0    1
 -2      1721      2657      3152      3596
 -1      9641    3    0    1
 -2       253      1802      3172      3596
 -1      9642    3    0    1
 -2      2601      2571      3139      3596
 -1      9643    3    0    1
 -2      2717      3576      3223      3242
 -1      9644    3    0    1
 -2      2804      2601      2907      3596
 -1      9645    3    0    1
 -2      2571      2601      2804      3596
 -1      9646    3    0    1
 -2      1802      1719      3172      3596
 -1      9647    3    0    1
 -2      2772      2915      3555      3481
 -1      9648    3    0    1
 -2       990      1312      3168      3640
 -1      9649    3    0    1
 -2      2711      3549      3264      3308
 -1      9650    3    0    1
 -2      3617      3541      3271      3402
 -1      9651    3    0    1
 -2      1583      2934      2995      1811
 -1      9652    3    0    1
 -2      2783      3191      1846      1847
 -1      9653    3    0    1
 -2      1764      1528      3231      3451
 -1      9654    3    0    1
 -2      3096      1445      1840      1841
 -1      9655    3    0    1
 -2      1525      1524      1808      3186
 -1      9656    3    0    1
 -2      3169      3513      3613      3640
 -1      9657    3    0    1
 -2      3218      1559      3315      3333
 -1      9658    3    0    1
 -2      2518      1541      2980      3428
 -1      9659    3    0    1
 -2      3270      3526      3680      3449
 -1      9660    3    0    1
 -2      2462      2274      3515      3201
 -1      9661    3    0    1
 -2      2497      2787      3662      3721
 -1      9662    3    0    1
 -2      1810      1809      1851      3469
 -1      9663    3    0    1
 -2      1810      1809      3191      1847
 -1      9664    3    0    1
 -2      3293      1495      3308      3674
 -1      9665    3    0    1
 -2      2662      2770      3579      3377
 -1      9666    3    0    1
 -2      1640      2770      1757      3377
 -1      9667    3    0    1
 -2      3498      3541      3589      3402
 -1      9668    3    0    1
 -2      3610      3079      3263      3398
 -1      9669    3    0    1
 -2      3172      3079      3610      3398
 -1      9670    3    0    1
 -2      3534      3506      3562      3609
 -1      9671    3    0    1
 -2      3517      2576      2784      3184
 -1      9672    3    0    1
 -2      2606      2784      2947      3184
 -1      9673    3    0    1
 -2      1638      3030      3383      3702
 -1      9674    3    0    1
 -2      1659      3209      3395      3482
 -1      9675    3    0    1
 -2      1656      3589      3617      3402
 -1      9676    3    0    1
 -2      1501      2522      3587      3641
 -1      9677    3    0    1
 -2      2482      1501      3587      3641
 -1      9678    3    0    1
 -2       781       786      3122      3222
 -1      9679    3    0    1
 -2      1807      3137      1808      3186
 -1      9680    3    0    1
 -2      1524      1807      1808      3186
 -1      9681    3    0    1
 -2      1782      1524      1783      3186
 -1      9682    3    0    1
 -2      2538      1782      1783      3186
 -1      9683    3    0    1
 -2      2823      2785      3606      3687
 -1      9684    3    0    1
 -2      3200      2799      3309      3396
 -1      9685    3    0    1
 -2      3574      3200      3379      3396
 -1      9686    3    0    1
 -2      3530      2706      2950      3396
 -1      9687    3    0    1
 -2      1659      1660      3150      3395
 -1      9688    3    0    1
 -2       750      3200      3309      3396
 -1      9689    3    0    1
 -2      1617      1616      1866      3364
 -1      9690    3    0    1
 -2      3162      2941      3646      3692
 -1      9691    3    0    1
 -2      1865      3261      1866      3364
 -1      9692    3    0    1
 -2       732       727      3092      3233
 -1      9693    3    0    1
 -2      1652      3583      3176      3189
 -1      9694    3    0    1
 -2       422      1708      3585      3189
 -1      9695    3    0    1
 -2      2509      2360      2778      3658
 -1      9696    3    0    1
 -2      3560      3022      3214      3415
 -1      9697    3    0    1
 -2      1417      2807      2946      3658
 -1      9698    3    0    1
 -2      1711      1667      1712      3290
 -1      9699    3    0    1
 -2      1818      3205      1819      3286
 -1      9700    3    0    1
 -2      2840      1629      2911      3661
 -1      9701    3    0    1
 -2      1629      2840      3318      3661
 -1      9702    3    0    1
 -2      1635      1417      2946      3658
 -1      9703    3    0    1
 -2      3505      3524      3547      3658
 -1      9704    3    0    1
 -2      2091      2509      2778      3658
 -1      9705    3    0    1
 -2      3530      2742      2950      3689
 -1      9706    3    0    1
 -2      2778      2842      2946      3658
 -1      9707    3    0    1
 -2      3524      3532      3547      3658
 -1      9708    3    0    1
 -2      3547      3532      3050      3658
 -1      9709    3    0    1
 -2      1715      1561      3056      3668
 -1      9710    3    0    1
 -2      3586      3510      3648      3657
 -1      9711    3    0    1
 -2      2799      2498      3530      3597
 -1      9712    3    0    1
 -2      3578      3512      3723      3728
 -1      9713    3    0    1
 -2      2488      2622      2803      3597
 -1      9714    3    0    1
 -2      2488      2803      2880      3597
 -1      9715    3    0    1
 -2      2880      2803      3573      3597
 -1      9716    3    0    1
 -2      1664      2588      2802      3234
 -1      9717    3    0    1
 -2      3555      2918      3300      3320
 -1      9718    3    0    1
 -2      3057      2799      3574      3597
 -1      9719    3    0    1
 -2      2460      3057      3574      3597
 -1      9720    3    0    1
 -2      3526      2466      3176      3680
 -1      9721    3    0    1
 -2      3549      2665      3673      3462
 -1      9722    3    0    1
 -2      2622      2865      3148      3597
 -1      9723    3    0    1
 -2      2635      2622      3148      3597
 -1      9724    3    0    1
 -2      2622      2813      2865      3597
 -1      9725    3    0    1
 -2      2733      2488      2880      3597
 -1      9726    3    0    1
 -2      2864      2533      3607      3386
 -1      9727    3    0    1
 -2      2533      2864      3028      3386
 -1      9728    3    0    1
 -2      2460      2646      2799      3597
 -1      9729    3    0    1
 -2      2646      2498      2799      3597
 -1      9730    3    0    1
 -2      2498      2646      3117      3597
 -1      9731    3    0    1
 -2      2460      2799      3057      3597
 -1      9732    3    0    1
 -2      2427      3572      3140      3680
 -1      9733    3    0    1
 -2      1731       786      3222      3263
 -1      9734    3    0    1
 -2      1857      1559      3373      3688
 -1      9735    3    0    1
 -2      3581      2955      3222      3263
 -1      9736    3    0    1
 -2      3122      1755      3610      3263
 -1      9737    3    0    1
 -2       804       799      1771      3328
 -1      9738    3    0    1
 -2      3004       804      3272      3328
 -1      9739    3    0    1
 -2      3553      1487      3081      3466
 -1      9740    3    0    1
 -2      2851      1667      1711      3290
 -1      9741    3    0    1
 -2      2808      3515      3567      3203
 -1      9742    3    0    1
 -2      1731      2795      1732      3202
 -1      9743    3    0    1
 -2      2770      1640      3579      3377
 -1      9744    3    0    1
 -2      3514      1429      3562      3701
 -1      9745    3    0    1
 -2      2820      2567      3106      3603
 -1      9746    3    0    1
 -2      1657      1658      2912      3356
 -1      9747    3    0    1
 -2       277      1724      3596      3291
 -1      9748    3    0    1
 -2      2631      2568      3108      3598
 -1      9749    3    0    1
 -2      3105      2982      3182      3598
 -1      9750    3    0    1
 -2      2568      3086      3108      3598
 -1      9751    3    0    1
 -2      2790      2982      3105      3598
 -1      9752    3    0    1
 -2      1006      2568      2631      3598
 -1      9753    3    0    1
 -2      2569      2566      3185      3598
 -1      9754    3    0    1
 -2      2568      2815      3086      3598
 -1      9755    3    0    1
 -2      2507      2569      3185      3598
 -1      9756    3    0    1
 -2      3185      2566      3191      3598
 -1      9757    3    0    1
 -2       423       277      1586      3291
 -1      9758    3    0    1
 -2      2686      2507      3185      3598
 -1      9759    3    0    1
 -2      2569      2507      2609      3598
 -1      9760    3    0    1
 -2       786       781      2944      3202
 -1      9761    3    0    1
 -2      2790      1316      2982      3598
 -1      9762    3    0    1
 -2      3140      3572      3257      3680
 -1      9763    3    0    1
 -2       423       277      1870      3653
 -1      9764    3    0    1
 -2      1821       112      3642      3449
 -1      9765    3    0    1
 -2       781      1731      1732      3202
 -1      9766    3    0    1
 -2      1843      1832      1844      3292
 -1      9767    3    0    1
 -2      2570      3538      3554      3623
 -1      9768    3    0    1
 -2      2664      1410      1694      3623
 -1      9769    3    0    1
 -2      3019      1657      3554      3623
 -1      9770    3    0    1
 -2      3045      1604      1874      1875
 -1      9771    3    0    1
 -2      3001      2689      3045      3206
 -1      9772    3    0    1
 -2      2832      1040      3527      3357
 -1      9773    3    0    1
 -2      1530       383      3548      3646
 -1      9774    3    0    1
 -2      2651      1688      3309      3396
 -1      9775    3    0    1
 -2      1688       750      3309      3396
 -1      9776    3    0    1
 -2      3530      2950      3213      3396
 -1      9777    3    0    1
 -2      3527      1442      1729      3624
 -1      9778    3    0    1
 -2        26      1627      2731      1813
 -1      9779    3    0    1
 -2       424       128      1795      1827
 -1      9780    3    0    1
 -2      1431      3586      3643      3648
 -1      9781    3    0    1
 -2      1673      1431      3643      3648
 -1      9782    3    0    1
 -2      2658      3026      3578      3675
 -1      9783    3    0    1
 -2      3051      2754      3664      3454
 -1      9784    3    0    1
 -2      1487      2965      3102      3650
 -1      9785    3    0    1
 -2      2836      3008      3581      3650
 -1      9786    3    0    1
 -2      2731      1449      1745      3208
 -1      9787    3    0    1
 -2      2785      3577      3606      3687
 -1      9788    3    0    1
 -2      3608      1596      1837      3378
 -1      9789    3    0    1
 -2      3086      3598      3603      3625
 -1      9790    3    0    1
 -2      1557      1558      3085      3210
 -1      9791    3    0    1
 -2      1557       601      1558      3210
 -1      9792    3    0    1
 -2       950      1284      2549      3438
 -1      9793    3    0    1
 -2      1535      1503      2780      3625
 -1      9794    3    0    1
 -2      1602      1516      3605      3458
 -1      9795    3    0    1
 -2      2520      2816      3605      3458
 -1      9796    3    0    1
 -2      1197      1195      3559      3211
 -1      9797    3    0    1
 -2      3559      1195      3104      3211
 -1      9798    3    0    1
 -2      2893      1698      3559      3211
 -1      9799    3    0    1
 -2      3551      1409      3355      3479
 -1      9800    3    0    1
 -2      1066      2760      3522      3635
 -1      9801    3    0    1
 -2      1652      1422      3583      3635
 -1      9802    3    0    1
 -2      1631        41      1698      3211
 -1      9803    3    0    1
 -2      3362      3378      3717      3479
 -1      9804    3    0    1
 -2      1476      1475      2973      3212
 -1      9805    3    0    1
 -2      1475      1476      1723      3212
 -1      9806    3    0    1
 -2      1688      1689      2922      3212
 -1      9807    3    0    1
 -2      1689      1688      1723      3212
 -1      9808    3    0    1
 -2      1722      1475      2950      3213
 -1      9809    3    0    1
 -2       196      1542      1541      3428
 -1      9810    3    0    1
 -2       319      1015      3523      3601
 -1      9811    3    0    1
 -2      1015       319      3515      3601
 -1      9812    3    0    1
 -2      3510      1442      3624      3453
 -1      9813    3    0    1
 -2      1664       316      3123      3601
 -1      9814    3    0    1
 -2      1319      2709      3523      3601
 -1      9815    3    0    1
 -2      3547      1672      1793      3601
 -1      9816    3    0    1
 -2       316      3547      1793      3601
 -1      9817    3    0    1
 -2      2626      1497      3523      3601
 -1      9818    3    0    1
 -2      1497      1561      3523      3601
 -1      9819    3    0    1
 -2      1561       319      3523      3601
 -1      9820    3    0    1
 -2       319      1561      3515      3601
 -1      9821    3    0    1
 -2      3192      3657      3452      3457
 -1      9822    3    0    1
 -2      3123       316      1793      3601
 -1      9823    3    0    1
 -2      1319       316      1664      3601
 -1      9824    3    0    1
 -2      2709      1319      1664      3601
 -1      9825    3    0    1
 -2      1497      2626      1672      3601
 -1      9826    3    0    1
 -2      1672      2626      3123      3601
 -1      9827    3    0    1
 -2      1672      3123      1793      3601
 -1      9828    3    0    1
 -2      1336      3511      3551      3602
 -1      9829    3    0    1
 -2      2332      1340      3522      3602
 -1      9830    3    0    1
 -2      1340       277      3522      3602
 -1      9831    3    0    1
 -2       763       768      3138      1871
 -1      9832    3    0    1
 -2      2332      3496      3165      3602
 -1      9833    3    0    1
 -2      3496      2332      3522      3602
 -1      9834    3    0    1
 -2      3067      2332      3165      3602
 -1      9835    3    0    1
 -2      2271      3067      3165      3602
 -1      9836    3    0    1
 -2      2465      2271      3165      3602
 -1      9837    3    0    1
 -2      1058       277      1340      3602
 -1      9838    3    0    1
 -2      2271      2704      3545      3717
 -1      9839    3    0    1
 -2      3023      2679      3618      3717
 -1      9840    3    0    1
 -2      3526      2525      3528      3642
 -1      9841    3    0    1
 -2      1599      1435      3526      3642
 -1      9842    3    0    1
 -2      1543       395      3629      3450
 -1      9843    3    0    1
 -2      3526      1435      3575      3642
 -1      9844    3    0    1
 -2      2525      3526      3531      3642
 -1      9845    3    0    1
 -2      3218      3071      1857      1858
 -1      9846    3    0    1
 -2      3528      2525      3531      3642
 -1      9847    3    0    1
 -2      2992      2722      3637      3702
 -1      9848    3    0    1
 -2      1700      2992      3590      3702
 -1      9849    3    0    1
 -2      1621      1620      3126      1830
 -1      9850    3    0    1
 -2      2102      2091      2778      3219
 -1      9851    3    0    1
 -2      2778      2091      2807      3219
 -1      9852    3    0    1
 -2      2591      2550      3674      3388
 -1      9853    3    0    1
 -2      2591      3236      3330      3388
 -1      9854    3    0    1
 -2      1616      3018      3351      3374
 -1      9855    3    0    1
 -2      3548      3528      3642      3680
 -1      9856    3    0    1
 -2      1769      2874      3073      1817
 -1      9857    3    0    1
 -2      3073      1769      1817      1848
 -1      9858    3    0    1
 -2      3105      2790      3598      3603
 -1      9859    3    0    1
 -2      2621      3090      3048      3603
 -1      9860    3    0    1
 -2      1442      3510      3414      3453
 -1      9861    3    0    1
 -2       171      3623      1308      3718
 -1      9862    3    0    1
 -2      2490      2621      2779      3603
 -1      9863    3    0    1
 -2      3086      2815      3106      3603
 -1      9864    3    0    1
 -2      2490      2567      2621      3603
 -1      9865    3    0    1
 -2       900      1144      3161      3603
 -1      9866    3    0    1
 -2      2568       900      2815      3603
 -1      9867    3    0    1
 -2      1683      2811      3048      3603
 -1      9868    3    0    1
 -2      2811      3105      3220      3603
 -1      9869    3    0    1
 -2      2621      2567      2820      3603
 -1      9870    3    0    1
 -2      2684      3528      3572      3680
 -1      9871    3    0    1
 -2      2779      2621      3136      3603
 -1      9872    3    0    1
 -2      2066      3498      3500      3427
 -1      9873    3    0    1
 -2      1144      1683      3161      3603
 -1      9874    3    0    1
 -2      1144      2811      1683      3603
 -1      9875    3    0    1
 -2      1144      2790      2811      3603
 -1      9876    3    0    1
 -2      1683      3090      3161      3603
 -1      9877    3    0    1
 -2      2469      2091      3514      3701
 -1      9878    3    0    1
 -2      2811      2790      3105      3603
 -1      9879    3    0    1
 -2      2906      2872      3034      3676
 -1      9880    3    0    1
 -2      3001      3206      3652      3685
 -1      9881    3    0    1
 -2       170       991      3542      3224
 -1      9882    3    0    1
 -2       328       170      3542      3224
 -1      9883    3    0    1
 -2      1957      2068      2172      2317
 -1      9884    3    0    1
 -2      2793      2812      3260      3702
 -1      9885    3    0    1
 -2      3185      3182      3191      3469
 -1      9886    3    0    1
 -2      2810       619      1829      1830
 -1      9887    3    0    1
 -2      3126      1620      1829      1830
 -1      9888    3    0    1
 -2      2783      2566      3387      3461
 -1      9889    3    0    1
 -2      3137      1471      3236      3462
 -1      9890    3    0    1
 -2      2566      2783      3191      3461
 -1      9891    3    0    1
 -2      2566      3598      3387      3461
 -1      9892    3    0    1
 -2       495      2762      3265       494
 -1      9893    3    0    1
 -2      1809      3191      1846      3461
 -1      9894    3    0    1
 -2      1471      3137      1807      3462
 -1      9895    3    0    1
 -2      1846      2783      3387      3461
 -1      9896    3    0    1
 -2      3191      2783      1846      3461
 -1      9897    3    0    1
 -2      3182      3185      3191      3461
 -1      9898    3    0    1
 -2      2797      2762      3533      3265
 -1      9899    3    0    1
 -2      3361      3342      3719      3472
 -1      9900    3    0    1
 -2      3598      3182      3387      3461
 -1      9901    3    0    1
 -2      3185      3182      3598      3461
 -1      9902    3    0    1
 -2       337       282      3695      1917
 -1      9903    3    0    1
 -2      3412       716      3475      3483
 -1      9904    3    0    1
 -2       336       106      3537      3695
 -1      9905    3    0    1
 -2      2304       336      2578      3695
 -1      9906    3    0    1
 -2       944      2304      2449      3695
 -1      9907    3    0    1
 -2      3094      3087      3690      3459
 -1      9908    3    0    1
 -2      1576      1411      2816      3605
 -1      9909    3    0    1
 -2       428      1576      2816      3605
 -1      9910    3    0    1
 -2      3094      1713      1818      3459
 -1      9911    3    0    1
 -2      1602       428      2816      3605
 -1      9912    3    0    1
 -2      1713      3094      3690      3459
 -1      9913    3    0    1
 -2      1455      3092      1775      3228
 -1      9914    3    0    1
 -2      2864      3127      3335      3386
 -1      9915    3    0    1
 -2      1579      2864      3335      3386
 -1      9916    3    0    1
 -2      2567      2820      3106      3229
 -1      9917    3    0    1
 -2      1572      1465      3106      3229
 -1      9918    3    0    1
 -2      2728      2825      3556      3358
 -1      9919    3    0    1
 -2      1624      3556      3301      3358
 -1      9920    3    0    1
 -2      1553      3029      3632      3665
 -1      9921    3    0    1
 -2      3533      2797      3265      3665
 -1      9922    3    0    1
 -2      2661      2615      3577      3606
 -1      9923    3    0    1
 -2      2876      2661      3577      3606
 -1      9924    3    0    1
 -2      3530      2799      3574      3396
 -1      9925    3    0    1
 -2      1443      1719      3164      3398
 -1      9926    3    0    1
 -2      3596      3172      3610      3398
 -1      9927    3    0    1
 -2      1539      3087      1818      3459
 -1      9928    3    0    1
 -2      1416      3520      3541      3619
 -1      9929    3    0    1
 -2      3014      1597      3039      1891
 -1      9930    3    0    1
 -2      1432      1748      3572      3257
 -1      9931    3    0    1
 -2      2597      2615      2661      3606
 -1      9932    3    0    1
 -2      2597      2603      2615      3606
 -1      9933    3    0    1
 -2      2543      2575      2587      3606
 -1      9934    3    0    1
 -2      2543      2510      2575      3606
 -1      9935    3    0    1
 -2      2491      2541      2543      3606
 -1      9936    3    0    1
 -2      2541      2510      2543      3606
 -1      9937    3    0    1
 -2      2785      2615      2823      3606
 -1      9938    3    0    1
 -2      2491      2543      2587      3606
 -1      9939    3    0    1
 -2      2615      2709      2823      3606
 -1      9940    3    0    1
 -2      2950      1722      3213      3396
 -1      9941    3    0    1
 -2      2510      2541      2669      3606
 -1      9942    3    0    1
 -2      1629      2966      3197      3626
 -1      9943    3    0    1
 -2      2603      2661      2876      3606
 -1      9944    3    0    1
 -2      3574      2799      3200      3396
 -1      9945    3    0    1
 -2      2603      2597      2661      3606
 -1      9946    3    0    1
 -2      1636      2939      1736      3241
 -1      9947    3    0    1
 -2       196      1316      3534      3691
 -1      9948    3    0    1
 -2      3609       196       182      3691
 -1      9949    3    0    1
 -2      3550      3016      3261      3364
 -1      9950    3    0    1
 -2      3550      2692      3016      3364
 -1      9951    3    0    1
 -2      2533      2627      2862      3607
 -1      9952    3    0    1
 -2      2533      2481      2627      3607
 -1      9953    3    0    1
 -2      2481      2533      3075      3607
 -1      9954    3    0    1
 -2      2533      2862      2864      3607
 -1      9955    3    0    1
 -2      1432      3528      3548      3680
 -1      9956    3    0    1
 -2      2533      3028      3075      3607
 -1      9957    3    0    1
 -2      3562      3534      3609      3691
 -1      9958    3    0    1
 -2      2519      2481      3075      3607
 -1      9959    3    0    1
 -2       196      1609      1760      3691
 -1      9960    3    0    1
 -2      1865      3261      3550      1450
 -1      9961    3    0    1
 -2      1514      3030      3260      3365
 -1      9962    3    0    1
 -2      1316       196      3609      3691
 -1      9963    3    0    1
 -2      2523      2596      3065      3235
 -1      9964    3    0    1
 -2      2523      2587      2596      3235
 -1      9965    3    0    1
 -2      2636      1150      2665      3236
 -1      9966    3    0    1
 -2      1741      3147      3246      3740
 -1      9967    3    0    1
 -2      2591      3549      3137      3236
 -1      9968    3    0    1
 -2      3137      1471      3175      3236
 -1      9969    3    0    1
 -2      3517       941      3614      3740
 -1      9970    3    0    1
 -2       241      1333      3643      3482
 -1      9971    3    0    1
 -2      3147      1741      3238      3740
 -1      9972    3    0    1
 -2       333      2610      3708      3744
 -1      9973    3    0    1
 -2      1498      1150      2636      3236
 -1      9974    3    0    1
 -2      2591      3137      3175      3236
 -1      9975    3    0    1
 -2      2804      1508      3301      3358
 -1      9976    3    0    1
 -2      2825       277      3596      3358
 -1      9977    3    0    1
 -2      1508      1624      3301      3358
 -1      9978    3    0    1
 -2      1692      1693      3009      1864
 -1      9979    3    0    1
 -2      1650      1651      2763      3239
 -1      9980    3    0    1
 -2      1501       430      3406       319
 -1      9981    3    0    1
 -2      2804      1508      2907      3301
 -1      9982    3    0    1
 -2      1554      1553      2988      3239
 -1      9983    3    0    1
 -2      1553      1554      1651      3239
 -1      9984    3    0    1
 -2      1650      1553      1651      3239
 -1      9985    3    0    1
 -2      1722      1688      3213      3396
 -1      9986    3    0    1
 -2      3550      2872      3091      3620
 -1      9987    3    0    1
 -2      2920      1535      2956      3240
 -1      9988    3    0    1
 -2      1535      1536      2956      3240
 -1      9989    3    0    1
 -2        69        80      1878      3446
 -1      9990    3    0    1
 -2      3514      3513      3540      3719
 -1      9991    3    0    1
 -2       698      1535      3187      3240
 -1      9992    3    0    1
 -2      1636      1654      2981      3241
 -1      9993    3    0    1
 -2      2981      1654      3184      3241
 -1      9994    3    0    1
 -2      2784      2981      3184      3241
 -1      9995    3    0    1
 -2      2576      2784      3184      3241
 -1      9996    3    0    1
 -2      2668      2576      3517      3241
 -1      9997    3    0    1
 -2      2939      2668      3149      3241
 -1      9998    3    0    1
 -2      2784      2939      2981      3241
 -1      9999    3    0    1
 -2      2784      2576      2939      3241
 -1     10000    3    0    1
 -2      2576      2668      2939      3241
 -1     10001    3    0    1
 -2      2807      1552      3225      3609
 -1     10002    3    0    1
 -2      1417      1552      2807      3609
 -1     10003    3    0    1
 -2      1656      1421      3589      3402
 -1     10004    3    0    1
 -2      2571      3139      3596      3610
 -1     10005    3    0    1
 -2      2828      2571      3556      3610
 -1     10006    3    0    1
 -2      1463      2985      1776      3637
 -1     10007    3    0    1
 -2      2834      3556      3581      3610
 -1     10008    3    0    1
 -2      2698      2834      3581      3610
 -1     10009    3    0    1
 -2      2822      1465      3035      3687
 -1     10010    3    0    1
 -2      1463      1567      3098      3637
 -1     10011    3    0    1
 -2      2834      2828      3556      3610
 -1     10012    3    0    1
 -2        26      2731      1826      3350
 -1     10013    3    0    1
 -2      3222      3581      2698      2955
 -1     10014    3    0    1
 -2      3581      3222      2698      3610
 -1     10015    3    0    1
 -2      3079      2712      3172      3610
 -1     10016    3    0    1
 -2      2626      3123      3601      3660
 -1     10017    3    0    1
 -2      3208      1813      3325      3350
 -1     10018    3    0    1
 -2      3038      2698      3122      3610
 -1     10019    3    0    1
 -2      2571      3038      3139      3610
 -1     10020    3    0    1
 -2      3143      3641      3670      3688
 -1     10021    3    0    1
 -2      2571      2698      3038      3610
 -1     10022    3    0    1
 -2      1763      1433      3018      3351
 -1     10023    3    0    1
 -2      2698      2571      2828      3610
 -1     10024    3    0    1
 -2      3122      2698      3222      3610
 -1     10025    3    0    1
 -2      2818      2534      3577      3687
 -1     10026    3    0    1
 -2      2698      2828      2834      3610
 -1     10027    3    0    1
 -2      3118      2746      3119      3244
 -1     10028    3    0    1
 -2      1482      1481      2936      3244
 -1     10029    3    0    1
 -2      1481      1482      1544      3244
 -1     10030    3    0    1
 -2      1481      1543      3119      3244
 -1     10031    3    0    1
 -2      1543      3118      3119      3244
 -1     10032    3    0    1
 -2      1778      2936      3119      3245
 -1     10033    3    0    1
 -2       975       157       978      3392
 -1     10034    3    0    1
 -2      3040      2664      3623      3655
 -1     10035    3    0    1
 -2      3286      3162      3289      3405
 -1     10036    3    0    1
 -2      3006      2869      3560      3612
 -1     10037    3    0    1
 -2      2756      2642      3550      3612
 -1     10038    3    0    1
 -2      2932       608      3560      3612
 -1     10039    3    0    1
 -2      2557      3595      3662      3721
 -1     10040    3    0    1
 -2      2697      2517      3659      3673
 -1     10041    3    0    1
 -2       608      1557      2729      3612
 -1     10042    3    0    1
 -2       608      3006      3560      3612
 -1     10043    3    0    1
 -2       608      2729      3006      3612
 -1     10044    3    0    1
 -2      3124      1716      3125      3612
 -1     10045    3    0    1
 -2      1673       241      3209      1885
 -1     10046    3    0    1
 -2      2932      2906      3125      3612
 -1     10047    3    0    1
 -2      2632      2642      3199      3612
 -1     10048    3    0    1
 -2      2642      2729      3199      3612
 -1     10049    3    0    1
 -2      2792      2632      3199      3612
 -1     10050    3    0    1
 -2      1557      2932      3125      3612
 -1     10051    3    0    1
 -2      2642      2869      3006      3612
 -1     10052    3    0    1
 -2      2642      2756      2869      3612
 -1     10053    3    0    1
 -2      2729      2642      3006      3612
 -1     10054    3    0    1
 -2      1716      1557      3125      3612
 -1     10055    3    0    1
 -2      1557       608      2932      3612
 -1     10056    3    0    1
 -2       128      1590      3539      3578
 -1     10057    3    0    1
 -2       128      1590      1794      1827
 -1     10058    3    0    1
 -2       128      1794      1795      1827
 -1     10059    3    0    1
 -2      3513      3613      3640      3647
 -1     10060    3    0    1
 -2      1725      3604      1823      3689
 -1     10061    3    0    1
 -2      2222       317      2485      3693
 -1     10062    3    0    1
 -2      1585      1508      2907      3358
 -1     10063    3    0    1
 -2      1289       949      3508      3646
 -1     10064    3    0    1
 -2      1590      3053      1794      1827
 -1     10065    3    0    1
 -2      1794      3053      1795      1827
 -1     10066    3    0    1
 -2      3513      2136      3169      3613
 -1     10067    3    0    1
 -2      3514      1429      3701      3719
 -1     10068    3    0    1
 -2      1485      1486      2996      3325
 -1     10069    3    0    1
 -2      1533      1493      3592      3352
 -1     10070    3    0    1
 -2      1457      1583      2699      3319
 -1     10071    3    0    1
 -2      2821      3015      3193      3278
 -1     10072    3    0    1
 -2      2864      1461      3028      3386
 -1     10073    3    0    1
 -2      2836      3039      3581      3278
 -1     10074    3    0    1
 -2      2614      3039      3278      3650
 -1     10075    3    0    1
 -2      1813      1485      3313      3325
 -1     10076    3    0    1
 -2      2509      2091      3506      3658
 -1     10077    3    0    1
 -2      2877       990      3538      3613
 -1     10078    3    0    1
 -2      1442      1729      3624      3453
 -1     10079    3    0    1
 -2      3546      3500      3570      3714
 -1     10080    3    0    1
 -2      2821      3080      3581      3278
 -1     10081    3    0    1
 -2      1574      3080      3193      3278
 -1     10082    3    0    1
 -2      3015      1574      3193      3278
 -1     10083    3    0    1
 -2      1896       691      1897      3413
 -1     10084    3    0    1
 -2      3127      2862      3607      3386
 -1     10085    3    0    1
 -2      2821      2953      3015      3278
 -1     10086    3    0    1
 -2      3074      1703      1842      3335
 -1     10087    3    0    1
 -2       415      2188      2353      3410
 -1     10088    3    0    1
 -2      1483      1413      1484      3280
 -1     10089    3    0    1
 -2      2481      2655      3607      3690
 -1     10090    3    0    1
 -2      2519      2481      3607      3690
 -1     10091    3    0    1
 -2      2677      2968      3087      3690
 -1     10092    3    0    1
 -2      3087      2968      3094      3690
 -1     10093    3    0    1
 -2       329       427      1823      3249
 -1     10094    3    0    1
 -2       427       329      1563      3249
 -1     10095    3    0    1
 -2      3093      1713      3188      3690
 -1     10096    3    0    1
 -2      2714      3363      3369      3690
 -1     10097    3    0    1
 -2      2968      2519      3369      3690
 -1     10098    3    0    1
 -2      2677      2527      2968      3690
 -1     10099    3    0    1
 -2      1462      1461      2716      3275
 -1     10100    3    0    1
 -2      1477      1659      3357      3664
 -1     10101    3    0    1
 -2      1729       241      2963      3664
 -1     10102    3    0    1
 -2      3237      3571      3626      3664
 -1     10103    3    0    1
 -2       981      1308      3565      3663
 -1     10104    3    0    1
 -2      2942      2598      3230      3664
 -1     10105    3    0    1
 -2      2704      2087      3657      3717
 -1     10106    3    0    1
 -2      1709      1461      1710      3275
 -1     10107    3    0    1
 -2      3586      2704      3657      3717
 -1     10108    3    0    1
 -2      2731      1745      1826      3350
 -1     10109    3    0    1
 -2      3538      1308      3019      3623
 -1     10110    3    0    1
 -2      2863      3096      1852      3393
 -1     10111    3    0    1
 -2      2912      2570      3554      3623
 -1     10112    3    0    1
 -2      3621      3089      3289      3405
 -1     10113    3    0    1
 -2       956       589      2139      3253
 -1     10114    3    0    1
 -2      2139       589      2392      3253
 -1     10115    3    0    1
 -2      2870      2988      3100      3632
 -1     10116    3    0    1
 -2      2719      3592      3283      3352
 -1     10117    3    0    1
 -2      2871      2690      3568      3726
 -1     10118    3    0    1
 -2       589       610      2392      3253
 -1     10119    3    0    1
 -2       610       956      1298      3253
 -1     10120    3    0    1
 -2       610       589       956      3253
 -1     10121    3    0    1
 -2       196      1542      3428       182
 -1     10122    3    0    1
 -2      3512      1434      3638      3376
 -1     10123    3    0    1
 -2      2364      2594      3529      3707
 -1     10124    3    0    1
 -2      2856      3504      3095      3670
 -1     10125    3    0    1
 -2      1322       319      3587      3730
 -1     10126    3    0    1
 -2      3560      2932      3612      3620
 -1     10127    3    0    1
 -2      3140      1748      3615      3464
 -1     10128    3    0    1
 -2      1435      1653      3575      3614
 -1     10129    3    0    1
 -2      3572      3140      3615      3464
 -1     10130    3    0    1
 -2      1931       941      2281      3614
 -1     10131    3    0    1
 -2      3512      1749      3376      3464
 -1     10132    3    0    1
 -2      1285      1931      3531      3614
 -1     10133    3    0    1
 -2      1695      1511      3467      3493
 -1     10134    3    0    1
 -2       949       387      1294      3723
 -1     10135    3    0    1
 -2      1784       421      3464      3723
 -1     10136    3    0    1
 -2      1040      1330      3544      3316
 -1     10137    3    0    1
 -2      2281       941      3508      3614
 -1     10138    3    0    1
 -2      2281      3508      3528      3614
 -1     10139    3    0    1
 -2      2525      3528      3531      3614
 -1     10140    3    0    1
 -2      2281      2525      3531      3614
 -1     10141    3    0    1
 -2      2525      2281      3528      3614
 -1     10142    3    0    1
 -2        26      1761      1813      3465
 -1     10143    3    0    1
 -2      2457       334      3708      3744
 -1     10144    3    0    1
 -2      2583      1436      1855      3465
 -1     10145    3    0    1
 -2      1748       421      3615      3464
 -1     10146    3    0    1
 -2      2459      2347      3544      3316
 -1     10147    3    0    1
 -2      2284       770      2331      3316
 -1     10148    3    0    1
 -2      1330      2127      3544      3316
 -1     10149    3    0    1
 -2       255       270      3708      3744
 -1     10150    3    0    1
 -2      3140      3638      3376      3464
 -1     10151    3    0    1
 -2       949      1294      3572      3723
 -1     10152    3    0    1
 -2      3572      3512      3140      3464
 -1     10153    3    0    1
 -2      2457      3708      3487      3744
 -1     10154    3    0    1
 -2       387       421      1748      3267
 -1     10155    3    0    1
 -2      1656       391      1834      1836
 -1     10156    3    0    1
 -2      1813      3114      3712      3465
 -1     10157    3    0    1
 -2       387       421      1784      3723
 -1     10158    3    0    1
 -2      3572      3140      3257      3615
 -1     10159    3    0    1
 -2      1748      3572      3257      3615
 -1     10160    3    0    1
 -2      3327      1855      3382      3465
 -1     10161    3    0    1
 -2      1761      2976      3114      3465
 -1     10162    3    0    1
 -2      3114      2976      3712      3465
 -1     10163    3    0    1
 -2      1855        26      3382      3465
 -1     10164    3    0    1
 -2       421       387      3615      3723
 -1     10165    3    0    1
 -2      2412      1059      2582      3744
 -1     10166    3    0    1
 -2      3140      1748      3257      3615
 -1     10167    3    0    1
 -2       606       390       614      1905
 -1     10168    3    0    1
 -2      2931      3078      3639      3662
 -1     10169    3    0    1
 -2      3049      2765      3595      3662
 -1     10170    3    0    1
 -2      2640      2723      2931      3662
 -1     10171    3    0    1
 -2       975      2537      3502      1904
 -1     10172    3    0    1
 -2      2765      2931      3639      3662
 -1     10173    3    0    1
 -2       158       389      3502      1904
 -1     10174    3    0    1
 -2      2606      2618      3517      3722
 -1     10175    3    0    1
 -2       714       722      1021      1903
 -1     10176    3    0    1
 -2      2307       219      3507      1902
 -1     10177    3    0    1
 -2      3541      2866      3068      3271
 -1     10178    3    0    1
 -2      2812      2853      3030      3260
 -1     10179    3    0    1
 -2      3539      3578      3631      3703
 -1     10180    3    0    1
 -2      1554      1553      2867      3262
 -1     10181    3    0    1
 -2       750       745      3200      3262
 -1     10182    3    0    1
 -2       745       750      1706      3262
 -1     10183    3    0    1
 -2      1659       241      3209      3482
 -1     10184    3    0    1
 -2      2470      2644      3255      3688
 -1     10185    3    0    1
 -2      3143      1440      3167      3688
 -1     10186    3    0    1
 -2      3193      1731      3222      3263
 -1     10187    3    0    1
 -2      3080      1731      3193      3263
 -1     10188    3    0    1
 -2      2955      3080      3193      3263
 -1     10189    3    0    1
 -2      2955      3193      3222      3263
 -1     10190    3    0    1
 -2      3141      3091      3620      3637
 -1     10191    3    0    1
 -2      1537      1538      2849      3294
 -1     10192    3    0    1
 -2      2689      3045      3206      3622
 -1     10193    3    0    1
 -2      1745      2731      3208      3350
 -1     10194    3    0    1
 -2      3134      3135      3580      3616
 -1     10195    3    0    1
 -2      3174      2715      3226      3616
 -1     10196    3    0    1
 -2      3174      3226      1829      3616
 -1     10197    3    0    1
 -2      1420      3458      3463      3739
 -1     10198    3    0    1
 -2      3226      1620      1829      3616
 -1     10199    3    0    1
 -2       626      3174      1829      3616
 -1     10200    3    0    1
 -2      2573      2741      3126      3616
 -1     10201    3    0    1
 -2       334      1332      2582      3744
 -1     10202    3    0    1
 -2      2475      2573      3126      3616
 -1     10203    3    0    1
 -2      3134      2741      3135      3616
 -1     10204    3    0    1
 -2      2412      2457      3487      3744
 -1     10205    3    0    1
 -2       919      1701      2859      3265
 -1     10206    3    0    1
 -2      2762       919      2859      3265
 -1     10207    3    0    1
 -2      1201       495      2797      3265
 -1     10208    3    0    1
 -2      2623       941      3517      3740
 -1     10209    3    0    1
 -2      1453      1843      1844      3426
 -1     10210    3    0    1
 -2      3566      1797      3404      3703
 -1     10211    3    0    1
 -2      1668      1667      2851      3290
 -1     10212    3    0    1
 -2      1821       383      3246      3740
 -1     10213    3    0    1
 -2      3037      1612      1839      1838
 -1     10214    3    0    1
 -2      1446      1445      2980      1840
 -1     10215    3    0    1
 -2      1576      1411      3605      3713
 -1     10216    3    0    1
 -2      3449      1828      3548      3368
 -1     10217    3    0    1
 -2      3548      3368      3680      3449
 -1     10218    3    0    1
 -2      1415      2611      3211      3303
 -1     10219    3    0    1
 -2      2679      2467      3021      3618
 -1     10220    3    0    1
 -2       799       804      3011      3340
 -1     10221    3    0    1
 -2      3544      3681      3715      3743
 -1     10222    3    0    1
 -2       329      1562      3249      3689
 -1     10223    3    0    1
 -2      2679      2100      3023      3618
 -1     10224    3    0    1
 -2      2100      2679      3021      3618
 -1     10225    3    0    1
 -2      2777      1631      3211      3303
 -1     10226    3    0    1
 -2      1632      1631      2777      3303
 -1     10227    3    0    1
 -2       157       632       624      1889
 -1     10228    3    0    1
 -2      2912      3054      3623      3356
 -1     10229    3    0    1
 -2      1657      2912      3623      3356
 -1     10230    3    0    1
 -2      2611      2777      3211      3303
 -1     10231    3    0    1
 -2      1410      3513      3647      3718
 -1     10232    3    0    1
 -2      2271      3551      3602      3618
 -1     10233    3    0    1
 -2      2465      2271      3602      3618
 -1     10234    3    0    1
 -2      3663      1529      3684      3718
 -1     10235    3    0    1
 -2      1529      1410      3623      3718
 -1     10236    3    0    1
 -2      2467      2679      3232      3618
 -1     10237    3    0    1
 -2       804       799      1853      3340
 -1     10238    3    0    1
 -2      2679      2465      3232      3618
 -1     10239    3    0    1
 -2      2100      3021      3023      3618
 -1     10240    3    0    1
 -2      2271      2465      2679      3618
 -1     10241    3    0    1
 -2      1609      3534      3562      3691
 -1     10242    3    0    1
 -2      2271      2679      2704      3618
 -1     10243    3    0    1
 -2      2885      2983      3033      3692
 -1     10244    3    0    1
 -2      3260      2969      3620      3702
 -1     10245    3    0    1
 -2      2695      3066      1588      3055
 -1     10246    3    0    1
 -2      2347      3510      3544      3316
 -1     10247    3    0    1
 -2      3609       182      3628      3225
 -1     10248    3    0    1
 -2       565       572      3094      3369
 -1     10249    3    0    1
 -2      1576       229      3587      3713
 -1     10250    3    0    1
 -2      2574      2846      3561      3692
 -1     10251    3    0    1
 -2      1631      1632      2750      3408
 -1     10252    3    0    1
 -2        41      2855      1773      3408
 -1     10253    3    0    1
 -2      2522      3504      3366      2546
 -1     10254    3    0    1
 -2      1516      3495      3594      3694
 -1     10255    3    0    1
 -2      1673       241      3648      3643
 -1     10256    3    0    1
 -2      1844      1843      3292      3426
 -1     10257    3    0    1
 -2      2817      2369      3563      3427
 -1     10258    3    0    1
 -2      2503      3500      3563      3427
 -1     10259    3    0    1
 -2       208       714      1021      1903
 -1     10260    3    0    1
 -2      1298       607      3620       610
 -1     10261    3    0    1
 -2        68      2841      1788      3385
 -1     10262    3    0    1
 -2      3092       732      3233      3677
 -1     10263    3    0    1
 -2      1642      2841      3116      3385
 -1     10264    3    0    1
 -2      2558      2801      3667      3467
 -1     10265    3    0    1
 -2      3237      3626      1871      3454
 -1     10266    3    0    1
 -2      3539      3566      3638      3703
 -1     10267    3    0    1
 -2      1541      2980      1840      3448
 -1     10268    3    0    1
 -2      3357      1477      3664      3454
 -1     10269    3    0    1
 -2      2773      2990      3091      3620
 -1     10270    3    0    1
 -2       607      2888      2969      3620
 -1     10271    3    0    1
 -2      2969      2888      2978      3620
 -1     10272    3    0    1
 -2      2773      1298      2990      3620
 -1     10273    3    0    1
 -2      2872      2773      3091      3620
 -1     10274    3    0    1
 -2      2888      2932      2978      3620
 -1     10275    3    0    1
 -2      3091      2990      3141      3620
 -1     10276    3    0    1
 -2       610      1298      2773      3620
 -1     10277    3    0    1
 -2       964       607      2969      3620
 -1     10278    3    0    1
 -2      2888      2906      2932      3620
 -1     10279    3    0    1
 -2       395      3564      3629      1886
 -1     10280    3    0    1
 -2      2660      3162      3205      3621
 -1     10281    3    0    1
 -2      2901      2937      3269      3621
 -1     10282    3    0    1
 -2      2918      3555      3671      3403
 -1     10283    3    0    1
 -2      3007      2901      3269      3621
 -1     10284    3    0    1
 -2      2479      2901      3007      3621
 -1     10285    3    0    1
 -2      2514      3513      3514      3719
 -1     10286    3    0    1
 -2       317       209      3693      1915
 -1     10287    3    0    1
 -2      2691      2479      3007      3621
 -1     10288    3    0    1
 -2      3609      1552      3628      3686
 -1     10289    3    0    1
 -2       601       608      1711      3290
 -1     10290    3    0    1
 -2       708       725      2222      3693
 -1     10291    3    0    1
 -2      2907      2804      3556      3358
 -1     10292    3    0    1
 -2      2590      2550      2892      3674
 -1     10293    3    0    1
 -2      2974      3563      3698      3480
 -1     10294    3    0    1
 -2      3538      2877      3322      3655
 -1     10295    3    0    1
 -2      1780      1606      3107      3622
 -1     10296    3    0    1
 -2      1780      3107      3206      3622
 -1     10297    3    0    1
 -2      3045      2752      3109      3622
 -1     10298    3    0    1
 -2      1417      1635      3599      3686
 -1     10299    3    0    1
 -2      1606      1789      3277      3622
 -1     10300    3    0    1
 -2      2951      3002      3107      3622
 -1     10301    3    0    1
 -2      1581      1780      3206      3622
 -1     10302    3    0    1
 -2      2664      2958      3040      3623
 -1     10303    3    0    1
 -2      1410      2570      3054      3623
 -1     10304    3    0    1
 -2      1529      1410      3054      3623
 -1     10305    3    0    1
 -2      2664      1694      2958      3623
 -1     10306    3    0    1
 -2      2484      2570      2664      3623
 -1     10307    3    0    1
 -2      2570      2912      3054      3623
 -1     10308    3    0    1
 -2       984      2544      3588      1890
 -1     10309    3    0    1
 -2      3002      3206      3622      3685
 -1     10310    3    0    1
 -2       387      1748      3615      3646
 -1     10311    3    0    1
 -2      2806      2558      3348      3667
 -1     10312    3    0    1
 -2      1850      3346      1930      3494
 -1     10313    3    0    1
 -2      3281      3052      3643      3645
 -1     10314    3    0    1
 -2      1629      2840      2911      3318
 -1     10315    3    0    1
 -2      3273      2609      1843      1844
 -1     10316    3    0    1
 -2      3283      1558      1716      1717
 -1     10317    3    0    1
 -2      1494      1493      1717      3283
 -1     10318    3    0    1
 -2      1493      1494      2758      3283
 -1     10319    3    0    1
 -2      3546      3570      3611      3714
 -1     10320    3    0    1
 -2      1716      3085      1558      3283
 -1     10321    3    0    1
 -2       970       975      3502      1904
 -1     10322    3    0    1
 -2      2963      1659      2984      3664
 -1     10323    3    0    1
 -2      3521      2967      3173      3671
 -1     10324    3    0    1
 -2      2573      3580      3616      3671
 -1     10325    3    0    1
 -2      2936      3119      3245      3639
 -1     10326    3    0    1
 -2      2630      3595      3629      3639
 -1     10327    3    0    1
 -2      2937      1713      3621      3405
 -1     10328    3    0    1
 -2      2832      3237      3357      3664
 -1     10329    3    0    1
 -2      2748      2598      2959      3664
 -1     10330    3    0    1
 -2      2754      2942      3051      3664
 -1     10331    3    0    1
 -2      3594       329      3604      3689
 -1     10332    3    0    1
 -2      3599      1664      3234      3287
 -1     10333    3    0    1
 -2      2588      3599      3234      3287
 -1     10334    3    0    1
 -2      1664      2588      3234      3287
 -1     10335    3    0    1
 -2      3598      2631      3599      3287
 -1     10336    3    0    1
 -2      2588      3598      3599      3287
 -1     10337    3    0    1
 -2      3108      2631      3598      3287
 -1     10338    3    0    1
 -2      1718      3559      3104      3344
 -1     10339    3    0    1
 -2       316      1664      3599      3287
 -1     10340    3    0    1
 -2      1006       316      3599      3287
 -1     10341    3    0    1
 -2      2507      2609      3598      3287
 -1     10342    3    0    1
 -2      2588      2507      3598      3287
 -1     10343    3    0    1
 -2      2954      1597      3323      3344
 -1     10344    3    0    1
 -2      1505      1597      2954      3344
 -1     10345    3    0    1
 -2      2609      2588      2802      3287
 -1     10346    3    0    1
 -2      2507      2588      2609      3287
 -1     10347    3    0    1
 -2      2991      1517      3027      3288
 -1     10348    3    0    1
 -2      1550      1517      2991      3288
 -1     10349    3    0    1
 -2      1693      1692      3051      1864
 -1     10350    3    0    1
 -2      3162      3205      3621      3289
 -1     10351    3    0    1
 -2       990       410      1312      3647
 -1     10352    3    0    1
 -2       277      3557      3653      1895
 -1     10353    3    0    1
 -2      1305       981      3565      3716
 -1     10354    3    0    1
 -2      1628       277      2971      1895
 -1     10355    3    0    1
 -2      1410      3513      1694      3647
 -1     10356    3    0    1
 -2      1064      1069      3707      1920
 -1     10357    3    0    1
 -2      2554      2490      2569      3625
 -1     10358    3    0    1
 -2      2567      2554      2780      3625
 -1     10359    3    0    1
 -2      3086      1535      3112      3625
 -1     10360    3    0    1
 -2      3108      3086      3112      3625
 -1     10361    3    0    1
 -2      2490      2566      2569      3625
 -1     10362    3    0    1
 -2      1503      1535      3086      3625
 -1     10363    3    0    1
 -2      1535       698      3112      3625
 -1     10364    3    0    1
 -2      1503      3086      3106      3625
 -1     10365    3    0    1
 -2      2567      2780      3101      3625
 -1     10366    3    0    1
 -2      1465      1503      3106      3625
 -1     10367    3    0    1
 -2      3021      3023      3618      3355
 -1     10368    3    0    1
 -2       171       429      3678      1893
 -1     10369    3    0    1
 -2      1598      1597      3110      3447
 -1     10370    3    0    1
 -2       768      3237      3258      3626
 -1     10371    3    0    1
 -2       763      2911      1871      1872
 -1     10372    3    0    1
 -2      2943      3138      3197      3626
 -1     10373    3    0    1
 -2      2943      2754      3138      3626
 -1     10374    3    0    1
 -2      1629       768      3258      3626
 -1     10375    3    0    1
 -2      2966      2943      3197      3626
 -1     10376    3    0    1
 -2      2737      2754      2943      3626
 -1     10377    3    0    1
 -2      3539      1590      1827      3306
 -1     10378    3    0    1
 -2      2908      3338      3654      3672
 -1     10379    3    0    1
 -2      2868      2737      2943      3626
 -1     10380    3    0    1
 -2      2903      1624      3556      3301
 -1     10381    3    0    1
 -2      2290      2242      2464      3627
 -1     10382    3    0    1
 -2      2242      2290      3253      3627
 -1     10383    3    0    1
 -2       964       391      1302      3627
 -1     10384    3    0    1
 -2      3020      3661      3705      3025
 -1     10385    3    0    1
 -2       430       319      3725      3730
 -1     10386    3    0    1
 -2      1692      3009      3017      3705
 -1     10387    3    0    1
 -2      1552      3225      3609      3628
 -1     10388    3    0    1
 -2      1552       182      3225      3628
 -1     10389    3    0    1
 -2      3037      1612      1838      3295
 -1     10390    3    0    1
 -2      1678      3550      3069      3295
 -1     10391    3    0    1
 -2      3032      1612      3037      3295
 -1     10392    3    0    1
 -2      3550      1678      3032      3295
 -1     10393    3    0    1
 -2      1678      1612      3032      3295
 -1     10394    3    0    1
 -2      3564       395      3570      1886
 -1     10395    3    0    1
 -2      3564      1796      3629      1886
 -1     10396    3    0    1
 -2      3180      2779      3304      3679
 -1     10397    3    0    1
 -2      3550      2986      3037      3295
 -1     10398    3    0    1
 -2      2986      3550      3032      3295
 -1     10399    3    0    1
 -2      2986      3032      3037      3295
 -1     10400    3    0    1
 -2      1302      3498      2464      3627
 -1     10401    3    0    1
 -2      3498      1302      2464      3629
 -1     10402    3    0    1
 -2      3498      2066      3500      3629
 -1     10403    3    0    1
 -2      2185      2500      3168      3640
 -1     10404    3    0    1
 -2      2185      1312      3534      3640
 -1     10405    3    0    1
 -2      1302      2765      2931      3629
 -1     10406    3    0    1
 -2       972      1302      2931      3629
 -1     10407    3    0    1
 -2      2765      3160      3595      3629
 -1     10408    3    0    1
 -2      1312      2185      3168      3640
 -1     10409    3    0    1
 -2       391      1302      3617      3629
 -1     10410    3    0    1
 -2      1656       391      3617      3629
 -1     10411    3    0    1
 -2      2464      2066      3498      3629
 -1     10412    3    0    1
 -2      2250       972      3500      3629
 -1     10413    3    0    1
 -2      2066      2250      3500      3629
 -1     10414    3    0    1
 -2      3563      2817      3427      3714
 -1     10415    3    0    1
 -2      2852      2630      3595      3629
 -1     10416    3    0    1
 -2      1656      2852      1834      3629
 -1     10417    3    0    1
 -2      2852      3595      1834      3629
 -1     10418    3    0    1
 -2      3595      3160      1834      3629
 -1     10419    3    0    1
 -2       391      1656      1834      3629
 -1     10420    3    0    1
 -2      1616       145      3418      3424
 -1     10421    3    0    1
 -2        20       145      1616      3424
 -1     10422    3    0    1
 -2       395       972      1543      3629
 -1     10423    3    0    1
 -2       972      2931      3118      3629
 -1     10424    3    0    1
 -2      1656      1421      2852      3629
 -1     10425    3    0    1
 -2      2765      1302      3160      3629
 -1     10426    3    0    1
 -2      1543       972      3118      3629
 -1     10427    3    0    1
 -2        20      1762      3418      3424
 -1     10428    3    0    1
 -2      2630      1421      2746      3629
 -1     10429    3    0    1
 -2      2250      2066      2464      3629
 -1     10430    3    0    1
 -2      1421      2630      2852      3629
 -1     10431    3    0    1
 -2      3160      1302      1834      3629
 -1     10432    3    0    1
 -2      1302       391      1834      3629
 -1     10433    3    0    1
 -2      2854      3073      3276      3644
 -1     10434    3    0    1
 -2      2479      2628      3561      3644
 -1     10435    3    0    1
 -2      2715      2772      3555      3359
 -1     10436    3    0    1
 -2      1696      1555      3144      3359
 -1     10437    3    0    1
 -2      1461      1579      3268      3644
 -1     10438    3    0    1
 -2      2716      1461      3268      3644
 -1     10439    3    0    1
 -2      1579      2874      3268      3644
 -1     10440    3    0    1
 -2      2874      1579      1769      3644
 -1     10441    3    0    1
 -2      2680      2854      3561      3644
 -1     10442    3    0    1
 -2      2066      2483      3498      3427
 -1     10443    3    0    1
 -2      2290      2474      3253      3631
 -1     10444    3    0    1
 -2      2474      2139      3253      3631
 -1     10445    3    0    1
 -2       956       128      1298      3631
 -1     10446    3    0    1
 -2      3515      3547      3601      3666
 -1     10447    3    0    1
 -2       319      1015      3515      3666
 -1     10448    3    0    1
 -2      3626      2868      2647      2943
 -1     10449    3    0    1
 -2      3118      2746      3629      3639
 -1     10450    3    0    1
 -2      3547      1497      3601      3666
 -1     10451    3    0    1
 -2      1497      1561      3601      3666
 -1     10452    3    0    1
 -2      3029      2989      3100      3632
 -1     10453    3    0    1
 -2      2797      2989      3029      3632
 -1     10454    3    0    1
 -2      2988      2868      3239      3632
 -1     10455    3    0    1
 -2      2737      2868      2870      3632
 -1     10456    3    0    1
 -2      2870      2868      2988      3632
 -1     10457    3    0    1
 -2      2868      2647      3239      3632
 -1     10458    3    0    1
 -2      1553      3029      3100      3632
 -1     10459    3    0    1
 -2      2647      2763      3239      3632
 -1     10460    3    0    1
 -2      3515      2808      3567      3666
 -1     10461    3    0    1
 -2      1706      1553      3100      3632
 -1     10462    3    0    1
 -2      1015       319      1322      3725
 -1     10463    3    0    1
 -2      3547      3515      3567      3666
 -1     10464    3    0    1
 -2      1015      1322      3515      3666
 -1     10465    3    0    1
 -2      2868      3626      2647      3632
 -1     10466    3    0    1
 -2      2965      2860      3102      3650
 -1     10467    3    0    1
 -2      2536      2476      2889      3633
 -1     10468    3    0    1
 -2      2625      2605      2726      3633
 -1     10469    3    0    1
 -2      2710      2536      2889      3633
 -1     10470    3    0    1
 -2      2614      3013      3039      3650
 -1     10471    3    0    1
 -2       554      2902      3046      3633
 -1     10472    3    0    1
 -2      1531       554      3046      3633
 -1     10473    3    0    1
 -2      2964      3102      3581      3650
 -1     10474    3    0    1
 -2        68      1633      3196      3381
 -1     10475    3    0    1
 -2      3555      3196      3216      3381
 -1     10476    3    0    1
 -2      3584      3522      1066      3516
 -1     10477    3    0    1
 -2      1616      3576      3468      3018
 -1     10478    3    0    1
 -2      3522      3584      1066      3635
 -1     10479    3    0    1
 -2      2760      2332      3522      3635
 -1     10480    3    0    1
 -2      1422      3496      3583      3635
 -1     10481    3    0    1
 -2       101      1614      2881      3635
 -1     10482    3    0    1
 -2      1422      2654      3584      3635
 -1     10483    3    0    1
 -2      3496      2760      3583      3635
 -1     10484    3    0    1
 -2      3496      2332      2760      3635
 -1     10485    3    0    1
 -2      2332      3496      3522      3635
 -1     10486    3    0    1
 -2      3522      3496      3557      3635
 -1     10487    3    0    1
 -2      1422      3522      3557      3635
 -1     10488    3    0    1
 -2      3496      1422      3557      3635
 -1     10489    3    0    1
 -2      2654      1614      3584      3635
 -1     10490    3    0    1
 -2      1614      2654      2881      3635
 -1     10491    3    0    1
 -2      2529      1422      3584      3635
 -1     10492    3    0    1
 -2      1422      2529      3522      3635
 -1     10493    3    0    1
 -2      3522      2529      3584      3635
 -1     10494    3    0    1
 -2       101      1066      1614      3635
 -1     10495    3    0    1
 -2      2654      1422      1652      3635
 -1     10496    3    0    1
 -2      2654      1652      2881      3635
 -1     10497    3    0    1
 -2      2779      3136      3180      3304
 -1     10498    3    0    1
 -2      2188      1012      3693      1914
 -1     10499    3    0    1
 -2      3641      2545      3366      3670
 -1     10500    3    0    1
 -2      1787      1786      3130      3305
 -1     10501    3    0    1
 -2      2459      3569      3715      3739
 -1     10502    3    0    1
 -2      1616      1617      3018      3374
 -1     10503    3    0    1
 -2      2647      3533      3626      3636
 -1     10504    3    0    1
 -2       319      1015      3666      3725
 -1     10505    3    0    1
 -2      3515      1322      2798      3666
 -1     10506    3    0    1
 -2      1491      2750      2961      3636
 -1     10507    3    0    1
 -2      2750      1491      2859      3636
 -1     10508    3    0    1
 -2      1629      2966      3626      3636
 -1     10509    3    0    1
 -2      3258      1629      3626      3636
 -1     10510    3    0    1
 -2      1629      2961      2966      3636
 -1     10511    3    0    1
 -2      1629      1491      2961      3636
 -1     10512    3    0    1
 -2      2943      2647      3626      3636
 -1     10513    3    0    1
 -2      2966      2943      3626      3636
 -1     10514    3    0    1
 -2      2702      2701      2827      3636
 -1     10515    3    0    1
 -2      2701      2647      2827      3636
 -1     10516    3    0    1
 -2      2762      2859      3258      3636
 -1     10517    3    0    1
 -2      2750      2702      2827      3636
 -1     10518    3    0    1
 -2      2750      2827      2961      3636
 -1     10519    3    0    1
 -2      2961      2827      2966      3636
 -1     10520    3    0    1
 -2      2859      1491      3258      3636
 -1     10521    3    0    1
 -2      2827      2647      2966      3636
 -1     10522    3    0    1
 -2      1491      1629      3258      3636
 -1     10523    3    0    1
 -2      2647      2943      2966      3636
 -1     10524    3    0    1
 -2      2655      3535      3579      3307
 -1     10525    3    0    1
 -2      3535      2655      3099      3307
 -1     10526    3    0    1
 -2      3076      2655      3579      3307
 -1     10527    3    0    1
 -2      2809      3076      1838      3307
 -1     10528    3    0    1
 -2      3099      2809      1838      3307
 -1     10529    3    0    1
 -2      2655      2809      3099      3307
 -1     10530    3    0    1
 -2      2809      2655      3076      3307
 -1     10531    3    0    1
 -2      2185      2190      3506      3686
 -1     10532    3    0    1
 -2      1446      1445      3096      1852
 -1     10533    3    0    1
 -2       253       426      1868      3656
 -1     10534    3    0    1
 -2      1721      3551      3596      3656
 -1     10535    3    0    1
 -2      1829       626      3639      3471
 -1     10536    3    0    1
 -2       626      2850      3639      3470
 -1     10537    3    0    1
 -2      3181      3096      1851      1852
 -1     10538    3    0    1
 -2      3096      1445      1851      1852
 -1     10539    3    0    1
 -2      2863      3096      3181      1852
 -1     10540    3    0    1
 -2      3504      3641      3366      3670
 -1     10541    3    0    1
 -2      3541      1416      3068      3404
 -1     10542    3    0    1
 -2      2856      3143      3641      3670
 -1     10543    3    0    1
 -2      1308      2136      3501      3718
 -1     10544    3    0    1
 -2      1661      2857      3293      3308
 -1     10545    3    0    1
 -2       383      3508      3642      3548
 -1     10546    3    0    1
 -2      3648      3586      3657      3452
 -1     10547    3    0    1
 -2      2857      2590      3293      3308
 -1     10548    3    0    1
 -2      3560      2978      3260      3365
 -1     10549    3    0    1
 -2      1567      2992      3098      3637
 -1     10550    3    0    1
 -2      1021      1027      3507      1902
 -1     10551    3    0    1
 -2      2793      2756      2985      3637
 -1     10552    3    0    1
 -2      2985      2756      3077      3637
 -1     10553    3    0    1
 -2      2722      2793      2985      3637
 -1     10554    3    0    1
 -2      2722      2985      3098      3637
 -1     10555    3    0    1
 -2       208       722       714      1903
 -1     10556    3    0    1
 -2      2756      2793      2869      3637
 -1     10557    3    0    1
 -2       941       383      3614      3740
 -1     10558    3    0    1
 -2      1776      1640      3141      3637
 -1     10559    3    0    1
 -2      2992      2722      3098      3637
 -1     10560    3    0    1
 -2      2990      1567      3141      3637
 -1     10561    3    0    1
 -2      1463      1776      3141      3637
 -1     10562    3    0    1
 -2      1567      1463      3141      3637
 -1     10563    3    0    1
 -2      3242      1616      3576      1865
 -1     10564    3    0    1
 -2      3553      2921      3340      3466
 -1     10565    3    0    1
 -2      1531       554      2925      3310
 -1     10566    3    0    1
 -2      2668      2925      2977      3310
 -1     10567    3    0    1
 -2      2686      1446      2980      3448
 -1     10568    3    0    1
 -2      1832      1844      3660      3445
 -1     10569    3    0    1
 -2      2980      1446      1840      3448
 -1     10570    3    0    1
 -2      2925      2977       554      3149
 -1     10571    3    0    1
 -2      2977      2925       554      3310
 -1     10572    3    0    1
 -2      2541      3292      3660      3445
 -1     10573    3    0    1
 -2      2686      2507      3598      3448
 -1     10574    3    0    1
 -2      2461      3520      3541      3638
 -1     10575    3    0    1
 -2      3541      3520      3068      3638
 -1     10576    3    0    1
 -2      2461      3541      3068      3638
 -1     10577    3    0    1
 -2      1713      3205      1818      3405
 -1     10578    3    0    1
 -2      3499      1434      3539      3638
 -1     10579    3    0    1
 -2      1434      1590      3539      3638
 -1     10580    3    0    1
 -2      3539      1590      3306      3638
 -1     10581    3    0    1
 -2      2471      2676      3558      3672
 -1     10582    3    0    1
 -2       644      1519      3173      3683
 -1     10583    3    0    1
 -2      2993      3068      3284      3638
 -1     10584    3    0    1
 -2      2739      2531      3654      3672
 -1     10585    3    0    1
 -2      2427      2290      2461      3638
 -1     10586    3    0    1
 -2      2427      3499      2290      3638
 -1     10587    3    0    1
 -2       981       171      1308      3684
 -1     10588    3    0    1
 -2      2755      2475      3155      3683
 -1     10589    3    0    1
 -2      1590      1434      3306      3638
 -1     10590    3    0    1
 -2      3338      2739      3654      3672
 -1     10591    3    0    1
 -2      3119      1778      3245      3639
 -1     10592    3    0    1
 -2      1778      1620      3245      3639
 -1     10593    3    0    1
 -2       241      1659      2963      3664
 -1     10594    3    0    1
 -2       626      2810      1829      3639
 -1     10595    3    0    1
 -2       180      1801      3719      3472
 -1     10596    3    0    1
 -2      2557      2630      2764      3639
 -1     10597    3    0    1
 -2      2730      2557      2764      3639
 -1     10598    3    0    1
 -2      2630      2746      2764      3639
 -1     10599    3    0    1
 -2      2764      2746      2936      3639
 -1     10600    3    0    1
 -2      3342      3513      3719      3472
 -1     10601    3    0    1
 -2      2557      2730      2787      3639
 -1     10602    3    0    1
 -2      2730      2764      2810      3639
 -1     10603    3    0    1
 -2      1442      2670      2748      3664
 -1     10604    3    0    1
 -2       698       691      3240      1896
 -1     10605    3    0    1
 -2      2730      2810      2850      3639
 -1     10606    3    0    1
 -2      2810      2764      3245      3639
 -1     10607    3    0    1
 -2      2764      2936      3245      3639
 -1     10608    3    0    1
 -2      1620      1778      3119      3639
 -1     10609    3    0    1
 -2      1694      1752      3651      3472
 -1     10610    3    0    1
 -2      3118      3119      3639      3471
 -1     10611    3    0    1
 -2      2271      3551      3618      3717
 -1     10612    3    0    1
 -2      2480      3504      2856      3641
 -1     10613    3    0    1
 -2      2480      2487      3504      3641
 -1     10614    3    0    1
 -2      2487      2480      2522      3641
 -1     10615    3    0    1
 -2      2736      1593      3103      3671
 -1     10616    3    0    1
 -2      1593      2736      2962      3671
 -1     10617    3    0    1
 -2      2644      2835      3167      3641
 -1     10618    3    0    1
 -2       556       336       944      1916
 -1     10619    3    0    1
 -2      2480       735      2522      3641
 -1     10620    3    0    1
 -2       734      1024      1322      3641
 -1     10621    3    0    1
 -2      2598      2754      3571      3664
 -1     10622    3    0    1
 -2      1501      2482      2548      3641
 -1     10623    3    0    1
 -2      1411      2482      3587      3641
 -1     10624    3    0    1
 -2      2959      2598      3571      3664
 -1     10625    3    0    1
 -2      1616      1865      3364      3455
 -1     10626    3    0    1
 -2        20       145      1876      3374
 -1     10627    3    0    1
 -2      3671      2540      3521      2967
 -1     10628    3    0    1
 -2      1576      3587      3167      3641
 -1     10629    3    0    1
 -2      2835      1576      3167      3641
 -1     10630    3    0    1
 -2       734       735      2480      3641
 -1     10631    3    0    1
 -2       735       734      1322      3641
 -1     10632    3    0    1
 -2      1576      1411      3587      3641
 -1     10633    3    0    1
 -2      2856      3143      3167      3641
 -1     10634    3    0    1
 -2      1024      2856      3167      3641
 -1     10635    3    0    1
 -2      2482      2470      2486      3641
 -1     10636    3    0    1
 -2      2486      2470      2545      3641
 -1     10637    3    0    1
 -2      2791      2540      3555      3671
 -1     10638    3    0    1
 -2      1024      2480      2856      3641
 -1     10639    3    0    1
 -2      2482      2486      2548      3641
 -1     10640    3    0    1
 -2      2470      2482      2644      3641
 -1     10641    3    0    1
 -2      3527      2748      3571      3664
 -1     10642    3    0    1
 -2      1700      3520      3566      3404
 -1     10643    3    0    1
 -2       145      3351      1876      3374
 -1     10644    3    0    1
 -2      2607      3535      3675      3690
 -1     10645    3    0    1
 -2       735      1322      2522      3641
 -1     10646    3    0    1
 -2      1024       734      2480      3641
 -1     10647    3    0    1
 -2      2482      1411      2644      3641
 -1     10648    3    0    1
 -2      2644      1576      2835      3641
 -1     10649    3    0    1
 -2      1411      1576      2644      3641
 -1     10650    3    0    1
 -2       770       771      1330      3316
 -1     10651    3    0    1
 -2      1330       771      2127      3316
 -1     10652    3    0    1
 -2      1491      1492      3063      3318
 -1     10653    3    0    1
 -2      1492      1491      1630      3318
 -1     10654    3    0    1
 -2      1596      1431      3608      3643
 -1     10655    3    0    1
 -2      1032      1330      3544      3729
 -1     10656    3    0    1
 -2      2751      3591      3209      3643
 -1     10657    3    0    1
 -2       241      1673      3209      3643
 -1     10658    3    0    1
 -2      3052      1596      1802      3643
 -1     10659    3    0    1
 -2       725      1018      2222      3693
 -1     10660    3    0    1
 -2       571       573      2574      3646
 -1     10661    3    0    1
 -2       254      1050      2451      3696
 -1     10662    3    0    1
 -2      1431      2659      3591      3643
 -1     10663    3    0    1
 -2       253      1596      3608      3643
 -1     10664    3    0    1
 -2       253      3511      3643      3608
 -1     10665    3    0    1
 -2      2728      3556      3272      3358
 -1     10666    3    0    1
 -2      2706      1032      3530      3689
 -1     10667    3    0    1
 -2      1322      3724      3725      3730
 -1     10668    3    0    1
 -2       430      3668      3477      3730
 -1     10669    3    0    1
 -2      2499      2742      3530      3689
 -1     10670    3    0    1
 -2      3724      3668      3725      3730
 -1     10671    3    0    1
 -2      3052      1802      3281      3643
 -1     10672    3    0    1
 -2      1596       253      1802      3643
 -1     10673    3    0    1
 -2      1326      2813      3530      3689
 -1     10674    3    0    1
 -2      3556      1624      3272      3358
 -1     10675    3    0    1
 -2      1431      2751      1673      3643
 -1     10676    3    0    1
 -2      1431      1596      3052      3643
 -1     10677    3    0    1
 -2      1673      2751      3209      3643
 -1     10678    3    0    1
 -2       193      1012      2188      1914
 -1     10679    3    0    1
 -2      2659      1431      3052      3643
 -1     10680    3    0    1
 -2      2706      3530      2950      3689
 -1     10681    3    0    1
 -2      1802      1049      3281      3643
 -1     10682    3    0    1
 -2       253      1049      1802      3643
 -1     10683    3    0    1
 -2      3513      3613      3647      3718
 -1     10684    3    0    1
 -2      1709      1461      3275      3644
 -1     10685    3    0    1
 -2      2628      2716      2874      3644
 -1     10686    3    0    1
 -2      1437      2628      2874      3644
 -1     10687    3    0    1
 -2      2628      2691      2716      3644
 -1     10688    3    0    1
 -2      2874      2716      3268      3644
 -1     10689    3    0    1
 -2      2628      1437      2680      3644
 -1     10690    3    0    1
 -2      1579      3276      1848      3644
 -1     10691    3    0    1
 -2      2716      2691      3275      3644
 -1     10692    3    0    1
 -2      2628      2479      2691      3644
 -1     10693    3    0    1
 -2      1579      1461      3276      3644
 -1     10694    3    0    1
 -2      1769      1579      1848      3644
 -1     10695    3    0    1
 -2      3073      3276      1848      1702
 -1     10696    3    0    1
 -2      3509      3567      3666      3724
 -1     10697    3    0    1
 -2      1438      1730      3630      3678
 -1     10698    3    0    1
 -2      2851      3163      3595      3721
 -1     10699    3    0    1
 -2       243       330      3582      1881
 -1     10700    3    0    1
 -2       990       410      3613      3322
 -1     10701    3    0    1
 -2      2707      1289      1741      3646
 -1     10702    3    0    1
 -2       383      3508      3548      3646
 -1     10703    3    0    1
 -2      1432      3508      3615      3646
 -1     10704    3    0    1
 -2       571      2574      2909      3646
 -1     10705    3    0    1
 -2      3162      3166      3289      3646
 -1     10706    3    0    1
 -2      3166      3267      3289      3646
 -1     10707    3    0    1
 -2       225        57      1674      1925
 -1     10708    3    0    1
 -2      2659      2924      3591      3645
 -1     10709    3    0    1
 -2      2789      2744      3591      3645
 -1     10710    3    0    1
 -2      1583      1457      2766      3665
 -1     10711    3    0    1
 -2      3623      1529      1877      1887
 -1     10712    3    0    1
 -2      2659      3591      3643      3645
 -1     10713    3    0    1
 -2      3052      2659      3643      3645
 -1     10714    3    0    1
 -2      3281      1443      3285      3645
 -1     10715    3    0    1
 -2      1443      2895      3285      3645
 -1     10716    3    0    1
 -2      3418      1616      3424      3455
 -1     10717    3    0    1
 -2       157       624       978      1889
 -1     10718    3    0    1
 -2      3052      3281      3285      3645
 -1     10719    3    0    1
 -2      3281      2744      3324      3645
 -1     10720    3    0    1
 -2      2744      3083      3324      3645
 -1     10721    3    0    1
 -2      1049      2744      3281      3645
 -1     10722    3    0    1
 -2      2233      2514      2681      3698
 -1     10723    3    0    1
 -2      2563      2895      3317      3645
 -1     10724    3    0    1
 -2      1767      3281      3324      3645
 -1     10725    3    0    1
 -2      1409      1724      3634      3476
 -1     10726    3    0    1
 -2      2895      2563      2924      3645
 -1     10727    3    0    1
 -2      1767      1443      3281      3645
 -1     10728    3    0    1
 -2      2558      2801      3348      3667
 -1     10729    3    0    1
 -2      1610      2519      3075      3363
 -1     10730    3    0    1
 -2      2895      2659      3285      3645
 -1     10731    3    0    1
 -2      2659      2895      2924      3645
 -1     10732    3    0    1
 -2      2659      3052      3285      3645
 -1     10733    3    0    1
 -2       949      2909      3289      3646
 -1     10734    3    0    1
 -2      2574      1289      2707      3646
 -1     10735    3    0    1
 -2       949       571      2909      3646
 -1     10736    3    0    1
 -2      2941      2945      2957      3646
 -1     10737    3    0    1
 -2      2707      1741      3066      3646
 -1     10738    3    0    1
 -2      2941      1432      3267      3646
 -1     10739    3    0    1
 -2       573      1289      2574      3646
 -1     10740    3    0    1
 -2      2791      3329      3671      3403
 -1     10741    3    0    1
 -2      2957      2945      2979      3646
 -1     10742    3    0    1
 -2      1530      1432      2957      3646
 -1     10743    3    0    1
 -2      1289       383      1741      3646
 -1     10744    3    0    1
 -2      1530      2957      2970      3646
 -1     10745    3    0    1
 -2      1432      1748      3267      3646
 -1     10746    3    0    1
 -2      1746       949      3289      3646
 -1     10747    3    0    1
 -2      3162      2941      3267      3646
 -1     10748    3    0    1
 -2      1241      2791      2915      3403
 -1     10749    3    0    1
 -2      2918      3300      3320      3403
 -1     10750    3    0    1
 -2       387       949      1746      3646
 -1     10751    3    0    1
 -2      3166      3162      3267      3646
 -1     10752    3    0    1
 -2      1486      1485      2975      3327
 -1     10753    3    0    1
 -2      3606      2541      3660      3445
 -1     10754    3    0    1
 -2      1832      3292      1896      3445
 -1     10755    3    0    1
 -2      1844      3256      3660      3445
 -1     10756    3    0    1
 -2      2823      3606      3256      3445
 -1     10757    3    0    1
 -2       799       804      3004      3328
 -1     10758    3    0    1
 -2      1592      1591      1772      3328
 -1     10759    3    0    1
 -2      1591      1592      2903      3328
 -1     10760    3    0    1
 -2      2828      3004      3556      3328
 -1     10761    3    0    1
 -2      2903      2828      3556      3328
 -1     10762    3    0    1
 -2      1771      1591      3272      3328
 -1     10763    3    0    1
 -2       804      1771      3272      3328
 -1     10764    3    0    1
 -2       590       583      1838      3375
 -1     10765    3    0    1
 -2      2713       662      3279      3672
 -1     10766    3    0    1
 -2      1700      3566      1797      3404
 -1     10767    3    0    1
 -2      2908      2829      3121      3672
 -1     10768    3    0    1
 -2      1522      3121      3177      3672
 -1     10769    3    0    1
 -2      2913      2648      3279      3672
 -1     10770    3    0    1
 -2      2713      2531      2739      3672
 -1     10771    3    0    1
 -2      1838       583      1839      3375
 -1     10772    3    0    1
 -2      1522      1661      2913      3672
 -1     10773    3    0    1
 -2      3037      1838      1839      3375
 -1     10774    3    0    1
 -2      3284      3306      3638      3404
 -1     10775    3    0    1
 -2      1294      3512      3572      3723
 -1     10776    3    0    1
 -2      3634      1724      1870      3476
 -1     10777    3    0    1
 -2      3194       732      3233      3333
 -1     10778    3    0    1
 -2      2498      3117      3315      3333
 -1     10779    3    0    1
 -2      3117      2498      3597      3333
 -1     10780    3    0    1
 -2      3597      2498      3315      3333
 -1     10781    3    0    1
 -2      2865      3597      3315      3333
 -1     10782    3    0    1
 -2      2865      3194      3597      3333
 -1     10783    3    0    1
 -2      1461      1709      3028      3386
 -1     10784    3    0    1
 -2      2864      2862      3127      3386
 -1     10785    3    0    1
 -2      2646      3117      3597      3333
 -1     10786    3    0    1
 -2      3117      2646      3233      3333
 -1     10787    3    0    1
 -2      1838      3037      3295      3334
 -1     10788    3    0    1
 -2      3637      3037      3620      2756
 -1     10789    3    0    1
 -2      3550      3091      3295      3334
 -1     10790    3    0    1
 -2      3037      3550      3295      3334
 -1     10791    3    0    1
 -2      3037      3620      2756      3550
 -1     10792    3    0    1
 -2      3091      3620      3637      3334
 -1     10793    3    0    1
 -2      3091      3550      3620      3334
 -1     10794    3    0    1
 -2      3037      3637      3620      3334
 -1     10795    3    0    1
 -2        21      1754      3084      1867
 -1     10796    3    0    1
 -2      1533        21      3084      1867
 -1     10797    3    0    1
 -2      1514      1676      2812      3365
 -1     10798    3    0    1
 -2      2557      2851      3595      3721
 -1     10799    3    0    1
 -2      2649      3061      3116      3385
 -1     10800    3    0    1
 -2      2841      1642      1788      3385
 -1     10801    3    0    1
 -2      2787      2557      3662      3721
 -1     10802    3    0    1
 -2      1802       253      1803      1868
 -1     10803    3    0    1
 -2      3152      1802      1803      1868
 -1     10804    3    0    1
 -2      1581      3045      3206      1874
 -1     10805    3    0    1
 -2      2731      2612      3208      3649
 -1     10806    3    0    1
 -2      2612      2731      3553      3649
 -1     10807    3    0    1
 -2      3046      1531      3633      3649
 -1     10808    3    0    1
 -2      2605      2476      3633      3649
 -1     10809    3    0    1
 -2      2476      2612      3553      3649
 -1     10810    3    0    1
 -2      2996      1531      1824      3649
 -1     10811    3    0    1
 -2      2625      2605      3633      3649
 -1     10812    3    0    1
 -2      1531      2625      3633      3649
 -1     10813    3    0    1
 -2      2625      1531      2996      3649
 -1     10814    3    0    1
 -2      3046      2694      3313      3649
 -1     10815    3    0    1
 -2      1485      3046      3313      3649
 -1     10816    3    0    1
 -2      3046      1485      1824      3649
 -1     10817    3    0    1
 -2      3208      2732      3325      3649
 -1     10818    3    0    1
 -2      2732      2996      3325      3649
 -1     10819    3    0    1
 -2      2612      2732      3208      3649
 -1     10820    3    0    1
 -2      2732      2605      2996      3649
 -1     10821    3    0    1
 -2      2476      2605      2732      3649
 -1     10822    3    0    1
 -2      2612      2476      2732      3649
 -1     10823    3    0    1
 -2      1531      3046      1824      3649
 -1     10824    3    0    1
 -2      2605      2625      2996      3649
 -1     10825    3    0    1
 -2      2614      2502      2645      3650
 -1     10826    3    0    1
 -2      2614      2645      3005      3650
 -1     10827    3    0    1
 -2      2645      2965      3000      3650
 -1     10828    3    0    1
 -2      2964      1684      3102      3650
 -1     10829    3    0    1
 -2      1684      3008      3215      3650
 -1     10830    3    0    1
 -2      2614      3581      2502      3650
 -1     10831    3    0    1
 -2      2645      2858      3005      3650
 -1     10832    3    0    1
 -2      2858      2645      3000      3650
 -1     10833    3    0    1
 -2      1684      1546      3102      3650
 -1     10834    3    0    1
 -2      1684       924      3008      3650
 -1     10835    3    0    1
 -2       924      1684      2964      3650
 -1     10836    3    0    1
 -2      1447      3008      3013      3650
 -1     10837    3    0    1
 -2      1546      1487      3102      3650
 -1     10838    3    0    1
 -2      2858      1447      3005      3650
 -1     10839    3    0    1
 -2      3008      1447      3215      3650
 -1     10840    3    0    1
 -2      2920      2718      2956      3687
 -1     10841    3    0    1
 -2      3540       410      3640      3652
 -1     10842    3    0    1
 -2      3514      3540      3640      3652
 -1     10843    3    0    1
 -2       410      1753      3540      1801
 -1     10844    3    0    1
 -2      1753       410      3540      3652
 -1     10845    3    0    1
 -2      1753      1429      3001      3652
 -1     10846    3    0    1
 -2      1312       410      3002      3652
 -1     10847    3    0    1
 -2      3251      2863      3673      3393
 -1     10848    3    0    1
 -2      2785      2818      3577      3687
 -1     10849    3    0    1
 -2      2663      1257      1251      3558
 -1     10850    3    0    1
 -2      3002       410      3206      3652
 -1     10851    3    0    1
 -2      2863      3251      3345      3393
 -1     10852    3    0    1
 -2      2796      2534      2818      3687
 -1     10853    3    0    1
 -2       410      1750      3206      3652
 -1     10854    3    0    1
 -2       426       253      3608      3656
 -1     10855    3    0    1
 -2       253      3511      3608      3656
 -1     10856    3    0    1
 -2      3522      3557      3602      3653
 -1     10857    3    0    1
 -2       277      3522      3602      3653
 -1     10858    3    0    1
 -2      3522       277      3557      3653
 -1     10859    3    0    1
 -2      3183      2940      3198      3673
 -1     10860    3    0    1
 -2      3296       804      1853      3340
 -1     10861    3    0    1
 -2      2663      2875      3558      3654
 -1     10862    3    0    1
 -2      2663      2562      2875      3654
 -1     10863    3    0    1
 -2      3104      2613      3323      3344
 -1     10864    3    0    1
 -2      2872      3550      3069      3455
 -1     10865    3    0    1
 -2       768       763      2911      1871
 -1     10866    3    0    1
 -2      1305      2687      3521      3716
 -1     10867    3    0    1
 -2      3021      3618      3339      3355
 -1     10868    3    0    1
 -2      1545      1411      3509      3477
 -1     10869    3    0    1
 -2      3509      3042      3668      3477
 -1     10870    3    0    1
 -2      3563      3678      3698      3480
 -1     10871    3    0    1
 -2      3666      1322      3724      3725
 -1     10872    3    0    1
 -2      3056      1715      3668      3477
 -1     10873    3    0    1
 -2      1018       317      3693      1915
 -1     10874    3    0    1
 -2      1610       572      2714      3363
 -1     10875    3    0    1
 -2      3551      1409      3618      3355
 -1     10876    3    0    1
 -2      3429      1908      3729      3743
 -1     10877    3    0    1
 -2      3429      3681      1908      3743
 -1     10878    3    0    1
 -2      1730      3678      1893      3716
 -1     10879    3    0    1
 -2      3534      1316      3609      3691
 -1     10880    3    0    1
 -2      3409      1861      1898      3455
 -1     10881    3    0    1
 -2       981       171      3678      3716
 -1     10882    3    0    1
 -2      1730      1438      3630      3716
 -1     10883    3    0    1
 -2      1730      3630      3678      3716
 -1     10884    3    0    1
 -2      3678       171      1893      3716
 -1     10885    3    0    1
 -2      2797      1728      3265      3665
 -1     10886    3    0    1
 -2      1510      1509      2561      3475
 -1     10887    3    0    1
 -2      2538      2697      3113      3673
 -1     10888    3    0    1
 -2      3506      1316      3609      3534
 -1     10889    3    0    1
 -2      2613      2954      3323      3344
 -1     10890    3    0    1
 -2      2954      2805      3331      3344
 -1     10891    3    0    1
 -2      3088      1789      3128      3654
 -1     10892    3    0    1
 -2      2569      3108      3598      3343
 -1     10893    3    0    1
 -2      2739      1789      3338      3654
 -1     10894    3    0    1
 -2      1789      2739      3128      3654
 -1     10895    3    0    1
 -2      2805      3179      3331      3344
 -1     10896    3    0    1
 -2      3559      2613      3104      3344
 -1     10897    3    0    1
 -2      3173      1648      3227      3683
 -1     10898    3    0    1
 -2      2484      2531      2638      3654
 -1     10899    3    0    1
 -2       680      3115      1846      3673
 -1     10900    3    0    1
 -2      3088      2908      3338      3654
 -1     10901    3    0    1
 -2      1782      2538      3115      3673
 -1     10902    3    0    1
 -2      2531      2484      2700      3654
 -1     10903    3    0    1
 -2      2875      2735      2914      3654
 -1     10904    3    0    1
 -2      2877      2663      2908      3654
 -1     10905    3    0    1
 -2      2877      2908      3088      3654
 -1     10906    3    0    1
 -2      2805      3559      3179      3344
 -1     10907    3    0    1
 -2      2562      2735      2875      3654
 -1     10908    3    0    1
 -2       680      1782      3115      3673
 -1     10909    3    0    1
 -2      3179      1505      3331      3344
 -1     10910    3    0    1
 -2      1789      3088      3338      3654
 -1     10911    3    0    1
 -2      2531      2700      2739      3654
 -1     10912    3    0    1
 -2      2822      1503      2956      3687
 -1     10913    3    0    1
 -2      2954      2613      3559      3344
 -1     10914    3    0    1
 -2      2739      2700      3128      3654
 -1     10915    3    0    1
 -2      1316      3609      3628      3686
 -1     10916    3    0    1
 -2      3181      2863      1852      3393
 -1     10917    3    0    1
 -2      1809      3181      1852      3393
 -1     10918    3    0    1
 -2      1581      3040      3655      2878
 -1     10919    3    0    1
 -2      3040      1581      3655      1874
 -1     10920    3    0    1
 -2      1604      3045      3206      3001
 -1     10921    3    0    1
 -2      3045      1604      3206      1874
 -1     10922    3    0    1
 -2      1483      1413      3280      3346
 -1     10923    3    0    1
 -2      3082      1483      3280      3346
 -1     10924    3    0    1
 -2      3040      1581      1874      1875
 -1     10925    3    0    1
 -2      3145      2635      1850      3346
 -1     10926    3    0    1
 -2      1483      1484      3120      1925
 -1     10927    3    0    1
 -2      3082      2633      3145      3346
 -1     10928    3    0    1
 -2      3075      1709      3607      3386
 -1     10929    3    0    1
 -2      3573      2635      3145      3346
 -1     10930    3    0    1
 -2      2633      3573      3145      3346
 -1     10931    3    0    1
 -2      3028      1709      3075      3386
 -1     10932    3    0    1
 -2      1579      1461      2864      3386
 -1     10933    3    0    1
 -2      2633      3082      3280      3346
 -1     10934    3    0    1
 -2      2563      2749      3645      3661
 -1     10935    3    0    1
 -2      3273      3108      1896      3413
 -1     10936    3    0    1
 -2      3500      3563      3427      3714
 -1     10937    3    0    1
 -2      3498      1421      3564      3714
 -1     10938    3    0    1
 -2      3657      3192      3414      3453
 -1     10939    3    0    1
 -2      3501      2136      3513      3718
 -1     10940    3    0    1
 -2      1308      3565      3663      3718
 -1     10941    3    0    1
 -2      2638      2703      3554      3682
 -1     10942    3    0    1
 -2      2471      2531      3672      3682
 -1     10943    3    0    1
 -2      2914      3538      3554      3682
 -1     10944    3    0    1
 -2      3538      2638      3554      3682
 -1     10945    3    0    1
 -2      3112       698      3413      3437
 -1     10946    3    0    1
 -2      1721      1409      3551      3479
 -1     10947    3    0    1
 -2      3020      2789      3591      3661
 -1     10948    3    0    1
 -2      3613      2136      1308      3718
 -1     10949    3    0    1
 -2       698      3112      3625      3437
 -1     10950    3    0    1
 -2      1633      1634      2775      3385
 -1     10951    3    0    1
 -2      1440      3071      3473      3741
 -1     10952    3    0    1
 -2      3592      2497      3662      3721
 -1     10953    3    0    1
 -2      3558      2471      3672      3682
 -1     10954    3    0    1
 -2      2778      2360      2842      3658
 -1     10955    3    0    1
 -2      1526      1253      2558      3348
 -1     10956    3    0    1
 -2      3231      3394      3451      3727
 -1     10957    3    0    1
 -2      2621      3048      3136      3603
 -1     10958    3    0    1
 -2      3292      3240      1896      3445
 -1     10959    3    0    1
 -2      2899      1789      3622      3659
 -1     10960    3    0    1
 -2      3308      1495      3311      3674
 -1     10961    3    0    1
 -2      2590      3293      3308      3674
 -1     10962    3    0    1
 -2      1640      1776      3579      3377
 -1     10963    3    0    1
 -2      1776      2662      3579      3377
 -1     10964    3    0    1
 -2      3549      3264      3308      3659
 -1     10965    3    0    1
 -2      2590      3549      3308      3659
 -1     10966    3    0    1
 -2      2837       662      3297      3659
 -1     10967    3    0    1
 -2      1522       662      2837      3659
 -1     10968    3    0    1
 -2      1789      2899      3297      3659
 -1     10969    3    0    1
 -2      1537      1743      3311      3674
 -1     10970    3    0    1
 -2      1495      2892      3294      3674
 -1     10971    3    0    1
 -2      2892      1495      3293      3674
 -1     10972    3    0    1
 -2      2550      3549      2590      2592
 -1     10973    3    0    1
 -2      2857      2590      3308      3659
 -1     10974    3    0    1
 -2      3264      2857      3308      3659
 -1     10975    3    0    1
 -2      1522      2857      3264      3659
 -1     10976    3    0    1
 -2      1522      2837      2857      3659
 -1     10977    3    0    1
 -2       662      1789      3297      3659
 -1     10978    3    0    1
 -2      3264      2951      3277      3659
 -1     10979    3    0    1
 -2      2697      2517      2837      3659
 -1     10980    3    0    1
 -2      2697      2837      2899      3659
 -1     10981    3    0    1
 -2      3549      2550      2590      3674
 -1     10982    3    0    1
 -2      2517      2590      2837      3659
 -1     10983    3    0    1
 -2       662      3264      3277      3659
 -1     10984    3    0    1
 -2      2899      2837      3297      3659
 -1     10985    3    0    1
 -2      2590      2892      3293      3674
 -1     10986    3    0    1
 -2      2837      2590      2857      3659
 -1     10987    3    0    1
 -2       662      1522      3264      3659
 -1     10988    3    0    1
 -2      1789       662      3277      3659
 -1     10989    3    0    1
 -2      2550      2849      2892      3674
 -1     10990    3    0    1
 -2      3123      1664      3601      3660
 -1     10991    3    0    1
 -2      1664      2709      3601      3660
 -1     10992    3    0    1
 -2       691      3240      1896      1897
 -1     10993    3    0    1
 -2      1833      1832      3292      1897
 -1     10994    3    0    1
 -2      2626      2669      3097      3660
 -1     10995    3    0    1
 -2      3256      1453      1844      3660
 -1     10996    3    0    1
 -2      3142      2091      3219      3701
 -1     10997    3    0    1
 -2      2626      2510      2669      3660
 -1     10998    3    0    1
 -2      1664      1453      3256      3660
 -1     10999    3    0    1
 -2      3506      3562      3609      3701
 -1     11000    3    0    1
 -2      2626      3097      3123      3660
 -1     11001    3    0    1
 -2      2669      2541      3292      3660
 -1     11002    3    0    1
 -2      2709      1664      3256      3660
 -1     11003    3    0    1
 -2      1562      2845      3249      3689
 -1     11004    3    0    1
 -2      1420      1516      3594      3689
 -1     11005    3    0    1
 -2      1629       768      2911      3661
 -1     11006    3    0    1
 -2      3618      3355      3717      3479
 -1     11007    3    0    1
 -2       426      3656      3378      3479
 -1     11008    3    0    1
 -2      1868      1721      3656      3479
 -1     11009    3    0    1
 -2      2911       768      1871      3661
 -1     11010    3    0    1
 -2      3017      2911      1871      3661
 -1     11011    3    0    1
 -2      1409      3618      3355      3476
 -1     11012    3    0    1
 -2      2749      2542      2840      3661
 -1     11013    3    0    1
 -2      2893      2789      3025      3661
 -1     11014    3    0    1
 -2      2749      2840      2911      3661
 -1     11015    3    0    1
 -2       660       668       996      1918
 -1     11016    3    0    1
 -2      2840      2542      2904      3661
 -1     11017    3    0    1
 -2      2789      3020      3025      3661
 -1     11018    3    0    1
 -2      2749      2911      3017      3661
 -1     11019    3    0    1
 -2      2840      2904      3063      3661
 -1     11020    3    0    1
 -2      1725      1420      3594      3689
 -1     11021    3    0    1
 -2      3535      2527      3579      3690
 -1     11022    3    0    1
 -2      3618      3551      3355      3479
 -1     11023    3    0    1
 -2      2840      3063      3318      3661
 -1     11024    3    0    1
 -2      3663      3407      3698      3480
 -1     11025    3    0    1
 -2      3550      2872      3034      3455
 -1     11026    3    0    1
 -2      2692      3550      3409      3455
 -1     11027    3    0    1
 -2      3244      1543      3423      3450
 -1     11028    3    0    1
 -2      1696      2641      3555      3359
 -1     11029    3    0    1
 -2      3555      2641      3144      3359
 -1     11030    3    0    1
 -2      3580      3144      3174      3359
 -1     11031    3    0    1
 -2      3580      3555      3144      3359
 -1     11032    3    0    1
 -2      2715      3555      3580      3359
 -1     11033    3    0    1
 -2      2715      3580      3174      3359
 -1     11034    3    0    1
 -2      3259      3252      3319      3360
 -1     11035    3    0    1
 -2      1812      1811      1816      3360
 -1     11036    3    0    1
 -2      1816      1811      3259      3360
 -1     11037    3    0    1
 -2      1811      1583      3319      3360
 -1     11038    3    0    1
 -2       241      3648      3700      3720
 -1     11039    3    0    1
 -2      3218      1559      1857      3473
 -1     11040    3    0    1
 -2      3592      3129      3352      3721
 -1     11041    3    0    1
 -2      3624      3648      3657      3720
 -1     11042    3    0    1
 -2      3624       241      3700      3720
 -1     11043    3    0    1
 -2      3560      2793      3260      3702
 -1     11044    3    0    1
 -2      3560      3260      3620      3702
 -1     11045    3    0    1
 -2      3342      3142      3361      3719
 -1     11046    3    0    1
 -2      1429      3219      3701      3719
 -1     11047    3    0    1
 -2       772       243      1043      1881
 -1     11048    3    0    1
 -2      3563      2974      3314      3480
 -1     11049    3    0    1
 -2      3407      2974      3698      3480
 -1     11050    3    0    1
 -2      1410      3613      3623      3718
 -1     11051    3    0    1
 -2      3513      2136      3613      3718
 -1     11052    3    0    1
 -2      1877       171      3684      3718
 -1     11053    3    0    1
 -2       180      1801      3651      3719
 -1     11054    3    0    1
 -2      3029      2797      3632      3665
 -1     11055    3    0    1
 -2      3533      3265      3636      3665
 -1     11056    3    0    1
 -2      3595      2765      3639      3662
 -1     11057    3    0    1
 -2       333      2515      2610      3744
 -1     11058    3    0    1
 -2      2730      2787      3639      3662
 -1     11059    3    0    1
 -2      3605      2520      3458      3739
 -1     11060    3    0    1
 -2       184       678      1004      1923
 -1     11061    3    0    1
 -2       690       707      2308      3430
 -1     11062    3    0    1
 -2      1467      3517      3238      3740
 -1     11063    3    0    1
 -2      1821      1599      3642      3740
 -1     11064    3    0    1
 -2       631       158       627      1904
 -1     11065    3    0    1
 -2      2814      2883      3592      3662
 -1     11066    3    0    1
 -2      2814      2723      2883      3662
 -1     11067    3    0    1
 -2      3495      1420      3569      3739
 -1     11068    3    0    1
 -2      2677      3087      3190      3459
 -1     11069    3    0    1
 -2      2557      3595      3639      3662
 -1     11070    3    0    1
 -2      2787      2557      3639      3662
 -1     11071    3    0    1
 -2      2537       158      3502      1904
 -1     11072    3    0    1
 -2       631       627       975      1904
 -1     11073    3    0    1
 -2      2723      2814      2948      3662
 -1     11074    3    0    1
 -2      2948      2814      3592      3662
 -1     11075    3    0    1
 -2       707      1009      2353      3430
 -1     11076    3    0    1
 -2       389      3502      1904      1905
 -1     11077    3    0    1
 -2      3681       329      1908      3729
 -1     11078    3    0    1
 -2      3517      2619      3184      3722
 -1     11079    3    0    1
 -2      2883      3049      3129      3662
 -1     11080    3    0    1
 -2      2931      2723      3078      3662
 -1     11081    3    0    1
 -2      3078      2723      3250      3662
 -1     11082    3    0    1
 -2      2883      2765      3049      3662
 -1     11083    3    0    1
 -2      2883      3592      3129      2935
 -1     11084    3    0    1
 -2      2402      3495      3569      3739
 -1     11085    3    0    1
 -2      2640      2765      2883      3662
 -1     11086    3    0    1
 -2      2730      2497      2787      3662
 -1     11087    3    0    1
 -2      2606      2618      3722      3740
 -1     11088    3    0    1
 -2      3087      2677      3690      3459
 -1     11089    3    0    1
 -2       707      2042      2308      3430
 -1     11090    3    0    1
 -2      2131      1004      2308      3430
 -1     11091    3    0    1
 -2      1539      1746      3190      3459
 -1     11092    3    0    1
 -2       392       390       606      1905
 -1     11093    3    0    1
 -2       389       390      3502      1905
 -1     11094    3    0    1
 -2      2670      2963      2984      3664
 -1     11095    3    0    1
 -2      2670      1729      2963      3664
 -1     11096    3    0    1
 -2      2670      1442      1729      3664
 -1     11097    3    0    1
 -2      2763      1650      3239      3665
 -1     11098    3    0    1
 -2      2763      3239      3632      3665
 -1     11099    3    0    1
 -2      1583      2934      1845      3665
 -1     11100    3    0    1
 -2      1650      1553      3239      3665
 -1     11101    3    0    1
 -2      2988      1553      3632      3665
 -1     11102    3    0    1
 -2      1553      2988      3239      3665
 -1     11103    3    0    1
 -2      3239      2988      3632      3665
 -1     11104    3    0    1
 -2      2763      2701      2766      3665
 -1     11105    3    0    1
 -2      2647      2701      2763      3665
 -1     11106    3    0    1
 -2      2766      2701      2995      3665
 -1     11107    3    0    1
 -2      1650      1457      3029      3665
 -1     11108    3    0    1
 -2      1457      1583      3029      3665
 -1     11109    3    0    1
 -2      1583      1728      3029      3665
 -1     11110    3    0    1
 -2      1728      2934      3265      3665
 -1     11111    3    0    1
 -2      1728      2797      3029      3665
 -1     11112    3    0    1
 -2      1553      1650      3029      3665
 -1     11113    3    0    1
 -2      2934      1728      1845      3665
 -1     11114    3    0    1
 -2      1728      1583      1845      3665
 -1     11115    3    0    1
 -2      2462      2798      2808      3666
 -1     11116    3    0    1
 -2      2639      2516      3568      3726
 -1     11117    3    0    1
 -2      2463      3131      3207      3667
 -1     11118    3    0    1
 -2      2463      2496      3131      3667
 -1     11119    3    0    1
 -2      3195      2806      3348      3667
 -1     11120    3    0    1
 -2      2489      2463      3207      3667
 -1     11121    3    0    1
 -2      2496      2458      3131      3667
 -1     11122    3    0    1
 -2      2458      2740      3131      3667
 -1     11123    3    0    1
 -2      3131      2740      3347      3667
 -1     11124    3    0    1
 -2      3095      2806      3195      3667
 -1     11125    3    0    1
 -2      3207      3131      3347      3667
 -1     11126    3    0    1
 -2      1413      3195      3348      3667
 -1     11127    3    0    1
 -2      2463      2489      3059      3667
 -1     11128    3    0    1
 -2      3576      2952      1865      3468
 -1     11129    3    0    1
 -2      1413      1455      3195      3667
 -1     11130    3    0    1
 -2      1483      1413      3348      3667
 -1     11131    3    0    1
 -2      3031      3231      3397      3727
 -1     11132    3    0    1
 -2      1593      3171      3682      3727
 -1     11133    3    0    1
 -2      2823      3187      3606      3445
 -1     11134    3    0    1
 -2      3571      2973      3247      3669
 -1     11135    3    0    1
 -2      2882      2959      3571      3669
 -1     11136    3    0    1
 -2      2973      1475      3247      3669
 -1     11137    3    0    1
 -2      1475      2973      3212      3669
 -1     11138    3    0    1
 -2      2959      2973      3571      3669
 -1     11139    3    0    1
 -2      1722      1688      2997      3669
 -1     11140    3    0    1
 -2      2997      1688      3100      3669
 -1     11141    3    0    1
 -2      2989      2997      3100      3669
 -1     11142    3    0    1
 -2      1722      2997      3247      3669
 -1     11143    3    0    1
 -2      2882      2922      3212      3669
 -1     11144    3    0    1
 -2      2882      2737      2922      3669
 -1     11145    3    0    1
 -2      1688       750      3100      3669
 -1     11146    3    0    1
 -2      2737      2870      2922      3669
 -1     11147    3    0    1
 -2      1475      1722      3247      3669
 -1     11148    3    0    1
 -2      2959      2882      3212      3669
 -1     11149    3    0    1
 -2      2973      2959      3212      3669
 -1     11150    3    0    1
 -2      3535      3579      3675      3690
 -1     11151    3    0    1
 -2      1786      3130      3305      3670
 -1     11152    3    0    1
 -2      1559      1786      3305      3670
 -1     11153    3    0    1
 -2      1559      3305      3373      3670
 -1     11154    3    0    1
 -2      3607      3188      3363      3690
 -1     11155    3    0    1
 -2      1786       732      3130      3670
 -1     11156    3    0    1
 -2      3130       732      3248      3670
 -1     11157    3    0    1
 -2      2856      3095      3143      3670
 -1     11158    3    0    1
 -2      2545      2470      2608      3670
 -1     11159    3    0    1
 -2      3143      3095      3248      3670
 -1     11160    3    0    1
 -2      3130      2608      3305      3670
 -1     11161    3    0    1
 -2      2608      3255      3305      3670
 -1     11162    3    0    1
 -2      2608      2470      3255      3670
 -1     11163    3    0    1
 -2      3095      3195      3248      3670
 -1     11164    3    0    1
 -2      2740      2608      3130      3670
 -1     11165    3    0    1
 -2      2458      2608      2740      3670
 -1     11166    3    0    1
 -2      1786      3143      3248      3670
 -1     11167    3    0    1
 -2       941      3517      3614      3722
 -1     11168    3    0    1
 -2      1786      1559      3143      3670
 -1     11169    3    0    1
 -2       732      1786      3248      3670
 -1     11170    3    0    1
 -2      3103      1593      3329      3671
 -1     11171    3    0    1
 -2      1420      1516      3458      3739
 -1     11172    3    0    1
 -2      2459      2402      3569      3739
 -1     11173    3    0    1
 -2      2540      2643      3555      3671
 -1     11174    3    0    1
 -2      3555      2643      3580      3671
 -1     11175    3    0    1
 -2      2687      2643      3521      3671
 -1     11176    3    0    1
 -2      3173      2967      3329      3671
 -1     11177    3    0    1
 -2      2967      2791      3329      3671
 -1     11178    3    0    1
 -2       644      3173      3329      3671
 -1     11179    3    0    1
 -2      2573      2757      2916      3671
 -1     11180    3    0    1
 -2      2736      2573      2916      3671
 -1     11181    3    0    1
 -2      2540      2791      2967      3671
 -1     11182    3    0    1
 -2      2559      2573      2736      3671
 -1     11183    3    0    1
 -2      2736      2916      2962      3671
 -1     11184    3    0    1
 -2      1429      3514      1753      3719
 -1     11185    3    0    1
 -2      1593       644      3329      3671
 -1     11186    3    0    1
 -2      2559      2736      2918      3671
 -1     11187    3    0    1
 -2      2918      2736      3103      3671
 -1     11188    3    0    1
 -2      2643      2687      2715      3671
 -1     11189    3    0    1
 -2      2676      2648      2913      3672
 -1     11190    3    0    1
 -2      3121      1522      3338      3672
 -1     11191    3    0    1
 -2      1661      1522      3177      3672
 -1     11192    3    0    1
 -2      1522       662      3338      3672
 -1     11193    3    0    1
 -2      1316      3506      3609      3686
 -1     11194    3    0    1
 -2      2940      2637      3198      3673
 -1     11195    3    0    1
 -2      2538      2517      2697      3673
 -1     11196    3    0    1
 -2      2517      2538      3186      3673
 -1     11197    3    0    1
 -2      3604      1725      1823      3463
 -1     11198    3    0    1
 -2      2697      2863      3113      3673
 -1     11199    3    0    1
 -2       680      3183      3221      3673
 -1     11200    3    0    1
 -2      2637      2665      3198      3673
 -1     11201    3    0    1
 -2      2592      2517      3186      3673
 -1     11202    3    0    1
 -2      3183       680      1846      3673
 -1     11203    3    0    1
 -2      3113      2863      3181      3673
 -1     11204    3    0    1
 -2      1782       680      3221      3673
 -1     11205    3    0    1
 -2      3137      2592      3186      3673
 -1     11206    3    0    1
 -2      1495      1537      3311      3674
 -1     11207    3    0    1
 -2       330      3582      1881      1882
 -1     11208    3    0    1
 -2       330       376      3582      1882
 -1     11209    3    0    1
 -2       758       227       376      1882
 -1     11210    3    0    1
 -2       227       758       751      1882
 -1     11211    3    0    1
 -2        80      3394      1765      1894
 -1     11212    3    0    1
 -2      1755      1767      3302      3398
 -1     11213    3    0    1
 -2       750      3574      3200      3379
 -1     11214    3    0    1
 -2      1527      1528      3133      3397
 -1     11215    3    0    1
 -2      2891      1666      3196      3481
 -1     11216    3    0    1
 -2      1443      3038      1767      3398
 -1     11217    3    0    1
 -2      3610      1755      3302      3398
 -1     11218    3    0    1
 -2      3555      2915      3320      3481
 -1     11219    3    0    1
 -2      3111      2726      3584      3380
 -1     11220    3    0    1
 -2      3584      2726      3633      3380
 -1     11221    3    0    1
 -2      1633      1473      3216      3381
 -1     11222    3    0    1
 -2      1294      3578      3723      3728
 -1     11223    3    0    1
 -2      1590      1434      3578      3728
 -1     11224    3    0    1
 -2      2847      3555      3216      3381
 -1     11225    3    0    1
 -2      1473      2847      3216      3381
 -1     11226    3    0    1
 -2      2847      1473      3555      3381
 -1     11227    3    0    1
 -2      1784       387      3723      3728
 -1     11228    3    0    1
 -2      3512      1434      1749      3728
 -1     11229    3    0    1
 -2      1746      3058      3190      3728
 -1     11230    3    0    1
 -2      1746       387      3326      3728
 -1     11231    3    0    1
 -2       387      1294      3723      3728
 -1     11232    3    0    1
 -2      3626      3237      3664      3454
 -1     11233    3    0    1
 -2      1638      1639      1835      3383
 -1     11234    3    0    1
 -2      1639      1638      3030      3383
 -1     11235    3    0    1
 -2       218       219       736      1902
 -1     11236    3    0    1
 -2      1531      2682      2925      3384
 -1     11237    3    0    1
 -2      1532      1531      2925      3384
 -1     11238    3    0    1
 -2       956      2607      2658      3675
 -1     11239    3    0    1
 -2       956      1294      2607      3675
 -1     11240    3    0    1
 -2      3053      3026      3579      3675
 -1     11241    3    0    1
 -2      2530      3053      3579      3675
 -1     11242    3    0    1
 -2      1330       329      3681      3729
 -1     11243    3    0    1
 -2       329      3604      1823      3729
 -1     11244    3    0    1
 -2      3594      3544      3604      3729
 -1     11245    3    0    1
 -2      1567      3053      3578      3675
 -1     11246    3    0    1
 -2      3026      1567      3578      3675
 -1     11247    3    0    1
 -2      1567      3026      3053      3675
 -1     11248    3    0    1
 -2      1032       329      1330      3729
 -1     11249    3    0    1
 -2       270       333      3708      3744
 -1     11250    3    0    1
 -2      3544      3569      3604      3729
 -1     11251    3    0    1
 -2      2607      1294      3093      3675
 -1     11252    3    0    1
 -2      2530      2527      2677      3675
 -1     11253    3    0    1
 -2       427       329      1823      3729
 -1     11254    3    0    1
 -2       329       427      1908      3729
 -1     11255    3    0    1
 -2       196      3609       182      3628
 -1     11256    3    0    1
 -2      1294      1746      3093      3675
 -1     11257    3    0    1
 -2       329      1032      3594      3729
 -1     11258    3    0    1
 -2      1481      1543      2616      3460
 -1     11259    3    0    1
 -2       334       255      3708      3744
 -1     11260    3    0    1
 -2      1032      3544      3594      3729
 -1     11261    3    0    1
 -2       333      1059      2515      3744
 -1     11262    3    0    1
 -2      1481      2616      3047      3460
 -1     11263    3    0    1
 -2      3544      1330      3681      3729
 -1     11264    3    0    1
 -2      1419      1754      3034      3676
 -1     11265    3    0    1
 -2      1419      2879      1754      3676
 -1     11266    3    0    1
 -2      2879      2632      3041      3676
 -1     11267    3    0    1
 -2      1754      2879      3084      3676
 -1     11268    3    0    1
 -2      2906      1533      3125      3676
 -1     11269    3    0    1
 -2      2879      3041      3084      3676
 -1     11270    3    0    1
 -2      1533      1493      3125      3676
 -1     11271    3    0    1
 -2      2632      2792      3041      3676
 -1     11272    3    0    1
 -2      3041      2792      3124      3676
 -1     11273    3    0    1
 -2      3573      2635      3346      3677
 -1     11274    3    0    1
 -2      2635      3573      3597      3677
 -1     11275    3    0    1
 -2      1774       732      3092      3677
 -1     11276    3    0    1
 -2      3148      2865      3194      3677
 -1     11277    3    0    1
 -2      2646      2861      3092      3677
 -1     11278    3    0    1
 -2      3092      2861      3228      3677
 -1     11279    3    0    1
 -2      2460      2633      2861      3677
 -1     11280    3    0    1
 -2      2861      2633      3280      3677
 -1     11281    3    0    1
 -2      1455      3148      3194      3677
 -1     11282    3    0    1
 -2      3228      2861      3280      3677
 -1     11283    3    0    1
 -2      2646      3092      3233      3677
 -1     11284    3    0    1
 -2      2646      2460      2861      3677
 -1     11285    3    0    1
 -2      2635      3148      3346      3677
 -1     11286    3    0    1
 -2      1455      1413      3148      3677
 -1     11287    3    0    1
 -2      1774      1455      3194      3677
 -1     11288    3    0    1
 -2      3148      1413      3346      3677
 -1     11289    3    0    1
 -2       732      1774      3194      3677
 -1     11290    3    0    1
 -2      1792      2591      3330      3388
 -1     11291    3    0    1
 -2      1498        13      1646      3388
 -1     11292    3    0    1
 -2      1424      2550      2591      3388
 -1     11293    3    0    1
 -2      1498      1646      3236      3388
 -1     11294    3    0    1
 -2      1631        41      1632      3408
 -1     11295    3    0    1
 -2       592       957      2547      3433
 -1     11296    3    0    1
 -2      3608      1596      3378      3717
 -1     11297    3    0    1
 -2      3002      1312      3652      3685
 -1     11298    3    0    1
 -2      3299       804      1853      3390
 -1     11299    3    0    1
 -2      1600      2860      3299      3390
 -1     11300    3    0    1
 -2      2860      1600      3102      3390
 -1     11301    3    0    1
 -2       804      3004      3272      3390
 -1     11302    3    0    1
 -2      3004      2860      3581      3390
 -1     11303    3    0    1
 -2      3556      2728      3272      3390
 -1     11304    3    0    1
 -2      2728      3556      3581      3390
 -1     11305    3    0    1
 -2      3004      3556      3272      3390
 -1     11306    3    0    1
 -2      3556      3004      3581      3390
 -1     11307    3    0    1
 -2      2860      3004      3299      3390
 -1     11308    3    0    1
 -2      2782      1524      1782      3679
 -1     11309    3    0    1
 -2      2727      2782      1782      3679
 -1     11310    3    0    1
 -2      2783       680      3387      3679
 -1     11311    3    0    1
 -2       680      2783      1782      3679
 -1     11312    3    0    1
 -2      1524      2782      1807      3679
 -1     11313    3    0    1
 -2      1807      3180      3304      3679
 -1     11314    3    0    1
 -2      1807      2782      3180      3679
 -1     11315    3    0    1
 -2      2727      2490      2779      3679
 -1     11316    3    0    1
 -2      2727      2779      2782      3679
 -1     11317    3    0    1
 -2      3220      3105      3387      3679
 -1     11318    3    0    1
 -2      2566      2490      2727      3679
 -1     11319    3    0    1
 -2      1782      3220      3387      3679
 -1     11320    3    0    1
 -2      1782      1524      3220      3679
 -1     11321    3    0    1
 -2      2566      2727      2783      3679
 -1     11322    3    0    1
 -2      2782      2779      3180      3679
 -1     11323    3    0    1
 -2      3220      1524      3304      3679
 -1     11324    3    0    1
 -2       680      1782      3387      3679
 -1     11325    3    0    1
 -2      1524      1807      3304      3679
 -1     11326    3    0    1
 -2      2919      3257      3270      3680
 -1     11327    3    0    1
 -2      3270      3257      3368      3680
 -1     11328    3    0    1
 -2      2466      2919      3270      3680
 -1     11329    3    0    1
 -2      2919      3140      3257      3680
 -1     11330    3    0    1
 -2      2427      2493      2684      3680
 -1     11331    3    0    1
 -2      2427      2121      2493      3680
 -1     11332    3    0    1
 -2      3257      1432      3368      3680
 -1     11333    3    0    1
 -2      3176      2466      3270      3680
 -1     11334    3    0    1
 -2      2121      2467      2493      3680
 -1     11335    3    0    1
 -2      1529      3054      1877      1887
 -1     11336    3    0    1
 -2       347       346      3588      1890
 -1     11337    3    0    1
 -2      3588       346      1889      1890
 -1     11338    3    0    1
 -2       347       396       645      1890
 -1     11339    3    0    1
 -2       347       645       649      1890
 -1     11340    3    0    1
 -2      3104      1597      3323      1891
 -1     11341    3    0    1
 -2      3104      3323      1873      1891
 -1     11342    3    0    1
 -2      3104      1718      3344      1891
 -1     11343    3    0    1
 -2      1597      3104      3344      1891
 -1     11344    3    0    1
 -2      1738        40      3014      1891
 -1     11345    3    0    1
 -2      3014        40      1800      1891
 -1     11346    3    0    1
 -2        40      3104      1873      1891
 -1     11347    3    0    1
 -2        40      1718      3104      1891
 -1     11348    3    0    1
 -2      2926      1439      3024      3391
 -1     11349    3    0    1
 -2       153      3570      1886      3714
 -1     11350    3    0    1
 -2      2926      3024      3558      3391
 -1     11351    3    0    1
 -2      2926      3558      1880      3391
 -1     11352    3    0    1
 -2      1764        80      1880      3391
 -1     11353    3    0    1
 -2      1431      3586      3648      3452
 -1     11354    3    0    1
 -2       635       975       978      3392
 -1     11355    3    0    1
 -2       635       636      1936      3392
 -1     11356    3    0    1
 -2       636       635       978      3392
 -1     11357    3    0    1
 -2      2243       978      3588      3392
 -1     11358    3    0    1
 -2      2537       975      3502      3392
 -1     11359    3    0    1
 -2      2203      2537      3502      3392
 -1     11360    3    0    1
 -2       975      2203      3502      3392
 -1     11361    3    0    1
 -2       635      1936      2203      3392
 -1     11362    3    0    1
 -2       975       635      2203      3392
 -1     11363    3    0    1
 -2       157      2528      3588      3392
 -1     11364    3    0    1
 -2      2528       157      2537      3392
 -1     11365    3    0    1
 -2       158       975      2537      3392
 -1     11366    3    0    1
 -2       157       158      2537      3392
 -1     11367    3    0    1
 -2       158       157       975      3392
 -1     11368    3    0    1
 -2      3588       978      1889      3392
 -1     11369    3    0    1
 -2       157      3588      1889      3392
 -1     11370    3    0    1
 -2       978       157      1889      3392
 -1     11371    3    0    1
 -2       329      1595      3527      3681
 -1     11372    3    0    1
 -2      1330       329      3527      3681
 -1     11373    3    0    1
 -2      3591      3020      3399      3482
 -1     11374    3    0    1
 -2      2703      1519      3554      3682
 -1     11375    3    0    1
 -2       644      1519      2703      3682
 -1     11376    3    0    1
 -2      1593       644      3010      3682
 -1     11377    3    0    1
 -2      2638      2531      2873      3682
 -1     11378    3    0    1
 -2      2638      2873      2987      3682
 -1     11379    3    0    1
 -2      2875      2914      3171      3682
 -1     11380    3    0    1
 -2      2531      2471      2873      3682
 -1     11381    3    0    1
 -2      2703      2638      2987      3682
 -1     11382    3    0    1
 -2      2772      1699      2915      3481
 -1     11383    3    0    1
 -2      3010      2873      3133      3682
 -1     11384    3    0    1
 -2      2987      2873      3010      3682
 -1     11385    3    0    1
 -2      2914       644      3171      3682
 -1     11386    3    0    1
 -2      1519       644      2914      3682
 -1     11387    3    0    1
 -2       644      1593      3171      3682
 -1     11388    3    0    1
 -2      1887      3153      1888      1893
 -1     11389    3    0    1
 -2      2951      3622      3659      3685
 -1     11390    3    0    1
 -2      2940      2951      3659      3685
 -1     11391    3    0    1
 -2      2940      2593      2951      3685
 -1     11392    3    0    1
 -2      3506      1417      3609      3686
 -1     11393    3    0    1
 -2      2940      3659      3673      3685
 -1     11394    3    0    1
 -2      1429      3001      3652      3685
 -1     11395    3    0    1
 -2      1609      1429      3652      3685
 -1     11396    3    0    1
 -2      2689      2697      3622      3685
 -1     11397    3    0    1
 -2       998      2593      2637      3685
 -1     11398    3    0    1
 -2      2637      2593      2940      3685
 -1     11399    3    0    1
 -2       998      1312      2593      3685
 -1     11400    3    0    1
 -2      2697      2863      3673      3685
 -1     11401    3    0    1
 -2      3622      2697      3659      3685
 -1     11402    3    0    1
 -2      3659      2697      3673      3685
 -1     11403    3    0    1
 -2      3332      2839      3345      3685
 -1     11404    3    0    1
 -2      3096      3332      3345      3685
 -1     11405    3    0    1
 -2      2863      3096      3345      3685
 -1     11406    3    0    1
 -2      3251      2863      3345      3685
 -1     11407    3    0    1
 -2       998       196      3534      3685
 -1     11408    3    0    1
 -2       998      3534      3652      3685
 -1     11409    3    0    1
 -2      1609       196      2839      3685
 -1     11410    3    0    1
 -2       196      1541      2839      3685
 -1     11411    3    0    1
 -2      2839      1541      3345      3685
 -1     11412    3    0    1
 -2       196      1609      3534      3685
 -1     11413    3    0    1
 -2      3534      1609      3652      3685
 -1     11414    3    0    1
 -2       998      2940      3251      3685
 -1     11415    3    0    1
 -2      2689      1429      2776      3685
 -1     11416    3    0    1
 -2      2689      2776      2863      3685
 -1     11417    3    0    1
 -2       998      3251      3345      3685
 -1     11418    3    0    1
 -2       998      2637      2940      3685
 -1     11419    3    0    1
 -2      2951      2593      3002      3685
 -1     11420    3    0    1
 -2      1429      2689      3001      3685
 -1     11421    3    0    1
 -2      1429      1609      2776      3685
 -1     11422    3    0    1
 -2      2863      2776      3096      3685
 -1     11423    3    0    1
 -2      2697      2689      2863      3685
 -1     11424    3    0    1
 -2       196       998      3345      3685
 -1     11425    3    0    1
 -2      2593      1312      3002      3685
 -1     11426    3    0    1
 -2      2776      1609      2839      3685
 -1     11427    3    0    1
 -2      2776      2839      3332      3685
 -1     11428    3    0    1
 -2      3096      2776      3332      3685
 -1     11429    3    0    1
 -2      1541       196      3345      3685
 -1     11430    3    0    1
 -2      2541      2920      3240      3687
 -1     11431    3    0    1
 -2      2541      2491      2920      3687
 -1     11432    3    0    1
 -2      2785      2823      3035      3687
 -1     11433    3    0    1
 -2      2718      2822      2956      3687
 -1     11434    3    0    1
 -2      2491      2523      2718      3687
 -1     11435    3    0    1
 -2      2818      2785      3035      3687
 -1     11436    3    0    1
 -2      1503      3035      3187      3687
 -1     11437    3    0    1
 -2      2718      2796      2822      3687
 -1     11438    3    0    1
 -2      2523      2492      2718      3687
 -1     11439    3    0    1
 -2      2718      2534      2796      3687
 -1     11440    3    0    1
 -2      1465      2818      3035      3687
 -1     11441    3    0    1
 -2      2492      2534      2718      3687
 -1     11442    3    0    1
 -2      3038      3610      3302      3398
 -1     11443    3    0    1
 -2      1767      3038      3302      3398
 -1     11444    3    0    1
 -2      1719      3172      3596      3398
 -1     11445    3    0    1
 -2      3139      3596      3610      3398
 -1     11446    3    0    1
 -2      3139      3164      3596      3398
 -1     11447    3    0    1
 -2      3038      3139      3610      3398
 -1     11448    3    0    1
 -2      2657      1719      3596      3398
 -1     11449    3    0    1
 -2      1719      2657      3164      3398
 -1     11450    3    0    1
 -2      3164      2657      3596      3398
 -1     11451    3    0    1
 -2      3139      3038      3164      3398
 -1     11452    3    0    1
 -2      1440      3143      1857      3688
 -1     11453    3    0    1
 -2      3305      3255      3373      3688
 -1     11454    3    0    1
 -2      3143      1559      1857      3688
 -1     11455    3    0    1
 -2      3093      2607      3675      3690
 -1     11456    3    0    1
 -2      3535      2607      3188      3690
 -1     11457    3    0    1
 -2      1516      3495      3605      3739
 -1     11458    3    0    1
 -2       255       334      2582      3744
 -1     11459    3    0    1
 -2      3535      3188      3607      3690
 -1     11460    3    0    1
 -2      1481      3047      1778      3460
 -1     11461    3    0    1
 -2      2527      2677      3675      3690
 -1     11462    3    0    1
 -2      2519      3607      3363      3690
 -1     11463    3    0    1
 -2       207      1511      3422      3474
 -1     11464    3    0    1
 -2      2667      1578      3422      3474
 -1     11465    3    0    1
 -2      2742      2845      1734      3689
 -1     11466    3    0    1
 -2      2950      2742      1734      3689
 -1     11467    3    0    1
 -2      1326      1032      3594      3689
 -1     11468    3    0    1
 -2      1032      1326      3530      3689
 -1     11469    3    0    1
 -2      2801      1483      3120      1924
 -1     11470    3    0    1
 -2        57      1526      2801      1924
 -1     11471    3    0    1
 -2      1420      1725      3249      3689
 -1     11472    3    0    1
 -2      2499      1420      3249      3689
 -1     11473    3    0    1
 -2      1420      2499      2634      3689
 -1     11474    3    0    1
 -2      2845      2499      3249      3689
 -1     11475    3    0    1
 -2      1516      1420      2634      3689
 -1     11476    3    0    1
 -2      1562      1032      2950      3689
 -1     11477    3    0    1
 -2       329      1032      1562      3689
 -1     11478    3    0    1
 -2      1725      1823      3249      3689
 -1     11479    3    0    1
 -2      2742      2499      2845      3689
 -1     11480    3    0    1
 -2      3496      3557      3456      3742
 -1     11481    3    0    1
 -2      1562      2950      1734      3689
 -1     11482    3    0    1
 -2      1032      2706      2950      3689
 -1     11483    3    0    1
 -2      3618      3021      3339      3742
 -1     11484    3    0    1
 -2      2774      2520      3715      3739
 -1     11485    3    0    1
 -2      3188      1713      3363      3690
 -1     11486    3    0    1
 -2      2527      2655      2968      3690
 -1     11487    3    0    1
 -2      2655      2519      2968      3690
 -1     11488    3    0    1
 -2      1713       572      3363      3690
 -1     11489    3    0    1
 -2      2519      2714      3369      3690
 -1     11490    3    0    1
 -2      2481      2519      2655      3690
 -1     11491    3    0    1
 -2      2983      2885      2991      3692
 -1     11492    3    0    1
 -2      2885      2653      2991      3692
 -1     11493    3    0    1
 -2      3561      2991      3288      3692
 -1     11494    3    0    1
 -2      2991      2653      3288      3692
 -1     11495    3    0    1
 -2      2479      2901      3621      3692
 -1     11496    3    0    1
 -2      2479      3561      3288      3692
 -1     11497    3    0    1
 -2      2983      2707      3066      3692
 -1     11498    3    0    1
 -2      2846      2707      2983      3692
 -1     11499    3    0    1
 -2      1588      2983      3066      3692
 -1     11500    3    0    1
 -2      2695      2653      3033      3692
 -1     11501    3    0    1
 -2      2846      2983      2991      3692
 -1     11502    3    0    1
 -2      2574      2707      2846      3692
 -1     11503    3    0    1
 -2      2941      2695      2945      3692
 -1     11504    3    0    1
 -2      2660      2695      2941      3692
 -1     11505    3    0    1
 -2      2660      2653      2695      3692
 -1     11506    3    0    1
 -2      2653      2885      3033      3692
 -1     11507    3    0    1
 -2      2695      1588      3692      3033
 -1     11508    3    0    1
 -2      2660      2941      3162      3692
 -1     11509    3    0    1
 -2      2653      2660      2901      3692
 -1     11510    3    0    1
 -2      2479      2653      2901      3692
 -1     11511    3    0    1
 -2      2653      2479      3288      3692
 -1     11512    3    0    1
 -2       708      1012      1018      3693
 -1     11513    3    0    1
 -2       725       708      1018      3693
 -1     11514    3    0    1
 -2      2437       254      2451      3696
 -1     11515    3    0    1
 -2      1529      3663      3684      3407
 -1     11516    3    0    1
 -2      1425      1459      1460      3417
 -1     11517    3    0    1
 -2      2473      2798      3525      3724
 -1     11518    3    0    1
 -2      3668      3509      3477      3724
 -1     11519    3    0    1
 -2       559       556       944      1916
 -1     11520    3    0    1
 -2      2473      3509      2798      3724
 -1     11521    3    0    1
 -2      3567      3509      3668      3724
 -1     11522    3    0    1
 -2      3314      3563      3434      3714
 -1     11523    3    0    1
 -2      3273      3108      3343      1896
 -1     11524    3    0    1
 -2      1832      3273      3343      1896
 -1     11525    3    0    1
 -2      1739      3005      3014      3447
 -1     11526    3    0    1
 -2      1597      3014      3110      3447
 -1     11527    3    0    1
 -2        80      3320      1878      3446
 -1     11528    3    0    1
 -2      3014      1597      1891      3447
 -1     11529    3    0    1
 -2      3300      1785      3320      3446
 -1     11530    3    0    1
 -2      3320      1785      1878      3446
 -1     11531    3    0    1
 -2      2702      1675      2855      3408
 -1     11532    3    0    1
 -2      2702      1631      2750      3408
 -1     11533    3    0    1
 -2      3496      1422      3583      3456
 -1     11534    3    0    1
 -2      1764      3300      3320      3446
 -1     11535    3    0    1
 -2       282      2391      3537      3695
 -1     11536    3    0    1
 -2       337       282      3537      3695
 -1     11537    3    0    1
 -2      2560      2578      3537      3695
 -1     11538    3    0    1
 -2      2391      2560      3537      3695
 -1     11539    3    0    1
 -2       282      2391      3695      1917
 -1     11540    3    0    1
 -2      2391      2449      2578      3695
 -1     11541    3    0    1
 -2      2449      2304      2578      3695
 -1     11542    3    0    1
 -2      2560      2391      2578      3695
 -1     11543    3    0    1
 -2       332       244      3497      1899
 -1     11544    3    0    1
 -2      3657      2087      3436      3715
 -1     11545    3    0    1
 -2      3192      2087      3657      3715
 -1     11546    3    0    1
 -2      2692      1419      1762      3409
 -1     11547    3    0    1
 -2      2148      1030      2553      3734
 -1     11548    3    0    1
 -2      1849      3036      3351      3468
 -1     11549    3    0    1
 -2      1992      1315      2292      3410
 -1     11550    3    0    1
 -2      2547      2683      3535      3433
 -1     11551    3    0    1
 -2      2284       244      2508      3696
 -1     11552    3    0    1
 -2      1329      2284      2508      3696
 -1     11553    3    0    1
 -2       371       332      2781      3696
 -1     11554    3    0    1
 -2       254       371      2781      3696
 -1     11555    3    0    1
 -2       332       244      2781      3696
 -1     11556    3    0    1
 -2      1050       254      2781      3696
 -1     11557    3    0    1
 -2      2437      2451      2508      3696
 -1     11558    3    0    1
 -2      2137      2437      2508      3696
 -1     11559    3    0    1
 -2      2384      2137      2508      3696
 -1     11560    3    0    1
 -2       244      1329      2781      3696
 -1     11561    3    0    1
 -2      3179      3064      3336      3697
 -1     11562    3    0    1
 -2      3317      2563      3645      3697
 -1     11563    3    0    1
 -2      2944      3317      3324      3697
 -1     11564    3    0    1
 -2      3324      3317      3645      3697
 -1     11565    3    0    1
 -2      3336      3202      2795      1731
 -1     11566    3    0    1
 -2      3202      3336      2795      3697
 -1     11567    3    0    1
 -2      2805      3064      3179      3697
 -1     11568    3    0    1
 -2      3559      2805      3179      3697
 -1     11569    3    0    1
 -2      3202       786      3336      3697
 -1     11570    3    0    1
 -2       786      2944      3324      3697
 -1     11571    3    0    1
 -2      2944       786      3202      3697
 -1     11572    3    0    1
 -2      3324      3083      3336      3697
 -1     11573    3    0    1
 -2      2749      2563      2795      3697
 -1     11574    3    0    1
 -2      2795      2563      2944      3697
 -1     11575    3    0    1
 -2      2795      2944      3202      3697
 -1     11576    3    0    1
 -2      3083      3179      3336      3697
 -1     11577    3    0    1
 -2      2542      2749      2795      3697
 -1     11578    3    0    1
 -2      2542      2795      2805      3697
 -1     11579    3    0    1
 -2      2944      2563      3317      3697
 -1     11580    3    0    1
 -2       786      3324      3336      3697
 -1     11581    3    0    1
 -2      2805      2795      3064      3697
 -1     11582    3    0    1
 -2      2730      2497      3662      3706
 -1     11583    3    0    1
 -2      2850      2730      3639      3706
 -1     11584    3    0    1
 -2       698       691      3413      3437
 -1     11585    3    0    1
 -2       691      1535      1536      3437
 -1     11586    3    0    1
 -2       411       412      3711      3737
 -1     11587    3    0    1
 -2      3715      2774      3739      3743
 -1     11588    3    0    1
 -2      3639      2730      3662      3706
 -1     11589    3    0    1
 -2      2720      1555      1696      3706
 -1     11590    3    0    1
 -2      1741      1467      3238      3740
 -1     11591    3    0    1
 -2       996      1001      3711      1918
 -1     11592    3    0    1
 -2       411       409      3711      1918
 -1     11593    3    0    1
 -2      2436       996      3711      1918
 -1     11594    3    0    1
 -2      3501      1410      3513      3698
 -1     11595    3    0    1
 -2      3513      1410      3389      3698
 -1     11596    3    0    1
 -2      3663      3563      3678      3698
 -1     11597    3    0    1
 -2      3525      2798      3587      3724
 -1     11598    3    0    1
 -2      3509      2473      3525      3724
 -1     11599    3    0    1
 -2      2798      3509      3666      3724
 -1     11600    3    0    1
 -2      2974      2681      3389      3698
 -1     11601    3    0    1
 -2      2233      2468      2514      3698
 -1     11602    3    0    1
 -2      2681      3342      3389      3698
 -1     11603    3    0    1
 -2      2369      2681      2974      3698
 -1     11604    3    0    1
 -2      2974      3389      3407      3698
 -1     11605    3    0    1
 -2      2681      3142      3342      3698
 -1     11606    3    0    1
 -2      3389      1529      3407      3698
 -1     11607    3    0    1
 -2      1410      1529      3389      3698
 -1     11608    3    0    1
 -2       776       244       332      1899
 -1     11609    3    0    1
 -2       244       776       769      1899
 -1     11610    3    0    1
 -2       793       790      1052      1900
 -1     11611    3    0    1
 -2       371       332      3497      1900
 -1     11612    3    0    1
 -2      3497       332      1899      1900
 -1     11613    3    0    1
 -2       254       793       371      1900
 -1     11614    3    0    1
 -2       793       254       790      1900
 -1     11615    3    0    1
 -2       209       317      3693      3699
 -1     11616    3    0    1
 -2       317      2485      3693      3699
 -1     11617    3    0    1
 -2       317      2275      2485      3699
 -1     11618    3    0    1
 -2       318       193      2524      3699
 -1     11619    3    0    1
 -2       209       318      2524      3699
 -1     11620    3    0    1
 -2       193      1315      2524      3699
 -1     11621    3    0    1
 -2      2275      1992      3410      3699
 -1     11622    3    0    1
 -2      1315      1016      2524      3699
 -1     11623    3    0    1
 -2      2485      2275      3410      3699
 -1     11624    3    0    1
 -2       317       209      2524      3699
 -1     11625    3    0    1
 -2      1016       317      2524      3699
 -1     11626    3    0    1
 -2      3036      2952      3576      3468
 -1     11627    3    0    1
 -2      2683      2952      3036      3468
 -1     11628    3    0    1
 -2      1616      3576      1865      3468
 -1     11629    3    0    1
 -2      3036      3576      3351      3468
 -1     11630    3    0    1
 -2       592      2547      2607      3433
 -1     11631    3    0    1
 -2      1616      3242      3576      3018
 -1     11632    3    0    1
 -2      2704      2347      3657      3436
 -1     11633    3    0    1
 -2       207      1511      1690      3422
 -1     11634    3    0    1
 -2      1418      2492      2667      3422
 -1     11635    3    0    1
 -2      1690      1511      3372      3422
 -1     11636    3    0    1
 -2      1040       770      3316      3700
 -1     11637    3    0    1
 -2       770      1040      2331      3700
 -1     11638    3    0    1
 -2      1040      3510      3544      3527
 -1     11639    3    0    1
 -2      3510      1040      3544      3700
 -1     11640    3    0    1
 -2      1333       241      3643      3700
 -1     11641    3    0    1
 -2      3643       241      3648      3700
 -1     11642    3    0    1
 -2      2478      3511      3586      3700
 -1     11643    3    0    1
 -2      3586      3511      3643      3700
 -1     11644    3    0    1
 -2      2478      2331      3511      3700
 -1     11645    3    0    1
 -2      3511      2331      3643      3700
 -1     11646    3    0    1
 -2       241      1040      3624      3700
 -1     11647    3    0    1
 -2      2478      2347      3316      3700
 -1     11648    3    0    1
 -2      2331      2478      3316      3700
 -1     11649    3    0    1
 -2      1040       241      1333      3700
 -1     11650    3    0    1
 -2      1477      3051      3454      1863
 -1     11651    3    0    1
 -2      3626      2754      3354      3454
 -1     11652    3    0    1
 -2       267      2364      3529      3707
 -1     11653    3    0    1
 -2      3524      3505      3547      3704
 -1     11654    3    0    1
 -2       827       824      1069      1921
 -1     11655    3    0    1
 -2      1064      2444      2594      3707
 -1     11656    3    0    1
 -2      1069       279      2085      3707
 -1     11657    3    0    1
 -2      1069      3707      1920      1921
 -1     11658    3    0    1
 -2      2085      2442      2594      3707
 -1     11659    3    0    1
 -2      2364      1064      2594      3707
 -1     11660    3    0    1
 -2      3562      1609      3691      3701
 -1     11661    3    0    1
 -2      3609      3562      3691      3701
 -1     11662    3    0    1
 -2      3225      3609      3691      3701
 -1     11663    3    0    1
 -2      1609      1760      3691      3701
 -1     11664    3    0    1
 -2       182      3225      3691      3701
 -1     11665    3    0    1
 -2      1760       182      3691      3701
 -1     11666    3    0    1
 -2      3219      2807      3225      3701
 -1     11667    3    0    1
 -2      1609      3219      3225      3701
 -1     11668    3    0    1
 -2      3648       241      1885      3720
 -1     11669    3    0    1
 -2      3648      3624      3700      3720
 -1     11670    3    0    1
 -2      1609      1429      3219      3701
 -1     11671    3    0    1
 -2      1760      1609      3225      3701
 -1     11672    3    0    1
 -2       182      1760      3225      3701
 -1     11673    3    0    1
 -2      1834      3383      1884      3702
 -1     11674    3    0    1
 -2      1416      3590      3619      3702
 -1     11675    3    0    1
 -2      1704      1416      3619      3702
 -1     11676    3    0    1
 -2      3560      3620      3637      3702
 -1     11677    3    0    1
 -2      2793      3560      3637      3702
 -1     11678    3    0    1
 -2      1567      2990      3590      3702
 -1     11679    3    0    1
 -2       964       391      3619      3702
 -1     11680    3    0    1
 -2      1567      2992      3637      3702
 -1     11681    3    0    1
 -2      2990      1567      3637      3702
 -1     11682    3    0    1
 -2       391      1834      1884      3702
 -1     11683    3    0    1
 -2      3619       391      1884      3702
 -1     11684    3    0    1
 -2      1704      3619      1884      3702
 -1     11685    3    0    1
 -2      2992      1567      1794      3702
 -1     11686    3    0    1
 -2      1794      1567      3590      3702
 -1     11687    3    0    1
 -2      2992      1794      3590      3702
 -1     11688    3    0    1
 -2      3619      3590      3627      3702
 -1     11689    3    0    1
 -2       964      3619      3627      3702
 -1     11690    3    0    1
 -2      3590       964      3627      3702
 -1     11691    3    0    1
 -2      2722      1416      2853      3702
 -1     11692    3    0    1
 -2      3030      2853      3383      3702
 -1     11693    3    0    1
 -2      2853      1416      3383      3702
 -1     11694    3    0    1
 -2      1416      2722      2992      3702
 -1     11695    3    0    1
 -2       964      2969      3260      3702
 -1     11696    3    0    1
 -2      1416      1704      3383      3702
 -1     11697    3    0    1
 -2      2812      2793      2853      3702
 -1     11698    3    0    1
 -2      2793      2722      2853      3702
 -1     11699    3    0    1
 -2      1700      1416      2992      3702
 -1     11700    3    0    1
 -2       391       964      3260      3702
 -1     11701    3    0    1
 -2      1638      1834      3260      3702
 -1     11702    3    0    1
 -2      3383      1704      1884      3702
 -1     11703    3    0    1
 -2      1834       391      3260      3702
 -1     11704    3    0    1
 -2      2233      2468      3563      3427
 -1     11705    3    0    1
 -2      1692      3051      1863      3454
 -1     11706    3    0    1
 -2      3051      1692      3354      3454
 -1     11707    3    0    1
 -2      2369      2461      2817      2323
 -1     11708    3    0    1
 -2      2942      3051      3664      3454
 -1     11709    3    0    1
 -2       316      3532      3547      3704
 -1     11710    3    0    1
 -2      3515      3547      3567      3704
 -1     11711    3    0    1
 -2      3567      3547      3203      3704
 -1     11712    3    0    1
 -2      3515      3567      3203      3704
 -1     11713    3    0    1
 -2      2190      3201      3203      3704
 -1     11714    3    0    1
 -2      1006       316      1319      3704
 -1     11715    3    0    1
 -2      2190      1992      3201      3704
 -1     11716    3    0    1
 -2      1863      1692      3401      3705
 -1     11717    3    0    1
 -2      2563      2749      3009      3705
 -1     11718    3    0    1
 -2      1477      1863      3399      3705
 -1     11719    3    0    1
 -2      2924      2563      3009      3705
 -1     11720    3    0    1
 -2      2747      2720      1696      3706
 -1     11721    3    0    1
 -2      3274      2649      2747      3706
 -1     11722    3    0    1
 -2      3078      2931      3639      3471
 -1     11723    3    0    1
 -2      2649      2948      3116      3706
 -1     11724    3    0    1
 -2      3116      2948      3592      3706
 -1     11725    3    0    1
 -2      2649      3116      3592      3706
 -1     11726    3    0    1
 -2      2747      1473      3274      3706
 -1     11727    3    0    1
 -2      1473      2747      1696      3706
 -1     11728    3    0    1
 -2      2649      2497      2720      3706
 -1     11729    3    0    1
 -2      2720      2730      2850      3706
 -1     11730    3    0    1
 -2      3250      2948      3274      3706
 -1     11731    3    0    1
 -2      2720      2497      2730      3706
 -1     11732    3    0    1
 -2      1696      3250      3274      3706
 -1     11733    3    0    1
 -2      2649      2720      2747      3706
 -1     11734    3    0    1
 -2      3078      3639      3470      3471
 -1     11735    3    0    1
 -2      1696      1555      3250      3706
 -1     11736    3    0    1
 -2      2723      2948      3250      3706
 -1     11737    3    0    1
 -2      2649      3274      2747      2775
 -1     11738    3    0    1
 -2      1473      1696      3274      3706
 -1     11739    3    0    1
 -2      2131      2521      3731      3732
 -1     11740    3    0    1
 -2       186       184      3731      3732
 -1     11741    3    0    1
 -2      2353       415      2521      3732
 -1     11742    3    0    1
 -2       707      1004      1009      3430
 -1     11743    3    0    1
 -2       707       690      1004      3430
 -1     11744    3    0    1
 -2      3417      1425      3746      3486
 -1     11745    3    0    1
 -2       679      1311      2333      3431
 -1     11746    3    0    1
 -2       699       679      2333      3431
 -1     11747    3    0    1
 -2       415       199      3731      3732
 -1     11748    3    0    1
 -2       184      2131      2333      3731
 -1     11749    3    0    1
 -2       699      1007      1311      3431
 -1     11750    3    0    1
 -2      2292      1007      3431      3731
 -1     11751    3    0    1
 -2       679       699      1311      3431
 -1     11752    3    0    1
 -2      3431      1007      3485      3731
 -1     11753    3    0    1
 -2      3036      1165      3127      3433
 -1     11754    3    0    1
 -2      3132      3535      3607      3433
 -1     11755    3    0    1
 -2      3127      3132      3607      3433
 -1     11756    3    0    1
 -2      2683       907      3036      3433
 -1     11757    3    0    1
 -2      3036      3127      3607      3433
 -1     11758    3    0    1
 -2      3535      3036      3607      3433
 -1     11759    3    0    1
 -2       471      1165      3036      3433
 -1     11760    3    0    1
 -2       472       471      3036      3433
 -1     11761    3    0    1
 -2       471      1166       906      3433
 -1     11762    3    0    1
 -2      1166       471       472      3433
 -1     11763    3    0    1
 -2       907       472      3036      3433
 -1     11764    3    0    1
 -2      1166       472      2547      3433
 -1     11765    3    0    1
 -2       472       907      2547      3433
 -1     11766    3    0    1
 -2      2547       907      2683      3433
 -1     11767    3    0    1
 -2      2437      2015      2457      3708
 -1     11768    3    0    1
 -2       787       794      1055      1907
 -1     11769    3    0    1
 -2       270       808       811      1906
 -1     11770    3    0    1
 -2       270      3708      1906      1907
 -1     11771    3    0    1
 -2       270       255      3708      1907
 -1     11772    3    0    1
 -2       334       255       787      1907
 -1     11773    3    0    1
 -2       787       255       794      1907
 -1     11774    3    0    1
 -2      1725      3604      3739      3743
 -1     11775    3    0    1
 -2      1628      3557      1895      3489
 -1     11776    3    0    1
 -2      3557      1628      3456      3489
 -1     11777    3    0    1
 -2      2604      1427      2843      3435
 -1     11778    3    0    1
 -2      1427      1428      2843      3435
 -1     11779    3    0    1
 -2      2549      2431      2581      3733
 -1     11780    3    0    1
 -2      2431       100      2581      3733
 -1     11781    3    0    1
 -2       950       119      3438      3733
 -1     11782    3    0    1
 -2      1318       208      2202      3709
 -1     11783    3    0    1
 -2      2202       208      3507      3709
 -1     11784    3    0    1
 -2      3507       208      1903      3709
 -1     11785    3    0    1
 -2      3709      1903       218       320
 -1     11786    3    0    1
 -2       208       320      1903      3709
 -1     11787    3    0    1
 -2       219       218      3421      3709
 -1     11788    3    0    1
 -2       218       320      3421      3709
 -1     11789    3    0    1
 -2      1025       219      3421      3709
 -1     11790    3    0    1
 -2      2307      2495      2504      3709
 -1     11791    3    0    1
 -2      2495      2202      2504      3709
 -1     11792    3    0    1
 -2      2307      2264      2495      3709
 -1     11793    3    0    1
 -2       320       208      3421      3709
 -1     11794    3    0    1
 -2       208      1318      3421      3709
 -1     11795    3    0    1
 -2      1657      3153      1887      3716
 -1     11796    3    0    1
 -2      1887      3153      1893      3716
 -1     11797    3    0    1
 -2       119       950      2549      3733
 -1     11798    3    0    1
 -2      1438      1608      3630      3716
 -1     11799    3    0    1
 -2      1908      3681      3729      3743
 -1     11800    3    0    1
 -2      1628      1422      3557      3456
 -1     11801    3    0    1
 -2      3414      3681      3715      1442
 -1     11802    3    0    1
 -2      1035       228      2263      3734
 -1     11803    3    0    1
 -2       380       100      3735      1928
 -1     11804    3    0    1
 -2      2257      1033      2552      3745
 -1     11805    3    0    1
 -2      1035       228      3734      1927
 -1     11806    3    0    1
 -2      2976      2830      3114      3712
 -1     11807    3    0    1
 -2      2458      3504      3667      3746
 -1     11808    3    0    1
 -2       100       560       551      1928
 -1     11809    3    0    1
 -2      3504      2558      3667      3746
 -1     11810    3    0    1
 -2       560       100       380      1928
 -1     11811    3    0    1
 -2      1296       132      3503      1909
 -1     11812    3    0    1
 -2       381       380      3733      3735
 -1     11813    3    0    1
 -2      1291       119      2395      3735
 -1     11814    3    0    1
 -2      1291      2395      3442      3735
 -1     11815    3    0    1
 -2       100      2416      2581      3735
 -1     11816    3    0    1
 -2       119       381      3733      3735
 -1     11817    3    0    1
 -2       158       973      2537      3710
 -1     11818    3    0    1
 -2       158      2537      3502      3710
 -1     11819    3    0    1
 -2      3502      2537      3420      3710
 -1     11820    3    0    1
 -2      2394      2556      3420      3710
 -1     11821    3    0    1
 -2       389       390      2580      3710
 -1     11822    3    0    1
 -2       390       392      2580      3710
 -1     11823    3    0    1
 -2       158       389      2580      3710
 -1     11824    3    0    1
 -2      2556      2203      3420      3710
 -1     11825    3    0    1
 -2       392      1297      2580      3710
 -1     11826    3    0    1
 -2      2537      2394      3420      3710
 -1     11827    3    0    1
 -2       973       158      2580      3710
 -1     11828    3    0    1
 -2       595       132       591      1909
 -1     11829    3    0    1
 -2       384      3503      1909      1910
 -1     11830    3    0    1
 -2       384       121      3503      1910
 -1     11831    3    0    1
 -2       388       121       570      1910
 -1     11832    3    0    1
 -2       570       121       578      1910
 -1     11833    3    0    1
 -2      1035      2263      2553      3734
 -1     11834    3    0    1
 -2       564      2146      2416      3442
 -1     11835    3    0    1
 -2       564       581      2146      3442
 -1     11836    3    0    1
 -2       947       564      2416      3442
 -1     11837    3    0    1
 -2      3441      2565      3491      3737
 -1     11838    3    0    1
 -2       228      2257      2263      3734
 -1     11839    3    0    1
 -2       581       564      1291      3442
 -1     11840    3    0    1
 -2       564       947      1291      3442
 -1     11841    3    0    1
 -2      3711       412      1919      3737
 -1     11842    3    0    1
 -2      3711      2589      3444      3737
 -1     11843    3    0    1
 -2      1288      3443      3492      3736
 -1     11844    3    0    1
 -2      2584       388      3503      3736
 -1     11845    3    0    1
 -2       384       132      3503      3736
 -1     11846    3    0    1
 -2      1288      2584      3443      3736
 -1     11847    3    0    1
 -2      2668      3517      3568      3712
 -1     11848    3    0    1
 -2      3517      2668      2977      3712
 -1     11849    3    0    1
 -2      2600      3517      2977      3712
 -1     11850    3    0    1
 -2      2830      2600      3114      3712
 -1     11851    3    0    1
 -2      1485      1824      3384      3712
 -1     11852    3    0    1
 -2      2975      1485      3384      3712
 -1     11853    3    0    1
 -2      1813      1485      3327      3712
 -1     11854    3    0    1
 -2      1531      2682      3384      3712
 -1     11855    3    0    1
 -2      2696      2672      3553      3466
 -1     11856    3    0    1
 -2      2682      1531      2925      3712
 -1     11857    3    0    1
 -2      2925      1531      3310      3712
 -1     11858    3    0    1
 -2      2471      3024      3031      3727
 -1     11859    3    0    1
 -2      3394      3391      3451      3727
 -1     11860    3    0    1
 -2      3024      3391      3394      3727
 -1     11861    3    0    1
 -2      2873      3133      3682      3727
 -1     11862    3    0    1
 -2      1593      1528      3171      3727
 -1     11863    3    0    1
 -2      3517      2600      2830      3712
 -1     11864    3    0    1
 -2      3517      2830      3568      3712
 -1     11865    3    0    1
 -2      1824      1531      3384      3712
 -1     11866    3    0    1
 -2      2516      2583      2682      3712
 -1     11867    3    0    1
 -2      3114      2977      3310      3712
 -1     11868    3    0    1
 -2      1485      3114      3310      3712
 -1     11869    3    0    1
 -2      2682      2583      2975      3712
 -1     11870    3    0    1
 -2      2975      2583      3327      3712
 -1     11871    3    0    1
 -2      2668      2516      2682      3712
 -1     11872    3    0    1
 -2      3133      1593      3682      3727
 -1     11873    3    0    1
 -2      2600      2977      3114      3712
 -1     11874    3    0    1
 -2      1824      1485      3310      3712
 -1     11875    3    0    1
 -2      2682      2975      3384      3712
 -1     11876    3    0    1
 -2      2668      2682      2925      3712
 -1     11877    3    0    1
 -2      3114      1485      1813      3712
 -1     11878    3    0    1
 -2      3031      3024      3231      3727
 -1     11879    3    0    1
 -2      1531      1824      3310      3712
 -1     11880    3    0    1
 -2      3599      1552      3628      3448
 -1     11881    3    0    1
 -2      3628      1552      3428      3448
 -1     11882    3    0    1
 -2       196      3628      3428      3448
 -1     11883    3    0    1
 -2      3250      3078      3706      3470
 -1     11884    3    0    1
 -2      2518      2507      2686      3448
 -1     11885    3    0    1
 -2      2518      2686      2980      3448
 -1     11886    3    0    1
 -2      1552      2518      3428      3448
 -1     11887    3    0    1
 -2      2891      3555      3320      3481
 -1     11888    3    0    1
 -2      3391      1764      3394      3451
 -1     11889    3    0    1
 -2      1764      3231      3394      3451
 -1     11890    3    0    1
 -2      1746      3675      3190      3459
 -1     11891    3    0    1
 -2      3190      2677      3675      3728
 -1     11892    3    0    1
 -2      3196      1666      1820      3481
 -1     11893    3    0    1
 -2      3570      3564      1886      3714
 -1     11894    3    0    1
 -2      3498      3500      3427      3714
 -1     11895    3    0    1
 -2      3500      3498      3564      3714
 -1     11896    3    0    1
 -2      3500      3564      3570      3714
 -1     11897    3    0    1
 -2      1862       425      3720      3457
 -1     11898    3    0    1
 -2      1421      3498      3266      3714
 -1     11899    3    0    1
 -2      3564      1421      1796      3714
 -1     11900    3    0    1
 -2      2817      3541      3427      3714
 -1     11901    3    0    1
 -2      3541      2817      3266      3714
 -1     11902    3    0    1
 -2      3570       153      3611      3714
 -1     11903    3    0    1
 -2      3611       153      3434      3714
 -1     11904    3    0    1
 -2      3498      3541      3266      3714
 -1     11905    3    0    1
 -2      3425      2817      3434      3714
 -1     11906    3    0    1
 -2      1886      3425      3434      3714
 -1     11907    3    0    1
 -2      2817      3314      3434      3714
 -1     11908    3    0    1
 -2      3266      2817      3425      3714
 -1     11909    3    0    1
 -2       153      1886      3434      3714
 -1     11910    3    0    1
 -2      1886      1796      3425      3714
 -1     11911    3    0    1
 -2      1421      3266      3425      3714
 -1     11912    3    0    1
 -2      1796      1421      3425      3714
 -1     11913    3    0    1
 -2      3364      2692      3424      3455
 -1     11914    3    0    1
 -2      3510      1442      3414      3715
 -1     11915    3    0    1
 -2      1442      3510      3681      3715
 -1     11916    3    0    1
 -2      2100      2087      3192      3715
 -1     11917    3    0    1
 -2      2087      2100      2520      3715
 -1     11918    3    0    1
 -2      3657      3414      3510      3453
 -1     11919    3    0    1
 -2      3414      3657      3510      3715
 -1     11920    3    0    1
 -2      3178      2459      3436      3715
 -1     11921    3    0    1
 -2      2402      2459      3178      3715
 -1     11922    3    0    1
 -2      2774      2520      3414      3715
 -1     11923    3    0    1
 -2      2087      3178      3436      3715
 -1     11924    3    0    1
 -2       270       255      2582      3744
 -1     11925    3    0    1
 -2      2520      3192      3414      3715
 -1     11926    3    0    1
 -2      2520      2100      3192      3715
 -1     11927    3    0    1
 -2      2511      2708      3521      3716
 -1     11928    3    0    1
 -2      1801      3361      3719      3472
 -1     11929    3    0    1
 -2      1543      2687      3630      3716
 -1     11930    3    0    1
 -2      2999      1543      3630      3716
 -1     11931    3    0    1
 -2      1608      2999      3630      3716
 -1     11932    3    0    1
 -2      1657      2768      3153      3716
 -1     11933    3    0    1
 -2      2768      1657      3521      3716
 -1     11934    3    0    1
 -2      2708      2768      3521      3716
 -1     11935    3    0    1
 -2       171       981      3227      3716
 -1     11936    3    0    1
 -2       171      3227      1887      3716
 -1     11937    3    0    1
 -2       981      3521      3227      3716
 -1     11938    3    0    1
 -2      1438      1730      3153      3716
 -1     11939    3    0    1
 -2      3227      1657      1887      3716
 -1     11940    3    0    1
 -2      3153      1730      1893      3716
 -1     11941    3    0    1
 -2      1438      2511      1608      3716
 -1     11942    3    0    1
 -2      2511      1438      2708      3716
 -1     11943    3    0    1
 -2      2708      1438      3153      3716
 -1     11944    3    0    1
 -2      1608      2511      2999      3716
 -1     11945    3    0    1
 -2      2768      2708      3153      3716
 -1     11946    3    0    1
 -2      3545      1431      3608      3717
 -1     11947    3    0    1
 -2      1431      1596      3608      3717
 -1     11948    3    0    1
 -2      3353      3023      3362      3717
 -1     11949    3    0    1
 -2      3353      3362      3378      3717
 -1     11950    3    0    1
 -2      3023      3355      3362      3717
 -1     11951    3    0    1
 -2      3192      3023      3353      3717
 -1     11952    3    0    1
 -2      1431      3353      3378      3717
 -1     11953    3    0    1
 -2      2100      3023      3192      3717
 -1     11954    3    0    1
 -2      2679      2087      2704      3717
 -1     11955    3    0    1
 -2      3353      1431      3452      3717
 -1     11956    3    0    1
 -2      1596      1431      3378      3717
 -1     11957    3    0    1
 -2      1753      1801      3361      3719
 -1     11958    3    0    1
 -2      1429      1753      3361      3719
 -1     11959    3    0    1
 -2      2465      3232      3618      3742
 -1     11960    3    0    1
 -2      3142      3219      3361      3719
 -1     11961    3    0    1
 -2      2465      3618      3634      3742
 -1     11962    3    0    1
 -2      1483      3082      3367      3494
 -1     11963    3    0    1
 -2      3219      1429      3361      3719
 -1     11964    3    0    1
 -2      3648      3657      3720      3457
 -1     11965    3    0    1
 -2      3657      3648      3452      3457
 -1     11966    3    0    1
 -2      1885      3648      3720      3457
 -1     11967    3    0    1
 -2      1729      3624      3453      3457
 -1     11968    3    0    1
 -2      3624      1729      1862      3457
 -1     11969    3    0    1
 -2      3648      1673      3452      3457
 -1     11970    3    0    1
 -2      1673      3648      1885      3457
 -1     11971    3    0    1
 -2      1716      3085      3352      3721
 -1     11972    3    0    1
 -2      1716      1557      3085      3721
 -1     11973    3    0    1
 -2       608      3163      3290      3721
 -1     11974    3    0    1
 -2      3210       608      3290      3721
 -1     11975    3    0    1
 -2      3129      3049      3163      3721
 -1     11976    3    0    1
 -2      2787      2929      2933      3721
 -1     11977    3    0    1
 -2      2933      2929      3085      3721
 -1     11978    3    0    1
 -2      2497      2719      2929      3721
 -1     11979    3    0    1
 -2      2929      2719      3085      3721
 -1     11980    3    0    1
 -2      1557      3129      3163      3721
 -1     11981    3    0    1
 -2      2851      2787      2933      3721
 -1     11982    3    0    1
 -2      2851      2933      3290      3721
 -1     11983    3    0    1
 -2      2787      2497      2929      3721
 -1     11984    3    0    1
 -2      2933      3085      3210      3721
 -1     11985    3    0    1
 -2      3129      1557      3352      3721
 -1     11986    3    0    1
 -2       608      1557      3163      3721
 -1     11987    3    0    1
 -2      2557      2787      2851      3721
 -1     11988    3    0    1
 -2      2933      3210      3290      3721
 -1     11989    3    0    1
 -2      1557      1716      3352      3721
 -1     11990    3    0    1
 -2      1725      1420      3463      3739
 -1     11991    3    0    1
 -2      1435      1599      3147      3740
 -1     11992    3    0    1
 -2      3458      2774      3463      3739
 -1     11993    3    0    1
 -2      1516      3605      3458      3739
 -1     11994    3    0    1
 -2      2402      3178      3605      3739
 -1     11995    3    0    1
 -2      1059       333      2582      3744
 -1     11996    3    0    1
 -2      1807      3137      3186      3462
 -1     11997    3    0    1
 -2      1807      3186      3221      3462
 -1     11998    3    0    1
 -2      3186      3137      3673      3462
 -1     11999    3    0    1
 -2      3221      3186      3673      3462
 -1     12000    3    0    1
 -2      1599      1435      3614      3740
 -1     12001    3    0    1
 -2      2618      3517      3722      3740
 -1     12002    3    0    1
 -2      3517      1467      1741      3740
 -1     12003    3    0    1
 -2       941      1285      2619      3722
 -1     12004    3    0    1
 -2      1435      1653      3614      3722
 -1     12005    3    0    1
 -2      1614      2947      3184      3722
 -1     12006    3    0    1
 -2      1614      2844      2947      3722
 -1     12007    3    0    1
 -2      3531      1285      3614      3722
 -1     12008    3    0    1
 -2      1614       101      2844      3722
 -1     12009    3    0    1
 -2      1285      3531      3585      3722
 -1     12010    3    0    1
 -2       101      1285      3585      3722
 -1     12011    3    0    1
 -2      1653       101      3585      3722
 -1     12012    3    0    1
 -2       101      1653      2844      3722
 -1     12013    3    0    1
 -2      1653       101      2844      1708
 -1     12014    3    0    1
 -2      3575      3531      3614      3722
 -1     12015    3    0    1
 -2      3531      3575      3585      3722
 -1     12016    3    0    1
 -2      1653      3575      3614      3722
 -1     12017    3    0    1
 -2      3575      1653      3585      3722
 -1     12018    3    0    1
 -2      2619      1285      3184      3722
 -1     12019    3    0    1
 -2      1435      2606      2844      3722
 -1     12020    3    0    1
 -2      2844      2606      2947      3722
 -1     12021    3    0    1
 -2      3145      3367      3082      3494
 -1     12022    3    0    1
 -2      1285      1614      3184      3722
 -1     12023    3    0    1
 -2      1653      1435      2844      3722
 -1     12024    3    0    1
 -2      1285       101      1614      3722
 -1     12025    3    0    1
 -2      2583      1855      3327      3465
 -1     12026    3    0    1
 -2      1436      2583      2721      3465
 -1     12027    3    0    1
 -2      1761      3114      1813      3465
 -1     12028    3    0    1
 -2      1565       229      2675      3741
 -1     12029    3    0    1
 -2      1516      3594      3689      3741
 -1     12030    3    0    1
 -2      1565      2675      2725      3741
 -1     12031    3    0    1
 -2      1412      1577      3419      3467
 -1     12032    3    0    1
 -2      1511       207      1695      3467
 -1     12033    3    0    1
 -2      3218      3315      3473      3741
 -1     12034    3    0    1
 -2      2813      3530      3689      3741
 -1     12035    3    0    1
 -2      3191      3182      3461      3469
 -1     12036    3    0    1
 -2      1446      2686      2980      3469
 -1     12037    3    0    1
 -2      1445      1446      2980      3469
 -1     12038    3    0    1
 -2      2686      1446      3448      3469
 -1     12039    3    0    1
 -2      3182      2686      3448      3469
 -1     12040    3    0    1
 -2      1852      1809      3461      3469
 -1     12041    3    0    1
 -2      3182      1852      3461      3469
 -1     12042    3    0    1
 -2      1446      1852      3448      3469
 -1     12043    3    0    1
 -2      1852      3182      3448      3469
 -1     12044    3    0    1
 -2      3639       626      3470      3471
 -1     12045    3    0    1
 -2      3513      1694      3651      3472
 -1     12046    3    0    1
 -2      3540      3651      3719      3472
 -1     12047    3    0    1
 -2      3513      3540      3719      3472
 -1     12048    3    0    1
 -2      3540      3513      3651      3472
 -1     12049    3    0    1
 -2      1410      3513      3342      3472
 -1     12050    3    0    1
 -2      3513      1410      1694      3472
 -1     12051    3    0    1
 -2      3176      2228      3456      3742
 -1     12052    3    0    1
 -2      3557      3653      3489      3742
 -1     12053    3    0    1
 -2      3557      3496      3634      3742
 -1     12054    3    0    1
 -2      3496      2228      3232      3742
 -1     12055    3    0    1
 -2      3176      3021      3232      3742
 -1     12056    3    0    1
 -2      3496      2465      3634      3742
 -1     12057    3    0    1
 -2      3653      3476      3489      3742
 -1     12058    3    0    1
 -2      1913        57      1924      3494
 -1     12059    3    0    1
 -2      3145      1548      3367      3494
 -1     12060    3    0    1
 -2       709       716      1509      3475
 -1     12061    3    0    1
 -2      2561      1509      3366      3475
 -1     12062    3    0    1
 -2      2545      2561      3366      3475
 -1     12063    3    0    1
 -2       409      2436      3711      1918
 -1     12064    3    0    1
 -2       409       996      2436      1918
 -1     12065    3    0    1
 -2      3634      1870      3653      3476
 -1     12066    3    0    1
 -2      1870       423      3653      3476
 -1     12067    3    0    1
 -2       185      3711      1919      3737
 -1     12068    3    0    1
 -2      2549       950      3438      3733
 -1     12069    3    0    1
 -2      1284      2431      2549      3733
 -1     12070    3    0    1
 -2      3604      1725      3463      3743
 -1     12071    3    0    1
 -2      3414      2774      3715      3743
 -1     12072    3    0    1
 -2       185       999      2315      3737
 -1     12073    3    0    1
 -2      1284      2549      3438      3733
 -1     12074    3    0    1
 -2      3509      1411      2816      3477
 -1     12075    3    0    1
 -2      3509      2816      3042      3477
 -1     12076    3    0    1
 -2      1491      1629      3318      3478
 -1     12077    3    0    1
 -2      3318      1629      3661      3478
 -1     12078    3    0    1
 -2      3063      3318      3661      3478
 -1     12079    3    0    1
 -2      2893      1698      3211      3478
 -1     12080    3    0    1
 -2      1698      1631      3211      3478
 -1     12081    3    0    1
 -2      1631      1491      2777      3478
 -1     12082    3    0    1
 -2      1631      2777      3211      3478
 -1     12083    3    0    1
 -2      2777      1491      3063      3478
 -1     12084    3    0    1
 -2      3559      2893      3211      3478
 -1     12085    3    0    1
 -2      2777      3559      3211      3478
 -1     12086    3    0    1
 -2      2904      3063      3661      3478
 -1     12087    3    0    1
 -2      3559      2904      3661      3478
 -1     12088    3    0    1
 -2      2777      2611      3559      3478
 -1     12089    3    0    1
 -2      2611      2904      3559      3478
 -1     12090    3    0    1
 -2      2611      2777      3063      3478
 -1     12091    3    0    1
 -2      2904      2611      3063      3478
 -1     12092    3    0    1
 -2      3678      3663      3698      3480
 -1     12093    3    0    1
 -2      3663      3678      3407      3480
 -1     12094    3    0    1
 -2      2798      1322      3587      3724
 -1     12095    3    0    1
 -2      2830      2976      3371      3726
 -1     12096    3    0    1
 -2      3568      2516      3712      3726
 -1     12097    3    0    1
 -2      1469      2871      3568      3726
 -1     12098    3    0    1
 -2      1469      3568      3371      3726
 -1     12099    3    0    1
 -2      2516      2583      3712      3726
 -1     12100    3    0    1
 -2      2690      2639      3568      3726
 -1     12101    3    0    1
 -2       696       704      1012      1914
 -1     12102    3    0    1
 -2      2830      2890      3568      3726
 -1     12103    3    0    1
 -2      3568      2890      3371      3726
 -1     12104    3    0    1
 -2      3712      2583      3465      3726
 -1     12105    3    0    1
 -2      2976      3712      3465      3726
 -1     12106    3    0    1
 -2      2721      2976      3465      3726
 -1     12107    3    0    1
 -2      2583      2721      3465      3726
 -1     12108    3    0    1
 -2      1691      3043      3371      3726
 -1     12109    3    0    1
 -2      2976      1691      3371      3726
 -1     12110    3    0    1
 -2      1469      2800      2871      3726
 -1     12111    3    0    1
 -2      3043      2721      3282      3726
 -1     12112    3    0    1
 -2      3043      1625      3371      3726
 -1     12113    3    0    1
 -2      1469      1625      2800      3726
 -1     12114    3    0    1
 -2      1625      3043      3282      3726
 -1     12115    3    0    1
 -2      2800      1625      3282      3726
 -1     12116    3    0    1
 -2      2583      2639      2721      3726
 -1     12117    3    0    1
 -2      2721      2639      2800      3726
 -1     12118    3    0    1
 -2      2583      2516      2639      3726
 -1     12119    3    0    1
 -2      2800      2639      2871      3726
 -1     12120    3    0    1
 -2      2639      2690      2871      3726
 -1     12121    3    0    1
 -2      2890      2830      3371      3726
 -1     12122    3    0    1
 -2      1691      2976      3043      3726
 -1     12123    3    0    1
 -2      2721      2800      3282      3726
 -1     12124    3    0    1
 -2      1625      1469      3371      3726
 -1     12125    3    0    1
 -2      3231      3024      3394      3727
 -1     12126    3    0    1
 -2      2873      2471      3031      3727
 -1     12127    3    0    1
 -2      2873      3031      3133      3727
 -1     12128    3    0    1
 -2      3675      1746      3190      3728
 -1     12129    3    0    1
 -2      1749      1434      3058      3728
 -1     12130    3    0    1
 -2      1294       387      1746      3728
 -1     12131    3    0    1
 -2      1784      1749      3326      3728
 -1     12132    3    0    1
 -2      1749      3058      3326      3728
 -1     12133    3    0    1
 -2      2530      1434      3053      3728
 -1     12134    3    0    1
 -2      1434      1590      3053      3728
 -1     12135    3    0    1
 -2      1434      2530      3058      3728
 -1     12136    3    0    1
 -2      2530      2677      3058      3728
 -1     12137    3    0    1
 -2      3058      2677      3190      3728
 -1     12138    3    0    1
 -2      3150      3591      3705      3482
 -1     12139    3    0    1
 -2      1477      3150      3705      3482
 -1     12140    3    0    1
 -2      3591      3150      3395      3482
 -1     12141    3    0    1
 -2      3150      1659      3395      3482
 -1     12142    3    0    1
 -2       704       193       318      1914
 -1     12143    3    0    1
 -2       193       704       696      1914
 -1     12144    3    0    1
 -2       209       318      3693      1915
 -1     12145    3    0    1
 -2      3693       318      1914      1915
 -1     12146    3    0    1
 -2       209       718       721      1915
 -1     12147    3    0    1
 -2       209       317       718      1915
 -1     12148    3    0    1
 -2      1509      3366      3475      3483
 -1     12149    3    0    1
 -2       944       336      2304      1916
 -1     12150    3    0    1
 -2      2304       336      3695      1916
 -1     12151    3    0    1
 -2       944      2304      3695      1916
 -1     12152    3    0    1
 -2       106       336       556      1916
 -1     12153    3    0    1
 -2       106       556       559      1916
 -1     12154    3    0    1
 -2       106      3695      1916      1917
 -1     12155    3    0    1
 -2       106       337      3695      1917
 -1     12156    3    0    1
 -2       828       282       337      1917
 -1     12157    3    0    1
 -2       282       828       821      1917
 -1     12158    3    0    1
 -2      3504      2545      3366      3483
 -1     12159    3    0    1
 -2      2546      3504      3366      3483
 -1     12160    3    0    1
 -2      3366      2545      3475      3483
 -1     12161    3    0    1
 -2      3504      2546      3416      3483
 -1     12162    3    0    1
 -2      1569       716      3412      3483
 -1     12163    3    0    1
 -2      2477      3504      3416      3483
 -1     12164    3    0    1
 -2      3504      2477      3412      3483
 -1     12165    3    0    1
 -2      1569      2477      3416      3483
 -1     12166    3    0    1
 -2      2477      1569      3412      3483
 -1     12167    3    0    1
 -2      2545      3412      3475      3483
 -1     12168    3    0    1
 -2       682       185      1001      1919
 -1     12169    3    0    1
 -2       685       682      1001      1919
 -1     12170    3    0    1
 -2       185       685       412      1919
 -1     12171    3    0    1
 -2       685       185       682      1919
 -1     12172    3    0    1
 -2        77       207      1511      3484
 -1     12173    3    0    1
 -2      1577      3467      1912      3484
 -1     12174    3    0    1
 -2      3467       207      1912      3484
 -1     12175    3    0    1
 -2       207        77      1912      3484
 -1     12176    3    0    1
 -2      2364      1064      3707      1920
 -1     12177    3    0    1
 -2       267      2364      3707      1920
 -1     12178    3    0    1
 -2       805       812      1064      1920
 -1     12179    3    0    1
 -2       267       805      1064      1920
 -1     12180    3    0    1
 -2       812       267       335      1920
 -1     12181    3    0    1
 -2       267       812       805      1920
 -1     12182    3    0    1
 -2       278       335      3707      1921
 -1     12183    3    0    1
 -2      3707       335      1920      1921
 -1     12184    3    0    1
 -2       278       279       824      1921
 -1     12185    3    0    1
 -2       278       824       827      1921
 -1     12186    3    0    1
 -2       199       186      3731      3732
 -1     12187    3    0    1
 -2      2610      2457      3708      3487
 -1     12188    3    0    1
 -2      2521       415      3731      3732
 -1     12189    3    0    1
 -2      2521      2131      3430      3732
 -1     12190    3    0    1
 -2       184      2131      3731      3732
 -1     12191    3    0    1
 -2       186       184      3732      1923
 -1     12192    3    0    1
 -2      2498      3530      3597      3741
 -1     12193    3    0    1
 -2      1311      3431      3485      3731
 -1     12194    3    0    1
 -2       415      1007      2292      3731
 -1     12195    3    0    1
 -2      1311      2333      3431      3731
 -1     12196    3    0    1
 -2      1311       184      2333      3731
 -1     12197    3    0    1
 -2      2131      2521      3431      3731
 -1     12198    3    0    1
 -2       199       186      3485      3731
 -1     12199    3    0    1
 -2      2521      2292      3431      3731
 -1     12200    3    0    1
 -2       415       199      3485      3731
 -1     12201    3    0    1
 -2      1426      1425      3417      3486
 -1     12202    3    0    1
 -2       186       184      3485      3731
 -1     12203    3    0    1
 -2      2333      2131      3431      3731
 -1     12204    3    0    1
 -2       184      1311      3485      3731
 -1     12205    3    0    1
 -2      1007       415      3485      3731
 -1     12206    3    0    1
 -2      1009      2353      3732      1922
 -1     12207    3    0    1
 -2       199       415       700      1922
 -1     12208    3    0    1
 -2       199       700       703      1922
 -1     12209    3    0    1
 -2       199      3732      1922      1923
 -1     12210    3    0    1
 -2       199       186      3732      1923
 -1     12211    3    0    1
 -2       686       184       186      1923
 -1     12212    3    0    1
 -2       184       686       678      1923
 -1     12213    3    0    1
 -2      1030      1035      3734      1926
 -1     12214    3    0    1
 -2      2148      1030      3734      1926
 -1     12215    3    0    1
 -2       220      1030      2148      1926
 -1     12216    3    0    1
 -2       220       740       733      1926
 -1     12217    3    0    1
 -2       322       323      3734      3745
 -1     12218    3    0    1
 -2       220      2148      3734      1926
 -1     12219    3    0    1
 -2       740       220       322      1926
 -1     12220    3    0    1
 -2       323       322      3734      1927
 -1     12221    3    0    1
 -2       228       757       323      1927
 -1     12222    3    0    1
 -2      3734       322      1926      1927
 -1     12223    3    0    1
 -2      1501      1427      2843      3488
 -1     12224    3    0    1
 -2      2604      3523      2843      3488
 -1     12225    3    0    1
 -2      1427      2604      2843      3488
 -1     12226    3    0    1
 -2      1509      2575      3435      3488
 -1     12227    3    0    1
 -2      2575      2876      3606      3488
 -1     12228    3    0    1
 -2      2604      2510      3523      3488
 -1     12229    3    0    1
 -2      2575      1509      2685      3488
 -1     12230    3    0    1
 -2      2685      1509      2876      3488
 -1     12231    3    0    1
 -2      2575      2685      2876      3488
 -1     12232    3    0    1
 -2      2510      2575      3606      3488
 -1     12233    3    0    1
 -2      3523      2510      3606      3488
 -1     12234    3    0    1
 -2      2575      2604      3435      3488
 -1     12235    3    0    1
 -2      2575      2510      2604      3488
 -1     12236    3    0    1
 -2      2565       999      3491      3737
 -1     12237    3    0    1
 -2       100      1284      3438      3733
 -1     12238    3    0    1
 -2       380       100      3438      3733
 -1     12239    3    0    1
 -2       754       228      1035      1927
 -1     12240    3    0    1
 -2      2553      2257      3439      3734
 -1     12241    3    0    1
 -2      2263      2257      2553      3734
 -1     12242    3    0    1
 -2      2148      2553      3439      3734
 -1     12243    3    0    1
 -2       100       947      2416      1928
 -1     12244    3    0    1
 -2       100       551       947      1928
 -1     12245    3    0    1
 -2       381       380      3735      1929
 -1     12246    3    0    1
 -2       119       577       381      1929
 -1     12247    3    0    1
 -2      2715      3226      3616      3738
 -1     12248    3    0    1
 -2      3170      3126      3616      3738
 -1     12249    3    0    1
 -2      3047      1778      3460      3738
 -1     12250    3    0    1
 -2      3671      2475      3683      3738
 -1     12251    3    0    1
 -2      1620      1778      3170      3738
 -1     12252    3    0    1
 -2      2395       119      3733      3735
 -1     12253    3    0    1
 -2      1291      3735      1928      1929
 -1     12254    3    0    1
 -2      2581      2416      3442      3735
 -1     12255    3    0    1
 -2      2395      2581      3442      3735
 -1     12256    3    0    1
 -2       121      3503      1910      3736
 -1     12257    3    0    1
 -2       388       121      1910      3736
 -1     12258    3    0    1
 -2       957      3443      3492      2453
 -1     12259    3    0    1
 -2      3443       957      3492      3736
 -1     12260    3    0    1
 -2      1288       388      2584      3736
 -1     12261    3    0    1
 -2       384       121      3492      3736
 -1     12262    3    0    1
 -2       132       384      3492      3736
 -1     12263    3    0    1
 -2      2584      2428      3443      3736
 -1     12264    3    0    1
 -2       957       132      3492      3736
 -1     12265    3    0    1
 -2       121       388      3492      3736
 -1     12266    3    0    1
 -2       388      1288      3492      3736
 -1     12267    3    0    1
 -2      2436      3711      3444      3737
 -1     12268    3    0    1
 -2       409      2436      3444      3737
 -1     12269    3    0    1
 -2      2436       409      3711      3737
 -1     12270    3    0    1
 -2      2315      3441      3444      3737
 -1     12271    3    0    1
 -2       412       411      3491      3737
 -1     12272    3    0    1
 -2       185       412      3491      3737
 -1     12273    3    0    1
 -2      2315      2565      3441      3737
 -1     12274    3    0    1
 -2       999       185      3491      3737
 -1     12275    3    0    1
 -2      2589      2315      3444      3737
 -1     12276    3    0    1
 -2       411       409      3491      3737
 -1     12277    3    0    1
 -2       409      1307      3491      3737
 -1     12278    3    0    1
 -2      1778      3047      3170      3738
 -1     12279    3    0    1
 -2      2616      3047      3460      3738
 -1     12280    3    0    1
 -2      3671      3616      2715      3580
 -1     12281    3    0    1
 -2      3616      3671      2715      3738
 -1     12282    3    0    1
 -2      1543      2687      3716      3738
 -1     12283    3    0    1
 -2      1543      2616      3460      3738
 -1     12284    3    0    1
 -2      1543      2511      2616      3738
 -1     12285    3    0    1
 -2      2511      2999      3716      3738
 -1     12286    3    0    1
 -2      2999      1543      3716      3738
 -1     12287    3    0    1
 -2      2511      1543      2999      3738
 -1     12288    3    0    1
 -2      1620      3226      3460      3738
 -1     12289    3    0    1
 -2      2715      2687      3226      3738
 -1     12290    3    0    1
 -2      3226      2687      3460      3738
 -1     12291    3    0    1
 -2      2511      2475      2884      3738
 -1     12292    3    0    1
 -2      2884      2475      3126      3738
 -1     12293    3    0    1
 -2      3047      2884      3170      3738
 -1     12294    3    0    1
 -2      2884      3126      3170      3738
 -1     12295    3    0    1
 -2      2616      2511      2884      3738
 -1     12296    3    0    1
 -2      1778      1620      3460      3738
 -1     12297    3    0    1
 -2      2616      2884      3047      3738
 -1     12298    3    0    1
 -2      2687      1543      3460      3738
 -1     12299    3    0    1
 -2       941      2623      1741      3740
 -1     12300    3    0    1
 -2      2618      3147      3238      3740
 -1     12301    3    0    1
 -2      2618      2606      3147      3740
 -1     12302    3    0    1
 -2      2606      1435      3147      3740
 -1     12303    3    0    1
 -2      1599      1821      3246      3740
 -1     12304    3    0    1
 -2      3367      1548      1913      3494
 -1     12305    3    0    1
 -2       229      1326      3594      3741
 -1     12306    3    0    1
 -2      3594      1326      3689      3741
 -1     12307    3    0    1
 -2      1516      2634      2675      3741
 -1     12308    3    0    1
 -2      2813      1565      3473      3741
 -1     12309    3    0    1
 -2      3315      2813      3473      3741
 -1     12310    3    0    1
 -2      2634      2734      3071      3741
 -1     12311    3    0    1
 -2      2634      2499      2734      3741
 -1     12312    3    0    1
 -2      2675      2634      2725      3741
 -1     12313    3    0    1
 -2      1326      1565      2813      3741
 -1     12314    3    0    1
 -2      3071      2734      3218      3741
 -1     12315    3    0    1
 -2      2725      2634      3071      3741
 -1     12316    3    0    1
 -2      2499      2498      2734      3741
 -1     12317    3    0    1
 -2      1565      1440      3473      3741
 -1     12318    3    0    1
 -2      1326       229      1565      3741
 -1     12319    3    0    1
 -2      2734      2498      3117      3741
 -1     12320    3    0    1
 -2      2734      3117      3218      3741
 -1     12321    3    0    1
 -2      2228      3176      3232      3742
 -1     12322    3    0    1
 -2      3339      3021      3456      3742
 -1     12323    3    0    1
 -2      3339      3456      3489      3742
 -1     12324    3    0    1
 -2      3476      3339      3489      3742
 -1     12325    3    0    1
 -2      3021      3176      3456      3742
 -1     12326    3    0    1
 -2      3604      1823      3729      3743
 -1     12327    3    0    1
 -2      1823      3604      3463      3743
 -1     12328    3    0    1
 -2       427      3429      3729      3743
 -1     12329    3    0    1
 -2      1823       427      3729      3743
 -1     12330    3    0    1
 -2      2774      3429      3463      3743
 -1     12331    3    0    1
 -2      2774      3414      3429      3743
 -1     12332    3    0    1
 -2      3429      1823      3463      3743
 -1     12333    3    0    1
 -2       427      1823      3429      3743
 -1     12334    3    0    1
 -2      2610      2515      3487      3744
 -1     12335    3    0    1
 -2      2515      2412      3487      3744
 -1     12336    3    0    1
 -2       757       228       754      1927
 -1     12337    3    0    1
 -2       228      1033      2257      3745
 -1     12338    3    0    1
 -2       228      2257      3734      3745
 -1     12339    3    0    1
 -2       323       228      3734      3745
 -1     12340    3    0    1
 -2      2257      3439      3734      3745
 -1     12341    3    0    1
 -2      1321      2264      2552      3745
 -1     12342    3    0    1
 -2       323       322      3440      3745
 -1     12343    3    0    1
 -2       322       220      3440      3745
 -1     12344    3    0    1
 -2       220      1321      3440      3745
 -1     12345    3    0    1
 -2       228       323      3440      3745
 -1     12346    3    0    1
 -2      2264      3439      3490      3745
 -1     12347    3    0    1
 -2      2257      2552      3490      3745
 -1     12348    3    0    1
 -2      1033       228      3440      3745
 -1     12349    3    0    1
 -2      3439      2257      3490      3745
 -1     12350    3    0    1
 -2      2552      2264      3490      3745
 -1     12351    3    0    1
 -2       577       119       574      1929
 -1     12352    3    0    1
 -2      3504      3416      3493      3746
 -1     12353    3    0    1
 -2      2458      2555      3504      3746
 -1     12354    3    0    1
 -2      2463      2496      3667      3746
 -1     12355    3    0    1
 -2      1511      3467      3493      3746
 -1     12356    3    0    1
 -2      1511      3419      3467      3746
 -1     12357    3    0    1
 -2      3504      2555      3417      3746
 -1     12358    3    0    1
 -2      3432      1425      3486      3746
 -1     12359    3    0    1
 -2      3416      3504      3417      3746
 -1     12360    3    0    1
 -2      1412      3667      3467      3746
 -1     12361    3    0    1
 -2      1412      2463      3667      3746
 -1     12362    3    0    1
 -2      3419      1412      3467      3746
 -1     12363    3    0    1
 -2      3419      1511      3432      3746
 -1     12364    3    0    1
 -2      1511      1425      3432      3746
 -1     12365    3    0    1
 -2      1425      3417      3746      1459
 -1     12366    3    0    1
 -2      1459      3416      3417      3746
 -1     12367    3    0    1
 -2      2555      2496      3486      3746
 -1     12368    3    0    1
 -2      2496      3432      3486      3746
 -1     12369    3    0    1
 -2      2458      2496      2555      3746
 -1     12370    3    0    1
 -2      2496      2463      3419      3746
 -1     12371    3    0    1
 -2      2496      3419      3432      3746
 -1     12372    3    0    1
 -2      3417      2555      3486      3746
 -1     12373    3    0    1
 -2      3416      1425      3493      3746
 -1     12374    3    0    1
 -2      2463      1412      3419      3746
 -1     12375    3    0    1
 -2      1425      1511      3493      3746
 -1     12376    3    0    1
 -2      1459      1425      3416      3746
 -3
    1PSTEP                         1           1           1          
  100CL  101 1.000000000        3746                     0    1           1
 -4  DISP        4    1
 -5  D1          1    2    1    0
 -5  D2          1    2    2    0
 -5  D3          1    2    3    0
 -5  ALL         1    2    0    0    1ALL
 -1         1-1.36399E-01 2.58135E-02-8.07789E-01
 -1         2 1.45284E-01-5.87407E-02-4.20093E-01
 -1         3 1.37228E-01-5.76570E-02-6.30421E-01
 -1         4 1.46826E-01-5.98958E-02-4.19080E-01
 -1         5 1.39151E-01-5.83410E-02-6.31072E-01
 -1         6 1.45745E-01-5.96759E-02-4.19727E-01
 -1         7 5.69505E-02 1.42292E-01-6.31246E-01
 -1         8 5.81368E-02-1.40877E-01-6.32919E-01
 -1         9 1.14630E-01-1.10677E-01-4.23927E-01
 -1        10 1.13615E-01-1.11419E-01-4.23192E-01
 -1        11 1.50031E-01-1.17032E-03-6.30166E-01
 -1        12 1.34671E-01 2.85686E-02-8.08542E-01
 -1        13 1.32546E-01-2.33844E-02-8.05941E-01
 -1        14 1.39068E-01-5.65141E-02-6.31344E-01
 -1        15 5.92850E-02-1.45786E-01-4.25494E-01
 -1        16-6.07119E-02-1.41716E-01-6.28106E-01
 -1        17-6.85540E-02-1.48451E-01-1.78291E-01
 -1        18-6.06571E-02-1.39245E-01-6.26587E-01
 -1        19-5.94026E-02-1.40675E-01-6.26737E-01
 -1        20-7.97880E-02-1.13888E-01-8.06856E-01
 -1        21-3.15329E-02-1.32140E-01-8.02969E-01
 -1        22-1.13527E-01-7.72045E-02-8.01179E-01
 -1        23-1.05108E-01-1.07409E-01-6.26109E-01
 -1        24-1.33583E-01-2.70633E-02-8.03495E-01
 -1        25-1.35300E-01-2.71611E-02-8.06926E-01
 -1        26-1.34833E-01 2.58679E-02-8.04274E-01
 -1        27-1.52619E-01-5.34220E-04-6.27681E-01
 -1        28-1.52570E-01-1.93180E-03-6.28949E-01
 -1        29-1.66017E-01-3.03397E-03-1.76855E-01
 -1        30-1.62493E-01-1.28127E-03-4.12446E-01
 -1        31-5.74733E-02 1.48659E-01-4.18825E-01
 -1        32-1.10108E-01-1.15567E-01-4.14222E-01
 -1        33-1.47976E-01-5.91888E-02-4.15599E-01
 -1        34-1.47980E-01-5.93738E-02-4.17386E-01
 -1        35-1.39567E-01-5.78222E-02-6.27169E-01
 -1        36-1.09368E-01-1.15216E-01-4.18128E-01
 -1        37-5.66988E-02 1.39374E-01-6.29692E-01
 -1        38-5.55986E-02 1.41084E-01-6.30879E-01
 -1        39-5.79655E-02 1.48377E-01-4.18109E-01
 -1        40-7.70821E-02 1.15528E-01-8.04624E-01
 -1        41-3.04396E-02 1.32191E-01-8.04404E-01
 -1        42 2.61814E-02 1.32279E-01-8.05093E-01
 -1        43-2.52375E-03 1.51089E-01-6.31084E-01
 -1        44-1.40456E-01 5.84033E-02-6.27484E-01
 -1        45-1.14167E-01 7.22274E-02-8.07643E-01
 -1        46-1.49047E-01 6.21890E-02-4.12482E-01
 -1        47-1.40034E-01 5.95146E-02-6.28288E-01
 -1        48-1.49601E-01 6.15660E-02-4.12923E-01
 -1        49-1.11389E-01 1.03066E-01-6.31080E-01
 -1        50-1.12794E-01 7.13178E-02-8.04380E-01
 -1        51-1.09951E-01 1.04280E-01-6.28744E-01
 -1        52-1.18157E-01 1.09420E-01-4.18126E-01
 -1        53-1.17819E-01 1.08869E-01-4.20089E-01
 -1        54-1.17105E-01 1.09554E-01-4.15674E-01
 -1        55-1.17315E-01 1.12929E-01-1.87848E-01
 -1        56-2.84260E-04 1.60634E-01-4.16453E-01
 -1        57 7.52703E-02 1.10860E-01-8.07282E-01
 -1        58 6.03571E-02 1.48176E-01-4.16833E-01
 -1        59 6.10368E-02 1.48060E-01-4.17701E-01
 -1        60 5.80592E-02 1.51469E-01-1.82788E-01
 -1        61 5.88109E-02 1.52737E-01-1.84029E-01
 -1        62-2.27152E-03-1.57629E-01-4.20530E-01
 -1        63-1.86153E-03-1.52809E-01-6.31038E-01
 -1        64-2.58764E-03-1.50212E-01-6.30023E-01
 -1        65-7.13745E-03-1.61212E-01-1.91450E-01
 -1        66-2.40010E-03-1.58886E-01-4.19509E-01
 -1        67-3.03746E-02-1.33587E-01-8.06506E-01
 -1        68 2.65623E-02-1.31686E-01-8.03014E-01
 -1        69 7.50274E-02-1.14127E-01-8.08949E-01
 -1        70 5.79786E-02-1.37178E-01-6.32517E-01
 -1        71 5.99231E-02-1.46853E-01-4.24020E-01
 -1        72 5.99736E-02-1.51315E-01-1.95872E-01
 -1        73 6.04491E-02-1.51892E-01-1.96625E-01
 -1        74-1.88682E-03-1.58725E-01-4.19651E-01
 -1        75 4.63457E-04 1.59407E-01-4.19201E-01
 -1        76-1.17553E-03 1.54104E-01-6.31994E-01
 -1        77 1.13488E-01 7.52711E-02-8.10060E-01
 -1        78 1.04503E-01 1.08396E-01-6.31139E-01
 -1        79 1.03493E-01 1.09473E-01-6.33523E-01
 -1        80 7.45379E-02-1.13006E-01-8.05156E-01
 -1        81 1.12623E-01-7.37447E-02-8.06007E-01
 -1        82 1.07004E-01-1.03789E-01-6.34922E-01
 -1        83 1.06055E-01 1.10215E-01-6.31416E-01
 -1        84 1.09977E-01 1.14469E-01-4.17967E-01
 -1        85 1.10794E-01 1.16346E-01-4.19642E-01
 -1        86 1.39855E-01 5.66744E-02-6.32564E-01
 -1        87 1.38573E-01 5.75988E-02-6.32330E-01
 -1        88 1.40563E-01 5.81276E-02-6.33017E-01
 -1        89 1.48529E-01 5.92802E-02-4.18077E-01
 -1        90 1.48411E-01 6.00265E-02-4.17975E-01
 -1        91 1.47935E-01-6.45149E-02-1.86295E-01
 -1        92 1.49768E-01-6.55751E-02-1.86256E-01
 -1        93 1.17478E-01-1.15326E-01-1.91234E-01
 -1        94 1.60234E-01-8.92729E-04-4.15000E-01
 -1        95 1.58689E-01-2.15870E-03-4.18138E-01
 -1        96 1.15867E-01 1.16709E-01-1.85803E-01
 -1        97 1.51209E-01 6.25538E-02-1.83958E-01
 -1        98-2.79902E-02-6.58464E-04-1.75585E-01
 -1        99-3.04930E-02-1.42019E-03-4.15929E-01
 -1       100-2.76069E-02-1.27395E-03-6.33706E-01
 -1       101-2.26437E-02 3.62722E-03-8.20899E-01
 -1       102-1.66885E-01-3.07332E-03-1.78126E-01
 -1       103-1.55000E-01-7.66299E-04-6.28331E-01
 -1       104-3.10080E-02 1.13605E-03-4.17086E-01
 -1       105-1.62712E-01-1.97278E-03-4.13865E-01
 -1       106-2.79145E-02 4.76715E-03-6.31347E-01
 -1       107-1.55088E-01-1.67271E-03-6.30603E-01
 -1       108-1.61592E-01-2.16487E-03-4.15159E-01
 -1       109-3.03452E-02-2.91145E-03-4.14496E-01
 -1       110-1.61292E-01-1.21281E-03-4.13115E-01
 -1       111-1.14417E-01-7.79400E-02-8.05638E-01
 -1       112-2.14971E-02-4.55992E-03-8.23838E-01
 -1       113-1.53598E-01-5.95768E-02-1.84907E-01
 -1       114-1.49647E-01-5.96077E-02-4.15946E-01
 -1       115-1.54236E-01-5.98525E-02-1.86038E-01
 -1       116-2.89826E-02-1.25347E-02-4.20153E-01
 -1       117-1.41326E-01-5.64895E-02-6.28480E-01
 -1       118-1.49233E-01-6.00422E-02-4.15495E-01
 -1       119-2.57077E-02-9.48261E-03-6.33525E-01
 -1       120-1.43670E-01-5.75914E-02-6.29983E-01
 -1       121-2.42893E-02-1.50940E-02-6.29305E-01
 -1       122-2.90698E-02-9.96994E-03-4.18054E-01
 -1       123-1.41500E-01-5.83172E-02-6.27878E-01
 -1       124-2.79357E-02-1.39615E-02-4.16409E-01
 -1       125-1.79541E-02-2.10865E-02-1.82955E-01
 -1       126-1.90667E-02-2.23383E-02-4.17099E-01
 -1       127-1.07998E-01-1.19747E-01-1.82580E-01
 -1       128-1.29119E-02-1.81581E-02-8.20674E-01
 -1       129-1.09817E-01-1.21833E-01-1.85452E-01
 -1       130-1.09903E-01-1.16103E-01-4.16310E-01
 -1       131-1.04539E-01-1.08288E-01-6.27481E-01
 -1       132-2.02753E-02-1.88252E-02-6.32771E-01
 -1       133-1.83402E-02-2.01175E-02-6.32285E-01
 -1       134-1.87376E-02-2.27879E-02-4.14509E-01
 -1       135-2.40314E-02-1.88819E-02-4.20131E-01
 -1       136-1.06241E-01-1.09780E-01-6.28717E-01
 -1       137-1.06646E-01-1.09049E-01-6.26649E-01
 -1       138-1.09225E-01-1.14437E-01-4.14818E-01
 -1       139-1.65681E-02-2.22999E-02-6.27830E-01
 -1       140-5.38748E-03-2.15270E-02-8.22393E-01
 -1       141-6.93302E-02-1.49815E-01-1.81843E-01
 -1       142-1.00272E-02-2.85542E-02-1.80646E-01
 -1       143-6.38572E-02-1.47529E-01-4.12272E-01
 -1       144-1.21902E-02-2.37188E-02-6.32077E-01
 -1       145-7.89757E-02-1.12606E-01-8.04311E-01
 -1       146-6.03413E-02-1.42734E-01-6.27248E-01
 -1       147-6.31942E-02-1.47821E-01-4.12054E-01
 -1       148-6.26072E-02-1.47010E-01-4.12546E-01
 -1       149-1.24650E-02-2.64966E-02-4.14219E-01
 -1       150-1.05797E-02-2.78308E-02-4.15759E-01
 -1       151-1.42577E-02-2.67969E-02-4.12124E-01
 -1       152-6.35306E-02-1.46808E-01-4.14013E-01
 -1       153 2.91760E-03-2.15600E-02-8.24276E-01
 -1       154 2.62284E-02-1.32960E-01-8.06764E-01
 -1       155-7.33869E-03-1.63600E-01-1.94325E-01
 -1       156 3.29464E-04-2.97535E-02-4.22369E-01
 -1       157 1.03349E-04-2.75655E-02-6.36379E-01
 -1       158-2.10558E-03-2.69200E-02-6.35018E-01
 -1       159-1.63875E-03-1.50248E-01-6.29926E-01
 -1       160-1.72322E-03-1.52333E-01-6.30473E-01
 -1       161-1.71564E-03-1.57976E-01-4.20192E-01
 -1       162 1.32829E-02-3.03519E-02-1.97059E-01
 -1       163 1.21865E-02-2.81215E-02-4.27231E-01
 -1       164 5.90054E-02-1.46934E-01-4.23803E-01
 -1       165 5.65650E-02-1.38627E-01-6.32462E-01
 -1       166 1.43629E-02-2.39002E-02-6.34786E-01
 -1       167 5.85987E-02-1.39262E-01-6.33874E-01
 -1       168 5.87001E-02-1.45992E-01-4.24491E-01
 -1       169 1.13570E-01-7.46730E-02-8.09664E-01
 -1       170 1.73667E-02-2.00103E-02-6.39668E-01
 -1       171 1.09863E-02-1.85389E-02-8.23822E-01
 -1       172 1.17650E-01-1.14834E-01-1.92039E-01
 -1       173 1.05560E-01-1.04947E-01-6.33912E-01
 -1       174 1.07258E-01-1.06630E-01-6.34459E-01
 -1       175 1.96357E-02-2.22299E-02-4.27768E-01
 -1       176 1.08418E-01-1.05427E-01-6.36460E-01
 -1       177 1.13964E-01-1.09976E-01-4.25975E-01
 -1       178 1.84772E-02-2.41500E-02-4.27744E-01
 -1       179 1.12361E-01-1.10493E-01-4.23511E-01
 -1       180 1.63667E-02-1.17959E-02-8.27856E-01
 -1       181 1.33888E-01-2.36714E-02-8.09786E-01
 -1       182 1.95334E-02-3.84792E-03-8.27989E-01
 -1       183 2.65456E-02-1.07217E-02-4.22721E-01
 -1       184 2.27244E-02-1.09997E-02-6.35976E-01
 -1       185 2.28751E-02-1.23480E-02-6.36231E-01
 -1       186 2.50196E-02-7.83031E-03-6.32562E-01
 -1       187 2.56066E-02-1.18744E-02-4.22719E-01
 -1       188 1.46744E-01-5.91208E-02-4.19568E-01
 -1       189 1.41129E-01-5.76512E-02-6.32314E-01
 -1       190 2.49416E-02-1.46957E-02-4.21759E-01
 -1       191 2.75099E-02-9.13952E-03-4.17735E-01
 -1       192 1.64404E-01 3.03676E-04-1.79595E-01
 -1       193 2.56436E-02-2.33086E-04-6.36112E-01
 -1       194 1.50654E-01-2.85758E-03-6.31784E-01
 -1       195 1.34168E-01 2.80984E-02-8.04076E-01
 -1       196 1.98318E-02-3.74491E-03-8.25199E-01
 -1       197 2.77713E-02-2.47970E-03-4.18736E-01
 -1       198 1.64342E-01 6.16590E-04-1.80272E-01
 -1       199 2.58583E-02-5.58766E-03-6.32854E-01
 -1       200 1.52965E-01-2.87970E-03-6.33151E-01
 -1       201 2.69590E-02 2.31553E-03-4.18862E-01
 -1       202 1.60225E-01-2.19460E-03-4.16532E-01
 -1       203 1.52213E-01-1.50392E-03-6.31341E-01
 -1       204 1.59307E-01-8.63404E-04-4.15996E-01
 -1       205 2.00560E-02 4.30383E-03-8.28032E-01
 -1       206 1.51431E-01 6.27469E-02-1.83925E-01
 -1       207 1.12327E-01 7.43631E-02-8.06552E-01
 -1       208 2.33433E-02 1.06483E-02-6.38114E-01
 -1       209 2.61248E-02 5.31255E-03-6.33790E-01
 -1       210 2.71059E-02 5.82568E-03-4.17210E-01
 -1       211 2.68220E-02 9.29251E-03-4.21274E-01
 -1       212 1.47453E-01 5.87854E-02-4.19773E-01
 -1       213 1.47389E-01 5.96977E-02-4.18521E-01
 -1       214 1.42360E-01 5.78909E-02-6.33716E-01
 -1       215 1.15486E-01 1.16521E-01-1.85843E-01
 -1       216 1.91147E-02 2.20934E-02-4.21677E-01
 -1       217 1.96663E-02 2.05139E-02-1.85409E-01
 -1       218 2.18922E-02 1.63885E-02-6.34895E-01
 -1       219 1.91131E-02 1.84141E-02-6.37956E-01
 -1       220 1.71207E-02 1.96799E-02-6.38260E-01
 -1       221 1.09904E-01 1.15659E-01-4.21550E-01
 -1       222 2.12432E-02 2.04100E-02-4.22011E-01
 -1       223 1.11335E-01 1.15481E-01-4.18179E-01
 -1       224 1.05327E-01 1.11041E-01-6.35326E-01
 -1       225 7.54893E-02 1.12816E-01-8.10152E-01
 -1       226 5.65353E-02 1.39145E-01-6.30332E-01
 -1       227 8.43317E-03 2.42144E-02-6.36108E-01
 -1       228 9.48649E-03 2.41356E-02-6.36153E-01
 -1       229 1.21560E-02 1.72847E-02-8.23401E-01
 -1       230 5.51756E-02 1.40046E-01-6.30860E-01
 -1       231 5.97731E-02 1.46936E-01-4.17828E-01
 -1       232 1.09836E-02 2.65562E-02-4.19806E-01
 -1       233 9.39685E-03 2.74575E-02-4.20175E-01
 -1       234 5.74211E-02 1.41577E-01-6.31391E-01
 -1       235 6.07180E-02 1.46999E-01-4.18800E-01
 -1       236-3.05519E-02 1.33334E-01-8.08064E-01
 -1       237 2.51600E-02 1.33643E-01-8.08990E-01
 -1       238 3.11420E-03 1.64315E-01-1.88823E-01
 -1       239 2.78406E-03 1.63558E-01-1.87409E-01
 -1       240-4.29910E-04 1.50835E-01-6.31140E-01
 -1       241-4.26447E-03 2.07757E-02-8.23925E-01
 -1       242 6.89371E-04 3.11627E-02-1.85764E-01
 -1       243-1.41855E-05 2.64565E-02-6.37183E-01
 -1       244-2.64464E-03 2.63676E-02-6.36958E-01
 -1       245 5.43670E-04 3.02231E-02-4.17406E-01
 -1       246-3.96951E-04 1.59521E-01-4.17511E-01
 -1       247 6.58321E-04 1.60672E-01-4.18023E-01
 -1       248-1.52664E-03 2.99456E-02-4.20372E-01
 -1       249-2.39111E-03 3.08216E-02-4.18883E-01
 -1       250-2.21110E-03 1.53249E-01-6.32191E-01
 -1       251-5.81997E-02 1.51866E-01-1.91713E-01
 -1       252-5.83479E-02 1.51913E-01-1.93447E-01
 -1       253-1.28937E-02 1.74355E-02-8.23999E-01
 -1       254-8.99021E-03 2.57259E-02-6.35570E-01
 -1       255-1.50959E-02 2.41489E-02-6.33196E-01
 -1       256-5.66770E-02 1.43079E-01-6.32300E-01
 -1       257-5.77680E-02 1.47414E-01-4.18353E-01
 -1       258-1.00739E-02 2.86790E-02-4.19907E-01
 -1       259-1.16648E-02 2.78840E-02-4.21840E-01
 -1       260-5.70913E-02 1.47968E-01-4.20328E-01
 -1       261-1.32062E-02 2.75563E-02-4.21948E-01
 -1       262-5.72604E-02 1.41164E-01-6.30071E-01
 -1       263-7.77589E-02 1.16496E-01-8.08161E-01
 -1       264-1.18294E-01 1.14136E-01-1.86154E-01
 -1       265-2.27266E-02 1.89192E-02-4.18709E-01
 -1       266-2.15424E-02 2.13162E-02-4.20618E-01
 -1       267-1.97930E-02 1.80808E-02-6.34465E-01
 -1       268-1.11776E-01 1.05861E-01-6.28526E-01
 -1       269-1.12778E-01 1.04772E-01-6.33436E-01
 -1       270-1.69798E-02 2.27505E-02-6.33415E-01
 -1       271-1.16152E-01 1.08720E-01-4.15449E-01
 -1       272-2.38694E-02 1.70679E-02-4.16269E-01
 -1       273-1.52455E-01 6.40072E-02-1.79849E-01
 -1       274-2.67949E-02 1.02046E-02-1.76604E-01
 -1       275-1.52444E-01 6.39585E-02-1.78858E-01
 -1       276-2.77448E-02 1.01615E-02-4.15743E-01
 -1       277-1.93237E-02 1.10931E-02-8.22659E-01
 -1       278-2.42171E-02 1.42262E-02-6.29848E-01
 -1       279-2.55369E-02 1.06221E-02-6.33797E-01
 -1       280-1.43205E-01 5.97052E-02-6.28854E-01
 -1       281-1.42238E-01 6.00838E-02-6.29210E-01
 -1       282-2.54574E-02 9.54848E-03-6.34006E-01
 -1       283-1.48662E-01 6.09675E-02-4.14023E-01
 -1       284-2.94198E-02 8.27351E-03-4.16145E-01
 -1       285-1.48175E-01 6.18379E-02-4.13797E-01
 -1       286 0.00000E+00 0.00000E+00 0.00000E+00
 -1       287 0.00000E+00 0.00000E+00 0.00000E+00
 -1       288 0.00000E+00 0.00000E+00 0.00000E+00
 -1       289 0.00000E+00 0.00000E+00 0.00000E+00
 -1       290 0.00000E+00 0.00000E+00 0.00000E+00
 -1       291 0.00000E+00 0.00000E+00 0.00000E+00
 -1       292 0.00000E+00 0.00000E+00 0.00000E+00
 -1       293 0.00000E+00 0.00000E+00 0.00000E+00
 -1       294 0.00000E+00 0.00000E+00 0.00000E+00
 -1       295 0.00000E+00 0.00000E+00 0.00000E+00
 -1       296 0.00000E+00 0.00000E+00 0.00000E+00
 -1       297 0.00000E+00 0.00000E+00 0.00000E+00
 -1       298 0.00000E+00 0.00000E+00 0.00000E+00
 -1       299 0.00000E+00 0.00000E+00 0.00000E+00
 -1       300 0.00000E+00 0.00000E+00 0.00000E+00
 -1       301 0.00000E+00 0.00000E+00 0.00000E+00
 -1       302 0.00000E+00 0.00000E+00 0.00000E+00
 -1       303 0.00000E+00 0.00000E+00 0.00000E+00
 -1       304 0.00000E+00 0.00000E+00 0.00000E+00
 -1       305 0.00000E+00 0.00000E+00 0.00000E+00
 -1       306 0.00000E+00 0.00000E+00 0.00000E+00
 -1       307 0.00000E+00 0.00000E+00 0.00000E+00
 -1       308 0.00000E+00 0.00000E+00 0.00000E+00
 -1       309 0.00000E+00 0.00000E+00 0.00000E+00
 -1       310 0.00000E+00 0.00000E+00 0.00000E+00
 -1       311 0.00000E+00 0.00000E+00 0.00000E+00
 -1       312 0.00000E+00 0.00000E+00 0.00000E+00
 -1       313 0.00000E+00 0.00000E+00 0.00000E+00
 -1       314 0.00000E+00 0.00000E+00 0.00000E+00
 -1       315 0.00000E+00 0.00000E+00 0.00000E+00
 -1       316 2.03825E-02 4.01086E-03-8.25128E-01
 -1       317 2.39269E-02 8.25516E-03-6.38450E-01
 -1       318 2.67976E-02 3.01894E-03-6.33553E-01
 -1       319 1.65230E-02 1.22364E-02-8.24869E-01
 -1       320 2.30745E-02 1.39821E-02-6.35123E-01
 -1       321 2.25410E-02 1.99748E-02-4.21567E-01
 -1       322 1.53364E-02 2.24358E-02-6.34032E-01
 -1       323 1.31153E-02 2.35194E-02-6.33476E-01
 -1       324 1.33465E-02 2.57446E-02-4.20211E-01
 -1       325 8.32096E-03 2.64704E-02-1.83912E-01
 -1       326 1.29989E-02-2.75736E-02-4.27505E-01
 -1       327 1.12832E-02-2.46303E-02-6.36993E-01
 -1       328 1.62603E-02-2.27364E-02-6.35783E-01
 -1       329 4.11041E-03 2.07325E-02-8.24166E-01
 -1       330 3.17719E-03 2.75269E-02-6.33075E-01
 -1       331 1.42355E-04 3.00384E-02-4.20299E-01
 -1       332-5.13948E-03 2.77464E-02-6.32206E-01
 -1       333-1.83374E-02 1.93731E-02-6.36617E-01
 -1       334-1.15683E-02 2.48568E-02-6.36355E-01
 -1       335-2.27624E-02 1.62028E-02-6.30263E-01
 -1       336-2.71416E-02 1.24359E-03-6.35867E-01
 -1       337-2.73324E-02 7.02031E-03-6.31124E-01
 -1       338-2.86449E-02-7.87241E-03-1.81659E-01
 -1       339 0.00000E+00 0.00000E+00 0.00000E+00
 -1       340 0.00000E+00 0.00000E+00 0.00000E+00
 -1       341 0.00000E+00 0.00000E+00 0.00000E+00
 -1       342 0.00000E+00 0.00000E+00 0.00000E+00
 -1       343-1.51864E-03-2.91196E-02-1.89561E-01
 -1       344-9.83494E-03-2.87712E-02-4.15577E-01
 -1       345 2.47929E-03-3.07485E-02-4.21956E-01
 -1       346 4.00143E-03-2.87647E-02-6.33648E-01
 -1       347 6.57552E-03-2.79123E-02-6.33828E-01
 -1       348-1.51453E-04-3.26145E-02-1.94646E-01
 -1       349 8.36232E-03-2.97986E-02-4.22317E-01
 -1       350 1.01597E-02-3.18074E-02-1.96364E-01
 -1       351 9.76752E-03-2.88358E-02-4.27451E-01
 -1       352 0.00000E+00 0.00000E+00 0.00000E+00
 -1       353-2.34107E-02-2.06871E-02-1.85067E-01
 -1       354-2.23942E-02-1.93218E-02-4.19754E-01
 -1       355 0.00000E+00 0.00000E+00 0.00000E+00
 -1       356-3.03814E-02-1.16631E-02-1.85773E-01
 -1       357 0.00000E+00 0.00000E+00 0.00000E+00
 -1       358 0.00000E+00 0.00000E+00 0.00000E+00
 -1       359-2.79127E-02-3.39923E-03-1.74646E-01
 -1       360-3.06955E-02 2.75861E-03-4.12522E-01
 -1       361 0.00000E+00 0.00000E+00 0.00000E+00
 -1       362 0.00000E+00 0.00000E+00 0.00000E+00
 -1       363-2.68848E-02 1.12854E-02-1.77415E-01
 -1       364-2.70857E-02 1.30698E-02-4.15257E-01
 -1       365-2.41361E-02 2.30572E-02-1.86399E-01
 -1       366-2.61117E-02 1.41959E-02-4.13491E-01
 -1       367-1.96983E-02 2.29758E-02-4.20372E-01
 -1       368-1.69870E-02 2.16707E-02-1.86850E-01
 -1       369-1.23861E-02 2.93233E-02-1.92809E-01
 -1       370-9.25134E-03 2.88483E-02-4.17925E-01
 -1       371-7.04230E-03 2.72841E-02-6.31714E-01
 -1       372-8.31639E-03 3.12566E-02-1.90707E-01
 -1       373 0.00000E+00 0.00000E+00 0.00000E+00
 -1       374-2.14690E-03 3.10736E-02-1.88674E-01
 -1       375 8.28323E-03 2.83388E-02-4.19315E-01
 -1       376 5.56798E-03 2.68537E-02-6.32731E-01
 -1       377 6.55044E-03 2.37559E-02-1.79662E-01
 -1       378 0.00000E+00 0.00000E+00 0.00000E+00
 -1       379 1.80447E-02 2.32051E-02-4.16374E-01
 -1       380-2.83818E-02-4.30528E-03-6.30088E-01
 -1       381-2.77156E-02-6.55364E-03-6.29913E-01
 -1       382-3.00602E-02-8.17889E-03-4.16906E-01
 -1       383-2.16445E-02-4.67630E-03-8.21091E-01
 -1       384-2.30136E-02-1.71898E-02-6.29432E-01
 -1       385-1.11365E-02-2.63205E-02-1.78839E-01
 -1       386-1.47571E-02-2.34564E-02-6.27838E-01
 -1       387-1.86219E-02-1.25029E-02-8.20231E-01
 -1       388-2.49412E-02-1.17160E-02-6.33165E-01
 -1       389-5.02387E-03-2.77386E-02-6.30184E-01
 -1       390-7.28865E-03-2.70652E-02-6.29480E-01
 -1       391-5.41768E-03-2.23029E-02-8.20137E-01
 -1       392-1.01257E-02-2.50886E-02-6.32944E-01
 -1       393-4.71743E-03-2.96050E-02-4.17483E-01
 -1       394-3.05463E-03-3.02054E-02-4.22850E-01
 -1       395 3.04379E-03-2.18638E-02-8.21702E-01
 -1       396 9.99527E-03-2.52553E-02-6.37367E-01
 -1       397 2.04086E-02 2.16832E-02-1.84470E-01
 -1       398 2.62949E-02 1.20471E-02-4.21739E-01
 -1       399 2.66485E-02 1.36580E-02-4.22256E-01
 -1       400 2.73434E-02 1.10769E-02-1.83952E-01
 -1       401 2.70260E-02 8.49231E-03-1.83167E-01
 -1       402 2.16952E-02-1.97546E-02-4.27430E-01
 -1       403 2.25586E-02-2.10495E-02-1.90096E-01
 -1       404 2.29368E-02-1.80482E-02-4.21610E-01
 -1       405 1.99431E-02-2.14856E-02-1.88612E-01
 -1       406 0.00000E+00 0.00000E+00 0.00000E+00
 -1       407 0.00000E+00 0.00000E+00 0.00000E+00
 -1       408 2.10782E-02-1.26336E-02-1.84161E-01
 -1       409 1.85831E-02-1.81871E-02-6.39632E-01
 -1       410 1.73309E-02-1.23065E-02-8.25492E-01
 -1       411 2.11422E-02-1.67420E-02-6.34615E-01
 -1       412 2.22572E-02-1.48773E-02-6.33908E-01
 -1       413 2.58065E-02-1.13328E-02-1.85506E-01
 -1       414 2.81458E-02-3.65315E-03-4.16730E-01
 -1       415 2.50886E-02-2.38825E-03-6.37145E-01
 -1       416 2.72230E-02 4.62723E-03-4.19558E-01
 -1       417 2.60077E-02-7.43921E-04-1.78018E-01
 -1       418 0.00000E+00 0.00000E+00 0.00000E+00
 -1       419 2.68944E-02-2.45448E-04-1.76731E-01
 -1       420 0.00000E+00 0.00000E+00 0.00000E+00
 -1       421-1.83246E-02-1.23483E-02-8.22584E-01
 -1       422-2.22632E-02 3.65609E-03-8.23428E-01
 -1       423-1.93386E-02 1.10452E-02-8.25279E-01
 -1       424-1.24124E-02-1.77319E-02-8.22846E-01
 -1       425-4.36338E-03 2.07829E-02-8.26998E-01
 -1       426-1.24194E-02 1.70026E-02-8.26417E-01
 -1       427 4.30518E-03 2.05825E-02-8.27472E-01
 -1       428 1.17728E-02 1.74938E-02-8.27089E-01
 -1       429 1.06466E-02-1.81863E-02-8.26376E-01
 -1       430 1.62773E-02 1.20837E-02-8.27362E-01
 -1       431 0.00000E+00 0.00000E+00 0.00000E+00
 -1       432 0.00000E+00 0.00000E+00 0.00000E+00
 -1       433 0.00000E+00 0.00000E+00 0.00000E+00
 -1       434 0.00000E+00 0.00000E+00 0.00000E+00
 -1       435 0.00000E+00 0.00000E+00 0.00000E+00
 -1       436 0.00000E+00 0.00000E+00 0.00000E+00
 -1       437 0.00000E+00 0.00000E+00 0.00000E+00
 -1       438 0.00000E+00 0.00000E+00 0.00000E+00
 -1       439 0.00000E+00 0.00000E+00 0.00000E+00
 -1       440 0.00000E+00 0.00000E+00 0.00000E+00
 -1       441 0.00000E+00 0.00000E+00 0.00000E+00
 -1       442 0.00000E+00 0.00000E+00 0.00000E+00
 -1       443 0.00000E+00 0.00000E+00 0.00000E+00
 -1       444 0.00000E+00 0.00000E+00 0.00000E+00
 -1       445 0.00000E+00 0.00000E+00 0.00000E+00
 -1       446 0.00000E+00 0.00000E+00 0.00000E+00
 -1       447 0.00000E+00 0.00000E+00 0.00000E+00
 -1       448 0.00000E+00 0.00000E+00 0.00000E+00
 -1       449-8.40107E-02-1.68038E-02-8.22066E-01
 -1       450-8.43325E-02 1.50258E-02-8.21679E-01
 -1       451 1.43579E-01-5.82230E-02-5.25943E-01
 -1       452 1.43464E-01-5.83005E-02-5.27036E-01
 -1       453 5.85724E-02 1.44558E-01-5.25183E-01
 -1       454 5.86102E-02-1.43450E-01-5.28565E-01
 -1       455 1.10749E-01-1.08623E-01-5.32376E-01
 -1       456 1.09786E-01-1.09273E-01-5.32062E-01
 -1       457 1.38011E-01 1.61983E-03-7.28548E-01
 -1       458 1.39320E-01-7.80348E-04-7.29340E-01
 -1       459 1.27910E-01 5.27410E-02-7.28660E-01
 -1       460 1.26447E-01 5.51614E-02-7.28531E-01
 -1       461 5.98505E-02 1.44654E-01-5.27015E-01
 -1       462 1.27956E-01-5.12355E-02-7.28181E-01
 -1       463 1.28567E-01-5.42480E-02-7.27963E-01
 -1       464 5.92283E-02-1.43196E-01-5.31090E-01
 -1       465-6.25704E-02-1.44614E-01-5.21418E-01
 -1       466-6.60716E-02-1.49024E-01-2.94746E-01
 -1       467-6.70642E-02-1.50697E-01-2.97801E-01
 -1       468-5.48569E-02-1.29532E-01-7.24598E-01
 -1       469-5.77727E-02-1.28467E-01-7.25750E-01
 -1       470-6.12400E-02-1.45528E-01-5.21573E-01
 -1       471-9.81969E-02-1.00158E-01-7.23816E-01
 -1       472-9.94630E-02-9.74096E-02-7.23974E-01
 -1       473-1.29470E-01-5.45672E-02-7.25713E-01
 -1       474-1.31235E-01-5.21154E-02-7.25848E-01
 -1       475-1.40474E-01 1.30305E-04-7.25356E-01
 -1       476-1.41509E-01-2.54592E-03-7.25584E-01
 -1       477-1.58628E-01-1.39300E-03-5.21577E-01
 -1       478-1.58892E-01-2.46960E-03-5.24523E-01
 -1       479-1.66254E-01-2.02949E-03-2.94381E-01
 -1       480-1.66393E-01-2.23504E-03-2.95600E-01
 -1       481-5.67397E-02 1.45690E-01-5.27008E-01
 -1       482-1.12180E-01-1.18884E-01-3.00279E-01
 -1       483-1.10791E-01-1.18045E-01-2.97651E-01
 -1       484-1.53258E-01-6.02717E-02-2.99688E-01
 -1       485-1.53478E-01-6.04380E-02-3.00972E-01
 -1       486-1.45718E-01-5.81854E-02-5.22464E-01
 -1       487-1.47017E-01-5.72608E-02-5.25512E-01
 -1       488-1.08713E-01-1.12378E-01-5.24510E-01
 -1       489-1.08946E-01-1.11423E-01-5.23234E-01
 -1       490-5.78096E-02 1.51112E-01-3.05142E-01
 -1       491-5.82771E-02 1.51367E-01-3.04131E-01
 -1       492-5.23774E-02 1.29885E-01-7.27578E-01
 -1       493-5.46338E-02 1.28619E-01-7.26571E-01
 -1       494-2.47840E-03 1.40189E-01-7.29908E-01
 -1       495-3.75020E-03 1.40122E-01-7.32822E-01
 -1       496 1.81804E-03 1.63902E-01-3.02589E-01
 -1       497 1.80721E-03 1.63480E-01-3.01570E-01
 -1       498-1.31696E-01 5.49949E-02-7.28037E-01
 -1       499-1.30376E-01 5.29614E-02-7.29185E-01
 -1       500-1.45790E-01 6.07732E-02-5.22109E-01
 -1       501-1.47172E-01 5.93384E-02-5.23688E-01
 -1       502-1.52162E-01 6.34968E-02-2.95302E-01
 -1       503-1.51918E-01 6.36345E-02-2.95401E-01
 -1       504-1.00524E-01 9.68126E-02-7.28150E-01
 -1       505-1.03002E-01 9.48608E-02-7.29465E-01
 -1       506-1.13930E-01 1.08059E-01-5.22739E-01
 -1       507-1.14947E-01 1.07935E-01-5.28778E-01
 -1       508-1.19805E-01 1.12104E-01-2.99321E-01
 -1       509-1.19187E-01 1.11577E-01-3.01921E-01
 -1       510-5.74263E-02 1.45086E-01-5.26179E-01
 -1       511-1.30898E-03 1.56863E-01-5.25452E-01
 -1       512 5.10927E-02 1.29857E-01-7.26690E-01
 -1       513 4.85863E-02 1.30587E-01-7.30092E-01
 -1       514 6.12988E-02 1.51049E-01-2.99539E-01
 -1       515 6.15137E-02 1.51306E-01-2.99515E-01
 -1       516-2.03777E-03-1.55718E-01-5.26774E-01
 -1       517-3.41770E-03-1.61272E-01-3.04228E-01
 -1       518-2.97821E-03-1.39201E-01-7.25915E-01
 -1       519-5.89889E-03-1.38950E-01-7.29211E-01
 -1       520-4.21806E-03-1.62744E-01-3.06799E-01
 -1       521 5.39919E-02-1.27655E-01-7.28982E-01
 -1       522 5.16976E-02-1.28119E-01-7.27631E-01
 -1       523 6.09995E-02-1.51028E-01-3.09963E-01
 -1       524 6.08502E-02-1.50449E-01-3.10686E-01
 -1       525-1.41161E-03-1.55617E-01-5.27085E-01
 -1       526 2.30859E-04 1.57312E-01-5.28255E-01
 -1       527 9.70013E-02 1.00078E-01-7.29037E-01
 -1       528 9.50780E-02 1.02097E-01-7.31931E-01
 -1       529 9.86099E-02-9.60820E-02-7.29666E-01
 -1       530 9.65005E-02-9.73122E-02-7.28579E-01
 -1       531 1.08492E-01 1.12939E-01-5.25954E-01
 -1       532 1.07627E-01 1.13923E-01-5.30451E-01
 -1       533 1.45602E-01 5.73091E-02-5.27194E-01
 -1       534 1.45019E-01 5.80805E-02-5.27331E-01
 -1       535 1.63848E-01 5.84665E-04-2.98022E-01
 -1       536 1.63683E-01 2.06022E-04-2.98433E-01
 -1       537 1.48839E-01-6.23456E-02-3.02650E-01
 -1       538 1.50672E-01-6.33773E-02-3.02844E-01
 -1       539 1.17358E-01-1.14224E-01-3.07628E-01
 -1       540 1.17288E-01-1.14693E-01-3.07414E-01
 -1       541 1.56302E-01-2.38656E-03-5.25555E-01
 -1       542 1.56379E-01-3.20651E-03-5.29830E-01
 -1       543 1.14232E-01 1.17609E-01-3.01370E-01
 -1       544 1.13845E-01 1.17382E-01-3.02830E-01
 -1       545 1.51285E-01 6.18377E-02-3.00258E-01
 -1       546 1.51860E-01 6.23731E-02-3.00441E-01
 -1       547-9.80457E-02-2.43210E-03-1.76744E-01
 -1       548-9.87615E-02-2.04821E-03-1.78131E-01
 -1       549-3.13850E-02-2.81428E-03-2.95931E-01
 -1       550-9.60718E-02-3.06667E-04-4.14022E-01
 -1       551-9.07423E-02-1.63952E-04-6.31280E-01
 -1       552-2.41132E-02-3.60134E-03-7.33205E-01
 -1       553-8.32878E-02-1.70693E-02-8.17551E-01
 -1       554-8.36614E-02 1.40699E-02-8.17384E-01
 -1       555-2.47600E-02 3.29778E-03-7.31476E-01
 -1       556-9.02231E-02-1.02682E-04-6.32236E-01
 -1       557-9.66597E-02-3.04691E-05-4.15184E-01
 -1       558-3.12399E-02 6.34260E-05-2.95199E-01
 -1       559-9.14499E-02 2.42818E-05-6.32775E-01
 -1       560-9.12664E-02-6.58726E-04-6.30497E-01
 -1       561-9.62275E-02 3.34890E-04-4.15151E-01
 -1       562-9.58260E-02-7.42655E-04-4.14176E-01
 -1       563-2.90461E-02 2.49632E-03-5.26832E-01
 -1       564-2.87202E-02-3.70269E-03-5.27101E-01
 -1       565-6.98427E-02-4.56929E-02-8.21357E-01
 -1       566-9.22011E-02-3.54507E-02-1.85955E-01
 -1       567-9.18544E-02-3.51541E-02-1.84698E-01
 -1       568-3.01113E-02-1.21971E-02-3.01789E-01
 -1       569-8.85594E-02-3.61271E-02-4.17414E-01
 -1       570-8.34296E-02-3.46405E-02-6.30958E-01
 -1       571-2.17543E-02-1.19525E-02-7.32969E-01
 -1       572-6.91911E-02-4.51393E-02-8.17320E-01
 -1       573-2.38740E-02-4.98984E-03-7.32657E-01
 -1       574-8.28482E-02-3.39620E-02-6.31064E-01
 -1       575-8.87953E-02-3.56072E-02-4.16822E-01
 -1       576-3.06983E-02-1.08638E-02-3.00048E-01
 -1       577-8.34883E-02-3.36692E-02-6.29948E-01
 -1       578-8.44848E-02-3.50115E-02-6.31569E-01
 -1       579-8.89530E-02-3.53065E-02-4.16537E-01
 -1       580-8.81519E-02-3.62468E-02-4.17559E-01
 -1       581-2.78645E-02-7.91598E-03-5.27215E-01
 -1       582-2.61381E-02-1.30939E-02-5.27073E-01
 -1       583-4.69744E-02-7.02681E-02-8.21055E-01
 -1       584-6.30735E-02-7.03759E-02-1.82607E-01
 -1       585-6.53879E-02-7.23318E-02-1.84869E-01
 -1       586-2.12417E-02-2.14196E-02-2.96704E-01
 -1       587-6.44854E-02-6.86949E-02-4.15728E-01
 -1       588-6.20922E-02-6.41636E-02-6.29361E-01
 -1       589-1.55752E-02-1.92261E-02-7.31911E-01
 -1       590-4.67081E-02-6.99133E-02-8.16663E-01
 -1       591-6.20267E-02-6.39926E-02-6.30733E-01
 -1       592-1.92582E-02-1.54985E-02-7.28753E-01
 -1       593-6.53600E-02-6.84765E-02-4.17652E-01
 -1       594-2.17085E-02-2.13229E-02-3.01905E-01
 -1       595-6.27139E-02-6.41915E-02-6.30322E-01
 -1       596-6.21945E-02-6.47101E-02-6.28241E-01
 -1       597-6.57431E-02-6.84293E-02-4.19488E-01
 -1       598-6.37497E-02-6.83659E-02-4.15376E-01
 -1       599-2.21397E-02-1.84744E-02-5.29152E-01
 -1       600-1.76912E-02-2.17524E-02-5.24800E-01
 -1       601-1.96003E-02-8.17399E-02-8.20677E-01
 -1       602-3.94522E-02-8.72347E-02-1.78141E-01
 -1       603-4.03086E-02-8.86561E-02-1.81607E-01
 -1       604-1.09068E-02-2.88520E-02-2.98286E-01
 -1       605-3.74680E-02-8.77749E-02-4.14171E-01
 -1       606-3.52714E-02-8.25367E-02-6.30342E-01
 -1       607-6.79003E-03-2.35246E-02-7.32338E-01
 -1       608-1.93960E-02-8.06100E-02-8.16264E-01
 -1       609-3.61171E-02-8.26244E-02-6.29154E-01
 -1       610-1.33273E-02-2.11965E-02-7.33175E-01
 -1       611-3.81086E-02-8.69917E-02-4.12688E-01
 -1       612-1.15316E-02-2.78533E-02-2.95658E-01
 -1       613-3.66143E-02-8.32503E-02-6.28401E-01
 -1       614-3.53340E-02-8.30109E-02-6.30534E-01
 -1       615-3.81776E-02-8.66209E-02-4.12442E-01
 -1       616-3.70136E-02-8.77723E-02-4.15009E-01
 -1       617-1.39068E-02-2.48720E-02-5.22932E-01
 -1       618-9.01651E-03-2.71464E-02-5.26180E-01
 -1       619 1.42043E-02-8.14649E-02-8.24128E-01
 -1       620-4.54034E-03-9.56562E-02-1.91246E-01
 -1       621-4.86709E-03-9.81339E-02-1.94212E-01
 -1       622 5.39474E-04-3.18010E-02-3.07622E-01
 -1       623-1.79094E-03-9.40369E-02-4.20663E-01
 -1       624-1.65964E-03-8.96719E-02-6.33252E-01
 -1       625 1.71443E-03-2.43340E-02-7.32670E-01
 -1       626 1.39320E-02-8.04073E-02-8.20172E-01
 -1       627-2.28914E-03-8.90791E-02-6.32842E-01
 -1       628-4.39825E-03-2.44086E-02-7.35521E-01
 -1       629-2.21172E-03-9.43627E-02-4.20485E-01
 -1       630-2.45947E-03-3.07265E-02-3.06325E-01
 -1       631-2.43520E-03-8.94545E-02-6.31681E-01
 -1       632-1.17508E-03-8.96356E-02-6.33402E-01
 -1       633-1.87600E-03-9.43098E-02-4.20487E-01
 -1       634-1.41942E-03-9.44867E-02-4.21382E-01
 -1       635-3.63857E-03-2.84110E-02-5.29408E-01
 -1       636 3.29401E-03-2.89958E-02-5.32328E-01
 -1       637 4.48809E-02-6.94577E-02-8.23915E-01
 -1       638 3.57145E-02-9.07023E-02-1.95411E-01
 -1       639 3.63011E-02-9.10764E-02-1.96559E-01
 -1       640 1.28134E-02-2.97711E-02-3.12534E-01
 -1       641 3.42199E-02-8.75688E-02-4.24979E-01
 -1       642 3.35185E-02-8.26107E-02-6.35140E-01
 -1       643 1.22874E-02-2.22472E-02-7.34909E-01
 -1       644 4.41577E-02-6.82651E-02-8.19499E-01
 -1       645 3.36435E-02-8.20847E-02-6.35842E-01
 -1       646 5.46539E-03-2.36243E-02-7.36343E-01
 -1       647 3.42241E-02-8.79115E-02-4.25541E-01
 -1       648 1.01970E-02-3.11021E-02-3.12015E-01
 -1       649 3.38643E-02-8.28730E-02-6.35990E-01
 -1       650 3.39225E-02-8.28848E-02-6.35192E-01
 -1       651 3.48220E-02-8.78269E-02-4.25466E-01
 -1       652 3.44447E-02-8.70968E-02-4.25666E-01
 -1       653 7.39211E-03-2.81273E-02-5.33108E-01
 -1       654 1.25331E-02-2.56643E-02-5.33367E-01
 -1       655 6.90078E-02-4.57727E-02-8.25399E-01
 -1       656 7.01160E-02-6.84570E-02-1.91558E-01
 -1       657 6.97011E-02-6.84673E-02-1.90949E-01
 -1       658 2.22456E-02-2.09220E-02-3.07975E-01
 -1       659 6.71687E-02-6.51546E-02-4.24442E-01
 -1       660 6.23788E-02-6.19111E-02-6.36844E-01
 -1       661 1.80364E-02-1.64471E-02-7.34767E-01
 -1       662 6.79519E-02-4.52650E-02-8.20959E-01
 -1       663 6.20938E-02-6.18221E-02-6.38511E-01
 -1       664 1.56281E-02-1.83590E-02-7.35902E-01
 -1       665 6.74948E-02-6.60485E-02-4.26436E-01
 -1       666 2.09858E-02-2.31608E-02-3.09900E-01
 -1       667 6.22670E-02-6.23691E-02-6.38133E-01
 -1       668 6.30307E-02-6.21538E-02-6.35882E-01
 -1       669 6.70429E-02-6.62603E-02-4.27240E-01
 -1       670 6.70022E-02-6.43194E-02-4.23488E-01
 -1       671 1.71103E-02-2.25384E-02-5.37584E-01
 -1       672 2.06373E-02-1.78320E-02-5.33970E-01
 -1       673 8.28456E-02-1.51886E-02-8.24774E-01
 -1       674 8.58476E-02-3.88983E-02-1.86140E-01
 -1       675 8.80365E-02-3.97499E-02-1.85865E-01
 -1       676 2.68708E-02-1.21291E-02-3.03460E-01
 -1       677 8.67711E-02-3.48345E-02-4.20997E-01
 -1       678 8.06059E-02-3.41879E-02-6.33885E-01
 -1       679 2.11640E-02-7.85621E-03-7.35485E-01
 -1       680 8.18633E-02-1.49325E-02-8.20401E-01
 -1       681 2.01593E-02-1.17403E-02-7.35479E-01
 -1       682 8.17665E-02-3.40034E-02-6.34149E-01
 -1       683 8.59455E-02-3.44531E-02-4.20721E-01
 -1       684 2.61969E-02-1.31392E-02-3.03210E-01
 -1       685 8.19959E-02-3.45875E-02-6.34093E-01
 -1       686 8.11709E-02-3.40918E-02-6.32786E-01
 -1       687 8.62028E-02-3.50521E-02-4.21053E-01
 -1       688 8.65708E-02-3.43721E-02-4.19958E-01
 -1       689 2.36284E-02-1.34944E-02-5.31531E-01
 -1       690 2.60203E-02-6.33232E-03-5.28991E-01
 -1       691 8.16130E-02 1.81451E-02-8.24198E-01
 -1       692 9.60606E-02-1.00860E-04-1.79929E-01
 -1       693 9.67869E-02-3.15013E-04-1.79197E-01
 -1       694 2.82260E-02 1.77008E-03-2.98397E-01
 -1       695 9.34028E-02-4.96311E-04-4.17172E-01
 -1       696 8.86590E-02-1.39866E-03-6.34270E-01
 -1       697 2.36485E-02 2.37389E-03-7.33822E-01
 -1       698 8.09139E-02 1.79610E-02-8.19828E-01
 -1       699 2.25265E-02-5.06607E-03-7.39028E-01
 -1       700 8.79816E-02-1.60251E-03-6.34171E-01
 -1       701 9.36856E-02-1.24653E-03-4.17210E-01
 -1       702 2.84790E-02 2.50441E-04-2.99889E-01
 -1       703 8.88468E-02-1.90112E-03-6.33938E-01
 -1       704 8.93579E-02-1.20998E-03-6.34377E-01
 -1       705 9.33406E-02-1.62598E-03-4.17045E-01
 -1       706 9.32753E-02-1.94861E-04-4.18541E-01
 -1       707 2.63618E-02-4.12247E-03-5.30436E-01
 -1       708 2.62711E-02 1.74789E-03-5.31943E-01
 -1       709 7.02282E-02 4.72804E-02-8.25451E-01
 -1       710 8.91312E-02 3.68792E-02-1.83789E-01
 -1       711 8.88622E-02 3.69930E-02-1.83860E-01
 -1       712 2.73084E-02 1.11941E-02-3.01742E-01
 -1       713 8.72064E-02 3.49135E-02-4.19482E-01
 -1       714 8.21852E-02 3.36634E-02-6.35741E-01
 -1       715 2.01682E-02 1.23243E-02-7.35666E-01
 -1       716 6.97100E-02 4.64521E-02-8.21243E-01
 -1       717 2.26782E-02 7.15893E-03-7.37114E-01
 -1       718 8.11115E-02 3.36841E-02-6.35470E-01
 -1       719 8.73549E-02 3.48355E-02-4.19226E-01
 -1       720 2.72994E-02 1.05979E-02-3.01761E-01
 -1       721 8.22122E-02 3.39622E-02-6.35275E-01
 -1       722 8.27697E-02 3.43592E-02-6.35425E-01
 -1       723 8.67566E-02 3.47572E-02-4.19366E-01
 -1       724 8.69595E-02 3.52836E-02-4.20758E-01
 -1       725 2.58519E-02 6.80605E-03-5.29238E-01
 -1       726 2.43487E-02 1.29488E-02-5.33095E-01
 -1       727 4.55156E-02 6.91498E-02-8.25227E-01
 -1       728 6.78255E-02 6.84646E-02-1.85615E-01
 -1       729 6.80259E-02 6.87918E-02-1.85872E-01
 -1       730 6.54507E-02 6.82401E-02-4.19217E-01
 -1       731 2.01366E-02 2.26845E-02-3.02226E-01
 -1       732 4.49078E-02 6.81999E-02-8.21067E-01
 -1       733 6.20358E-02 6.38911E-02-6.34457E-01
 -1       734 1.38661E-02 1.85113E-02-7.37235E-01
 -1       735 1.75769E-02 1.55097E-02-7.38808E-01
 -1       736 6.16625E-02 6.37706E-02-6.36449E-01
 -1       737 6.62218E-02 6.81508E-02-4.21062E-01
 -1       738 2.11192E-02 2.21442E-02-3.03134E-01
 -1       739 6.24031E-02 6.46259E-02-6.37147E-01
 -1       740 6.19921E-02 6.45756E-02-6.33505E-01
 -1       741 6.59580E-02 6.75958E-02-4.21979E-01
 -1       742 6.53382E-02 6.87209E-02-4.18466E-01
 -1       743 2.08530E-02 1.87700E-02-5.32845E-01
 -1       744 1.67568E-02 2.25799E-02-5.31571E-01
 -1       745 1.54592E-02 8.20726E-02-8.25325E-01
 -1       746 3.37318E-02 9.00242E-02-1.84165E-01
 -1       747 3.30444E-02 8.89553E-02-1.82539E-01
 -1       748 3.47254E-02 8.76144E-02-4.18979E-01
 -1       749 1.07567E-02 2.68096E-02-2.99840E-01
 -1       750 1.51432E-02 8.11473E-02-8.21189E-01
 -1       751 3.24823E-02 8.25108E-02-6.33917E-01
 -1       752 4.26682E-03 2.27366E-02-7.34716E-01
 -1       753 1.18700E-02 2.05776E-02-7.35648E-01
 -1       754 3.24047E-02 8.27425E-02-6.33532E-01
 -1       755 3.49301E-02 8.73190E-02-4.18461E-01
 -1       756 1.20815E-02 2.74288E-02-3.00299E-01
 -1       757 3.27949E-02 8.27219E-02-6.33124E-01
 -1       758 3.25708E-02 8.36060E-02-6.33042E-01
 -1       759 3.51714E-02 8.69224E-02-4.18859E-01
 -1       760 3.43747E-02 8.73275E-02-4.19251E-01
 -1       761 1.28621E-02 2.45333E-02-5.30450E-01
 -1       762 7.73624E-03 2.67005E-02-5.29193E-01
 -1       763-1.84323E-02 8.12317E-02-8.23921E-01
 -1       764 1.57442E-03 9.76427E-02-1.87054E-01
 -1       765 1.65950E-03 9.82481E-02-1.88708E-01
 -1       766-9.47581E-04 9.49222E-02-4.18685E-01
 -1       767-6.22658E-05 3.21267E-02-3.03977E-01
 -1       768-1.82194E-02 7.97750E-02-8.19501E-01
 -1       769-1.29201E-03 8.93558E-02-6.34029E-01
 -1       770-8.52461E-04 2.42574E-02-7.37436E-01
 -1       771 2.11594E-03 2.33843E-02-7.39159E-01
 -1       772-7.44685E-04 8.91386E-02-6.34957E-01
 -1       773-2.62035E-04 9.51599E-02-4.18432E-01
 -1       774 1.69503E-03 3.17137E-02-3.01225E-01
 -1       775-3.46229E-04 8.96626E-02-6.34073E-01
 -1       776-1.41174E-03 8.99821E-02-6.33326E-01
 -1       777-4.29016E-04 9.51254E-02-4.18508E-01
 -1       778-1.05207E-03 9.49334E-02-4.19203E-01
 -1       779 1.03401E-03 2.82302E-02-5.30352E-01
 -1       780-4.15447E-03 2.78513E-02-5.29915E-01
 -1       781-4.94725E-02 7.01987E-02-8.24236E-01
 -1       782-3.47621E-02 9.16765E-02-1.91079E-01
 -1       783-3.46336E-02 9.10882E-02-1.93459E-01
 -1       784-3.38054E-02 8.83192E-02-4.19733E-01
 -1       785-1.19162E-02 2.91082E-02-3.07651E-01
 -1       786-4.88154E-02 6.96835E-02-8.19923E-01
 -1       787-3.34803E-02 8.32743E-02-6.33154E-01
 -1       788-1.27031E-02 2.09189E-02-7.35941E-01
 -1       789-6.55889E-03 2.35983E-02-7.32418E-01
 -1       790-3.34040E-02 8.25059E-02-6.32920E-01
 -1       791-3.38295E-02 8.82840E-02-4.18991E-01
 -1       792-1.04811E-02 2.98746E-02-3.05606E-01
 -1       793-3.33652E-02 8.33101E-02-6.31745E-01
 -1       794-3.39412E-02 8.40104E-02-6.34054E-01
 -1       795-3.34686E-02 8.77902E-02-4.18589E-01
 -1       796-3.40851E-02 8.80534E-02-4.20957E-01
 -1       797-8.17060E-03 2.75529E-02-5.28073E-01
 -1       798-1.31762E-02 2.52903E-02-5.32345E-01
 -1       799-7.13379E-02 4.73970E-02-8.23060E-01
 -1       800-7.05984E-02 6.84893E-02-1.85943E-01
 -1       801-6.89175E-02 6.73977E-02-1.87847E-01
 -1       802-6.95780E-02 6.43102E-02-4.16739E-01
 -1       803-2.46065E-02 2.15704E-02-3.00536E-01
 -1       804-7.03999E-02 4.69864E-02-8.18816E-01
 -1       805-6.57452E-02 6.17409E-02-6.31755E-01
 -1       806-2.09345E-02 1.39297E-02-7.33345E-01
 -1       807-1.59094E-02 1.79924E-02-7.36653E-01
 -1       808-6.53194E-02 6.19522E-02-6.34388E-01
 -1       809-6.99248E-02 6.51124E-02-4.19348E-01
 -1       810-2.24294E-02 2.23064E-02-3.01767E-01
 -1       811-6.59278E-02 6.25597E-02-6.35521E-01
 -1       812-6.62852E-02 6.17937E-02-6.30219E-01
 -1       813-6.95610E-02 6.51368E-02-4.20429E-01
 -1       814-6.95123E-02 6.36794E-02-4.15930E-01
 -1       815-1.84235E-02 2.19978E-02-5.30955E-01
 -1       816-2.21277E-02 1.79677E-02-5.27629E-01
 -1       817-9.06899E-02 3.77549E-02-1.79316E-01
 -1       818-9.04835E-02 3.73990E-02-1.78767E-01
 -1       819-2.76543E-02 1.05759E-02-2.96342E-01
 -1       820-8.84696E-02 3.63917E-02-4.14546E-01
 -1       821-8.31478E-02 3.44319E-02-6.31610E-01
 -1       822-2.35710E-02 6.65525E-03-7.35431E-01
 -1       823-2.25066E-02 9.65955E-03-7.34965E-01
 -1       824-8.34525E-02 3.50401E-02-6.31212E-01
 -1       825-8.79948E-02 3.72466E-02-4.13605E-01
 -1       826-2.73542E-02 1.30616E-02-2.96546E-01
 -1       827-8.46701E-02 3.56170E-02-6.31226E-01
 -1       828-8.39081E-02 3.43148E-02-6.31069E-01
 -1       829-8.73805E-02 3.72480E-02-4.14089E-01
 -1       830-8.84818E-02 3.59566E-02-4.14784E-01
 -1       831-2.55682E-02 1.29084E-02-5.25139E-01
 -1       832-2.72878E-02 8.43375E-03-5.26636E-01
 -1       833 0.00000E+00 0.00000E+00 0.00000E+00
 -1       834 0.00000E+00 0.00000E+00 0.00000E+00
 -1       835 0.00000E+00 0.00000E+00 0.00000E+00
 -1       836 0.00000E+00 0.00000E+00 0.00000E+00
 -1       837 0.00000E+00 0.00000E+00 0.00000E+00
 -1       838 0.00000E+00 0.00000E+00 0.00000E+00
 -1       839 0.00000E+00 0.00000E+00 0.00000E+00
 -1       840 0.00000E+00 0.00000E+00 0.00000E+00
 -1       841 0.00000E+00 0.00000E+00 0.00000E+00
 -1       842 0.00000E+00 0.00000E+00 0.00000E+00
 -1       843 0.00000E+00 0.00000E+00 0.00000E+00
 -1       844 0.00000E+00 0.00000E+00 0.00000E+00
 -1       845 0.00000E+00 0.00000E+00 0.00000E+00
 -1       846 0.00000E+00 0.00000E+00 0.00000E+00
 -1       847 0.00000E+00 0.00000E+00 0.00000E+00
 -1       848 0.00000E+00 0.00000E+00 0.00000E+00
 -1       849 0.00000E+00 0.00000E+00 0.00000E+00
 -1       850 0.00000E+00 0.00000E+00 0.00000E+00
 -1       851 0.00000E+00 0.00000E+00 0.00000E+00
 -1       852 0.00000E+00 0.00000E+00 0.00000E+00
 -1       853 0.00000E+00 0.00000E+00 0.00000E+00
 -1       854 0.00000E+00 0.00000E+00 0.00000E+00
 -1       855 0.00000E+00 0.00000E+00 0.00000E+00
 -1       856 0.00000E+00 0.00000E+00 0.00000E+00
 -1       857 0.00000E+00 0.00000E+00 0.00000E+00
 -1       858 0.00000E+00 0.00000E+00 0.00000E+00
 -1       859 0.00000E+00 0.00000E+00 0.00000E+00
 -1       860 0.00000E+00 0.00000E+00 0.00000E+00
 -1       861 0.00000E+00 0.00000E+00 0.00000E+00
 -1       862 0.00000E+00 0.00000E+00 0.00000E+00
 -1       863 0.00000E+00 0.00000E+00 0.00000E+00
 -1       864 0.00000E+00 0.00000E+00 0.00000E+00
 -1       865 0.00000E+00 0.00000E+00 0.00000E+00
 -1       866 0.00000E+00 0.00000E+00 0.00000E+00
 -1       867 0.00000E+00 0.00000E+00 0.00000E+00
 -1       868 0.00000E+00 0.00000E+00 0.00000E+00
 -1       869 0.00000E+00 0.00000E+00 0.00000E+00
 -1       870 0.00000E+00 0.00000E+00 0.00000E+00
 -1       871 0.00000E+00 0.00000E+00 0.00000E+00
 -1       872 0.00000E+00 0.00000E+00 0.00000E+00
 -1       873 0.00000E+00 0.00000E+00 0.00000E+00
 -1       874 0.00000E+00 0.00000E+00 0.00000E+00
 -1       875 0.00000E+00 0.00000E+00 0.00000E+00
 -1       876 0.00000E+00 0.00000E+00 0.00000E+00
 -1       877 0.00000E+00 0.00000E+00 0.00000E+00
 -1       878 0.00000E+00 0.00000E+00 0.00000E+00
 -1       879 0.00000E+00 0.00000E+00 0.00000E+00
 -1       880 0.00000E+00 0.00000E+00 0.00000E+00
 -1       881 0.00000E+00 0.00000E+00 0.00000E+00
 -1       882 0.00000E+00 0.00000E+00 0.00000E+00
 -1       883 0.00000E+00 0.00000E+00 0.00000E+00
 -1       884 0.00000E+00 0.00000E+00 0.00000E+00
 -1       885 0.00000E+00 0.00000E+00 0.00000E+00
 -1       886 0.00000E+00 0.00000E+00 0.00000E+00
 -1       887 0.00000E+00 0.00000E+00 0.00000E+00
 -1       888 0.00000E+00 0.00000E+00 0.00000E+00
 -1       889 0.00000E+00 0.00000E+00 0.00000E+00
 -1       890 0.00000E+00 0.00000E+00 0.00000E+00
 -1       891 0.00000E+00 0.00000E+00 0.00000E+00
 -1       892 0.00000E+00 0.00000E+00 0.00000E+00
 -1       893 0.00000E+00 0.00000E+00 0.00000E+00
 -1       894 0.00000E+00 0.00000E+00 0.00000E+00
 -1       895 0.00000E+00 0.00000E+00 0.00000E+00
 -1       896 0.00000E+00 0.00000E+00 0.00000E+00
 -1       897 5.84550E-02 1.46418E-01-4.71405E-01
 -1       898 1.13024E-01-1.09240E-01-4.78744E-01
 -1       899 1.44233E-01-7.38744E-05-6.82131E-01
 -1       900 1.32092E-01 1.61777E-03-7.73556E-01
 -1       901 1.32356E-01 5.67170E-02-6.82768E-01
 -1       902 5.93265E-02 1.42259E-01-5.79842E-01
 -1       903 5.99948E-02-1.44628E-01-4.78178E-01
 -1       904-6.52837E-02-1.49410E-01-3.54875E-01
 -1       905-6.15568E-02-1.46921E-01-4.66932E-01
 -1       906-1.01969E-01-1.03500E-01-6.75744E-01
 -1       907-9.50316E-02-9.22169E-02-7.68396E-01
 -1       908-1.24153E-01-4.95760E-02-7.69944E-01
 -1       909-1.46884E-01-9.24873E-04-6.77266E-01
 -1       910-1.56595E-01-1.73639E-04-5.75698E-01
 -1       911-1.64711E-01-1.41133E-03-3.53666E-01
 -1       912-1.66783E-01-2.13404E-03-2.36080E-01
 -1       913-5.60307E-02 1.44603E-01-5.79921E-01
 -1       914-1.53489E-01-6.00167E-02-2.41768E-01
 -1       915-1.48278E-01-5.77615E-02-4.71623E-01
 -1       916-1.45443E-01-5.67551E-02-5.78151E-01
 -1       917-1.08096E-01-1.09726E-01-5.75523E-01
 -1       918-5.56699E-02 1.34030E-01-6.79523E-01
 -1       919-2.16368E-03 1.33498E-01-7.73052E-01
 -1       920 2.16030E-03 1.63462E-01-2.44101E-01
 -1       921-1.35014E-01 5.69168E-02-6.76868E-01
 -1       922-1.51257E-01 6.31245E-02-3.54244E-01
 -1       923-1.52305E-01 6.36163E-02-2.36743E-01
 -1       924-9.67581E-02 9.18847E-02-7.71454E-01
 -1       925-1.07781E-01 9.95903E-02-6.82357E-01
 -1       926-1.18797E-01 1.10860E-01-3.57394E-01
 -1       927-1.18245E-01 1.12048E-01-2.44401E-01
 -1       928-5.78451E-02 1.42395E-01-5.78583E-01
 -1       929-5.83294E-02 1.46512E-01-4.71978E-01
 -1       930-1.41386E-03 1.58566E-01-4.70998E-01
 -1       931-2.21728E-03-1.45361E-01-6.78485E-01
 -1       932-4.40086E-03-1.33653E-01-7.72929E-01
 -1       933 1.08995E-01 1.15431E-01-4.75513E-01
 -1       934 1.49167E-01-6.09957E-02-3.60463E-01
 -1       935 1.17706E-01-1.14572E-01-2.49493E-01
 -1       936 1.58232E-01-1.10612E-03-4.70237E-01
 -1       937 1.13003E-01 1.16836E-01-3.59550E-01
 -1       938 1.15194E-01 1.16834E-01-2.43523E-01
 -1       939 1.51511E-01 6.24157E-02-2.41463E-01
 -1       940-3.07595E-02-1.21320E-03-3.56789E-01
 -1       941-2.33881E-02-3.96562E-03-7.78705E-01
 -1       942-2.52544E-02-3.99756E-04-6.83670E-01
 -1       943-3.12224E-02-8.60786E-05-2.36067E-01
 -1       944-2.80864E-02 2.99518E-03-5.80827E-01
 -1       945-3.01899E-02 2.96827E-03-4.72016E-01
 -1       946-2.99135E-02-2.99470E-03-4.71588E-01
 -1       947-2.81326E-02-3.11379E-03-5.80384E-01
 -1       948-3.05819E-02-1.08074E-02-3.61798E-01
 -1       949-2.08889E-02-1.09620E-02-7.79406E-01
 -1       950-2.44146E-02-9.52173E-03-6.83888E-01
 -1       951-3.00463E-02-1.13125E-02-2.41920E-01
 -1       952-2.89427E-02-9.07810E-03-4.73273E-01
 -1       953-2.71472E-02-1.36616E-02-4.73150E-01
 -1       954-2.49015E-02-1.32529E-02-5.80643E-01
 -1       955-2.09227E-02-2.14342E-02-3.57426E-01
 -1       956-1.54025E-02-1.80495E-02-7.77534E-01
 -1       957-1.93163E-02-1.72116E-02-6.81540E-01
 -1       958-2.21768E-02-2.15577E-02-2.43029E-01
 -1       959-2.24471E-02-1.97613E-02-4.75046E-01
 -1       960-1.78503E-02-2.24986E-02-4.70788E-01
 -1       961-1.74854E-02-2.10561E-02-5.77862E-01
 -1       962-1.03135E-02-2.83291E-02-2.38773E-01
 -1       963-1.01558E-02-2.85253E-02-3.57145E-01
 -1       964-6.79344E-03-2.28561E-02-7.79390E-01
 -1       965-1.13022E-02-2.31126E-02-6.83639E-01
 -1       966-1.11074E-02-2.66931E-02-2.36057E-01
 -1       967-1.38529E-02-2.41075E-02-5.76882E-01
 -1       968-1.43193E-02-2.53885E-02-4.68556E-01
 -1       969-8.99190E-03-2.79827E-02-4.71553E-01
 -1       970-8.02745E-03-2.69409E-02-5.79672E-01
 -1       971-1.37023E-05-3.07809E-02-3.65380E-01
 -1       972 3.82797E-03-2.31477E-02-7.80499E-01
 -1       973-2.51476E-03-2.54221E-02-6.86244E-01
 -1       974-4.06729E-04-3.04100E-02-2.46772E-01
 -1       975-4.41159E-03-2.77532E-02-5.81888E-01
 -1       976-3.85335E-03-2.92582E-02-4.75418E-01
 -1       977 2.65661E-03-2.96142E-02-4.78078E-01
 -1       978 3.08828E-03-2.83348E-02-5.84486E-01
 -1       979 1.24091E-02-3.01699E-02-2.54765E-01
 -1       980 1.03718E-02-2.94849E-02-3.70117E-01
 -1       981 1.15461E-02-2.09321E-02-7.83054E-01
 -1       982 9.27479E-03-2.47086E-02-6.88930E-01
 -1       983 1.02157E-02-3.00236E-02-2.53774E-01
 -1       984 7.55554E-03-2.68375E-02-5.85274E-01
 -1       985 7.45399E-03-2.91328E-02-4.79808E-01
 -1       986 1.20358E-02-2.69788E-02-4.80345E-01
 -1       987 1.21482E-02-2.49668E-02-5.85799E-01
 -1       988 2.16042E-02-2.19224E-02-2.48389E-01
 -1       989 2.17095E-02-2.05376E-02-3.68773E-01
 -1       990 1.69605E-02-1.55941E-02-7.80961E-01
 -1       991 1.72404E-02-1.85606E-02-6.88936E-01
 -1       992 2.21051E-02-2.31483E-02-2.50151E-01
 -1       993 1.63473E-02-2.16314E-02-5.89566E-01
 -1       994 1.86709E-02-2.30001E-02-4.83375E-01
 -1       995 2.13717E-02-1.85125E-02-4.79810E-01
 -1       996 1.97891E-02-1.74300E-02-5.86520E-01
 -1       997 2.71686E-02-1.05903E-02-3.63844E-01
 -1       998 2.10322E-02-6.57442E-03-7.79710E-01
 -1       999 2.15793E-02-1.27635E-02-6.86876E-01
 -1      1000 2.48397E-02-1.22073E-02-2.44401E-01
 -1      1001 2.29279E-02-1.32012E-02-5.85148E-01
 -1      1002 2.48344E-02-1.32483E-02-4.77892E-01
 -1      1003 2.70169E-02-7.36988E-03-4.75914E-01
 -1      1004 2.46256E-02-7.48133E-03-5.81544E-01
 -1      1005 2.76513E-02 4.16995E-04-3.58894E-01
 -1      1006 2.24500E-02 2.54005E-03-7.81226E-01
 -1      1007 2.38703E-02-1.74188E-03-6.88926E-01
 -1      1008 2.79950E-02-7.16075E-04-2.39355E-01
 -1      1009 2.58996E-02-3.96953E-03-5.82761E-01
 -1      1010 2.66443E-02-3.91238E-03-4.74014E-01
 -1      1011 2.71141E-02 2.02519E-03-4.75701E-01
 -1      1012 2.60297E-02 1.45638E-03-5.83799E-01
 -1      1013 2.69203E-02 1.24536E-02-2.41058E-01
 -1      1014 2.73077E-02 1.08065E-02-3.62383E-01
 -1      1015 1.83673E-02 1.22945E-02-7.82689E-01
 -1      1016 2.36075E-02 7.72655E-03-6.90475E-01
 -1      1017 2.74939E-02 1.12840E-02-2.41184E-01
 -1      1018 2.48090E-02 7.60941E-03-5.82733E-01
 -1      1019 2.63965E-02 7.48801E-03-4.74147E-01
 -1      1020 2.49108E-02 1.37976E-02-4.78327E-01
 -1      1021 2.32705E-02 1.33046E-02-5.86157E-01
 -1      1022 1.99422E-02 2.10829E-02-2.43725E-01
 -1      1023 2.03485E-02 2.21466E-02-3.62908E-01
 -1      1024 1.30937E-02 1.84884E-02-7.79830E-01
 -1      1025 1.80469E-02 1.74077E-02-6.89127E-01
 -1      1026 2.26415E-02 2.02213E-02-2.44009E-01
 -1      1027 2.07872E-02 1.76866E-02-5.85559E-01
 -1      1028 2.18536E-02 1.85070E-02-4.78005E-01
 -1      1029 1.72780E-02 2.32906E-02-4.76254E-01
 -1      1030 1.63587E-02 2.17649E-02-5.83961E-01
 -1      1031 1.02636E-02 2.72533E-02-3.60774E-01
 -1      1032 6.49425E-03 2.19694E-02-7.81604E-01
 -1      1033 9.81794E-03 2.27859E-02-6.87898E-01
 -1      1034 1.11071E-02 2.76611E-02-2.41409E-01
 -1      1035 1.22610E-02 2.39609E-02-5.83527E-01
 -1      1036 1.29338E-02 2.52689E-02-4.75933E-01
 -1      1037 7.43852E-03 2.75844E-02-4.74799E-01
 -1      1038 6.81880E-03 2.63290E-02-5.82174E-01
 -1      1039-2.89370E-03 3.14424E-02-3.64699E-01
 -1      1040-3.49337E-03 2.30474E-02-7.82305E-01
 -1      1041 2.37402E-04 2.55478E-02-6.88813E-01
 -1      1042-6.54507E-05 3.16425E-02-2.43974E-01
 -1      1043 1.88999E-03 2.74308E-02-5.83650E-01
 -1      1044 1.69463E-03 2.89959E-02-4.75129E-01
 -1      1045-3.80037E-03 2.89688E-02-4.75603E-01
 -1      1046-4.00165E-03 2.74917E-02-5.83039E-01
 -1      1047-1.00149E-02 3.05769E-02-2.50071E-01
 -1      1048-1.09336E-02 2.90984E-02-3.64681E-01
 -1      1049-1.34207E-02 1.98813E-02-7.82387E-01
 -1      1050-8.00169E-03 2.45395E-02-6.85647E-01
 -1      1051-1.07181E-02 3.12537E-02-2.48200E-01
 -1      1052-8.48579E-03 2.66715E-02-5.80596E-01
 -1      1053-8.23826E-03 2.81960E-02-4.73487E-01
 -1      1054-1.30083E-02 2.64331E-02-4.77377E-01
 -1      1055-1.36905E-02 2.46520E-02-5.84122E-01
 -1      1056-2.38548E-02 2.19163E-02-2.42512E-01
 -1      1057-2.28413E-02 2.11644E-02-3.59861E-01
 -1      1058-2.05404E-02 1.32507E-02-7.80722E-01
 -1      1059-1.79022E-02 1.83369E-02-6.91016E-01
 -1      1060-2.25249E-02 2.11758E-02-2.44368E-01
 -1      1061-1.78990E-02 2.16443E-02-5.83559E-01
 -1      1062-1.99644E-02 2.19872E-02-4.76380E-01
 -1      1063-2.29888E-02 1.75505E-02-4.72814E-01
 -1      1064-2.21890E-02 1.69555E-02-5.80211E-01
 -1      1065-2.78075E-02 1.11318E-02-3.56362E-01
 -1      1066-2.34108E-02 5.63284E-03-7.79374E-01
 -1      1067-2.43036E-02 1.01553E-02-6.83579E-01
 -1      1068-2.82527E-02 1.08793E-02-2.37340E-01
 -1      1069-2.47185E-02 1.31529E-02-5.79359E-01
 -1      1070-2.58574E-02 1.38756E-02-4.70100E-01
 -1      1071-2.83065E-02 8.31949E-03-4.71836E-01
 -1      1072-2.71401E-02 7.84904E-03-5.79901E-01
 -1      1073 0.00000E+00 0.00000E+00 0.00000E+00
 -1      1074 0.00000E+00 0.00000E+00 0.00000E+00
 -1      1075 0.00000E+00 0.00000E+00 0.00000E+00
 -1      1076 0.00000E+00 0.00000E+00 0.00000E+00
 -1      1077 0.00000E+00 0.00000E+00 0.00000E+00
 -1      1078 0.00000E+00 0.00000E+00 0.00000E+00
 -1      1079 0.00000E+00 0.00000E+00 0.00000E+00
 -1      1080 0.00000E+00 0.00000E+00 0.00000E+00
 -1      1081 0.00000E+00 0.00000E+00 0.00000E+00
 -1      1082 0.00000E+00 0.00000E+00 0.00000E+00
 -1      1083 0.00000E+00 0.00000E+00 0.00000E+00
 -1      1084 0.00000E+00 0.00000E+00 0.00000E+00
 -1      1085 0.00000E+00 0.00000E+00 0.00000E+00
 -1      1086 0.00000E+00 0.00000E+00 0.00000E+00
 -1      1087 0.00000E+00 0.00000E+00 0.00000E+00
 -1      1088 0.00000E+00 0.00000E+00 0.00000E+00
 -1      1089 0.00000E+00 0.00000E+00 0.00000E+00
 -1      1090 0.00000E+00 0.00000E+00 0.00000E+00
 -1      1091 0.00000E+00 0.00000E+00 0.00000E+00
 -1      1092 0.00000E+00 0.00000E+00 0.00000E+00
 -1      1093 0.00000E+00 0.00000E+00 0.00000E+00
 -1      1094 0.00000E+00 0.00000E+00 0.00000E+00
 -1      1095 0.00000E+00 0.00000E+00 0.00000E+00
 -1      1096 0.00000E+00 0.00000E+00 0.00000E+00
 -1      1097 0.00000E+00 0.00000E+00 0.00000E+00
 -1      1098 0.00000E+00 0.00000E+00 0.00000E+00
 -1      1099 0.00000E+00 0.00000E+00 0.00000E+00
 -1      1100 0.00000E+00 0.00000E+00 0.00000E+00
 -1      1101 0.00000E+00 0.00000E+00 0.00000E+00
 -1      1102 0.00000E+00 0.00000E+00 0.00000E+00
 -1      1103 0.00000E+00 0.00000E+00 0.00000E+00
 -1      1104 0.00000E+00 0.00000E+00 0.00000E+00
 -1      1105 0.00000E+00 0.00000E+00 0.00000E+00
 -1      1106 0.00000E+00 0.00000E+00 0.00000E+00
 -1      1107 0.00000E+00 0.00000E+00 0.00000E+00
 -1      1108 0.00000E+00 0.00000E+00 0.00000E+00
 -1      1109 0.00000E+00 0.00000E+00 0.00000E+00
 -1      1110 0.00000E+00 0.00000E+00 0.00000E+00
 -1      1111 0.00000E+00 0.00000E+00 0.00000E+00
 -1      1112 0.00000E+00 0.00000E+00 0.00000E+00
 -1      1113 0.00000E+00 0.00000E+00 0.00000E+00
 -1      1114 0.00000E+00 0.00000E+00 0.00000E+00
 -1      1115 0.00000E+00 0.00000E+00 0.00000E+00
 -1      1116 0.00000E+00 0.00000E+00 0.00000E+00
 -1      1117 0.00000E+00 0.00000E+00 0.00000E+00
 -1      1118 0.00000E+00 0.00000E+00 0.00000E+00
 -1      1119 0.00000E+00 0.00000E+00 0.00000E+00
 -1      1120 0.00000E+00 0.00000E+00 0.00000E+00
 -1      1121 0.00000E+00 0.00000E+00 0.00000E+00
 -1      1122 0.00000E+00 0.00000E+00 0.00000E+00
 -1      1123 0.00000E+00 0.00000E+00 0.00000E+00
 -1      1124 0.00000E+00 0.00000E+00 0.00000E+00
 -1      1125 0.00000E+00 0.00000E+00 0.00000E+00
 -1      1126 0.00000E+00 0.00000E+00 0.00000E+00
 -1      1127 0.00000E+00 0.00000E+00 0.00000E+00
 -1      1128 0.00000E+00 0.00000E+00 0.00000E+00
 -1      1129 0.00000E+00 0.00000E+00 0.00000E+00
 -1      1130 0.00000E+00 0.00000E+00 0.00000E+00
 -1      1131 0.00000E+00 0.00000E+00 0.00000E+00
 -1      1132 0.00000E+00 0.00000E+00 0.00000E+00
 -1      1133 0.00000E+00 0.00000E+00 0.00000E+00
 -1      1134 1.45068E-01-5.79168E-02-4.73094E-01
 -1      1135 1.42556E-01-5.75855E-02-5.79586E-01
 -1      1136 1.40507E-01-5.90824E-02-5.79752E-01
 -1      1137 1.44839E-01-5.97326E-02-4.73434E-01
 -1      1138 5.69137E-02 1.43510E-01-5.78798E-01
 -1      1139 5.77065E-02-1.42422E-01-5.81253E-01
 -1      1140 5.81714E-02-1.45274E-01-4.76310E-01
 -1      1141 1.09633E-01-1.06230E-01-5.84613E-01
 -1      1142 1.07785E-01-1.08244E-01-5.83685E-01
 -1      1143 1.11120E-01-1.10721E-01-4.77548E-01
 -1      1144 1.31415E-01 3.48097E-03-7.75336E-01
 -1      1145 1.45390E-01-1.79995E-03-6.82957E-01
 -1      1146 1.21402E-01 5.02492E-02-7.72611E-01
 -1      1147 1.34736E-01 5.54273E-02-6.83249E-01
 -1      1148 1.20570E-01 5.21416E-02-7.73799E-01
 -1      1149 6.08563E-02 1.46120E-01-4.72705E-01
 -1      1150 1.23470E-01-5.10321E-02-7.73602E-01
 -1      1151 1.33374E-01-5.48006E-02-6.81886E-01
 -1      1152 1.22828E-01-4.89122E-02-7.74354E-01
 -1      1153 1.32930E-01-5.56470E-02-6.79662E-01
 -1      1154 5.94442E-02-1.40621E-01-5.83034E-01
 -1      1155-6.24103E-02-1.42511E-01-5.75112E-01
 -1      1156-6.35776E-02-1.45980E-01-4.66909E-01
 -1      1157-6.75481E-02-1.48776E-01-2.36040E-01
 -1      1158-6.45574E-02-1.48567E-01-3.53298E-01
 -1      1159-6.83075E-02-1.50216E-01-2.39537E-01
 -1      1160-5.41160E-02-1.21865E-01-7.70520E-01
 -1      1161-5.78198E-02-1.35747E-01-6.77409E-01
 -1      1162-5.17574E-02-1.22362E-01-7.70007E-01
 -1      1163-5.88486E-02-1.33611E-01-6.77709E-01
 -1      1164-6.01635E-02-1.44107E-01-5.74899E-01
 -1      1165-9.39947E-02-9.46724E-02-7.68877E-01
 -1      1166-1.02805E-01-1.02199E-01-6.76436E-01
 -1      1167-1.34124E-01-5.66954E-02-6.79146E-01
 -1      1168-1.23476E-01-5.27934E-02-7.70706E-01
 -1      1169-1.35492E-01-5.56307E-02-6.77862E-01
 -1      1170-1.33935E-01 6.31708E-04-7.70090E-01
 -1      1171-1.46751E-01 7.78824E-04-6.79157E-01
 -1      1172-1.35112E-01-8.06451E-04-7.70200E-01
 -1      1173-1.60298E-01-3.93887E-04-4.67219E-01
 -1      1174-1.60942E-01-2.57699E-03-4.69487E-01
 -1      1175-1.56586E-01-2.68118E-03-5.77901E-01
 -1      1176-1.66189E-01-2.27964E-03-2.35541E-01
 -1      1177-1.65095E-01-2.08549E-03-3.54770E-01
 -1      1178-5.64126E-02 1.47476E-01-4.73331E-01
 -1      1179-1.11307E-01-1.20491E-01-2.42686E-01
 -1      1180-1.11093E-01-1.17820E-01-3.58028E-01
 -1      1181-1.11453E-01-1.17081E-01-3.56206E-01
 -1      1182-1.09238E-01-1.18590E-01-2.39272E-01
 -1      1183-1.51405E-01-6.02838E-02-3.57881E-01
 -1      1184-1.51610E-01-5.98055E-02-3.58625E-01
 -1      1185-1.53963E-01-6.01473E-02-2.43162E-01
 -1      1186-1.47236E-01-5.94956E-02-4.68434E-01
 -1      1187-1.42996E-01-5.86460E-02-5.75470E-01
 -1      1188-1.09902E-01-1.12696E-01-4.68792E-01
 -1      1189-1.09120E-01-1.14443E-01-4.70654E-01
 -1      1190-1.06575E-01-1.11295E-01-5.76973E-01
 -1      1191-5.73383E-02 1.50239E-01-3.62328E-01
 -1      1192-5.81627E-02 1.51703E-01-2.49312E-01
 -1      1193-5.83395E-02 1.51949E-01-2.47860E-01
 -1      1194-5.73834E-02 1.50135E-01-3.60406E-01
 -1      1195-5.05182E-02 1.23186E-01-7.73169E-01
 -1      1196-5.46493E-02 1.36148E-01-6.80844E-01
 -1      1197-5.27209E-02 1.22761E-01-7.72570E-01
 -1      1198-2.04988E-03 1.44750E-01-6.80039E-01
 -1      1199 1.56752E-03 1.62363E-01-3.60642E-01
 -1      1200-3.32977E-03 1.45535E-01-6.81953E-01
 -1      1201-4.54958E-03 1.33437E-01-7.75175E-01
 -1      1202 2.50844E-03 1.64222E-01-2.45494E-01
 -1      1203 1.32634E-03 1.62142E-01-3.58537E-01
 -1      1204-1.25301E-01 5.26048E-02-7.71518E-01
 -1      1205-1.34945E-01 5.81736E-02-6.79467E-01
 -1      1206-1.24688E-01 4.99683E-02-7.71706E-01
 -1      1207-1.43365E-01 6.07751E-02-5.75927E-01
 -1      1208-1.47223E-01 6.19649E-02-4.67189E-01
 -1      1209-1.48560E-01 5.98071E-02-4.68691E-01
 -1      1210-1.45609E-01 5.84587E-02-5.77164E-01
 -1      1211-1.52521E-01 6.39289E-02-2.37555E-01
 -1      1212-1.50817E-01 6.26155E-02-3.54102E-01
 -1      1213-1.05263E-01 9.98168E-02-6.80946E-01
 -1      1214-9.73445E-02 8.95307E-02-7.74873E-01
 -1      1215-1.12327E-01 1.07317E-01-5.76392E-01
 -1      1216-1.14947E-01 1.09018E-01-4.68911E-01
 -1      1217-1.17050E-01 1.08538E-01-4.74044E-01
 -1      1218-1.14011E-01 1.05800E-01-5.81425E-01
 -1      1219-1.19165E-01 1.13172E-01-2.42631E-01
 -1      1220-1.19303E-01 1.10439E-01-3.59941E-01
 -1      1221-2.12238E-03 1.54615E-01-5.79072E-01
 -1      1222 5.21600E-02 1.35252E-01-6.82135E-01
 -1      1223 4.80027E-02 1.22760E-01-7.71902E-01
 -1      1224 5.32828E-02 1.34880E-01-6.79192E-01
 -1      1225 4.64825E-02 1.24573E-01-7.74977E-01
 -1      1226 6.03201E-02 1.52180E-01-2.41629E-01
 -1      1227 6.17672E-02 1.50058E-01-3.59034E-01
 -1      1228 5.92723E-02 1.51084E-01-2.40393E-01
 -1      1229 6.11513E-02 1.50064E-01-3.58029E-01
 -1      1230-3.15852E-03-1.54059E-01-5.79725E-01
 -1      1231-3.06056E-03-1.57092E-01-4.73543E-01
 -1      1232-5.31073E-03-1.61248E-01-2.47489E-01
 -1      1233-2.83743E-03-1.60201E-01-3.61724E-01
 -1      1234-1.99825E-03-1.32549E-01-7.70622E-01
 -1      1235-4.69699E-03-1.43999E-01-6.81113E-01
 -1      1236-3.49693E-03-1.61028E-01-3.63548E-01
 -1      1237-5.49234E-03-1.63506E-01-2.50112E-01
 -1      1238-1.22970E-03-1.57336E-01-4.73162E-01
 -1      1239 5.62186E-02-1.32495E-01-6.83535E-01
 -1      1240 4.95134E-02-1.21859E-01-7.72316E-01
 -1      1241 4.82049E-02-1.22973E-01-7.73432E-01
 -1      1242 5.50474E-02-1.32991E-01-6.81607E-01
 -1      1243 6.04579E-02-1.51340E-01-2.52427E-01
 -1      1244 6.06149E-02-1.49290E-01-3.67575E-01
 -1      1245 5.97258E-02-1.48892E-01-3.67386E-01
 -1      1246 6.08156E-02-1.51508E-01-2.53678E-01
 -1      1247-1.14166E-03-1.53519E-01-5.79066E-01
 -1      1248 1.05842E-01 1.12571E-01-5.83280E-01
 -1      1249 8.54387E-04 1.55246E-01-5.80759E-01
 -1      1250 9.29241E-04 1.59086E-01-4.73373E-01
 -1      1251 9.19068E-02-9.32176E-02-7.74179E-01
 -1      1252 9.99447E-02 1.05057E-01-6.83747E-01
 -1      1253 9.36617E-02 9.39135E-02-7.74349E-01
 -1      1254 1.01151E-01 1.04019E-01-6.80712E-01
 -1      1255 9.33664E-02 9.68224E-02-7.75731E-01
 -1      1256 1.03223E-01-1.00268E-01-6.84286E-01
 -1      1257 9.32867E-02-9.21045E-02-7.74022E-01
 -1      1258 1.01321E-01-1.00799E-01-6.82616E-01
 -1      1259 1.07863E-01 1.10553E-01-5.79277E-01
 -1      1260 1.10332E-01 1.13534E-01-4.71883E-01
 -1      1261 1.44240E-01 5.67648E-02-5.81068E-01
 -1      1262 1.47120E-01 5.74295E-02-4.73255E-01
 -1      1263 1.48724E-01-6.35873E-02-2.44291E-01
 -1      1264 1.46361E-01 5.96620E-02-4.72718E-01
 -1      1265 1.42030E-01 5.87474E-02-5.80643E-01
 -1      1266 1.64239E-01 6.46122E-04-2.38984E-01
 -1      1267 1.62446E-01 4.08239E-06-3.56828E-01
 -1      1268 1.62448E-01-8.10504E-04-3.57594E-01
 -1      1269 1.64337E-01 6.12671E-04-2.38400E-01
 -1      1270 1.48175E-01-6.02935E-02-3.61548E-01
 -1      1271 1.50350E-01-6.39549E-02-2.43926E-01
 -1      1272 1.16236E-01-1.12583E-01-3.66301E-01
 -1      1273 1.15846E-01-1.13472E-01-3.65822E-01
 -1      1274 1.17413E-01-1.15147E-01-2.48691E-01
 -1      1275 1.53875E-01-1.18292E-03-5.78572E-01
 -1      1276 1.54323E-01-3.92694E-03-5.81796E-01
 -1      1277 1.58316E-01-3.42549E-03-4.73324E-01
 -1      1278 1.15489E-01 1.17035E-01-2.43546E-01
 -1      1279 1.12443E-01 1.17119E-01-3.61244E-01
 -1      1280 1.50256E-01 6.01806E-02-3.59615E-01
 -1      1281 1.51327E-01 6.24252E-02-2.41793E-01
 -1      1282 1.50396E-01 6.07150E-02-3.58839E-01
 -1      1283-3.05384E-02-1.16475E-03-2.35378E-01
 -1      1284-2.60808E-02-1.86789E-03-6.84594E-01
 -1      1285-2.34240E-02 2.07577E-03-7.77650E-01
 -1      1286-3.13416E-02-6.53660E-04-3.56814E-01
 -1      1287-2.99156E-02-1.19193E-02-2.43106E-01
 -1      1288-2.40609E-02-1.14508E-02-6.84778E-01
 -1      1289-2.26584E-02-5.19430E-03-7.79598E-01
 -1      1290-3.00152E-02-1.01677E-02-3.60742E-01
 -1      1291-2.68591E-02-8.08615E-03-5.79946E-01
 -1      1292-1.93416E-02-2.10147E-02-2.39511E-01
 -1      1293-1.77945E-02-1.90178E-02-6.81383E-01
 -1      1294-1.92051E-02-1.30177E-02-7.76153E-01
 -1      1295-2.12960E-02-2.05442E-02-3.60826E-01
 -1      1296-2.14568E-02-1.83579E-02-5.81259E-01
 -1      1297-9.85397E-03-2.44839E-02-6.84775E-01
 -1      1298-1.30460E-02-2.01723E-02-7.79864E-01
 -1      1299-1.11829E-02-2.75699E-02-3.55156E-01
 -1      1300-8.96482E-04-3.29290E-02-2.49135E-01
 -1      1301 8.85775E-05-2.61882E-02-6.85611E-01
 -1      1302-2.26790E-03-2.33623E-02-7.79270E-01
 -1      1303-6.94937E-04-3.08796E-02-3.64215E-01
 -1      1304 1.02070E-02-2.40617E-02-6.88021E-01
 -1      1305 5.40028E-03-2.25577E-02-7.81609E-01
 -1      1306 1.10216E-02-3.03204E-02-3.70919E-01
 -1      1307 1.86354E-02-1.73973E-02-6.88647E-01
 -1      1308 1.34116E-02-1.95860E-02-7.82459E-01
 -1      1309 2.15840E-02-2.17593E-02-3.70331E-01
 -1      1310 2.65239E-02-1.10570E-02-2.44416E-01
 -1      1311 2.21296E-02-1.02824E-02-6.86466E-01
 -1      1312 1.96627E-02-1.30320E-02-7.82532E-01
 -1      1313 2.59701E-02-1.24722E-02-3.64595E-01
 -1      1314 2.81383E-02-1.57855E-04-2.38846E-01
 -1      1315 2.47951E-02-1.24498E-04-6.87675E-01
 -1      1316 2.22312E-02-2.28776E-03-7.84707E-01
 -1      1317 2.77978E-02-8.86011E-04-3.60489E-01
 -1      1318 2.21086E-02 9.90562E-03-6.88133E-01
 -1      1319 2.21312E-02 5.76315E-03-7.82627E-01
 -1      1320 2.74455E-02 8.57121E-03-3.62009E-01
 -1      1321 1.59698E-02 1.88402E-02-6.88971E-01
 -1      1322 1.79751E-02 1.34948E-02-7.82213E-01
 -1      1323 2.12397E-02 2.13329E-02-3.63354E-01
 -1      1324 7.90445E-03 2.60248E-02-2.40242E-01
 -1      1325 8.00996E-03 2.33081E-02-6.85877E-01
 -1      1326 1.01412E-02 1.95954E-02-7.83030E-01
 -1      1327 1.13082E-02 2.69888E-02-3.60469E-01
 -1      1328 8.40284E-05 3.25612E-02-2.44939E-01
 -1      1329-2.20412E-03 2.56630E-02-6.87795E-01
 -1      1330 3.81222E-03 2.18826E-02-7.81849E-01
 -1      1331-1.55576E-03 3.16137E-02-3.62041E-01
 -1      1332-9.86046E-03 2.37251E-02-6.85921E-01
 -1      1333-7.23248E-03 2.25812E-02-7.79588E-01
 -1      1334-8.83703E-03 2.92020E-02-3.62677E-01
 -1      1335-1.92215E-02 1.75031E-02-6.87101E-01
 -1      1336-1.49978E-02 1.81208E-02-7.82294E-01
 -1      1337-2.25892E-02 2.10041E-02-3.61878E-01
 -1      1338-2.84646E-02 1.08111E-02-2.37942E-01
 -1      1339-2.50418E-02 8.25977E-03-6.85313E-01
 -1      1340-2.12528E-02 1.15724E-02-7.79699E-01
 -1      1341-2.73957E-02 1.16820E-02-3.56360E-01
 -1      1342 0.00000E+00 0.00000E+00 0.00000E+00
 -1      1343 0.00000E+00 0.00000E+00 0.00000E+00
 -1      1344 0.00000E+00 0.00000E+00 0.00000E+00
 -1      1345 0.00000E+00 0.00000E+00 0.00000E+00
 -1      1346 0.00000E+00 0.00000E+00 0.00000E+00
 -1      1347 0.00000E+00 0.00000E+00 0.00000E+00
 -1      1348 0.00000E+00 0.00000E+00 0.00000E+00
 -1      1349 0.00000E+00 0.00000E+00 0.00000E+00
 -1      1350 0.00000E+00 0.00000E+00 0.00000E+00
 -1      1351 0.00000E+00 0.00000E+00 0.00000E+00
 -1      1352 0.00000E+00 0.00000E+00 0.00000E+00
 -1      1353 0.00000E+00 0.00000E+00 0.00000E+00
 -1      1354 0.00000E+00 0.00000E+00 0.00000E+00
 -1      1355 0.00000E+00 0.00000E+00 0.00000E+00
 -1      1356 0.00000E+00 0.00000E+00 0.00000E+00
 -1      1357 0.00000E+00 0.00000E+00 0.00000E+00
 -1      1358 0.00000E+00 0.00000E+00 0.00000E+00
 -1      1359 0.00000E+00 0.00000E+00 0.00000E+00
 -1      1360 0.00000E+00 0.00000E+00 0.00000E+00
 -1      1361 0.00000E+00 0.00000E+00 0.00000E+00
 -1      1362 0.00000E+00 0.00000E+00 0.00000E+00
 -1      1363 0.00000E+00 0.00000E+00 0.00000E+00
 -1      1364 0.00000E+00 0.00000E+00 0.00000E+00
 -1      1365 0.00000E+00 0.00000E+00 0.00000E+00
 -1      1366 0.00000E+00 0.00000E+00 0.00000E+00
 -1      1367 0.00000E+00 0.00000E+00 0.00000E+00
 -1      1368 0.00000E+00 0.00000E+00 0.00000E+00
 -1      1369 0.00000E+00 0.00000E+00 0.00000E+00
 -1      1370 0.00000E+00 0.00000E+00 0.00000E+00
 -1      1371 0.00000E+00 0.00000E+00 0.00000E+00
 -1      1372 0.00000E+00 0.00000E+00 0.00000E+00
 -1      1373 0.00000E+00 0.00000E+00 0.00000E+00
 -1      1374 0.00000E+00 0.00000E+00 0.00000E+00
 -1      1375 0.00000E+00 0.00000E+00 0.00000E+00
 -1      1376 0.00000E+00 0.00000E+00 0.00000E+00
 -1      1377 0.00000E+00 0.00000E+00 0.00000E+00
 -1      1378 0.00000E+00 0.00000E+00 0.00000E+00
 -1      1379 0.00000E+00 0.00000E+00 0.00000E+00
 -1      1380 0.00000E+00 0.00000E+00 0.00000E+00
 -1      1381 0.00000E+00 0.00000E+00 0.00000E+00
 -1      1382 0.00000E+00 0.00000E+00 0.00000E+00
 -1      1383 0.00000E+00 0.00000E+00 0.00000E+00
 -1      1384 0.00000E+00 0.00000E+00 0.00000E+00
 -1      1385 0.00000E+00 0.00000E+00 0.00000E+00
 -1      1386 0.00000E+00 0.00000E+00 0.00000E+00
 -1      1387 0.00000E+00 0.00000E+00 0.00000E+00
 -1      1388 0.00000E+00 0.00000E+00 0.00000E+00
 -1      1389 0.00000E+00 0.00000E+00 0.00000E+00
 -1      1390 0.00000E+00 0.00000E+00 0.00000E+00
 -1      1391 0.00000E+00 0.00000E+00 0.00000E+00
 -1      1392 0.00000E+00 0.00000E+00 0.00000E+00
 -1      1393 0.00000E+00 0.00000E+00 0.00000E+00
 -1      1394 0.00000E+00 0.00000E+00 0.00000E+00
 -1      1395 0.00000E+00 0.00000E+00 0.00000E+00
 -1      1396 0.00000E+00 0.00000E+00 0.00000E+00
 -1      1397 0.00000E+00 0.00000E+00 0.00000E+00
 -1      1398 0.00000E+00 0.00000E+00 0.00000E+00
 -1      1399 0.00000E+00 0.00000E+00 0.00000E+00
 -1      1400 0.00000E+00 0.00000E+00 0.00000E+00
 -1      1401 0.00000E+00 0.00000E+00 0.00000E+00
 -1      1402 0.00000E+00 0.00000E+00 0.00000E+00
 -1      1403 0.00000E+00 0.00000E+00 0.00000E+00
 -1      1404 0.00000E+00 0.00000E+00 0.00000E+00
 -1      1405 0.00000E+00 0.00000E+00 0.00000E+00
 -1      1406 0.00000E+00 0.00000E+00 0.00000E+00
 -1      1407 0.00000E+00 0.00000E+00 0.00000E+00
 -1      1408 0.00000E+00 0.00000E+00 0.00000E+00
 -1      1409-1.46969E-02 1.34092E-02-8.28960E-01
 -1      1410 1.30503E-02-1.38751E-02-8.29887E-01
 -1      1411 1.38090E-02 1.41926E-02-8.29410E-01
 -1      1412 9.15836E-02 9.03786E-02-8.14694E-01
 -1      1413 5.96940E-02 9.33434E-02-8.15914E-01
 -1      1414 6.10959E-02 9.40266E-02-8.19809E-01
 -1      1415-5.26397E-02 1.18652E-01-8.12009E-01
 -1      1416-9.15212E-03-1.84297E-02-8.24735E-01
 -1      1417 1.77223E-02-1.01089E-03-8.30688E-01
 -1      1418 1.22285E-01 4.89888E-02-8.13113E-01
 -1      1419-4.93099E-02-1.21401E-01-8.08913E-01
 -1      1420 8.35654E-03 1.82342E-02-8.29982E-01
 -1      1421-6.70664E-04-2.09207E-02-8.26196E-01
 -1      1422-2.01284E-02 7.03884E-03-8.26831E-01
 -1      1423 1.30566E-01 4.55093E-03-8.14401E-01
 -1      1424 1.19885E-01-5.06212E-02-8.13982E-01
 -1      1425 9.13900E-02 5.79745E-02-8.15842E-01
 -1      1426 9.19143E-02 5.97220E-02-8.20234E-01
 -1      1427 4.33539E-02 2.96697E-02-8.23099E-01
 -1      1428 4.38984E-02 3.01485E-02-8.27801E-01
 -1      1429 1.79282E-02-7.31293E-03-8.30312E-01
 -1      1430-1.88236E-03-1.32919E-01-8.10793E-01
 -1      1431-8.50968E-03 1.89221E-02-8.29970E-01
 -1      1432-1.86986E-02-7.60031E-03-8.26436E-01
 -1      1433-9.29016E-02-8.96989E-02-8.09897E-01
 -1      1434-1.48902E-02-1.43421E-02-8.25909E-01
 -1      1435-2.06436E-02-3.24033E-04-8.26169E-01
 -1      1436-1.33580E-01-1.18320E-03-8.11448E-01
 -1      1437-1.21029E-01-5.14755E-02-8.12291E-01
 -1      1438 5.79159E-03-1.89728E-02-8.28534E-01
 -1      1439 9.03261E-02-9.11592E-02-8.12822E-01
 -1      1440 2.83839E-02 4.33108E-02-8.22984E-01
 -1      1441 2.91096E-02 4.39091E-02-8.27537E-01
 -1      1442-9.88258E-05 1.82667E-02-8.29534E-01
 -1      1443-3.05243E-02 4.40348E-02-8.22808E-01
 -1      1444-3.08885E-02 4.47166E-02-8.27506E-01
 -1      1445 5.30794E-02-9.95942E-03-8.28093E-01
 -1      1446 5.24475E-02-1.02309E-02-8.23608E-01
 -1      1447-9.29388E-02 8.92335E-02-8.11892E-01
 -1      1448-3.60960E-03 1.28081E-01-8.14037E-01
 -1      1449-1.21755E-01 4.92260E-02-8.10982E-01
 -1      1450-6.21682E-02-9.17445E-02-8.11692E-01
 -1      1451-6.30095E-02-9.29171E-02-8.15616E-01
 -1      1452 4.67406E-02-1.22095E-01-8.12304E-01
 -1      1453 5.12367E-02 9.49646E-03-8.23403E-01
 -1      1454 5.20222E-02 1.01847E-02-8.28235E-01
 -1      1455 5.54753E-02 7.98545E-02-8.18117E-01
 -1      1456 5.56518E-02 8.13947E-02-8.22648E-01
 -1      1457 2.05169E-02 1.07857E-01-8.16313E-01
 -1      1458 2.03020E-02 1.09302E-01-8.20242E-01
 -1      1459 7.91024E-02 5.44147E-02-8.18356E-01
 -1      1460 7.96791E-02 5.50468E-02-8.22086E-01
 -1      1461-9.34099E-02-6.18435E-02-8.11639E-01
 -1      1462-9.46104E-02-6.21680E-02-8.16014E-01
 -1      1463-3.00138E-02-4.33119E-02-8.19313E-01
 -1      1464-3.02644E-02-4.42548E-02-8.24142E-01
 -1      1465 1.08061E-01 2.32375E-02-8.17474E-01
 -1      1466 1.08886E-01 2.30049E-02-8.20968E-01
 -1      1467-5.12119E-02-9.18892E-03-8.19588E-01
 -1      1468-5.21047E-02-9.41687E-03-8.24176E-01
 -1      1469-1.11158E-01-2.21032E-02-8.11726E-01
 -1      1470-1.12504E-01-2.21280E-02-8.16008E-01
 -1      1471 1.10877E-01-2.07692E-02-8.16092E-01
 -1      1472 1.11937E-01-2.05623E-02-8.20045E-01
 -1      1473 2.10350E-02-1.09543E-01-8.15263E-01
 -1      1474 2.12654E-02-1.10309E-01-8.18722E-01
 -1      1475 1.07828E-02 5.14906E-02-8.22851E-01
 -1      1476 1.05356E-02 5.23039E-02-8.27514E-01
 -1      1477-1.13265E-02 5.12515E-02-8.22849E-01
 -1      1478-1.15914E-02 5.20649E-02-8.27398E-01
 -1      1479-5.32604E-02 8.82461E-03-8.20229E-01
 -1      1480-5.40324E-02 9.47867E-03-8.24896E-01
 -1      1481 9.01323E-03-5.28487E-02-8.21415E-01
 -1      1482 9.03403E-03-5.35621E-02-8.25952E-01
 -1      1483 6.74466E-02 1.02381E-01-8.12493E-01
 -1      1484 6.88322E-02 1.03296E-01-8.16314E-01
 -1      1485-1.10745E-01 2.11024E-02-8.12634E-01
 -1      1486-1.12009E-01 2.11444E-02-8.16816E-01
 -1      1487-9.27749E-02 5.85370E-02-8.13000E-01
 -1      1488-9.37427E-02 5.93626E-02-8.17124E-01
 -1      1489-8.25758E-02-5.28456E-02-8.14272E-01
 -1      1490-8.31882E-02-5.30388E-02-8.18392E-01
 -1      1491-2.46617E-02 1.08982E-01-8.14929E-01
 -1      1492-2.48762E-02 1.10090E-01-8.18713E-01
 -1      1493-2.30232E-02-1.07111E-01-8.11274E-01
 -1      1494-2.30310E-02-1.08487E-01-8.15893E-01
 -1      1495 9.07800E-02-6.28382E-02-8.15186E-01
 -1      1496 9.21125E-02-6.27915E-02-8.19747E-01
 -1      1497 1.74968E-02 7.39723E-03-8.29853E-01
 -1      1498 1.23813E-01-4.72772E-02-7.93656E-01
 -1      1499 2.72178E-02-4.40644E-02-8.23013E-01
 -1      1500 2.79803E-02-4.45236E-02-8.27637E-01
 -1      1501 2.89313E-02 2.02656E-02-8.23556E-01
 -1      1502 2.95814E-02 2.06320E-02-8.27921E-01
 -1      1503 9.42911E-02 1.98030E-02-8.18347E-01
 -1      1504 9.52466E-02 1.94154E-02-8.22258E-01
 -1      1505-6.39680E-02 9.54507E-02-8.15059E-01
 -1      1506-6.44185E-02 9.60291E-02-8.19093E-01
 -1      1507-4.54774E-02 2.93032E-02-8.25716E-01
 -1      1508-4.47882E-02 2.90968E-02-8.21245E-01
 -1      1509 5.69900E-02 3.81665E-02-8.22267E-01
 -1      1510 5.74118E-02 3.88319E-02-8.26644E-01
 -1      1511 1.03288E-01 6.67905E-02-8.11525E-01
 -1      1512 1.04205E-01 6.81073E-02-8.15479E-01
 -1      1513-1.20079E-02-5.37454E-02-8.23968E-01
 -1      1514-1.23037E-02-5.28888E-02-8.19445E-01
 -1      1515 4.74211E-02 1.21616E-01-8.15088E-01
 -1      1516 9.93023E-03 1.81544E-02-8.28736E-01
 -1      1517-9.65796E-02-2.20538E-02-8.15041E-01
 -1      1518-9.80227E-02-2.15469E-02-8.19303E-01
 -1      1519 3.69610E-02-5.57128E-02-8.21764E-01
 -1      1520 3.72694E-02-5.67605E-02-8.26301E-01
 -1      1521 8.47797E-02 1.01049E-01-8.12652E-01
 -1      1522 8.09583E-02-5.18627E-02-8.19658E-01
 -1      1523 8.16350E-02-5.29851E-02-8.23252E-01
 -1      1524 9.63178E-02-1.83276E-02-8.18827E-01
 -1      1525 9.74695E-02-1.79757E-02-8.23119E-01
 -1      1526 9.20776E-02 9.30845E-02-7.95257E-01
 -1      1527 6.01344E-02-9.40735E-02-8.20000E-01
 -1      1528 5.88208E-02-9.39863E-02-8.16004E-01
 -1      1529 1.22629E-02-1.60413E-02-8.28905E-01
 -1      1530-2.03899E-02-6.54848E-03-8.25259E-01
 -1      1531-9.59192E-02 1.79984E-02-8.15441E-01
 -1      1532-9.71520E-02 1.87305E-02-8.19922E-01
 -1      1533-2.71086E-02-1.20527E-01-8.08939E-01
 -1      1534-2.64759E-02-1.21984E-01-8.12544E-01
 -1      1535 8.78330E-02 1.90391E-02-8.19192E-01
 -1      1536 8.88180E-02 1.90468E-02-8.23512E-01
 -1      1537 1.01337E-01-7.04047E-02-8.11142E-01
 -1      1538 1.03022E-01-7.03270E-02-8.14481E-01
 -1      1539-4.60358E-02-2.85577E-02-8.18659E-01
 -1      1540-4.64824E-02-2.93619E-02-8.23219E-01
 -1      1541 3.47132E-02-7.41975E-03-8.24627E-01
 -1      1542 3.52958E-02-7.38966E-03-8.29116E-01
 -1      1543 6.42510E-03-3.53583E-02-8.21712E-01
 -1      1544 6.44905E-03-3.61188E-02-8.26130E-01
 -1      1545 1.45243E-02 1.29674E-02-8.28989E-01
 -1      1546-1.04257E-01 6.41325E-02-8.09489E-01
 -1      1547-1.05321E-01 6.52840E-02-8.13094E-01
 -1      1548 5.91145E-02 1.17761E-01-8.13311E-01
 -1      1549-1.19239E-01 5.96289E-02-8.10644E-01
 -1      1550-9.01131E-02-1.88954E-02-8.16572E-01
 -1      1551-9.13694E-02-1.84247E-02-8.21214E-01
 -1      1552 1.82285E-02-2.11335E-03-8.29596E-01
 -1      1553 1.70048E-02 9.38200E-02-8.19212E-01
 -1      1554 1.76360E-02 9.51170E-02-8.23262E-01
 -1      1555 1.95277E-02-9.65195E-02-8.17179E-01
 -1      1556 1.91183E-02-9.76228E-02-8.21679E-01
 -1      1557-2.06654E-02-9.50316E-02-8.14949E-01
 -1      1558-2.11734E-02-9.62681E-02-8.19074E-01
 -1      1559 3.57205E-02 5.68539E-02-8.22272E-01
 -1      1560 3.68680E-02 5.73561E-02-8.26757E-01
 -1      1561 1.72000E-02 9.63500E-03-8.29103E-01
 -1      1562 8.21556E-03 3.59385E-02-8.23169E-01
 -1      1563 8.14592E-03 3.65136E-02-8.27535E-01
 -1      1564-1.22289E-01 5.10459E-02-7.91284E-01
 -1      1565 1.87710E-02 3.11017E-02-8.22456E-01
 -1      1566 1.93990E-02 3.14629E-02-8.26975E-01
 -1      1567-2.02076E-02-2.92653E-02-8.20305E-01
 -1      1568-2.03474E-02-3.01444E-02-8.24578E-01
 -1      1569 7.49007E-02 5.23539E-02-8.19749E-01
 -1      1570 7.58066E-02 5.27410E-02-8.23819E-01
 -1      1571 1.21151E-01 3.75852E-02-8.13399E-01
 -1      1572 1.19457E-01 2.52076E-02-8.09817E-01
 -1      1573 1.20063E-01 2.53896E-02-8.13876E-01
 -1      1574-5.78693E-02 8.19108E-02-8.17944E-01
 -1      1575-5.82195E-02 8.24697E-02-8.22057E-01
 -1      1576 1.28689E-02 1.58066E-02-8.28500E-01
 -1      1577 1.02753E-01 8.42867E-02-8.12229E-01
 -1      1578 1.18498E-01 6.10177E-02-8.13119E-01
 -1      1579-1.02891E-01-7.10733E-02-8.07504E-01
 -1      1580-1.04568E-01-7.07868E-02-8.11055E-01
 -1      1581 4.35433E-02-2.93200E-02-8.23409E-01
 -1      1582 4.42837E-02-2.97665E-02-8.28188E-01
 -1      1583 2.06123E-02 1.22591E-01-8.12363E-01
 -1      1584 2.09636E-02 1.23824E-01-8.15992E-01
 -1      1585-3.22050E-02 1.78047E-02-8.22013E-01
 -1      1586-3.25187E-02 1.84991E-02-8.26223E-01
 -1      1587 1.01791E-01-8.34459E-02-8.12696E-01
 -1      1588-6.50949E-02-1.24763E-02-8.19101E-01
 -1      1589-6.62096E-02-1.25151E-02-8.23520E-01
 -1      1590-1.35516E-02-1.63269E-02-8.25560E-01
 -1      1591-5.81943E-02 3.64093E-02-8.20518E-01
 -1      1592-5.85904E-02 3.72135E-02-8.25131E-01
 -1      1593 5.15353E-02-8.00454E-02-8.18762E-01
 -1      1594 5.28351E-02-8.08347E-02-8.22467E-01
 -1      1595 2.20251E-03 1.95147E-02-8.28177E-01
 -1      1596-1.02651E-02 1.78570E-02-8.29772E-01
 -1      1597-7.13610E-02 1.05953E-01-8.09395E-01
 -1      1598-7.16954E-02 1.06707E-01-8.13622E-01
 -1      1599-2.07227E-02-2.00229E-03-8.25742E-01
 -1      1600-8.25968E-02 5.56229E-02-8.16066E-01
 -1      1601-8.36317E-02 5.58170E-02-8.19885E-01
 -1      1602 1.08148E-02 1.77145E-02-8.27660E-01
 -1      1603-1.02308E-01-8.37653E-02-8.07950E-01
 -1      1604 2.97105E-02-2.03706E-02-8.24606E-01
 -1      1605 3.03742E-02-2.06141E-02-8.29364E-01
 -1      1606 5.55345E-02-3.76889E-02-8.22442E-01
 -1      1607 5.66581E-02-3.77160E-02-8.26457E-01
 -1      1608 3.75050E-03-2.03002E-02-8.26977E-01
 -1      1609 1.91295E-02-5.65044E-03-8.29067E-01
 -1      1610-7.72158E-02-4.91440E-02-8.15130E-01
 -1      1611-7.77606E-02-4.94767E-02-8.19332E-01
 -1      1612-5.56451E-02-8.15194E-02-8.13930E-01
 -1      1613-5.59958E-02-8.25210E-02-8.18278E-01
 -1      1614-3.71876E-02 6.96643E-03-8.20387E-01
 -1      1615-3.79223E-02 7.16142E-03-8.24587E-01
 -1      1616-7.05553E-02-1.02697E-01-8.08084E-01
 -1      1617-7.11595E-02-1.03673E-01-8.11973E-01
 -1      1618 1.02134E-02 1.31229E-01-8.12602E-01
 -1      1619-1.28642E-01-4.04551E-02-8.10631E-01
 -1      1620 1.18574E-02-6.60609E-02-8.20886E-01
 -1      1621 1.22102E-02-6.71417E-02-8.25377E-01
 -1      1622-1.38168E-02-1.30165E-01-8.10980E-01
 -1      1623-5.14812E-02 3.33054E-02-8.25378E-01
 -1      1624-5.05866E-02 3.31566E-02-8.21044E-01
 -1      1625-1.22545E-01-2.49671E-02-8.08377E-01
 -1      1626-1.24220E-01-2.49274E-02-8.12094E-01
 -1      1627-1.24790E-01 4.91056E-02-7.92490E-01
 -1      1628-2.00299E-02 8.90312E-03-8.26585E-01
 -1      1629-2.09240E-02 9.32305E-02-8.18638E-01
 -1      1630-2.08263E-02 9.46591E-02-8.22627E-01
 -1      1631-2.91615E-02 1.20928E-01-8.09337E-01
 -1      1632-2.93762E-02 1.21977E-01-8.13517E-01
 -1      1633 2.23218E-02-1.22373E-01-8.09760E-01
 -1      1634 2.27745E-02-1.23154E-01-8.13502E-01
 -1      1635 1.82020E-02 1.46712E-03-8.30378E-01
 -1      1636-6.83749E-02 1.24703E-02-8.19718E-01
 -1      1637-6.91220E-02 1.27411E-02-8.23877E-01
 -1      1638-7.29301E-03-3.67425E-02-8.19864E-01
 -1      1639-7.38647E-03-3.75906E-02-8.24377E-01
 -1      1640-3.84379E-02-5.67621E-02-8.18375E-01
 -1      1641-3.89693E-02-5.76511E-02-8.22724E-01
 -1      1642 1.02480E-02-1.30147E-01-8.11032E-01
 -1      1643-1.35000E-01-1.27760E-02-8.09458E-01
 -1      1644-7.52832E-02-1.42464E-02-8.18566E-01
 -1      1645-7.60476E-02-1.41273E-02-8.23288E-01
 -1      1646 1.21415E-01-2.22623E-02-8.09683E-01
 -1      1647 1.22442E-01-2.20945E-02-8.13841E-01
 -1      1648 3.17298E-02-5.04170E-02-8.22301E-01
 -1      1649 3.25008E-02-5.08532E-02-8.26767E-01
 -1      1650 1.89813E-02 1.00597E-01-8.17740E-01
 -1      1651 1.91074E-02 1.02091E-01-8.21924E-01
 -1      1652-2.19588E-02 5.57816E-03-8.25054E-01
 -1      1653-2.09397E-02 1.75808E-03-8.25320E-01
 -1      1654-6.10215E-02 9.87075E-03-8.20048E-01
 -1      1655-6.17354E-02 1.06658E-02-8.24390E-01
 -1      1656-2.67847E-03-2.15390E-02-8.25081E-01
 -1      1657 1.95163E-02-3.03654E-02-8.23587E-01
 -1      1658 1.99930E-02-3.09445E-02-8.27769E-01
 -1      1659-8.46440E-03 3.59375E-02-8.23228E-01
 -1      1660-8.57668E-03 3.65616E-02-8.27512E-01
 -1      1661 8.56318E-02-5.78847E-02-8.18246E-01
 -1      1662 8.63789E-02-5.80929E-02-8.22138E-01
 -1      1663-1.26328E-03-1.32456E-01-7.93626E-01
 -1      1664 3.34897E-02 7.05520E-03-8.24710E-01
 -1      1665 3.43258E-02 7.54282E-03-8.29233E-01
 -1      1666 3.81466E-02-1.26912E-01-8.10414E-01
 -1      1667-1.43535E-02-6.75516E-02-8.18303E-01
 -1      1668-1.49086E-02-6.84457E-02-8.22616E-01
 -1      1669 1.16604E-01-6.21571E-02-8.09538E-01
 -1      1670-1.17813E-01 6.61057E-02-8.09338E-01
 -1      1671 1.32011E-01-9.30765E-03-8.11825E-01
 -1      1672 1.80700E-02 5.70627E-03-8.29721E-01
 -1      1673-6.65252E-03 1.97892E-02-8.28980E-01
 -1      1674 8.09427E-02 1.07213E-01-8.11246E-01
 -1      1675-1.67090E-02 1.31495E-01-8.11777E-01
 -1      1676-1.32654E-02-6.02864E-02-8.18888E-01
 -1      1677-1.35426E-02-6.11814E-02-8.23392E-01
 -1      1678-5.79010E-02-8.64347E-02-8.12493E-01
 -1      1679-5.89446E-02-8.73626E-02-8.16745E-01
 -1      1680 1.31610E-01 7.03821E-03-7.92479E-01
 -1      1681 1.20615E-01 4.27965E-02-7.90929E-01
 -1      1682 1.29656E-01 1.88127E-02-8.11900E-01
 -1      1683 1.29585E-01-2.15014E-04-7.94079E-01
 -1      1684-9.54725E-02 8.87048E-02-7.91473E-01
 -1      1685 1.90487E-02 2.88016E-03-8.29019E-01
 -1      1686 1.19936E-01-5.07224E-02-7.93624E-01
 -1      1687-1.03049E-01 8.15560E-02-8.09813E-01
 -1      1688 1.42294E-02 6.63671E-02-8.22052E-01
 -1      1689 1.41652E-02 6.72152E-02-8.26544E-01
 -1      1690 1.20495E-01 5.22254E-02-7.94456E-01
 -1      1691-1.32279E-01-4.01309E-03-7.88674E-01
 -1      1692-1.37232E-02 6.62508E-02-8.21295E-01
 -1      1693-1.44352E-02 6.72249E-02-8.25837E-01
 -1      1694 1.49779E-02-1.27286E-02-8.29190E-01
 -1      1695 9.32325E-02 9.48739E-02-7.95004E-01
 -1      1696 2.07805E-02-1.02865E-01-8.16003E-01
 -1      1697 2.01984E-02-1.03847E-01-8.20007E-01
 -1      1698-4.92959E-02 1.20110E-01-7.90542E-01
 -1      1699 4.74184E-02-1.20761E-01-7.92535E-01
 -1      1700-1.07017E-02-1.77634E-02-8.24611E-01
 -1      1701-3.08396E-03 1.31705E-01-7.93486E-01
 -1      1702-1.20726E-01-5.26640E-02-7.89874E-01
 -1      1703-9.45386E-02-9.03733E-02-7.88412E-01
 -1      1704-7.21003E-03-1.98457E-02-8.24137E-01
 -1      1705-1.18150E-01-6.49980E-02-8.08163E-01
 -1      1706 1.52208E-02 8.75754E-02-8.19752E-01
 -1      1707 1.63206E-02 8.86550E-02-8.24034E-01
 -1      1708-2.18225E-02 2.75980E-03-8.24421E-01
 -1      1709-8.74494E-02-5.75975E-02-8.13608E-01
 -1      1710-8.83112E-02-5.75056E-02-8.17460E-01
 -1      1711-1.63760E-02-7.46782E-02-8.17422E-01
 -1      1712-1.71387E-02-7.53389E-02-8.21728E-01
 -1      1713-5.75690E-02-3.73289E-02-8.17512E-01
 -1      1714-5.83579E-02-3.78108E-02-8.21928E-01
 -1      1715 1.68769E-02 1.09608E-02-8.28223E-01
 -1      1716-2.07562E-02-1.01541E-01-8.14780E-01
 -1      1717-2.10775E-02-1.02252E-01-8.17619E-01
 -1      1718-5.52169E-02 1.21029E-01-7.90488E-01
 -1      1719-2.11582E-02 3.04683E-02-8.23416E-01
 -1      1720-2.17380E-02 3.09786E-02-8.27975E-01
 -1      1721-1.38311E-02 1.53781E-02-8.27367E-01
 -1      1722 1.29785E-02 5.85849E-02-8.22310E-01
 -1      1723 1.22874E-02 5.95007E-02-8.26905E-01
 -1      1724-1.70260E-02 1.23469E-02-8.27688E-01
 -1      1725 6.40528E-03 1.89542E-02-8.29230E-01
 -1      1726 9.20808E-02-9.15590E-02-7.94264E-01
 -1      1727-5.39185E-03-1.29302E-01-7.88922E-01
 -1      1728-1.38616E-04 1.31614E-01-7.94973E-01
 -1      1729-2.28090E-03 1.96443E-02-8.28183E-01
 -1      1730 8.05609E-03-1.82029E-02-8.28616E-01
 -1      1731-5.44775E-02 7.56627E-02-8.18916E-01
 -1      1732-5.46909E-02 7.66174E-02-8.23199E-01
 -1      1733 9.00423E-03 4.37415E-02-8.27673E-01
 -1      1734 9.11261E-03 4.30052E-02-8.23437E-01
 -1      1735-1.23592E-01-5.03493E-02-7.91862E-01
 -1      1736-7.62327E-02 1.41809E-02-8.18474E-01
 -1      1737-7.69317E-02 1.45278E-02-8.22833E-01
 -1      1738-9.58333E-02 9.00498E-02-7.94549E-01
 -1      1739-8.48477E-02 1.01830E-01-8.10280E-01
 -1      1740-6.46260E-02 1.18546E-01-8.11550E-01
 -1      1741-3.66109E-02-8.01422E-03-8.20074E-01
 -1      1742-3.74091E-02-7.88761E-03-8.24472E-01
 -1      1743 1.07409E-01-7.16024E-02-8.08854E-01
 -1      1744 1.08519E-01-7.17443E-02-8.12091E-01
 -1      1745-1.30148E-01 3.85354E-02-8.10377E-01
 -1      1746-3.12994E-02-1.94917E-02-8.19205E-01
 -1      1747-3.15698E-02-2.01515E-02-8.23363E-01
 -1      1748-1.78297E-02-9.82470E-03-8.24352E-01
 -1      1749-1.62875E-02-1.28524E-02-8.23106E-01
 -1      1750 2.22597E-02-1.55644E-02-8.25106E-01
 -1      1751 2.28640E-02-1.57302E-02-8.29227E-01
 -1      1752 1.58428E-02-1.22755E-02-8.28586E-01
 -1      1753 1.70732E-02-9.24734E-03-8.29958E-01
 -1      1754-4.03020E-02-1.22395E-01-8.07139E-01
 -1      1755-3.93788E-02 5.63749E-02-8.21702E-01
 -1      1756-3.96864E-02 5.70792E-02-8.26274E-01
 -1      1757-4.18506E-02-6.22412E-02-8.18542E-01
 -1      1758-4.24272E-02-6.32987E-02-8.22284E-01
 -1      1759 3.62876E-02 1.27733E-01-8.11750E-01
 -1      1760 1.94471E-02-4.76680E-03-8.28710E-01
 -1      1761-1.34614E-01 7.19322E-04-7.91254E-01
 -1      1762-6.09541E-02-1.17749E-01-8.08552E-01
 -1      1763-8.62494E-02-1.01116E-01-8.08681E-01
 -1      1764 6.82964E-02-1.03360E-01-8.10001E-01
 -1      1765 6.87774E-02-1.04358E-01-8.14497E-01
 -1      1766 4.53553E-02 1.21535E-01-7.92593E-01
 -1      1767-3.44495E-02 5.01880E-02-8.22499E-01
 -1      1768-3.48036E-02 5.09737E-02-8.26733E-01
 -1      1769-1.07624E-01-7.32099E-02-8.04738E-01
 -1      1770-1.08681E-01-7.32441E-02-8.08168E-01
 -1      1771-6.47427E-02 4.15283E-02-8.20104E-01
 -1      1772-6.54852E-02 4.23096E-02-8.24432E-01
 -1      1773-2.42019E-02 1.33072E-01-8.09499E-01
 -1      1774 5.12063E-02 7.38398E-02-8.19293E-01
 -1      1775 5.12882E-02 7.51346E-02-8.23701E-01
 -1      1776-3.43339E-02-5.00821E-02-8.18797E-01
 -1      1777-3.48034E-02-5.10062E-02-8.23340E-01
 -1      1778 9.69831E-03-5.91637E-02-8.20942E-01
 -1      1779 1.01515E-02-5.99952E-02-8.25387E-01
 -1      1780 4.97197E-02-3.32066E-02-8.22894E-01
 -1      1781 5.06604E-02-3.36196E-02-8.27215E-01
 -1      1782 8.90166E-02-1.63128E-02-8.20140E-01
 -1      1783 9.01709E-02-1.62983E-02-8.24364E-01
 -1      1784-1.73520E-02-1.26765E-02-8.23135E-01
 -1      1785 6.04141E-02-1.18438E-01-8.13698E-01
 -1      1786 4.04350E-02 6.28687E-02-8.21458E-01
 -1      1787 4.13759E-02 6.35138E-02-8.25746E-01
 -1      1788 1.82473E-02-1.33094E-01-8.07775E-01
 -1      1789 6.05539E-02-4.14660E-02-8.21823E-01
 -1      1790 6.18772E-02-4.12874E-02-8.26021E-01
 -1      1791-1.36547E-01-1.97227E-02-8.07841E-01
 -1      1792 1.29618E-01-3.75564E-02-8.11661E-01
 -1      1793 1.91569E-02 5.08029E-03-8.28699E-01
 -1      1794-1.69433E-02-2.41148E-02-8.20486E-01
 -1      1795-1.70030E-02-2.45033E-02-8.23945E-01
 -1      1796 1.18825E-03-2.12318E-02-8.25715E-01
 -1      1797-1.14691E-02-1.77373E-02-8.23794E-01
 -1      1798 1.68347E-02-2.11170E-02-6.13057E-01
 -1      1799 1.31056E-02-2.44483E-02-6.14768E-01
 -1      1800-8.14450E-02 1.09988E-01-8.09996E-01
 -1      1801 1.68133E-02-1.06763E-02-8.29031E-01
 -1      1802-1.60599E-02 2.40065E-02-8.23402E-01
 -1      1803-1.65192E-02 2.42348E-02-8.27330E-01
 -1      1804-1.74709E-02-2.10302E-02-6.03401E-01
 -1      1805-1.42005E-02-2.36868E-02-6.07607E-01
 -1      1806-4.22991E-02 1.24810E-01-8.12292E-01
 -1      1807 1.02934E-01-2.04187E-02-8.18087E-01
 -1      1808 1.04133E-01-1.98823E-02-8.21954E-01
 -1      1809 6.76736E-02-1.29846E-02-8.22129E-01
 -1      1810 6.86388E-02-1.25138E-02-8.26623E-01
 -1      1811 2.51747E-02 1.27017E-01-8.08421E-01
 -1      1812 2.46341E-02 1.28225E-01-8.12114E-01
 -1      1813-1.24567E-01 2.27559E-02-8.08704E-01
 -1      1814-1.25790E-01 2.28256E-02-8.12938E-01
 -1      1815 8.30500E-02-1.01618E-01-8.11986E-01
 -1      1816 3.01469E-02 1.30174E-01-8.10039E-01
 -1      1817-1.14604E-01-7.16284E-02-8.06345E-01
 -1      1818-5.23263E-02-3.33383E-02-8.18060E-01
 -1      1819-5.28317E-02-3.39022E-02-8.22413E-01
 -1      1820 3.20314E-02-1.29257E-01-8.08117E-01
 -1      1821-2.13821E-02-3.25684E-03-8.24745E-01
 -1      1822-1.08973E-01 7.73158E-02-8.08190E-01
 -1      1823 5.39422E-03 1.97924E-02-8.28375E-01
 -1      1824-1.03225E-01 1.96596E-02-8.14050E-01
 -1      1825-1.04554E-01 2.00909E-02-8.18456E-01
 -1      1826-1.33476E-01 3.22150E-02-8.08767E-01
 -1      1827-1.30639E-02-1.70645E-02-8.24270E-01
 -1      1828-2.08755E-02-5.61759E-03-8.23833E-01
 -1      1829 1.37355E-02-7.32570E-02-8.20496E-01
 -1      1830 1.39099E-02-7.45106E-02-8.24785E-01
 -1      1831 4.93667E-02-1.21818E-01-7.94476E-01
 -1      1832 6.65722E-02 1.38878E-02-8.22425E-01
 -1      1833 6.73806E-02 1.39500E-02-8.26629E-01
 -1      1834-5.45301E-03-2.90236E-02-8.19662E-01
 -1      1835-5.95693E-03-2.98657E-02-8.24058E-01
 -1      1836-4.17278E-03-2.16973E-02-8.23556E-01
 -1      1837-1.14383E-02 1.74591E-02-8.28077E-01
 -1      1838-5.09454E-02-7.59746E-02-8.15065E-01
 -1      1839-5.13828E-02-7.68887E-02-8.19595E-01
 -1      1840 4.41798E-02-8.77302E-03-8.24210E-01
 -1      1841 4.48708E-02-8.57718E-03-8.28789E-01
 -1      1842-1.01241E-01-8.28680E-02-7.94233E-01
 -1      1843 6.02629E-02 1.21925E-02-8.27461E-01
 -1      1844 5.93825E-02 1.17835E-02-8.22899E-01
 -1      1845 1.03573E-02 1.33662E-01-8.01501E-01
 -1      1846 7.50228E-02-1.35977E-02-8.20992E-01
 -1      1847 7.59182E-02-1.34065E-02-8.25593E-01
 -1      1848-1.18012E-01-6.35415E-02-7.96323E-01
 -1      1849-9.12214E-02-9.37539E-02-7.88932E-01
 -1      1850 4.86174E-02 1.21745E-01-7.94975E-01
 -1      1851 6.11251E-02-1.05945E-02-8.27378E-01
 -1      1852 6.05335E-02-1.03846E-02-8.22880E-01
 -1      1853-7.75669E-02 4.95148E-02-8.17399E-01
 -1      1854-7.83557E-02 5.03294E-02-8.21749E-01
 -1      1855-1.37313E-01 1.17419E-02-8.11318E-01
 -1      1856 1.14472E-01-6.77411E-02-8.08488E-01
 -1      1857 3.21105E-02 5.07066E-02-8.22702E-01
 -1      1858 3.31212E-02 5.11244E-02-8.27198E-01
 -1      1859 1.80624E-02 1.34227E-01-8.10026E-01
 -1      1860 3.74825E-02 1.26515E-01-8.01665E-01
 -1      1861-5.46300E-02-1.20015E-01-7.90397E-01
 -1      1862-3.14832E-03 1.99398E-02-8.27468E-01
 -1      1863-1.25023E-02 5.92036E-02-8.22009E-01
 -1      1864-1.28315E-02 5.99740E-02-8.26482E-01
 -1      1865-6.53091E-02-9.76615E-02-8.10823E-01
 -1      1866-6.66388E-02-9.83446E-02-8.14163E-01
 -1      1867-4.71097E-02-1.22186E-01-7.88461E-01
 -1      1868-1.31382E-02 1.61324E-02-8.26926E-01
 -1      1869-3.60823E-02 1.29700E-01-8.09850E-01
 -1      1870-1.78120E-02 1.16939E-02-8.26769E-01
 -1      1871-1.58301E-02 7.23490E-02-8.20327E-01
 -1      1872-1.63954E-02 7.35331E-02-8.24891E-01
 -1      1873-7.20039E-02 1.18985E-01-8.09631E-01
 -1      1874 3.67710E-02-2.47901E-02-8.23972E-01
 -1      1875 3.72671E-02-2.51626E-02-8.28592E-01
 -1      1876-8.25677E-02-1.07591E-01-8.07924E-01
 -1      1877 1.14920E-02-1.70170E-02-8.28234E-01
 -1      1878 6.85281E-02-1.16112E-01-8.11413E-01
 -1      1879-2.26665E-02-1.33733E-01-8.07414E-01
 -1      1880 8.88811E-02-9.44337E-02-7.92504E-01
 -1      1881 1.29880E-03 2.70550E-02-6.09209E-01
 -1      1882 6.65142E-03 2.61534E-02-6.12306E-01
 -1      1883 1.15237E-01-6.24165E-02-7.98170E-01
 -1      1884-6.22651E-03-2.10344E-02-8.23346E-01
 -1      1885-5.52109E-03 1.99302E-02-8.27670E-01
 -1      1886 2.10394E-03-2.11461E-02-8.25365E-01
 -1      1887 1.57171E-02-2.38807E-02-8.23307E-01
 -1      1888 1.58629E-02-2.45184E-02-8.27309E-01
 -1      1889 2.22511E-03-2.78489E-02-6.10074E-01
 -1      1890 8.04435E-03-2.66434E-02-6.14624E-01
 -1      1891-7.45865E-02 1.11632E-01-8.07332E-01
 -1      1892-7.51767E-02 1.12424E-01-8.11161E-01
 -1      1893 9.58216E-03-1.84431E-02-8.27685E-01
 -1      1894 7.83492E-02-1.07870E-01-8.10178E-01
 -1      1895-1.94956E-02 9.51422E-03-8.25978E-01
 -1      1896 7.47669E-02 1.47269E-02-8.21299E-01
 -1      1897 7.54930E-02 1.51857E-02-8.25529E-01
 -1      1898-5.78879E-02-1.19051E-01-7.98740E-01
 -1      1899-4.14492E-03 2.73069E-02-6.07718E-01
 -1      1900-7.76966E-03 2.69118E-02-6.11187E-01
 -1      1901 1.16052E-01 6.82225E-02-8.11213E-01
 -1      1902 2.03393E-02 1.76615E-02-6.10752E-01
 -1      1903 2.32037E-02 1.33269E-02-6.15070E-01
 -1      1904-3.50011E-03-2.72538E-02-6.06635E-01
 -1      1905-7.92184E-03-2.67708E-02-6.09263E-01
 -1      1906-1.80164E-02 2.12583E-02-6.08911E-01
 -1      1907-1.41281E-02 2.44488E-02-6.13050E-01
 -1      1908 3.00019E-03 1.96938E-02-8.27562E-01
 -1      1909-2.16986E-02-1.79950E-02-6.05401E-01
 -1      1910-2.45720E-02-1.40904E-02-6.09644E-01
 -1      1911 1.33062E-01-1.68773E-02-8.10319E-01
 -1      1912 1.08778E-01 8.02879E-02-8.10410E-01
 -1      1913 6.79204E-02 1.17128E-01-8.11274E-01
 -1      1914 2.60036E-02 1.27116E-03-6.09040E-01
 -1      1915 2.53753E-02 6.58957E-03-6.13319E-01
 -1      1916-2.76726E-02 2.75515E-03-6.06970E-01
 -1      1917-2.67043E-02 8.35351E-03-6.10961E-01
 -1      1918 1.97528E-02-1.75208E-02-6.11280E-01
 -1      1919 2.26322E-02-1.39628E-02-6.14172E-01
 -1      1920-2.13797E-02 1.70974E-02-6.05915E-01
 -1      1921-2.45529E-02 1.31987E-02-6.09506E-01
 -1      1922 2.56788E-02-3.58832E-03-6.08607E-01
 -1      1923 2.43200E-02-8.29679E-03-6.11885E-01
 -1      1924 7.28716E-02 1.07261E-01-8.10105E-01
 -1      1925 7.31224E-02 1.09033E-01-8.13553E-01
 -1      1926 1.63443E-02 2.10833E-02-6.10021E-01
 -1      1927 1.19960E-02 2.37045E-02-6.13204E-01
 -1      1928-2.80891E-02-2.59929E-03-6.06061E-01
 -1      1929-2.70276E-02-7.61270E-03-6.09744E-01
 -1      1930 5.72338E-02 1.20224E-01-8.03505E-01
 -1      1931 3.60595E-02-5.17557E-04-7.41132E-01
 -1      1932 2.21501E-02 2.54883E-02-1.75108E-01
 -1      1933-3.40502E-02-1.19802E-02-1.75188E-01
 -1      1934 2.24716E-02 1.58656E-02-1.01438E-01
 -1      1935 1.27224E-02-3.10706E-02-1.81383E-01
 -1      1936 7.40291E-04 4.33422E-02-5.09507E-01
 -1      1937-3.21786E-02 1.68626E-02-1.73702E-01
 -1      1938-1.61095E-02-1.77934E-02-5.95368E-02
 -1      1939-1.14554E-02-1.79464E-02-7.98064E-02
 -1      1940-4.50229E-03-1.06521E-02-5.24097E-02
 -1      1941-1.99900E-02-1.37661E-02-7.73548E-02
 -1      1942-5.02755E-03-2.06645E-02-7.64831E-02
 -1      1943-5.57945E-04-2.37135E-02-6.46156E-02
 -1      1944 5.80989E-03-2.53297E-02-8.39820E-02
 -1      1945-1.46298E-02 3.09534E-02-1.88677E-01
 -1      1946 9.88050E-03-2.16907E-02-6.31010E-02
 -1      1947 1.34165E-02-1.98691E-02-8.58233E-02
 -1      1948-2.19418E-02-8.72696E-03-6.12155E-02
 -1      1949 1.39771E-02 3.30345E-02-1.72600E-01
 -1      1950-1.27310E-02-1.16271E-03-5.53838E-02
 -1      1951-1.73963E-02 3.70137E-03-7.21756E-02
 -1      1952-2.29131E-02-5.26821E-03-7.62557E-02
 -1      1953-1.16318E-02 3.81786E-03-5.23336E-02
 -1      1954-1.92306E-02 1.30843E-02-8.13569E-02
 -1      1955-1.21372E-02 1.35826E-02-5.59459E-02
 -1      1956 2.54967E-02-2.33190E-02-1.77806E-01
 -1      1957-1.01873E-02 1.56315E-02-8.72992E-02
 -1      1958-1.02706E-02 2.45887E-02-6.29093E-02
 -1      1959 6.15385E-03-2.04993E-02-6.65981E-02
 -1      1960-5.40148E-03 1.89743E-02-7.94245E-02
 -1      1961-3.90380E-02 1.00058E-02-1.71070E-01
 -1      1962 3.49378E-04 2.10473E-02-5.98730E-02
 -1      1963 6.25898E-03 1.91251E-02-8.41039E-02
 -1      1964-1.09183E-03-3.46405E-02-1.74564E-01
 -1      1965 7.66350E-03 1.47194E-02-5.78809E-02
 -1      1966-3.15209E-02-3.47047E-03-1.23545E-01
 -1      1967 1.09409E-02 1.70745E-02-8.54804E-02
 -1      1968 1.43296E-02 1.46784E-02-5.80834E-02
 -1      1969 1.62576E-02 1.18192E-02-7.60924E-02
 -1      1970 1.84825E-02 8.60780E-03-5.44461E-02
 -1      1971 1.15912E-02-1.44241E-02-6.13088E-02
 -1      1972 2.16295E-02-1.19879E-02-8.05432E-02
 -1      1973 1.38741E-02-7.24126E-03-5.94764E-02
 -1      1974 2.77536E-02-1.84112E-02-2.57820E-01
 -1      1975 2.07168E-02 3.18855E-03-7.90315E-02
 -1      1976 2.17314E-02-2.83397E-03-8.20196E-02
 -1      1977 1.30369E-02 2.18033E-03-5.96068E-02
 -1      1978-1.00798E-03-1.07055E-03-8.80210E-01
 -1      1979-7.08282E-03 1.85500E-02-5.88676E-02
 -1      1980 1.44866E-02 2.53189E-02-9.36211E-02
 -1      1981 4.37467E-02-1.11057E-02-3.27763E-01
 -1      1982-1.11547E-02 8.06508E-03-3.60597E-02
 -1      1983 1.86936E-02-1.23151E-02-7.72712E-02
 -1      1984 1.18012E-02-8.01184E-03-4.07348E-02
 -1      1985-8.11891E-04-1.81072E-02-5.43078E-02
 -1      1986 1.39378E-02-2.20383E-02-9.79225E-02
 -1      1987-2.42379E-02-5.55299E-03-8.81139E-02
 -1      1988 2.08641E-02 1.08466E-02-9.56675E-02
 -1      1989-2.06824E-02-4.05891E-03-9.10385E-02
 -1      1990 1.10672E-02 1.47745E-04-3.68205E-02
 -1      1991-2.40420E-02-3.90922E-02-3.33242E-01
 -1      1992-3.78682E-02-5.48425E-03-7.36122E-01
 -1      1993-2.29820E-02 2.75364E-02-1.33229E-01
 -1      1994 2.46379E-03-2.40604E-02-1.02738E-01
 -1      1995 1.83520E-02-1.04248E-02-9.98614E-02
 -1      1996-1.96728E-02-2.82381E-02-1.21391E-01
 -1      1997-1.34852E-02 2.02542E-02-7.69368E-02
 -1      1998-2.71960E-02 3.21012E-03-5.94273E-02
 -1      1999-2.54715E-02-8.25065E-03-1.00071E-01
 -1      2000 3.30844E-02 3.47095E-03-1.63526E-01
 -1      2001 1.51949E-03 3.04827E-02-1.79322E-01
 -1      2002-1.69156E-02 1.40675E-02-7.29906E-02
 -1      2003-1.28003E-04-8.66538E-03-3.68169E-02
 -1      2004-3.93732E-03-2.51675E-02-9.12467E-02
 -1      2005-8.18980E-03-6.14318E-04-3.90871E-02
 -1      2006 1.85468E-02 2.38770E-02-1.95275E-01
 -1      2007-2.34392E-02-2.55018E-03-5.10551E-02
 -1      2008 1.34267E-02-1.58721E-02-1.00462E-01
 -1      2009-8.39291E-03 2.76802E-02-1.04408E-01
 -1      2010-1.31329E-02 8.69470E-03-5.58279E-02
 -1      2011-2.46264E-02 1.13080E-02-7.35267E-02
 -1      2012 3.88569E-03-3.05306E-02-1.10169E-01
 -1      2013-2.39710E-02 9.77339E-03-9.92732E-02
 -1      2014 1.23543E-02-2.05961E-02-8.30666E-02
 -1      2015 2.41042E-02-3.48246E-02-5.66831E-01
 -1      2016-2.20683E-02-7.29981E-03-5.60271E-02
 -1      2017 7.01251E-03 2.37342E-02-6.57695E-02
 -1      2018 1.67723E-02 1.75336E-02-6.32627E-02
 -1      2019-1.22223E-02 1.34667E-02-3.68957E-02
 -1      2020 2.38497E-02-3.66175E-02-3.43221E-01
 -1      2021 6.01078E-03 9.71030E-03-3.34079E-02
 -1      2022 2.79275E-02 1.77419E-02-1.95202E-01
 -1      2023-3.31208E-02 6.51112E-03-3.10766E-01
 -1      2024 2.18990E-02 7.49328E-03-9.67434E-02
 -1      2025 1.99974E-02-7.04425E-03-9.81476E-02
 -1      2026-3.45466E-02-6.69438E-03-2.47615E-01
 -1      2027 1.67634E-02 2.68307E-02-3.15916E-01
 -1      2028-3.89717E-02 4.65091E-03-1.44872E-01
 -1      2029 4.65627E-03 3.04108E-02-1.95636E-01
 -1      2030 1.82309E-02-2.77183E-02-2.08433E-01
 -1      2031-1.18402E-02-4.17602E-02-3.01213E-01
 -1      2032-9.89982E-03-1.73477E-02-9.51997E-02
 -1      2033-1.49370E-02-2.51825E-02-1.93393E-01
 -1      2034 2.91269E-02 5.75171E-03-1.93419E-01
 -1      2035 2.44822E-02-1.97998E-02-1.65593E-01
 -1      2036-3.43963E-02-2.62878E-02-3.02360E-01
 -1      2037-2.48026E-02 6.36902E-03-9.15406E-02
 -1      2038-6.81838E-03 1.25804E-02-3.57916E-02
 -1      2039-2.18458E-02 1.75983E-02-1.03251E-01
 -1      2040-1.01395E-02 2.10610E-02-1.04978E-01
 -1      2041-3.06337E-02 3.15287E-02-5.21867E-01
 -1      2042-4.77946E-02 2.35540E-03-4.58902E-01
 -1      2043 3.24754E-02-6.47834E-03-1.07653E-01
 -1      2044-1.19774E-02 2.43734E-03-2.90607E-02
 -1      2045 1.09008E-02 4.74784E-03-3.45075E-02
 -1      2046 1.40769E-02-2.54680E-03-3.26439E-02
 -1      2047 2.75973E-02 1.80394E-02-3.20664E-01
 -1      2048 6.82366E-04 3.06709E-02-3.18145E-01
 -1      2049-1.88135E-02 2.28429E-02-3.19585E-01
 -1      2050 1.91454E-02-3.37862E-05-1.13887E-01
 -1      2051 5.30912E-03-3.12274E-02-2.06814E-01
 -1      2052-7.28784E-03 5.96795E-03-2.50778E-02
 -1      2053-5.92118E-03-3.08525E-02-1.95930E-01
 -1      2054 1.69348E-02 1.27688E-02-8.36156E-02
 -1      2055 5.53301E-03 9.40686E-03-4.10391E-02
 -1      2056 2.23676E-02 3.42821E-02-2.69851E-01
 -1      2057 1.68357E-02 3.07781E-02-1.70022E-01
 -1      2058-1.85792E-03 1.44653E-02-3.71787E-02
 -1      2059 2.72498E-02 2.60489E-02-1.59968E-01
 -1      2060 2.71927E-03-1.72724E-02-4.06442E-02
 -1      2061-1.83942E-02 9.81579E-03-1.04101E-01
 -1      2062 1.08599E-02-3.02277E-02-1.05361E-01
 -1      2063-1.16258E-02-3.86128E-02-6.63422E-01
 -1      2064-3.50562E-02-1.02461E-02-1.25127E-01
 -1      2065 1.09440E-02-1.49379E-02-5.15233E-02
 -1      2066-8.67112E-04 2.61719E-02-8.17278E-01
 -1      2067 1.55855E-02-1.05837E-02-3.70884E-02
 -1      2068 2.15324E-02-2.66491E-02-2.05654E-01
 -1      2069-5.78151E-03 2.98418E-02-2.02909E-01
 -1      2070 2.04866E-02 2.88407E-02-1.74934E-01
 -1      2071-1.92940E-02-1.53144E-02-9.61949E-02
 -1      2072-9.62327E-03-1.16223E-02-3.97669E-02
 -1      2073 9.15548E-03 6.12435E-04-2.70622E-02
 -1      2074 5.81410E-03-3.08605E-02-1.08207E-01
 -1      2075 5.04511E-03-1.72229E-02-4.05273E-02
 -1      2076-3.34266E-02 1.21921E-02-1.69101E-01
 -1      2077 5.67028E-03 1.20053E-02-3.79152E-02
 -1      2078-1.31113E-02 1.55965E-02-4.63676E-02
 -1      2079 9.58927E-03-3.83121E-03-3.27641E-02
 -1      2080-1.91384E-02-5.04579E-03-4.14725E-02
 -1      2081-4.60220E-02 4.72042E-03-3.01574E-01
 -1      2082 2.93721E-02-4.82775E-03-1.98073E-01
 -1      2083-1.19615E-02 7.32678E-03-3.52035E-02
 -1      2084 1.01569E-02-4.30219E-02-4.08618E-01
 -1      2085 4.05934E-02-1.85550E-02-5.61739E-01
 -1      2086 2.71598E-02 3.25090E-02-6.00863E-01
 -1      2087 4.60839E-04-1.05819E-02-8.63488E-01
 -1      2088 7.38234E-03-8.70388E-03-3.59327E-02
 -1      2089-3.83876E-03 1.52799E-02-3.66311E-02
 -1      2090-2.93559E-02 2.15932E-02-7.19110E-01
 -1      2091-1.31072E-02 4.19866E-03-8.56629E-01
 -1      2092 7.38413E-03-6.87707E-03-2.52220E-02
 -1      2093 2.77253E-02-2.18877E-02-7.31827E-01
 -1      2094-4.74162E-03 2.77863E-02-8.13467E-02
 -1      2095 4.78138E-03 1.85938E-02-1.07170E-01
 -1      2096 1.61604E-03 1.55361E-02-5.61267E-02
 -1      2097 9.78019E-03 4.19073E-02-3.23553E-01
 -1      2098-8.79204E-03 4.04812E-02-3.36955E-01
 -1      2099 7.20738E-03 1.48057E-02-4.99908E-02
 -1      2100-3.19094E-03 4.94840E-03-8.68343E-01
 -1      2101 2.20766E-02-6.49452E-03-6.28208E-02
 -1      2102 5.91284E-03-2.92970E-03-8.68983E-01
 -1      2103 2.23111E-02-7.41067E-03-6.54328E-02
 -1      2104 3.75675E-02-1.06232E-02-1.90296E-01
 -1      2105-2.68764E-02-3.26086E-02-2.61823E-01
 -1      2106 1.55824E-02 1.48557E-02-9.64568E-02
 -1      2107-1.00639E-02 7.48926E-03-2.71005E-02
 -1      2108-1.62314E-02 2.01694E-02-8.60556E-02
 -1      2109-1.31572E-02-1.93642E-03-2.63066E-02
 -1      2110 1.13949E-02 2.79923E-03-3.90369E-02
 -1      2111-9.93258E-03-2.85501E-03-3.26395E-02
 -1      2112 1.77420E-02 2.17572E-03-4.99200E-02
 -1      2113-4.54684E-02 7.79703E-04-2.25625E-01
 -1      2114-1.05781E-02-8.68269E-03-3.59919E-02
 -1      2115-1.61478E-02 3.93296E-02-5.08303E-01
 -1      2116-2.28756E-02-2.57221E-02-7.77441E-01
 -1      2117-3.28556E-03-4.38961E-02-3.37483E-01
 -1      2118 3.81609E-02-2.40681E-02-3.44400E-01
 -1      2119 1.28350E-02 1.40984E-03-2.49445E-02
 -1      2120-1.54222E-02-9.94194E-04-4.41372E-02
 -1      2121 3.29425E-03 7.17655E-03-8.72561E-01
 -1      2122 1.82770E-03 1.38602E-02-3.84346E-02
 -1      2123 7.77411E-03-3.30746E-02-1.43698E-01
 -1      2124-4.35099E-02-5.15158E-03-2.15237E-01
 -1      2125-4.28022E-02 1.92514E-02-4.08529E-01
 -1      2126 1.66938E-02-8.41705E-04-5.26064E-02
 -1      2127-5.53007E-03-3.39762E-02-7.80802E-01
 -1      2128-2.52073E-02 1.93128E-02-1.14678E-01
 -1      2129 1.52319E-03-1.01374E-02-2.37742E-02
 -1      2130-3.21878E-02 3.05101E-02-3.14905E-01
 -1      2131-4.16142E-02 1.29234E-02-6.16447E-01
 -1      2132-1.10892E-02 1.38828E-02-4.46925E-02
 -1      2133-3.71247E-02 2.69118E-02-4.32527E-01
 -1      2134-3.93631E-02 2.02095E-02-5.48139E-01
 -1      2135-3.15444E-02 3.26433E-02-4.17377E-01
 -1      2136-2.09294E-02 2.19695E-02-8.11509E-01
 -1      2137 8.33764E-03-4.20267E-02-5.95462E-01
 -1      2138 1.19576E-02 3.74864E-02-1.82331E-01
 -1      2139 2.41125E-02 2.36988E-02-7.71779E-01
 -1      2140-3.87616E-02 2.35279E-02-3.11433E-01
 -1      2141 2.26190E-02-3.30553E-02-2.50478E-01
 -1      2142-2.52018E-02-2.37926E-02-1.38146E-01
 -1      2143 1.45615E-02-1.89576E-03-3.75125E-02
 -1      2144-4.57114E-02 9.85576E-03-4.04645E-01
 -1      2145-1.62269E-02-4.26232E-02-4.83792E-01
 -1      2146 4.42299E-02 5.04411E-03-4.73926E-01
 -1      2147 1.54240E-02 2.18027E-02-1.33183E-01
 -1      2148-3.09060E-02-3.24763E-02-5.78422E-01
 -1      2149-1.92828E-02 3.15250E-02-1.76368E-01
 -1      2150-1.25932E-02-4.56430E-03-4.26517E-02
 -1      2151-4.38109E-02 4.66856E-03-2.17898E-01
 -1      2152-4.30224E-02 1.07929E-02-2.80019E-01
 -1      2153 1.10018E-02-1.75835E-02-3.44304E-02
 -1      2154-3.93362E-03-9.94946E-03-3.35582E-02
 -1      2155 1.36154E-02-2.71868E-02-1.07846E-01
 -1      2156 1.94014E-02 3.56798E-02-2.60382E-01
 -1      2157 8.69947E-03 1.09564E-02-3.48764E-02
 -1      2158-1.38735E-03-1.24550E-02-3.34828E-02
 -1      2159 1.53056E-02-5.50082E-03-3.54056E-02
 -1      2160-4.37426E-02 1.50501E-02-3.47102E-01
 -1      2161 1.28159E-02 4.05243E-02-2.64954E-01
 -1      2162-1.20193E-02-2.91926E-02-1.44766E-01
 -1      2163 7.48983E-03-2.79705E-05-2.41230E-02
 -1      2164-5.32760E-03-7.94579E-03-3.22774E-02
 -1      2165-4.36868E-03-2.16965E-02-1.02908E-01
 -1      2166-2.77280E-02 7.70904E-03-8.71376E-02
 -1      2167-2.01469E-02-1.99280E-02-1.06297E-01
 -1      2168-4.73730E-02-3.12595E-03-3.52694E-01
 -1      2169-1.14972E-02-1.26612E-02-3.94190E-02
 -1      2170-2.68038E-02-1.76364E-02-1.93564E-01
 -1      2171-1.66094E-02 3.48774E-02-6.42408E-01
 -1      2172-1.35368E-02 2.06422E-02-1.79038E-01
 -1      2173 1.09880E-02 5.67381E-03-3.89142E-02
 -1      2174 5.49542E-03 8.72306E-03-3.01885E-02
 -1      2175 3.19424E-02 1.78804E-04-1.43679E-01
 -1      2176-5.41206E-03 7.32788E-03-2.13330E-02
 -1      2177-1.79752E-02-6.69935E-03-7.17341E-02
 -1      2178 1.30597E-02 3.06440E-03-3.06653E-02
 -1      2179-1.68281E-02-4.09194E-02-2.63442E-01
 -1      2180 2.48391E-03 1.44860E-02-3.44095E-02
 -1      2181 9.27121E-03 1.03875E-02-2.89705E-02
 -1      2182-1.29876E-02-3.72450E-02-1.81191E-01
 -1      2183 8.48965E-03 7.11278E-03-2.98203E-02
 -1      2184 2.51280E-02 1.91775E-03-9.04772E-02
 -1      2185-3.26191E-02 1.21779E-02-7.79873E-01
 -1      2186 4.49027E-02-1.84834E-03-3.20941E-01
 -1      2187-4.35689E-02-1.68855E-02-4.76131E-01
 -1      2188-4.45276E-02-2.37525E-03-5.89251E-01
 -1      2189-1.97103E-02 3.70441E-02-3.53787E-01
 -1      2190-3.19167E-02-9.67921E-04-8.10507E-01
 -1      2191 1.76633E-02 4.06186E-02-4.85435E-01
 -1      2192-1.98748E-03 3.77986E-02-6.76846E-01
 -1      2193-1.13211E-02 6.43464E-03-2.99152E-02
 -1      2194-4.69148E-02-8.26879E-03-4.67523E-01
 -1      2195-2.09768E-02-3.45493E-02-2.06570E-01
 -1      2196-2.67879E-02-2.86673E-02-1.81346E-01
 -1      2197 3.74153E-02 1.77105E-02-2.70286E-01
 -1      2198-5.22180E-03 8.72327E-04-2.74367E-02
 -1      2199-1.76630E-02-2.59686E-02-3.13378E-01
 -1      2200-6.58330E-03-3.65945E-02-1.99859E-01
 -1      2201-4.50328E-04-1.17839E-02-3.15500E-02
 -1      2202-3.83135E-02-1.80868E-02-6.37280E-01
 -1      2203 9.12300E-03 4.10608E-02-5.96116E-01
 -1      2204 5.47970E-03 6.23135E-03-2.56410E-02
 -1      2205-2.14729E-02 3.70441E-02-4.65443E-01
 -1      2206 2.12685E-02-8.71084E-04-1.07188E-01
 -1      2207-5.27905E-03-1.44634E-02-3.92080E-02
 -1      2208 2.80527E-02-7.14464E-04-7.66870E-02
 -1      2209-4.34498E-03-3.96191E-02-2.51333E-01
 -1      2210-1.32798E-02-1.69451E-02-1.01276E-01
 -1      2211-1.38207E-02-8.81457E-03-8.45371E-01
 -1      2212 3.61490E-02-2.77713E-03-1.33139E-01
 -1      2213-1.48072E-02 3.25873E-02-7.41830E-01
 -1      2214 1.75269E-02-1.66554E-02-1.09848E-01
 -1      2215-1.02980E-02-2.70467E-02-9.89634E-02
 -1      2216-2.38928E-02 2.63119E-03-9.49287E-02
 -1      2217 1.87570E-02 2.11740E-02-1.09341E-01
 -1      2218-7.29398E-03 3.38016E-02-1.96189E-01
 -1      2219-2.32425E-02 1.49783E-02-1.94630E-01
 -1      2220-3.67197E-02-2.51576E-02-5.38862E-01
 -1      2221-1.75546E-02 3.88465E-02-4.23646E-01
 -1      2222-4.27268E-02-1.43024E-02-5.68007E-01
 -1      2223-4.04824E-02 1.52927E-02-2.55483E-01
 -1      2224-2.35622E-02-2.70407E-03-6.59393E-02
 -1      2225 3.10951E-02-1.58391E-02-1.43480E-01
 -1      2226-4.43260E-02-1.27560E-02-3.23619E-01
 -1      2227-8.39993E-03 8.73821E-03-3.09454E-02
 -1      2228 1.76834E-02-3.67629E-03-8.40270E-01
 -1      2229-3.86728E-02-2.51519E-02-4.15364E-01
 -1      2230-1.76432E-03 9.01893E-03-2.81754E-02
 -1      2231-9.97243E-03 4.15997E-02-4.34108E-01
 -1      2232 3.21594E-03-3.11269E-02-1.13665E-01
 -1      2233-2.66944E-03 1.03523E-02-8.61640E-01
 -1      2234 1.93149E-02-1.92632E-02-1.16532E-01
 -1      2235 3.66130E-03 2.47692E-02-1.11573E-01
 -1      2236-1.64284E-02-3.35176E-02-7.32675E-01
 -1      2237-2.70645E-02 5.58595E-03-1.67770E-01
 -1      2238-1.42737E-02-2.22249E-02-5.23387E-02
 -1      2239 1.55554E-02 2.83155E-03-8.10613E-02
 -1      2240 2.96129E-02-1.89294E-02-1.75087E-01
 -1      2241-1.76713E-02-1.47079E-02-7.60090E-02
 -1      2242 1.18720E-02 3.46040E-02-7.37411E-01
 -1      2243-7.24174E-03 4.05411E-02-5.81020E-01
 -1      2244 2.54946E-02 3.71817E-02-4.39909E-01
 -1      2245 1.91388E-02 4.09607E-02-3.69793E-01
 -1      2246 9.70908E-03 4.32167E-02-4.44006E-01
 -1      2247-2.60186E-02 3.36947E-02-2.79542E-01
 -1      2248-1.11555E-02 3.71679E-02-2.95174E-01
 -1      2249 4.22757E-02 2.72735E-03-2.36406E-01
 -1      2250-2.70156E-03 3.40906E-02-7.51719E-01
 -1      2251 4.66978E-03-3.94172E-02-2.57477E-01
 -1      2252 7.63054E-03 3.16899E-02-1.14274E-01
 -1      2253-8.91545E-04 1.51735E-02-2.88992E-02
 -1      2254-1.72116E-02-4.31542E-02-3.72988E-01
 -1      2255 1.23290E-02 5.70250E-03-3.77116E-02
 -1      2256 2.18230E-02 4.09567E-03-9.86782E-02
 -1      2257-1.74802E-02-3.71712E-02-6.34122E-01
 -1      2258-3.25753E-02-3.35315E-02-4.51890E-01
 -1      2259-2.76197E-02-1.84966E-02-3.06000E-01
 -1      2260 8.11895E-04 2.76869E-02-1.17492E-01
 -1      2261 4.83637E-03 1.06164E-02-3.29577E-02
 -1      2262-4.34354E-03-2.92213E-02-1.03681E-01
 -1      2263-1.62336E-02-4.11470E-02-5.79404E-01
 -1      2264-2.80129E-02-2.77146E-02-6.83200E-01
 -1      2265 4.26583E-02-6.22192E-03-2.44691E-01
 -1      2266 9.93502E-03-1.55922E-02-3.78574E-02
 -1      2267 3.15987E-02-2.91489E-02-3.20583E-01
 -1      2268-4.80485E-02-2.22304E-04-4.38957E-01
 -1      2269 3.83014E-02 2.09800E-02-4.88792E-01
 -1      2270 1.62299E-02-4.14087E-02-4.47076E-01
 -1      2271 1.88467E-02-2.33816E-02-8.17382E-01
 -1      2272 4.15163E-02-1.82305E-02-2.96122E-01
 -1      2273-3.39210E-02-4.45147E-03-1.16123E-01
 -1      2274-3.29352E-02-1.71865E-02-7.36347E-01
 -1      2275-3.93410E-02-1.01890E-02-6.58131E-01
 -1      2276 4.09631E-02-2.98064E-03-2.04152E-01
 -1      2277 8.75285E-03 2.63120E-02-7.75352E-02
 -1      2278 1.22092E-02-4.01530E-02-3.12383E-01
 -1      2279 1.45031E-02 1.87350E-02-1.10859E-01
 -1      2280 1.54915E-03 4.18965E-02-3.23640E-01
 -1      2281 2.92543E-02 7.68582E-03-8.03211E-01
 -1      2282-1.27670E-02 3.49740E-02-6.66326E-01
 -1      2283-2.55678E-02 3.58291E-02-3.76335E-01
 -1      2284 4.14028E-03-3.90496E-02-6.96052E-01
 -1      2285 2.57158E-02-2.86865E-02-2.46185E-01
 -1      2286 2.29571E-02 3.36197E-02-2.54373E-01
 -1      2287 3.31792E-03-1.12659E-02-3.07945E-02
 -1      2288 5.24980E-03 6.19419E-03-2.69378E-02
 -1      2289-2.32959E-02 2.42473E-02-1.58533E-01
 -1      2290 1.26651E-02 2.49996E-02-8.08580E-01
 -1      2291-1.82861E-02 3.77480E-02-5.57001E-01
 -1      2292-4.12866E-02 2.42155E-03-6.61264E-01
 -1      2293 1.82110E-02 3.94335E-02-5.80831E-01
 -1      2294-4.69924E-02 3.24453E-03-3.66205E-01
 -1      2295-2.66214E-02 3.12504E-02-5.93524E-01
 -1      2296 3.06608E-02-2.53705E-02-2.45607E-01
 -1      2297-4.05972E-03-3.26849E-03-8.76989E-01
 -1      2298-3.19605E-02-2.15938E-02-1.83826E-01
 -1      2299-1.89424E-02-2.69055E-02-1.19468E-01
 -1      2300-3.07498E-02-2.95363E-02-2.50216E-01
 -1      2301 1.34266E-02-4.15424E-02-5.04046E-01
 -1      2302-2.48327E-03-1.05232E-02-2.31786E-02
 -1      2303-8.05232E-03-5.11473E-03-2.68945E-02
 -1      2304 4.28140E-02-1.96464E-03-5.88997E-01
 -1      2305-6.22300E-03-1.48400E-02-4.52396E-02
 -1      2306-3.15296E-03-4.46499E-02-4.97036E-01
 -1      2307-3.15624E-02-2.86400E-02-6.15975E-01
 -1      2308-4.36897E-02 1.45009E-02-5.13656E-01
 -1      2309 2.75049E-02 1.19042E-02-1.38581E-01
 -1      2310-4.61183E-02-1.79801E-03-2.60891E-01
 -1      2311 3.32758E-02 1.90965E-02-1.97585E-01
 -1      2312 1.55782E-02-3.29212E-02-1.54029E-01
 -1      2313 9.91603E-03-3.87948E-02-2.26950E-01
 -1      2314 8.17386E-03 4.01537E-02-2.32401E-01
 -1      2315-3.75704E-02 1.65162E-02-6.42124E-01
 -1      2316-3.96992E-02 2.30917E-02-4.70416E-01
 -1      2317-1.61859E-02 1.81432E-02-1.14212E-01
 -1      2318 2.68685E-02 3.50163E-02-3.45911E-01
 -1      2319-2.38576E-02 2.64783E-02-7.48347E-01
 -1      2320-3.49429E-02 2.76668E-02-5.19061E-01
 -1      2321 1.30796E-03-4.51099E-02-4.23554E-01
 -1      2322-2.85655E-02-3.55917E-02-3.71450E-01
 -1      2323-4.51627E-03-8.35337E-03-8.60505E-01
 -1      2324 2.76950E-02-1.33910E-02-8.92913E-02
 -1      2325 3.47050E-02-2.93231E-02-4.86431E-01
 -1      2326-4.21989E-02-1.12161E-02-2.18051E-01
 -1      2327-2.42484E-02 1.90849E-02-3.13124E-01
 -1      2328-3.17473E-02-8.49897E-03-1.62443E-01
 -1      2329-2.34004E-02-3.88395E-02-5.19714E-01
 -1      2330 1.08898E-02-1.11919E-02-3.46203E-02
 -1      2331 9.66912E-03-3.31738E-02-7.70170E-01
 -1      2332 2.95336E-02-1.42194E-02-7.86507E-01
 -1      2333-3.72589E-02 1.28672E-02-7.00328E-01
 -1      2334-1.99001E-02-4.17937E-02-4.26774E-01
 -1      2335-4.23658E-03 2.88692E-02-1.36646E-01
 -1      2336 2.27417E-02-2.11610E-02-1.05109E-01
 -1      2337 2.99184E-02-4.53782E-03-3.18412E-01
 -1      2338 9.23460E-03 2.67040E-02-1.11916E-01
 -1      2339 1.80409E-02-2.83409E-02-3.19944E-01
 -1      2340-8.08497E-03 1.50659E-02-3.66754E-02
 -1      2341-1.23624E-02 2.87140E-02-1.03163E-01
 -1      2342 2.98321E-02 6.25698E-03-3.08729E-01
 -1      2343-2.78300E-02-9.61511E-03-9.58438E-02
 -1      2344-1.36071E-02-2.68642E-03-2.91874E-02
 -1      2345 1.00550E-02-2.95136E-03-2.37262E-02
 -1      2346 1.34562E-02-4.14203E-02-3.93902E-01
 -1      2347 2.95501E-03-2.65052E-02-8.24675E-01
 -1      2348 4.29704E-03-2.97052E-02-3.23416E-01
 -1      2349-6.75396E-03-3.02171E-02-3.16429E-01
 -1      2350 6.98731E-04 1.32846E-02-3.23688E-02
 -1      2351-9.55670E-03 2.93146E-02-1.39665E-01
 -1      2352-6.03379E-03 2.33732E-02-8.66901E-02
 -1      2353-4.50786E-02 3.91765E-03-5.79637E-01
 -1      2354-3.29108E-02-3.26352E-02-3.62734E-01
 -1      2355 3.64928E-02-1.46775E-02-6.79155E-01
 -1      2356-2.57705E-03 1.09929E-02-2.89516E-02
 -1      2357 5.65738E-03-6.24366E-03-2.76800E-02
 -1      2358-5.70277E-03 3.89384E-02-2.48088E-01
 -1      2359 3.84306E-02-1.66792E-02-2.03375E-01
 -1      2360 6.48743E-03 5.43272E-03-8.66131E-01
 -1      2361 4.51991E-02-6.79410E-03-4.49808E-01
 -1      2362 7.91704E-03 1.72645E-02-1.06830E-01
 -1      2363 2.90649E-03-1.50732E-02-3.65054E-02
 -1      2364 3.11312E-02-2.77075E-02-6.13285E-01
 -1      2365 4.42908E-02 5.29981E-03-3.54025E-01
 -1      2366-7.49890E-03 3.07097E-02-3.11492E-01
 -1      2367-4.30526E-02-1.84538E-02-3.71277E-01
 -1      2368 4.17138E-02-1.81203E-02-4.48329E-01
 -1      2369-3.74388E-04-8.50495E-03-8.58993E-01
 -1      2370 4.20245E-02 1.50206E-02-3.98605E-01
 -1      2371 4.01849E-02 9.17601E-03-2.72517E-01
 -1      2372-2.81488E-03-1.37762E-02-3.07801E-02
 -1      2373-2.31406E-02-1.26715E-02-1.00600E-01
 -1      2374-3.76068E-02-2.21536E-02-3.11002E-01
 -1      2375-3.99288E-02-1.75479E-02-2.70982E-01
 -1      2376 4.17709E-02-2.07345E-02-3.90544E-01
 -1      2377-3.80473E-03 1.30395E-02-2.76593E-02
 -1      2378 4.54571E-02-6.66923E-03-3.55019E-01
 -1      2379 4.50601E-02-6.54752E-04-5.08885E-01
 -1      2380 3.74842E-02 2.23218E-02-3.76467E-01
 -1      2381 1.72595E-02-4.01385E-02-3.61619E-01
 -1      2382 1.03900E-02-3.96012E-03-3.39565E-02
 -1      2383-4.56265E-02-1.17248E-02-4.15747E-01
 -1      2384-1.60027E-03-4.25965E-02-6.13266E-01
 -1      2385 2.32514E-02 3.81237E-02-3.64196E-01
 -1      2386 2.16238E-03-8.77229E-03-2.22313E-02
 -1      2387 4.62655E-03-4.41630E-02-5.04435E-01
 -1      2388-3.32797E-02 2.41720E-02-2.37481E-01
 -1      2389 9.92995E-03-4.06578E-02-2.92806E-01
 -1      2390 7.54300E-03 4.28773E-02-3.75133E-01
 -1      2391 4.08488E-02-1.40917E-02-6.01721E-01
 -1      2392 2.35499E-02 3.03765E-02-6.94711E-01
 -1      2393 1.19537E-02 4.20367E-02-5.19667E-01
 -1      2394 6.84356E-03 3.77501E-02-6.74518E-01
 -1      2395 3.82280E-02 1.27060E-02-6.21517E-01
 -1      2396-1.91583E-02 2.04059E-02-2.08127E-01
 -1      2397 2.17819E-02 3.87226E-02-5.01924E-01
 -1      2398-1.96551E-02 3.35333E-02-2.56604E-01
 -1      2399-2.45899E-02-3.20378E-02-1.99827E-01
 -1      2400 4.69106E-03 8.13297E-03-2.97052E-02
 -1      2401-9.95948E-03-1.13341E-02-3.51658E-02
 -1      2402-1.34513E-02-2.50888E-02-8.23424E-01
 -1      2403 3.51434E-02 2.22153E-02-2.87455E-01
 -1      2404 3.47125E-02 1.38142E-02-2.07845E-01
 -1      2405-8.24687E-03-4.51905E-02-4.14699E-01
 -1      2406-1.03296E-02-4.34977E-02-5.31870E-01
 -1      2407-3.91459E-02 2.06516E-02-2.37185E-01
 -1      2408-4.57992E-02-7.50404E-03-3.06249E-01
 -1      2409 4.09113E-02 1.46020E-02-5.12756E-01
 -1      2410 1.00384E-02 3.13554E-02-1.30383E-01
 -1      2411 2.62678E-02-3.61338E-02-4.59270E-01
 -1      2412 1.67889E-02-3.46415E-02-6.81864E-01
 -1      2413-3.08939E-02 3.08638E-03-2.28207E-01
 -1      2414 4.57884E-02 8.74871E-04-4.08110E-01
 -1      2415-8.63730E-03-5.81005E-03-2.98372E-02
 -1      2416 4.25863E-02 4.12146E-03-5.76104E-01
 -1      2417-5.27205E-03 4.25268E-02-4.97621E-01
 -1      2418 3.84808E-02-9.03549E-03-1.89629E-01
 -1      2419 3.19653E-02-3.17864E-02-4.15737E-01
 -1      2420-2.52989E-02 2.77037E-02-6.79332E-01
 -1      2421 3.04634E-02 3.16565E-02-5.07130E-01
 -1      2422-6.53754E-04 4.42721E-02-4.18588E-01
 -1      2423 1.00806E-02-9.41026E-03-2.91918E-02
 -1      2424 3.22585E-02 2.77631E-02-2.72021E-01
 -1      2425 3.06484E-02 3.33779E-02-4.12087E-01
 -1      2426-2.72667E-02 3.06842E-02-2.38023E-01
 -1      2427 1.11725E-02 1.06504E-02-8.45615E-01
 -1      2428 3.25229E-02 2.44426E-02-6.10552E-01
 -1      2429 1.93317E-02-2.96327E-02-7.43880E-01
 -1      2430-1.33826E-02-2.84095E-03-2.49785E-02
 -1      2431 3.78596E-02 2.23655E-03-6.63289E-01
 -1      2432 8.77708E-03 3.59085E-03-2.23299E-02
 -1      2433-8.78149E-03-1.61518E-02-3.49437E-02
 -1      2434 1.87370E-02 7.85317E-03-6.92046E-02
 -1      2435 2.61804E-02 3.53802E-02-5.13816E-01
 -1      2436-3.30467E-02 2.65540E-02-6.00071E-01
 -1      2437 1.59161E-02-3.89048E-02-6.00245E-01
 -1      2438-5.01900E-03 5.06501E-03-2.68798E-02
 -1      2439-2.76314E-02-3.72859E-02-4.57270E-01
 -1      2440 3.45332E-02 1.31306E-02-7.17651E-01
 -1      2441 3.34832E-02 2.77602E-02-3.67803E-01
 -1      2442 3.70285E-02-1.81407E-02-6.34448E-01
 -1      2443 3.59095E-02-2.05719E-02-2.40928E-01
 -1      2444 3.61151E-02-2.41870E-02-5.49427E-01
 -1      2445-3.16661E-02-6.21022E-03-3.34258E-01
 -1      2446 3.24698E-03 1.11156E-02-2.64123E-02
 -1      2447 4.06700E-02-2.00115E-02-4.80374E-01
 -1      2448 5.14703E-03-3.65745E-02-2.00841E-01
 -1      2449 4.28092E-02-1.14693E-02-5.18645E-01
 -1      2450 1.60498E-02 3.62599E-02-6.59356E-01
 -1      2451 1.17358E-02-3.63228E-02-7.00644E-01
 -1      2452 3.59862E-02-2.73499E-02-3.81923E-01
 -1      2453 2.90004E-02 2.36552E-02-6.94552E-01
 -1      2454 3.83261E-02-4.21971E-03-6.79887E-01
 -1      2455 3.03441E-03 8.27064E-03-2.42584E-02
 -1      2456-1.07118E-02 2.91837E-02-7.97612E-01
 -1      2457 1.84941E-02-3.61800E-02-6.20412E-01
 -1      2458 6.43209E-02 6.66943E-02-8.23811E-01
 -1      2459-5.00795E-03-2.61147E-02-8.22394E-01
 -1      2460 3.43526E-02 8.47472E-02-8.24586E-01
 -1      2461 2.74995E-03 1.26899E-02-8.50288E-01
 -1      2462-2.76695E-02-1.63948E-02-7.98622E-01
 -1      2463 7.51773E-02 8.31531E-02-8.19372E-01
 -1      2464 5.06411E-03 3.19778E-02-7.85894E-01
 -1      2465 1.99640E-02-1.33762E-02-8.25847E-01
 -1      2466-9.91057E-03 8.03943E-04-8.66868E-01
 -1      2467 7.18157E-03-2.89336E-03-8.69863E-01
 -1      2468-1.04382E-02 2.10229E-02-8.32299E-01
 -1      2469-2.45391E-02 6.49421E-03-8.21267E-01
 -1      2470 3.83228E-02 3.76810E-02-8.28287E-01
 -1      2471 6.88509E-02-6.87950E-02-8.23326E-01
 -1      2472-3.83624E-02-2.11563E-02-5.89385E-01
 -1      2473-1.93621E-02-2.06434E-02-8.18099E-01
 -1      2474 1.91627E-02 2.07694E-02-8.10957E-01
 -1      2475 2.18100E-02-5.42375E-02-8.26517E-01
 -1      2476-9.14336E-02 3.74775E-02-8.19666E-01
 -1      2477 6.69058E-02 5.48197E-02-8.26344E-01
 -1      2478 1.06557E-02-2.67465E-02-8.05948E-01
 -1      2479-8.63259E-02-3.64286E-02-8.21575E-01
 -1      2480 5.55534E-02 5.70278E-02-7.56150E-01
 -1      2481-6.61524E-02-6.33473E-02-8.19089E-01
 -1      2482 2.77675E-02 2.43221E-02-8.28265E-01
 -1      2483 5.68784E-03 2.27645E-02-8.19298E-01
 -1      2484 4.04283E-02-4.12629E-02-8.28702E-01
 -1      2485-4.22851E-02-8.72047E-03-6.05327E-01
 -1      2486 4.00695E-02 3.30989E-02-8.27587E-01
 -1      2487 5.92535E-02 6.12224E-02-7.76503E-01
 -1      2488 2.93368E-02 7.32918E-02-7.66691E-01
 -1      2489 7.11064E-02 9.30221E-02-8.18942E-01
 -1      2490 9.19464E-02 1.41126E-03-8.25063E-01
 -1      2491 7.75290E-02 3.45659E-02-8.23886E-01
 -1      2492 9.93835E-02 4.40953E-02-8.19340E-01
 -1      2493 1.53093E-02 3.00916E-03-8.43594E-01
 -1      2494 2.26761E-02 1.51533E-02-8.16336E-01
 -1      2495-3.29344E-02-2.14128E-02-6.87404E-01
 -1      2496 7.99176E-02 7.25582E-02-8.20245E-01
 -1      2497-1.37220E-03-9.18697E-02-8.21719E-01
 -1      2498 2.50548E-02 5.73886E-02-8.28704E-01
 -1      2499 1.44641E-02 4.25243E-02-8.30000E-01
 -1      2500-2.51541E-02 1.38904E-02-8.08229E-01
 -1      2501 8.35178E-02-7.42282E-02-8.18949E-01
 -1      2502-6.77443E-02 6.62706E-02-8.22246E-01
 -1      2503-6.54033E-03 2.46065E-02-8.20132E-01
 -1      2504-3.57412E-02-2.31767E-02-6.27005E-01
 -1      2505-4.91883E-02 1.98561E-02-8.25297E-01
 -1      2506 2.19875E-02 3.68406E-02-5.61696E-01
 -1      2507 5.00738E-02 1.54262E-03-8.28769E-01
 -1      2508 6.40598E-03-3.97856E-02-6.54875E-01
 -1      2509-1.62600E-02-3.94481E-03-8.46685E-01
 -1      2510 5.11769E-02 2.38055E-02-8.28093E-01
 -1      2511 1.14521E-02-3.79460E-02-8.27037E-01
 -1      2512 5.43070E-03 2.46706E-02-6.67351E-01
 -1      2513-7.63071E-03-4.22367E-02-5.98570E-01
 -1      2514-1.14454E-02 1.00916E-02-8.46786E-01
 -1      2515 2.76288E-02-2.92461E-02-6.49622E-01
 -1      2516-9.23377E-02-8.17303E-04-8.21230E-01
 -1      2517 8.38048E-02-3.34011E-02-8.26129E-01
 -1      2518 3.48590E-02-1.41150E-03-8.29078E-01
 -1      2519-6.90366E-02-5.44335E-02-8.20396E-01
 -1      2520 4.91062E-03 7.15361E-03-8.57523E-01
 -1      2521-4.31866E-02 4.72641E-03-6.26505E-01
 -1      2522 3.74943E-02 3.79883E-02-7.91274E-01
 -1      2523 8.32717E-02 4.48436E-02-8.23501E-01
 -1      2524 2.52634E-02 4.10471E-03-6.68386E-01
 -1      2525 2.81607E-02 2.16865E-03-8.13597E-01
 -1      2526-6.09319E-02 2.40319E-02-7.82448E-01
 -1      2527-4.49163E-02-4.54439E-02-8.23109E-01
 -1      2528-4.44557E-03 3.92981E-02-6.35551E-01
 -1      2529-3.35774E-02 1.53700E-02-8.25348E-01
 -1      2530-2.95695E-02-3.16014E-02-8.24585E-01
 -1      2531 5.76873E-02-5.21300E-02-8.25113E-01
 -1      2532-6.05639E-02 2.38081E-02-7.82898E-01
 -1      2533-8.16276E-02-6.40450E-02-8.15345E-01
 -1      2534 1.08511E-01 3.61156E-02-8.18071E-01
 -1      2535-4.81822E-02 2.43839E-02-8.26138E-01
 -1      2536-7.40783E-02 2.62547E-02-8.23924E-01
 -1      2537 1.47665E-03 3.98850E-02-6.27045E-01
 -1      2538 8.44487E-02-2.34395E-02-8.24851E-01
 -1      2539-5.76694E-03 3.64667E-02-6.78520E-01
 -1      2540 2.93972E-02-7.36651E-02-7.67826E-01
 -1      2541 6.69371E-02 2.30220E-02-8.26695E-01
 -1      2542-3.88967E-02 8.40158E-02-8.24031E-01
 -1      2543 6.59833E-02 2.96975E-02-8.25994E-01
 -1      2544-1.44034E-02 3.77390E-02-6.09256E-01
 -1      2545 5.18410E-02 4.42431E-02-8.26940E-01
 -1      2546 5.52910E-02 5.38257E-02-7.98299E-01
 -1      2547-5.69573E-02-5.69968E-02-7.51033E-01
 -1      2548 3.47728E-02 2.68090E-02-8.27716E-01
 -1      2549 3.67667E-02 9.28610E-03-6.75221E-01
 -1      2550 1.02950E-01-4.32972E-02-8.19510E-01
 -1      2551-5.29788E-03-1.12454E-01-8.16548E-01
 -1      2552-2.14482E-02-3.23660E-02-6.93507E-01
 -1      2553-2.43802E-02-3.64697E-02-5.80968E-01
 -1      2554 8.66210E-02 9.86658E-03-8.25467E-01
 -1      2555 7.35547E-02 6.55794E-02-8.23515E-01
 -1      2556 1.32378E-02 3.78234E-02-6.35788E-01
 -1      2557-3.53211E-03-6.39067E-02-8.25071E-01
 -1      2558 9.08991E-02 9.22083E-02-7.84756E-01
 -1      2559 3.40791E-02-8.55287E-02-8.23197E-01
 -1      2560 3.89508E-02-1.20615E-02-6.49319E-01
 -1      2561 5.04321E-02 3.84445E-02-8.27715E-01
 -1      2562 5.63885E-02-5.62372E-02-7.56128E-01
 -1      2563-2.71951E-02 5.98001E-02-8.26432E-01
 -1      2564-1.84422E-02 3.61154E-02-5.99920E-01
 -1      2565-3.36752E-02 1.86275E-02-6.95212E-01
 -1      2566 7.17567E-02-2.23205E-03-8.27193E-01
 -1      2567 1.00321E-01 1.06963E-02-8.22385E-01
 -1      2568 7.90289E-02 1.25024E-03-7.68512E-01
 -1      2569 6.72362E-02 4.97255E-03-8.27994E-01
 -1      2570 2.73772E-02-3.28436E-02-8.29502E-01
 -1      2571-3.79861E-02 3.60274E-02-8.27639E-01
 -1      2572-8.84507E-02-8.29591E-03-8.21613E-01
 -1      2573 3.06359E-02-6.83886E-02-8.25822E-01
 -1      2574-7.39255E-02-3.03675E-02-7.64260E-01
 -1      2575 5.59110E-02 3.18687E-02-8.26782E-01
 -1      2576-6.48248E-02 2.65393E-03-8.24347E-01
 -1      2577 2.01236E-02 4.05411E-02-4.29444E-01
 -1      2578 4.09373E-02-6.02679E-03-6.13786E-01
 -1      2579 2.00938E-02 3.53724E-02-6.42786E-01
 -1      2580-5.88417E-03-2.52578E-02-6.64851E-01
 -1      2581 4.03029E-02 4.65266E-03-6.23104E-01
 -1      2582-1.29607E-02 2.23321E-02-6.68512E-01
 -1      2583-1.13282E-01 5.74537E-03-8.18364E-01
 -1      2584 3.41005E-02 1.63197E-02-6.62089E-01
 -1      2585-1.95887E-02 3.09232E-02-7.03678E-01
 -1      2586-2.16747E-02 3.13185E-02-6.72450E-01
 -1      2587 6.95886E-02 3.78689E-02-8.25093E-01
 -1      2588 3.60454E-02 3.04633E-03-8.28559E-01
 -1      2589-3.79919E-02 1.92176E-02-5.97323E-01
 -1      2590 8.66736E-02-4.43816E-02-8.23233E-01
 -1      2591 1.10859E-01-3.34223E-02-8.20032E-01
 -1      2592 9.99991E-02-3.39826E-02-8.22555E-01
 -1      2593 7.26708E-02-2.96457E-02-7.68475E-01
 -1      2594 3.45440E-02-2.44578E-02-5.98550E-01
 -1      2595 2.98491E-02-2.48441E-02-6.70734E-01
 -1      2596 7.76788E-02 4.76425E-02-8.24148E-01
 -1      2597 7.30467E-02 3.14020E-02-7.55241E-01
 -1      2598-3.93100E-04 5.26619E-02-8.28564E-01
 -1      2599-8.11884E-02-5.38316E-04-7.52048E-01
 -1      2600-8.75749E-02-1.12892E-03-7.71544E-01
 -1      2601-3.11423E-02 2.23945E-02-8.28146E-01
 -1      2602 1.18782E-01 4.96825E-02-7.88194E-01
 -1      2603 5.31628E-02 2.34117E-02-7.87389E-01
 -1      2604 4.41877E-02 2.41066E-02-8.28305E-01
 -1      2605-8.96896E-02 2.72014E-02-8.21110E-01
 -1      2606-4.32070E-02 2.95259E-03-8.25295E-01
 -1      2607-4.75437E-02-4.46305E-02-7.79689E-01
 -1      2608 4.96963E-02 5.32506E-02-8.26181E-01
 -1      2609 5.31304E-02 4.86197E-03-8.27950E-01
 -1      2610 2.68508E-02-3.19600E-02-6.05205E-01
 -1      2611-3.87485E-02 1.06248E-01-8.17437E-01
 -1      2612-1.04546E-01 4.94145E-02-8.15325E-01
 -1      2613-5.39654E-02 1.03786E-01-8.16843E-01
 -1      2614-7.38004E-02 8.23996E-02-8.18519E-01
 -1      2615 7.17904E-02 3.10769E-02-7.69013E-01
 -1      2616 9.64546E-03-4.29419E-02-8.26964E-01
 -1      2617 3.66674E-02 1.06786E-01-8.19485E-01
 -1      2618-5.12609E-02-2.09327E-03-8.25724E-01
 -1      2619-5.49771E-02 8.32607E-04-7.87181E-01
 -1      2620-1.01835E-01 5.59501E-02-8.15586E-01
 -1      2621 1.11511E-01-9.04427E-04-8.18904E-01
 -1      2622 3.10492E-02 7.94821E-02-7.76535E-01
 -1      2623-5.91578E-02-1.00993E-03-7.84148E-01
 -1      2624 3.77200E-02-1.08187E-01-8.16354E-01
 -1      2625-8.99124E-02 2.08343E-02-8.21169E-01
 -1      2626 3.75365E-02 1.43599E-02-8.28878E-01
 -1      2627-7.71664E-02-7.77684E-02-8.15488E-01
 -1      2628-1.03518E-01-4.53487E-02-8.17071E-01
 -1      2629-8.04549E-04 6.33027E-02-7.85594E-01
 -1      2630-1.89145E-03-4.22021E-02-8.24611E-01
 -1      2631 5.29365E-02 3.65218E-03-7.90484E-01
 -1      2632-4.00528E-02-9.62278E-02-8.18368E-01
 -1      2633 4.66088E-02 9.47603E-02-8.21779E-01
 -1      2634 1.68485E-02 3.68454E-02-8.29286E-01
 -1      2635 4.05502E-02 9.92348E-02-7.91392E-01
 -1      2636 1.19637E-01-4.81606E-02-7.84032E-01
 -1      2637 7.30550E-02-3.04150E-02-7.67673E-01
 -1      2638 4.76300E-02-5.51686E-02-8.26602E-01
 -1      2639-1.05389E-01-1.01752E-02-8.19293E-01
 -1      2640-1.07427E-03-8.01903E-02-7.52608E-01
 -1      2641 2.66363E-02-9.74479E-02-8.22086E-01
 -1      2642-3.12751E-02-8.01369E-02-8.21112E-01
 -1      2643 2.90642E-02-7.38346E-02-7.67513E-01
 -1      2644 2.57998E-02 3.06987E-02-8.29526E-01
 -1      2645-8.33801E-02 7.16994E-02-8.19636E-01
 -1      2646 3.59788E-02 7.15847E-02-8.27018E-01
 -1      2647-1.88691E-03 9.75498E-02-8.22280E-01
 -1      2648 7.19446E-02-5.97004E-02-8.22761E-01
 -1      2649 8.15690E-03-1.07073E-01-8.18404E-01
 -1      2650 3.79016E-02-4.72533E-02-8.27870E-01
 -1      2651 1.84007E-02 5.99459E-02-8.27534E-01
 -1      2652-6.95501E-02-6.76759E-03-8.23649E-01
 -1      2653-8.05748E-02-2.44148E-02-8.21922E-01
 -1      2654-3.68338E-02 1.01536E-02-8.25507E-01
 -1      2655-5.18723E-02-5.94870E-02-8.21217E-01
 -1      2656-2.57350E-02 2.78970E-03-6.64844E-01
 -1      2657-2.43497E-02 2.95051E-02-8.28878E-01
 -1      2658-4.17269E-02-4.17674E-02-7.83174E-01
 -1      2659-1.84499E-02 3.77246E-02-8.27478E-01
 -1      2660-5.90663E-02-2.71396E-02-8.24288E-01
 -1      2661 8.55496E-02 3.69038E-02-7.84771E-01
 -1      2662-3.69409E-02-4.33868E-02-8.24138E-01
 -1      2663 5.46026E-02-5.55778E-02-7.68411E-01
 -1      2664 2.86932E-02-2.74034E-02-8.29149E-01
 -1      2665 9.18255E-02-3.53205E-02-7.88967E-01
 -1      2666-6.30080E-02 1.79911E-02-8.25239E-01
 -1      2667 1.05342E-01 5.45234E-02-8.17881E-01
 -1      2668-7.89900E-02 6.61727E-03-8.23153E-01
 -1      2669 5.20132E-02 1.90489E-02-8.27991E-01
 -1      2670-4.07916E-03 3.67814E-02-8.29582E-01
 -1      2671 2.83065E-02 9.63978E-02-8.23116E-01
 -1      2672-9.33574E-02 3.66381E-02-7.84388E-01
 -1      2673-2.44893E-02 3.16279E-02-6.32634E-01
 -1      2674-5.88877E-02-6.54840E-03-8.24653E-01
 -1      2675 1.49204E-02 2.80642E-02-8.28748E-01
 -1      2676 7.90333E-02-6.58135E-02-8.20421E-01
 -1      2677-3.93347E-02-3.36058E-02-8.24240E-01
 -1      2678-3.13779E-02 7.47006E-02-7.54472E-01
 -1      2679 8.74234E-03-9.77548E-03-8.54896E-01
 -1      2680-1.10645E-01-3.68675E-02-8.16229E-01
 -1      2681 6.14847E-03-8.37211E-03-8.52554E-01
 -1      2682-9.69062E-02 8.35944E-03-8.21822E-01
 -1      2683-6.82708E-02-6.65740E-02-7.80591E-01
 -1      2684 2.11570E-02 9.64447E-03-8.28644E-01
 -1      2685 6.41547E-02 3.96147E-02-8.26218E-01
 -1      2686 5.08929E-02-2.29769E-03-8.28627E-01
 -1      2687 1.73030E-02-5.03236E-02-7.90243E-01
 -1      2688-5.30623E-02 4.85081E-02-7.74014E-01
 -1      2689 3.88416E-02-1.81123E-02-8.28948E-01
 -1      2690-9.94381E-02-1.33019E-02-8.19758E-01
 -1      2691-8.70301E-02-4.49436E-02-8.20534E-01
 -1      2692-5.39666E-02-1.03961E-01-8.14631E-01
 -1      2693-9.28947E-02-3.72007E-02-7.83245E-01
 -1      2694-9.36738E-02 3.80426E-02-7.84216E-01
 -1      2695-6.22952E-02-1.93104E-02-8.24607E-01
 -1      2696-7.39979E-02 3.24820E-02-7.96660E-01
 -1      2697 6.05643E-02-2.40346E-02-8.27469E-01
 -1      2698-5.21244E-02 5.47349E-02-8.26117E-01
 -1      2699 2.65283E-02 1.11737E-01-8.18892E-01
 -1      2700 5.06346E-02-4.16084E-02-8.27890E-01
 -1      2701 5.81768E-04 1.13242E-01-8.19354E-01
 -1      2702-1.58673E-02 1.17538E-01-8.17513E-01
 -1      2703 4.27593E-02-5.63877E-02-8.26682E-01
 -1      2704 1.13210E-02-1.91247E-02-8.36680E-01
 -1      2705-3.68826E-03-3.99286E-02-6.38154E-01
 -1      2706 1.90011E-02 4.95437E-02-7.91027E-01
 -1      2707-4.99725E-02-1.94590E-02-7.88873E-01
 -1      2708 1.73479E-02-3.75026E-02-8.28056E-01
 -1      2709 4.93140E-02 2.02317E-02-7.90960E-01
 -1      2710-6.15888E-02 2.81765E-02-8.24714E-01
 -1      2711 9.34546E-02-3.87293E-02-7.87918E-01
 -1      2712-5.84220E-02 5.40272E-02-7.69047E-01
 -1      2713 6.68369E-02-5.13562E-02-8.25427E-01
 -1      2714-7.00274E-02-5.05839E-02-8.20685E-01
 -1      2715 2.84875E-02-7.69795E-02-7.93147E-01
 -1      2716-9.87873E-02-5.43946E-02-8.17436E-01
 -1      2717-6.62950E-02-7.71157E-02-8.17993E-01
 -1      2718 9.58175E-02 3.16360E-02-8.20778E-01
 -1      2719-1.12796E-02-9.88867E-02-8.19330E-01
 -1      2720 8.31367E-03-9.66410E-02-8.21612E-01
 -1      2721-1.19146E-01-5.56621E-03-8.14314E-01
 -1      2722-1.83515E-02-4.04002E-02-8.24052E-01
 -1      2723-1.62536E-03-9.89456E-02-7.84926E-01
 -1      2724 3.16689E-02 1.77574E-02-8.29281E-01
 -1      2725 2.15123E-02 3.79420E-02-8.28517E-01
 -1      2726-7.49675E-02 1.96024E-02-8.24146E-01
 -1      2727 8.79240E-02-6.91388E-03-8.25302E-01
 -1      2728-5.33842E-02 4.72305E-02-7.96811E-01
 -1      2729-2.54005E-02-8.63385E-02-8.20950E-01
 -1      2730 3.07987E-03-7.65051E-02-8.23939E-01
 -1      2731-1.22147E-01 4.40347E-02-7.99060E-01
 -1      2732-1.03045E-01 3.14027E-02-8.19196E-01
 -1      2733 2.89730E-02 7.59428E-02-7.93034E-01
 -1      2734 2.56273E-02 4.88136E-02-8.28356E-01
 -1      2735 4.10646E-02-4.20516E-02-7.87609E-01
 -1      2736 4.23310E-02-8.17550E-02-8.22877E-01
 -1      2737 1.72895E-03 7.48568E-02-8.26290E-01
 -1      2738-6.51756E-03-5.70214E-02-8.24811E-01
 -1      2739 5.76798E-02-4.58868E-02-8.26187E-01
 -1      2740 5.50116E-02 6.58975E-02-8.23870E-01
 -1      2741 2.38428E-02-8.11099E-02-8.25050E-01
 -1      2742 1.35183E-02 4.90545E-02-8.28508E-01
 -1      2743-8.04185E-02-1.11424E-02-8.23006E-01
 -1      2744-2.44530E-02 5.45806E-02-7.86687E-01
 -1      2745 2.12209E-02 3.62337E-02-6.02978E-01
 -1      2746 2.31071E-03-4.32060E-02-8.25135E-01
 -1      2747 1.54409E-02-1.06057E-01-8.18727E-01
 -1      2748 3.54535E-03 3.81920E-02-8.28387E-01
 -1      2749-2.77825E-02 7.16065E-02-8.26673E-01
 -1      2750-2.19833E-02 1.14811E-01-8.17737E-01
 -1      2751-1.35418E-02 3.68605E-02-8.28130E-01
 -1      2752 5.17290E-02-2.64066E-02-8.28564E-01
 -1      2753-4.95176E-02 1.55014E-02-8.25717E-01
 -1      2754-6.02369E-03 6.64007E-02-8.27870E-01
 -1      2755 2.82622E-02-5.58912E-02-8.27272E-01
 -1      2756-3.20390E-02-6.52844E-02-8.22426E-01
 -1      2757 3.54859E-02-6.49564E-02-8.25559E-01
 -1      2758-1.57788E-02-1.09957E-01-8.17708E-01
 -1      2759 3.07045E-02-4.09578E-02-8.28843E-01
 -1      2760 3.33306E-02-7.44032E-03-7.75878E-01
 -1      2761 2.01692E-02-4.97818E-02-7.91537E-01
 -1      2762-1.46512E-03 9.83776E-02-7.85280E-01
 -1      2763 6.71528E-03 1.02920E-01-8.21961E-01
 -1      2764 3.10564E-03-6.13696E-02-8.26171E-01
 -1      2765-1.20321E-03-5.90503E-02-7.84843E-01
 -1      2766 1.17118E-02 1.15560E-01-8.18747E-01
 -1      2767 3.34222E-02-1.86435E-02-6.89787E-01
 -1      2768 2.16876E-02-3.83132E-02-8.28397E-01
 -1      2769-2.24722E-02 1.28933E-02-6.64977E-01
 -1      2770-4.42848E-02-5.42551E-02-8.22622E-01
 -1      2771-4.92120E-02 2.18520E-02-7.99853E-01
 -1      2772 3.95081E-02-1.00684E-01-7.90245E-01
 -1      2773-3.12945E-02-7.29962E-02-7.64421E-01
 -1      2774 3.57447E-03 1.28739E-02-8.45446E-01
 -1      2775 1.55382E-02-1.15056E-01-8.16590E-01
 -1      2776 4.00714E-02-1.31145E-02-8.29654E-01
 -1      2777-3.33294E-02 1.08284E-01-8.17155E-01
 -1      2778 8.59616E-03 1.39540E-03-8.60023E-01
 -1      2779 1.00057E-01-5.93123E-03-8.22714E-01
 -1      2780 9.62937E-02 1.41897E-02-8.23631E-01
 -1      2781-3.91108E-03 2.66261E-02-6.68592E-01
 -1      2782 9.83732E-02-1.19767E-02-8.23671E-01
 -1      2783 7.86108E-02-9.13472E-03-8.26280E-01
 -1      2784-5.59840E-02 4.60165E-03-8.24795E-01
 -1      2785 9.23540E-02 3.83603E-02-7.87878E-01
 -1      2786 4.73666E-02 1.10611E-01-8.18782E-01
 -1      2787-1.95297E-03-7.87198E-02-8.23675E-01
 -1      2788-4.00919E-02 2.17064E-02-8.26479E-01
 -1      2789-3.15747E-02 7.31877E-02-7.67204E-01
 -1      2790 7.78567E-02 1.77054E-03-7.69269E-01
 -1      2791 3.75588E-02-9.29963E-02-7.86957E-01
 -1      2792-3.10258E-02-9.84418E-02-8.18009E-01
 -1      2793-1.96621E-02-5.47742E-02-8.24114E-01
 -1      2794-1.16523E-01 5.51949E-02-7.98249E-01
 -1      2795-4.58582E-02 7.69370E-02-8.23488E-01
 -1      2796 1.05365E-01 2.91203E-02-8.19422E-01
 -1      2797-2.92804E-03 9.95049E-02-7.87539E-01
 -1      2798-2.49673E-02-2.14771E-02-7.93857E-01
 -1      2799 2.53917E-02 7.05614E-02-8.26691E-01
 -1      2800-1.17608E-01-1.44783E-02-8.15794E-01
 -1      2801 8.45698E-02 9.47600E-02-8.00470E-01
 -1      2802 4.32999E-02 6.06756E-03-8.28817E-01
 -1      2803 4.68680E-02 1.21050E-01-7.88245E-01
 -1      2804-4.18842E-02 3.25331E-02-8.27733E-01
 -1      2805-5.05341E-02 8.99914E-02-8.20692E-01
 -1      2806 6.93410E-02 7.05694E-02-7.86235E-01
 -1      2807 1.15677E-02-1.07744E-03-8.48256E-01
 -1      2808-2.18073E-02-9.91849E-03-8.31637E-01
 -1      2809-5.61333E-02-7.26526E-02-8.19970E-01
 -1      2810 7.59453E-03-7.19437E-02-8.25258E-01
 -1      2811 1.01108E-01 1.46718E-03-7.89078E-01
 -1      2812-1.60118E-02-5.36405E-02-8.24184E-01
 -1      2813 2.11567E-02 4.85916E-02-7.92245E-01
 -1      2814-2.84162E-03-1.29351E-01-7.81869E-01
 -1      2815 1.02066E-01 3.14416E-03-7.87914E-01
 -1      2816 9.04747E-03 1.05709E-02-8.43189E-01
 -1      2817-5.63630E-04-1.24841E-02-8.44754E-01
 -1      2818 1.05082E-01 3.81325E-02-7.98876E-01
 -1      2819 1.21928E-01 3.17687E-02-8.14314E-01
 -1      2820 1.15181E-01 9.75911E-03-8.19489E-01
 -1      2821-6.36851E-02 7.55071E-02-8.21172E-01
 -1      2822 9.88816E-02 2.31631E-02-8.21829E-01
 -1      2823 7.56839E-02 2.96323E-02-7.98506E-01
 -1      2824-3.87772E-02 9.02855E-02-7.83566E-01
 -1      2825-3.51042E-02 3.19616E-02-7.87264E-01
 -1      2826-9.48887E-02 4.75713E-02-8.18459E-01
 -1      2827-1.04190E-02 1.07042E-01-8.21204E-01
 -1      2828-5.12225E-02 4.52884E-02-8.26560E-01
 -1      2829 7.15959E-02-7.16295E-02-7.88161E-01
 -1      2830-9.73374E-02 2.39316E-04-7.80918E-01
 -1      2831 9.44845E-02 5.30936E-02-8.19588E-01
 -1      2832-2.68477E-04 5.92631E-02-7.86768E-01
 -1      2833 1.14418E-01 3.02275E-02-8.17594E-01
 -1      2834-5.93536E-02 5.56240E-02-8.26455E-01
 -1      2835 1.86071E-02 2.44881E-02-8.28550E-01
 -1      2836-7.35472E-02 7.02122E-02-7.88554E-01
 -1      2837 7.70390E-02-4.19543E-02-8.24807E-01
 -1      2838-1.14819E-01-2.92634E-02-8.15511E-01
 -1      2839 3.07405E-02-8.16895E-03-8.29122E-01
 -1      2840-2.96598E-02 8.90286E-02-8.22483E-01
 -1      2841 6.30783E-03-1.27978E-01-7.98562E-01
 -1      2842 9.71124E-03 5.56536E-03-8.47200E-01
 -1      2843 3.69278E-02 2.29397E-02-8.28359E-01
 -1      2844-3.49843E-02 3.97877E-03-8.25456E-01
 -1      2845 1.09408E-02 3.74947E-02-8.28880E-01
 -1      2846-7.70851E-02-2.96265E-02-7.90978E-01
 -1      2847 2.64737E-02-1.08485E-01-8.18288E-01
 -1      2848 2.61553E-02 3.70353E-02-8.28091E-01
 -1      2849 1.07000E-01-5.89536E-02-8.13186E-01
 -1      2850 9.19202E-03-8.46808E-02-8.23903E-01
 -1      2851-9.93525E-03-6.90656E-02-8.24182E-01
 -1      2852-3.42933E-03-3.42364E-02-8.24537E-01
 -1      2853-1.30446E-02-4.00546E-02-8.24604E-01
 -1      2854-1.19399E-01-4.94634E-02-7.85330E-01
 -1      2855-1.07670E-02 1.26992E-01-7.99657E-01
 -1      2856 3.95960E-02 4.13191E-02-7.88450E-01
 -1      2857 8.14636E-02-4.81666E-02-8.24080E-01
 -1      2858-9.67637E-02 7.44794E-02-8.14157E-01
 -1      2859-7.34319E-03 1.10628E-01-7.97142E-01
 -1      2860-7.30942E-02 5.86229E-02-8.22891E-01
 -1      2861 4.48810E-02 8.51715E-02-8.23896E-01
 -1      2862-8.84605E-02-7.56190E-02-8.13577E-01
 -1      2863 5.65069E-02-1.68828E-02-8.28394E-01
 -1      2864-8.97242E-02-6.84996E-02-8.14899E-01
 -1      2865 2.96328E-02 7.06508E-02-7.98333E-01
 -1      2866-3.49677E-03-1.22200E-02-8.42913E-01
 -1      2867 2.31682E-02 9.66015E-02-8.23223E-01
 -1      2868 4.57209E-03 8.85254E-02-8.24600E-01
 -1      2869-2.79141E-02-6.70785E-02-8.22960E-01
 -1      2870 8.14415E-03 8.01878E-02-8.25936E-01
 -1      2871-1.10557E-01-1.63365E-02-8.17226E-01
 -1      2872-4.03730E-02-9.31416E-02-7.83792E-01
 -1      2873 5.87429E-02-7.09037E-02-8.24646E-01
 -1      2874-1.09941E-01-6.01177E-02-8.12653E-01
 -1      2875 6.66384E-02-6.62869E-02-7.85418E-01
 -1      2876 6.86021E-02 3.33428E-02-7.98800E-01
 -1      2877 3.73503E-02-3.68882E-02-7.91226E-01
 -1      2878 3.93578E-02-3.32580E-02-8.28722E-01
 -1      2879-3.94614E-02-1.13186E-01-8.11981E-01
 -1      2880 3.85108E-02 1.01095E-01-7.90507E-01
 -1      2881-3.03961E-02 7.27392E-03-8.24610E-01
 -1      2882 4.85155E-03 6.13107E-02-8.28092E-01
 -1      2883-1.36685E-03-9.39093E-02-7.81753E-01
 -1      2884 1.58449E-02-5.33204E-02-8.27200E-01
 -1      2885-8.26776E-02-2.02585E-02-8.22514E-01
 -1      2886-9.76714E-02-3.27957E-02-8.18930E-01
 -1      2887-1.05423E-01-2.73276E-02-8.18087E-01
 -1      2888-3.46440E-02-7.98157E-02-7.72801E-01
 -1      2889-7.60175E-02 3.69641E-02-8.23613E-01
 -1      2890-8.94573E-02-3.33424E-03-7.97614E-01
 -1      2891 4.04194E-02-1.15802E-01-8.13843E-01
 -1      2892 9.81142E-02-5.37174E-02-8.19862E-01
 -1      2893-3.99004E-02 9.51954E-02-7.86188E-01
 -1      2894-4.63953E-02 1.09566E-02-8.25982E-01
 -1      2895-2.86289E-02 5.13045E-02-8.27799E-01
 -1      2896-7.61300E-02-6.18413E-03-8.03691E-01
 -1      2897-9.85795E-02-7.57478E-02-8.10213E-01
 -1      2898-1.03519E-01-4.15474E-02-7.88532E-01
 -1      2899 6.46297E-02-3.44248E-02-8.27039E-01
 -1      2900-5.84112E-02 2.12321E-02-8.01265E-01
 -1      2901-7.34224E-02-3.62729E-02-8.22717E-01
 -1      2902-7.59251E-02 2.96632E-02-7.93656E-01
 -1      2903-5.21726E-02 3.87898E-02-8.25681E-01
 -1      2904-3.58128E-02 9.42595E-02-8.20250E-01
 -1      2905-1.20776E-01 4.93615E-02-7.79569E-01
 -1      2906-4.25282E-02-9.88963E-02-7.87124E-01
 -1      2907-3.75977E-02 2.63202E-02-8.27375E-01
 -1      2908 5.43512E-02-5.42655E-02-7.91105E-01
 -1      2909-5.58416E-02-2.33109E-02-7.83845E-01
 -1      2910-2.79654E-02-3.61925E-02-8.24532E-01
 -1      2911-2.50299E-02 8.17301E-02-8.24172E-01
 -1      2912 2.40767E-02-3.28375E-02-8.28999E-01
 -1      2913 8.01160E-02-5.92355E-02-8.22136E-01
 -1      2914 5.24668E-02-5.51970E-02-7.99269E-01
 -1      2915 4.88755E-02-1.19691E-01-7.88436E-01
 -1      2916 3.93409E-02-7.39440E-02-8.24296E-01
 -1      2917 4.86627E-02-3.64127E-02-8.27325E-01
 -1      2918 4.78688E-02-9.36007E-02-8.20434E-01
 -1      2919-9.56657E-03-4.83761E-03-8.54061E-01
 -1      2920 8.18461E-02 2.56080E-02-8.24771E-01
 -1      2921-8.37713E-02 4.60287E-02-8.21185E-01
 -1      2922 1.08325E-02 7.11641E-02-8.26743E-01
 -1      2923 3.25991E-02 9.01877E-02-8.01499E-01
 -1      2924-1.97697E-02 4.87839E-02-8.27357E-01
 -1      2925-8.83334E-02 1.19928E-02-8.22195E-01
 -1      2926 8.91793E-02-8.96149E-02-7.87048E-01
 -1      2927 9.45631E-02-8.36652E-02-8.02796E-01
 -1      2928 9.87164E-02-7.51875E-02-8.16270E-01
 -1      2929-7.93184E-03-8.97168E-02-8.21437E-01
 -1      2930-5.70693E-02 3.15753E-02-8.25280E-01
 -1      2931 1.64113E-03-6.11809E-02-7.85462E-01
 -1      2932-3.14303E-02-7.94707E-02-7.95303E-01
 -1      2933-9.66901E-03-8.11173E-02-8.23054E-01
 -1      2934 4.45127E-03 1.26877E-01-8.01837E-01
 -1      2935-3.87652E-03-1.09855E-01-7.94054E-01
 -1      2936 5.16451E-03-5.31709E-02-8.26083E-01
 -1      2937-6.35118E-02-3.61342E-02-8.23382E-01
 -1      2938-5.58662E-02 1.43148E-02-8.25780E-01
 -1      2939-7.02525E-02 7.43304E-03-8.23968E-01
 -1      2940 6.35620E-02-2.60013E-02-7.94956E-01
 -1      2941-4.28746E-02-1.68772E-02-8.25419E-01
 -1      2942-7.01540E-03 5.27465E-02-8.27920E-01
 -1      2943-7.50972E-03 8.62455E-02-8.25005E-01
 -1      2944-3.87683E-02 6.46759E-02-8.25697E-01
 -1      2945-4.82449E-02-1.46301E-02-8.24845E-01
 -1      2946 1.39093E-02 2.91633E-03-8.43164E-01
 -1      2947-4.63161E-02 5.48436E-03-8.25154E-01
 -1      2948 2.81614E-03-1.11326E-01-7.97618E-01
 -1      2949 4.21323E-03 2.98583E-02-8.28047E-01
 -1      2950 1.77093E-02 5.05762E-02-8.06453E-01
 -1      2951 6.72104E-02-2.81770E-02-7.95278E-01
 -1      2952-7.00747E-02-7.33526E-02-7.97115E-01
 -1      2953-6.87312E-02 8.93402E-02-8.19472E-01
 -1      2954-5.57952E-02 9.73500E-02-8.19033E-01
 -1      2955-5.67216E-02 6.65928E-02-8.23138E-01
 -1      2956 9.08809E-02 2.30657E-02-8.23689E-01
 -1      2957-3.57007E-02-1.14245E-02-8.25922E-01
 -1      2958 2.40675E-02-1.93343E-02-8.28581E-01
 -1      2959 3.01905E-03 5.04083E-02-8.28598E-01
 -1      2960 9.15180E-02-7.06901E-02-8.17847E-01
 -1      2961-1.72069E-02 1.07758E-01-8.20582E-01
 -1      2962 4.60896E-02-7.90831E-02-8.23078E-01
 -1      2963-4.69804E-03 2.93474E-02-8.28609E-01
 -1      2964-7.38158E-02 6.95286E-02-7.83602E-01
 -1      2965-8.55297E-02 6.17447E-02-8.19993E-01
 -1      2966-1.30096E-02 9.63157E-02-8.23591E-01
 -1      2967 2.97014E-02-7.22987E-02-7.90108E-01
 -1      2968-5.44917E-02-4.40529E-02-8.23544E-01
 -1      2969-1.95519E-02-5.13656E-02-7.85613E-01
 -1      2970-3.00604E-02-8.64039E-03-8.25157E-01
 -1      2971-2.71534E-02 1.36762E-02-8.25864E-01
 -1      2972-1.22668E-01-4.22548E-02-7.99636E-01
 -1      2973 6.36048E-03 4.62241E-02-8.28513E-01
 -1      2974 6.89388E-03-1.36454E-02-8.40958E-01
 -1      2975-1.09893E-01 1.18757E-02-8.18909E-01
 -1      2976-1.31869E-01 2.14016E-04-7.85868E-01
 -1      2977-7.87480E-02 1.06817E-03-7.94115E-01
 -1      2978-2.38925E-02-6.18767E-02-8.00596E-01
 -1      2979-4.13458E-02-1.05119E-02-8.25054E-01
 -1      2980 4.44136E-02-5.30491E-03-8.29125E-01
 -1      2981-6.39849E-02 8.31548E-03-8.24534E-01
 -1      2982 5.20610E-02-3.20934E-04-7.92714E-01
 -1      2983-7.20847E-02-2.41451E-02-8.03857E-01
 -1      2984-6.50680E-03 3.83426E-02-8.28406E-01
 -1      2985-2.80126E-02-5.26797E-02-8.23847E-01
 -1      2986-4.64249E-02-8.61865E-02-8.21033E-01
 -1      2987 5.07906E-02-6.66192E-02-8.25607E-01
 -1      2988 1.19250E-02 9.11482E-02-8.24314E-01
 -1      2989 1.29438E-03 8.09913E-02-8.00663E-01
 -1      2990-2.33842E-02-4.88977E-02-7.88423E-01
 -1      2991-8.70238E-02-2.78221E-02-8.02252E-01
 -1      2992-1.63475E-02-2.95510E-02-8.23401E-01
 -1      2993-5.95591E-03-9.13896E-03-8.49392E-01
 -1      2994-1.06971E-02-6.38737E-02-8.23710E-01
 -1      2995 8.71735E-03 1.23137E-01-8.16992E-01
 -1      2996-9.90935E-02 2.59300E-02-8.19983E-01
 -1      2997 6.37791E-04 6.00127E-02-8.04034E-01
 -1      2998 8.21544E-02-7.57161E-02-7.98960E-01
 -1      2999 7.05841E-03-3.07206E-02-8.26099E-01
 -1      3000-9.21086E-02 6.88478E-02-8.17425E-01
 -1      3001 2.88412E-02-1.57891E-02-8.28851E-01
 -1      3002 4.09090E-02-1.79542E-02-7.97127E-01
 -1      3003 1.40764E-02 5.12841E-03-8.39027E-01
 -1      3004-6.03859E-02 4.87747E-02-8.24316E-01
 -1      3005-8.31364E-02 8.90977E-02-8.15659E-01
 -1      3006-2.57861E-02-7.58007E-02-8.22547E-01
 -1      3007-7.89132E-02-4.43826E-02-8.21094E-01
 -1      3008-9.42587E-02 8.75051E-02-7.89656E-01
 -1      3009-1.82668E-02 5.63987E-02-8.27524E-01
 -1      3010 5.49017E-02-7.50712E-02-8.24141E-01
 -1      3011-6.71106E-02 3.30379E-02-8.24358E-01
 -1      3012 2.60821E-02 1.05012E-01-8.21499E-01
 -1      3013-8.93305E-02 9.19465E-02-7.99713E-01
 -1      3014-8.29951E-02 1.01588E-01-8.03822E-01
 -1      3015-6.36752E-02 8.66722E-02-8.21169E-01
 -1      3016-5.09551E-02-9.78239E-02-8.17372E-01
 -1      3017-2.15684E-02 6.82461E-02-8.26117E-01
 -1      3018-7.59678E-02-9.39538E-02-8.12672E-01
 -1      3019 3.65039E-02-3.88783E-02-8.04492E-01
 -1      3020-2.11218E-02 4.99689E-02-7.90445E-01
 -1      3021-9.27307E-03 4.13145E-03-8.56784E-01
 -1      3022-2.17187E-02-6.53415E-02-8.24237E-01
 -1      3023-7.36075E-03 7.19083E-03-8.52528E-01
 -1      3024 7.61745E-02-8.41459E-02-8.18053E-01
 -1      3025-3.02105E-02 7.30669E-02-7.96131E-01
 -1      3026-3.89327E-02-4.14086E-02-8.01035E-01
 -1      3027-1.00506E-01-3.16337E-02-8.00675E-01
 -1      3028-8.68370E-02-6.22508E-02-8.16397E-01
 -1      3029 1.28692E-03 9.83350E-02-8.02987E-01
 -1      3030-1.14918E-02-4.33344E-02-8.24387E-01
 -1      3031 6.68468E-02-8.04757E-02-8.22157E-01
 -1      3032-5.23930E-02-8.54336E-02-8.18499E-01
 -1      3033-7.15089E-02-1.84105E-02-8.23568E-01
 -1      3034-5.16785E-02-1.19495E-01-7.84590E-01
 -1      3035 9.16859E-02 3.26643E-02-8.01805E-01
 -1      3036-9.25144E-02-9.11538E-02-7.79272E-01
 -1      3037-3.78723E-02-7.33983E-02-8.21756E-01
 -1      3038-3.86567E-02 4.61160E-02-8.28073E-01
 -1      3039-7.94206E-02 8.15247E-02-7.99186E-01
 -1      3040 3.09992E-02-2.65325E-02-8.28910E-01
 -1      3041-3.14394E-02-1.09984E-01-8.14963E-01
 -1      3042 8.56902E-03 6.95007E-03-8.46806E-01
 -1      3043-1.30067E-01-9.63806E-03-7.97475E-01
 -1      3044 3.09705E-02 1.92415E-02-8.28492E-01
 -1      3045 4.07225E-02-2.33675E-02-8.28911E-01
 -1      3046-9.21975E-02 3.28717E-02-7.99434E-01
 -1      3047 1.16983E-02-5.24059E-02-8.26729E-01
 -1      3048 1.10641E-01-6.20360E-03-8.00983E-01
 -1      3049-3.27179E-03-7.63748E-02-7.95946E-01
 -1      3050 1.62196E-02 3.28346E-03-8.37117E-01
 -1      3051-8.61867E-03 6.14014E-02-8.27697E-01
 -1      3052-1.70018E-02 2.92221E-02-8.28465E-01
 -1      3053-2.07618E-02-2.58443E-02-8.24495E-01
 -1      3054 2.01846E-02-2.53471E-02-8.29526E-01
 -1      3055-5.96882E-02-1.47482E-02-8.24024E-01
 -1      3056 1.17863E-02 7.35179E-03-8.39949E-01
 -1      3057 2.84850E-02 8.17109E-02-8.25127E-01
 -1      3058-3.01667E-02-2.37717E-02-8.24601E-01
 -1      3059 7.91629E-02 9.39702E-02-8.16452E-01
 -1      3060-1.09435E-02-1.26611E-01-7.98654E-01
 -1      3061-7.71916E-03-1.23710E-01-8.13863E-01
 -1      3062-1.70464E-02-1.25092E-01-8.13618E-01
 -1      3063-3.06781E-02 1.00773E-01-8.20239E-01
 -1      3064-5.28052E-02 8.35802E-02-8.22811E-01
 -1      3065 8.53853E-02 5.24665E-02-8.21112E-01
 -1      3066-5.39192E-02-1.69046E-02-8.04914E-01
 -1      3067 2.49144E-02-2.23115E-02-7.80676E-01
 -1      3068-6.02545E-03-1.25693E-02-8.42647E-01
 -1      3069-4.63998E-02-9.38791E-02-7.97591E-01
 -1      3070-1.50051E-02-2.05967E-02-6.62304E-01
 -1      3071 2.67261E-02 4.49817E-02-8.28028E-01
 -1      3072-1.24156E-01-3.40465E-02-8.13086E-01
 -1      3073-1.16499E-01-5.30054E-02-7.94869E-01
 -1      3074-9.27606E-02-8.91489E-02-7.93517E-01
 -1      3075-8.12693E-02-5.52559E-02-8.17579E-01
 -1      3076-4.76420E-02-6.26258E-02-8.21806E-01
 -1      3077-3.55774E-02-6.18144E-02-8.22695E-01
 -1      3078 1.47309E-03-7.89255E-02-7.97245E-01
 -1      3079-5.39187E-02 5.34621E-02-7.95185E-01
 -1      3080-6.20520E-02 6.77274E-02-8.02077E-01
 -1      3081-9.03271E-02 5.26800E-02-8.18835E-01
 -1      3082 5.65822E-02 1.01539E-01-8.18738E-01
 -1      3083-3.43915E-02 7.14200E-02-7.97146E-01
 -1      3084-3.35377E-02-1.20743E-01-8.10426E-01
 -1      3085-1.58826E-02-9.32962E-02-8.20208E-01
 -1      3086 8.82945E-02 4.43652E-03-8.01485E-01
 -1      3087-4.81562E-02-3.57118E-02-8.23566E-01
 -1      3088 4.72013E-02-4.39959E-02-8.04235E-01
 -1      3089-7.21580E-02-3.21415E-02-7.96210E-01
 -1      3090 1.27315E-01-5.92213E-03-8.02237E-01
 -1      3091-3.34655E-02-7.13658E-02-7.93367E-01
 -1      3092 4.53058E-02 7.82873E-02-8.25662E-01
 -1      3093-4.27863E-02-3.90072E-02-7.98760E-01
 -1      3094-5.65895E-02-4.03951E-02-8.22656E-01
 -1      3095 5.40639E-02 5.65463E-02-7.97645E-01
 -1      3096 4.76630E-02-1.27273E-02-8.28884E-01
 -1      3097 4.58453E-02 1.38707E-02-8.29295E-01
 -1      3098-2.33564E-02-4.16648E-02-8.24396E-01
 -1      3099-5.69156E-02-6.25822E-02-8.00407E-01
 -1      3100 8.31831E-03 8.20887E-02-8.10118E-01
 -1      3101 1.04553E-01 1.84288E-02-8.21786E-01
 -1      3102-7.48768E-02 6.44506E-02-8.00207E-01
 -1      3103 5.10190E-02-8.71724E-02-8.21927E-01
 -1      3104-5.66631E-02 1.18097E-01-8.00540E-01
 -1      3105 7.73172E-02 7.25808E-04-7.91437E-01
 -1      3106 1.04202E-01 1.07269E-02-8.01403E-01
 -1      3107 5.34461E-02-2.40581E-02-8.06417E-01
 -1      3108 6.74133E-02 5.07847E-03-8.04262E-01
 -1      3109 4.79259E-02-2.80843E-02-8.28485E-01
 -1      3110-7.48365E-02 9.43227E-02-8.16348E-01
 -1      3111-6.92610E-02 1.59587E-02-8.24167E-01
 -1      3112 7.84406E-02 8.34294E-03-8.09267E-01
 -1      3113 7.24059E-02-1.75289E-02-8.27000E-01
 -1      3114-1.05547E-01-2.05517E-04-7.88432E-01
 -1      3115 8.23261E-02-1.89904E-02-8.25690E-01
 -1      3116-3.06054E-03-1.28292E-01-7.97145E-01
 -1      3117 3.13309E-02 6.05987E-02-8.27986E-01
 -1      3118 2.27746E-03-5.36423E-02-8.02325E-01
 -1      3119 4.14369E-03-5.42026E-02-8.11829E-01
 -1      3120 8.01644E-02 1.00593E-01-8.14251E-01
 -1      3121 6.62456E-02-6.16863E-02-8.02118E-01
 -1      3122-4.47478E-02 5.61216E-02-8.25549E-01
 -1      3123 3.00939E-02 9.40897E-03-8.28527E-01
 -1      3124-2.62545E-02-1.03142E-01-8.16451E-01
 -1      3125-3.38411E-02-9.46744E-02-7.99395E-01
 -1      3126 1.95403E-02-6.79336E-02-8.25940E-01
 -1      3127-8.19986E-02-7.64283E-02-7.93111E-01
 -1      3128 5.58922E-02-4.05519E-02-8.26671E-01
 -1      3129-5.51232E-03-9.26019E-02-7.97691E-01
 -1      3130 4.78434E-02 6.27055E-02-8.24936E-01
 -1      3131 6.53668E-02 7.80308E-02-8.23076E-01
 -1      3132-7.06013E-02-6.55409E-02-7.98172E-01
 -1      3133 6.11606E-02-7.98277E-02-8.23123E-01
 -1      3134 1.98163E-02-8.69067E-02-8.23114E-01
 -1      3135 2.39585E-02-8.95203E-02-8.23263E-01
 -1      3136 1.12575E-01-9.50193E-03-8.19902E-01
 -1      3137 1.01866E-01-2.68697E-02-8.21418E-01
 -1      3138-1.11096E-02 7.98363E-02-8.26098E-01
 -1      3139-3.26132E-02 3.57398E-02-8.28516E-01
 -1      3140-1.00028E-02-7.86349E-03-8.42430E-01
 -1      3141-2.77339E-02-5.62263E-02-8.02377E-01
 -1      3142 8.39780E-03-4.78942E-03-8.49884E-01
 -1      3143 3.85586E-02 4.24715E-02-8.05188E-01
 -1      3144 2.27501E-02-9.68618E-02-8.21822E-01
 -1      3145 5.01143E-02 1.17805E-01-8.01719E-01
 -1      3146 1.00119E-01 5.78922E-02-8.18892E-01
 -1      3147-3.83524E-02-3.90978E-03-8.26178E-01
 -1      3148 3.73855E-02 8.71617E-02-8.02453E-01
 -1      3149-7.88541E-02 1.07263E-02-8.23044E-01
 -1      3150-1.39594E-02 4.63497E-02-8.28039E-01
 -1      3151-1.10909E-01 5.84818E-02-8.13175E-01
 -1      3152-1.84872E-02 2.39218E-02-8.27977E-01
 -1      3153 1.54352E-02-3.01928E-02-8.28515E-01
 -1      3154 4.49177E-03-2.68293E-02-6.67319E-01
 -1      3155 2.24612E-02-4.68490E-02-8.27495E-01
 -1      3156 2.63556E-02-4.84464E-02-8.27795E-01
 -1      3157-6.27664E-03-4.65860E-02-8.25283E-01
 -1      3158-1.95410E-02-1.18704E-01-8.15464E-01
 -1      3159 1.22469E-01 2.03940E-02-8.13934E-01
 -1      3160-2.19680E-03-5.37909E-02-8.00950E-01
 -1      3161 1.25544E-01 3.50607E-03-7.94660E-01
 -1      3162-4.50244E-02-2.26127E-02-8.24099E-01
 -1      3163-7.69324E-03-7.53130E-02-8.06107E-01
 -1      3164-2.96622E-02 3.69921E-02-8.28820E-01
 -1      3165 2.43556E-02-1.68406E-02-7.99372E-01
 -1      3166-3.87442E-02-2.13944E-02-8.23748E-01
 -1      3167 2.67887E-02 3.21400E-02-8.09777E-01
 -1      3168-3.13696E-02 1.67059E-02-7.60145E-01
 -1      3169-2.68281E-02 2.15978E-02-7.82058E-01
 -1      3170 1.55427E-02-6.10417E-02-8.26451E-01
 -1      3171 6.33694E-02-6.93303E-02-8.01757E-01
 -1      3172-3.25906E-02 3.17912E-02-7.97012E-01
 -1      3173 2.54938E-02-6.04370E-02-8.03308E-01
 -1      3174 2.51344E-02-8.31252E-02-8.05680E-01
 -1      3175 1.15119E-01-2.69055E-02-8.18672E-01
 -1      3176-1.28377E-02 2.93210E-03-8.48574E-01
 -1      3177 7.76661E-02-6.52364E-02-8.05624E-01
 -1      3178-6.78117E-03-1.25803E-02-8.51451E-01
 -1      3179-4.40727E-02 8.74667E-02-8.00011E-01
 -1      3180 1.06343E-01-1.29883E-02-8.21763E-01
 -1      3181 6.50346E-02-1.50820E-02-8.27358E-01
 -1      3182 5.54942E-02-2.84155E-03-8.07936E-01
 -1      3183 6.80753E-02-2.29655E-02-8.08478E-01
 -1      3184-5.44681E-02 3.08232E-03-8.03841E-01
 -1      3185 6.02268E-02-1.11564E-03-8.28312E-01
 -1      3186 9.42656E-02-2.34311E-02-8.23182E-01
 -1      3187 8.15572E-02 2.65949E-02-8.07566E-01
 -1      3188-5.77717E-02-5.21016E-02-7.98524E-01
 -1      3189-1.70353E-02 2.06111E-03-8.36078E-01
 -1      3190-3.85687E-02-2.88862E-02-8.24293E-01
 -1      3191 6.53038E-02-4.39744E-03-8.27610E-01
 -1      3192-1.68836E-03 9.94294E-03-8.52898E-01
 -1      3193-5.77197E-02 7.32917E-02-8.22832E-01
 -1      3194 3.60887E-02 7.35553E-02-8.08925E-01
 -1      3195 6.31650E-02 7.09756E-02-8.02860E-01
 -1      3196 3.28417E-02-1.18544E-01-8.14006E-01
 -1      3197-1.20824E-02 8.83975E-02-8.24937E-01
 -1      3198 7.92747E-02-3.00046E-02-7.98940E-01
 -1      3199-2.97623E-02-8.99744E-02-8.19885E-01
 -1      3200 1.98121E-02 7.75416E-02-8.26223E-01
 -1      3201-3.46327E-02-7.67664E-03-7.75767E-01
 -1      3202-4.60624E-02 7.11576E-02-8.24218E-01
 -1      3203-2.94529E-02-8.26453E-03-8.06017E-01
 -1      3204 1.19756E-01-4.55110E-03-8.17092E-01
 -1      3205-5.42811E-02-2.86010E-02-8.23882E-01
 -1      3206 3.95259E-02-1.97097E-02-8.11259E-01
 -1      3207 6.48708E-02 8.70796E-02-8.21998E-01
 -1      3208-1.17627E-01 3.29168E-02-8.15790E-01
 -1      3209-9.28023E-03 2.96641E-02-8.27894E-01
 -1      3210-1.57072E-02-8.63154E-02-8.21035E-01
 -1      3211-4.57432E-02 1.18792E-01-8.00991E-01
 -1      3212 6.62590E-03 5.56544E-02-8.28737E-01
 -1      3213 1.46144E-02 5.69880E-02-8.27689E-01
 -1      3214-2.10494E-02-7.32453E-02-8.22389E-01
 -1      3215-9.66518E-02 8.05977E-02-7.98044E-01
 -1      3216 2.71375E-02-1.15189E-01-8.16849E-01
 -1      3217 1.22012E-01-1.50302E-02-8.15862E-01
 -1      3218 3.05530E-02 5.29576E-02-8.28310E-01
 -1      3219 1.07084E-02-3.14890E-03-8.44246E-01
 -1      3220 9.07744E-02-2.08167E-03-8.02990E-01
 -1      3221 8.57990E-02-2.59599E-02-8.08361E-01
 -1      3222-5.16841E-02 6.10968E-02-8.24012E-01
 -1      3223-6.12758E-02-8.11439E-02-8.18702E-01
 -1      3224 1.41649E-02-2.11791E-02-6.69455E-01
 -1      3225 1.51310E-02-3.16255E-03-8.39493E-01
 -1      3226 1.89584E-02-5.80369E-02-8.04505E-01
 -1      3227 1.90422E-02-4.39963E-02-8.06128E-01
 -1      3228 5.10241E-02 8.45340E-02-8.23286E-01
 -1      3229 1.14855E-01 1.71764E-02-8.17769E-01
 -1      3230-6.20912E-03 4.52201E-02-8.28559E-01
 -1      3231 6.78148E-02-9.25929E-02-8.18369E-01
 -1      3232 1.29799E-02-6.04483E-03-8.52059E-01
 -1      3233 3.99811E-02 6.80534E-02-8.26312E-01
 -1      3234 2.74536E-02 3.65758E-03-8.29090E-01
 -1      3235 7.80007E-02 3.97216E-02-8.05823E-01
 -1      3236 1.07540E-01-3.59700E-02-7.98210E-01
 -1      3237-2.63411E-03 7.00551E-02-8.02089E-01
 -1      3238-4.49696E-02-6.47954E-03-8.25270E-01
 -1      3239 8.08890E-03 9.61911E-02-8.23255E-01
 -1      3240 7.38146E-02 2.18907E-02-8.25282E-01
 -1      3241-6.93050E-02 4.54676E-03-8.05729E-01
 -1      3242-7.01762E-02-8.87030E-02-8.15032E-01
 -1      3243 1.16621E-01-4.91878E-02-7.98903E-01
 -1      3244 5.07959E-03-4.27144E-02-8.25896E-01
 -1      3245 7.44542E-03-6.23630E-02-8.25921E-01
 -1      3246-2.96206E-02-3.50147E-03-8.25525E-01
 -1      3247 2.31673E-03 4.53908E-02-8.09774E-01
 -1      3248 5.42204E-02 6.44962E-02-8.08014E-01
 -1      3249 8.70349E-03 2.84912E-02-8.29111E-01
 -1      3250 2.29529E-03-9.57107E-02-8.00431E-01
 -1      3251 4.97508E-02-1.74970E-02-8.04448E-01
 -1      3252 4.26739E-02 1.20148E-01-7.98893E-01
 -1      3253 1.88343E-02 2.75831E-02-7.77375E-01
 -1      3254-1.02595E-01 7.68185E-02-8.11466E-01
 -1      3255 3.81227E-02 4.61231E-02-8.28573E-01
 -1      3256 5.37757E-02 1.95692E-02-8.07101E-01
 -1      3257-1.41196E-02-6.73525E-03-8.38662E-01
 -1      3258-2.94252E-03 9.02098E-02-8.01302E-01
 -1      3259 3.43976E-02 1.17178E-01-8.16500E-01
 -1      3260-1.55156E-02-4.37320E-02-8.02346E-01
 -1      3261-5.64799E-02-9.44452E-02-8.16891E-01
 -1      3262 2.23602E-02 8.74359E-02-8.25165E-01
 -1      3263-5.26619E-02 5.95387E-02-8.07468E-01
 -1      3264 8.11688E-02-3.70065E-02-8.01324E-01
 -1      3265-3.70432E-03 1.29805E-01-7.81348E-01
 -1      3266-2.29066E-03-1.69219E-02-8.37580E-01
 -1      3267-2.88610E-02-1.65994E-02-8.24004E-01
 -1      3268-1.04185E-01-6.25462E-02-8.14093E-01
 -1      3269-7.03748E-02-4.09697E-02-8.21628E-01
 -1      3270-1.57425E-02-2.24205E-03-8.40869E-01
 -1      3271-4.08743E-03-1.72626E-02-8.33121E-01
 -1      3272-5.38491E-02 4.21150E-02-8.09072E-01
 -1      3273 6.49429E-02 8.73344E-03-8.27605E-01
 -1      3274 7.10615E-03-1.05004E-01-8.05081E-01
 -1      3275-9.03665E-02-5.42987E-02-8.18247E-01
 -1      3276-1.03063E-01-4.55015E-02-7.95157E-01
 -1      3277 6.62792E-02-3.11283E-02-8.08117E-01
 -1      3278-6.86664E-02 7.71719E-02-8.05795E-01
 -1      3279 7.52413E-02-5.51596E-02-8.24096E-01
 -1      3280 5.51483E-02 9.58375E-02-8.20948E-01
 -1      3281-2.39571E-02 4.81903E-02-8.03609E-01
 -1      3282-1.27627E-01-1.49387E-02-8.12220E-01
 -1      3283-1.62680E-02-1.03758E-01-8.18453E-01
 -1      3284-9.68134E-03-1.28772E-02-8.36701E-01
 -1      3285-2.41478E-02 3.97211E-02-8.28111E-01
 -1      3286-4.86667E-02-2.77521E-02-8.23444E-01
 -1      3287 4.98986E-02 4.90996E-03-8.06364E-01
 -1      3288-9.00943E-02-2.83711E-02-8.20201E-01
 -1      3289-4.91069E-02-2.30214E-02-8.00434E-01
 -1      3290-1.44156E-02-7.67602E-02-8.22842E-01
 -1      3291-2.56384E-02 1.64882E-02-8.27225E-01
 -1      3292 6.30393E-02 1.75664E-02-8.27415E-01
 -1      3293 8.99141E-02-5.43626E-02-8.21741E-01
 -1      3294 1.02550E-01-6.22181E-02-8.15907E-01
 -1      3295-3.98318E-02-7.78042E-02-8.00633E-01
 -1      3296-6.75719E-02 3.28362E-02-8.07787E-01
 -1      3297 6.99271E-02-4.07114E-02-8.25897E-01
 -1      3298 5.79627E-02-3.33281E-02-8.27638E-01
 -1      3299-7.31559E-02 5.30068E-02-8.22594E-01
 -1      3300 5.45994E-02-1.03630E-01-8.19145E-01
 -1      3301-4.76056E-02 3.35973E-02-8.26381E-01
 -1      3302-3.87207E-02 5.16821E-02-8.26854E-01
 -1      3303-3.98400E-02 1.14888E-01-8.16241E-01
 -1      3304 1.00885E-01-9.48271E-03-8.06910E-01
 -1      3305 4.42447E-02 5.46042E-02-8.27121E-01
 -1      3306-1.14269E-02-1.50155E-02-8.31096E-01
 -1      3307-4.92133E-02-5.61127E-02-8.06369E-01
 -1      3308 9.04893E-02-4.53795E-02-8.05125E-01
 -1      3309 1.77303E-02 7.04084E-02-8.26955E-01
 -1      3310-9.36524E-02 3.38414E-03-7.99822E-01
 -1      3311 1.06632E-01-4.84000E-02-7.99458E-01
 -1      3312 1.93353E-02-7.75383E-02-8.24888E-01
 -1      3313-1.06673E-01 3.50709E-02-7.99656E-01
 -1      3314 3.34396E-03-1.51744E-02-8.40384E-01
 -1      3315 2.54754E-02 5.35456E-02-8.06157E-01
 -1      3316 2.41006E-03-3.42544E-02-7.86344E-01
 -1      3317-3.10808E-02 5.76830E-02-8.26598E-01
 -1      3318-2.60982E-02 9.48787E-02-8.22046E-01
 -1      3319 3.46472E-02 1.11872E-01-7.99898E-01
 -1      3320 5.49397E-02-1.15555E-01-8.01475E-01
 -1      3321 5.63799E-02-9.80462E-02-8.20786E-01
 -1      3322 3.36105E-02-3.18269E-02-8.06923E-01
 -1      3323-6.41267E-02 1.05930E-01-8.15594E-01
 -1      3324-3.18283E-02 6.13110E-02-8.06972E-01
 -1      3325-1.14040E-01 2.66684E-02-8.16676E-01
 -1      3326-2.35157E-02-1.82597E-02-8.23839E-01
 -1      3327-1.21657E-01 1.42195E-02-8.15812E-01
 -1      3328-5.85844E-02 4.33211E-02-8.24711E-01
 -1      3329 3.64026E-02-8.31951E-02-8.00643E-01
 -1      3330 1.23278E-01-2.85634E-02-8.15358E-01
 -1      3331-5.80341E-02 9.14795E-02-8.20936E-01
 -1      3332 3.95084E-02-1.07204E-02-8.29062E-01
 -1      3333 3.18426E-02 6.28539E-02-8.10985E-01
 -1      3334-3.42354E-02-6.66722E-02-8.05394E-01
 -1      3335-9.18577E-02-7.85004E-02-7.97159E-01
 -1      3336-4.25634E-02 7.66365E-02-8.07043E-01
 -1      3337-2.61066E-02-9.67659E-02-8.18344E-01
 -1      3338 5.86508E-02-5.13388E-02-8.07902E-01
 -1      3339-1.33951E-02 7.46227E-03-8.42524E-01
 -1      3340-7.42772E-02 4.13769E-02-8.22107E-01
 -1      3341-8.60471E-02-4.16841E-02-7.99664E-01
 -1      3342 9.19442E-03-7.21288E-03-8.43522E-01
 -1      3343 5.91981E-02 6.03276E-03-8.12110E-01
 -1      3344-5.25095E-02 1.01625E-01-8.00957E-01
 -1      3345 4.47041E-02-1.37615E-02-8.13534E-01
 -1      3346 4.80186E-02 1.00224E-01-8.03682E-01
 -1      3347 5.85018E-02 7.73450E-02-8.22834E-01
 -1      3348 7.76216E-02 8.32824E-02-7.98782E-01
 -1      3349-7.62857E-02-3.89113E-02-8.05360E-01
 -1      3350-1.26650E-01 2.98318E-02-8.12533E-01
 -1      3351-8.59229E-02-9.47984E-02-7.96461E-01
 -1      3352-1.24312E-02-1.01473E-01-8.03797E-01
 -1      3353-5.30962E-03 1.28270E-02-8.44688E-01
 -1      3354-1.13270E-02 7.07496E-02-8.26461E-01
 -1      3355-1.13557E-02 1.07947E-02-8.41922E-01
 -1      3356 1.90691E-02-2.63291E-02-8.28702E-01
 -1      3357-1.35815E-03 5.07669E-02-8.03387E-01
 -1      3358-3.95102E-02 3.22413E-02-8.03421E-01
 -1      3359 3.11544E-02-9.74035E-02-8.01680E-01
 -1      3360 2.92468E-02 1.19144E-01-8.15697E-01
 -1      3361 1.20626E-02-7.16893E-03-8.40253E-01
 -1      3362-8.40949E-03 1.19101E-02-8.41477E-01
 -1      3363-6.65027E-02-5.14759E-02-8.06359E-01
 -1      3364-5.91953E-02-1.00379E-01-8.14941E-01
 -1      3365-1.79807E-02-5.42699E-02-8.08275E-01
 -1      3366 4.50991E-02 3.98257E-02-8.06109E-01
 -1      3367 5.59684E-02 1.10515E-01-8.16529E-01
 -1      3368-1.72386E-02-4.41586E-03-8.34602E-01
 -1      3369-6.24058E-02-4.59319E-02-8.21733E-01
 -1      3370-3.42483E-02 5.50724E-02-8.27126E-01
 -1      3371-1.09987E-01-4.04167E-03-7.95462E-01
 -1      3372 9.95967E-02 4.82601E-02-7.98137E-01
 -1      3373 3.82560E-02 5.24033E-02-8.27495E-01
 -1      3374-8.03426E-02-1.00589E-01-8.10810E-01
 -1      3375-4.02028E-02-6.77958E-02-8.22383E-01
 -1      3376-1.21112E-02-1.09727E-02-8.37326E-01
 -1      3377-3.95822E-02-5.17338E-02-8.23212E-01
 -1      3378-8.95464E-03 1.47161E-02-8.36864E-01
 -1      3379 2.49311E-02 7.65714E-02-8.07468E-01
 -1      3380-6.79744E-02 1.90324E-02-8.09042E-01
 -1      3381 3.66272E-02-1.12340E-01-7.98914E-01
 -1      3382-1.31540E-01 1.73699E-02-8.12522E-01
 -1      3383-1.03094E-02-3.32994E-02-8.24485E-01
 -1      3384-1.03378E-01 1.38544E-02-8.20053E-01
 -1      3385 1.25079E-02-1.23535E-01-8.14063E-01
 -1      3386-8.17476E-02-6.78941E-02-8.02630E-01
 -1      3387 7.37648E-02-3.31993E-03-8.06560E-01
 -1      3388 1.19947E-01-4.40149E-02-7.98077E-01
 -1      3389 1.05765E-02-1.19510E-02-8.40353E-01
 -1      3390-6.48607E-02 5.36557E-02-8.03686E-01
 -1      3391 8.28593E-02-9.52566E-02-8.01328E-01
 -1      3392-8.54872E-04 4.19054E-02-5.75495E-01
 -1      3393 5.78570E-02-1.82770E-02-8.11788E-01
 -1      3394 7.52933E-02-9.62320E-02-8.16099E-01
 -1      3395-1.18919E-02 3.77485E-02-8.28001E-01
 -1      3396 2.06631E-02 6.39524E-02-8.08884E-01
 -1      3397 6.41411E-02-8.75265E-02-8.20742E-01
 -1      3398-3.63448E-02 4.06731E-02-8.08001E-01
 -1      3399-1.94577E-02 5.03246E-02-8.06024E-01
 -1      3400 3.26002E-02 4.36121E-02-8.28438E-01
 -1      3401-2.35581E-02 6.58301E-02-8.07887E-01
 -1      3402-2.51772E-03-1.92672E-02-8.31629E-01
 -1      3403 4.69973E-02-1.02263E-01-7.98630E-01
 -1      3404-7.90961E-03-1.43440E-02-8.33862E-01
 -1      3405-5.53520E-02-2.86272E-02-8.08246E-01
 -1      3406 2.24049E-02 1.87237E-02-8.28344E-01
 -1      3407 9.86924E-03-1.47186E-02-8.36379E-01
 -1      3408-2.03750E-02 1.25490E-01-8.14169E-01
 -1      3409-5.41547E-02-1.17727E-01-7.95877E-01
 -1      3410-4.19762E-02-1.22239E-04-6.43765E-01
 -1      3411-3.83521E-02 1.22974E-01-8.13662E-01
 -1      3412 6.10996E-02 4.80288E-02-8.26112E-01
 -1      3413 7.61073E-02 1.09086E-02-8.26568E-01
 -1      3414 5.35045E-04 1.41700E-02-8.45576E-01
 -1      3415-1.76289E-02-6.36502E-02-8.23820E-01
 -1      3416 6.70464E-02 5.93998E-02-8.06032E-01
 -1      3417 7.53133E-02 5.85920E-02-8.25323E-01
 -1      3418-6.02175E-02-1.14660E-01-8.00890E-01
 -1      3419 9.60647E-02 7.63098E-02-8.16139E-01
 -1      3420 7.50457E-03 4.00221E-02-6.33679E-01
 -1      3421 2.04036E-02 1.36377E-02-6.69039E-01
 -1      3422 1.15217E-01 5.67631E-02-8.01689E-01
 -1      3423 3.21340E-03-3.33270E-02-8.25691E-01
 -1      3424-6.65277E-02-1.08391E-01-8.11995E-01
 -1      3425-4.76703E-04-1.62618E-02-8.35180E-01
 -1      3426 5.56258E-02 1.50916E-02-8.28207E-01
 -1      3427-6.43209E-04 1.42743E-02-8.47764E-01
 -1      3428 2.71126E-02-4.21470E-03-8.29236E-01
 -1      3429 3.01462E-03 1.69353E-02-8.37957E-01
 -1      3430-4.34740E-02 8.67593E-03-5.87728E-01
 -1      3431-4.01247E-02 8.72566E-03-6.75284E-01
 -1      3432 9.12568E-02 6.98098E-02-8.18953E-01
 -1      3433-6.97852E-02-7.14035E-02-7.49579E-01
 -1      3434 2.32716E-03-1.61751E-02-8.34897E-01
 -1      3435 5.10300E-02 3.19905E-02-8.27186E-01
 -1      3436-6.37398E-04-2.01217E-02-8.44247E-01
 -1      3437 8.42216E-02 1.54289E-02-8.25025E-01
 -1      3438-2.54631E-02-6.39343E-03-6.64240E-01
 -1      3439-2.74283E-02-3.22235E-02-6.26798E-01
 -1      3440 1.30821E-02 2.09573E-02-6.68385E-01
 -1      3441-3.17371E-02 2.25035E-02-6.68648E-01
 -1      3442 4.08855E-02 9.56520E-03-5.81999E-01
 -1      3443 3.12845E-02 2.25434E-02-6.55417E-01
 -1      3444-3.35104E-02 2.31772E-02-6.32435E-01
 -1      3445 6.49175E-02 1.99213E-02-8.10726E-01
 -1      3446 6.18023E-02-1.11934E-01-8.15969E-01
 -1      3447-7.71080E-02 1.03912E-01-8.13518E-01
 -1      3448 4.43437E-02-2.56504E-03-8.13711E-01
 -1      3449-1.84785E-02-2.53594E-03-8.34240E-01
 -1      3450 2.75003E-03-2.73199E-02-8.25555E-01
 -1      3451 7.27629E-02-8.35761E-02-8.01206E-01
 -1      3452-5.13837E-03 1.44383E-02-8.43979E-01
 -1      3453-1.47178E-03 1.52343E-02-8.42551E-01
 -1      3454-5.75334E-03 6.04805E-02-8.10262E-01
 -1      3455-5.16430E-02-1.04352E-01-7.96954E-01
 -1      3456-1.56623E-02 4.50960E-03-8.39416E-01
 -1      3457-3.51639E-03 1.59224E-02-8.37504E-01
 -1      3458 7.17953E-03 1.37832E-02-8.40757E-01
 -1      3459-4.28041E-02-3.32046E-02-8.09281E-01
 -1      3460 1.37874E-02-5.25069E-02-8.11734E-01
 -1      3461 6.47666E-02-4.79766E-03-8.12872E-01
 -1      3462 9.51793E-02-3.14983E-02-8.00873E-01
 -1      3463 4.61305E-03 1.64783E-02-8.37138E-01
 -1      3464-1.32092E-02-1.00732E-02-8.32699E-01
 -1      3465-1.30987E-01 4.67908E-03-7.97264E-01
 -1      3466-8.04165E-02 4.10881E-02-8.04284E-01
 -1      3467 9.58295E-02 8.50872E-02-8.01114E-01
 -1      3468-7.80475E-02-8.63843E-02-7.95861E-01
 -1      3469 5.93096E-02-6.86312E-03-8.27953E-01
 -1      3470 5.57189E-03-8.39599E-02-8.07908E-01
 -1      3471 2.50363E-03-6.93464E-02-8.06269E-01
 -1      3472 1.21147E-02-1.00916E-02-8.36322E-01
 -1      3473 2.47783E-02 4.76389E-02-8.13147E-01
 -1      3474 1.12019E-01 6.15283E-02-8.15434E-01
 -1      3475 5.72842E-02 4.26985E-02-8.26984E-01
 -1      3476-1.47028E-02 9.95198E-03-8.37538E-01
 -1      3477 1.15269E-02 9.95200E-03-8.37321E-01
 -1      3478-3.19457E-02 9.43664E-02-8.01383E-01
 -1      3479-1.11338E-02 1.23701E-02-8.36147E-01
 -1      3480 7.80812E-03-1.58573E-02-8.35650E-01
 -1      3481 4.51579E-02-1.19708E-01-7.97931E-01
 -1      3482-1.37510E-02 4.04702E-02-8.12573E-01
 -1      3483 5.79400E-02 4.94044E-02-8.09228E-01
 -1      3484 1.02383E-01 7.96242E-02-8.13892E-01
 -1      3485 2.32759E-02-6.50730E-03-6.67264E-01
 -1      3486 8.22504E-02 6.66730E-02-8.22549E-01
 -1      3487 2.20115E-02-3.34065E-02-6.50367E-01
 -1      3488 5.18143E-02 2.60505E-02-8.05081E-01
 -1      3489-1.68580E-02 7.17549E-03-8.35578E-01
 -1      3490-2.29402E-02-3.41800E-02-6.55280E-01
 -1      3491 1.98894E-02-1.55552E-02-6.69550E-01
 -1      3492-2.15077E-02-1.59239E-02-6.63273E-01
 -1      3493 8.24910E-02 7.73098E-02-7.98637E-01
 -1      3494 5.68156E-02 1.15124E-01-8.04495E-01
 -1      3495-1.03524E-03-2.82234E-03-8.24288E-01
 -1      3496 2.58179E-03-1.90800E-03-8.25760E-01
 -1      3497 2.86243E-04-2.13549E-03-6.06068E-01
 -1      3498 1.90977E-05 1.22467E-03-8.24495E-01
 -1      3499 2.10018E-03 1.77325E-03-8.22456E-01
 -1      3500-1.10081E-03 2.84903E-03-8.24765E-01
 -1      3501-3.63324E-03 1.75028E-03-8.27220E-01
 -1      3502-1.08462E-04 1.89532E-03-6.04829E-01
 -1      3503 1.33786E-03 4.45808E-04-6.04976E-01
 -1      3504 6.08680E-02 6.04485E-02-8.01477E-01
 -1      3505-4.68729E-03-1.18684E-03-8.29437E-01
 -1      3506-4.83068E-03 5.45842E-04-8.28199E-01
 -1      3507-4.56397E-03-3.71749E-03-6.10602E-01
 -1      3508-1.83408E-03-2.62570E-04-8.02034E-01
 -1      3509-4.11505E-03-2.69821E-03-8.39649E-01
 -1      3510 3.98615E-04-3.78787E-03-8.27452E-01
 -1      3511-1.49900E-03-1.73969E-03-8.07212E-01
 -1      3512-1.83263E-03-1.71671E-03-8.23553E-01
 -1      3513 5.50937E-04-7.28700E-04-8.29143E-01
 -1      3514-1.72229E-04 4.58911E-04-8.28461E-01
 -1      3515-4.07324E-04 9.40897E-04-8.06172E-01
 -1      3516-5.63364E-02 2.24739E-02-7.94765E-01
 -1      3517-5.80611E-02-1.38930E-03-8.00710E-01
 -1      3518-1.79835E-03 3.63379E-03-6.10828E-01
 -1      3519-1.26633E-03 4.93623E-03-6.59034E-01
 -1      3520-1.06048E-03-1.90850E-04-8.22479E-01
 -1      3521 1.78759E-02-4.57986E-02-8.06143E-01
 -1      3522-1.28035E-02 4.33684E-03-8.00162E-01
 -1      3523 3.76762E-02 1.68530E-02-7.99877E-01
 -1      3524 7.00704E-03 9.05959E-04-8.28512E-01
 -1      3525-2.45509E-03-1.23379E-03-8.10254E-01
 -1      3526 4.79308E-03-8.26564E-05-8.38337E-01
 -1      3527 2.28578E-04 3.65009E-02-7.95269E-01
 -1      3528 4.83528E-04 7.33333E-04-8.23645E-01
 -1      3529 7.30452E-03-4.85376E-03-6.50005E-01
 -1      3530 1.96353E-02 4.87009E-02-8.04928E-01
 -1      3531 3.43154E-03-1.68233E-03-8.03636E-01
 -1      3532 1.32493E-02 2.36577E-03-8.27964E-01
 -1      3533-1.16956E-03 8.40461E-02-7.97461E-01
 -1      3534 1.08068E-03 1.17758E-04-8.06760E-01
 -1      3535-5.51481E-02-5.33290E-02-7.91334E-01
 -1      3536 1.64353E-03 2.29938E-03-6.02538E-01
 -1      3537 5.24434E-03-1.43641E-03-6.50417E-01
 -1      3538 3.48047E-02-3.61880E-02-8.03303E-01
 -1      3539-5.62587E-03-7.00263E-03-8.23190E-01
 -1      3540 4.77283E-03-3.38480E-03-8.29421E-01
 -1      3541-1.49328E-03-4.40546E-03-8.37664E-01
 -1      3542-3.70032E-03 6.16861E-03-6.54608E-01
 -1      3543-3.00248E-03-9.56291E-03-6.49248E-01
 -1      3544 7.37409E-04-4.37660E-03-8.17788E-01
 -1      3545-1.63853E-03 1.24545E-03-8.28118E-01
 -1      3546 8.48367E-04-8.57433E-03-8.24664E-01
 -1      3547 1.21894E-02 3.06158E-03-8.27172E-01
 -1      3548-1.08042E-02-2.45300E-03-8.23270E-01
 -1      3549 9.47321E-02-3.88509E-02-7.96804E-01
 -1      3550-4.17192E-02-9.14284E-02-7.99265E-01
 -1      3551-5.64432E-03 6.52613E-03-8.26018E-01
 -1      3552 3.98696E-03 5.92876E-03-6.39598E-01
 -1      3553-8.63044E-02 3.53932E-02-7.99180E-01
 -1      3554 3.35040E-02-4.05259E-02-8.15003E-01
 -1      3555 3.70069E-02-9.47240E-02-8.01534E-01
 -1      3556-4.27138E-02 3.88978E-02-8.04453E-01
 -1      3557-7.98483E-03 3.29202E-03-8.25373E-01
 -1      3558 6.96554E-02-7.16110E-02-7.96400E-01
 -1      3559-3.97668E-02 9.22458E-02-7.94809E-01
 -1      3560-2.34762E-02-6.38611E-02-8.09832E-01
 -1      3561-8.87322E-02-3.64211E-02-7.92439E-01
 -1      3562 2.10055E-03-2.44181E-04-8.24775E-01
 -1      3563-6.02241E-04 4.52308E-04-8.41808E-01
 -1      3564 1.25630E-04-8.51310E-03-8.23048E-01
 -1      3565-9.34460E-05-1.17520E-03-8.05978E-01
 -1      3566-5.87144E-03-8.35298E-03-8.22862E-01
 -1      3567-2.87694E-03-8.90412E-04-8.39615E-01
 -1      3568-8.85175E-02-6.06223E-03-8.07471E-01
 -1      3569 1.35873E-03 1.42412E-03-8.27498E-01
 -1      3570 1.05249E-03-1.25291E-02-8.23599E-01
 -1      3571 4.03350E-04 5.38723E-02-8.06472E-01
 -1      3572-4.76882E-03-2.64507E-03-8.24140E-01
 -1      3573 3.57339E-02 9.55010E-02-8.05100E-01
 -1      3574 2.65659E-02 8.21258E-02-8.12832E-01
 -1      3575-3.01153E-03-3.47488E-05-8.23461E-01
 -1      3576-6.74683E-02-7.42247E-02-8.05734E-01
 -1      3577 9.01937E-02 3.93062E-02-7.99500E-01
 -1      3578-1.13601E-02-1.26566E-02-7.98864E-01
 -1      3579-4.03173E-02-4.44189E-02-8.09960E-01
 -1      3580 2.98099E-02-8.00639E-02-8.07752E-01
 -1      3581-6.10338E-02 5.70371E-02-7.97546E-01
 -1      3582-2.01374E-03-2.28847E-03-6.08195E-01
 -1      3583-7.31452E-03 1.04549E-03-8.24107E-01
 -1      3584-5.13479E-02 1.84323E-02-8.07652E-01
 -1      3585-1.14569E-02 1.51219E-03-8.23550E-01
 -1      3586-4.44355E-04-1.26874E-03-8.25332E-01
 -1      3587 1.43432E-02 1.32961E-02-8.02208E-01
 -1      3588-2.83650E-03 8.11259E-03-6.15963E-01
 -1      3589-2.27846E-03-9.98087E-03-8.23237E-01
 -1      3590-7.86888E-03-1.25415E-02-7.99985E-01
 -1      3591-1.88479E-02 4.64615E-02-8.05011E-01
 -1      3592-6.73958E-03-1.11289E-01-8.02247E-01
 -1      3593-4.78683E-02 2.28521E-02-8.10877E-01
 -1      3594 4.60635E-03 1.09566E-02-8.04259E-01
 -1      3595-3.94556E-03-5.28202E-02-8.11534E-01
 -1      3596-2.61825E-02 2.46432E-02-8.09622E-01
 -1      3597 3.05439E-02 7.72110E-02-8.00800E-01
 -1      3598 6.48571E-02 2.08430E-03-7.98602E-01
 -1      3599 1.54216E-02-4.90780E-04-8.03836E-01
 -1      3600-1.48381E-02 2.46967E-03-8.23222E-01
 -1      3601 1.60293E-02 5.12948E-03-8.08895E-01
 -1      3602-3.24220E-03 2.05684E-03-8.07015E-01
 -1      3603 9.84028E-02 2.02186E-03-7.96929E-01
 -1      3604 3.52124E-03 1.17754E-02-8.26779E-01
 -1      3605 2.07077E-03 3.45585E-03-8.39847E-01
 -1      3606 6.13238E-02 2.59657E-02-8.00896E-01
 -1      3607-6.45946E-02-6.23148E-02-8.01408E-01
 -1      3608-7.10904E-03 1.03010E-02-8.27359E-01
 -1      3609 6.39408E-03-1.18118E-03-8.27573E-01
 -1      3610-4.53775E-02 4.52022E-02-8.05203E-01
 -1      3611 2.00840E-03-1.58597E-02-8.23808E-01
 -1      3612-3.00956E-02-8.18241E-02-8.04919E-01
 -1      3613 9.98162E-03-1.20820E-02-8.03431E-01
 -1      3614-1.44303E-02-2.55177E-03-8.00970E-01
 -1      3615-1.21579E-02-6.95681E-03-8.22927E-01
 -1      3616 2.21168E-02-7.08187E-02-8.10723E-01
 -1      3617-3.72452E-03-1.60386E-02-8.22645E-01
 -1      3618-2.17560E-05-1.72974E-03-8.49991E-01
 -1      3619-4.75643E-03-1.39650E-02-8.22118E-01
 -1      3620-2.77445E-02-6.71343E-02-7.84573E-01
 -1      3621-6.71458E-02-3.04940E-02-8.06434E-01
 -1      3622 5.28699E-02-2.53495E-02-8.15660E-01
 -1      3623 2.18447E-02-2.35538E-02-8.13082E-01
 -1      3624-1.06870E-03 7.97650E-03-8.27047E-01
 -1      3625 8.63485E-02 7.50024E-03-8.11799E-01
 -1      3626-4.18114E-03 7.84078E-02-8.09844E-01
 -1      3627-3.50496E-04 5.13088E-03-8.00633E-01
 -1      3628 1.33025E-02-2.64867E-03-8.27151E-01
 -1      3629 1.22904E-03-2.09748E-02-8.02055E-01
 -1      3630 1.93587E-03-1.07386E-02-8.14432E-01
 -1      3631 8.67740E-04-3.76851E-04-7.96779E-01
 -1      3632 2.64288E-03 8.82709E-02-8.07139E-01
 -1      3633-7.57709E-02 2.66970E-02-8.05611E-01
 -1      3634-8.82511E-03 4.85624E-03-8.26047E-01
 -1      3635-1.43988E-02 3.80715E-03-8.11892E-01
 -1      3636-4.39301E-03 9.89200E-02-8.05260E-01
 -1      3637-2.79466E-02-5.37830E-02-8.10897E-01
 -1      3638-2.18308E-03-2.92549E-03-8.39150E-01
 -1      3639 1.02286E-03-6.21479E-02-8.08497E-01
 -1      3640-5.31885E-03 2.73158E-03-7.98556E-01
 -1      3641 3.14259E-02 3.32856E-02-7.97980E-01
 -1      3642-1.26731E-02-2.01710E-03-8.23426E-01
 -1      3643-6.78169E-03 1.61777E-02-8.02290E-01
 -1      3644-1.01229E-01-4.74508E-02-8.02367E-01
 -1      3645-2.29661E-02 5.18697E-02-8.06970E-01
 -1      3646-3.09996E-02-1.18538E-02-7.95613E-01
 -1      3647 8.54163E-03-7.79580E-03-8.21753E-01
 -1      3648-2.66388E-03 8.55147E-03-8.27322E-01
 -1      3649-9.66450E-02 3.13048E-02-8.06996E-01
 -1      3650-8.12073E-02 7.33776E-02-8.01180E-01
 -1      3651 1.01227E-02-7.67225E-03-8.27634E-01
 -1      3652 1.68920E-02-9.33124E-03-8.02781E-01
 -1      3653-1.23602E-02 6.57445E-03-8.25619E-01
 -1      3654 4.85383E-02-4.84910E-02-8.05927E-01
 -1      3655 3.87449E-02-3.45496E-02-8.14439E-01
 -1      3656-9.42976E-03 1.14539E-02-8.26195E-01
 -1      3657-5.42692E-04-1.16792E-03-8.48650E-01
 -1      3658-7.02788E-04-6.04521E-04-8.45948E-01
 -1      3659 6.91795E-02-2.94007E-02-8.10747E-01
 -1      3660 4.90934E-02 1.71490E-02-8.15708E-01
 -1      3661-3.04840E-02 7.54094E-02-8.05408E-01
 -1      3662-1.19323E-03-8.33537E-02-7.95305E-01
 -1      3663 3.49229E-03-6.86226E-03-8.26993E-01
 -1      3664-9.28810E-04 4.30367E-02-8.11440E-01
 -1      3665 4.72717E-03 9.89012E-02-8.10242E-01
 -1      3666 1.56727E-03 2.60185E-03-8.24185E-01
 -1      3667 6.92901E-02 7.57701E-02-8.05652E-01
 -1      3668 5.43504E-03 3.93648E-03-8.37474E-01
 -1      3669 4.53915E-03 5.83887E-02-8.14372E-01
 -1      3670 4.75937E-02 5.17889E-02-8.07866E-01
 -1      3671 3.07920E-02-7.41224E-02-8.05951E-01
 -1      3672 6.23039E-02-5.62532E-02-8.09950E-01
 -1      3673 7.29553E-02-2.73899E-02-8.10061E-01
 -1      3674 1.00142E-01-4.66332E-02-8.06306E-01
 -1      3675-3.00461E-02-2.73366E-02-7.97978E-01
 -1      3676-4.05841E-02-9.85554E-02-7.98596E-01
 -1      3677 3.78576E-02 8.06845E-02-8.10881E-01
 -1      3678 5.18696E-03-1.09932E-02-8.26288E-01
 -1      3679 8.62989E-02-4.29127E-03-8.12312E-01
 -1      3680 1.44154E-03 1.39615E-03-8.47556E-01
 -1      3681 1.74424E-03 8.94730E-03-8.26759E-01
 -1      3682 5.50110E-02-6.21595E-02-8.09115E-01
 -1      3683 2.57856E-02-5.38948E-02-8.13350E-01
 -1      3684 7.37876E-03-1.25966E-02-8.26154E-01
 -1      3685 3.56965E-02-1.39155E-02-8.03576E-01
 -1      3686 4.98453E-03-1.47064E-03-8.21152E-01
 -1      3687 8.43090E-02 3.06912E-02-8.08479E-01
 -1      3688 3.37469E-02 4.04017E-02-8.15478E-01
 -1      3689 1.13407E-02 2.94805E-02-8.11828E-01
 -1      3690-5.20701E-02-4.76329E-02-8.05121E-01
 -1      3691 1.24212E-02-2.50312E-03-8.27193E-01
 -1      3692-6.60556E-02-2.58744E-02-8.04752E-01
 -1      3693-3.73891E-03-8.45260E-04-6.08456E-01
 -1      3694 4.50299E-03 6.49378E-03-8.25494E-01
 -1      3695 4.11939E-03-9.51447E-04-6.10547E-01
 -1      3696 1.89538E-03-6.81148E-03-6.44098E-01
 -1      3697-3.32564E-02 6.97626E-02-8.08156E-01
 -1      3698 7.04795E-04-1.66543E-03-8.47057E-01
 -1      3699-8.11591E-03-5.84253E-05-6.53382E-01
 -1      3700 1.69461E-04-3.52928E-03-8.00480E-01
 -1      3701 7.33064E-03-2.07849E-03-8.38352E-01
 -1      3702-1.17444E-02-2.74345E-02-8.06571E-01
 -1      3703-8.08755E-03-1.15352E-02-8.23197E-01
 -1      3704-4.89054E-03-1.86729E-03-8.01327E-01
 -1      3705-1.93165E-02 5.72047E-02-8.13896E-01
 -1      3706 5.20387E-03-9.47785E-02-8.09120E-01
 -1      3707 3.42151E-03-2.70256E-03-6.10117E-01
 -1      3708 3.15740E-03-4.80955E-03-6.08578E-01
 -1      3709-7.16450E-03-4.85339E-03-6.49553E-01
 -1      3710 8.69548E-04 6.19922E-03-6.41535E-01
 -1      3711-4.26761E-03 1.64203E-03-6.09970E-01
 -1      3712-9.79164E-02 2.60617E-03-8.04998E-01
 -1      3713 7.02318E-03 9.47840E-03-8.25456E-01
 -1      3714-2.07034E-05-9.54908E-03-8.34120E-01
 -1      3715 1.25873E-04-2.67867E-03-8.51051E-01
 -1      3716 1.00182E-02-2.60275E-02-8.10918E-01
 -1      3717-1.14053E-03 1.41890E-03-8.47909E-01
 -1      3718 6.33432E-03-9.72272E-03-8.15915E-01
 -1      3719 6.53597E-03-3.39457E-03-8.38460E-01
 -1      3720-2.52784E-03 1.21951E-02-8.27048E-01
 -1      3721-5.21385E-03-8.24520E-02-8.06790E-01
 -1      3722-3.04623E-02 4.77402E-04-8.06080E-01
 -1      3723-1.09814E-02-7.31586E-03-8.22668E-01
 -1      3724 3.78855E-03 4.54072E-03-8.27288E-01
 -1      3725 7.80226E-03 6.68697E-03-8.27320E-01
 -1      3726-1.06219E-01-5.75072E-03-8.03589E-01
 -1      3727 6.60189E-02-7.42316E-02-8.06466E-01
 -1      3728-2.14784E-02-1.87931E-02-8.11815E-01
 -1      3729 2.91985E-03 1.36210E-02-8.26715E-01
 -1      3730 9.91524E-03 8.72064E-03-8.26685E-01
 -1      3731-1.10909E-02 1.09002E-03-6.51170E-01
 -1      3732-5.47177E-03 1.04028E-03-6.08208E-01
 -1      3733 8.20910E-03 1.71400E-03-6.49608E-01
 -1      3734-4.38453E-03-5.66876E-03-6.09112E-01
 -1      3735 4.24967E-03 1.64323E-03-6.05234E-01
 -1      3736 5.83241E-03 2.58690E-03-6.42130E-01
 -1      3737-7.96132E-03 2.87517E-03-6.46610E-01
 -1      3738 1.74227E-02-5.42118E-02-8.10237E-01
 -1      3739 1.07459E-03 1.20096E-03-8.45410E-01
 -1      3740-2.85998E-02-2.85877E-03-8.12559E-01
 -1      3741 1.93765E-02 4.07912E-02-8.13650E-01
 -1      3742-6.13141E-03 2.51334E-03-8.41372E-01
 -1      3743 1.67152E-03 6.32895E-03-8.39462E-01
 -1      3744 1.86731E-03-3.87498E-03-6.53767E-01
 -1      3745-3.38932E-03-4.63522E-03-6.53144E-01
 -1      3746 7.57467E-02 6.86972E-02-8.05413E-01
 -3
    1PSTEP                         2           1           1          
  100CL  101 1.000000000        3746                     0    1           1
 -4  STRESS      6    1
 -5  SXX         1    4    1    1
 -5  SYY         1    4    2    2
 -5  SZZ         1    4    3    3
 -5  SXY         1    4    1    2
 -5  SYZ         1    4    2    3
 -5  SZX         1    4    3    1
 -1         1-8.36905E+00-6.55873E+01-4.11014E+00-1.17993E+01 2.32366E-01 2.23982E+00
 -1         2-9.35169E-01-8.48784E-01 6.14551E-01-2.87751E-02-7.05991E-03-2.05375E-01
 -1         3-6.38488E+00-2.67415E+00 1.79804E-01 1.77843E+00-2.08474E-01-1.06705E-02
 -1         4-3.08106E+00-1.23149E+00 1.07095E-01 6.64544E-01 2.66579E-01-1.07526E+00
 -1         5-3.24766E+00 8.23563E-02 8.89113E-01-5.89542E-01 4.31689E-01 1.12669E-01
 -1         6-9.23979E-01-9.98011E-01-4.78494E-01 9.18212E-01 4.58624E-01-5.67560E-01
 -1         7-1.90170E+00-7.98106E-01 1.78005E+00-7.45766E-01-4.59422E-01-5.33228E-01
 -1         8-1.08795E+00-5.33963E-01 2.46301E+00 7.58215E-01 7.89072E-01-9.03547E-02
 -1         9-2.46050E+00-2.31362E+00 1.96157E-01 1.37805E+00 4.29288E-01-6.50925E-01
 -1        10-2.33337E+00-2.36486E+00-7.08160E-01 1.21851E+00 4.01232E-01-8.32116E-01
 -1        11-6.84986E+00-1.84205E+00 5.07701E-01 3.45585E-01-1.08081E-02-3.17427E-01
 -1        12-9.22190E+00-4.34072E+01 5.56942E+00 1.03124E+01 2.06733E+00-7.12973E-01
 -1        13-8.49282E+00-6.08352E+01-4.79809E+00-7.99860E+00 6.95073E-01 1.76782E+00
 -1        14-5.10813E+00-2.57304E+00 1.95698E-01 1.88226E+00 3.71940E-01-3.02368E-01
 -1        15 5.18520E-01-5.63867E-01 9.19913E-01 3.16656E-01 3.55200E-01-3.82784E-01
 -1        16 1.90459E-01-9.23773E-01 3.59296E+00 7.47290E-02 7.97727E-01 4.32693E-01
 -1        17 4.19040E-02-2.39668E-01-3.04106E-01-2.73133E-02 2.74029E-01 1.08673E-02
 -1        18-3.28471E+00-6.41759E+00 2.79023E-01-1.85586E+00 3.28716E-01 8.62596E-02
 -1        19-2.19262E+00-4.65986E+00-1.99987E-02-1.80751E+00-8.13161E-02 3.47020E-01
 -1        20-5.31530E+01-2.64522E+01-5.54229E+00 2.93540E+01-4.66867E+00-1.30767E+00
 -1        21-6.86122E+01-9.37693E+00-5.08353E-01 1.01266E+01-2.57532E+00-1.21003E+00
 -1        22-2.93316E+01-5.04307E+01-1.56113E+00 3.00964E+01-3.14141E+00-5.12995E+00
 -1        23-3.71453E+00-4.88422E+00 3.87398E-01-2.33886E+00 2.80762E-02-2.02069E-01
 -1        24-9.65484E+00-6.90767E+01-5.83553E+00 1.34283E+01-2.44944E+00-1.09210E+00
 -1        25-7.29181E+00-6.92116E+01-3.94898E+00 1.61339E+01-2.57321E+00 3.72353E-01
 -1        26-8.35057E+00-6.40906E+01-4.31099E+00-1.17530E+01 1.23643E+00-1.39100E-01
 -1        27-7.32300E+00-2.16193E+00 4.06977E-01-5.55437E-01-1.12314E-01-8.39050E-02
 -1        28-5.27437E+00-1.01818E+00 1.26486E+00 3.60959E-01-9.09806E-02-9.37430E-02
 -1        29-2.70577E-01-4.48573E-01-3.77907E-01-9.06875E-02 1.07175E-01 3.19770E-01
 -1        30-3.48826E+00-1.13860E+00-3.17203E-02 1.46278E-01-2.20414E-01 8.85086E-01
 -1        31-8.81538E-01-2.48291E+00-2.63988E-01 4.00139E-01-6.44103E-01 2.41638E-01
 -1        32-1.95469E+00-2.29186E+00-5.54336E-03-1.00642E+00 6.59600E-01 6.37459E-01
 -1        33-6.85563E-01-1.03325E+00 7.36089E-01-2.37416E-01 2.25235E-01 1.07755E-01
 -1        34-7.71455E-01-1.01086E+00 3.18717E-01 1.67449E-02 3.67548E-01 7.17000E-01
 -1        35-6.60638E+00-2.72410E+00 3.27051E-01-1.50509E+00 1.04102E-01 2.13296E-01
 -1        36-1.84087E-01-1.22852E+00 1.13329E+00-1.68762E-01 3.39259E-01-3.95880E-01
 -1        37-2.15810E+00-5.67061E+00 3.04892E-01 1.49515E+00 2.86368E-02-7.39520E-02
 -1        38-1.78626E+00-4.27226E+00 3.05459E-01 1.61663E+00-1.65905E-01 1.92369E-01
 -1        39-6.42796E-01-2.04845E+00-1.30283E-01 3.61896E-01-8.80542E-01 3.43379E-01
 -1        40-4.85146E+01-2.94131E+01-3.21181E+00-2.98227E+01-1.24152E+00 1.15914E+00
 -1        41-6.44359E+01-1.02131E+01-2.09196E+00-1.29862E+01 1.34675E+00 6.20558E-01
 -1        42-7.10503E+01-1.33258E+01-8.72766E-01 1.00019E+01 2.08967E+00 6.13289E-01
 -1        43-1.87023E+00-6.89786E+00 6.16035E-01-6.35245E-01-2.40717E-01-1.21799E-01
 -1        44-5.94412E+00-2.78714E+00 8.04672E-01 1.81871E+00 1.19812E-01 1.54923E-01
 -1        45-2.85824E+01-4.80827E+01-2.89801E+00-3.26571E+01 5.00029E-01-3.66422E-02
 -1        46-2.76965E+00-1.36724E+00 2.49929E-01 5.09703E-01-4.33129E-01 6.33943E-01
 -1        47-5.87043E+00-1.76501E+00 7.54503E-01 1.06443E+00 1.06859E-01 3.33968E-01
 -1        48-1.95367E+00-8.70543E-01-4.26404E-01 7.83597E-01-4.46459E-01 7.15160E-01
 -1        49-4.09927E+00-4.85225E+00 8.26202E-02 2.50771E+00-3.66199E-01 3.67637E-01
 -1        50-2.66798E+01-4.65939E+01-2.09102E+00-2.98708E+01 2.45628E+00-1.14639E+00
 -1        51-4.62492E+00-3.74774E+00 2.27163E-02 2.36211E+00-1.55032E-01 6.30330E-01
 -1        52-1.67084E+00-1.58747E+00 2.80844E-02 9.49420E-01-5.90308E-01 7.13272E-01
 -1        53-1.60010E+00-2.20911E-01-3.00585E-01 5.52397E-01-2.39305E-01 5.03265E-01
 -1        54-1.71670E+00-1.71944E+00-2.18880E-01 8.90111E-01-4.43493E-01 5.14273E-01
 -1        55-2.81269E-01-2.80842E-01-3.70205E-01-1.59937E-02-2.21324E-01 2.21681E-01
 -1        56-7.62882E-01-2.84560E+00 3.88071E-02-4.40139E-01-8.25371E-01 9.06101E-02
 -1        57-5.68751E+01-3.10640E+01-5.33130E+00 3.21152E+01 1.93921E-01-6.04450E-01
 -1        58-1.29275E+00-3.10368E+00 5.49169E-02-6.64185E-01-8.09196E-01-1.72576E-01
 -1        59-1.08502E+00-2.51542E+00-4.15994E-02-7.59243E-01-8.91129E-01-2.56628E-01
 -1        60-2.87751E-01-2.38302E-01-2.81241E-01 1.83847E-01-3.53207E-01 9.48128E-02
 -1        61-3.35103E-01-2.88308E-01-7.81884E-02 2.62262E-01-2.76602E-01 3.53205E-02
 -1        62-6.25063E-01-8.04281E-01 6.89290E-01 1.01229E-01 4.77952E-01 3.91513E-01
 -1        63-7.36435E-01-1.11244E+00 2.77592E+00 3.44574E-01 5.01916E-01 1.19210E-01
 -1        64-2.08643E+00-6.73886E+00 4.16691E-01 5.21665E-01 2.31709E-01 1.40465E-01
 -1        65 1.03821E-01-1.77395E-01-2.47763E-01-1.64376E-02 2.09648E-01 1.94261E-02
 -1        66-7.24380E-01-2.48500E+00 5.25900E-02-3.78017E-01 8.16011E-01 9.02193E-02
 -1        67-6.20947E+01-8.14087E+00 1.12899E+00 1.07569E+01 3.87989E-01-1.60417E+00
 -1        68-7.27061E+01-1.45192E+01-1.49919E+00-1.04087E+01-1.71561E+00 2.19341E+00
 -1        69-4.73493E+01-1.95688E+01 3.68492E+00-2.58365E+01-2.09957E+00-2.97948E+00
 -1        70-2.46519E+00-6.43742E+00 1.69499E-01 1.61264E+00 1.93745E-01-3.59588E-02
 -1        71-1.11765E+00-3.26520E+00 1.40772E-02 6.12964E-01 7.78342E-01-2.59212E-01
 -1        72-7.50379E-01-3.66038E-01-7.78073E-01-1.44853E-01 6.14310E-01-2.54831E-01
 -1        73-6.72552E-01-5.85379E-01-5.86447E-01-9.57547E-02 6.99099E-01-3.10589E-01
 -1        74-7.16934E-02-1.79020E+00 1.34384E-01-9.33677E-02 8.94448E-01-1.40788E-02
 -1        75-8.53904E-01-9.60477E-01-3.07727E-01-2.61859E-01-6.16257E-01-3.86408E-04
 -1        76-8.74485E-01-1.41717E+00 1.73591E+00 4.92371E-01-3.50674E-02 1.84188E-01
 -1        77-2.24799E+01-4.71989E+01 1.54684E+00 2.98463E+01-1.15044E-01 1.13494E-01
 -1        78-4.35392E+00-4.96488E+00 1.27310E-01-2.54156E+00-6.91045E-02-5.74124E-02
 -1        79-3.68283E+00-2.63270E+00 8.04062E-01-2.14919E+00 2.28603E-02-2.44000E-01
 -1        80-4.96016E+01-2.96982E+01-4.05774E+00-2.80792E+01-2.10825E+00-3.83682E-01
 -1        81-2.87359E+01-5.14225E+01-3.66953E+00-2.81213E+01-3.29249E+00 8.04097E-01
 -1        82-3.80979E+00-4.31454E+00 5.65846E-01 2.48604E+00-5.23749E-02 8.38050E-02
 -1        83 1.83876E-01-2.61289E+00 1.65447E+00-6.79408E-01 3.38578E-01-6.94468E-01
 -1        84-1.20718E+00-1.04188E+00 6.64152E-02 4.88581E-02-4.13686E-01-4.04065E-01
 -1        85-2.11018E+00-1.82683E+00-9.40227E-02-1.06363E+00-6.67906E-01-6.80060E-01
 -1        86-5.74737E+00-2.63889E+00 3.62470E-01-1.75511E+00-1.57454E-01-1.40901E-01
 -1        87-5.84408E+00-1.51253E+00 7.82727E-01-1.29636E+00-3.74221E-04-9.06001E-02
 -1        88-3.11276E+00 1.87424E-01 1.66791E+00 7.28332E-01-7.19374E-01-2.46578E-01
 -1        89-2.92584E+00-1.36689E+00-8.10348E-02-7.57109E-01-2.24124E-01-6.98780E-01
 -1        90-2.24626E+00-8.52247E-01 2.31495E-01-8.96306E-01-4.17508E-01-7.98514E-01
 -1        91-5.51763E-01-4.33246E-01-6.87062E-01-6.00538E-02 1.30395E-01-5.75265E-01
 -1        92-4.27254E-01-2.65310E-01-7.68059E-01 1.43579E-01 1.01609E-01-5.59839E-01
 -1        93-1.74181E-01-2.72573E-01-6.99391E-01 2.77378E-01 4.59575E-01-3.77353E-01
 -1        94-3.30618E+00-9.71818E-01 1.64114E-02-4.03114E-01-5.55928E-02-7.86264E-01
 -1        95-8.53055E-01-7.21561E-01 2.57055E-02-9.99899E-03 4.08408E-01-7.22829E-01
 -1        96-2.63647E-01-7.01069E-02-2.69068E-01-2.57724E-02-8.01230E-02-2.41857E-01
 -1        97-2.80593E-01-3.32757E-01-3.83999E-01 1.87979E-02-1.29986E-01-2.97856E-01
 -1        98 7.26375E-01-1.34447E+00 2.30143E-01 1.45438E-01 1.75601E-01 3.04545E+00
 -1        99-1.25349E+00-2.06808E+00 1.19679E-01-8.87364E-02 1.12623E-01 1.59453E+00
 -1       100-1.92474E+00-2.95123E+00-1.21814E+00-4.98157E-02-1.99376E-01 1.09052E+00
 -1       101-1.51078E+01-2.06908E+01-1.17662E+01-4.35704E-01 1.42473E+00-5.81565E+00
 -1       102-2.48592E-01-1.07980E-01-1.35248E-01-1.39437E-01 6.53322E-02 1.65359E-01
 -1       103-2.15065E+00-7.76742E-01 1.55241E+00-1.64269E+00-5.85179E-01 3.86588E-01
 -1       104-1.27018E+00-1.45616E+00-5.12354E-01-4.83943E-01-3.00115E-02 1.81301E+00
 -1       105-2.89322E+00-9.80844E-01-3.08980E-01-6.45483E-02-3.80620E-01 9.75088E-01
 -1       106-8.86446E+00-1.58628E+01-5.98858E+00-9.39802E-01-3.24733E-01-4.76719E-01
 -1       107-1.91040E+00-6.87944E-01 1.69051E+00 1.52656E+00 6.06231E-01 4.67516E-01
 -1       108-1.52902E+00-4.94461E-01-8.19200E-01-6.99250E-01-5.26829E-02 5.88424E-01
 -1       109-3.57697E+00-5.22111E+00-2.47444E+00-1.11693E-01 5.02963E-01 2.15863E+00
 -1       110-1.15506E+00 5.36947E-02 8.92970E-01 5.41965E-01-7.64045E-01 4.19208E-01
 -1       111-2.55040E+01-3.65860E+01-4.37980E-01 2.62163E+01-2.19297E+00 5.79362E-01
 -1       112-2.17567E+01-2.86569E+01-1.74849E+01 4.46725E-01-1.43854E+00-7.07244E+00
 -1       113-1.95541E-01-2.84612E-01-3.76106E-01 5.05846E-02 1.30492E-01 2.74882E-01
 -1       114-2.95337E+00-1.28129E+00 9.27481E-02-5.11049E-01 3.55879E-01 5.07189E-01
 -1       115-1.96599E-01-1.91263E-01-2.60384E-01-3.91028E-02 1.35436E-01 2.85269E-01
 -1       116-1.52300E+00-8.35156E-01 4.68797E-01 3.19689E-01 6.22905E-01 1.22177E+00
 -1       117-4.84889E+00-1.79923E+00 2.31308E-01-1.76020E+00 1.88427E-01-4.37293E-02
 -1       118-2.06909E+00-8.54141E-01 4.98885E-01-7.79887E-01 3.14360E-01 4.97436E-01
 -1       119-1.99692E+00-3.08665E+00-7.61341E-02 6.37634E-01 4.44075E-01 1.01482E+00
 -1       120-7.74945E-01-1.78571E+00 9.69898E-01-1.39056E+00-3.56507E-01 2.88554E-01
 -1       121-1.15913E+01-1.38465E+01-6.37653E+00 3.14221E+00 1.79591E-01-6.96057E-01
 -1       122-3.98315E+00-4.80562E+00-2.50733E+00 5.82322E-01 4.82714E-01 1.33215E+00
 -1       123-3.28810E+00 7.68284E-02 1.31772E+00 8.37628E-01 5.26087E-01 4.08721E-01
 -1       124-6.70410E+00-7.59482E+00-3.34121E+00 1.39528E+00 1.89696E+00 1.18298E+00
 -1       125 1.49791E+00 2.33060E+00 2.62893E+00 6.55855E-01 2.20053E+00 2.22877E+00
 -1       126-2.46788E+00-1.85164E+00-7.11257E-01 4.35910E-01 1.22911E+00 1.10113E+00
 -1       127-6.89143E-01-1.81933E-01-5.70475E-01 2.70854E-02 1.29401E-01 5.53259E-01
 -1       128-1.61602E+01-1.47022E+01-9.37432E+00-1.24190E-01-3.61464E+00-3.26708E+00
 -1       129-4.58705E-01-3.00530E-01-1.03667E+00-2.23277E-02 8.86123E-02 6.86188E-01
 -1       130-8.75782E-01-1.89392E+00 5.79634E-01-9.10719E-01 4.11523E-01 2.72721E-01
 -1       131-3.33622E+00-3.04037E+00 1.02012E+00-1.87725E+00-1.72540E-01 1.67000E-02
 -1       132-2.40782E+00-1.59982E+00-6.01771E-01 5.42894E-01 8.22719E-01 4.50720E-01
 -1       133-2.34935E+00-1.72787E+00-5.22280E-01 7.09849E-01 8.14037E-01 4.38510E-01
 -1       134-3.13686E+00-3.59748E+00-2.12513E+00 1.34013E-01 2.00870E+00 1.12116E+00
 -1       135-4.11003E+00-3.41432E+00-3.03079E+00 2.98144E-01 1.52228E+00 1.49908E+00
 -1       136-2.74360E+00 7.20143E-02 9.48906E-01-5.97847E-01 4.16225E-01-1.04731E-01
 -1       137-2.59483E-02-3.14140E+00 7.34965E-01-7.68847E-01-3.02913E-01 2.77953E-01
 -1       138-5.82335E-01-1.10491E-01 4.25211E-01-5.59449E-01-3.41249E-03 9.61036E-01
 -1       139-1.40658E+01-1.17780E+01-6.80795E+00 3.00594E+00 2.40909E-01-6.39451E-01
 -1       140-2.79206E+01-2.73806E+01-1.91112E+01 1.28735E+00-8.14106E+00 6.67460E-01
 -1       141 3.07237E-02-1.86300E-01-3.58982E-01-2.14915E-02 2.60502E-01 4.32867E-02
 -1       142 1.09566E-01 1.07681E+00 1.27151E+00 8.48643E-03 3.61200E+00 9.67454E-01
 -1       143-1.23366E+00-2.43314E+00 3.03284E-01-4.87734E-01 6.55410E-01 3.81547E-01
 -1       144-2.53648E+00-1.97642E+00-7.92077E-01 5.22355E-01 1.26925E+00 2.04856E-01
 -1       145-4.50115E+01-2.61640E+01-6.64991E+00 3.11380E+01-4.56018E+00-3.84643E+00
 -1       146-2.19679E+00-9.31828E-01 1.98187E-01-1.47506E+00 1.04207E-01-5.33336E-03
 -1       147-7.96406E-01-1.69378E+00-3.85108E-01-7.62088E-01 7.79567E-01 4.08876E-01
 -1       148-3.31192E-02-1.09175E+00-5.80493E-01-1.19972E-01 7.28783E-01 1.23376E-01
 -1       149-2.40840E+00-2.61246E+00-9.00907E-01 6.59294E-01 1.55643E+00 4.90495E-01
 -1       150-2.67566E+00-2.65157E+00-9.45115E-01 6.90346E-01 1.66294E+00 3.95604E-01
 -1       151-5.18570E+00-4.58473E+00-3.15524E+00 4.48620E-01 1.80666E+00 7.60508E-01
 -1       152-4.23057E-01-3.30744E-01 9.50539E-01-5.98288E-01-1.29055E-01 5.78823E-01
 -1       153-2.12910E+01-2.19142E+01-1.45081E+01-1.53828E-01-6.25544E+00 2.37238E+00
 -1       154-6.71338E+01-4.55388E+00 8.16535E+00-6.14027E+00 7.93177E-01 1.21494E+00
 -1       155 9.61665E-02-1.69785E-01-1.72348E-01 7.71489E-03 2.07760E-01 7.94571E-02
 -1       156-4.42714E+00-3.04601E+00-5.58740E-01 1.31493E-02 1.40894E+00-2.74658E-01
 -1       157-2.70257E+00-9.41945E-01 5.69031E-01 3.06525E-01 9.69895E-01 3.05482E-01
 -1       158-3.14729E+00-2.36808E+00-6.09137E-01-1.74972E-01 9.00545E-01 6.50919E-01
 -1       159-1.33364E+00-4.97828E+00 6.04438E-01-2.65942E-01-1.37117E-01 4.46025E-01
 -1       160-8.63602E-01-2.03092E+00 3.60976E-01-1.40449E+00 9.47384E-02-1.32841E-01
 -1       161-3.09177E-02-1.01927E+00-4.90433E-02 3.51891E-01 6.02694E-01-3.74910E-01
 -1       162-1.76968E+00-1.33877E+00-1.38385E-01-2.08322E-01 2.26382E+00-1.44029E+00
 -1       163-1.93693E+00-1.93201E+00 4.77847E-02-1.50965E-01 8.41076E-01-3.42044E-01
 -1       164-7.99251E-01-2.72288E+00 6.86833E-02 5.52051E-01 4.11957E-01 1.08739E-02
 -1       165-2.07472E+00-4.88422E+00 5.82766E-01 2.01733E+00 3.46417E-01-2.23146E-01
 -1       166-1.20408E+01-1.02355E+01-5.04135E+00-2.61305E+00 3.09849E-01 6.49827E-01
 -1       167 1.66393E-01-3.12774E+00 1.47483E+00-6.79396E-01 1.33890E-01-6.52717E-01
 -1       168 1.85379E-01-1.38580E+00 9.96417E-01-2.02504E-01 1.54645E-01 4.89406E-01
 -1       169-2.64619E+01-4.13539E+01-6.12734E-01-2.86128E+01-3.55648E+00-2.31899E+00
 -1       170-1.83884E+00-3.06113E+00-2.63245E+00-3.88272E-01 3.73661E-01-5.77428E-01
 -1       171-1.73873E+01-1.73400E+01-8.50434E+00-1.89127E+00-1.20672E+00 2.90550E+00
 -1       172-2.51271E-01-3.02097E-01-8.25408E-01 2.71596E-01 4.99280E-01-4.50179E-01
 -1       173-4.26385E+00-3.53476E+00 9.26524E-02 2.33420E+00-4.29924E-01 3.45111E-02
 -1       174-3.21169E+00-1.03384E-01 4.63195E-01 8.25164E-01 1.34373E-01 3.94584E-01
 -1       175-3.62414E+00-3.48825E+00-6.94834E-01-7.56494E-01 5.15738E-01-1.17745E+00
 -1       176 4.38258E-02-3.20467E+00 8.38712E-01 6.55999E-01-3.04820E-02-3.80327E-01
 -1       177-1.77045E+00-1.25762E-02 8.76893E-01 6.73390E-01-2.65457E-01-6.91802E-01
 -1       178-5.26293E+00-5.51586E+00-3.57146E+00-5.98257E-01 8.50115E-01-1.39828E+00
 -1       179-3.49409E-01-1.75499E+00-8.70828E-01 5.86477E-01 5.09892E-01-5.03375E-01
 -1       180-3.09333E+01-2.94205E+01-1.90710E+01 6.07137E-01-3.07247E+00 5.69333E+00
 -1       181-6.55841E+00-6.04754E+01-2.37035E+00-1.17408E+01-2.82485E+00-1.22288E+00
 -1       182-2.62658E+01-2.37900E+01-1.70467E+01 2.26867E+00-1.07698E+00 7.50634E+00
 -1       183-9.59649E-01-1.40749E+00 7.06313E-03 4.30939E-01 8.10869E-01-1.27468E+00
 -1       184-1.63679E+00-2.57378E+00 6.84218E-02-1.03234E+00 5.66071E-01-1.31332E+00
 -1       185-2.39987E+00-3.08432E+00-1.68944E+00-5.83341E-01-1.13641E-01-1.20665E+00
 -1       186-9.64702E+00-1.53094E+01-5.29922E+00-2.58667E+00 1.03026E-01-7.86579E-01
 -1       187-2.83344E+00-4.07137E+00-1.41006E+00-1.60229E-01 9.29899E-01-9.89606E-01
 -1       188-2.18119E+00-3.11372E-01 4.51758E-01 5.40250E-01 1.91207E-01-4.03954E-01
 -1       189-6.67468E-01-2.23061E+00 1.07638E+00 1.48294E+00 2.18520E-02-6.00014E-01
 -1       190-3.76600E+00-4.14910E+00-2.94139E+00-3.15318E-02 1.23882E+00-1.70766E+00
 -1       191-6.12391E+00-8.03635E+00-3.45176E+00-6.41235E-01-6.35307E-01-2.54017E+00
 -1       192-5.36139E-01-2.97639E-01-7.48811E-01-7.72361E-03-9.12784E-03-6.33614E-01
 -1       193-1.49293E+00-3.43291E+00-1.76051E-01 2.98356E-01-4.97199E-01-8.39894E-01
 -1       194-5.48278E+00-1.30723E+00 1.37086E-02-2.58836E-01-3.94735E-02 9.68033E-02
 -1       195-1.92643E+01-6.38808E+01-5.39219E+00 1.43003E+01 2.39265E+00 2.67480E+00
 -1       196-1.04114E+01-1.63240E+01-7.75510E+00-9.46697E-01 2.60147E-01 3.49081E+00
 -1       197-2.29187E+00-3.20854E+00-4.33919E-01-4.79522E-01-1.29569E-01-1.50587E+00
 -1       198-4.27487E-01-5.87835E-02-6.25277E-01-9.94577E-03 4.23888E-02-4.96048E-01
 -1       199-8.66923E+00-1.45529E+01-5.22204E+00-1.97540E+00 1.07262E-01-1.32507E-01
 -1       200-2.21536E+00-6.82090E-01 3.82126E-01-1.33439E+00 3.81168E-01 2.60762E-01
 -1       201-3.05068E+00-5.64360E+00-1.37243E+00-9.04166E-02 1.44219E-01-1.73059E+00
 -1       202-2.32355E+00-2.72074E-03-1.26355E-01-1.57919E-01 1.02697E-01-8.49088E-01
 -1       203-1.93313E+00-6.53840E-01 2.22988E+00 1.62783E+00-7.93342E-01-6.26163E-01
 -1       204-1.57185E+00-3.38782E-01 5.55118E-01-9.00631E-01-4.81243E-01-2.70016E-01
 -1       205-2.06482E+01-2.46997E+01-1.34560E+01 1.48775E+00 1.12060E+00 6.50797E+00
 -1       206-1.91086E-01-1.87212E-01-3.22419E-01-9.19914E-02-5.82345E-02-2.39312E-01
 -1       207-2.49864E+01-5.16376E+01-1.90212E+00 2.86746E+01 2.27827E+00 2.57864E+00
 -1       208-1.56432E+00-3.56774E+00-1.05496E-01 2.39454E-02 1.17820E-01-1.02904E+00
 -1       209-6.94237E+00-1.27547E+01-3.63697E+00 1.72105E+00-2.61966E-01 7.75867E-02
 -1       210-4.40549E+00-4.01995E+00-3.08014E+00 5.42852E-01-2.87377E-01-2.20381E+00
 -1       211-1.93093E+00-2.65762E+00-2.86855E-01 2.42349E-01-7.12849E-01-1.33101E+00
 -1       212-9.22355E-01 2.81865E-01 9.82048E-01-9.52249E-02 5.71227E-01-6.02389E-01
 -1       213-7.16659E-01-8.34602E-01 4.41616E-01-9.11817E-01-6.48222E-01-1.94223E-01
 -1       214-6.82213E-01-1.73843E+00 1.18068E+00-1.35204E+00 3.43943E-01-4.11606E-01
 -1       215-1.49085E-01-2.68024E-02-3.56977E-01-4.82107E-02-7.66287E-02-2.30571E-01
 -1       216-1.70080E+00-1.50657E+00 9.34030E-02-3.34093E-02-1.38867E+00-9.19425E-01
 -1       217 1.31390E+00 8.53782E-01 2.12831E-01 1.75792E-01-2.25474E+00-1.54116E+00
 -1       218-1.14730E+01-1.49143E+01-6.35727E+00 3.07410E+00 3.32557E-01 1.81657E-01
 -1       219-2.92803E+00-2.49325E+00 2.14921E-01 7.08051E-01-7.28714E-01-5.89892E-01
 -1       220-1.27183E+00-1.14313E+00 2.21528E-01 8.34020E-01-7.29224E-01-6.43823E-01
 -1       221-1.94693E-01-1.50916E+00-1.43214E-01-5.61238E-01-5.61987E-01-1.78558E-01
 -1       222-5.02688E+00-5.35799E+00-2.85851E+00 5.50930E-01-6.01323E-01-1.48936E+00
 -1       223-1.54517E+00-8.14161E-01 3.61414E-01-1.02226E+00-5.21195E-01-4.76971E-01
 -1       224-3.08839E+00 9.91697E-02 1.09290E+00-6.40900E-01-4.93881E-01 4.82648E-02
 -1       225-6.06878E+01-2.49962E+01-7.10683E-02 3.41292E+01-5.35876E-02-6.71747E-01
 -1       226-3.11295E+00-6.03450E+00 1.72953E-01-2.01656E+00-7.60943E-02 2.33775E-01
 -1       227-2.60179E+00-2.53837E+00-1.39555E-01 1.27578E+00-7.44233E-01-6.53984E-01
 -1       228-3.85871E+00-2.95047E+00-1.14743E+00 7.12551E-01-1.02479E+00-5.38341E-01
 -1       229-1.91974E+01-1.36935E+01-1.11708E+01 3.22821E+00 2.05072E+00-3.41462E-01
 -1       230-2.67164E+00-4.63882E+00 4.34341E-01-2.28312E+00-4.13213E-01-4.58137E-01
 -1       231 2.37629E-01-1.41119E+00 8.27262E-01-1.80643E-02-6.44501E-01 5.08264E-01
 -1       232-3.77653E+00-3.07256E+00-1.70914E+00 4.33563E-01-1.44108E+00-6.42904E-01
 -1       233-3.04471E+00-2.14861E+00-1.21994E+00 2.55158E-01-1.43759E+00-7.95370E-01
 -1       234 1.48663E-01-2.63535E+00 1.08155E+00 4.64521E-01 1.21542E-01-5.22058E-01
 -1       235-9.22484E-01-7.16834E-01-8.83484E-02-8.24444E-01-3.02207E-01-3.79272E-01
 -1       236-5.52274E+01-4.42007E+00 6.81596E+00-1.13669E+01 3.22313E-01 1.45746E+00
 -1       237-6.02342E+01-4.23780E+00 5.62315E+00 6.77708E+00-2.43400E+00-2.44413E+00
 -1       238-7.59617E-02-3.86570E-01-5.39912E-01-3.19985E-02-4.56852E-01-3.78162E-02
 -1       239-2.25324E-02-3.98022E-01-6.13991E-01-1.79002E-02-4.86873E-01-4.19081E-02
 -1       240-1.15991E+00-6.19209E+00 6.90463E-01 1.21685E-01 8.40253E-02 1.36153E-01
 -1       241-1.98135E+01-1.36712E+01-8.21819E+00-1.45411E+00 3.67545E+00-1.59736E+00
 -1       242 7.28042E-01 1.63926E+00 4.67237E-01 2.14133E-01-2.46485E+00-2.56881E-01
 -1       243-3.00707E+00-2.01174E+00-7.08663E-01-4.96116E-02-9.79845E-01-2.52112E-01
 -1       244-3.40443E+00-1.98441E+00-2.05912E+00 9.33680E-01-1.06745E+00 1.34207E-01
 -1       245-4.57592E+00-4.24201E+00-2.19661E+00 1.11454E+00-2.23938E+00-4.44267E-01
 -1       246 2.43492E-01-9.96061E-01 9.52372E-01 3.59697E-01-5.59832E-01 8.89981E-01
 -1       247-1.85846E-01-1.90423E+00-3.35697E-03-4.50262E-01-6.00653E-01-3.66058E-02
 -1       248-3.63888E+00-3.79252E+00-1.27286E+00-1.38188E-02-1.23266E+00-8.46490E-02
 -1       249-3.81351E+00-4.57296E+00-2.38632E+00-1.22227E-01-1.77586E+00 2.76738E-01
 -1       250-1.18076E+00-2.16877E+00 1.02693E+00-1.83572E+00-7.19934E-01 7.78376E-02
 -1       251-4.21576E-01-4.75733E-01-7.50711E-01-1.90407E-01-6.81961E-01 3.10123E-02
 -1       252-1.61480E-01-2.56958E-01-1.52857E-01-1.18133E-02-3.97499E-01 1.17451E-01
 -1       253-1.98996E+01-1.69280E+01-8.57690E+00-1.23616E+00 5.15106E+00-1.44077E-01
 -1       254-2.30527E+00-1.42395E+00 6.07503E-01-2.13486E-01-1.27808E+00 3.66792E-01
 -1       255-1.25169E+01-9.67697E+00-4.04781E+00-2.43976E+00-2.38382E-01 7.21442E-02
 -1       256-1.55226E+00-4.64957E-01 1.39872E+00 1.17568E+00-5.93770E-01-2.49057E-01
 -1       257-3.88855E-01-6.33192E-01-1.11576E-01 5.78111E-01-4.51944E-01 5.83866E-01
 -1       258-1.43577E+00-1.77926E+00-3.65792E-01 6.85518E-02-1.18803E+00 9.91629E-01
 -1       259-3.82445E+00-4.01895E+00-1.69248E+00-5.25528E-01-1.15340E+00 8.77208E-01
 -1       260 1.46879E-01-1.08848E+00 4.14405E-01 4.18453E-02-5.57730E-01-3.01000E-01
 -1       261-2.77249E+00-2.95562E+00-1.86974E+00-2.26826E-01-1.92570E+00 1.32914E+00
 -1       262 6.79528E-02-2.92975E+00 9.58866E-01-6.32058E-01-1.16008E-01 4.18646E-01
 -1       263-4.19793E+01-2.71679E+01 2.50450E+00-2.83895E+01-2.56834E+00 1.45347E+00
 -1       264-1.69744E-01-2.68209E-01-4.40090E-01 1.01518E-01-2.00405E-01 2.71118E-01
 -1       265-2.49671E+00-2.81931E+00-7.96537E-01-9.90585E-02-1.35717E+00 8.57933E-01
 -1       266-5.47861E+00-4.64285E+00-2.70239E+00-8.35271E-01-1.36555E+00 4.38387E-01
 -1       267-2.55710E+00-2.70721E+00-2.77979E-01-6.43961E-01-7.44829E-01 9.93418E-01
 -1       268-3.22335E+00 5.64511E-02 8.61678E-01 6.38526E-01-4.00133E-01 1.55636E-02
 -1       269 1.41079E-01-3.31864E+00 1.34934E+00 6.95239E-01 6.60955E-02 6.08465E-01
 -1       270-1.31749E+01-1.09096E+01-5.27310E+00-3.05767E+00-1.55761E-01 4.21526E-02
 -1       271-9.44993E-02-1.01451E+00 1.61283E-01 4.22958E-01-4.76914E-01 2.12188E-02
 -1       272-4.70940E+00-4.62915E+00-3.91171E+00-2.74525E-01-1.91412E+00 1.44872E+00
 -1       273-2.24483E-01-1.31945E-01-5.35095E-01 1.55756E-02-1.57285E-01 3.90269E-01
 -1       274 2.02723E+00-1.95505E-01 1.62779E+00-5.84156E-01-1.87356E+00 4.07130E+00
 -1       275-2.73584E-01-1.49350E-01-2.84084E-01 9.58874E-02-1.56598E-01 3.69733E-01
 -1       276-2.35808E+00-3.24556E+00-8.10431E-01-6.92000E-01-4.49367E-01 1.49450E+00
 -1       277-1.41410E+01-1.62202E+01-6.95746E+00-2.30715E+00 2.30505E+00-3.07571E+00
 -1       278-1.04344E+01-1.32053E+01-4.97824E+00-2.93265E+00 2.45896E-02-1.27456E-02
 -1       279-8.47354E-01-1.99446E+00 2.00684E-01-6.27020E-01-2.74627E-01 8.59058E-01
 -1       280-7.92122E-01-1.54828E+00 2.04497E+00 1.56105E+00 9.62585E-01 4.67059E-01
 -1       281-3.13038E+00-9.94024E-03 1.08129E+00-9.14790E-01-3.70758E-01 6.43928E-01
 -1       282-1.30301E+00-2.39515E+00-1.00341E+00-6.08590E-01-9.08899E-01 8.70628E-01
 -1       283-1.12391E+00-6.04111E-04-3.66000E-01 8.39570E-02-3.73219E-02 6.64371E-01
 -1       284-3.39138E+00-3.03830E+00-2.20360E+00-1.80331E-01-4.32608E-01 1.95528E+00
 -1       285-4.43121E-01-5.09555E-01 8.59977E-01 6.91133E-01-6.42961E-01-3.68229E-02
 -1       286-6.05329E+00-2.97102E+00-5.93635E-01 1.49335E+00 3.42665E-01 6.16149E+00
 -1       287 1.50791E+01 1.00589E+01 1.00552E+01-5.05603E-01 1.59822E+00-8.09042E+00
 -1       288-5.64082E+00-6.70335E+00-7.81401E+00 1.24122E-01 6.55980E+00-9.41842E-01
 -1       289-1.38146E+01-2.09821E+01-1.39187E+01-4.44538E-01 1.10220E+01-1.00152E+00
 -1       290-3.73969E+00-2.35527E+00-2.36170E+00-2.66553E+00-7.36582E+00-1.72131E+00
 -1       291-5.49396E+00-7.04405E+00-6.52127E+00-6.30557E-01-6.37191E+00-4.00179E-01
 -1       292-4.23908E+00-4.62786E+00-1.98867E+00 1.35921E+00 5.79923E+00-3.00285E+00
 -1       293-2.16724E+01-2.10389E+01-1.70845E+01 4.05932E+00 7.03532E+00-7.13563E+00
 -1       294-9.50871E+00-1.07079E+01-1.13915E+01 9.22278E-01 6.34366E+00-2.35086E+00
 -1       295-1.73788E+01-2.24018E+01-1.59122E+01 3.11160E+00 9.23149E+00-3.84928E+00
 -1       296 2.59055E+00 2.47029E+00 4.26169E+00 3.04672E-01-2.91142E+00 4.43668E+00
 -1       297-1.86783E+01-1.59115E+01-1.38359E+01-3.30232E+00 5.83676E+00 8.53868E+00
 -1       298-1.00233E+00-1.63095E+00-1.71138E-01 7.06215E-01-5.87354E+00 3.48744E+00
 -1       299-9.57327E+00-3.98289E+00-5.69245E+00-2.20371E+00 7.69727E+00 5.20660E+00
 -1       300-1.56754E+01-2.14908E+01-1.48665E+01 2.34881E+00-9.05354E+00 3.75394E+00
 -1       301-4.88782E+00-5.00777E+00-3.28191E+00-1.56895E+00 6.83142E+00 2.76591E+00
 -1       302 7.23874E+00 9.12473E+00 8.51202E+00 5.30797E-01 5.41750E+00 1.07138E+00
 -1       303-1.51984E+01-2.27278E+01-1.51705E+01-2.83968E-01-1.08868E+01-7.79714E-01
 -1       304-1.67349E+01-2.37572E+01-1.61968E+01 1.85995E+00 9.58446E+00-1.87890E+00
 -1       305 4.07610E+00 3.43002E+00 6.51312E+00-1.39733E-01-5.46020E+00-3.55640E+00
 -1       306-2.49534E+00-3.02630E+00-2.47292E+00-2.85798E+00-1.48447E+00-6.39136E+00
 -1       307-8.84052E+00-7.78753E+00-9.45762E+00-6.91521E-01 2.52086E+00 6.21532E+00
 -1       308-2.06317E+01-1.56945E+01-1.45305E+01-2.66932E+00 3.84894E+00 9.33107E+00
 -1       309-9.86324E-01-7.03854E-01-2.46037E+00 8.52391E-01 1.01078E+00 6.01731E+00
 -1       310-1.58054E+01-8.81546E+00-9.21912E+00 1.15462E+00 1.30505E+00 8.30357E+00
 -1       311-1.50340E+01-1.64489E+01-1.25931E+01-3.15173E+00 6.67194E+00 6.70418E+00
 -1       312 3.83531E+00 3.03586E+00 6.48722E+00 7.63484E-01 2.40578E+00-7.03145E+00
 -1       313-1.98906E+01-1.70975E+01-1.47952E+01 3.48523E+00 5.99811E+00-9.62913E+00
 -1       314 1.04364E+01 4.84519E+00 4.70916E+00-1.17602E-01 3.02088E+00-8.91593E+00
 -1       315-4.28678E-01 2.23598E+00 6.44562E+00 5.84532E-01 1.57362E+00-5.25932E+00
 -1       316-1.51998E+01-1.72369E+01-6.95563E+00 1.20089E+00 4.70226E-01 3.67120E+00
 -1       317-1.38296E+00-2.86866E+00-8.06413E-01 6.37953E-01-9.14812E-01-8.73829E-01
 -1       318-8.44088E+00-1.62982E+01-5.85280E+00 1.50042E+00-5.37737E-01 3.31261E-01
 -1       319-1.51358E+01-1.77054E+01-8.22685E+00 2.52266E+00 1.54422E+00 4.03292E+00
 -1       320-1.29479E+01-1.67660E+01-6.96923E+00 2.34548E+00 1.39066E-01 2.74849E-01
 -1       321-3.69074E+00-3.42304E+00-1.79419E+00-2.74286E-01-1.18990E+00-1.60445E+00
 -1       322-1.57374E+01-1.26698E+01-7.25818E+00 3.49950E+00-1.02348E-01 4.81974E-01
 -1       323-1.54517E+01-1.16904E+01-6.49334E+00 3.09996E+00-4.17710E-01 3.62707E-01
 -1       324-3.30403E+00-3.12011E+00-2.47290E+00-1.33171E-01-1.81742E+00-1.03294E+00
 -1       325 7.81798E-01 2.67348E+00 1.04156E+00 6.09899E-01-1.96963E+00-1.29387E+00
 -1       326-2.94797E+00-2.64774E+00-8.43845E-01-7.52211E-02 1.30693E+00-5.90476E-01
 -1       327-2.41917E+00-2.06045E+00-6.75437E-01-7.64597E-01 1.11339E+00 2.88858E-02
 -1       328-1.45795E+01-1.28004E+01-8.20607E+00-3.37579E+00 5.66135E-02 9.36312E-01
 -1       329-2.05273E+01-1.43592E+01-9.77181E+00 1.48088E+00 2.86502E+00 1.25379E+00
 -1       330-1.84974E+01-1.14663E+01-8.12305E+00 1.70877E+00 2.62368E-01-2.85688E-01
 -1       331-1.53811E-01-1.57518E+00-3.35186E-01 5.24395E-01-1.59845E+00-1.91024E-01
 -1       332-1.44377E+01-8.30011E+00-6.75236E+00-1.46674E-01-3.19114E-01 4.59533E-01
 -1       333-2.53146E+00-3.83446E+00-1.15135E+00-6.55040E-01-8.53285E-01 1.43816E+00
 -1       334-3.91709E+00-1.98957E+00 1.96720E-01-4.86339E-01-1.19247E+00 2.06311E-01
 -1       335-1.25685E+01-1.52090E+01-6.49710E+00-3.70523E+00 2.07464E-01 1.05458E-01
 -1       336-1.49335E+00-2.85862E+00-8.94420E-01 3.67500E-01 2.27936E-01 7.86710E-01
 -1       337-9.71709E+00-1.61953E+01-6.44629E+00-8.00861E-01-2.30359E-01-2.78405E-01
 -1       338 1.04658E+00 9.35019E-01 1.78446E+00 6.91348E-01 2.38905E-01 3.73224E+00
 -1       339 3.34468E+00 2.85773E+00-1.87262E+00 2.09918E+00 2.60002E+00 3.43017E+00
 -1       340-3.79672E+00 6.16168E+00 1.17967E+00-1.37065E+00 7.18881E+00 4.26055E+00
 -1       341 2.44046E+00 6.13236E+00 3.98668E+00-7.38779E-01 8.22414E+00 3.00533E+00
 -1       342 1.51093E+01 2.18304E+01 1.47759E+01 1.53880E+00 7.76919E+00 1.55600E+00
 -1       343 2.00447E+00 2.72466E+00 9.03283E-01 1.22037E+00 2.88290E+00 7.84061E-01
 -1       344-1.78174E+00-2.28098E+00-1.82413E+00-5.11502E-02 2.28962E+00 5.91539E-01
 -1       345-2.64359E+00-2.81161E+00-1.77498E+00 1.69874E-01 2.54671E+00-1.79290E-01
 -1       346-1.86266E+01-9.41011E+00-6.68567E+00-1.60579E+00-1.99444E-01 8.83650E-01
 -1       347-1.51272E+01-7.76994E+00-5.22217E+00-1.92071E+00-3.72975E-01 4.95519E-01
 -1       348-1.20032E+00-2.20049E-01 4.25059E-01 3.34545E-01 1.93441E+00 3.07849E-01
 -1       349-6.81703E+00-4.99221E+00-2.77470E+00-1.68077E-01 2.84232E+00-7.49399E-02
 -1       350 8.80820E-01-2.13682E-01 1.22428E+00 3.65471E-01 3.62233E+00-2.52855E-01
 -1       351-1.99838E+00-2.29987E+00-7.28535E-01 2.12207E-01 1.44351E+00-4.75481E-01
 -1       352 5.52834E+00 7.94974E+00 2.92721E+00-1.99686E+00 4.83908E+00-2.63193E+00
 -1       353-2.72628E-01 6.86331E-01 6.18037E-01 8.41638E-01 6.43030E-01 2.79741E+00
 -1       354-4.47234E+00-4.75111E+00-2.98207E+00 1.22821E+00 1.11804E+00 1.39143E+00
 -1       355 3.69831E+00 1.66916E+00 1.08924E+00 2.74598E+00 1.01296E+00 8.36381E+00
 -1       356 5.19314E-01 3.87433E-02 1.58020E+00 3.99668E-01 1.52913E+00 2.12799E+00
 -1       357-1.99784E+00-3.20241E+00-6.63363E+00 6.46607E-01 3.50224E+00 4.97825E+00
 -1       358 9.90080E+00 6.77830E+00 6.67164E+00-5.88945E-01-1.67727E+00 8.48345E+00
 -1       359 2.45033E+00 7.55849E-01 1.74724E+00-5.68344E-01 5.93987E-01 3.90933E+00
 -1       360-5.69064E+00-8.17590E+00-3.49219E+00-5.53348E-01-1.31192E+00 2.16928E+00
 -1       361 1.69960E+01 1.51083E+01 1.28417E+01-3.08488E+00-4.76208E+00 7.14762E+00
 -1       362-8.09162E+00-4.95386E+00-6.09094E+00 1.20484E+00-5.60193E+00 5.07082E+00
 -1       363 1.00911E+00 9.68204E-01 1.43169E+00 1.56120E-01-2.32740E+00 3.30296E+00
 -1       364-1.39230E+00-1.79597E+00 3.53694E-01-9.40434E-01-3.21640E-01 1.38460E+00
 -1       365 9.91301E-01 1.23707E+00 1.41925E+00-4.74227E-01-1.46509E+00 1.75674E+00
 -1       366-2.66125E+00-3.05657E+00-1.29731E+00-8.08216E-01-1.15575E+00 1.71004E+00
 -1       367-5.26869E+00-4.14667E+00-2.33844E+00-7.14734E-01-2.05955E+00 1.38411E+00
 -1       368 2.26372E+00 1.63440E+00 1.07852E+00-9.16083E-01-3.39693E+00 2.27903E+00
 -1       369 1.16309E-01 1.08342E+00 5.97651E-01-8.86415E-01-2.20443E+00 1.61394E+00
 -1       370-2.38793E+00-2.17442E+00-1.08461E+00 6.73174E-02-2.06125E+00 3.61006E-01
 -1       371-1.44699E+01-8.92103E+00-6.18494E+00-8.39828E-01-6.58925E-01 4.18450E-02
 -1       372-1.31596E+00-7.34285E-01-1.12315E+00-2.47785E-01-2.24850E+00 6.84548E-01
 -1       373-1.15056E+00-2.27487E+00-2.98226E+00-1.36025E+00-6.39463E+00 1.53977E+00
 -1       374 1.02456E-03 1.67823E+00 7.39261E-02 1.28939E-01-2.20019E+00-3.00952E-01
 -1       375-2.79308E+00-2.74221E+00-1.43657E+00 3.52651E-01-2.04380E+00-9.07332E-01
 -1       376-1.66332E+01-1.11706E+01-6.61538E+00 2.31891E+00-2.78528E-02-1.02248E-01
 -1       377 2.62659E+00 4.06057E+00 3.70069E+00 1.41041E-02-4.00591E+00-1.06972E+00
 -1       378 3.80234E+00 9.93948E+00 6.31508E+00-3.35851E+00-6.30510E+00-1.20837E+00
 -1       379-7.00781E+00-6.55032E+00-3.66252E+00 1.08388E+00-2.72948E+00-6.11078E-01
 -1       380-1.08946E+01-1.73758E+01-7.40591E+00 1.76308E+00-1.59782E-01-1.13185E-01
 -1       381-1.03822E+01-1.58878E+01-6.24248E+00 2.05080E+00-1.45085E-01 1.91300E-01
 -1       382-4.20000E+00-4.16447E+00-3.46304E+00 8.74325E-02 8.92796E-01 2.13060E+00
 -1       383-1.39663E+01-1.94711E+01-1.04394E+01 8.22433E-01-1.87779E+00-4.52097E+00
 -1       384-1.28060E+01-1.47640E+01-7.27934E+00 3.67367E+00-3.29917E-02-2.89111E-01
 -1       385 1.80281E+00 2.21531E+00 2.41349E+00 4.01731E-01 3.39297E+00 2.76124E+00
 -1       386-1.41848E+01-1.19914E+01-6.73505E+00 2.56751E+00-9.32226E-02-1.55541E-01
 -1       387-1.59516E+01-1.72735E+01-9.10701E+00 3.03334E+00-2.15953E+00-5.04949E+00
 -1       388-3.62269E+00-5.71051E+00-1.73858E+00 8.22914E-01 8.55138E-01 7.90049E-01
 -1       389-1.73586E+01-1.09332E+01-8.00529E+00 1.28392E+00-4.20743E-01 1.04782E+00
 -1       390-1.50302E+01-9.88381E+00-5.59309E+00 1.58007E+00-3.47809E-02 2.20153E-01
 -1       391-2.18890E+01-1.85268E+01-9.63050E+00 7.95443E-01-4.33602E+00 1.55214E+00
 -1       392-3.48624E+00-2.79018E+00-1.06012E+00 8.69332E-01 9.97318E-01 4.62975E-01
 -1       393-4.57820E+00-3.27397E+00-1.92702E+00-4.06488E-02 2.88638E+00 4.36775E-01
 -1       394-1.93719E+00-1.90607E+00-1.10780E+00 2.64464E-01 1.95613E+00-4.12640E-02
 -1       395-1.56320E+01-1.48856E+01-1.04178E+01 2.90215E-01-3.95918E+00 2.28492E+00
 -1       396-3.93636E+00-2.39832E+00-1.27871E+00-1.22952E+00 1.00890E+00-4.33928E-01
 -1       397-3.56856E-01-7.65745E-01-1.59989E+00 6.10753E-02-1.95165E+00-3.01608E+00
 -1       398-3.58896E+00-4.45434E+00-9.44966E-01 6.13907E-01-6.04177E-01-1.34779E+00
 -1       399-2.98196E+00-2.79222E+00-1.43252E+00-2.67306E-01-9.31327E-01-2.08581E+00
 -1       400 1.04057E+00 5.60512E-01 1.14152E+00 6.14534E-01-1.98426E+00-2.24604E+00
 -1       401 1.88181E+00 4.93930E-01 1.89258E+00 2.05841E-01-7.82975E-01-2.85552E+00
 -1       402-9.73173E-01-1.59617E+00-5.46905E-01-2.45863E-02 7.44068E-01-1.34158E+00
 -1       403 4.03688E-01 1.73475E+00 1.45374E-01-1.35558E-01 2.45530E+00-2.60799E+00
 -1       404-6.27557E+00-5.65880E+00-3.42633E+00-8.78795E-01 9.98385E-01-2.50390E+00
 -1       405 9.07385E-01 1.08860E+00-1.02333E-01-1.63737E+00 3.06351E+00-2.66999E+00
 -1       406-3.80848E+00-6.29984E+00-3.97816E+00 9.64424E-01 4.68137E+00-4.20933E+00
 -1       407-6.25239E-01-8.37318E-01-3.50247E+00-7.80622E-01 3.00227E+00-3.81409E+00
 -1       408 2.10007E+00 5.78924E-01 1.45288E+00-5.92939E-02 1.94419E+00-2.95028E+00
 -1       409-1.69059E+00-1.67896E+00-1.99381E+00-7.67339E-01 4.39787E-01-3.63464E-01
 -1       410-2.03177E+01-1.91525E+01-9.43450E+00 1.29090E+00-7.68752E-01 1.31209E+00
 -1       411-1.26147E+01-1.42325E+01-7.84331E+00-3.29820E+00-1.07670E+00-2.67302E-01
 -1       412-1.20350E+01-1.39620E+01-6.95098E+00-2.82526E+00-7.40892E-01-1.18173E-01
 -1       413-6.01559E-01-5.43829E-01-3.44299E-01-9.88910E-01 7.74889E-01-2.85789E+00
 -1       414-2.38080E+00-1.70980E+00-8.91829E-01 2.93796E-01 8.37401E-02-2.13142E+00
 -1       415-1.23193E-01-1.56898E+00-1.43376E-01 4.86208E-01-6.59919E-01-1.55562E+00
 -1       416-2.16819E+00-1.79962E+00-1.60660E+00-4.32947E-01-2.14709E-01-2.27626E+00
 -1       417 1.20873E+00 1.08275E+00 8.22518E-01 1.25869E-01-3.40925E-02-3.52424E+00
 -1       418-5.95285E+00-5.38637E+00-4.97092E+00-3.67769E-01-3.85225E+00-5.72310E+00
 -1       419 9.37476E-01 7.92677E-01 1.34155E+00-1.28026E-01 3.18509E-01-4.35350E+00
 -1       420 3.80463E+00 1.62458E+00 1.33910E+00-1.61986E+00 2.82493E-01-9.21307E+00
 -1       421-2.81777E+01-2.83206E+01-1.81927E+01-5.84935E-01-5.39619E+00-8.80473E+00
 -1       422-2.67379E+01-2.55887E+01-1.69946E+01 4.09310E-01 2.14675E+00-9.89145E+00
 -1       423-2.55198E+01-2.76938E+01-1.43847E+01-2.21970E+00 5.13798E+00-7.09077E+00
 -1       424-3.25465E+01-3.08136E+01-1.99424E+01-2.40802E+00-7.87780E+00-7.12965E+00
 -1       425-2.88863E+01-2.42141E+01-1.70656E+01-1.16349E+00 9.08130E+00-2.57581E+00
 -1       426-3.32182E+01-3.38365E+01-1.92382E+01 1.78474E+00 8.36651E+00-2.65319E+00
 -1       427-2.68839E+01-2.12123E+01-1.48351E+01-2.77642E-01 5.22545E+00 3.11528E+00
 -1       428-2.05342E+01-1.73327E+01-1.15521E+01 1.28544E+00 2.09598E+00 1.15000E+00
 -1       429-3.44412E+01-3.46311E+01-2.41484E+01 6.58160E-01-5.34987E+00 5.37717E+00
 -1       430-2.40775E+01-2.48599E+01-1.50363E+01 2.56777E+00 3.45628E+00 7.14516E+00
 -1       431-1.07866E+00 1.16183E+00-2.79773E+00-9.48961E-02 4.79501E+00-4.73826E-01
 -1       432 1.24056E+01 1.34436E+01 1.03397E+01-2.58029E+00-8.23626E+00 5.53205E+00
 -1       433-1.47954E+01-1.54717E+01-1.22543E+01-6.15115E+00-2.61540E+00-5.73265E+00
 -1       434-1.03508E+01-1.48631E+01-1.00351E+01-8.22876E+00-1.95071E+00-4.77158E+00
 -1       435-1.86648E+01-1.60417E+01-1.38826E+01-3.21331E+00-5.54405E+00-8.25991E+00
 -1       436-1.48962E+01-1.10436E+01-9.69013E+00-3.06014E+00-5.52843E+00-6.55578E+00
 -1       437-6.22381E+00-2.68646E+00-5.86377E+00-6.01540E-01-2.86693E+00-4.54796E+00
 -1       438-3.63485E+00-1.21387E+00 2.77513E-01-1.12559E+00 4.19775E-01-6.39510E+00
 -1       439-3.09239E+00-2.27458E+00-6.76883E+00-6.99473E-01-5.06721E+00 2.35532E+00
 -1       440-1.36163E+01-1.96495E+01-1.33063E+01 1.41056E+00-8.03765E+00 1.59343E+00
 -1       441-2.21119E+01-2.24707E+01-1.78330E+01 3.89627E+00-8.03192E+00 7.17570E+00
 -1       442 1.36271E+01 1.83549E+01 1.27928E+01 2.15733E+00-8.15704E+00-3.33487E+00
 -1       443 1.26313E+01 1.41072E+01 1.06954E+01 2.58788E+00-7.41877E+00-4.96668E+00
 -1       444-1.49005E+00-2.62067E+00 9.46659E-01-1.06658E+00-4.68903E+00-1.63733E+00
 -1       445 9.05625E+00 4.40710E+00 5.62160E+00-3.82282E+00-1.01418E+00-5.45760E+00
 -1       446-2.48322E+00-1.69483E+00-1.22439E+00 4.71832E-01-8.93307E-01 5.95558E+00
 -1       447 1.33101E+00 2.03279E+00 6.73258E-01-1.27793E+00-3.91690E+00 7.83624E+00
 -1       448-5.82604E+00-2.02729E+00-1.52694E+00-1.25546E-01-3.30619E+00 4.44058E+00
 -1       449-6.76120E+00-3.48293E+01-6.99516E+00 7.52919E+00-2.77073E+00-8.52286E-01
 -1       450-4.68637E+00-3.78330E+01-6.81962E+00-6.47619E+00-1.31169E+00-5.34324E-01
 -1       451-2.13115E+00-2.01663E+00 7.47613E-01 1.58441E-01 2.31707E-01-5.09688E-01
 -1       452-3.09190E+00-1.34732E+00-3.49448E-01 5.10299E-01-2.74722E-01-6.92622E-01
 -1       453-2.22261E+00-2.56346E+00 3.65569E-01-3.50123E-01-5.36109E-01-5.26609E-01
 -1       454-1.57470E+00-2.23709E+00 5.94509E-01 2.43936E-01 4.28645E-01-3.44405E-01
 -1       455-2.31782E+00-2.43194E+00 5.23309E-01 8.75951E-01 6.47368E-01-2.45242E-01
 -1       456-1.73184E+00-1.21302E+00 2.59944E-01 1.07790E+00 2.05387E-01-6.49100E-01
 -1       457-1.05885E+01-2.15271E+00 6.57010E-01 3.62665E-01 2.83029E-02-2.14916E-01
 -1       458-9.88871E+00-6.83464E-01 1.23216E+00 3.86373E-01 5.95840E-03 1.79464E-01
 -1       459-9.48362E+00-2.87666E+00 2.64065E-01-3.53511E+00-4.75519E-01 7.33345E-01
 -1       460-9.37497E+00-3.52874E+00 4.07199E-01-3.01853E+00-9.76755E-02 2.81644E-01
 -1       461-1.95063E+00-3.25977E+00-6.55371E-01-5.41297E-01-7.46010E-01 8.47785E-02
 -1       462-9.11044E+00-3.48904E+00 1.14591E+00 3.19516E+00 5.64040E-02-2.95610E-01
 -1       463-8.58525E+00-1.78478E+00 1.07134E+00 2.48896E+00-1.35298E-01-1.83464E-01
 -1       464-1.40544E+00-3.00027E+00-4.63348E-01 5.16217E-01 7.67917E-01 1.48560E-01
 -1       465-2.32316E+00-3.03428E+00 8.06461E-02-2.60548E-01 8.31615E-01 2.56624E-02
 -1       466-7.03387E-01-1.04882E+00 5.98874E-03 4.10339E-02 1.14012E+00 5.29172E-01
 -1       467-4.67661E-01-9.47288E-01-2.97032E-01 1.75015E-01 9.39860E-01 4.15772E-01
 -1       468-2.25776E+00-9.60311E+00 5.69405E-01-3.77920E+00-3.11546E-02 5.27071E-01
 -1       469-2.69324E+00-7.40705E+00 7.54663E-01-2.65894E+00-6.98611E-02-4.53502E-01
 -1       470-1.48666E+00-2.31905E+00-6.76089E-01-7.25020E-01 4.92726E-01 5.01656E-01
 -1       471-5.53795E+00-4.92648E+00 7.94823E-01-4.45805E+00 1.03009E-01-5.55432E-02
 -1       472-4.88971E+00-5.40537E+00 1.49585E+00-4.53292E+00 4.28975E-01-1.11521E-01
 -1       473-7.60079E+00-2.02790E+00 1.33408E-01-3.14971E+00-4.26454E-01-1.82360E-01
 -1       474-6.73251E+00-2.08948E+00 1.38903E+00-2.73392E+00-1.69558E-01-3.37301E-01
 -1       475-9.85028E+00-1.41906E+00 1.55431E-01 3.53455E-01 1.61640E-01-2.80890E-01
 -1       476-6.96942E+00-1.21564E+00 9.19919E-01-8.18456E-03-2.72815E-01-5.40775E-01
 -1       477-2.85802E+00-1.56978E+00 3.33150E-01-9.20129E-02-1.09262E-01 7.44886E-01
 -1       478-3.93335E+00-2.24660E+00-8.20730E-01 2.68401E-01-4.98735E-01 7.44211E-01
 -1       479-1.21564E+00-1.38297E+00-3.88885E-01 6.21447E-02 4.14004E-02 1.47888E+00
 -1       480-6.32028E-01-4.59126E-02-7.77616E-02 1.26011E-01 5.06622E-02 1.47702E+00
 -1       481-2.01603E+00-2.39460E+00 4.03673E-01 2.14345E-01-4.69656E-01 6.08027E-01
 -1       482-1.19049E+00-7.89806E-01-4.15795E-01 1.57811E-01 1.07794E+00 7.71966E-01
 -1       483 1.74479E-01 5.61483E-01 2.26105E-01 4.14810E-01 1.10733E+00 1.08270E+00
 -1       484-1.14725E+00-1.36304E+00-6.11883E-01-5.57876E-02 4.19099E-01 1.37056E+00
 -1       485-9.67078E-01-7.01389E-01 3.46385E-01-4.28025E-01 4.99811E-01 1.41721E+00
 -1       486-2.89980E+00-1.70790E+00 4.49853E-01-4.49707E-01 6.99451E-02 6.86329E-01
 -1       487-2.31308E+00-1.30244E+00-4.31670E-01-7.89651E-01 4.66060E-01 3.93580E-01
 -1       488-2.19505E+00-2.00172E+00 4.62935E-01-6.87832E-01 3.66764E-01 5.99519E-01
 -1       489-1.27197E+00-1.64372E+00 2.59838E-02-8.11422E-01 7.71913E-01 2.42627E-01
 -1       490-1.66278E+00-2.03303E+00-2.12131E-01 9.90438E-02-8.60901E-01 3.53166E-01
 -1       491-2.54517E-01-1.40074E+00 1.05917E-01 3.37058E-01-7.10764E-01 2.03411E-01
 -1       492-2.44597E+00-9.30051E+00 1.29179E-01 3.04484E+00 1.01989E-01 2.71304E-01
 -1       493-2.66644E+00-8.49899E+00 6.15072E-01 2.58416E+00-1.16939E-01-1.64118E-02
 -1       494-2.36871E+00-7.12482E+00 1.00911E+00 2.64593E-01 5.56720E-01 4.85804E-02
 -1       495-1.16141E+00-8.32514E+00 1.35927E+00-4.53961E-01 6.50665E-01-1.94906E-03
 -1       496-1.15273E+00-1.38849E+00-2.24742E-01-2.72618E-01-1.50447E+00-2.35617E-01
 -1       497-8.58033E-02-4.52516E-01 2.06643E-01-1.33801E-01-1.32836E+00-1.22169E-01
 -1       498-6.90470E+00-2.96910E+00 8.58710E-01 1.37510E+00 3.56920E-01-7.71744E-02
 -1       499-6.74734E+00-2.06550E+00 1.86359E+00 2.45064E+00 6.93145E-01-3.82012E-01
 -1       500-3.11652E+00-2.25261E+00 1.56112E-02 3.37829E-01 9.36931E-03 8.69818E-01
 -1       501-2.52841E+00-1.82725E+00-8.89077E-01 7.86503E-01-5.34158E-01 5.44186E-01
 -1       502-1.43615E+00-1.25636E+00-4.40828E-01-2.04038E-01-2.75336E-01 9.56442E-01
 -1       503-1.20094E+00-7.82974E-01 1.51448E-01 1.34034E-01-4.73210E-01 1.16512E+00
 -1       504-5.14445E+00-5.46513E+00 3.44115E-01 3.81028E+00 6.79112E-01-8.21298E-02
 -1       505-5.89759E+00-6.06090E+00 2.67446E-01 5.22975E+00-7.77759E-01-7.04529E-02
 -1       506-2.42239E+00-2.41978E+00-2.20877E-02 4.05050E-01-5.66983E-01 4.00591E-01
 -1       507-2.27653E+00-2.55941E+00-3.68914E-01 8.07577E-01-9.35482E-01-2.46454E-02
 -1       508-1.38296E+00-1.05528E+00-4.14381E-01 9.09872E-02-9.55503E-01 8.94350E-01
 -1       509-1.47401E-01-2.20489E-02 1.82650E-01 3.49682E-02-9.59861E-01 9.59927E-01
 -1       510-1.29213E+00-2.87892E+00-3.99080E-01 4.86903E-01-8.67011E-01-4.80884E-02
 -1       511-1.93200E+00-3.21934E+00 1.38807E-01-9.86806E-02-8.29970E-01-3.24810E-01
 -1       512-2.73343E+00-8.48942E+00 4.78655E-01-3.19980E+00-5.68968E-01 2.47950E-01
 -1       513-2.19264E+00-7.31315E+00 8.81237E-01-2.28752E+00 2.52926E-01-2.52643E-03
 -1       514-1.06188E+00-3.96489E-01-3.30655E-01 3.45152E-01-1.31563E+00-6.03059E-01
 -1       515-1.15026E+00-1.53785E+00-3.52288E-01-1.50695E-01-1.21326E+00-8.64883E-01
 -1       516-1.99454E+00-2.67242E+00 2.25823E-01 8.42803E-02 7.55284E-01 9.22402E-02
 -1       517-9.80908E-01-1.53942E+00-3.48790E-01 1.91429E-01 1.28115E+00 4.77508E-02
 -1       518-7.04020E-01-9.83505E+00 4.77893E-01-5.50211E-01-1.23694E-01 1.29422E-01
 -1       519-7.72353E-01-7.12434E+00 8.98739E-01-2.13556E-02-3.64360E-01-2.67320E-01
 -1       520 9.28269E-02-1.79657E+00-2.88209E-01 2.26912E-01 1.13189E+00 7.57160E-02
 -1       521-2.69274E+00-7.80236E+00 8.10626E-01 3.24045E+00-8.42756E-02 1.08954E-01
 -1       522-3.85348E+00-8.61209E+00 9.86441E-01 3.07997E+00 1.97497E-01-1.28831E-01
 -1       523-1.84470E+00-1.65580E+00-2.32786E-01-2.89572E-01 1.48902E+00-3.59201E-01
 -1       524-5.06563E-01-1.63011E+00 5.86373E-01 4.72523E-01 1.20585E+00-6.60149E-01
 -1       525-2.31944E+00-3.47405E+00-6.86013E-01-7.20209E-02 7.01641E-01 5.47362E-01
 -1       526-6.26226E-01-2.56496E+00-2.96590E-02 3.43975E-01-5.71492E-01 2.75911E-01
 -1       527-4.82271E+00-6.14126E+00 5.90378E-01-4.51471E+00-9.26653E-02 4.16265E-01
 -1       528-4.01506E+00-4.09277E+00 1.35607E+00-3.52284E+00 3.77100E-01 7.85148E-01
 -1       529-5.87459E+00-5.67889E+00 1.54982E-01 4.21691E+00 1.25568E-01 1.99887E-01
 -1       530-6.05950E+00-5.66006E+00 4.69722E-01 3.87945E+00 1.80023E-01-1.95628E-01
 -1       531-2.45755E+00-2.70919E+00 5.94803E-02-6.07152E-01-4.79602E-01-5.43842E-01
 -1       532-3.29170E+00-2.99207E+00-9.03278E-01-7.02222E-01-9.92926E-02-9.72810E-01
 -1       533-2.75975E+00-2.70799E+00 2.51157E-01-2.69785E-01-4.40528E-01-5.43416E-01
 -1       534-3.16561E+00-1.51891E+00-5.62141E-01-6.06995E-01 1.75015E-01-8.14219E-01
 -1       535-1.30659E+00-1.02611E+00-1.97480E-01-1.32424E-02-2.15502E-01-1.25366E+00
 -1       536-8.88833E-01 5.46485E-02-7.06198E-02-4.41558E-02-3.11925E-02-1.32268E+00
 -1       537-1.29991E+00-1.25680E+00-1.26417E-01-1.26718E-02 7.48764E-01-1.49133E+00
 -1       538-1.12712E+00-7.12872E-01-2.02685E-01-1.80889E-01 4.40167E-01-1.10941E+00
 -1       539-1.36526E+00-1.93233E+00-2.88760E-01 2.90776E-01 1.20906E+00-1.18052E+00
 -1       540-4.51883E-01-5.18502E-01 2.04645E-01 5.81714E-01 1.24285E+00-1.01310E+00
 -1       541-2.99676E+00-1.69452E+00 3.85032E-01-4.72877E-02 5.44467E-01-6.94973E-01
 -1       542-2.03988E+00-1.75744E-01 5.93234E-01-4.05973E-01-4.55591E-01-6.59270E-01
 -1       543-1.56600E+00-8.90812E-01-3.14096E-01 1.48265E-01-9.65056E-01-9.64426E-01
 -1       544-6.81371E-01 3.83906E-04 2.31219E-01-3.05052E-01-1.17577E+00-1.08888E+00
 -1       545-1.23641E+00-1.55108E+00-3.49544E-02-4.95008E-01-6.44038E-01-1.49627E+00
 -1       546-1.15269E+00-1.29495E+00-4.95748E-01-3.48253E-01-6.09918E-01-1.24551E+00
 -1       547 1.19788E+00-8.03429E-01-9.12020E-01-1.86767E-01 1.14173E-01 4.84890E-01
 -1       548 1.07024E+00-6.75480E-02-4.34120E-01-8.16750E-02 1.08166E-01 2.41867E-01
 -1       549-1.31459E+00-2.10985E+00-4.25830E-01-2.62312E-01 3.59386E-01 2.44544E+00
 -1       550-2.43412E+00-1.60217E+00 5.68613E-01 8.88254E-02 1.48822E-01 1.10597E+00
 -1       551-3.62389E+00-1.90035E+00 9.95709E-01-3.02967E-01 3.16889E-01 3.35978E-01
 -1       552-3.77127E+00-4.08690E+00-2.04516E+00 1.10764E+00 4.05277E-01 1.11925E+00
 -1       553-1.66857E+01-5.52952E+01-1.97094E+01 1.02458E+01-3.87059E+00-8.22851E-01
 -1       554-8.97229E+00-4.53971E+01-1.18689E+01-6.91430E+00-1.43077E+00-1.73577E+00
 -1       555-4.47211E+00-7.01056E+00-1.61695E+00-1.74505E-01-9.05856E-01 6.17989E-01
 -1       556-3.82609E+00-2.11329E+00 4.61693E-01 1.05376E-01-5.98170E-01 9.72926E-03
 -1       557-2.62890E+00-1.55699E+00 1.48357E-01-1.28094E-01-3.23225E-01 1.10406E+00
 -1       558-4.79177E-01-8.39451E-01 3.70182E-01 3.73663E-01-4.68460E-01 2.24034E+00
 -1       559-2.06040E+00-1.09809E+00 2.03212E-01 6.44559E-01-5.91167E-01-3.77523E-02
 -1       560-2.55285E+00-2.97658E+00 1.69959E-01-6.15184E-01 1.37789E+00 4.96420E-02
 -1       561-3.34979E+00-3.40497E+00-2.23717E+00-4.68570E-01-1.52751E+00 1.41044E+00
 -1       562-2.20374E+00-2.13100E+00 3.81744E-02 3.48503E-01 3.32005E-01 1.01089E+00
 -1       563-2.71238E+00-2.32453E+00-8.00428E-01 1.25831E-01 1.48165E-01 1.12674E+00
 -1       564-2.82318E+00-3.14312E+00-1.83582E+00-2.98014E-01-2.74370E-02 1.24700E+00
 -1       565-1.30061E+01-2.49905E+01-3.91111E+00 1.53420E+01-4.74158E-01-4.11896E+00
 -1       566-1.61011E-01-4.91431E-01-7.71659E-01 5.16910E-01 1.13873E-01 7.34545E-01
 -1       567 3.47941E-01 2.11987E-01-1.10536E+00 7.13468E-01-6.59651E-02 7.36446E-01
 -1       568-1.16651E+00-1.70559E+00-6.41268E-01-9.74836E-02 7.64072E-01 2.31213E+00
 -1       569-2.40933E+00-1.70571E+00 4.23211E-01-3.12488E-01 5.50924E-01 6.96695E-01
 -1       570-3.79476E+00-2.78484E+00-2.59283E-01-3.85598E-01 5.54250E-01 3.38947E-03
 -1       571-4.82610E+00-6.07631E+00-1.04524E+00 6.12086E-01 1.05200E+00 1.28626E+00
 -1       572-1.86387E+01-3.36282E+01-1.03106E+01 1.80787E+01-6.67466E-01-3.36323E+00
 -1       573-5.67149E+00-7.42836E+00-3.14275E+00 7.98260E-01 3.29510E-01 1.40275E+00
 -1       574-3.74710E+00-2.06640E+00 1.04388E+00-3.81114E-01-4.19155E-01 7.44644E-01
 -1       575-2.14420E+00-1.30411E+00 8.32483E-01-3.34620E-01 1.67543E-01 1.01917E+00
 -1       576-1.11135E+00-5.63736E-01-1.00667E+00-3.10721E-01 2.00083E-01 2.50520E+00
 -1       577-3.46992E+00-2.82975E+00-2.25137E-01 7.70656E-01-1.37993E+00 1.14280E+00
 -1       578-2.01457E+00-1.85053E+00-1.26956E+00-6.33995E-01 4.71554E-01-8.11430E-01
 -1       579-2.90656E+00-2.98160E+00-7.96762E-01 2.82693E-01-2.69137E-01 1.45468E+00
 -1       580-3.41216E+00-3.28711E+00-1.88589E+00 2.67226E-01 1.93807E+00 6.06735E-01
 -1       581-3.01532E+00-3.10083E+00-6.23493E-01-5.53343E-02 6.25357E-01 9.67615E-01
 -1       582-4.32434E+00-4.40150E+00-1.17896E+00 2.29367E-01 9.08197E-01 5.72255E-01
 -1       583-3.14956E+01-1.73107E+01-4.01878E+00 1.67128E+01-4.72090E+00-1.90129E+00
 -1       584-4.84732E-01 1.67539E-02 3.04499E-02 3.91992E-01 1.98975E-01 4.54113E-01
 -1       585-2.47553E+00-1.27816E+00-1.46117E+00 3.92688E-01-2.10562E-02 1.13951E+00
 -1       586-1.42421E+00-9.84547E-01 1.91582E-01 3.06794E-01 1.86870E+00 1.71167E+00
 -1       587-1.98229E+00-1.93523E+00 2.27088E-01-3.66688E-01 9.47658E-01 6.41276E-01
 -1       588-2.13486E+00-2.56273E+00 9.29555E-01-7.33917E-01 4.10280E-01 5.58868E-02
 -1       589-2.95981E+00-3.50970E+00-1.11366E+00 7.47444E-01 1.63051E+00 1.07448E+00
 -1       590-5.57035E+01-3.23514E+01-1.81892E+01 2.56830E+01-4.26708E+00-1.54878E+00
 -1       591-2.46839E+00-2.15120E+00 1.06487E+00-9.69500E-01-5.20822E-01 5.97031E-01
 -1       592-5.44879E+00-7.58889E+00-1.22416E+00 1.35184E+00 3.25299E-01 1.40014E+00
 -1       593-2.00485E+00-1.92103E+00 5.90880E-01-8.70724E-02 5.12490E-01 8.06921E-01
 -1       594-5.29327E-01 4.35567E-01 7.82889E-01-8.96054E-01 1.80405E+00 1.70077E+00
 -1       595-3.62840E+00-2.60525E+00-9.49396E-01 2.09827E-01-1.25276E+00 1.29241E+00
 -1       596-1.71569E+00-2.47323E+00 2.57092E-01 1.66203E-01 1.18162E+00-8.13805E-01
 -1       597-9.71153E-01-4.30060E-01 1.19888E+00-1.39555E-01 4.55664E-01 5.53649E-01
 -1       598-1.86793E+00-1.42827E+00-4.21971E-01-1.76008E-01 1.02836E+00 5.32784E-01
 -1       599-4.35886E+00-4.46798E+00-2.64665E+00 3.07683E-01 1.03583E+00 6.82848E-01
 -1       600-2.39156E+00-2.68470E+00-2.11261E+00-1.37837E-01 9.85639E-01 9.39007E-01
 -1       601-4.36251E+01-6.43760E+00-1.04378E+01 8.58852E+00-3.34564E-01-3.20810E-01
 -1       602-7.23113E-01-8.91560E-01-7.43412E-01 4.15215E-01 4.72740E-01-7.95108E-02
 -1       603-5.80477E-02-5.76128E-01-7.97296E-01 1.15224E-01 4.52869E-01-1.09959E-01
 -1       604-1.09561E-01-9.62048E-01-5.74225E-01 2.24101E-01 2.33219E+00 1.10911E+00
 -1       605-1.72390E+00-2.18469E+00 6.81890E-01-6.96526E-03 1.04057E+00 1.95003E-01
 -1       606-2.98443E+00-3.89043E+00 4.09396E-01-2.00616E-01 6.02513E-01-4.77444E-01
 -1       607-6.51699E+00-5.16500E+00-1.32814E+00 7.40103E-01 1.08116E+00 5.57469E-01
 -1       608-4.59330E+01-6.14177E+00-1.14215E+01 1.00128E+01-9.71270E-01-7.58449E-01
 -1       609-2.52431E+00-3.15904E+00 4.22962E-01-7.51427E-01 4.68717E-01 6.35952E-01
 -1       610-6.28236E+00-6.12641E+00-3.76252E+00 1.22072E+00 1.43673E+00 1.65139E+00
 -1       611-1.54865E+00-2.17826E+00 1.63811E-01-9.88597E-02 7.90869E-01 4.31828E-01
 -1       612-6.09782E-01-6.46217E-01 6.42803E-01 6.02647E-02 2.76095E+00 1.30647E+00
 -1       613-3.17458E+00-1.96148E+00-5.26630E-01-6.12765E-01-2.25641E-01 1.61283E+00
 -1       614-1.17568E+00-1.75013E+00-3.00869E-01-1.88584E-01 4.34227E-01-1.14422E+00
 -1       615-2.39542E+00-2.73022E+00-1.40801E+00 8.41430E-02 7.89490E-01 9.71658E-01
 -1       616-1.81370E+00-1.66072E+00 4.63969E-01-2.26689E-01 7.74469E-01 3.10425E-02
 -1       617-3.49718E+00-3.09638E+00-1.39874E+00 4.14806E-01 1.20628E+00 6.53805E-01
 -1       618-3.43833E+00-2.78743E+00-5.42820E-01 2.34115E-01 1.20735E+00 3.13336E-01
 -1       619-4.63824E+01-6.87634E+00-1.19371E+01-6.36756E+00-3.11177E+00 2.78886E-01
 -1       620 3.52877E-01 4.98772E-01-5.77214E-01 1.66025E-01 2.63686E-01-5.81318E-02
 -1       621-2.13777E-01 1.25215E-01-5.52149E-01 4.96958E-01 1.50195E-02 3.79419E-02
 -1       622-1.24684E+00-1.80709E+00-5.95432E-01 2.79176E-01 2.11369E+00-1.54827E-01
 -1       623-1.71086E+00-2.15919E+00 4.06298E-01-6.97542E-02 9.98100E-01-1.62361E-01
 -1       624-2.33387E+00-3.51645E+00 1.05579E+00 3.83610E-01 4.68707E-01-2.46532E-01
 -1       625-5.89423E+00-3.93088E+00-5.84317E-01-5.98057E-01 1.09201E+00 2.14922E-02
 -1       626-4.74195E+01-9.35762E+00-1.43009E+01-7.45448E+00-2.03243E+00-2.35093E-01
 -1       627-1.99123E+00-3.61102E+00 4.33664E-01-1.84440E-01 2.89170E-01 6.40895E-01
 -1       628-1.05930E+00-1.38220E-01-3.79381E-01 1.36394E-01 1.59791E+00 3.31979E-01
 -1       629-1.82008E+00-2.54288E+00-3.32050E-01 3.64214E-02 1.22486E+00 4.69544E-01
 -1       630-9.64674E-01-7.37098E-01-4.91836E-02 2.88924E-01 2.45623E+00 2.58366E-01
 -1       631-3.10999E+00-3.07803E+00-1.23583E+00-6.43062E-01-9.12414E-02 1.64676E+00
 -1       632-3.20719E+00-1.84730E+00 5.87147E-01 3.16682E-01 2.24275E-02-1.54573E+00
 -1       633-7.11109E-01-2.11740E+00-1.36586E+00 4.91528E-02 1.23900E+00 4.08025E-01
 -1       634-3.49650E+00-3.08193E+00-9.34550E-01 1.31889E-01 1.49499E+00-7.31886E-01
 -1       635-2.82403E+00-2.56953E+00-1.16765E+00 2.71189E-01 1.20748E+00-3.07590E-02
 -1       636-3.73803E+00-2.56373E+00-1.41221E+00 7.99902E-02 1.36102E+00 1.80863E-02
 -1       637-3.73356E+01-2.02063E+01-1.43526E+01-2.18808E+01-5.13529E-01 1.62104E+00
 -1       638-3.65915E+00-2.94220E+00-2.11722E+00 1.47031E-01 1.25265E+00-2.62277E-01
 -1       639-1.77265E+00-1.05596E+00-7.70526E-01 4.32244E-02 1.01637E+00-3.93369E-01
 -1       640-1.26926E+00-1.60903E+00-8.43250E-02 2.12803E-01 1.76242E+00-1.44006E+00
 -1       641-1.42282E+00-2.48841E+00 4.14986E-01 2.49422E-01 5.54381E-01-3.58941E-01
 -1       642-2.33359E+00-3.58769E+00 9.20884E-02 3.87914E-01 1.28413E-01-5.08871E-01
 -1       643-7.00303E+00-5.54123E+00-3.32293E+00-7.11103E-01 1.35507E+00-2.12905E-01
 -1       644-3.32453E+01-1.69712E+01-1.20408E+01-2.00421E+01-7.96790E-01 1.43384E+00
 -1       645-2.37442E+00-3.68962E+00-3.02704E-01 3.66394E-01 4.03068E-01 2.83345E-01
 -1       646-5.85748E+00-4.85098E+00-3.11011E+00-1.78880E-02 1.48538E+00-4.66169E-02
 -1       647-1.71297E+00-2.73245E+00-3.20788E-01 4.06312E-01 1.11590E+00-1.03483E-01
 -1       648-3.95589E+00-2.81460E+00-1.36610E+00-1.42584E+00 2.59940E+00-1.07804E+00
 -1       649-7.69135E-01-1.93704E+00-2.65152E-01-1.58975E-01 1.07999E-01 6.77515E-01
 -1       650-8.80241E-01-1.68848E+00 1.26627E-01-2.02279E-01-6.80985E-01-8.40828E-01
 -1       651-9.92163E-01-2.61015E+00-2.43074E+00 6.68527E-01 1.80142E+00 1.03707E-01
 -1       652-1.04174E+00-1.70070E+00 1.02978E+00-1.13330E-01 2.09192E-01-1.89407E-01
 -1       653-2.91277E+00-3.10076E+00-1.66318E+00 8.87285E-02 1.07043E+00-3.79286E-01
 -1       654-5.66095E+00-5.14235E+00-1.83945E+00-9.12677E-01 8.60578E-01-9.41034E-01
 -1       655-1.56384E+01-3.09791E+01-1.02718E+01-1.85666E+01 5.91669E-02 4.06531E+00
 -1       656-6.96686E-01-5.25848E-01-1.14751E+00-1.19662E-01 7.42099E-01-5.55774E-01
 -1       657-5.59507E-01-3.02941E-01-8.84969E-01 1.80609E-01 4.15610E-01-4.82129E-01
 -1       658-1.35908E+00-1.47308E+00 6.94160E-02 2.06250E-01 1.40091E+00-1.82867E+00
 -1       659-2.29591E+00-2.23441E+00 3.75726E-01 6.10654E-01 6.29734E-01-8.18521E-01
 -1       660-2.67631E+00-2.55565E+00 7.22602E-01 9.61436E-01-8.95909E-02-2.46135E-01
 -1       661-3.72089E+00-3.59169E+00-1.96455E+00-5.39053E-01 1.06398E+00-1.04860E+00
 -1       662-1.64087E+01-3.35926E+01-1.17438E+01-2.07546E+01 7.49289E-01 4.09884E+00
 -1       663-1.67198E+00-2.70776E+00 8.45777E-01 8.30329E-01 6.30787E-01 6.65205E-01
 -1       664-3.89086E+00-2.13733E+00-2.82078E+00-2.74188E-01 1.34917E+00-7.13961E-01
 -1       665-1.69269E+00-1.45457E+00 1.39381E+00 6.02766E-01 1.01294E+00-4.63116E-01
 -1       666-8.26789E-01-1.93375E+00-2.38452E-01 3.50407E-01 1.64872E+00-1.65920E+00
 -1       667-2.53793E+00-4.01148E+00-1.58056E+00-1.30184E-01 9.61771E-01 1.49914E+00
 -1       668-3.05004E+00-1.95950E+00-4.42576E-01-1.55567E-01-1.16229E+00-9.21742E-01
 -1       669-2.91170E+00-2.52502E+00-1.81960E-01-6.47398E-02 1.08049E+00-2.98795E-01
 -1       670-3.40084E+00-3.66788E+00-1.95556E+00-1.26010E-01-1.37224E-01-2.17828E+00
 -1       671-1.65512E+00-2.14226E+00-4.28233E-01 4.65904E-01 9.67559E-01-7.39799E-01
 -1       672-2.95926E+00-2.71257E+00-2.20756E+00 2.68830E-01 7.24518E-01-8.17447E-01
 -1       673-6.20995E+00-4.08277E+01-1.35842E+01-4.31744E+00-9.52233E-02 6.99222E-01
 -1       674 7.81324E-01-4.56934E-01-5.38798E-01-3.87437E-01 1.49921E-01-6.42375E-01
 -1       675-9.81681E-01-1.46133E+00-1.64072E+00-3.57994E-01 4.56164E-02-6.60105E-01
 -1       676-5.69198E-01-7.69902E-01-1.07657E-01-2.97601E-01 1.11287E+00-2.28742E+00
 -1       677-2.52328E+00-1.86191E+00 2.23610E-01 6.35102E-01 1.50015E-01-1.06472E+00
 -1       678-4.05047E+00-1.50574E+00 2.97022E-01 2.02036E-01-4.48996E-01-5.72144E-01
 -1       679-2.80354E+00-5.87490E+00-1.83956E+00-2.56628E-01-2.22065E-01-1.84415E+00
 -1       680-2.82839E+00-4.65265E+01-1.47664E+01-5.41585E+00 1.70224E-02 1.24157E+00
 -1       681-3.16565E+00-3.33696E+00-1.67780E+00-7.97741E-01 5.60945E-01-1.74823E+00
 -1       682-3.07234E+00-1.73520E+00 8.30214E-01 4.10252E-01 5.25148E-01-3.18020E-01
 -1       683-1.99091E+00-1.56510E+00 8.44117E-01 3.49856E-01 4.76001E-01-5.85014E-01
 -1       684-2.12519E-01-1.55557E-01-6.43182E-01 4.97595E-01 1.73074E+00-2.31188E+00
 -1       685-2.44548E+00-3.27355E+00-3.31492E-01 2.03262E-01 1.33730E+00 5.16397E-01
 -1       686-3.86638E+00-2.39784E+00-8.42156E-01-1.17646E+00-1.05955E+00-1.07825E+00
 -1       687-2.94838E+00-4.16843E+00-9.40903E-01-8.47714E-02 1.52144E+00-7.71885E-01
 -1       688-3.43145E+00-4.28668E+00-2.36078E+00 5.62524E-01-7.94323E-01-1.88772E+00
 -1       689-5.41693E+00-5.72678E+00-2.36201E+00-8.25279E-01 9.46652E-01-8.22990E-01
 -1       690-3.43974E+00-3.54329E+00-1.54105E+00 7.51612E-02 3.17210E-01-9.04503E-01
 -1       691-9.75441E+00-3.84964E+01-9.12908E+00 9.27352E+00 2.02333E+00-1.64948E-01
 -1       692 1.14643E-01-2.52631E-01-7.12146E-01-1.78815E-02-8.29812E-03-8.56229E-01
 -1       693-3.66697E-01-8.76054E-01-1.92764E+00-8.62363E-02-1.82951E-01-1.14751E+00
 -1       694-1.54874E+00-1.59703E+00-7.13732E-01 5.52784E-02-9.23704E-02-2.33261E+00
 -1       695-2.52380E+00-1.95529E+00-1.85391E-02-2.56778E-01-7.01785E-02-1.17179E+00
 -1       696-3.82561E+00-1.77395E+00 2.86825E-01-1.69142E-01-2.27655E-01-2.33988E-01
 -1       697-4.81082E+00-7.90941E+00-1.37954E+00-1.00545E-01 1.51365E-01-1.10537E+00
 -1       698-1.79733E+01-6.04441E+01-2.06683E+01 1.26123E+01 2.72435E+00 4.77138E-01
 -1       699-1.76440E-01-1.12805E+00-1.40196E+00-2.37881E-01-9.83977E-02-1.89101E+00
 -1       700-2.97010E+00-1.97470E+00 1.02442E+00 2.21294E-01 8.33417E-01-2.80560E-01
 -1       701-2.14613E+00-1.51920E+00 8.90726E-01-4.72741E-01 6.48965E-01-9.93389E-01
 -1       702-2.18831E-01 5.60812E-01-3.76178E-02 1.19367E-01 1.85254E-01-2.87302E+00
 -1       703-1.90244E+00-1.13774E+00 8.27420E-01 5.84291E-01 6.07978E-01-3.09494E-02
 -1       704-2.12611E+00-2.68595E+00-7.43920E-01-6.03631E-01-1.11657E+00 1.54545E-01
 -1       705-3.13890E+00-2.58970E+00-6.92519E-01-5.13096E-01 7.68079E-01-9.95421E-01
 -1       706-1.35697E+00-2.47778E+00-1.82696E-01-6.59587E-01-3.89717E-01-1.10975E+00
 -1       707-1.80907E+00-2.49509E+00-1.46699E+00 1.35215E-01 5.40783E-02-1.22193E+00
 -1       708-1.41781E+00-1.36918E+00-1.53572E+00-1.46871E-01-2.56894E-01-1.53486E+00
 -1       709-2.04473E+01-3.37954E+01-1.14691E+01 1.71071E+01 3.72863E+00 5.30777E-01
 -1       710-3.61032E-01-6.75754E-01-6.42109E-01 4.42146E-01 1.72724E-01-4.03541E-01
 -1       711-5.97204E-01-6.56662E-01-6.19846E-01 4.06049E-01-1.50334E-01-3.50397E-01
 -1       712-1.30246E-01-1.09866E+00 5.40652E-01-6.95092E-01-1.48318E+00-2.19889E+00
 -1       713-2.43693E+00-2.29088E+00 3.62854E-01-2.78251E-01-4.13150E-01-8.15629E-01
 -1       714-3.13530E+00-2.37013E+00 5.06029E-01-5.53100E-01-5.88632E-01-2.17226E-01
 -1       715-8.00723E+00-8.23529E+00-2.59140E+00 2.05114E+00-7.74477E-01-1.18517E+00
 -1       716-2.95004E+01-4.89155E+01-2.16483E+01 2.24502E+01 2.78500E+00-1.92741E-01
 -1       717-2.66595E+00-3.06574E+00-6.40909E-01 3.38320E-01-9.64241E-02-1.12270E+00
 -1       718-4.20242E+00-2.56294E+00-2.45994E-02-5.31349E-01 5.50614E-01-5.63799E-01
 -1       719-2.82058E+00-2.29767E+00-6.33745E-01-4.74870E-01 5.97294E-02-1.20988E+00
 -1       720-5.50981E-01-5.81338E-01 6.39595E-01-5.41333E-01-7.47825E-01-2.32582E+00
 -1       721-2.26716E+00-9.69601E-01-2.71398E-01 2.12684E-01 7.85805E-01-6.38554E-01
 -1       722-2.58655E+00-4.18634E+00-8.10072E-01-5.65975E-01-1.33821E+00 5.47662E-01
 -1       723-1.49013E+00-1.22678E+00-8.81170E-01-6.61393E-01 3.04800E-02-8.10146E-01
 -1       724-2.33551E+00-1.89443E+00 4.90757E-01-3.54207E-02-3.70667E-01-9.48341E-01
 -1       725-3.22368E+00-3.80325E+00-1.05656E+00 2.11074E-01-4.40967E-01-1.32393E+00
 -1       726-3.58898E+00-4.05750E+00-2.02699E+00 3.16130E-01-3.88475E-01-1.26954E+00
 -1       727-3.43623E+01-1.52969E+01-9.86343E+00 1.82955E+01 2.06050E+00 2.65485E+00
 -1       728-6.96035E-01-5.99501E-01-7.18234E-01 3.62613E-01-2.17754E-01-5.83685E-01
 -1       729 5.89293E-02 1.44164E-01-4.61543E-02 1.30909E-01-8.75978E-02-2.67180E-01
 -1       730-2.24487E+00-1.92380E+00 4.47672E-01-3.31312E-01-8.71084E-01-6.55741E-01
 -1       731-6.44554E-01-4.10783E-01 2.32573E-01 2.31604E-02-2.04562E+00-1.32573E+00
 -1       732-4.32496E+01-2.41998E+01-1.65303E+01 2.30796E+01 9.71505E-01 5.45985E+00
 -1       733-2.54874E+00-3.05252E+00 1.11370E+00-7.81769E-01-5.33009E-01-5.46255E-02
 -1       734-4.72899E+00-4.30465E+00-2.37711E+00 9.66073E-01-7.16373E-01-1.09133E-01
 -1       735-1.03265E+00-1.54222E+00-1.83099E-01-5.78056E-02-8.24515E-02-6.86142E-01
 -1       736-3.47804E+00-3.31896E+00-8.38374E-01-9.96189E-01 4.67834E-01-6.62045E-01
 -1       737-2.30360E+00-2.63161E+00-2.75997E-01-3.04667E-01-4.88951E-01-1.09956E+00
 -1       738-9.20633E-01 3.37793E-01 5.49623E-01-1.51667E-01-1.49301E+00-1.65904E+00
 -1       739-2.68694E+00-1.34047E+00-9.99732E-01-6.22233E-01 7.21974E-01-4.00832E-01
 -1       740-1.91250E+00-2.94455E+00 1.12764E+00 1.42179E-01-1.02959E+00 8.15463E-01
 -1       741-2.29167E+00-3.22671E+00-1.29433E+00-2.50275E-01-3.80568E-01-1.15460E+00
 -1       742-3.67418E+00-3.38081E+00-1.86249E+00 1.78787E-01-2.50653E+00-4.29931E-02
 -1       743-3.16337E+00-3.08182E+00-9.34075E-01 2.21596E-01-5.92026E-01-7.13637E-01
 -1       744-1.12350E+00-1.44192E+00-9.06701E-01-1.90614E-01-9.17528E-01-7.54130E-01
 -1       745-4.08327E+01-6.95504E+00-1.02699E+01 8.04547E+00 1.02182E+00-1.96703E+00
 -1       746-6.70862E-01 1.82684E-01-3.12236E-01 5.23589E-01-2.52967E-01 1.61596E-01
 -1       747-7.47738E-01 6.25751E-01-1.13445E+00 1.07471E-01-5.40907E-01 5.12525E-01
 -1       748-1.78062E+00-2.26001E+00-9.36726E-02-4.22799E-01-1.11272E+00-3.66212E-01
 -1       749-1.33886E+00-3.19502E-01-1.27101E-01 6.85668E-01-2.57553E+00-1.04545E+00
 -1       750-5.40786E+01-1.09307E+01-1.74046E+01 9.03006E+00 1.41058E+00-3.26792E+00
 -1       751-2.30677E+00-4.17501E+00 1.47871E-01-4.78864E-01-4.96891E-01 5.63584E-01
 -1       752-8.27168E+00-6.32022E+00-4.51354E+00 1.04245E+00-1.75771E+00 2.09356E-01
 -1       753-7.04003E+00-6.08281E+00-2.97771E+00 9.68459E-01-9.80889E-01-5.21743E-01
 -1       754-2.40177E+00-2.98398E+00 6.74011E-01-8.26036E-01-4.13192E-01-6.08090E-01
 -1       755-1.65091E+00-2.33348E+00 4.77687E-01-1.49373E-01-8.27680E-01-4.86887E-01
 -1       756-1.42470E+00-1.17561E+00-9.37680E-01-5.39078E-01-2.10082E+00-1.16288E+00
 -1       757-4.19330E+00-2.73286E+00-8.24584E-01-1.27716E-01 4.63111E-01-1.71887E+00
 -1       758-2.85146E+00-3.87633E+00-9.51317E-01 8.53830E-01-8.09556E-01 1.22519E+00
 -1       759-2.55508E+00-2.94254E+00-2.82974E-01 3.04089E-01-8.19789E-01-5.12865E-01
 -1       760-2.52810E+00-2.11862E+00-8.43913E-01-3.84245E-01-9.18636E-01 6.99355E-02
 -1       761-4.70083E+00-3.64442E+00-2.38942E+00 1.88750E-01-1.00300E+00-6.72037E-01
 -1       762-3.00999E+00-2.64180E+00-5.76157E-01 9.14854E-02-9.73356E-01-4.63506E-01
 -1       763-5.06770E+01-5.84509E+00-1.49068E+01-8.50093E+00 1.59851E+00-1.24146E-01
 -1       764-1.44640E-01-1.71245E-01-7.62290E-01-1.15852E-02-5.89991E-01-5.90692E-02
 -1       765-1.13550E+00 1.65793E-02-9.87479E-01 2.54355E-01-3.00762E-01 1.22382E-02
 -1       766-1.71238E+00-2.79311E+00-6.10245E-02-2.27743E-01-9.28171E-01-4.82439E-02
 -1       767-1.68112E+00-2.23905E+00-1.06004E+00-3.82632E-01-2.72522E+00 3.08920E-01
 -1       768-4.02733E+01-3.95837E+00-1.02608E+01-7.69925E+00 2.16189E+00-2.17326E-01
 -1       769-1.99604E+00-3.79854E+00 6.28435E-01 1.56851E-01-4.33089E-01 4.19064E-01
 -1       770-2.04554E+00-2.25368E+00 6.42483E-01 7.92331E-02-1.02049E+00 2.09888E-01
 -1       771-1.32869E+00-2.56005E+00-1.74752E+00 7.35763E-01-6.73699E-01-5.89136E-01
 -1       772-1.78898E+00-3.15057E+00 1.24062E+00-4.38917E-01-6.67621E-01-8.39709E-01
 -1       773-1.86989E+00-2.80870E+00 3.24902E-01 7.59908E-02-1.34890E+00-4.87119E-01
 -1       774-2.11134E+00-3.08048E+00-1.72090E+00-2.86673E-01-2.12695E+00-6.80887E-01
 -1       775-3.32187E+00-2.96069E+00-4.25015E-01-6.95319E-01-2.62393E-01-1.72102E+00
 -1       776-2.91399E+00-2.51322E+00-1.32845E+00 4.90078E-01-5.72103E-02 2.20490E+00
 -1       777-5.34436E-01-2.32031E+00 9.60656E-02 2.15674E-01-1.20421E+00-1.61056E-02
 -1       778-2.58793E+00-3.22168E+00-1.54322E+00-2.93494E-01-1.39970E+00 6.37478E-01
 -1       779-4.02393E+00-3.18047E+00-1.03584E+00 1.10140E-01-1.30459E+00-4.28188E-02
 -1       780-4.06715E+00-4.15534E+00-4.14071E+00 6.44110E-02-1.37530E+00-5.05544E-02
 -1       781-2.52761E+01-1.57616E+01-6.07207E+00-1.57110E+01 1.86050E+00-3.88746E+00
 -1       782-2.54762E+00-1.85834E+00-2.22935E+00-6.30039E-01-1.10706E+00-5.79816E-02
 -1       783-2.59502E-01-1.41525E-02-2.96727E-01 1.56106E-01-7.43011E-01 2.55176E-01
 -1       784-1.60394E+00-2.27226E+00 2.69426E-01 1.53019E-01-8.49312E-01 5.26961E-01
 -1       785-2.31716E+00-2.70303E+00-9.30211E-01 2.38553E-01-1.29559E+00 1.08044E+00
 -1       786-3.54332E+01-2.40091E+01-1.42339E+01-2.01384E+01 1.63686E+00-4.17172E+00
 -1       787-2.55554E+00-3.26894E+00 2.29622E-01 3.79455E-01-5.39928E-02 6.26959E-01
 -1       788-4.25061E+00-3.84260E+00-1.48330E+00-1.57267E+00-1.36044E+00 9.58965E-01
 -1       789-8.87321E+00-5.73029E+00-1.30788E+00-1.45858E+00-1.13804E+00 7.16420E-01
 -1       790-1.76926E+00-3.70643E+00 5.12798E-01 5.04326E-01-7.78887E-01-4.86244E-01
 -1       791-1.41841E+00-2.13935E+00-2.96785E-01 3.45316E-01-1.05245E+00 2.03222E-01
 -1       792-1.74987E+00-2.01601E+00-4.89162E-01 8.39154E-01-1.26924E+00 4.11183E-01
 -1       793-1.66290E+00-2.57322E+00 1.99998E-01-6.25282E-01-1.37863E+00-1.18685E+00
 -1       794-1.64089E+00-1.58653E+00-2.36410E-01 5.31125E-01 3.85283E-01 5.92852E-01
 -1       795-2.30487E+00-1.93989E+00-1.16375E+00 4.97208E-01-1.13007E+00 9.75956E-02
 -1       796-1.99543E+00-2.55059E+00-1.44420E-01-1.47244E-01-7.75552E-01 5.94266E-01
 -1       797-2.29163E+00-2.51903E+00-5.57724E-01-3.75144E-01-1.08231E+00 1.29723E-01
 -1       798-3.88128E+00-3.56201E+00-2.30442E+00-6.56767E-01-1.12831E+00 4.62919E-01
 -1       799-2.22582E+01-3.71017E+01-1.05993E+01-2.02384E+01 1.42358E+00-2.13644E+00
 -1       800-7.19884E-01-6.20354E-01-4.61773E-01-1.36703E-02-2.05659E-01 3.83375E-01
 -1       801-8.37206E-01-4.28490E-01-6.81618E-01-1.02453E+00-3.68756E-01-1.36221E-01
 -1       802-1.81010E+00-1.78125E+00 4.64949E-01 4.07362E-01-6.25028E-01 8.33917E-01
 -1       803-1.63207E+00-1.42314E+00-1.76272E-01 5.07591E-01-1.55355E+00 1.43270E+00
 -1       804-3.34790E+01-5.02846E+01-2.07844E+01-2.58895E+01 1.53072E+00-2.30742E+00
 -1       805-3.16170E+00-3.11828E+00 5.63059E-01 9.41493E-01-2.79294E-01 6.37357E-01
 -1       806-8.00377E+00-1.27896E+01-5.44439E+00-1.46827E+00-1.13771E+00 1.75400E+00
 -1       807-5.25571E+00-4.44374E+00-2.68127E+00-5.56360E-01-9.23159E-01 9.53358E-01
 -1       808-2.61664E+00-3.41583E+00-2.66450E-01 4.51223E-01-9.71702E-01-4.37227E-01
 -1       809-2.13273E+00-1.56606E+00 1.19104E-01 4.10031E-01-1.01151E+00 4.84710E-01
 -1       810-1.02763E+00-1.16597E+00-5.16829E-01 3.48630E-01-2.41826E+00 1.21109E+00
 -1       811-1.18691E+00-2.57973E+00-7.28369E-01 5.25590E-01-5.28416E-01-6.27467E-01
 -1       812-3.65044E+00-2.29934E+00-1.23567E-01-1.32974E-01 8.38321E-01 8.94532E-01
 -1       813-3.52938E+00-2.71921E+00-1.50813E+00-1.34275E-01-1.28134E+00 1.06794E-01
 -1       814-2.18613E+00-2.61427E+00-4.60408E-01-1.72029E-01-2.73166E-01 1.04873E+00
 -1       815-2.09959E+00-1.87013E+00-9.23250E-01-3.86378E-02-6.86361E-01 8.18904E-01
 -1       816-2.26338E+00-2.25660E+00-5.12999E-01-5.05257E-01-7.17448E-01 9.76671E-01
 -1       817 6.77394E-02-7.83031E-02-1.28313E+00-1.50082E-01-1.96787E-01 8.23192E-01
 -1       818 1.40944E-01-2.36967E-01-7.99146E-01-1.11287E-01-2.69307E-01 7.48653E-01
 -1       819-1.00346E+00-8.72635E-02 1.20957E-01-1.34013E-01-5.91820E-01 1.83024E+00
 -1       820-2.04087E+00-1.73005E+00 7.32439E-01 2.22831E-01-1.52400E-01 1.05454E+00
 -1       821-3.81687E+00-1.91323E+00 1.02786E+00 4.64138E-01 2.49428E-01 6.01951E-01
 -1       822-1.97877E+00-3.15111E+00-1.25125E+00 3.80915E-01 1.10075E-01 9.85604E-01
 -1       823-3.24605E+00-4.13858E+00-8.22864E-01-2.53440E-01-3.84484E-01 7.94389E-01
 -1       824-3.51313E+00-3.00094E+00-1.82704E-01 4.33486E-01-4.83758E-01 2.07313E-01
 -1       825-2.30165E+00-2.02918E+00-3.38842E-02 1.35481E-01-5.27878E-01 8.06197E-01
 -1       826-1.87911E+00-2.41831E+00-7.34924E-01-1.32501E-01-5.14038E-01 1.90709E+00
 -1       827-1.70841E+00-1.80797E+00-1.82801E-01 8.45598E-01-3.42733E-01-5.07643E-01
 -1       828-3.24846E+00-2.32341E+00 5.65570E-02-6.87927E-01 1.04963E+00 1.14704E+00
 -1       829-2.28869E+00-1.89620E+00-1.04369E+00-2.52104E-01-9.11910E-01 6.58734E-01
 -1       830-2.43112E+00-2.73489E+00-7.18220E-02 5.89898E-03-4.26499E-02 8.61294E-01
 -1       831-3.45477E+00-3.91800E+00-1.61241E+00-2.48756E-01-3.18495E-01 1.30330E+00
 -1       832-1.70648E+00-1.57370E+00-7.40850E-02-1.05886E-01-2.76699E-01 1.04293E+00
 -1       833 1.86662E+00 1.19216E+00 1.39619E+00-1.43903E+00 9.60742E-01 8.12687E+00
 -1       834-6.27315E+00-4.41318E+00-4.04335E+00-2.72882E+00 9.76654E-01 7.60577E+00
 -1       835 5.83979E+00 4.34928E+00 4.99701E+00-1.26721E-01 1.13047E+00-6.85512E+00
 -1       836 1.78013E+01 1.18545E+01 1.18623E+01-2.52806E-01 9.72969E-01-9.87942E+00
 -1       837-2.06557E-01 2.27938E-02-3.78625E-01-3.77609E+00 7.99790E+00 6.74263E-01
 -1       838-7.90597E+00-1.12271E+01-8.15464E+00-6.05301E+00 6.76664E+00 5.17306E-01
 -1       839-8.20747E-01-1.13219E+00-1.21305E+00-1.08381E+00-7.65012E+00-7.19049E-01
 -1       840-2.68179E+00-4.79955E+00-3.34513E+00-1.76902E+00-7.77988E+00-8.77330E-01
 -1       841 8.62297E+00-2.10936E+00 2.10228E+00-2.04533E-01 5.27108E+00 7.40984E+00
 -1       842 1.95572E+00-1.33270E+01-5.38269E+00-2.35812E+00 4.26245E+00 6.67607E+00
 -1       843 1.57171E+01 1.66590E+01 1.29504E+01-3.24999E+00 7.99982E+00-6.73959E+00
 -1       844-3.64059E+00-3.78897E+00-2.34092E+00 1.25779E+00 3.71959E+00-3.40825E+00
 -1       845-4.25190E+00-5.24932E+00-5.52102E+00 7.89894E-02 7.48156E+00-2.41583E+00
 -1       846-1.38600E+01-1.98459E+01-1.34823E+01 1.58762E+00 9.93993E+00-3.01529E+00
 -1       847-1.08010E+01-1.05536E+01-1.02594E+01 1.70155E+00-5.84556E+00 4.51860E+00
 -1       848-2.39976E+01-2.46232E+01-1.94483E+01 4.89514E+00-8.02653E+00 6.58705E+00
 -1       849 2.93573E+00 2.33069E+00 3.00772E+00 1.41186E-01-1.04791E+00 7.90849E+00
 -1       850-2.22870E+01-1.58987E+01-1.52743E+01 2.09285E+00-2.50985E+00 8.27374E+00
 -1       851-2.51098E+01-1.76879E+01-1.71191E+01-2.14950E+00 2.84590E+00 9.38152E+00
 -1       852-1.00022E+00-4.16892E+00-1.42827E+00 2.09058E+00-2.43240E+00 5.87597E+00
 -1       853-5.45711E+00 1.30482E+00-2.27421E+00 2.87885E+00 5.26440E+00 8.27540E+00
 -1       854-1.95851E+01-1.85658E+01-1.52604E+01 3.78846E+00-6.06141E+00 7.38602E+00
 -1       855-7.09407E+00-4.12004E-01-3.49500E+00-1.02217E+00 6.57923E+00 4.91163E+00
 -1       856 6.88392E+00 3.45641E+00 4.55142E+00-1.98336E+00-6.12818E+00 2.97259E+00
 -1       857 3.33318E+00 3.72746E+00 4.40381E+00-1.17100E-01 5.64646E+00 3.11683E+00
 -1       858-1.52834E+01-2.21101E+01-1.49574E+01 1.62225E+00-8.38725E+00 2.54428E+00
 -1       859-2.12058E+00-6.05853E+00-2.45418E+00 1.24957E+00 8.82113E+00 2.15292E+00
 -1       860 3.12967E+00 2.13917E+00 3.49267E+00-2.12366E+00-6.78313E+00 2.01261E-01
 -1       861-5.25406E+00-7.13714E+00-6.35113E+00 2.33979E+00 6.78279E+00-3.33246E-02
 -1       862-6.50991E+00-3.73753E+00-3.34892E+00-3.46442E+00-6.89386E+00-1.90987E+00
 -1       863 3.67730E+00 3.11850E+00 4.79691E+00-1.09673E-03-4.85734E+00-2.42157E+00
 -1       864-1.58831E+01-1.89019E+01-1.39140E+01 3.17500E+00 7.26036E+00-3.88089E+00
 -1       865 4.67225E-01-6.82606E+00-1.87206E+00 3.29379E-01-6.37711E+00-4.63980E+00
 -1       866 1.56675E+00 2.55710E+00 3.04785E+00-3.27866E-01-3.55437E+00-4.76365E+00
 -1       867-4.88499E+00 1.20040E+00-1.53306E+00-1.13639E-01 5.69498E+00-6.93978E+00
 -1       868-7.60975E+00-4.38585E+00-4.99539E+00-7.49256E-01-3.05380E+00-6.01142E+00
 -1       869-5.26397E+00 1.01829E+00-1.62952E+00-2.07634E+00 4.19248E+00-7.74192E+00
 -1       870-4.19834E+00-5.76828E+00-4.52239E+00-2.74135E+00-2.06346E+00-7.96304E+00
 -1       871-4.78858E+00-1.01703E+00-2.31706E+00-1.23504E+00 2.20507E+00-7.61414E+00
 -1       872 1.45898E+00 2.09383E+00 3.85081E+00-3.65787E-01-1.09203E+00-5.56173E+00
 -1       873 1.55193E+00 9.71276E+00 3.59512E+00 5.75680E+00 5.31535E+00 7.58845E+00
 -1       874-1.63205E+00-2.95884E+00-6.30245E+00 4.77609E-01 1.69384E+00 4.54259E+00
 -1       875 1.38201E+01 1.79581E+01 1.27113E+01 2.43948E+00 8.84841E+00 4.72975E+00
 -1       876 4.74868E+00 1.79796E+00 3.59774E+00 3.17597E+00 8.34192E+00 1.73662E+00
 -1       877 9.18959E-01 1.16716E+01 4.37718E+00 8.02628E-01 6.30998E+00 4.46269E+00
 -1       878 3.97370E+00 1.12123E+01 6.17588E+00-4.97751E+00 3.75418E+00-6.87639E+00
 -1       879 3.46432E+00 1.22580E+01 6.22089E+00-2.29769E+00 5.53338E+00-6.72236E+00
 -1       880 4.64895E+00 7.37860E+00 4.81815E+00-3.39447E+00 1.96910E+00-6.96641E+00
 -1       881 3.29214E+00 7.02907E+00 3.11270E+00 3.56211E+00 7.71577E+00-2.47274E-01
 -1       882 1.77305E+00 3.35494E+00-9.13273E-01-1.10692E+00 4.05742E+00-1.63078E+00
 -1       883 1.31196E+01 8.69232E+00 8.72478E+00-5.15830E-02-1.03286E+00 1.04876E+01
 -1       884-5.31902E-01-5.53066E-01-4.98439E-01 1.77978E-01-1.54351E+00 4.38876E+00
 -1       885 1.24669E+01 2.39561E+00 5.63722E+00 1.26021E+00-3.16249E+00 6.52251E+00
 -1       886 7.11585E-01 9.50196E-01-1.50733E+00-8.25912E-01-3.09366E+00 4.61564E+00
 -1       887 2.27270E+01 2.83929E+01 2.04480E+01-4.25520E+00-9.67033E+00 5.16909E+00
 -1       888-2.56086E+00-1.93562E+00-5.06211E+00-4.01118E-01-5.00849E+00 1.95106E+00
 -1       889 1.58195E+01 2.34838E+01 1.57213E+01-8.80745E-01-9.97554E+00 9.82436E-01
 -1       890-6.42559E-01 1.17124E+01 4.23409E+00-4.15855E+00-8.28500E+00-2.40021E+00
 -1       891 1.57426E+01 2.00104E+01 1.43012E+01 2.87415E+00-9.01541E+00-4.81902E+00
 -1       892 9.92451E+00-2.91737E-01 4.93359E+00 2.35541E+00-5.55590E+00-3.68247E+00
 -1       893 1.48257E+01 1.52856E+01 1.20445E+01 2.70011E+00-6.01980E+00-6.83401E+00
 -1       894 3.13681E+00 3.55296E+00 7.79016E-01 1.36643E+00-2.54737E+00-6.70909E+00
 -1       895 7.10854E+00 7.40138E-01 2.39687E+00-3.04307E+00-1.76331E+00-7.55692E+00
 -1       896 1.85826E+01 1.24561E+01 1.24155E+01 5.09950E-01-8.97638E-01-9.11452E+00
 -1       897-7.57883E-01-2.24556E+00 7.52215E-01-4.82576E-01-4.91387E-01-2.45606E-01
 -1       898-2.25464E+00-1.73986E+00 6.92546E-01 1.02043E+00 5.01260E-01-3.39396E-01
 -1       899-7.99469E+00-2.69673E+00 7.39778E-03 2.24693E-01 5.46746E-02 1.19565E-01
 -1       900-1.06435E+01-4.98514E+00 1.25248E+00 3.91268E-01-8.93080E-02 1.27583E+00
 -1       901-7.04552E+00-3.21709E+00 3.31355E-01-1.79418E+00 3.11239E-01 5.64730E-01
 -1       902-1.49182E+00-3.87777E+00 5.87564E-01-1.14544E+00-4.65084E-01 1.99205E-01
 -1       903-5.74353E-01-2.38870E+00 2.36146E-02 5.91420E-01 5.76614E-01-7.67386E-02
 -1       904-1.39678E+00-2.53064E+00-7.05388E-02-3.39994E-01 1.00227E+00 3.59679E-01
 -1       905-8.56891E-01-1.76172E+00-3.79644E-01-5.82214E-01 6.45952E-01 5.72944E-01
 -1       906-5.27598E+00-5.96632E+00-9.34848E-01-2.47364E+00-3.86692E-01-1.32902E-01
 -1       907-6.04120E+00-3.77250E+00 2.09684E+00-2.89262E+00 3.65198E-01-1.29658E+00
 -1       908-1.01364E+01-3.31939E+00 2.65326E+00-2.06334E+00-4.64801E-01-8.50871E-01
 -1       909-8.56547E+00-2.51189E+00-4.47252E-01 2.70623E-02-2.23399E-01-6.90719E-01
 -1       910-3.46407E+00-9.21742E-01 1.37996E+00-6.22436E-01 3.56844E-01 5.99152E-01
 -1       911-2.83814E+00-8.35692E-01 2.25895E-01-1.01385E-01 4.41184E-02 1.35338E+00
 -1       912-3.76298E-01-7.55137E-01-5.08994E-01-6.36581E-02 8.36958E-03 6.05100E-01
 -1       913-1.10829E+00-2.03662E+00 9.31934E-01 1.01166E+00-3.90118E-01 4.51534E-01
 -1       914-5.43210E-01-4.66854E-01-4.36213E-01 1.03043E-01 2.24755E-01 4.89246E-01
 -1       915-1.46544E+00-8.60406E-01 1.41121E-01-5.08167E-01 6.60293E-01 6.61549E-01
 -1       916-2.41855E+00-9.45177E-01 5.28490E-01-1.12332E+00 4.06776E-01 1.81241E-01
 -1       917-2.05182E+00-2.54343E+00 4.38406E-01-1.30511E+00 4.80038E-01-1.18311E-01
 -1       918-2.99548E+00-6.63892E+00 7.64015E-02 1.69321E+00 2.88115E-01-5.65163E-01
 -1       919-5.04433E-01-6.74793E+00 2.08141E+00-3.55575E-01 2.34490E+00 8.10076E-01
 -1       920-1.06870E-01-4.68268E-01-4.95446E-01 1.59472E-02-6.77597E-01 1.89997E-02
 -1       921-8.07288E+00-4.44743E+00-8.67783E-01 1.78254E+00-7.18986E-02-1.50707E-01
 -1       922-2.28192E+00-1.19574E+00 1.79901E-01 4.57469E-01-3.94872E-01 1.21816E+00
 -1       923-6.67503E-01-3.31912E-01-1.50032E-01 9.59550E-02-1.45319E-01 5.51541E-01
 -1       924-5.88413E+00-6.22790E+00 1.98808E+00 4.15101E+00 1.46535E+00-8.41638E-01
 -1       925-4.76404E+00-5.24017E+00 3.41959E-01 2.87992E+00-2.11759E-01 1.36405E-01
 -1       926-1.77573E+00-1.98330E+00-1.14600E-01 1.14136E+00-9.44771E-01 9.47427E-01
 -1       927-2.96942E-01-3.72002E-01-3.18114E-01-8.18641E-02-2.87213E-01 3.66272E-01
 -1       928-1.05388E+00-3.86284E+00 5.01483E-01 7.78644E-01-5.05455E-01-1.07270E-01
 -1       929-8.77682E-01-2.25059E+00-2.55664E-01 5.42264E-01-7.29741E-01 2.64989E-01
 -1       930-5.93748E-01-2.59393E+00 6.49943E-01-1.23344E-01-7.34600E-01-1.00662E-01
 -1       931-2.98105E+00-8.32537E+00-5.43124E-01-5.21155E-02-2.62350E-01 7.64169E-02
 -1       932-2.29220E+00-6.11668E+00 1.30272E+00-9.50871E-01-1.80554E+00-7.55425E-01
 -1       933-2.08227E+00-2.21937E+00-3.43214E-01-9.01032E-01-2.66727E-01-8.11078E-01
 -1       934-3.36340E+00-2.29994E+00-1.62526E-01 4.68714E-01 4.95753E-01-1.51060E+00
 -1       935-3.95687E-01-6.18730E-01-5.32008E-01 2.42306E-01 6.33198E-01-5.95313E-01
 -1       936-3.00255E+00-1.19857E+00 2.24948E-01-4.45919E-01 3.22007E-01-6.53836E-01
 -1       937-2.29317E+00-1.91191E+00-5.28533E-02-9.37342E-01-8.81317E-01-8.96515E-01
 -1       938-1.08153E+00-6.77513E-01-6.10946E-01 3.39636E-01-2.76095E-01-5.70262E-01
 -1       939-3.97249E-01-6.84455E-01-6.66088E-01 2.59885E-01-2.88268E-01-4.92938E-01
 -1       940-1.70055E+00-1.23612E+00-3.45570E-01-2.88767E-01-7.41481E-03 2.00631E+00
 -1       941-7.33931E+00-9.69064E+00-3.82359E+00 7.86975E-02 4.57217E-01 9.92317E-01
 -1       942-5.48387E+00-5.91823E+00-1.73070E+00-9.94140E-02-4.49917E-01 3.90504E-01
 -1       943 7.80409E-01-6.40809E-01 2.61824E-01 4.53344E-01-2.11964E-01 1.93889E+00
 -1       944-3.09087E+00-3.52422E+00-1.16694E+00 1.71685E-01 4.40614E-02 1.46642E+00
 -1       945-3.53464E+00-4.11395E+00-1.75266E+00-9.95343E-02-2.04722E-01 1.40634E+00
 -1       946-3.41446E+00-4.21838E+00-8.26706E-01 4.44760E-01 3.79440E-01 1.46596E+00
 -1       947-2.55696E+00-3.13669E+00-2.05222E+00-4.83259E-01-6.97673E-02 1.19425E+00
 -1       948-2.04693E+00-1.20951E+00 2.70169E-02-5.86540E-02 5.75235E-01 1.54527E+00
 -1       949-6.66583E+00-7.84230E+00-3.49551E+00 1.76293E+00 1.88073E+00 1.16999E+00
 -1       950-4.35777E+00-5.42511E+00-1.73007E+00-7.49024E-01-2.63159E-01 1.17275E+00
 -1       951 2.95910E-01 4.21123E-01 6.08033E-01 4.14866E-01-5.59580E-03 1.97399E+00
 -1       952-2.76403E+00-2.95538E+00-6.98610E-01-5.80734E-02 6.96249E-01 1.23294E+00
 -1       953-4.37127E+00-3.87366E+00-1.43568E+00 4.49542E-01 1.25052E+00 7.95381E-01
 -1       954-4.71865E+00-5.71412E+00-2.59787E+00 1.05425E+00 7.55174E-01 5.10970E-01
 -1       955-2.00162E+00-1.44622E+00-3.75572E-01-1.69217E-01 1.86529E+00 1.43441E+00
 -1       956-9.31552E+00-7.95952E+00-3.64978E+00 9.17636E-01 8.11384E-01 8.94566E-01
 -1       957-5.14447E+00-6.71206E+00-1.08581E+00 2.91076E-01 3.41389E-01 4.32277E-01
 -1       958-1.31251E+00-6.29781E-01 2.43719E-01 1.37442E-01 1.07165E+00 1.83801E+00
 -1       959-2.86034E+00-2.00102E+00-1.25721E+00 8.05156E-02 9.56650E-01 8.28268E-01
 -1       960-1.95611E+00-1.82481E+00-1.62573E+00-1.08919E-01 1.06229E+00 8.64739E-01
 -1       961-2.67510E+00-2.41397E+00-1.48007E+00 3.12537E-01 1.09107E+00 7.95852E-01
 -1       962-8.84292E-01-8.32922E-01-2.43441E-01 8.14195E-02 2.04374E+00 6.80472E-01
 -1       963-6.35151E-01-1.43405E+00-4.73666E-01-1.31496E-01 1.69995E+00 6.90985E-01
 -1       964-1.00104E+01-6.95363E+00-1.77206E+00 1.67363E+00 8.40069E-01 2.35717E-01
 -1       965-3.52671E+00-3.47429E+00-1.70994E+00-3.92112E-02 9.78555E-01 5.82009E-01
 -1       966-8.09813E-02 5.02231E-01 1.21335E+00 2.86979E-01 2.47033E+00 1.42538E+00
 -1       967-5.51413E+00-4.43906E+00-1.88788E+00 6.79372E-01 1.25399E+00 5.57324E-01
 -1       968-2.32884E+00-2.81910E+00-1.40570E+00 3.24682E-01 1.34219E+00 6.53746E-01
 -1       969-2.73237E+00-2.20293E+00-2.52471E-01 3.64852E-02 1.37533E+00 5.04518E-01
 -1       970-5.61791E+00-4.59194E+00-2.65662E+00 6.08382E-01 9.99001E-01 7.91080E-01
 -1       971-1.05279E+00-2.27829E+00-4.82470E-01 1.25711E-01 1.79587E+00-7.78580E-02
 -1       972-1.26328E+01-9.61385E+00-7.57747E+00 1.56495E-01 2.23787E+00-2.51121E-01
 -1       973-3.58861E+00-3.43673E+00-1.81371E-01 4.07363E-01 8.35351E-01 3.37302E-01
 -1       974 2.44782E-01-1.47335E-01 4.32166E-01 6.86350E-01 2.64940E+00 3.16123E-01
 -1       975-3.42066E+00-3.24365E+00-2.32983E+00 3.04212E-01 1.18007E+00 3.26356E-01
 -1       976-3.56747E+00-3.05193E+00-1.63560E+00 4.95318E-02 1.65642E+00 2.20365E-01
 -1       977-3.31272E+00-2.91722E+00-1.19513E+00-2.95916E-01 1.64209E+00-2.61514E-01
 -1       978-4.69917E+00-3.47007E+00-1.15186E+00 5.36118E-01 1.14716E+00 7.73279E-02
 -1       979-9.66747E-01-1.08864E+00 4.94931E-01-2.42949E-01 1.83636E+00-1.22856E+00
 -1       980-1.97677E+00-2.78851E+00-3.48134E-01 3.45556E-01 1.37435E+00-8.74901E-01
 -1       981-1.00479E+01-7.93518E+00-2.72919E+00-3.04096E-01 3.83274E-01-1.00301E+00
 -1       982-2.91936E+00-2.78142E+00-2.80499E-01 4.45676E-01 1.26159E+00-1.59609E-01
 -1       983-2.97658E+00-2.15730E+00-1.34702E-01 2.18640E-01 2.55156E+00-6.24221E-01
 -1       984-3.87839E+00-3.83918E+00-2.59493E+00-4.24743E-01 1.10000E+00-3.86454E-01
 -1       985-3.63802E+00-3.36933E+00-1.89623E+00 6.37844E-02 1.29943E+00-3.24167E-01
 -1       986-6.11715E-01-1.69633E+00 9.55355E-01-2.37046E-01 8.86020E-01-4.53504E-01
 -1       987-6.21922E+00-5.14980E+00-2.49778E+00-1.35044E+00 6.06559E-01 2.49751E-01
 -1       988 1.96807E-02 4.38141E-01 5.07825E-01 6.07473E-01 1.40064E+00-1.80048E+00
 -1       989-1.29268E+00-1.47570E+00-4.62387E-02 5.13357E-01 1.21523E+00-1.44832E+00
 -1       990-7.94254E+00-8.98171E+00-2.82866E+00-9.98104E-01 1.63243E+00-1.05179E+00
 -1       991-3.71012E+00-3.29233E+00-1.88436E+00 2.26645E-01 4.91290E-01-1.29658E-01
 -1       992-7.72275E-01-1.26232E+00-1.47617E-02-4.37590E-01 1.51661E+00-1.77065E+00
 -1       993-2.94539E+00-3.38394E+00-3.03363E+00-1.30595E-02 5.17050E-01-1.82904E-01
 -1       994-3.31352E+00-3.34113E+00-1.39997E+00-1.38957E-01 1.10534E+00-1.01167E+00
 -1       995-3.10255E+00-3.31596E+00-1.72696E+00 9.31107E-03 6.42607E-01-1.55530E+00
 -1       996-3.22437E+00-3.38928E+00-2.50459E+00-3.38408E-01 5.63700E-01-9.79309E-01
 -1       997-1.96728E+00-1.95598E+00-8.96304E-02-1.45964E-01 8.93889E-01-1.93222E+00
 -1       998-7.18382E+00-1.16799E+01-2.14320E+00-9.23946E-01 9.64582E-02-1.18562E+00
 -1       999-3.42573E+00-4.19534E+00-1.76586E+00 3.22405E-01 2.02652E-01-7.93296E-01
 -1      1000 1.77677E+00 3.18047E-01-9.03149E-02-6.55297E-01 1.08219E+00-1.66413E+00
 -1      1001-3.04669E+00-4.23056E+00-1.68264E+00-8.74824E-01 6.05510E-02-8.48356E-01
 -1      1002-1.86735E+00-1.73663E+00-2.56672E-01-1.11934E-01 8.37923E-01-1.13929E+00
 -1      1003-2.75988E+00-3.49268E+00-8.44593E-01 1.23112E-01 5.18229E-01-1.03264E+00
 -1      1004-4.11741E+00-4.14463E+00-2.55384E+00-8.68499E-01 6.05067E-01-1.37254E+00
 -1      1005-2.39413E+00-2.45799E+00-1.12976E-01 8.06278E-02-9.29688E-02-1.99508E+00
 -1      1006-5.94089E+00-8.44096E+00-1.38753E+00-2.82196E-01 2.05742E-01-1.13450E+00
 -1      1007-4.01752E+00-4.20833E+00-7.59355E-01-4.30140E-01-1.94910E-01-8.89878E-01
 -1      1008-2.80901E-01-9.51511E-01-9.64109E-01 2.05468E-01 3.63330E-02-2.27474E+00
 -1      1009-2.56825E+00-2.33611E+00-1.63120E+00 3.90867E-01 1.10832E-01-1.24337E+00
 -1      1010-3.17376E+00-3.38350E+00-1.15377E+00-1.49896E-01 6.89353E-01-1.45955E+00
 -1      1011-2.58574E+00-3.78346E+00-1.12152E+00-9.44025E-02-6.95755E-01-1.52605E+00
 -1      1012-3.33253E+00-5.21115E+00-1.67998E+00-2.70763E-01-5.40234E-01-4.04569E-01
 -1      1013-1.50134E+00-1.53120E+00-4.22452E-01-2.75109E-01-1.32553E+00-2.16727E+00
 -1      1014-2.24021E+00-2.64694E+00-4.25723E-01 4.07844E-02-9.10730E-01-1.87835E+00
 -1      1015-6.57989E+00-8.22322E+00-3.08913E+00 8.43731E-01-1.43556E+00-1.00160E+00
 -1      1016-2.64985E+00-2.70139E+00-1.08750E+00 4.65894E-02-5.11105E-01-7.00092E-01
 -1      1017-1.39308E-01-8.71483E-02 9.55051E-01 5.26960E-02-5.24120E-01-2.26190E+00
 -1      1018-4.18993E+00-5.92442E+00-1.10177E+00 7.46006E-01-5.12363E-01-1.35166E+00
 -1      1019-1.80814E+00-2.35710E+00-5.69889E-01-2.03828E-01-4.15393E-01-1.26381E+00
 -1      1020-3.11469E+00-3.45311E+00-9.53439E-01 8.56767E-02-5.37848E-01-1.32995E+00
 -1      1021-3.88191E+00-5.22699E+00-2.14159E+00 4.54077E-01-1.87827E-01-8.17138E-01
 -1      1022-1.97379E-02 7.83765E-01 3.72994E-01 3.01942E-01-1.86780E+00-1.11182E+00
 -1      1023-1.50379E+00-1.50123E+00 4.61343E-01-6.44785E-02-1.54489E+00-9.47039E-01
 -1      1024-1.09906E+01-1.05598E+01-5.19077E+00 2.02694E+00-1.45565E+00-8.15586E-02
 -1      1025-4.15153E+00-4.32502E+00 1.71417E-02-3.94173E-01-4.63153E-01-4.50670E-01
 -1      1026-2.06079E+00-1.21375E+00-1.02709E+00 6.59738E-01-1.58471E+00-1.75023E+00
 -1      1027-3.89469E+00-4.11242E+00-2.28642E+00 4.23475E-01-4.43391E-01-7.97030E-01
 -1      1028-3.85756E+00-4.12107E+00-2.03307E+00 2.41844E-01-7.30551E-01-1.08860E+00
 -1      1029-4.08944E+00-3.72429E+00-2.16916E+00 3.66872E-01-1.50247E+00-8.02702E-01
 -1      1030-4.02628E+00-4.18727E+00-1.23055E+00 3.13477E-01-9.74783E-01-6.17410E-01
 -1      1031-2.23070E+00-1.56356E+00-2.83408E-01 4.50703E-04-2.04312E+00-1.13396E+00
 -1      1032-9.45050E+00-8.01330E+00-3.72565E+00 1.21119E+00-1.09355E+00 7.66584E-02
 -1      1033-3.42678E+00-3.72244E+00-9.71348E-01-5.94591E-02-9.27043E-01-2.91129E-01
 -1      1034-1.20181E+00 1.97823E-01-6.38385E-01 8.67031E-01-1.56007E+00-8.32129E-01
 -1      1035-5.17885E+00-3.76757E+00-2.04016E+00 1.14639E-01-9.97878E-01-3.75649E-01
 -1      1036-2.36215E+00-2.67174E+00-1.52119E+00 3.86850E-01-1.35091E+00-7.80640E-01
 -1      1037-2.91333E+00-2.39825E+00-5.13812E-01 9.89643E-02-1.12473E+00-6.32250E-01
 -1      1038-6.39893E+00-4.91907E+00-2.43109E+00 5.07781E-01-9.82528E-01-4.75025E-01
 -1      1039-7.88711E-01-2.44137E+00-6.95719E-01 1.52477E-01-1.83684E+00-3.80784E-01
 -1      1040-7.68343E+00-4.94828E+00 3.23136E-02-8.03275E-01-1.45348E+00 5.95957E-01
 -1      1041-3.35415E+00-4.74896E+00-1.55764E+00 8.37471E-02-1.01198E+00 1.43361E-02
 -1      1042 4.81100E-01 2.62661E-01 6.10223E-01 3.26962E-01-2.44494E+00-2.80259E-01
 -1      1043-3.56200E+00-3.20193E+00-1.98172E+00 1.11465E-01-1.31751E+00-3.01719E-01
 -1      1044-3.28203E+00-3.14074E+00-1.09216E+00 2.09269E-01-1.74105E+00-2.80503E-01
 -1      1045-1.34968E+00-2.47128E+00-1.41810E+00-1.47412E-01-1.44758E+00-5.04673E-02
 -1      1046-3.35378E+00-3.13420E+00-2.31368E+00 3.41397E-01-1.05447E+00 3.64910E-01
 -1      1047 3.56028E-01-1.10242E+00 4.93680E-01-8.92033E-02-1.58167E+00 1.02283E+00
 -1      1048-2.61427E+00-2.69617E+00-1.04134E+00-3.25106E-01-1.36380E+00 6.86235E-01
 -1      1049-8.08775E+00-7.09565E+00-1.22829E+00-1.33321E+00-1.29190E-01 7.83728E-01
 -1      1050-7.55729E+00-6.64666E+00-2.74068E+00-3.81320E-01-6.85558E-01 5.96119E-02
 -1      1051-8.88965E-01-1.35224E+00-2.12549E-01 1.28122E-02-1.87887E+00 5.85191E-01
 -1      1052-3.73519E+00-2.93438E+00-1.62436E+00-1.02649E-01-1.44919E+00 5.51556E-01
 -1      1053-3.03331E+00-2.57718E+00-5.35689E-01 2.59126E-01-1.39254E+00 3.57439E-01
 -1      1054-3.62259E+00-3.99634E+00-1.30801E+00-3.72104E-01-1.25771E+00 7.51525E-01
 -1      1055-6.16265E+00-5.02594E+00-2.94520E+00-9.87872E-01-7.95624E-01 2.64425E-01
 -1      1056 1.58131E-02-7.41526E-01 5.05876E-01 6.58377E-01-1.05264E+00 1.48064E+00
 -1      1057-1.78542E+00-2.38774E+00-8.11496E-01 1.04189E+00-1.40586E+00 1.34447E+00
 -1      1058-7.67575E+00-7.04067E+00-2.34722E+00-1.51911E+00-4.94348E-01 1.85491E+00
 -1      1059-1.53421E+00-1.09398E+00-6.28498E-01 1.00394E-01-9.64849E-01 1.33732E+00
 -1      1060-1.24338E-01 6.97220E-01 3.74316E-01-4.18641E-01-1.71489E+00 8.10468E-01
 -1      1061-4.17803E+00-4.63597E+00-2.89157E+00-2.88521E-01-9.91332E-01 8.15295E-01
 -1      1062-3.62289E+00-3.03065E+00-1.21703E+00-1.83646E-01-1.05800E+00 4.96716E-01
 -1      1063-2.98990E+00-3.18847E+00-2.04066E+00-2.95987E-01-1.15521E+00 1.21923E+00
 -1      1064-3.75049E+00-4.29931E+00-1.81257E+00-5.01815E-01-7.61158E-01 1.00101E+00
 -1      1065-1.07497E+00-1.25116E+00-5.53023E-01 1.51843E-01-6.19760E-01 1.93751E+00
 -1      1066-6.10272E+00-8.87386E+00-3.48454E+00-7.73661E-01 4.28737E-01 5.91614E-01
 -1      1067-6.06282E+00-5.63140E+00-1.88061E+00-1.60445E-01-8.22249E-01 6.40665E-01
 -1      1068-4.84905E-01-3.36698E-01 2.99391E-01-3.28316E-01-1.04932E+00 1.84071E+00
 -1      1069-4.25989E+00-5.63313E+00-2.15165E+00-7.10177E-01-3.26079E-01 1.15882E+00
 -1      1070-2.38385E+00-3.79055E+00-1.17995E+00-8.50260E-02-1.20439E+00 1.03363E+00
 -1      1071-2.31269E+00-3.20377E+00-8.07748E-01 3.49982E-02-3.09541E-01 1.41352E+00
 -1      1072-4.03836E+00-4.88193E+00-2.07655E+00-5.64395E-01-3.76546E-01 1.23443E+00
 -1      1073-4.80384E+00-3.74160E+00-4.24142E+00 3.82862E-01 1.17342E+00 5.30516E+00
 -1      1074-2.30030E+01-1.51701E+01-1.52692E+01 1.22600E-01 9.81066E-01 9.96163E+00
 -1      1075 2.37479E+00 2.63072E+00 2.87180E+00 4.29327E-01 4.24627E-01 6.15258E+00
 -1      1076-1.34081E+01-8.18262E+00-8.08348E+00 3.16352E+00 1.42313E+00-8.48039E+00
 -1      1077 2.34475E+00 4.82697E+00 3.63078E+00-5.90618E-01 7.47169E+00 1.87308E+00
 -1      1078 1.64478E+01 1.76707E+01 1.36474E+01-3.35707E+00 8.30476E+00-6.81538E+00
 -1      1079-1.80835E+00-9.80469E-01-3.81460E-01 2.08912E-01-1.31251E+00 6.24197E+00
 -1      1080-2.28830E+00-1.47404E+00 1.00832E+00 1.34762E+00-9.03446E-01 5.95240E+00
 -1      1081-2.51098E+01-1.76879E+01-1.71191E+01-2.14950E+00 2.84590E+00 9.38152E+00
 -1      1082-1.32480E+00 5.95944E-01 2.44412E+00 3.88646E-01-1.73577E+00 4.14905E+00
 -1      1083-1.94490E+01-1.54848E+01-1.39735E+01-2.87707E+00 5.18267E+00 9.69573E+00
 -1      1084-8.34316E+00-7.40818E+00-4.99085E+00-2.33583E+00 3.21554E+00 6.17419E+00
 -1      1085-7.60709E+00-3.98657E+00-3.79344E+00 1.18476E+00-4.30361E+00 5.75083E+00
 -1      1086-2.92013E+00 3.02242E-01-1.60024E+00 8.01967E-01-3.21184E+00 5.67074E+00
 -1      1087-5.50495E+00-7.66505E+00-2.60089E+00-1.58069E+00 3.62547E+00 2.97732E+00
 -1      1088-1.55802E+01-1.53394E+01-1.11478E+01 3.52672E+00-7.62231E+00 4.16843E+00
 -1      1089-6.39891E+00-7.29102E+00-5.01269E+00 2.19565E+00-4.69061E+00 1.85254E+00
 -1      1090-2.29267E+00-8.48765E+00-3.57966E+00 8.79847E-02 7.35505E+00 3.38402E+00
 -1      1091-1.48629E+01-2.10004E+01-1.43453E+01 1.52819E+00-8.10180E+00 2.30518E+00
 -1      1092 4.12860E-01-1.75019E+00 1.73645E+00-7.03319E-01 4.37999E+00 8.97757E-01
 -1      1093-1.65651E+01-2.24775E+01-1.56171E+01-2.60323E+00 1.06489E+01 3.23035E+00
 -1      1094-7.20827E+00-9.63495E+00-8.26616E+00 1.04311E+00-7.30895E+00 1.59500E+00
 -1      1095-6.08294E+00-1.07691E+01-5.13880E+00 1.70781E+00-6.89358E+00 9.21329E-01
 -1      1096-2.57702E+00-9.57506E+00-6.14382E+00-4.81352E+00 6.87449E+00-1.14808E+00
 -1      1097-1.58804E+01-2.39243E+01-1.59219E+01 1.83604E-01 9.74923E+00-9.60147E-01
 -1      1098-5.09026E+00-1.12680E+01-5.96449E+00 7.52282E-01-6.04619E+00-1.04340E+00
 -1      1099 1.55533E+00 1.54967E+00 3.15832E+00-4.22387E-01-6.12938E+00-1.27727E+00
 -1      1100-9.71508E-03-2.04579E+00 4.22196E+00-7.94460E-01-4.38279E+00-2.20248E+00
 -1      1101-1.58831E+01-1.89019E+01-1.39140E+01 3.17500E+00 7.26036E+00-3.88089E+00
 -1      1102-1.71818E+01-2.11768E+01-1.53434E+01 3.50780E+00 8.36279E+00-4.92824E+00
 -1      1103-1.82380E+01-1.96854E+01-1.51694E+01-3.72269E+00-7.72601E+00-6.34042E+00
 -1      1104-1.88812E-01-9.89641E+00-3.65457E+00-7.87126E-01-5.56434E+00-6.28767E+00
 -1      1105-4.54529E+00-7.90541E+00-4.75786E+00 2.39786E+00 4.68959E+00-4.98409E+00
 -1      1106-2.15242E+01-2.08553E+01-1.69518E+01 4.25446E+00 6.91189E+00-8.42236E+00
 -1      1107-2.90526E+00-1.81907E+00-2.33220E+00-5.32817E-02-2.59573E+00-3.08590E+00
 -1      1108-2.37441E+01-1.93745E+01-1.72474E+01 3.72601E+00 5.11011E+00-9.55998E+00
 -1      1109-1.35413E+01-7.77591E+00-8.70613E+00 2.04771E+00-1.30396E+00-4.69780E+00
 -1      1110-2.36655E+01-1.78102E+01-1.65903E+01 3.08384E+00 2.83569E+00-9.34789E+00
 -1      1111-1.28712E+01-8.49737E+00-9.28972E+00 9.13023E-01-7.85623E-01-6.36851E+00
 -1      1112 1.18816E+00 3.03470E+00 6.33718E+00 5.25221E-02-7.98109E-01-5.83888E+00
 -1      1113 9.12630E+00 4.73317E+00 2.42285E+00 9.92539E-01 3.57091E+00 6.42838E+00
 -1      1114 4.06167E+00 2.17019E+00 2.87016E+00 1.24349E+00 7.11796E+00 3.10101E+00
 -1      1115 7.19363E+00 5.15160E+00 4.11383E+00 1.77183E+00 6.38255E+00 5.55855E+00
 -1      1116-3.76314E+00-3.49658E+00-3.83319E+00 2.20581E-01 4.15933E+00-5.23887E+00
 -1      1117-7.31884E+00-6.50444E+00-6.92497E+00 6.64698E-01 1.08932E+00-6.19470E+00
 -1      1118 4.59256E+00 2.86033E+00 2.23814E+00-3.64451E+00 8.46221E+00-1.18460E+00
 -1      1119-4.11233E+00-4.06399E+00-5.24684E+00 3.20389E-01 5.12507E+00-2.38082E+00
 -1      1120 3.48912E+00 2.32319E+00 2.67641E+00 1.05329E+00-1.41827E+00 9.34462E+00
 -1      1121 2.03445E+00 3.60012E+00 2.46343E+00-2.40794E+00-1.95776E+00 6.56235E+00
 -1      1122-2.79561E+00-3.05615E+00-3.59017E+00-7.79609E-02-2.86074E+00 4.59406E+00
 -1      1123 2.52560E+00 3.54056E+00 1.10345E+00-1.28192E+00-3.64804E+00 5.77000E+00
 -1      1124 4.50795E+00 2.82806E+00 3.34765E+00-1.69808E+00-6.10838E+00 3.43092E+00
 -1      1125-4.92710E+00-5.03815E+00-7.63497E+00-2.02455E-01-5.71757E+00 1.44954E+00
 -1      1126 3.61987E+00 5.05626E+00 4.83506E+00-4.85538E-01-6.73857E+00 4.26402E-01
 -1      1127 3.13621E+00 2.19995E+00 2.11894E+00 1.95242E+00-7.15363E+00-1.01905E+00
 -1      1128 3.71463E+00 7.40339E+00 5.18017E+00-2.53178E-01-7.09609E+00-3.55972E+00
 -1      1129 1.41679E+01 1.57571E+01 1.19700E+01 2.68366E+00-6.97366E+00-5.73633E+00
 -1      1130 1.39529E+01 1.37615E+01 1.10857E+01 2.80670E+00-5.50507E+00-6.70810E+00
 -1      1131-5.92401E+00-6.03970E+00-6.93689E+00-7.59922E-01-3.87852E+00-6.40752E+00
 -1      1132 4.49059E+00 4.38968E+00 3.31108E+00 1.57224E+00-2.41079E+00-5.63305E+00
 -1      1133 2.68482E+00 2.06671E+00 2.00179E+00 7.34237E-01-6.75165E-01-5.57615E+00
 -1      1134-1.38192E+00-5.36137E-01 1.00402E+00 2.49722E-01 2.88576E-01-2.36253E-01
 -1      1135-2.32484E+00-1.38385E+00 1.28270E+00 9.15569E-01 5.50331E-01-5.36011E-01
 -1      1136-4.19145E+00-1.20590E+00 5.13507E-01 9.04197E-01-2.48944E-01-5.51070E-01
 -1      1137-2.67338E+00-1.29997E+00-4.92984E-02 6.69014E-01-6.55633E-02-6.34494E-01
 -1      1138-1.51663E+00-2.06593E+00 1.12750E+00-1.13884E+00-4.11820E-01-7.27307E-01
 -1      1139-9.28779E-01-1.70498E+00 1.50389E+00 9.30987E-01 5.62830E-01-3.96845E-01
 -1      1140-5.26917E-01-2.11987E+00 6.20827E-01 1.96402E-01 1.54191E-01 2.58644E-02
 -1      1141-2.08192E+00-3.00575E+00 1.00920E+00 1.49964E+00 6.74913E-01 1.43495E-01
 -1      1142-2.66144E+00-2.25874E+00 3.35214E-01 1.63101E+00-1.86083E-01-3.05401E-01
 -1      1143-2.06489E+00-1.73200E+00-3.54762E-01 1.07249E+00 2.87179E-01-8.86763E-01
 -1      1144-8.34377E+00-3.71880E+00 2.87331E+00-1.45864E-01 1.90872E-01 1.58417E+00
 -1      1145-8.22510E+00-1.21755E+00-1.21822E-01 1.40974E-01-5.01901E-02 4.12030E-02
 -1      1146-7.20041E+00-4.71802E+00 9.77891E-01 6.62444E-01-4.26410E-01 1.75870E+00
 -1      1147-7.87437E+00-2.88824E+00-5.32636E-01-2.51409E+00 1.78608E-01 5.70814E-01
 -1      1148-6.97593E+00-6.26553E+00 2.38357E+00-3.68662E+00-6.13119E-02 1.50362E+00
 -1      1149-1.04391E+00-2.56869E+00-4.36577E-02-6.17690E-01-5.66573E-01-1.04216E-01
 -1      1150-3.96728E+00-3.48694E+00 2.33033E+00 1.41181E+00-1.63219E+00 1.72837E+00
 -1      1151-7.10323E+00-3.01542E+00-1.36844E-01 2.19221E+00-6.92608E-02 5.38405E-02
 -1      1152-3.94171E+00-1.68026E+00 3.64896E+00 1.72311E+00-6.68507E-01 1.25322E+00
 -1      1153-6.14449E+00-3.57694E+00-1.52238E-01 1.36716E+00-5.34742E-01 1.97788E-01
 -1      1154-8.96632E-01-3.88709E+00 7.50720E-01 8.80849E-01 5.82996E-01 4.76274E-02
 -1      1155-1.12930E+00-3.27365E+00 1.30751E+00-8.10459E-01 7.82634E-01 4.65839E-02
 -1      1156-1.04658E+00-2.07853E+00 4.83005E-01-5.63983E-01 5.20037E-01 1.29125E-01
 -1      1157-7.06092E-01-7.10257E-01-7.52875E-01 2.65041E-01 6.23932E-01 1.74272E-01
 -1      1158-1.03861E+00-2.24583E+00 1.98287E-01-4.69160E-01 1.23138E+00 4.98550E-01
 -1      1159 4.74555E-02-1.32921E-01-3.86842E-01-1.82610E-03 3.41120E-01 2.84180E-02
 -1      1160-5.72719E+00-8.18043E+00 1.84781E+00-3.49147E+00-1.60741E+00-9.29061E-01
 -1      1161-3.28293E+00-7.44451E+00-3.85955E-01-2.53224E+00-1.36441E-01-8.50321E-02
 -1      1162-2.97084E+00-8.95545E+00 1.21642E+00-2.19788E+00-8.77483E-01-4.88130E-01
 -1      1163-3.08226E+00-6.84336E+00 9.20894E-02-2.09661E+00-2.93061E-01-4.16002E-01
 -1      1164-1.50221E+00-2.68567E+00 2.07629E-02-1.15833E+00 1.43620E-01 6.54676E-01
 -1      1165-4.33536E+00-5.42294E+00 1.31243E+00-3.00227E+00-9.83929E-01-1.37808E-01
 -1      1166-4.36858E+00-4.84822E+00-2.10784E-01-3.35317E+00 2.32634E-01 1.91093E-01
 -1      1167-5.70244E+00-1.72201E+00 6.07351E-01-2.26813E+00 1.54305E-01-1.65984E-01
 -1      1168-7.37235E+00-2.41284E+00 2.19389E+00-2.12706E+00-6.67635E-01-7.68621E-01
 -1      1169-7.11145E+00-3.54721E+00-4.64528E-01-2.15353E+00 1.83696E-02-2.43541E-01
 -1      1170-5.19515E+00-1.63724E+00 3.36978E+00 1.20174E+00 1.95830E-01-1.50389E+00
 -1      1171-7.76428E+00-9.37699E-01 4.88271E-01 1.59363E-02-4.87729E-01-3.16753E-01
 -1      1172-8.28398E+00-1.38568E+00 1.24917E+00 6.53784E-02 3.84777E-01-1.38926E+00
 -1      1173-2.28889E+00-6.56641E-01 7.44251E-01 2.23459E-01-7.82361E-02 5.83719E-01
 -1      1174-3.01605E+00-1.13530E+00-2.69680E-01 1.25764E-01-4.57258E-01 7.38726E-01
 -1      1175-3.99991E+00-9.16239E-01 7.83392E-01 1.51897E-01-2.44823E-01 5.90140E-01
 -1      1176 1.85340E-01-1.31705E-01-9.31467E-02-5.77944E-02-3.40378E-02 6.97951E-01
 -1      1177-3.05570E+00-8.38996E-01-2.06843E-02-1.30802E-01 5.53725E-02 1.45863E+00
 -1      1178-6.69236E-01-1.93496E+00 4.05788E-01 3.45960E-01-5.70327E-01 2.71937E-01
 -1      1179-5.62103E-01-1.17757E-01-2.75237E-01 2.60852E-02 1.84757E-01 6.10954E-01
 -1      1180-2.40508E+00-2.44469E+00-4.04392E-01-8.74384E-01 1.06472E+00 9.63908E-01
 -1      1181-1.23791E+00-8.64258E-01 2.07799E-01-9.11401E-01 1.10376E+00 9.21796E-01
 -1      1182-1.04982E+00-5.10102E-01-4.71517E-01 3.50127E-01 4.17370E-01 4.05511E-01
 -1      1183-2.67699E+00-9.29321E-01 3.99379E-01-5.25184E-01 2.41007E-01 1.23674E+00
 -1      1184-3.30227E+00-1.21000E+00 5.58628E-02-5.34760E-01 4.97683E-01 1.04473E+00
 -1      1185-5.30157E-01-3.15560E-01-3.91235E-01-2.37952E-02 2.97117E-01 5.58853E-01
 -1      1186-2.30277E+00-1.27223E+00 4.16929E-01-6.76718E-01 1.81858E-01 4.39181E-01
 -1      1187-4.06473E+00-1.16168E+00 1.03842E+00-7.33030E-01-8.70271E-02 6.76492E-01
 -1      1188-1.24468E+00-1.72063E+00 6.21762E-02-8.47915E-01 7.01890E-01 4.96126E-01
 -1      1189-1.46418E+00-1.98824E+00 5.17492E-01-7.82074E-01 3.50944E-01 2.09400E-01
 -1      1190-2.82054E+00-2.38431E+00 9.76262E-01-1.50809E+00 1.15850E-01 5.45725E-01
 -1      1191-6.29601E-01-2.03636E+00 2.32709E-01 3.69682E-01-1.00715E+00 4.58953E-01
 -1      1192-7.02583E-02-5.49306E-01 1.13416E-01 1.52783E-01-4.67601E-01 1.01028E-01
 -1      1193-1.09450E-01-5.21294E-01-1.49012E-01 2.11559E-02-7.19041E-01 4.59662E-02
 -1      1194-1.63116E+00-2.50999E+00-2.64881E-01 5.06739E-02-1.19609E+00 2.03846E-01
 -1      1195-6.37256E+00-7.77714E+00 1.66909E+00-1.20966E+00 2.65863E+00 3.06892E-01
 -1      1196-2.59114E+00-6.98615E+00-2.27641E-01 2.32357E+00 3.16296E-01-1.77841E-01
 -1      1197-1.95782E+00-7.04064E+00 2.63532E+00 2.92165E+00 1.46152E+00-4.01602E-03
 -1      1198-3.55297E+00-9.03823E+00-3.51005E-01-4.43577E-01 9.58528E-03 3.44997E-01
 -1      1199-3.55482E-01-2.48258E+00 3.88126E-01-3.32673E-01-9.49727E-01-3.27045E-02
 -1      1200-2.21652E+00-8.06894E+00 5.89703E-01-3.29982E-01-2.05321E-01 6.12496E-02
 -1      1201-1.74894E+00-7.44547E+00 2.76866E+00 1.81401E-02 1.73986E+00 1.06518E+00
 -1      1202-3.19445E-02-3.12289E-01-4.70747E-01-1.80718E-02-5.23195E-01-5.48710E-02
 -1      1203-1.60130E+00-3.02422E+00 2.19615E-01-3.64834E-01-1.09343E+00-5.67367E-02
 -1      1204-7.48751E+00-4.49780E-01 2.30050E+00 1.16602E+00 1.18248E-01-1.47496E+00
 -1      1205-5.64298E+00-1.65584E+00 9.22565E-01 1.98037E+00-1.94345E-01-2.03729E-01
 -1      1206-3.00779E+00-7.18941E-01 4.85464E+00 3.44964E+00 2.07174E+00-1.21556E+00
 -1      1207-4.13533E+00-1.40544E+00 9.31748E-01 8.32600E-01 1.38723E-01 9.63663E-01
 -1      1208-2.21155E+00-1.14253E+00 4.57462E-01 6.67297E-01-1.75294E-01 5.77330E-01
 -1      1209-1.76805E+00-8.25310E-01-3.82321E-01 6.06555E-01-5.44745E-01 6.45929E-01
 -1      1210-2.54977E+00-9.24589E-01 1.04004E+00 1.27562E+00-2.60374E-01 2.97818E-01
 -1      1211-3.79030E-01-9.27475E-02-2.17123E-01 1.38134E-01-1.53013E-01 4.63883E-01
 -1      1212-2.60442E+00-1.24731E+00 1.76787E-01 5.11515E-01-5.91672E-01 1.07827E+00
 -1      1213-4.31489E+00-5.05763E+00-7.70597E-02 3.69311E+00-2.41995E-02 2.35592E-01
 -1      1214-6.28590E+00-4.94714E+00 1.62755E+00 2.72232E+00 8.12666E-01-1.46868E+00
 -1      1215-2.42105E+00-1.75323E+00 1.05675E+00 1.43877E+00-7.95981E-02 6.86262E-01
 -1      1216-1.20476E+00-1.24004E+00 4.70357E-01 7.24912E-01-2.70932E-01 5.08497E-01
 -1      1217-2.09963E+00-1.59372E+00-2.56656E-01 7.81696E-01-6.95615E-01 3.09450E-01
 -1      1218-1.82261E+00-3.06352E+00 4.42690E-01 1.30312E+00-7.14532E-01 4.85076E-02
 -1      1219-7.03472E-02-2.06884E-01-2.56821E-01 1.08776E-01-2.38431E-01 3.44726E-01
 -1      1220-1.24430E+00-1.60590E+00 1.70303E-01 8.32612E-01-9.80570E-01 9.14182E-01
 -1      1221-1.15336E+00-3.88312E+00 9.87837E-01-5.16931E-01-7.98339E-01-6.77437E-01
 -1      1222-2.71136E+00-6.97224E+00 3.55229E-02-2.45375E+00-1.79774E-02 2.45515E-01
 -1      1223-3.76167E+00-8.49325E+00 1.42231E+00-2.79503E+00 5.92713E-01 4.52228E-01
 -1      1224-3.49622E+00-6.71963E+00 3.02160E-03-1.67608E+00 4.06094E-01 8.72789E-01
 -1      1225-2.09704E+00-7.74226E+00 1.59096E+00-1.33015E+00 1.73327E+00-3.79835E-02
 -1      1226-1.76158E-01-3.20271E-01-2.59836E-01 5.37043E-01-5.72115E-01-3.24780E-01
 -1      1227-4.43190E-01-1.83128E+00 3.11825E-01-5.93239E-01-1.31087E+00-6.33427E-01
 -1      1228-1.00997E+00-4.02266E-01-6.31546E-01 5.42646E-01-5.49259E-01 4.11742E-02
 -1      1229-1.71005E+00-2.87429E+00-3.27899E-01-6.23450E-01-1.29994E+00-7.52612E-01
 -1      1230-7.71675E-01-2.48044E+00 1.70005E+00 4.33084E-01 6.16193E-01-3.40632E-01
 -1      1231-4.52611E-01-1.53753E+00 9.10046E-01-1.07032E-01 6.70913E-01-9.08042E-02
 -1      1232 6.41619E-02-3.77098E-03-3.61552E-01-2.14258E-02 4.39022E-01-3.80722E-02
 -1      1233-9.25943E-01-2.44129E+00 2.23045E-02-4.25044E-02 1.20560E+00-1.16507E-02
 -1      1234-1.39457E-01-5.51528E+00 4.33987E+00-1.44811E-01-1.74056E+00-2.64349E-01
 -1      1235-7.02310E-02-7.90961E+00 7.63149E-02 3.39277E-02 3.24361E-01 1.86585E-01
 -1      1236-1.29785E-01-2.50751E+00 1.72019E-01 9.51759E-02 8.24908E-01 1.76591E-01
 -1      1237 1.46627E-01-1.92252E-01-4.63814E-01 2.88692E-02 3.95824E-01 1.58727E-02
 -1      1238-6.78215E-01-2.46943E+00-1.53899E-01-7.50259E-02 6.53618E-01 1.72961E-01
 -1      1239-1.52066E+00-5.47299E+00 1.07170E+00 2.06370E+00-3.22995E-02-1.45291E-01
 -1      1240-3.89246E+00-8.28972E+00 1.39764E+00 2.31430E+00-8.28630E-01 5.20083E-01
 -1      1241-2.23052E+00-7.04345E+00 9.70940E-01 6.65146E-01-1.98193E+00-2.28758E-01
 -1      1242-3.43233E+00-6.95739E+00-5.95793E-02 2.03602E+00-1.03217E-01-1.17098E-01
 -1      1243-1.11880E+00-7.17431E-01-3.39437E-01-2.21604E-01 9.94744E-01-1.91259E-01
 -1      1244-1.00673E+00-3.12569E+00 2.88886E-01 7.93864E-01 1.01945E+00-4.07415E-01
 -1      1245-1.12115E+00-3.24318E+00-3.86617E-03 7.72831E-01 9.36608E-01-3.35701E-01
 -1      1246-4.34464E-01-8.79933E-01-3.40902E-02-9.63016E-02 1.01790E+00-3.50938E-01
 -1      1247-1.44539E+00-4.08118E+00 2.26969E-01-2.67404E-02 4.49375E-01 5.15216E-01
 -1      1248-2.56212E+00-2.03757E+00 6.39735E-01-1.62246E+00-1.47433E-01-5.61757E-01
 -1      1249-6.97969E-01-3.68604E+00 2.93218E-01 1.59197E-01-2.61139E-01 4.19654E-01
 -1      1250-3.96755E-01-2.20065E+00-1.18729E-01-9.96869E-02-7.50338E-01 2.22773E-01
 -1      1251-6.65359E+00-7.57628E+00 1.16968E+00 2.84416E+00-1.00143E+00 8.44254E-01
 -1      1252-4.95464E+00-5.11745E+00-3.56007E-01-3.30004E+00-6.76999E-02 3.06477E-01
 -1      1253-5.11330E-01-2.34497E+00 2.90371E+00-1.86631E+00 4.13262E-01 1.26687E+00
 -1      1254-5.46828E+00-5.61386E+00-2.61585E-01-2.49084E+00-3.47820E-02 4.68399E-01
 -1      1255-1.93520E+00-1.47287E-01 2.97549E+00-1.78012E+00 3.12854E+00 1.06552E+00
 -1      1256-4.58833E+00-4.67539E+00 5.08425E-02 2.91033E+00-4.56560E-01 3.65777E-01
 -1      1257-8.07724E+00-6.00191E+00 1.92087E+00 2.17745E+00-5.45069E-01 1.22405E+00
 -1      1258-5.17200E+00-5.19623E+00-1.28329E-01 2.89697E+00-4.36419E-01 1.66993E-01
 -1      1259-1.90138E+00-2.85776E+00 1.08555E+00-1.30258E+00-5.24962E-01-1.38604E-01
 -1      1260-1.55245E+00-1.25846E+00 4.62091E-01-7.70204E-01-7.15405E-01-2.70721E-01
 -1      1261-2.71174E+00-1.30630E+00 1.15581E+00-9.43200E-01-5.63586E-01-2.79964E-01
 -1      1262-1.77556E+00-8.07446E-01 8.87887E-01-5.46961E-01-1.50533E-01-5.34783E-01
 -1      1263 5.52317E-02 8.36251E-02 5.86669E-02-2.06788E-01 2.40987E-01-8.22163E-01
 -1      1264-2.32348E+00-1.11740E+00-7.38854E-02-9.25907E-01-1.96379E-01-4.84924E-01
 -1      1265-4.18161E+00-8.56785E-01 7.54188E-01-7.53837E-01-6.28079E-02-6.48148E-01
 -1      1266-3.29903E-01-1.10626E-01-2.45738E-01 8.50976E-03 3.14854E-02-6.61664E-01
 -1      1267-3.12747E+00-1.52222E+00 9.50619E-03-3.60366E-01-1.05268E-01-1.04002E+00
 -1      1268-2.75205E+00-2.19249E-01-1.83820E-01-4.29438E-01-7.57169E-02-1.04219E+00
 -1      1269-6.93887E-01-4.52505E-01-3.61700E-01-2.64453E-02 2.45770E-02-8.57301E-01
 -1      1270-2.64118E+00-1.08112E+00 5.13301E-01 8.60553E-01 6.59105E-01-1.38126E+00
 -1      1271-6.10136E-01-8.74526E-01-5.71073E-01-2.46064E-01 8.69435E-02-7.73075E-01
 -1      1272-2.31717E+00-2.63401E+00 2.64480E-01 1.13695E+00 8.41955E-01-9.07210E-01
 -1      1273-2.11544E+00-2.02472E+00 2.12686E-02 1.61028E+00 7.23805E-01-7.65426E-01
 -1      1274-2.71982E-01-2.89621E-01-5.11074E-01 3.63215E-01 5.98451E-01-4.15237E-01
 -1      1275-4.01788E+00-1.01473E+00 1.14292E+00 5.52778E-01 3.78046E-01-5.60752E-01
 -1      1276-3.95373E+00-7.94215E-01 7.03880E-02-1.77206E-01-2.55284E-01-5.03058E-02
 -1      1277-2.44193E+00-5.55182E-01-2.48395E-01-3.11793E-01-3.43945E-02-9.78836E-01
 -1      1278-4.42048E-01-4.65640E-02-1.51788E-01-6.47011E-02-1.16560E-01-2.72849E-01
 -1      1279-1.97168E+00-1.46169E+00 7.43531E-02-8.51332E-01-9.12596E-01-1.01581E+00
 -1      1280-2.63677E+00-1.15588E+00 1.71506E-01-8.28513E-01-6.20565E-01-1.38413E+00
 -1      1281-1.72980E-01-1.86503E-01-5.21011E-01 8.42660E-02-4.61250E-01-6.23352E-01
 -1      1282-2.92941E+00-2.01142E+00-1.37891E-01-4.67704E-01-3.52036E-01-1.40072E+00
 -1      1283 1.92375E+00 1.82886E-01 6.18467E-01-1.93662E-01 7.50917E-01 2.29174E+00
 -1      1284-3.43214E+00-2.77511E+00-7.16424E-01 9.08933E-01-6.96655E-02 1.13185E+00
 -1      1285-7.55710E+00-1.22114E+01-3.90161E+00 2.18372E-01-1.03840E-01 1.23404E+00
 -1      1286-1.40456E+00-1.26796E+00 8.08227E-02-1.64431E-01-3.76083E-02 1.91143E+00
 -1      1287-1.36117E+00-1.38430E+00-7.78827E-01-3.35090E-03 6.69719E-01 1.53657E+00
 -1      1288-3.32095E+00-3.83591E+00-3.78088E-01-2.21828E-01 3.04750E-01 9.50323E-01
 -1      1289-4.65130E+00-7.18562E+00-3.02441E+00 6.38595E-01-8.92760E-02 1.74578E+00
 -1      1290-2.24514E+00-1.55078E+00-1.24439E+00-4.89006E-01 5.42787E-01 2.12135E+00
 -1      1291-3.93806E+00-5.48518E+00-2.15214E+00 5.49866E-01 4.74246E-01 1.32439E+00
 -1      1292 2.02443E-01 4.98472E-01 1.49602E+00 7.57870E-01 1.72675E+00 1.96086E+00
 -1      1293-5.86499E+00-4.68742E+00-1.88926E+00-1.25202E-01 1.06505E+00 2.21643E-01
 -1      1294-1.04146E+01-1.01356E+01-4.36038E+00 2.39248E+00 1.49560E+00 1.44194E+00
 -1      1295-1.88065E+00-1.58899E+00-6.23826E-01-8.84022E-02 1.69218E+00 1.34866E+00
 -1      1296-4.01871E+00-3.63071E+00-2.67377E+00 4.51118E-01 4.01465E-01 6.05145E-01
 -1      1297-3.31152E+00-3.22357E+00-1.72060E+00-1.48609E-01 1.10467E+00 5.63218E-01
 -1      1298-8.13656E+00-6.35237E+00-2.87835E+00 5.94739E-01 3.38386E-01 9.28750E-01
 -1      1299-4.85819E-02-8.11713E-01 8.31446E-01-2.70238E-03 1.90700E+00 7.04501E-01
 -1      1300 5.84120E-02-1.01169E+00-4.43328E-01 6.19288E-02 2.01253E+00-1.06410E-01
 -1      1301-4.34138E+00-5.17366E+00 6.30329E-02-1.82522E-01 1.51133E-01-3.45387E-02
 -1      1302-1.18602E+01-7.59792E+00-3.90549E+00 5.09476E-01 1.48982E+00 8.65280E-01
 -1      1303-1.90483E+00-2.14396E+00-6.51865E-01 2.15118E-01 1.77671E+00 8.81656E-02
 -1      1304-4.76007E+00-4.41055E+00-1.70997E+00-3.88689E-01 1.17566E+00-5.00389E-01
 -1      1305-7.64898E+00-6.08445E+00-3.05258E+00-2.98461E-01 1.73574E+00 5.47823E-01
 -1      1306-1.10099E+00-1.90569E+00-1.18374E-01 7.00961E-01 1.89274E+00-7.38107E-01
 -1      1307-3.35871E+00-4.82565E+00-3.73246E+00-1.14093E-01 2.66123E-01-6.78481E-01
 -1      1308-8.00215E+00-7.88840E+00-4.19625E+00-7.66150E-01 1.54075E+00-4.74938E-01
 -1      1309-2.46664E+00-2.74039E+00-8.30140E-01 2.00073E-01 1.23250E+00-1.58973E+00
 -1      1310-6.55770E-01-1.80125E+00-7.15355E-01-9.91936E-01 7.52564E-01-1.94201E+00
 -1      1311-4.43368E+00-5.69233E+00-1.10177E+00 2.71056E-01-8.34785E-02-9.31882E-01
 -1      1312-7.28188E+00-9.67942E+00-2.60758E+00-7.29842E-01 1.15816E+00-1.63833E+00
 -1      1313-2.13881E+00-2.11756E+00-6.75690E-01 2.08332E-01 9.59183E-01-1.77572E+00
 -1      1314 3.39142E-01-4.43081E-01-6.01998E-01-5.20701E-02-2.82055E-01-2.31199E+00
 -1      1315-3.08961E+00-3.61932E+00-2.75022E-01-4.74807E-02-4.50841E-01-7.26485E-01
 -1      1316-6.05235E+00-6.68151E+00-2.65058E+00-2.66786E-01 7.59166E-01-1.70098E+00
 -1      1317-1.64506E+00-2.01951E+00-1.31091E-01-2.77346E-01 5.41245E-02-1.93912E+00
 -1      1318-4.53136E+00-4.69336E+00-1.37947E+00 4.48492E-01-1.21991E-01-6.36752E-01
 -1      1319-8.28306E+00-1.12866E+01-2.06447E+00 8.86267E-01 3.60290E-01-1.34295E+00
 -1      1320-2.28778E+00-2.79037E+00-1.06824E+00-1.29383E-01-8.93678E-01-1.76378E+00
 -1      1321-5.00003E+00-4.35067E+00-1.09302E+00 8.70441E-02-9.10220E-01-3.70984E-01
 -1      1322-5.81139E+00-5.60255E+00-3.08260E+00 7.18451E-01-1.37327E+00-1.26004E+00
 -1      1323-2.07063E+00-1.84800E+00-7.14206E-02-8.70612E-02-1.19418E+00-1.43664E+00
 -1      1324-1.42868E-01 1.16589E+00 7.28964E-01 1.11207E+00-2.25523E+00-8.16080E-01
 -1      1325-8.53737E+00-5.47150E+00-2.84937E+00-5.39091E-01-7.65393E-01 4.38027E-01
 -1      1326-6.59345E+00-5.83508E+00-2.56439E+00 1.02043E+00-7.53036E-01-9.01768E-01
 -1      1327-1.44681E+00-1.65486E+00-8.49366E-01-3.66675E-01-2.10023E+00-9.26818E-01
 -1      1328-9.31321E-01-9.90914E-01-1.26492E+00-3.99256E-02-1.92991E+00 1.78926E-01
 -1      1329-5.60491E+00-5.30927E+00-3.45894E+00 3.01594E-01-8.06854E-01 1.95960E-01
 -1      1330-1.03109E+01-7.18859E+00-4.72381E+00 1.19845E-01-1.71138E+00-1.22588E+00
 -1      1331-2.13510E+00-2.79778E+00-8.46298E-01-1.33107E-01-1.66006E+00-6.19344E-01
 -1      1332-4.97793E+00-6.29726E+00-2.35601E-01-1.04877E+00-3.44461E-01 5.21057E-01
 -1      1333-9.48771E+00-7.27955E+00-9.47523E-01-7.93157E-01-1.00172E+00 1.87629E-01
 -1      1334-1.47894E+00-1.97427E+00-6.22311E-01 1.27814E-01-1.27729E+00 4.81586E-01
 -1      1335-3.67880E+00-3.45249E+00-1.04418E+00-3.46233E-02-5.11131E-01 9.49259E-01
 -1      1336-7.05115E+00-7.32896E+00-3.80806E+00-7.48259E-01-1.01291E+00 6.92861E-01
 -1      1337-1.99917E+00-1.93275E+00-4.94578E-01 4.75546E-01-1.70348E+00 1.36717E+00
 -1      1338 1.75456E-01 4.21449E-01 4.34846E-01 1.85274E-03-1.06739E+00 2.22588E+00
 -1      1339-5.22646E+00-5.46916E+00-1.79499E+00 1.21797E-02-7.38626E-01 6.81597E-01
 -1      1340-8.77557E+00-1.03105E+01-5.30041E+00-1.81316E+00-3.29174E-01 6.89018E-01
 -1      1341-1.76534E+00-1.91415E+00-4.33456E-01 2.86682E-02-4.31534E-01 1.73360E+00
 -1      1342 1.80666E+01 1.23233E+01 1.21559E+01 1.14053E+00 9.56433E-01 9.71151E+00
 -1      1343-8.98279E-01 1.49376E+00 3.90046E+00-3.20175E-01 1.02271E+00-5.30378E+00
 -1      1344 1.68338E+01 1.11677E+01 1.12006E+01-3.68295E-01 1.36038E+00-9.25840E+00
 -1      1345 1.71746E+00 6.46717E-01-2.74472E-01 2.65663E+00 2.01116E+00-7.13037E+00
 -1      1346-1.17600E+00 1.39904E+00-2.04140E+00 1.65650E-01 3.88530E+00 2.06626E+00
 -1      1347-1.73997E+01-2.52144E+01-1.70456E+01 1.45191E-02 1.06945E+01 1.72575E+00
 -1      1348-5.88813E+00-8.58520E+00-5.33956E+00-1.01953E+00 5.77972E+00 1.22705E+00
 -1      1349-1.47526E+00-1.89514E+00-1.11572E+00-6.78986E-02-4.51877E+00-1.53539E-01
 -1      1350 1.01571E-01 2.02978E+00-1.14083E+00 3.01127E-01-5.00723E+00-1.09507E+00
 -1      1351-1.50803E+01-2.25500E+01-1.50521E+01-5.12478E-01-1.00373E+01-9.88519E-01
 -1      1352-1.77100E+01-2.61326E+01-1.75371E+01-1.30143E+00-9.60249E+00-9.45696E-01
 -1      1353-3.24574E+00-3.60295E+00-5.62816E+00 2.26842E-01 4.48241E+00 4.80448E+00
 -1      1354 3.06353E-01 3.42935E+00 6.31798E-01 3.15811E-01 5.50991E+00 6.53435E+00
 -1      1355-2.88575E+00-8.69330E-02-2.36443E+00-5.51095E-01 4.62535E+00 5.19359E+00
 -1      1356-1.93993E+01-1.80140E+01-1.49653E+01-3.67685E+00 6.39075E+00 7.78733E+00
 -1      1357 1.49415E+01 1.58470E+01 1.23154E+01-3.04912E+00 7.82833E+00-6.42439E+00
 -1      1358-1.25671E+00-3.96615E+00-2.96171E+00 5.63114E-01 5.66805E+00-4.38561E+00
 -1      1359 2.38207E+00 2.34015E+00 3.77340E+00 6.33365E-02 5.20724E+00-4.19325E+00
 -1      1360-2.33029E+00-2.33001E+00-3.92876E+00-2.22737E-01 6.98989E+00-2.29594E+00
 -1      1361-1.92284E+00-2.01174E+00-4.96378E+00-4.94795E-01 4.79136E+00-1.06919E+00
 -1      1362-1.45332E+01-2.09647E+01-1.41992E+01 2.38048E+00 1.02309E+01-3.22215E+00
 -1      1363-1.38600E+01-1.98459E+01-1.34823E+01 1.58762E+00 9.93993E+00-3.01529E+00
 -1      1364 2.75566E+00-3.67375E+00-1.91679E+00-1.19760E-01-5.46798E+00 3.67901E+00
 -1      1365 4.65727E-01-1.44496E+00-2.62883E+00-1.25344E+00-3.18710E+00 2.00097E+00
 -1      1366-2.39976E+01-2.46232E+01-1.94483E+01 4.89514E+00-8.02653E+00 6.58705E+00
 -1      1367-1.23661E+01-2.32011E+01-1.41087E+01 3.56988E+00-7.22972E+00 5.58946E+00
 -1      1368-9.76282E+00-6.36345E+00-5.84835E+00 1.48700E+00-1.40285E+00 7.65436E+00
 -1      1369-3.57740E+00-1.53337E-01-1.21919E+00-2.28984E+00-2.06034E+00 6.68549E+00
 -1      1370-2.15631E+01-1.53120E+01-1.47500E+01-2.57422E+00 2.84300E+00 9.73939E+00
 -1      1371-1.73088E+01-1.32640E+01-1.22291E+01 2.32567E+00-4.43695E+00 8.30064E+00
 -1      1372-9.53168E+00-1.50747E+01-1.06102E+01-1.77485E+00 4.89628E+00 4.81807E+00
 -1      1373-4.33428E+00-6.40372E+00-2.84242E+00-1.13381E+00 6.42709E+00 3.74609E+00
 -1      1374-1.48084E+01-2.15034E+01-1.45247E+01 1.92154E+00-9.00694E+00 2.49949E+00
 -1      1375-5.49547E+00-4.87760E+00-2.59075E+00-1.98305E+00-5.46563E+00-2.91304E+00
 -1      1376-1.63996E+00-1.35115E+00 2.76893E+00-2.01609E+00-2.76901E+00-3.21277E+00
 -1      1377-6.01601E-01-4.76933E-01 1.96875E+00-7.96766E-01-2.85645E+00-4.48353E+00
 -1      1378-1.89718E+01-1.56848E+01-1.38626E+01-3.11124E+00-4.77417E+00-8.73393E+00
 -1      1379-1.05037E+00 1.56937E+00 5.12858E+00 1.17409E+00 2.55791E+00-2.36123E+00
 -1      1380-1.14872E+01-6.39910E+00-5.49994E+00-3.48491E-01-1.96810E+00-4.14968E+00
 -1      1381 1.40535E+00 1.92605E+00 4.50608E+00 1.23008E+00 1.70630E+00-4.50391E+00
 -1      1382-7.68559E+00-6.71252E+00-6.97359E+00-9.89270E-01 3.99496E+00 6.89924E+00
 -1      1383-6.32761E+00-5.90464E+00-8.46577E+00-4.78133E-02 1.92425E+00 5.51037E+00
 -1      1384-2.06702E+00-2.81139E+00-6.10016E+00 3.57941E-01 1.24633E+00 4.87458E+00
 -1      1385 5.11705E+00 6.21252E+00 5.20531E+00 6.87406E-01 7.80048E+00 4.39490E+00
 -1      1386-4.37634E+00-5.80524E+00-2.70683E+00-9.22942E-01 7.39350E+00 2.01498E+00
 -1      1387 1.30388E+01 1.79750E+01 1.24055E+01 1.54488E+00 8.72958E+00 2.19494E+00
 -1      1388 2.60119E+00 1.96553E-01 3.17457E-01 9.40471E-01 5.67221E+00 4.90159E+00
 -1      1389-6.05318E+00-5.78699E+00-6.46853E+00 4.42880E-01 2.80242E+00-6.02732E+00
 -1      1390 2.76789E+01 2.10713E+01 1.95001E+01-3.65564E+00 5.05655E+00-9.45978E+00
 -1      1391 7.03503E+00 3.13751E+00 4.83213E+00-6.11205E-02 6.16186E+00-6.81055E+00
 -1      1392 2.16654E+01 1.43159E+01 1.43925E+01-1.19825E+00 2.28689E+00-8.96888E+00
 -1      1393-4.86071E+00-4.01317E+00-7.28768E+00-3.29850E-01 5.24456E+00-1.24198E+00
 -1      1394-2.74933E+00-1.02607E+00-4.98697E+00-1.84369E-01 4.00509E+00-2.67093E+00
 -1      1395 1.13240E+01 7.10211E+00 7.37043E+00-3.76924E-01-1.49568E+00 9.76688E+00
 -1      1396 1.95427E+00 3.43948E-01 8.10930E-01 5.08777E-01-1.55138E+00 6.56190E+00
 -1      1397 1.84553E+01 1.57108E+01 1.36665E+01-3.26956E+00-4.55282E+00 8.03401E+00
 -1      1398 4.41524E+00 3.24212E+00 1.62433E+00-1.21325E+00-4.18256E+00 6.00935E+00
 -1      1399 3.69334E+00 7.00531E+00 1.54992E+00-1.07713E+00-6.62783E+00 4.15856E+00
 -1      1400-3.50682E+00-3.03056E+00-5.49743E+00-2.91691E-01-5.08466E+00 1.56594E+00
 -1      1401 5.84703E+00 9.93796E+00 5.79640E+00 1.18804E+00-5.92788E+00 1.91711E+00
 -1      1402 1.41166E+01 1.94919E+01 1.34434E+01 2.02698E+00-8.87038E+00-2.69084E+00
 -1      1403 1.33536E+01 1.63651E+01 1.18875E+01 2.90681E+00-8.32720E+00-4.73800E+00
 -1      1404-4.34915E+00-4.19337E+00-3.80219E+00-5.11015E-01-4.34383E+00-3.03390E+00
 -1      1405 1.27908E+01 2.66290E+00 6.54174E+00 1.78061E+00-5.47893E+00-6.16936E+00
 -1      1406 1.94697E+01 1.50442E+01 1.38056E+01 2.67247E+00-3.85135E+00-7.20509E+00
 -1      1407 2.20467E+00 2.04364E+00 1.24714E+00 2.66292E+00-1.35935E+00-6.23479E+00
 -1      1408 1.85826E+01 1.24561E+01 1.24155E+01 5.09950E-01-8.97638E-01-9.11452E+00
 -1      1409-1.79148E+01-1.84853E+01-8.68385E+00-1.16575E+00-6.04136E-01-2.01886E-01
 -1      1410-1.60893E+01-1.91278E+01-6.89420E+00-2.84180E-01-4.55261E-01 7.00414E-01
 -1      1411-1.31037E+01-1.33919E+01-5.53263E+00 4.32896E-01-6.82290E-02 6.67033E-01
 -1      1412-2.17769E+01-2.07859E+01 4.39289E-01 2.31290E+01 5.67857E-01 8.14300E-01
 -1      1413-4.22295E+01-2.26282E+01-1.20551E+01 2.54352E+01 1.86933E+00-1.55013E+00
 -1      1414-3.79929E+01-2.29196E+01-7.80522E+00 2.52923E+01 5.33603E-01-3.18614E-01
 -1      1415-3.95892E+01-1.06103E+01-3.12810E+00-1.24302E+01 1.72714E+00-1.53517E+00
 -1      1416-1.93267E+01-1.77185E+01-9.70782E+00 1.35497E+00-2.93523E+00-3.02969E-01
 -1      1417-2.31481E+01-1.97692E+01-1.03637E+01-3.88172E-01 1.13207E+00 1.04166E+00
 -1      1418-2.04926E+01-5.01189E+01-8.63835E+00 1.44245E+01 7.45769E-01 4.93785E+00
 -1      1419-4.49193E+01-1.53785E+01-3.40148E+00 1.18740E+01-4.95220E+00-2.15969E-01
 -1      1420-1.54901E+01-1.19756E+01-6.45013E+00 1.00233E+00 7.38373E-01-1.41032E+00
 -1      1421-2.22208E+01-2.21872E+01-1.19905E+01 2.57761E-01-3.26425E+00 8.58894E-01
 -1      1422-2.07325E+01-2.05971E+01-9.49053E+00 4.45255E-01 1.18129E+00-1.30538E+00
 -1      1423-9.48236E+00-5.72781E+01-5.45576E+00 2.16622E+00 4.06762E+00 5.04533E+00
 -1      1424-2.09068E+01-5.00436E+01-5.95114E+00-1.96803E+01-2.91130E+00 5.00706E+00
 -1      1425-2.51502E+01-4.25283E+01-1.10765E+01 2.31978E+01-6.36461E-01 2.85917E+00
 -1      1426-2.31014E+01-3.69207E+01-6.93503E+00 2.63571E+01-7.51054E-01 6.90154E-01
 -1      1427-1.70980E+01-2.67808E+01-1.43326E+01 1.46004E+01 2.26220E+00 4.39112E+00
 -1      1428-1.24536E+01-1.81861E+01-9.58212E+00 1.18669E+01 9.74880E-01 3.02514E+00
 -1      1429-1.69885E+01-1.82766E+01-6.66253E+00-3.00349E-02-1.42129E+00 5.12444E-01
 -1      1430-6.52361E+01-1.30742E+01-8.53295E+00-1.46139E+00-3.36763E+00 6.74352E-01
 -1      1431-1.92570E+01-1.70754E+01-6.51472E+00 5.66175E-01-1.43452E-01-5.23942E-01
 -1      1432-1.52657E+01-1.60666E+01-6.69225E+00 1.77285E+00-1.87376E-01-1.68680E+00
 -1      1433-3.60583E+01-3.42109E+01-7.94017E+00 2.29168E+01-2.57420E+00-3.49489E+00
 -1      1434-1.50514E+01-1.52508E+01-6.18190E+00 1.69379E+00-1.30759E+00-3.72412E-01
 -1      1435-1.32047E+01-1.84388E+01-8.28672E+00-6.89170E-01-8.56982E-03-1.73944E+00
 -1      1436-5.89212E+00-5.23293E+01-4.20127E+00 2.03607E-01 9.34801E-01-4.76881E+00
 -1      1437-1.29087E+01-4.67681E+01-4.31207E+00 1.93872E+01-3.65005E+00-2.24404E+00
 -1      1438-1.79355E+01-1.32789E+01-6.83503E+00-2.41616E+00-3.24727E-01 1.69199E+00
 -1      1439-2.86964E+01-2.97974E+01-1.63589E+00-2.06530E+01-3.19958E+00 3.96205E+00
 -1      1440-2.32635E+01-1.22855E+01-1.40194E+01 1.26193E+01 2.27586E+00 8.40351E-01
 -1      1441-1.91812E+01-8.84732E+00-1.06694E+01 1.22283E+01 1.25588E+00 2.02941E+00
 -1      1442-1.74135E+01-1.51300E+01-7.40725E+00-4.24556E-01 6.23712E-02-3.01527E-01
 -1      1443-2.70342E+01-1.61899E+01-1.28022E+01-1.40155E+01 1.84534E+00-2.33584E+00
 -1      1444-2.18336E+01-1.14527E+01-8.05226E+00-1.26185E+01 1.41844E+00-6.18639E-01
 -1      1445-6.16965E+00-3.09904E+01-8.05213E+00-2.64472E+00 1.42510E+00 3.68964E+00
 -1      1446-7.39734E+00-4.71037E+01-1.53979E+01-4.68787E+00 9.90297E-01 3.95349E+00
 -1      1447-2.72348E+01-3.08195E+01-9.65884E-01-2.24770E+01 1.73577E+00-2.17137E+00
 -1      1448-5.62452E+01-1.49913E+00-6.08596E-02-8.58079E-01 2.47055E+00 2.83910E+00
 -1      1449-1.19440E+01-4.61594E+01-2.83845E+00-1.59391E+01 1.24445E+00-2.94791E+00
 -1      1450-4.42219E+01-2.93250E+01-1.87002E+01 2.59356E+01-1.75107E+00-1.07991E+00
 -1      1451-3.87128E+01-2.43326E+01-1.08364E+01 2.61762E+01-9.48602E-01-8.85306E-01
 -1      1452-4.61021E+01-1.66449E+01-4.79356E+00-1.62548E+01-5.04747E+00 3.35296E+00
 -1      1453-5.85540E+00-3.65477E+01-1.07569E+01 7.53371E+00 1.06139E+00 4.00460E+00
 -1      1454-4.95496E+00-3.28578E+01-8.50198E+00 8.21974E+00 1.26576E+00 2.48682E+00
 -1      1455-3.95798E+01-2.09195E+01-1.27077E+01 2.39980E+01 4.69937E+00-1.09055E+00
 -1      1456-3.75321E+01-2.03368E+01-1.20030E+01 2.31291E+01 2.95906E+00-2.26739E+00
 -1      1457-6.20704E+01-8.66643E+00-1.05692E+01 8.28717E+00 3.47968E+00-1.09347E+00
 -1      1458-5.98016E+01-5.23088E+00-6.48000E+00 6.84992E+00 3.03875E+00-1.98313E+00
 -1      1459-3.16704E+01-5.26513E+01-1.81246E+01 2.25157E+01-3.74604E+00-1.61350E+00
 -1      1460-1.64868E+01-3.14923E+01-5.33368E+00 1.87117E+01-1.72329E+00-1.49371E+00
 -1      1461-2.39943E+01-5.08745E+01-1.11109E+01 2.47264E+01-1.27069E+00-2.58547E+00
 -1      1462-1.91068E+01-4.30447E+01-6.32579E+00 2.21136E+01 4.79686E-01-1.19711E+00
 -1      1463-2.68689E+01-1.20555E+01-1.06249E+01 1.51547E+01-3.14376E+00-2.40922E+00
 -1      1464-2.54837E+01-1.06112E+01-9.88463E+00 1.36811E+01-1.11171E+00-1.80068E+00
 -1      1465-1.09474E+01-5.36388E+01-8.19309E+00 9.26308E+00 5.50817E-01 1.52157E+00
 -1      1466-6.59141E+00-4.15773E+01 8.45525E-01 8.23310E+00 1.38052E+00 2.54575E+00
 -1      1467-5.21144E+00-2.98036E+01-1.06963E+01 5.13572E+00 1.08040E+00-1.45564E+00
 -1      1468-2.71947E+00-2.83413E+01-9.13058E+00 7.18528E+00 1.81488E+00-8.20554E-01
 -1      1469-8.76757E+00-6.19184E+01-1.25540E+01 1.18557E+01 1.32975E-01-1.27451E+00
 -1      1470-7.65076E+00-5.59271E+01-7.90755E+00 1.10836E+01 9.68139E-01 8.17747E-01
 -1      1471-1.61482E+01-7.40647E+01-1.38830E+01-9.24823E+00 1.80185E+00 2.44200E+00
 -1      1472-8.56065E+00-5.55958E+01-2.88357E+00-6.89793E+00 2.31587E+00 1.55100E+00
 -1      1473-5.60483E+01-1.26054E+01-1.10992E+01-1.06303E+01-1.72907E+00-5.12888E-01
 -1      1474-4.18804E+01-7.30193E+00-2.09782E+00-8.04899E+00-2.18960E+00 7.93386E-01
 -1      1475-3.61357E+01-7.61139E+00-1.30352E+01 4.73567E+00 2.61700E+00 1.50642E+00
 -1      1476-2.92696E+01-4.50280E+00-1.02230E+01 3.81473E+00 1.51169E+00-1.73658E-03
 -1      1477-3.31300E+01-6.29688E+00-1.16587E+01-5.65571E+00 2.10617E+00 5.15914E-01
 -1      1478-2.92266E+01-2.79526E+00-8.62960E+00-5.00633E+00 1.37376E+00-1.02741E-01
 -1      1479-4.87801E+00-3.29697E+01-1.32585E+01-4.16400E+00-9.42172E-02-3.09604E+00
 -1      1480-3.07233E+00-2.97156E+01-1.08904E+01-4.54965E+00 9.03443E-01-1.52078E+00
 -1      1481-3.62612E+01-7.38172E+00-1.49280E+01-6.76649E+00-2.20897E+00 3.30681E-01
 -1      1482-2.75476E+01-5.49316E+00-1.08608E+01-4.83459E+00-1.70332E+00 4.86083E-01
 -1      1483-4.92029E+01-2.87844E+01-1.03480E+01 2.92881E+01 1.66701E+00 2.87746E+00
 -1      1484-4.58577E+01-2.52090E+01-7.33008E+00 2.84578E+01 2.23849E-02 1.90057E-02
 -1      1485-6.80291E+00-5.82599E+01-1.02426E+01-8.90784E+00-3.85221E-02-2.53913E+00
 -1      1486-5.90470E+00-5.46577E+01-6.63026E+00-7.45107E+00-1.84785E+00-2.13295E+00
 -1      1487-2.36018E+01-4.28463E+01-9.52751E+00-2.26550E+01-1.44126E+00-9.28431E-01
 -1      1488-1.93330E+01-3.73171E+01-4.49278E+00-2.36904E+01-1.59174E+00 3.90537E-01
 -1      1489-1.37062E+01-4.16710E+01-1.31331E+01 1.70878E+01-1.08910E+00-1.86152E+00
 -1      1490-8.14061E+00-3.01527E+01-5.32698E+00 1.03204E+01 5.86263E-01-1.23071E+00
 -1      1491-6.11280E+01-1.27738E+01-8.73662E+00-1.36322E+01 1.67391E+00-1.49933E+00
 -1      1492-5.37548E+01-1.00619E+01-4.17514E+00-1.36626E+01 1.49393E+00-2.38240E+00
 -1      1493-6.05779E+01-8.71385E+00-8.59347E+00 8.73621E+00-1.93675E+00-6.04668E-01
 -1      1494-5.22678E+01-2.88472E+00-6.19303E+00 7.08365E+00 9.44923E-01 8.22462E-01
 -1      1495-3.19286E+01-5.61325E+01-1.18113E+01-3.00305E+01-3.31069E+00 1.49033E+00
 -1      1496-2.05661E+01-4.33030E+01-1.11833E-01-2.49301E+01-1.59814E+00-4.84818E-01
 -1      1497-1.65810E+01-1.76788E+01-7.08073E+00 1.02071E+00 7.30851E-01 1.67198E+00
 -1      1498-6.11369E-01-1.79785E+01 1.51842E+00 5.51389E+00-3.37083E+00 4.84600E+00
 -1      1499-2.36318E+01-1.36704E+01-1.01925E+01-1.23188E+01-1.67231E+00 1.20283E+00
 -1      1500-1.98865E+01-1.15159E+01-8.32177E+00-1.29636E+01-1.21152E+00 6.02018E-01
 -1      1501-1.20834E+01-1.85941E+01-8.39921E+00 7.51380E+00 1.16877E+00 3.37893E+00
 -1      1502-1.04985E+01-1.85361E+01-1.10067E+01 1.08124E+01 1.04412E+00 3.55101E+00
 -1      1503-4.86049E+00-4.43138E+01-1.02668E+01 7.01009E+00-1.27912E+00 1.95528E+00
 -1      1504-5.72011E+00-3.72826E+01-7.82694E+00 5.19104E+00 1.77835E-02 2.90398E+00
 -1      1505-5.39287E+01-3.10254E+01-1.41400E+01-2.57821E+01 2.92783E+00 1.11190E+00
 -1      1506-3.71998E+01-2.18029E+01-3.05177E+00-1.86179E+01 1.65826E+00 2.47426E+00
 -1      1507-1.16967E+01-2.25096E+01-1.02143E+01-1.13044E+01 4.10672E+00-6.34189E-01
 -1      1508-1.74504E+01-2.95850E+01-1.48820E+01-1.25805E+01 4.30289E+00-1.27042E-01
 -1      1509-1.94221E+01-3.35032E+01-1.60661E+01 1.60375E+01 2.18732E+00 1.25749E+00
 -1      1510-1.25249E+01-2.21784E+01-8.71522E+00 1.22824E+01 1.69391E+00 1.03953E+00
 -1      1511-2.50879E+01-5.04548E+01-9.06369E+00 2.59124E+01 2.33295E+00 2.83798E+00
 -1      1512-2.75826E+01-4.88595E+01-6.77944E+00 2.95119E+01-1.22850E-01 1.89168E+00
 -1      1513-3.06153E+01-3.70635E+00-9.94092E+00 4.03285E+00-2.05047E+00-7.73160E-01
 -1      1514-4.01480E+01-9.00351E+00-1.60156E+01 5.45946E+00-2.45979E+00-1.71740E+00
 -1      1515-4.88201E+01-1.34664E+01-1.94096E+00 1.33101E+01 2.36173E+00 2.60747E+00
 -1      1516-1.60560E+01-1.33382E+01-8.38938E+00 8.04778E-01 7.49751E-01-7.92066E-01
 -1      1517-1.44252E+01-6.79298E+01-1.75369E+01 1.23946E+01-1.95937E+00-1.61280E+00
 -1      1518-7.33844E+00-5.55197E+01-8.61517E+00 1.00747E+01 6.64535E-01-1.88307E+00
 -1      1519-2.94672E+01-1.50909E+01-9.80600E+00-1.59469E+01-2.49969E-01 2.24175E+00
 -1      1520-2.93661E+01-1.13948E+01-7.99457E+00-1.61849E+01-1.20398E-01 1.58595E+00
 -1      1521-3.91540E+01-2.56542E+01-1.38417E+00 3.09330E+01-8.16265E-01 2.10570E+00
 -1      1522-2.09106E+01-4.02715E+01-1.41533E+01-2.13508E+01-9.55443E-01 9.34401E-01
 -1      1523-1.83585E+01-3.18890E+01-9.31378E+00-2.06788E+01-2.43522E+00 1.60567E+00
 -1      1524-7.91496E+00-5.42797E+01-1.40347E+01-8.29084E+00-2.07293E+00 1.78116E+00
 -1      1525-9.41690E+00-5.04043E+01-1.18096E+01-6.95587E+00-9.36372E-01 1.10723E+00
 -1      1526-2.01135E+01-2.28474E+00 3.26285E+00 3.85178E+00 3.41172E+00 2.15920E+00
 -1      1527-3.07784E+01-1.85045E+01 7.63093E-02-2.08246E+01-2.71185E+00-2.53335E-01
 -1      1528-4.57857E+01-2.74544E+01-1.18643E+01-2.46540E+01-2.93927E+00 3.93555E-01
 -1      1529-1.79004E+01-2.00436E+01-9.47203E+00-1.93049E+00-5.13894E-02 7.41102E-01
 -1      1530-2.11978E+01-2.10739E+01-1.39097E+01 1.49083E+00-2.72240E+00-5.25952E+00
 -1      1531-7.90833E+00-5.48514E+01-1.36646E+01-8.97862E+00 9.07749E-01-7.93540E-01
 -1      1532-5.83752E+00-5.08436E+01-1.16413E+01-9.18325E+00-4.15858E-01 2.22519E-01
 -1      1533-5.73845E+01-7.32930E+00-7.29169E+00 9.59996E+00-2.93342E+00-8.81045E-01
 -1      1534-6.16669E+01-6.55267E+00-3.50598E+00 6.70289E+00-1.75731E+00 5.95137E-01
 -1      1535-1.06912E+01-5.04198E+01-1.67030E+01 1.03273E+01-1.96469E+00 2.20279E+00
 -1      1536-6.92570E+00-3.96027E+01-9.46132E+00 7.71101E+00-2.93267E+00 1.29944E+00
 -1      1537-2.92695E+01-5.62536E+01-1.22707E+01-2.88256E+01-8.63329E-01 2.64651E+00
 -1      1538-2.26070E+01-5.08616E+01-6.15024E+00-2.52686E+01-1.29195E+00-8.60904E-02
 -1      1539-1.79701E+01-3.06138E+01-1.55199E+01 1.48985E+01-3.22350E+00-3.88838E+00
 -1      1540-1.31321E+01-2.10225E+01-9.51370E+00 1.34899E+01-2.39437E+00-2.64357E+00
 -1      1541-5.15436E+00-3.08517E+01-1.15414E+01-3.44080E+00-4.98784E-01 5.39795E+00
 -1      1542-1.05161E+01-2.56594E+01-1.45136E+01-1.17759E+00-7.98083E-01 6.98992E+00
 -1      1543-2.21429E+01-8.65060E+00-1.18149E+01-3.06746E+00-3.94852E+00 1.03265E+00
 -1      1544-2.08136E+01-2.68673E+00-1.20491E+01-4.39603E+00-4.02502E+00 1.22103E+00
 -1      1545-2.00941E+01-2.05074E+01-1.14142E+01-7.47928E-01 2.09646E+00 3.60799E+00
 -1      1546-2.36592E+01-4.55312E+01-6.28325E+00-2.61255E+01 1.04663E+00-1.70893E+00
 -1      1547-2.58996E+01-4.63614E+01-6.39801E+00-2.87992E+01-9.58587E-02-8.92074E-01
 -1      1548-5.54771E+01-2.10051E+01-3.70443E+00 2.23461E+01 5.27905E+00 7.71078E-01
 -1      1549-1.50665E+01-4.67791E+01-5.25668E+00-2.30112E+01 1.58871E+00-3.39654E+00
 -1      1550-1.19323E+01-5.69980E+01-1.54270E+01 9.79689E+00-3.97983E+00-2.49803E-01
 -1      1551-7.58330E+00-5.23827E+01-9.65244E+00 7.59619E+00-4.11750E+00 7.01026E-01
 -1      1552-2.35036E+01-2.41565E+01-1.39048E+01 9.33743E-01-1.89712E-01 2.94452E+00
 -1      1553-5.04428E+01-6.56270E+00-1.23816E+01 1.02301E+01 3.86657E-01 3.81899E-01
 -1      1554-4.94525E+01-4.79441E+00-1.00316E+01 1.07368E+01 8.28163E-01-4.39759E-02
 -1      1555-6.04708E+01-1.45950E+01-1.73275E+01-8.08426E+00-2.94275E+00 3.19817E+00
 -1      1556-4.56762E+01-4.97526E+00-6.38492E+00-4.46244E+00-1.10417E+00 1.64133E+00
 -1      1557-4.44709E+01-5.18095E+00-1.28789E+01 1.02461E+01-1.63461E+00 2.69354E+00
 -1      1558-4.91075E+01-9.36102E+00-1.38807E+01 8.48258E+00-2.72372E+00 4.01299E+00
 -1      1559-3.26445E+01-1.68879E+01-1.32285E+01 1.75252E+01 1.97433E+00-7.65215E-01
 -1      1560-2.90433E+01-1.30664E+01-9.56664E+00 1.65819E+01 1.49773E+00-1.04854E+00
 -1      1561-1.57060E+01-2.07174E+01-7.76722E+00 1.65133E+00 1.65989E+00 2.65236E+00
 -1      1562-2.93700E+01-1.11769E+01-1.55591E+01 3.37668E+00 2.54871E+00 9.75269E-01
 -1      1563-2.76427E+01-1.03616E+01-1.43292E+01 1.26366E+00 4.21255E+00 1.77926E+00
 -1      1564-1.22712E+01-3.64645E+00 3.85595E+00-6.47859E+00 3.33706E+00-4.02354E+00
 -1      1565-2.24725E+01-1.28257E+01-1.31951E+01 9.44386E+00 2.82243E+00 1.05795E+00
 -1      1566-2.10094E+01-1.36961E+01-1.39834E+01 9.17678E+00 3.39268E+00 1.18728E+00
 -1      1567-1.81623E+01-9.84968E+00-8.22375E+00 6.87321E+00-1.80614E+00-2.09836E+00
 -1      1568-2.00196E+01-6.53498E+00-1.10518E+01 1.03302E+01-2.38405E+00-2.26056E+00
 -1      1569-3.40151E+01-5.04474E+01-2.26614E+01 2.42388E+01 2.91890E+00-1.06383E+00
 -1      1570-2.08173E+01-3.23348E+01-8.56795E+00 1.88718E+01 1.06559E+00-2.19587E+00
 -1      1571-2.25295E+01-6.10304E+01-9.72414E+00 1.57447E+01 1.79442E+00-1.14509E+00
 -1      1572-1.23014E+01-6.07905E+01-2.27274E+00 9.85296E+00 1.79600E+00 2.14065E+00
 -1      1573-6.63474E+00-4.77519E+01 1.02674E+01 8.35174E+00 2.36598E+00-6.93677E-01
 -1      1574-4.68961E+01-3.35944E+01-2.06376E+01-2.42616E+01 3.33787E+00 1.06959E-01
 -1      1575-2.89382E+01-2.09770E+01-6.74414E+00-1.62392E+01 4.18037E+00 1.13583E+00
 -1      1576-1.57933E+01-1.45640E+01-8.14139E+00 1.95464E+00 1.14745E+00 1.13561E-01
 -1      1577-2.59354E+01-3.94400E+01-2.73735E+00 3.07278E+01 3.96569E+00-6.22195E-01
 -1      1578-2.03321E+01-5.82129E+01-5.14227E+00 2.69693E+01 2.79368E+00 6.10091E+00
 -1      1579-3.01079E+01-5.58372E+01-9.64016E+00 2.91876E+01-5.44401E-01-7.34163E-01
 -1      1580-2.41033E+01-4.79649E+01-3.37413E+00 2.58687E+01 2.09369E-02 4.22646E-01
 -1      1581-1.54699E+01-2.63415E+01-1.12372E+01-1.57431E+01-8.12096E-02 2.86186E+00
 -1      1582-1.35219E+01-2.22224E+01-8.26355E+00-1.46415E+01 7.75704E-01 1.81626E+00
 -1      1583-8.09218E+01-2.14045E+01-1.45787E+01 1.26025E+01 2.61770E+00 3.32760E+00
 -1      1584-6.52466E+01-1.03199E+01-4.47272E+00 1.16338E+01 1.83081E+00 4.33028E-01
 -1      1585-1.14103E+01-1.81009E+01-9.81324E+00-8.73496E+00 3.79178E+00-7.54054E-01
 -1      1586-1.50549E+01-1.99120E+01-1.42009E+01-8.68106E+00 4.64203E+00-3.88384E+00
 -1      1587-3.67748E+01-4.98819E+01-6.50441E+00-3.52845E+01-5.12933E+00 4.83516E+00
 -1      1588-5.48840E+00-3.53934E+01-1.15424E+01 6.27791E+00-3.41963E-01-3.76222E+00
 -1      1589-2.96707E+00-3.35144E+01-1.13069E+01 6.70976E+00-2.23215E-01-2.23494E+00
 -1      1590-1.98432E+01-2.04259E+01-1.01223E+01 1.04429E+00-3.31973E+00-2.40131E+00
 -1      1591-2.59344E+01-3.46444E+01-1.88891E+01-1.86217E+01 1.08089E+00-2.40946E+00
 -1      1592-1.57924E+01-2.19258E+01-9.39458E+00-1.53218E+01 6.89975E-03-2.65230E+00
 -1      1593-3.80467E+01-2.00368E+01-1.45473E+01-2.16915E+01-1.14903E+00 1.19707E+00
 -1      1594-3.52139E+01-1.96844E+01-1.22666E+01-2.28146E+01-1.78144E+00 3.07889E+00
 -1      1595-2.58216E+01-2.48248E+01-1.48077E+01-1.20875E+00 3.38137E+00 1.09237E+00
 -1      1596-2.03496E+01-1.98575E+01-7.18716E+00-7.55798E-01 3.16115E+00-6.78378E-01
 -1      1597-5.42532E+01-3.47897E+01-1.19636E+01-2.95793E+01 2.57058E+00-2.04691E+00
 -1      1598-4.06815E+01-2.64653E+01-1.15071E+00-2.21271E+01-3.36046E-01-1.04419E+00
 -1      1599-1.70167E+01-1.98679E+01-1.13704E+01-1.75825E+00-5.36394E-01-2.45436E+00
 -1      1600-3.32204E+01-5.13415E+01-1.97308E+01-2.59425E+01 2.21004E+00 7.93297E-01
 -1      1601-1.99199E+01-3.54117E+01-7.06170E+00-2.02602E+01-3.51983E-01 4.43313E-01
 -1      1602-2.29562E+01-2.05507E+01-1.13929E+01-2.40917E-01 1.88003E+00 1.03956E+00
 -1      1603-3.02238E+01-4.48312E+01-7.02179E+00 2.49996E+01-5.05779E+00-2.19916E+00
 -1      1604-1.21794E+01-2.02489E+01-9.66880E+00-1.26354E+01-1.88506E+00 5.09795E+00
 -1      1605-9.84853E+00-1.73785E+01-9.30787E+00-1.03966E+01-1.96718E+00 2.94098E+00
 -1      1606-1.67127E+01-3.08484E+01-1.34637E+01-1.62745E+01-1.13577E-01 7.14996E-01
 -1      1607-1.40978E+01-2.86876E+01-1.12939E+01-1.51792E+01 7.58214E-01 1.85660E+00
 -1      1608-2.01422E+01-2.06013E+01-1.13987E+01-5.71907E-01-2.58803E+00 2.20189E+00
 -1      1609-1.72045E+01-1.94059E+01-9.60880E+00-9.63441E-01 6.31987E-01 2.26993E+00
 -1      1610-2.16322E+01-4.25149E+01-9.96398E+00 2.01743E+01 2.79463E+00-6.90659E+00
 -1      1611-1.23361E+01-2.96988E+01-4.14665E+00 1.27134E+01 2.97482E+00-3.97140E+00
 -1      1612-4.80196E+01-2.49747E+01-1.68896E+01 2.45891E+01 5.82133E-01-6.01867E-01
 -1      1613-3.71448E+01-2.19089E+01-1.05280E+01 2.00277E+01 1.31866E+00-8.76029E-01
 -1      1614-5.49543E+00-2.13551E+01-9.69499E+00-2.67861E+00-9.43095E-03-3.27468E+00
 -1      1615-1.13941E+01-2.75817E+01-1.71755E+01-3.54196E+00 7.22433E-01-6.10033E+00
 -1      1616-4.41394E+01-2.71646E+01-7.94354E+00 3.02553E+01-2.70032E+00-3.19850E+00
 -1      1617-3.78493E+01-2.27827E+01-3.31659E+00 2.41384E+01-4.82865E-01-1.87436E+00
 -1      1618-7.22726E+01-4.29498E+00-5.20938E-01 7.71585E+00 4.09641E+00-9.55228E-01
 -1      1619-1.04163E+01-6.68863E+01-5.44655E+00 1.96511E+01-4.19738E+00-3.75118E+00
 -1      1620-3.33263E+01-4.11218E+00-1.17607E+01-6.15234E+00-1.09368E+00 1.99274E+00
 -1      1621-3.59475E+01-3.05900E+00-1.16416E+01-7.23685E+00-6.01184E-01 1.75910E+00
 -1      1622-6.24990E+01-9.21403E+00-6.45014E+00 4.57700E+00 6.08551E-02 5.41918E-01
 -1      1623-7.08203E+00-2.32813E+01-8.79311E+00-1.12166E+01 1.81077E+00-1.42276E+00
 -1      1624-1.45494E+01-2.70086E+01-1.23289E+01-1.28452E+01 4.24973E-01-1.43409E+00
 -1      1625-7.94333E+00-6.54019E+01-9.70377E+00 1.14060E+01-1.74803E+00-1.83080E+00
 -1      1626-8.39262E+00-6.84023E+01-8.85379E+00 1.15749E+01-1.47051E+00 6.37752E-01
 -1      1627-1.79172E+00-2.11319E+01-1.18390E-01 3.91598E+00 2.13800E+00-6.32071E+00
 -1      1628-2.71016E+01-2.80767E+01-1.45634E+01 2.28625E+00 2.93979E+00-2.74022E+00
 -1      1629-5.09428E+01-6.93867E+00-1.20876E+01-9.87756E+00 2.52084E+00 4.92023E-01
 -1      1630-5.14245E+01-4.25884E+00-7.83346E+00-8.07814E+00 4.16462E+00 4.67449E-02
 -1      1631-6.41733E+01-1.26840E+01-8.53948E+00-1.46052E+01 1.89429E+00-1.44760E+00
 -1      1632-5.43910E+01-9.24775E+00-5.46714E-01-1.34898E+01-5.93804E-01-4.81519E-01
 -1      1633-8.01381E+01-2.47692E+01-1.46588E+01-1.29195E+01-1.95169E+00 1.60408E+00
 -1      1634-6.03054E+01-1.03587E+01 1.91443E+00-1.15384E+01 5.23076E-01 8.57113E-01
 -1      1635-2.38148E+01-2.64830E+01-1.09904E+01-9.97794E-01 1.19853E+00 2.47527E+00
 -1      1636-7.23462E+00-4.13042E+01-1.21219E+01-4.92945E+00 3.62786E+00-3.33371E+00
 -1      1637-2.88264E+00-3.26448E+01-6.38732E+00-2.71079E+00 2.82038E+00-3.70729E+00
 -1      1638-2.80489E+01-2.99113E+00-1.30652E+01 3.77252E+00-3.49481E+00-2.36806E+00
 -1      1639-2.55127E+01-1.60355E+00-1.20121E+01 2.79532E+00-2.70933E+00-8.30998E-01
 -1      1640-3.00591E+01-1.54215E+01-1.50241E+01 1.67688E+01-9.91170E-01 7.22287E-01
 -1      1641-3.05943E+01-1.42165E+01-1.22883E+01 1.60269E+01-9.28254E-01-6.08801E-01
 -1      1642-5.84127E+01-9.38716E+00-7.36395E-02-6.45054E+00-1.96516E-01-2.67092E+00
 -1      1643-1.87991E+00-6.45924E+01-5.60228E+00 4.45413E+00 1.94635E-01-3.99709E+00
 -1      1644-1.22051E+01-4.75115E+01-1.59300E+01 7.88548E+00-3.88199E+00-5.73689E+00
 -1      1645-6.80392E+00-3.52402E+01-1.04271E+01 6.37592E+00-2.78831E+00-6.55826E+00
 -1      1646-1.47594E+01-6.94295E+01-9.63782E+00-7.61807E+00 1.45756E+00 2.06216E+00
 -1      1647-5.39527E+00-5.70357E+01 1.00939E+00-5.34896E+00 7.18395E-01-1.68804E+00
 -1      1648-2.57736E+01-1.60980E+01-1.00794E+01-1.36560E+01-7.43530E-02 3.03027E+00
 -1      1649-2.33777E+01-1.32613E+01-7.82014E+00-1.45249E+01 2.36999E-01 2.47338E+00
 -1      1650-5.91861E+01-7.86423E+00-1.30299E+01 8.92692E+00 2.34275E+00 5.63429E-01
 -1      1651-5.91805E+01-6.65301E+00-1.17907E+01 7.99613E+00 1.78319E+00 7.15958E-01
 -1      1652-2.48555E+01-2.37037E+01-1.32535E+01 1.03508E-01 1.97682E+00-5.92116E+00
 -1      1653-1.67112E+01-1.85868E+01-9.68430E+00-1.29014E-01 5.34204E-01-3.35230E+00
 -1      1654-6.57875E+00-3.73331E+01-1.36767E+01-5.64711E+00 5.55579E-01-2.77217E+00
 -1      1655-5.16481E+00-3.20362E+01-1.05861E+01-5.82209E+00 1.26874E+00-2.44613E+00
 -1      1656-2.57367E+01-2.10996E+01-1.30204E+01 4.36585E-02-5.72720E+00 1.36038E+00
 -1      1657-1.64044E+01-9.12486E+00-1.03500E+01-8.64521E+00-2.33325E+00 3.39241E-01
 -1      1658-1.62480E+01-9.44914E+00-1.06812E+01-1.06865E+01-2.38058E+00 1.45839E+00
 -1      1659-2.94412E+01-6.51458E+00-1.26302E+01-5.53607E+00 2.91681E+00-1.38204E+00
 -1      1660-2.79033E+01-9.92905E+00-1.45051E+01-5.49890E+00 5.02682E+00-8.11837E-01
 -1      1661-2.95454E+01-5.03084E+01-1.16612E+01-2.73772E+01-5.06280E+00-9.54298E-01
 -1      1662-1.51912E+01-3.32043E+01-2.63561E+00-1.74075E+01-5.49187E+00 1.44452E+00
 -1      1663-1.19449E+01-3.87611E+00 6.60588E+00-1.00955E+01-7.25336E+00 2.29604E+00
 -1      1664-8.59533E+00-2.52453E+01-1.02295E+01 4.57751E+00 8.12869E-01 3.44018E+00
 -1      1665-3.42769E+00-2.72780E+01-1.11037E+01 7.42775E+00 7.06698E-02 3.69629E+00
 -1      1666-5.77150E+01-1.22423E+01-2.95925E+00-1.12202E+01-6.36076E+00 3.01157E+00
 -1      1667-4.34089E+01-7.92358E+00-1.34148E+01 7.25389E+00-1.37122E+00-5.20253E-01
 -1      1668-3.69413E+01-4.15831E+00-9.01723E+00 6.19773E+00-7.37791E-01-1.53941E+00
 -1      1669-2.67097E+01-5.10113E+01-7.20023E+00-2.46464E+01 2.78236E-01 7.49138E+00
 -1      1670-2.23231E+01-5.32439E+01-5.65992E+00-2.87424E+01 4.78172E-01-1.69057E+00
 -1      1671-1.28314E+01-8.39669E+01-1.04571E+01-6.31801E+00 2.50827E+00 9.53327E+00
 -1      1672-2.60741E+01-2.36431E+01-1.40857E+01 8.74584E-01 1.87088E+00 2.49541E+00
 -1      1673-2.70415E+01-2.69467E+01-1.36004E+01 9.28644E-02 4.07829E+00-2.10945E+00
 -1      1674-5.01811E+01-3.07909E+01-2.47511E+00 3.46509E+01-9.51835E-01-1.71521E-01
 -1      1675-6.82711E+01-3.99028E+00-2.77504E+00-9.05602E+00 3.17521E+00 5.71101E+00
 -1      1676-4.19675E+01-8.13038E+00-1.45560E+01 7.06477E+00-2.47681E+00 3.87080E-01
 -1      1677-3.51740E+01-5.06914E+00-1.01743E+01 6.88782E+00-1.67683E+00-3.39961E-01
 -1      1678-4.26571E+01-2.41927E+01-1.56451E+01 2.43552E+01 2.89055E-02-8.20085E-01
 -1      1679-3.99746E+01-2.13224E+01-1.19991E+01 2.27576E+01 1.43739E+00 1.59550E-01
 -1      1680-8.84896E+00-3.13258E+01-2.52498E+00 8.45589E+00-4.39803E+00 7.30906E+00
 -1      1681-1.86596E+01-6.21191E+01-1.07732E+01 9.67183E+00 2.75065E+00 3.11619E+00
 -1      1682-1.82706E+01-6.13264E+01-6.82296E+00 5.58373E+00-3.04161E-01 3.58534E+00
 -1      1683-6.27465E+00-1.83943E+01 1.55586E+00-1.02650E+01 2.20579E+00 4.64551E+00
 -1      1684-3.58565E+00-2.20118E+01 3.79031E+00-2.35426E+00 2.31365E+00-3.24596E+00
 -1      1685-2.34274E+01-2.69345E+01-1.01105E+01-1.27391E+00-4.78184E-02 9.19271E+00
 -1      1686-1.10555E+01-6.37179E+00 1.69786E+00-4.72399E+00-1.38291E+00 4.59813E+00
 -1      1687-2.42314E+01-3.86689E+01-5.32522E-01-3.21505E+01 1.98247E+00 2.00772E+00
 -1      1688-3.67613E+01-4.79547E+00-1.18873E+01 6.27513E+00 3.18643E+00-7.96845E-01
 -1      1689-3.18050E+01-4.45333E+00-9.00223E+00 5.08496E+00 2.28444E+00 1.39374E-02
 -1      1690-1.08970E+01-4.99850E+00 3.11831E+00 9.97282E+00 1.38041E+00 5.86146E+00
 -1      1691-1.30439E+01-2.38923E+01 7.49085E-01 1.32537E+01-3.51353E-01-3.92909E+00
 -1      1692-4.47685E+01-9.11913E+00-1.32694E+01-8.34187E+00 1.21303E-01-3.02988E-01
 -1      1693-4.03582E+01-5.80357E+00-1.03584E+01-9.15568E+00-4.86340E-01-9.60209E-01
 -1      1694-2.39167E+01-2.40193E+01-1.21234E+01-3.95377E-01-1.70355E+00 3.21463E+00
 -1      1695-3.11123E+00-2.48103E+01-1.33099E+00 1.67867E+00 5.16060E+00 4.01392E+00
 -1      1696-5.77446E+01-1.20842E+01-1.57660E+01-7.78640E+00-1.57221E+00-2.19495E+00
 -1      1697-4.23155E+01-6.08193E+00-5.46513E+00-4.94261E+00-1.00048E+00 1.38951E+00
 -1      1698-2.31426E+01-6.34585E+00 1.03547E+00 4.90422E-01 1.80131E+00-3.32158E+00
 -1      1699-1.71306E+01 2.25905E+00 2.36875E+00 4.71402E+00-5.03811E+00 3.70309E+00
 -1      1700-2.30589E+01-2.07094E+01-1.22639E+01-1.98336E+00-4.48279E+00-3.35731E+00
 -1      1701-1.56968E+01-8.66527E+00-3.25548E-02-9.45916E+00 7.35919E+00 8.83401E-01
 -1      1702-1.23544E+01-3.40987E+00 3.93243E+00 6.97904E+00-3.26195E+00-4.03809E+00
 -1      1703-2.30484E+00-1.92957E+01 1.80895E+00 2.36778E+00-2.59236E+00-3.62272E+00
 -1      1704-2.25855E+01-1.94109E+01-9.69675E+00 1.35256E+00-4.37912E+00-4.69245E-01
 -1      1705-2.50823E+01-5.71337E+01-3.61514E+00 2.92666E+01-1.41706E+00-1.15265E+00
 -1      1706-5.49448E+01-1.04950E+01-1.57344E+01 9.95661E+00-3.88007E-01 1.20677E+00
 -1      1707-4.71596E+01-6.84186E+00-1.26520E+01 1.12784E+01-1.45475E-01 1.52407E+00
 -1      1708-2.54475E+01-2.78237E+01-1.89115E+01 6.22495E-01 1.00756E+00-1.01023E+01
 -1      1709-2.20216E+01-5.04464E+01-1.66303E+01 2.05464E+01-2.28212E+00-2.17378E+00
 -1      1710-1.25992E+01-3.15142E+01-5.21639E+00 1.42309E+01-1.56460E+00-1.59494E+00
 -1      1711-4.94552E+01-1.10173E+01-1.43409E+01 9.49425E+00 7.39870E-02-2.59300E+00
 -1      1712-3.85132E+01-8.06524E+00-9.17465E+00 8.20528E+00-5.49178E-01-1.72543E+00
 -1      1713-1.44696E+01-3.00328E+01-1.32666E+01 1.45996E+01-9.49076E-01-8.87006E-01
 -1      1714-8.71531E+00-2.54419E+01-1.03013E+01 1.27247E+01-4.13399E-01 5.16728E-02
 -1      1715-2.66755E+01-2.79620E+01-1.48408E+01 1.43494E+00 2.95026E+00 7.76523E+00
 -1      1716-6.03164E+01-1.23121E+01-1.41565E+01 9.43345E+00-1.63190E+00 3.62355E+00
 -1      1717-4.58267E+01-5.88315E+00 9.76263E-01 9.27354E+00-2.81371E+00 1.85046E+00
 -1      1718-2.11034E+01-1.53038E+01 1.16789E+00-1.36215E+01 4.20684E+00 8.24573E-01
 -1      1719-2.07834E+01-1.39438E+01-1.42488E+01-1.01660E+01 2.56775E+00-3.47340E+00
 -1      1720-1.88155E+01-1.04575E+01-1.22017E+01-1.06109E+01 1.93564E+00-3.08018E+00
 -1      1721-2.46750E+01-2.32679E+01-1.53557E+01-1.55057E+00 5.20488E+00-4.75619E-01
 -1      1722-3.91262E+01-9.12610E+00-1.54475E+01 5.77604E+00 2.13850E+00 1.30232E+00
 -1      1723-3.36059E+01-6.45147E+00-1.15736E+01 4.17374E+00 1.10978E+00 6.10482E-01
 -1      1724-2.19458E+01-2.11389E+01-1.09421E+01-2.25462E+00 7.59013E-01-2.91907E+00
 -1      1725-1.73395E+01-1.39645E+01-4.22463E+00 9.90346E-03 4.94412E-01 7.08619E-01
 -1      1726-1.17272E+00-2.21317E+01 1.79688E+00-5.77897E+00-4.85955E+00 2.70117E+00
 -1      1727-2.32857E+01-1.29817E+01 9.97832E-01 1.18988E+01-3.15623E+00-1.47631E+00
 -1      1728-1.59776E+01-3.54886E+00 3.94457E+00 5.85138E+00 5.35576E+00 1.78034E+00
 -1      1729-2.31514E+01-1.91073E+01-1.30641E+01 3.08079E-01 2.90099E+00-1.40543E+00
 -1      1730-2.23908E+01-1.96742E+01-1.11001E+01-1.03734E+00-9.39509E-01 1.18639E+00
 -1      1731-4.15551E+01-2.90038E+01-1.94756E+01-2.22031E+01 1.70923E+00-2.43449E+00
 -1      1732-3.12379E+01-1.80650E+01-1.03889E+01-1.61091E+01 1.33255E+00-4.05533E-01
 -1      1733-2.61594E+01-4.80964E+00-1.13802E+01 3.37633E+00 3.22471E+00-4.29011E-01
 -1      1734-2.95013E+01-8.76712E+00-1.37838E+01 4.22328E+00 2.91490E+00-1.65937E-01
 -1      1735 1.84740E+00-1.49885E+01 3.82917E+00-4.21208E+00-2.33762E+00-4.73327E+00
 -1      1736-9.49015E+00-4.69394E+01-1.22514E+01-6.73237E+00-2.07819E+00-2.51640E+00
 -1      1737-3.77080E+00-3.30688E+01-4.84918E+00-4.42931E+00 5.17372E-01-2.19531E+00
 -1      1738-2.76689E+01 5.95703E-01 2.43596E-02-9.94535E+00 3.62063E+00-6.28512E+00
 -1      1739-5.18987E+01-3.96100E+01-3.68464E+00-3.39055E+01 4.27709E+00-6.81831E+00
 -1      1740-5.31438E+01-1.92602E+01-6.18121E+00-2.57187E+01 7.49020E+00-2.28168E+00
 -1      1741-7.30722E+00-2.16926E+01-9.54961E+00 1.98545E+00 3.56618E-01-3.04277E+00
 -1      1742-1.30730E+00-2.30311E+01-9.73450E+00 3.90600E+00 1.62490E+00-2.18085E+00
 -1      1743-3.23383E+01-5.69423E+01-1.06965E+01-2.78254E+01-6.02357E-01 3.58471E+00
 -1      1744-1.88083E+01-4.66239E+01-6.52756E-01-2.34439E+01-6.45048E-01 5.51970E-01
 -1      1745-1.15260E+01-6.33007E+01-2.92192E+00-1.79182E+01 4.98204E+00-2.39354E+00
 -1      1746-1.21699E+01-1.81498E+01-9.52181E+00 7.96882E+00-8.18814E-01-3.59356E+00
 -1      1747-1.76823E+01-2.25137E+01-1.56325E+01 9.24779E+00-2.19026E+00-5.82319E+00
 -1      1748-2.36503E+01-2.29047E+01-1.04444E+01 2.06022E-01-2.80856E+00-4.85801E+00
 -1      1749-2.42471E+01-2.35178E+01-1.43984E+01-3.99446E-01-2.81786E+00-4.24501E+00
 -1      1750-1.50500E+01-1.84017E+01-1.03221E+01-2.59943E+00-1.54653E+00 3.52587E+00
 -1      1751-7.91183E+00-1.51415E+01-1.19410E+01-7.81569E+00-1.63184E+00 4.61433E+00
 -1      1752-2.65855E+01-2.40972E+01-1.61068E+01 2.06939E-01-2.09415E+00 5.74901E+00
 -1      1753-2.03982E+01-2.30827E+01-8.55046E+00 9.68085E-02-2.29001E+00 1.28074E+00
 -1      1754-5.01571E+01-1.12214E+01-2.17928E+00 1.09570E+01 2.38418E-01-1.46174E+00
 -1      1755-3.12833E+01-1.83133E+01-1.11068E+01-1.57566E+01 1.98058E+00-2.97012E+00
 -1      1756-2.35642E+01-1.08553E+01-4.80800E+00-1.32442E+01 8.79158E-01-2.43189E+00
 -1      1757-3.59298E+01-1.99340E+01-1.57335E+01 1.96151E+01-2.38319E+00 5.92253E-01
 -1      1758-2.95863E+01-1.62936E+01-1.32722E+01 1.82019E+01-2.75345E+00-5.21910E-01
 -1      1759-6.54878E+01-1.50861E+01-3.70998E+00 1.40848E+01 4.67460E+00 4.14782E+00
 -1      1760-1.99040E+01-2.20910E+01-1.27706E+01-5.13552E-01-1.24079E-01 5.78450E+00
 -1      1761-1.76133E+00-8.18669E+00 4.43718E+00-1.00827E+01 5.50341E-01-5.31966E+00
 -1      1762-6.23835E+01-2.72013E+01-7.24659E+00 2.83092E+01-9.35356E+00 2.60134E+00
 -1      1763-3.86627E+01-2.93460E+01-4.26002E+00 3.22047E+01-8.11712E-01-4.60709E+00
 -1      1764-5.41256E+01-2.93367E+01-9.42209E+00-2.66019E+01-2.17573E+00 6.62960E-01
 -1      1765-4.53687E+01-2.19849E+01-1.40062E+00-2.46472E+01 8.39738E-01-2.42495E+00
 -1      1766-1.43746E+01 9.23046E-01 1.48180E+00-4.24077E+00 3.10899E+00 2.23087E+00
 -1      1767-2.96538E+01-1.75170E+01-1.33836E+01-1.48515E+01 9.89903E-01-1.91666E+00
 -1      1768-2.48050E+01-1.18996E+01-9.12298E+00-1.30784E+01 7.30376E-01-1.69076E+00
 -1      1769-3.04293E+01-5.26379E+01-5.53074E+00 2.84351E+01-2.72626E-01-4.56001E+00
 -1      1770-1.92433E+01-4.29420E+01 4.83003E+00 2.37640E+01 2.16247E-01-7.56426E-01
 -1      1771-2.98192E+01-4.64261E+01-2.14938E+01-2.34066E+01 4.04737E+00-1.04593E+00
 -1      1772-2.11815E+01-3.12452E+01-1.29753E+01-1.81250E+01 3.32834E+00-1.68011E+00
 -1      1773-7.12584E+01-5.40011E+00 5.43402E-01-9.33383E+00 3.25993E+00 5.86434E+00
 -1      1774-4.11385E+01-2.40017E+01-1.28971E+01 2.39073E+01 2.33495E+00 2.60854E+00
 -1      1775-3.35131E+01-1.51784E+01-7.30786E+00 2.02244E+01 2.25157E+00 2.74113E-01
 -1      1776-2.90657E+01-1.62624E+01-1.29976E+01 1.69060E+01-3.87388E+00-1.08230E+00
 -1      1777-2.81169E+01-1.44742E+01-1.08849E+01 1.61700E+01-2.72976E+00-6.58399E-01
 -1      1778-3.66741E+01-7.63173E+00-1.46002E+01-6.71953E+00-6.11828E-01 1.49306E+00
 -1      1779-2.98165E+01-3.48411E+00-1.05028E+01-6.22285E+00 4.83921E-01 1.49760E+00
 -1      1780-1.48887E+01-3.08499E+01-1.31243E+01-1.62776E+01-8.45452E-01 2.17983E+00
 -1      1781-1.35132E+01-2.96199E+01-1.05082E+01-1.53819E+01-2.54701E-02 1.67858E+00
 -1      1782-6.38080E+00-5.21085E+01-1.48388E+01-6.58262E+00-7.17578E-01 1.34000E+00
 -1      1783-5.71348E+00-4.56133E+01-1.02413E+01-6.32148E+00 9.07223E-02 1.43555E+00
 -1      1784-2.73851E+01-2.41190E+01-1.75459E+01 3.32201E-01-3.71668E+00-7.13422E+00
 -1      1785-6.56009E+01-2.12274E+01-3.81478E+00-2.95698E+01-8.75090E+00 2.34415E+00
 -1      1786-3.12136E+01-1.54383E+01-1.10526E+01 1.82456E+01 1.38462E+00 1.06053E+00
 -1      1787-3.08069E+01-1.67826E+01-9.85194E+00 1.82074E+01 1.42975E+00 8.93000E-01
 -1      1788-8.80074E+01-1.62915E+01-2.74165E+00-6.42762E+00-6.00026E+00-2.89629E+00
 -1      1789-1.11179E+01-3.05201E+01-8.94025E+00-1.67856E+01-8.78632E-01 1.93832E+00
 -1      1790-8.94824E+00-3.15510E+01-9.79363E+00-1.39351E+01-8.64543E-01 1.32204E+00
 -1      1791-6.48512E+00-7.61739E+01-7.92942E+00 9.01773E+00 4.27781E-01-1.47733E+00
 -1      1792-2.16835E+01-7.53932E+01-5.35973E+00-2.07155E+01-7.12490E+00 4.88426E+00
 -1      1793-2.86228E+01-2.42227E+01-1.45572E+01 2.45501E+00 1.71913E+00 5.32065E+00
 -1      1794-1.60389E+01-1.25802E+01-8.51698E+00 1.59327E+00-4.19643E+00-2.77853E+00
 -1      1795-2.27238E+01-1.52387E+01-1.77971E+01 4.83922E+00-4.91288E+00-3.93896E+00
 -1      1796-2.41121E+01-2.45744E+01-1.34651E+01 1.24495E+00-4.32354E+00 2.24537E+00
 -1      1797-2.53638E+01-2.00778E+01-1.36285E+01-2.95352E+00-7.39999E+00-5.52756E+00
 -1      1798-8.14739E+00-8.81079E+00-7.52432E+00-1.96967E+00 3.53748E-01 1.36179E+00
 -1      1799-1.11926E+01-9.55030E+00-5.86805E+00-3.14192E+00-3.96903E-01 1.10074E-01
 -1      1800-4.15995E+01-4.10792E+01-4.13462E+00-3.52397E+01-1.80892E+00-2.21641E+00
 -1      1801-2.66065E+01-2.77986E+01-1.29358E+01-3.07907E-01-2.66479E+00 4.75564E+00
 -1      1802-1.69906E+01-1.34504E+01-1.00056E+01-5.33101E+00 6.07921E+00-1.11542E+00
 -1      1803-2.17428E+01-1.74019E+01-1.84959E+01-6.07546E+00 7.05965E+00-3.01042E+00
 -1      1804-6.15735E+00-5.40720E+00-2.53063E+00 1.90122E+00 1.34686E+00-4.35684E-01
 -1      1805-9.49913E+00-6.52033E+00-3.36196E+00 1.99098E+00 4.70110E-01 3.15272E-01
 -1      1806-6.18003E+01-7.15481E+00-1.15419E+00-1.76169E+01 2.97493E+00-2.81897E+00
 -1      1807-1.25806E+01-6.53240E+01-1.84869E+01-9.28663E+00 9.98914E-01 2.85614E+00
 -1      1808-8.91022E+00-5.13380E+01-9.62183E+00-6.90861E+00 4.13340E-01 3.11014E+00
 -1      1809-6.44575E+00-4.98745E+01-1.38082E+01-4.03078E+00-1.51049E-01 1.67930E+00
 -1      1810-3.38405E+00-3.96387E+01-8.78589E+00 6.48012E-01 4.44080E-01 7.22855E-01
 -1      1811-7.07838E+01-1.53711E+01-3.79664E+00 1.06383E+01 3.00178E+00 3.47943E+00
 -1      1812-6.59603E+01-7.82736E+00 5.83648E+00 9.33803E+00-2.14183E+00 2.33594E+00
 -1      1813-7.98295E+00-6.07781E+01-7.93125E+00-1.08849E+01 1.91738E-01-2.34612E+00
 -1      1814-7.13616E+00-5.58955E+01-3.78705E+00-1.01841E+01-1.20122E+00 4.67353E-01
 -1      1815-4.97780E+01-3.17663E+01-6.19998E+00-3.24038E+01-5.26083E+00 3.72986E+00
 -1      1816-5.78017E+01-1.05349E+01 1.14367E-01 1.07754E+01 1.99702E+00 3.18634E+00
 -1      1817-2.35949E+01-5.15677E+01-1.28969E+00 2.50756E+01-6.81882E-01-4.69022E+00
 -1      1818-1.83999E+01-3.35426E+01-1.54574E+01 1.74872E+01-2.24002E+00-1.46767E+00
 -1      1819-1.10772E+01-2.24069E+01-7.68341E+00 1.28200E+01-1.21249E+00-3.65824E-01
 -1      1820-6.23300E+01-8.37857E+00 4.79402E+00-1.65298E+01-7.68004E-01 3.67042E+00
 -1      1821-2.43054E+01-2.88747E+01-1.82826E+01-1.82938E+00-1.33470E+00-5.04266E+00
 -1      1822-2.78867E+01-4.52175E+01 8.98140E-01-3.50840E+01 1.60236E+00 9.83738E-01
 -1      1823-2.17660E+01-2.10851E+01-1.10806E+01 2.74854E+00 3.31893E+00 2.99845E-01
 -1      1824-7.64778E+00-5.69932E+01-1.17431E+01-1.06076E+01 5.19854E-01-3.27997E+00
 -1      1825-1.02882E+01-5.92392E+01-1.29437E+01-1.03945E+01-8.38147E-01-2.29531E+00
 -1      1826-8.50367E+00-6.68202E+01-1.08157E+00-1.72532E+01 3.98572E+00 2.19291E-01
 -1      1827-2.49698E+01-2.53258E+01-1.63366E+01 2.34462E-01-6.68231E+00-6.05875E+00
 -1      1828-3.08395E+01-3.18581E+01-2.23950E+01 4.90853E-01-4.05980E+00-9.16907E+00
 -1      1829-4.03797E+01-7.25268E+00-1.45259E+01-6.58089E+00-1.87552E+00-1.18054E+00
 -1      1830-4.28061E+01-5.24370E+00-1.35575E+01-8.11004E+00-1.51381E+00-4.31065E-02
 -1      1831-5.14310E+00-1.30968E+01 1.40642E+00-1.09544E+01-7.34755E+00 8.25683E-01
 -1      1832-6.32779E+00-4.18741E+01-1.10461E+01 7.48126E+00 5.54570E-01 2.85144E+00
 -1      1833-3.95034E+00-3.38818E+01-5.42081E+00 5.09984E+00 3.86859E-01 3.79828E+00
 -1      1834-2.35021E+01-1.10423E+01-1.44755E+01 2.43205E+00-5.55191E+00 1.93946E+00
 -1      1835-2.40742E+01-3.56448E+00-1.81906E+01 4.24475E+00-3.74350E+00 8.05259E-01
 -1      1836-2.87319E+01-2.29252E+01-1.61412E+01 1.33530E+00-8.59533E+00 2.00422E+00
 -1      1837-2.67660E+01-2.40214E+01-1.51204E+01-1.26395E+00 9.12880E+00-1.75896E+00
 -1      1838-5.43483E+01-3.03880E+01-2.03518E+01 2.51889E+01-1.74396E+00-9.38444E-01
 -1      1839-3.94809E+01-1.68986E+01-9.61689E+00 1.87862E+01-4.31580E-01-1.32665E+00
 -1      1840-9.30199E+00-4.09055E+01-1.52206E+01-5.17435E+00 9.79917E-01 5.69314E+00
 -1      1841-7.61839E+00-3.09281E+01-1.10464E+01-3.70911E+00 1.09442E+00 6.22645E+00
 -1      1842-1.87609E+01-5.24385E+01-5.31329E+00 2.43167E+01-3.48818E+00-4.82762E+00
 -1      1843-6.02232E+00-3.61465E+01-1.06803E+01 6.44882E+00 2.04476E+00 1.85549E+00
 -1      1844-5.69357E+00-4.01316E+01-1.31359E+01 7.64242E+00 1.47141E+00 2.21038E+00
 -1      1845-4.32652E+01-1.35331E+01 2.31766E+00 1.49218E+01 8.99075E+00 5.62043E+00
 -1      1846-6.52425E+00-4.97505E+01-1.37547E+01-5.66620E+00 8.15905E-01 2.83396E+00
 -1      1847-4.61567E+00-3.75908E+01-7.75466E+00-3.30159E+00 3.05136E-01 9.57328E-01
 -1      1848-2.77039E+01-2.32400E+01-1.46719E-02 2.41808E+01-2.29081E+00-8.54478E+00
 -1      1849-1.87199E+01-4.50899E+00-3.45268E-01 4.31402E+00-2.90446E+00-4.39820E+00
 -1      1850-1.05459E+00-1.09074E+01 2.48324E+00 6.64623E+00 5.24024E+00 1.20736E+00
 -1      1851-4.69440E+00-2.93300E+01-6.29778E+00-5.20332E+00-5.79162E-01 2.11682E+00
 -1      1852-8.09884E+00-4.56263E+01-1.46066E+01-6.44947E+00 1.10550E+00 3.22693E+00
 -1      1853-3.13850E+01-5.57469E+01-2.22396E+01-2.47201E+01 3.22218E+00-1.60423E+00
 -1      1854-1.91935E+01-4.06963E+01-1.00128E+01-1.95881E+01 4.99145E+00-6.67560E-01
 -1      1855-5.11692E+00-6.69679E+01-4.89968E+00-4.10567E+00-1.68877E+00-3.34080E+00
 -1      1856-3.32254E+01-6.21698E+01-1.18061E+01-2.62426E+01-2.88378E+00 1.50679E+00
 -1      1857-2.92789E+01-1.71348E+01-1.53738E+01 1.57923E+01 2.94151E+00-1.36784E+00
 -1      1858-2.35592E+01-1.31489E+01-1.12387E+01 1.44940E+01 2.48408E+00-1.02871E+00
 -1      1859-8.39244E+01-1.03803E+01-4.59990E+00 5.97607E+00 3.08317E+00-2.72210E+00
 -1      1860-4.78583E+01-1.21315E+00-8.26037E+00-2.00705E+00 5.22576E+00 7.80581E+00
 -1      1861-1.35628E+00-6.85148E+00 2.30152E+00 2.85129E+00-5.14672E+00-9.92346E-01
 -1      1862-2.79293E+01-2.98920E+01-1.74128E+01 1.35417E+00 6.95102E+00-2.72044E+00
 -1      1863-4.13623E+01-8.71715E+00-1.29394E+01-5.49373E+00 3.10717E+00 1.78268E+00
 -1      1864-3.86020E+01-7.01534E+00-1.04127E+01-6.45300E+00 1.97152E+00 1.42584E+00
 -1      1865-4.38385E+01-2.65006E+01-1.25411E+01 2.66888E+01-3.07420E+00-4.63217E-01
 -1      1866-4.07258E+01-2.50970E+01-8.27151E+00 2.56077E+01-2.57269E+00-2.17532E+00
 -1      1867-4.28560E+01-1.13485E+01-2.87084E+00 3.29108E+00-2.57564E+00-2.99772E+00
 -1      1868-2.36822E+01-2.57160E+01-1.57339E+01-1.49962E+00 8.66025E+00-1.68889E+00
 -1      1869-6.55181E+01-9.11728E+00 2.25647E+00-1.87426E+01 6.02810E-01-3.80660E+00
 -1      1870-2.70137E+01-2.28563E+01-1.17375E+01-4.57154E-01 3.47599E+00-4.82400E+00
 -1      1871-4.28525E+01-5.63119E+00-1.02638E+01-8.77612E+00 1.64043E+00-1.45190E+00
 -1      1872-4.41316E+01-5.27532E+00-1.02757E+01-9.82485E+00-4.30454E-01-7.99901E-01
 -1      1873-5.48657E+01-2.12688E+01-3.53524E+00-2.67528E+01 2.78167E+00 2.17569E+00
 -1      1874-1.70220E+01-2.49384E+01-1.07654E+01-1.44165E+01-1.14132E+00 5.02541E+00
 -1      1875-1.16607E+01-1.81881E+01-5.97140E+00-1.23719E+01-9.64039E-01 2.79144E+00
 -1      1876-3.58973E+01-2.98851E+01 9.66341E-01 3.33104E+01-5.83998E-01-4.84734E+00
 -1      1877-2.34305E+01-2.43725E+01-1.67409E+01-3.52247E+00-2.06233E+00 3.38274E+00
 -1      1878-6.00810E+01-2.23807E+01 2.15976E+00-3.00392E+01-6.39326E+00-3.68434E+00
 -1      1879-8.69474E+01-1.26224E+01-7.10833E+00 9.27842E-01-3.10398E+00 2.22429E+00
 -1      1880-1.97147E+01-5.13288E+00 5.01211E+00-6.17446E+00-2.74737E+00 3.53455E+00
 -1      1881-9.48477E+00-6.08291E+00-4.85627E+00 4.80733E-03-3.38979E-01-1.40947E+00
 -1      1882-1.33571E+01-8.61624E+00-5.93534E+00 2.13911E+00-6.69809E-01 3.22554E-01
 -1      1883-3.83513E+01-4.42606E+01-1.00505E+01-2.85102E+01-2.59248E+00 6.02951E+00
 -1      1884-2.77959E+01-2.33259E+01-1.87740E+01 2.62767E+00-7.14963E+00 1.06277E+00
 -1      1885-2.74356E+01-2.86149E+01-1.38041E+01-3.24713E-01 7.25651E+00-2.63475E+00
 -1      1886-2.14902E+01-2.35175E+01-1.15378E+01 1.67656E+00-4.69438E+00 1.41617E+00
 -1      1887-1.34511E+01-9.98545E+00-9.64422E+00-6.28491E+00-2.11417E+00 2.99135E+00
 -1      1888-2.31692E+01-1.63959E+01-1.87910E+01-7.16589E+00-4.10564E+00 5.41157E+00
 -1      1889-1.02292E+01-5.92811E+00-4.36956E+00-5.70946E-02 4.66084E-01 7.95622E-02
 -1      1890-1.14444E+01-6.86563E+00-6.21197E+00-1.75907E+00 1.10910E-01 9.76319E-01
 -1      1891-4.89008E+01-2.94245E+01-7.72238E+00-2.96130E+01 2.60094E+00-7.94028E-01
 -1      1892-4.36273E+01-2.98400E+01-3.25760E+00-2.54571E+01-1.04628E+00 6.07515E-01
 -1      1893-2.77524E+01-2.19611E+01-1.67534E+01-1.93771E+00-3.63232E+00 4.07928E+00
 -1      1894-4.25348E+01-3.45779E+01-7.97883E-01-3.31157E+01-1.16801E+00 4.31706E+00
 -1      1895-2.36337E+01-2.60894E+01-1.11678E+01 1.67382E+00 3.82336E+00-5.15414E+00
 -1      1896-1.18937E+01-4.91446E+01-1.34023E+01 1.06070E+01 2.02004E+00 6.80913E-01
 -1      1897-6.26875E+00-3.50019E+01-5.32849E+00 8.46671E+00 9.71210E-01 2.12098E+00
 -1      1898-3.40306E+00-1.80484E+01-2.00781E-01 1.84907E+01-9.06714E+00-3.53764E+00
 -1      1899-1.01369E+01-5.78988E+00-4.58674E+00-8.31019E-02-2.02321E-01 1.72344E+00
 -1      1900-9.17969E+00-5.01279E+00-2.95330E+00-1.28796E+00-1.06990E+00-1.60102E-01
 -1      1901-2.35307E+01-6.01937E+01 4.33207E-01 3.01349E+01-7.99030E-01 4.75705E+00
 -1      1902-7.56819E+00-8.94168E+00-5.11738E+00 1.70955E+00 6.97792E-01-5.95121E-01
 -1      1903-7.91023E+00-1.25234E+01-4.70468E+00 2.32994E+00 1.05277E-02-4.41387E-02
 -1      1904-7.89798E+00-5.62955E+00-4.36319E+00-2.26658E-01-5.58120E-03 1.89676E+00
 -1      1905-1.23076E+01-7.41824E+00-4.73755E+00 1.69876E+00-1.42275E-02 1.02212E-01
 -1      1906-8.25484E+00-8.11134E+00-5.33331E+00-1.95401E+00-5.88090E-01-2.33221E-01
 -1      1907-1.15807E+01-8.66360E+00-5.18354E+00-2.85862E+00 4.83702E-01 3.46536E-01
 -1      1908-2.15548E+01-2.16014E+01-1.05151E+01-2.10244E+00 3.95751E+00 1.98022E+00
 -1      1909-8.98672E+00-1.05562E+01-5.30157E+00 2.89959E+00-1.03277E+00 8.34498E-01
 -1      1910-8.63143E+00-1.16390E+01-5.30310E+00 3.00124E+00 3.30628E-01-7.30894E-01
 -1      1911-8.21053E+00-7.23889E+01-6.62778E+00-4.58623E+00 3.58271E+00 4.65233E+00
 -1      1912-2.67945E+01-4.72352E+01 2.36151E+00 3.36582E+01 2.59657E+00-6.06634E-01
 -1      1913-7.80415E+01-2.69197E+01-1.12229E+01 3.26112E+01 3.76866E+00-6.03439E-01
 -1      1914-4.58877E+00-9.66149E+00-3.78281E+00 1.78535E-01-1.07007E+00-1.33533E-01
 -1      1915-6.08866E+00-1.28095E+01-4.41997E+00 1.38258E+00 7.94985E-01-7.17431E-01
 -1      1916-6.64283E+00-1.03387E+01-4.92002E+00-6.09953E-01-9.92299E-01 3.35920E-01
 -1      1917-6.63174E+00-9.38918E+00-4.43136E+00-1.57621E+00-1.96096E-01 7.88026E-01
 -1      1918-6.22682E+00-6.43686E+00-3.58434E+00-2.09215E+00-9.99991E-01-1.10326E+00
 -1      1919-7.24036E+00-9.75422E+00-3.93749E+00-2.45970E+00-3.91251E-01 9.63979E-03
 -1      1920-6.95406E+00-6.85036E+00-2.70116E+00-1.77337E+00 4.37404E-01 1.06642E+00
 -1      1921-8.67027E+00-1.15517E+01-4.74877E+00-2.87857E+00-3.11906E-01-1.58412E-01
 -1      1922-5.87541E+00-9.09345E+00-5.03774E+00-6.00661E-01 4.66447E-01-3.71552E-01
 -1      1923-7.61067E+00-1.14961E+01-4.88232E+00-2.78897E+00-3.19642E-01-1.19395E+00
 -1      1924-5.41565E+01-2.96093E+01-7.08468E+00 3.02613E+01 2.71144E+00 3.57625E+00
 -1      1925-6.15481E+01-2.84869E+01-6.60218E+00 3.21195E+01 8.37607E-01 1.60689E+00
 -1      1926-7.06754E+00-6.64582E+00-2.86974E+00 1.65113E+00-8.97458E-01 4.78422E-01
 -1      1927-1.24533E+01-8.50756E+00-5.11174E+00 2.26895E+00-7.08724E-02-3.46214E-01
 -1      1928-5.53944E+00-9.63522E+00-4.87164E+00 6.87389E-02 2.13178E-01 4.83825E-01
 -1      1929-7.34857E+00-1.26895E+01-4.99344E+00 1.83828E+00-7.77616E-01 8.16058E-01
 -1      1930-2.15743E+00-2.30576E+01 6.70633E+00 2.46842E+01 7.01356E+00 7.95460E+00
 -1      1931 3.23741E+00 3.39724E+00 1.06195E+00 6.05278E-01 2.05618E-01 1.77819E+00
 -1      1932 2.94562E-01-5.11378E-01 1.48751E+00-9.44038E-01 2.37597E+00 2.86048E+00
 -1      1933-1.11317E+00 8.70326E-02 5.81728E-01-1.50971E+00-2.01669E+00-2.40694E+00
 -1      1934-6.89568E+00-4.38009E+00-8.48696E-01-2.81233E+00 1.18783E+00 2.52449E+00
 -1      1935 1.61743E+00-6.19228E-01 9.16918E-01 8.19162E-01-2.95292E+00 1.31374E+00
 -1      1936 4.46905E+00 2.91553E+00 2.37995E+00-5.13528E-02 1.41434E+00 1.78003E-01
 -1      1937-1.41059E+00-1.05314E-01 1.50680E+00 1.82720E+00 2.13297E+00-3.23935E+00
 -1      1938 5.23503E-01 1.73487E+00 2.20067E+00 5.90883E-01 1.66337E+00 2.29705E+00
 -1      1939 1.40184E+00 2.75217E+00 2.79010E+00-5.39923E-01 3.49770E+00 1.81581E+00
 -1      1940 1.31764E+00 2.33652E+00 2.51492E+00 3.20050E-01 5.43343E+00 2.40385E+00
 -1      1941 1.64274E+00 7.81863E-01 7.98686E-01 8.32803E-01 1.99217E+00 3.13587E+00
 -1      1942 2.46045E+00 3.31291E+00 3.64907E+00 9.91368E-02 3.50129E+00 1.85880E+00
 -1      1943 2.45957E+00 6.39293E+00 9.64895E-01 4.36464E-01 3.94472E+00 5.33366E-01
 -1      1944 1.00094E+00 2.20098E+00 2.60721E+00 2.70781E-01 3.29240E+00 1.52542E-01
 -1      1945 1.84695E+00-1.32706E+00 1.19347E+00 7.48088E-01 2.54408E+00-9.84280E-01
 -1      1946 1.14419E+00 3.42361E+00-8.42519E-01-1.02570E+00 2.79716E+00-3.41883E-01
 -1      1947 1.63181E+00 3.46425E-01 2.36666E+00-3.72160E-01 2.84865E+00-2.23577E+00
 -1      1948 3.68399E+00 1.48014E+00 3.82228E-02 1.74989E+00 1.60242E+00 2.32132E+00
 -1      1949 3.58798E-01-1.82883E+00 1.74379E+00-1.81337E+00 2.59075E+00 2.00948E+00
 -1      1950 3.88211E+00 1.62716E+00 3.67014E+00-2.54964E-02 9.88583E-02 5.01719E+00
 -1      1951 3.24581E+00 2.44051E+00 2.80332E+00-2.94564E-01-1.17860E+00 5.05084E+00
 -1      1952-4.48443E-01-1.30308E+00-2.00089E+00-6.58867E-01-1.08479E+00 3.53186E+00
 -1      1953 3.40818E+00 1.95894E+00 2.69881E+00-7.33580E-01-2.46444E+00 5.52491E+00
 -1      1954 3.58189E+00 1.12753E+00 3.27794E+00 2.14865E-01-1.00355E+00 2.82074E+00
 -1      1955-7.99246E-01-6.39595E-01-1.12652E+00 2.34786E-01-2.12226E+00 3.30323E+00
 -1      1956 9.00882E-01 3.47263E-01 8.54197E-01 8.27828E-01-2.49607E+00 2.27128E+00
 -1      1957-4.64344E-01 3.54839E-01 4.39952E-01 2.93515E-01-4.82872E+00 2.77036E+00
 -1      1958 1.70616E+00 3.21522E+00 1.14956E+00-8.25382E-01-2.32454E+00 1.00402E+00
 -1      1959-3.68204E+00-7.10412E+00-2.33969E+00 1.84144E+00-4.09219E+00 6.76295E-01
 -1      1960-8.35575E-01-7.25153E-01 9.38700E-02 6.97003E-01-4.89780E+00 5.37321E-01
 -1      1961-2.84787E+00-8.62913E-01-3.88379E-01 2.12078E-01 1.05883E+00-2.97807E+00
 -1      1962 1.46204E+00 3.31295E+00 4.59918E-01-2.40631E-01-2.80865E+00 4.23902E-01
 -1      1963 2.39433E+00 2.87277E+00 1.30088E+00 1.18697E+00-4.60088E+00-1.30358E-02
 -1      1964 6.19124E-01-1.93143E+00-3.00471E+00-1.28259E-02-3.20227E+00-3.80402E-01
 -1      1965 3.61361E+00 5.86353E+00 5.05453E+00 9.53575E-02-4.66835E+00-2.19756E+00
 -1      1966-4.10721E+00 2.64486E-01 9.88689E-01 2.24264E-01 4.44037E-01-4.25402E+00
 -1      1967 5.45915E+00 6.62700E+00 4.10402E+00 1.96462E+00-1.67349E+00-1.75804E+00
 -1      1968 4.08339E+00 3.77824E+00 4.42529E+00 9.67570E-01-1.96977E+00-2.78598E+00
 -1      1969 1.40875E+00 2.67428E+00 3.89160E+00 9.42763E-01-2.42409E+00-3.41758E+00
 -1      1970 3.51933E+00 7.63151E-01 2.26550E+00 1.24172E-01-2.17760E+00-4.20246E+00
 -1      1971 8.98609E-01 6.86745E-01 1.97595E+00-7.46651E-01 4.20797E+00-3.52331E+00
 -1      1972 3.52157E-03 1.22467E+00-2.06314E-01-6.57059E-01 2.00303E+00-2.38088E+00
 -1      1973 4.87306E+00 4.39871E+00 7.06580E+00-5.89242E-01 9.09503E-01-4.25279E+00
 -1      1974-1.81077E+00-3.04997E+00 2.63488E-01 2.13783E-01 1.03020E+00-2.29029E+00
 -1      1975 1.58520E+00 2.30125E-01 1.15348E+00-6.81593E-01-4.22261E-01-4.73202E+00
 -1      1976 3.10429E+00 1.47322E+00 1.68329E+00-1.50331E-01 5.71002E-01-2.24232E+00
 -1      1977 8.07871E+00 4.82096E+00 5.05298E+00-2.46956E-01 1.45329E+00-4.95574E+00
 -1      1978-5.79579E+00-5.03563E+00-4.03767E+00-1.58659E-01 2.95344E-02-1.65022E-01
 -1      1979-4.64340E+00-7.50817E+00-7.18296E+00 2.95141E-01 4.25338E+00-1.27264E+00
 -1      1980-3.47250E+00-5.46910E+00-3.22624E+00-2.39269E+00 3.21830E+00 1.88257E+00
 -1      1981-1.44571E-01 1.88475E+00 5.63100E-01 6.26307E-01-4.42075E-01 2.27470E+00
 -1      1982 5.52748E+00 3.20048E+00 4.75752E+00-3.62578E-03-1.47681E+00 4.45732E+00
 -1      1983-7.00649E+00-6.15677E+00-4.04568E+00 2.64089E+00-2.65878E+00 2.72709E+00
 -1      1984 2.79733E+00 3.49067E+00 4.13985E+00-7.41990E-01 3.08146E+00-3.65128E+00
 -1      1985-5.41276E+00-9.55011E+00-5.60568E+00 2.37481E-01-5.41565E+00 6.53593E-01
 -1      1986-4.74184E+00-6.76156E+00-3.05652E+00 2.22922E+00-4.06351E+00 3.19163E+00
 -1      1987-5.94931E+00-2.25370E+00-6.68740E-01-1.26862E+00-3.25090E-02-3.18420E+00
 -1      1988 3.54238E+00 3.23820E+00 3.40265E+00 6.48957E-01-2.34628E+00-3.29725E+00
 -1      1989 3.42487E+00 1.81820E+00 1.81821E+00-1.17920E+00 6.68992E-01 3.87758E+00
 -1      1990 4.68147E+00 3.60361E+00 4.07431E+00 5.05895E-01 1.37790E+00-5.74865E+00
 -1      1991 1.48222E+00 1.92185E-01 1.87250E-01-1.50351E+00-2.00616E+00-1.35441E+00
 -1      1992 4.35085E+00 5.04114E+00 1.89635E+00-4.10034E-01-3.09146E-02-1.70830E+00
 -1      1993-1.54692E+00-2.22554E+00 1.60384E-01 1.49784E+00 2.49124E+00-2.83588E+00
 -1      1994 2.57778E-02-1.20623E+00-7.92828E-01 7.86104E-01 5.08423E+00 1.39646E+00
 -1      1995 6.54083E+00 2.61442E+00 5.11076E+00 9.74818E-01 2.97210E+00-3.62871E+00
 -1      1996-2.71251E+00-2.96769E+00-2.79303E+00-1.46106E+00-2.32401E+00-2.65657E+00
 -1      1997-2.31130E+00-5.39248E+00-3.16614E-01 1.78739E+00 4.03521E+00-1.24989E+00
 -1      1998-6.12393E+00-1.76324E+00 2.36621E-02 7.05010E-01 1.13726E+00-2.94927E+00
 -1      1999-1.07200E-01-8.48791E-01-1.71626E+00-7.14152E-01 1.22185E+00 3.85139E+00
 -1      2000-4.98621E+00-2.12097E+00-2.41090E+00-1.02510E+00-5.59735E-02 3.94784E+00
 -1      2001 1.42855E+00-2.56912E+00-2.35887E+00 6.86122E-01 4.36642E+00 1.15896E+00
 -1      2002-6.49138E+00-8.13380E+00-5.90321E-01 2.98358E+00 3.40786E+00-2.90951E+00
 -1      2003 1.06378E+00-7.47770E-01 1.53653E+00 4.59839E-01 4.84520E+00 1.27538E+00
 -1      2004-8.59733E-01-3.18253E+00-2.12902E+00 8.02299E-02-3.93877E+00-6.73132E-01
 -1      2005 3.40864E+00 1.73287E+00 1.67364E+00 9.89328E-01-1.54397E+00 6.78094E+00
 -1      2006-2.20134E+00-1.53698E+00-1.54350E+00 4.02141E-01-2.72278E+00-9.76933E-01
 -1      2007-6.71880E+00-2.62341E+00 5.18141E-01-1.33798E+00-1.14040E-01-2.25266E+00
 -1      2008-4.68848E-01-9.92831E-01 6.78268E-01 5.13379E-01 3.80939E+00-2.79392E+00
 -1      2009 1.48233E+00 3.45932E+00 1.50254E+00 6.75127E-01-2.64915E+00-7.47306E-02
 -1      2010-5.67452E+00-4.47630E+00-3.24177E+00 1.85087E+00 3.92670E+00-4.24083E+00
 -1      2011-7.92760E+00-2.76331E+00 1.20223E+00 1.42150E+00 9.34637E-01-2.80037E+00
 -1      2012-4.07258E+00-7.15801E+00-2.11713E+00 1.23056E+00-4.38735E+00 1.15647E+00
 -1      2013 1.22833E+00-3.20794E-03 3.48115E+00 2.32379E+00 2.82578E+00-3.41604E+00
 -1      2014-1.83323E+00-5.38235E+00 6.39196E-01 1.87800E+00-4.05765E+00 1.49790E+00
 -1      2015 2.05692E+00 1.10882E+00-2.50911E+00 4.32796E-01-1.18325E+00 8.11755E-01
 -1      2016-6.90259E+00-3.64338E+00-7.13681E-01-1.23077E+00-2.22133E+00-1.88412E+00
 -1      2017-3.41058E+00-7.76643E+00-3.49513E+00-7.29168E-01 4.67008E+00 2.05629E+00
 -1      2018-6.43410E+00-3.67293E+00 2.85929E-02-2.50528E+00 1.96417E+00 2.39814E+00
 -1      2019 7.03673E+00 5.65990E+00 3.59251E+00-2.20079E+00-1.47950E+00 3.09847E+00
 -1      2020-5.68050E-02-5.11243E-01 1.23552E+00 7.12057E-01-2.37789E+00 1.91497E+00
 -1      2021 5.10623E+00 4.62964E+00 4.64421E+00 9.32950E-01-3.10948E+00-3.65934E+00
 -1      2022 4.66066E-01-9.12911E-01 4.54119E-01 1.32089E+00-1.15258E+00-1.75205E+00
 -1      2023-2.24782E+00-3.11351E+00 1.19816E-01-4.33141E-01-5.42520E-01 2.29163E+00
 -1      2024 5.14150E-01 8.08075E-01 2.10989E+00 1.19748E-01-1.43726E+00-3.39934E+00
 -1      2025-1.04070E+00-3.73353E-01 2.15344E+00 1.35928E-01 4.76952E-01-3.47004E+00
 -1      2026-6.14124E-01-3.33253E-01 1.60546E+00-5.06242E-01 5.23731E-01 3.12104E+00
 -1      2027-2.32770E+00-1.82046E+00 8.38235E-02-3.46437E-02-2.76042E+00-1.11348E+00
 -1      2028-5.89376E+00-9.92517E-01-1.49573E+00 2.13727E-02-8.57821E-02-2.66974E+00
 -1      2029 1.28138E+00 1.73488E+00 2.48476E+00 3.66320E-01-3.45182E+00-1.23159E+00
 -1      2030-1.10512E-01-5.78624E-01 5.27708E-02-8.32978E-01 1.95742E+00-1.93744E+00
 -1      2031-3.08747E-01-2.13509E+00 4.24823E-02 1.72624E-01-3.02916E+00-9.60367E-01
 -1      2032 2.32797E+00 2.14447E+00 1.87566E+00 3.58362E-01 4.42056E+00 2.20407E+00
 -1      2033 1.38601E-01 2.72343E-01 1.09585E+00 2.05578E-01 2.83273E+00 2.10048E+00
 -1      2034 8.68299E-01 1.34732E+00 2.81780E+00-1.37376E-01-3.30251E-01-3.35419E+00
 -1      2035 9.56869E-01 5.11966E-01-1.22303E-03-7.52237E-01 6.43119E-01-2.73016E+00
 -1      2036-5.23856E-01 7.61172E-01 7.38241E-01-9.04795E-01-1.83591E+00-2.36243E+00
 -1      2037 2.67961E+00 1.49687E+00 2.62292E+00 2.27995E-02-1.33771E+00 3.89813E+00
 -1      2038-7.62227E+00-9.07002E+00-8.24862E+00 1.50591E+00 5.11540E+00-2.09504E+00
 -1      2039 2.44423E+00 1.78651E+00 1.85814E+00-7.07938E-01-2.32228E+00 1.42337E+00
 -1      2040 2.44202E+00 1.39446E+00 3.36542E+00-5.35577E-01-3.48618E+00 2.35184E+00
 -1      2041 3.47331E+00 2.79549E+00 6.81497E-01 1.07057E+00 8.35932E-01-7.91148E-01
 -1      2042 1.40284E+00 2.02174E+00 9.78880E-01 6.84420E-01-2.47515E-02-1.66740E+00
 -1      2043-7.05884E+00-1.93373E+00-4.74611E-01 7.93677E-01-8.80329E-01 4.05158E+00
 -1      2044 5.94327E+00 4.21412E+00 4.30091E+00-1.22464E+00-1.28732E+00 3.55701E+00
 -1      2045 7.90920E+00 4.51864E+00 4.98764E+00 5.61169E-01-1.86570E+00-4.10037E+00
 -1      2046 5.87190E+00 4.92001E+00 5.30414E+00-3.06123E-01 1.11583E+00-4.32586E+00
 -1      2047-3.74567E+00-4.11443E+00-7.81805E-01 4.74922E-01-1.46026E+00-2.53056E+00
 -1      2048-3.09516E+00-3.12306E+00-5.47266E-01 4.55456E-01-2.82460E+00-1.40696E+00
 -1      2049-3.43778E+00-2.46906E+00 6.48058E-01-9.48559E-01-3.31511E+00 2.09364E+00
 -1      2050 5.43232E+00 3.27293E+00 3.85830E+00 3.65441E-01 1.18014E+00-5.56782E+00
 -1      2051-1.96091E+00-1.10951E+00 1.04410E+00 8.12494E-01 2.71025E+00-6.01587E-01
 -1      2052 4.76651E+00 5.00155E+00 5.40058E+00-9.01693E-01-2.45815E+00 4.89996E+00
 -1      2053 3.99870E-02 1.09051E+00 8.67567E-01 4.79003E-01 2.59044E+00 1.18545E+00
 -1      2054-6.61876E+00-4.64528E+00 2.61694E-01-2.51832E+00 2.56329E+00 2.95944E+00
 -1      2055 4.30498E+00 8.44547E+00 6.02584E+00-3.55201E-02-5.53201E+00-6.07314E-01
 -1      2056 6.55483E-01 6.98755E-01 2.45114E+00-7.09897E-01 3.08621E+00 2.15947E+00
 -1      2057-2.07574E+00-2.03600E+00-1.65523E+00-1.23439E+00 3.73741E+00 2.33121E+00
 -1      2058 2.69091E+00 3.04726E+00 4.21902E+00-2.61751E-01-4.30602E+00 3.95785E-01
 -1      2059-2.30681E+00-8.68569E-01 5.02345E-01-1.70995E+00 1.10097E+00 2.39063E+00
 -1      2060-5.70240E+00-1.00518E+01-3.20693E+00 1.22353E+00-4.52676E+00 8.90125E-03
 -1      2061 9.99073E-01 8.28290E-01 2.04275E+00-7.27205E-01-2.35245E+00 5.35088E+00
 -1      2062-2.45406E-01-1.93029E-01-6.17691E-01 1.56521E-01 3.76772E+00-7.02070E-01
 -1      2063 2.06002E+00 2.05936E+00-3.03697E-01-4.60161E-01-1.40975E+00-4.43890E-01
 -1      2064-4.74265E+00-3.97505E-01 1.86665E+00-6.97957E-01-1.04747E+00-1.97203E+00
 -1      2065-1.04846E+01-9.81941E+00-7.33436E+00 2.49511E+00-1.79356E+00 3.98817E+00
 -1      2066 1.86380E+01 2.17160E+01 4.18134E+00-2.80551E-01 2.46153E+00-6.49361E-01
 -1      2067-8.32284E+00-5.98465E+00-2.85629E+00 2.21487E+00-2.75602E-01 2.56762E+00
 -1      2068 5.67903E-01 1.15007E+00 8.04182E-01 1.50261E+00-4.18226E+00 2.60892E+00
 -1      2069 5.14047E-02 3.10367E-01 8.26375E-01 2.69640E-01-2.83654E+00 7.37759E-01
 -1      2070-1.01473E+00-2.66619E+00-6.98244E-01-9.41324E-01 3.11865E+00 2.57706E+00
 -1      2071 2.51013E-01 1.40823E+00 3.18012E+00 7.87831E-02 1.63677E+00 3.20083E+00
 -1      2072-5.66248E+00-7.27113E+00-3.86438E+00-1.76528E+00-3.92049E+00-3.43584E+00
 -1      2073 4.56865E+00 4.06591E+00 5.28553E+00 2.89429E-01-1.07006E+00-5.17984E+00
 -1      2074 1.78958E-01-2.17736E-02 1.78680E+00-8.19165E-02 3.24846E+00-1.05201E+00
 -1      2075 5.30383E+00 9.53912E+00 2.53769E+00-1.63498E+00 2.37040E+00-4.42936E-01
 -1      2076-1.18629E+00 9.37926E-02 1.06630E+00 9.56020E-01 1.69253E+00-4.64928E+00
 -1      2077 3.86077E+00 5.89697E+00 5.88375E+00-1.67103E-01-4.34078E+00-1.78358E+00
 -1      2078-5.85444E+00-6.65219E+00-1.43135E+00 2.54442E+00 2.54973E+00-1.32392E+00
 -1      2079-7.69342E+00-4.24026E+00-3.33025E+00 6.44859E-01-1.25216E+00 4.73225E+00
 -1      2080 1.14647E+01 4.54431E+00 4.45831E-01 2.67374E-01 1.18712E-01 1.37675E+00
 -1      2081-2.87840E-01 6.02897E-01-2.30608E-01 7.45921E-01 5.66513E-01-2.32606E+00
 -1      2082 6.91092E-01-4.56126E-01 4.92797E-01 1.16794E-01 2.44603E-01-2.30504E+00
 -1      2083-7.31637E+00-5.74009E+00-5.84962E+00 8.19623E-01 2.73975E+00-4.00154E+00
 -1      2084 1.90989E+00-7.41950E-02 5.76280E-01 3.30157E-01-1.99794E+00 1.03768E-01
 -1      2085 4.05184E+00 5.19141E+00 2.38913E+00 3.62947E-01-5.86791E-01 1.10895E+00
 -1      2086 6.34947E+00 6.60073E+00 2.20320E+00-1.15119E+00 1.09299E+00 1.11752E+00
 -1      2087 1.05453E+01 1.19295E+01 3.24101E+00-8.02879E-01-6.66557E-01-1.63231E-01
 -1      2088 3.04399E+00 3.56061E+00 3.12911E+00-4.82723E-01 4.96811E+00-3.25848E+00
 -1      2089 2.65490E+00 6.98488E+00-1.68052E-01-9.23592E-01-3.40562E+00 9.00800E-01
 -1      2090 3.27529E+00 2.09621E+00 8.29613E-01 3.94133E-01 1.29137E+00-1.46809E+00
 -1      2091 3.57707E+00 3.69872E+00-1.46852E+00 3.21251E-01 8.19338E-01-2.23874E+00
 -1      2092-6.22912E+00-5.55705E+00-4.97342E+00 1.28762E+00-2.49660E+00 4.40466E+00
 -1      2093 3.94993E+00 3.01716E+00 1.35226E+00 8.97745E-02-1.46379E+00 1.68625E+00
 -1      2094-3.12792E+00-7.48671E+00-4.42224E+00 4.98209E-01 3.22062E+00-4.73086E-01
 -1      2095 5.08528E+00 4.99191E+00 4.37667E+00 1.62901E+00-4.70361E+00-1.24388E+00
 -1      2096-6.12466E+00-8.85629E+00-7.33495E+00-4.81525E-01 5.92050E+00 6.43257E-01
 -1      2097 1.10073E+00-4.01492E-01 6.81513E-01-1.88855E-01 2.60789E+00 7.01303E-01
 -1      2098-2.40269E-01-1.18286E+00 4.49934E-01 1.27574E-01 2.88556E+00-2.65499E-01
 -1      2099-6.64162E+00-1.07824E+01-4.92491E+00-2.15345E+00 4.37409E+00 2.00966E+00
 -1      2100-8.72181E+00-8.91964E+00-6.02557E+00-2.99458E-01-1.26679E+00 8.88962E-02
 -1      2101-5.63517E+00-3.82801E+00-1.68837E+00 1.17350E+00-1.85239E+00 3.43478E+00
 -1      2102-7.29093E+00-7.07891E+00-5.97110E+00-1.08605E-01 6.70339E-01-2.27458E+00
 -1      2103-8.28729E+00-4.11246E+00-2.20794E+00 8.19466E-01-1.28610E+00 4.13496E+00
 -1      2104-1.54150E+00 6.05172E-01 1.32658E+00 1.32978E+00-1.40163E+00 3.11024E+00
 -1      2105 8.33626E-01 1.14980E+00 7.47240E-01-1.07588E+00-2.98013E+00-1.54415E+00
 -1      2106 4.50680E+00 3.78576E+00 3.76264E+00 9.77415E-01-1.79632E+00-3.31858E+00
 -1      2107-6.00122E+00-6.78451E+00-5.21530E+00 1.62075E+00 3.85302E+00-3.05510E+00
 -1      2108-6.02526E+00-9.03179E+00-1.53782E+00 3.04768E+00 3.44019E+00-1.99052E+00
 -1      2109-8.02099E+00-4.99827E+00-4.63519E+00-1.20795E+00-7.38536E-01-3.53840E+00
 -1      2110 2.52947E+00 1.54762E+00-7.15435E-01 1.09158E+00-2.59842E+00-4.16419E+00
 -1      2111 5.97590E+00 4.38478E+00 3.67605E+00 3.57335E-02 4.17170E-01 4.62522E+00
 -1      2112-2.59340E+00-1.39564E+00-2.76320E+00-7.71639E-01 4.49261E-02 3.34141E+00
 -1      2113-1.73698E+00 1.46564E+00-1.51170E-01 4.97257E-02 3.64014E-01-3.47694E+00
 -1      2114 6.80428E+00 4.42879E+00 3.57643E+00 1.23106E+00 3.35780E+00 4.35126E+00
 -1      2115 4.84329E+00 3.24991E+00 2.81085E+00 8.18979E-01 1.19997E+00-3.67905E-01
 -1      2116 3.97679E+00 5.20040E+00 1.24798E+00 2.30252E-01-1.47150E+00-1.46160E+00
 -1      2117 2.50226E+00-1.03277E+00 4.58646E-01 1.80362E-01-2.19636E+00-5.89461E-01
 -1      2118 4.61773E-03 1.79796E-01 1.27944E+00 8.78639E-01-1.22154E+00 2.02205E+00
 -1      2119 7.76653E+00 4.81778E+00 5.13920E+00 1.29184E-01-7.07114E-01-3.59910E+00
 -1      2120-7.01444E+00-3.57996E+00-3.34009E+00 2.27265E-01 1.91711E+00-5.04310E+00
 -1      2121 5.85770E+00 6.69929E+00 3.60387E+00 1.61876E-01 7.13071E-01-9.66683E-02
 -1      2122 3.31800E+00 5.65298E+00 4.34429E+00-3.08998E-01-4.33148E+00-1.46671E-01
 -1      2123-6.26004E-02-2.43953E+00-8.39133E-01 1.37119E+00-3.39751E+00 9.75169E-01
 -1      2124-3.43039E+00-4.61024E-01 2.74372E-01-4.91060E-01-1.62828E-01-2.59820E+00
 -1      2125 1.68370E+00 2.79961E+00 3.60298E-01 1.04881E+00 1.14500E+00-1.61444E+00
 -1      2126-8.26129E+00-4.09394E+00-2.65440E+00 1.11727E+00-1.48556E+00 4.09508E+00
 -1      2127 6.88835E+00 4.98537E+00-1.93482E+00 7.93294E-01-2.68081E+00-5.83311E-01
 -1      2128-2.56009E+00-7.59421E-01-9.45789E-01 8.97776E-01 2.03564E+00-3.45128E+00
 -1      2129-4.49282E+00-6.20242E+00-5.72233E+00 7.81527E-02-5.48579E+00 1.83050E+00
 -1      2130 1.46868E+00 1.04542E+00 1.79282E-01 1.59753E+00 1.57691E+00-1.85621E+00
 -1      2131 6.79160E+00 7.89980E+00 2.94160E+00 6.51128E-01 5.13451E-01-1.68042E+00
 -1      2132 3.13980E+00 5.37228E+00 2.06055E+00-1.52287E+00-2.42888E+00 2.30017E+00
 -1      2133 1.51047E+00 1.97864E+00 1.42104E-01 8.23927E-01 1.23871E+00-1.61313E+00
 -1      2134 1.78960E+00 2.63862E+00-1.15191E+00 3.88752E-01 1.84184E-01-1.71593E+00
 -1      2135 1.89099E+00 1.55648E+00 2.93926E-01 8.91133E-01 9.33473E-01-9.48129E-01
 -1      2136 1.25420E+01 9.30350E+00 5.35412E-01-9.79779E-01 2.46502E+00-2.29379E+00
 -1      2137 3.95035E+00 1.74509E+00-1.85729E+00 4.86401E-01-1.51037E+00-5.75092E-02
 -1      2138-4.62496E-01-1.49815E+00-1.41270E-01-3.56771E-01 3.32856E+00 1.28214E+00
 -1      2139 5.93792E+00 6.12339E+00 2.53214E+00 4.74317E-01 1.65300E+00 1.88250E+00
 -1      2140-8.57252E-01-6.55082E-01 4.50435E-01 1.12004E+00 1.21338E+00-1.94310E+00
 -1      2141 2.38142E-01-8.19981E-01 5.67236E-01 3.49901E-01-3.03493E+00 2.12845E+00
 -1      2142-2.88084E+00-1.92259E+00-4.21622E-01-1.52615E+00-1.47116E+00-4.00510E+00
 -1      2143-7.43116E+00-4.49794E+00-4.27182E+00-1.49295E-01 1.18673E+00 5.21363E+00
 -1      2144-1.53902E-01 1.19704E+00 6.11099E-01 1.08513E-01 7.82711E-01-1.71123E+00
 -1      2145 3.70680E+00 2.15447E+00 2.11368E+00-2.04267E-01-1.41337E+00-5.67277E-01
 -1      2146 9.49307E-01 1.84992E+00 1.96105E-01-5.21894E-01 1.18591E-01 1.69413E+00
 -1      2147 2.05026E+00 3.52235E-01-2.06391E+00 1.03101E+00-1.44358E+00-1.68692E+00
 -1      2148 4.54755E+00 4.20231E+00 1.98657E+00-8.64627E-01-6.65262E-01-8.82896E-01
 -1      2149-8.57087E-01-2.63513E+00-3.88750E-01 9.57781E-01 2.35439E+00-1.92666E+00
 -1      2150 6.78051E+00 6.41152E+00 3.98866E+00 2.57319E+00 2.77437E+00 4.29260E+00
 -1      2151-6.68320E-01 1.96454E+00 5.52487E-01 1.11173E+00 7.26009E-01-2.60258E+00
 -1      2152-1.83337E-01 1.78720E+00 1.28028E+00 4.32548E-01 1.27804E+00-2.52998E+00
 -1      2153 4.26212E+00 5.77674E+00 2.69541E+00-1.22275E+00 3.05539E+00-1.00598E+00
 -1      2154 2.50414E+00 3.22515E+00 3.74799E+00-1.71123E-01 5.05137E+00 2.20080E+00
 -1      2155 6.91742E-01 1.12199E-01 4.55033E-01-5.62931E-01 2.08024E+00-1.34516E+00
 -1      2156 1.95325E+00 5.70094E-01 1.42500E+00-1.36444E+00 2.89864E+00 2.24568E+00
 -1      2157-8.22300E+00-7.54008E+00-5.51117E+00-2.01344E+00 4.18656E+00 2.02186E+00
 -1      2158 3.96499E+00 5.22177E+00 4.70718E+00-1.90946E-01 4.50746E+00 1.32297E+00
 -1      2159 8.88253E+00 8.12053E+00 8.86342E+00-9.58550E-01 2.62079E+00-4.13477E+00
 -1      2160 4.87933E-01 2.36794E+00 5.73634E-01 9.45830E-01 1.32566E+00-1.91732E+00
 -1      2161 1.47391E+00-5.31879E-01 6.69260E-01-7.49878E-01 2.77355E+00 8.49586E-01
 -1      2162-6.17399E-01-2.10368E+00-1.12911E-02-1.22303E+00-5.16060E+00-2.47632E+00
 -1      2163 6.78856E+00 5.23192E+00 7.77176E+00 8.70572E-02 1.49256E+00-5.12674E+00
 -1      2164 3.60623E+00 6.86535E+00 3.48515E+00 1.04829E+00 4.45320E+00 3.20440E+00
 -1      2165 1.77595E+00 4.63587E+00 1.49475E+00 6.68161E-01 4.22658E+00 1.95908E+00
 -1      2166-6.79678E+00-3.15531E+00-1.47499E+00 2.38280E+00 8.03552E-01-3.46334E+00
 -1      2167-6.57360E+00-8.68803E+00-1.83709E+00-3.90908E+00-3.27385E+00-3.35171E+00
 -1      2168 3.56142E-01 1.77304E+00 1.48253E+00 1.50633E-01 1.85178E-01-2.96074E+00
 -1      2169-9.03682E+00-7.14367E+00-5.19400E+00-2.56162E+00-2.45499E+00-4.42882E+00
 -1      2170-1.91352E-01-5.12268E-02 1.20490E+00 5.92032E-02 1.17332E+00 2.31961E+00
 -1      2171 9.85946E+00 9.10532E+00 4.44316E+00 1.09005E+00 2.49299E+00 3.62219E-01
 -1      2172-1.78705E-01-3.54384E-01 1.04594E+00-8.11170E-01-3.55605E+00 2.61737E+00
 -1      2173-6.30628E+00-3.92972E+00-5.41210E+00 2.57536E-01 3.22008E+00 4.57546E+00
 -1      2174-4.47038E+00-3.32331E+00-3.24438E+00-8.28719E-01 3.34390E+00 3.93325E+00
 -1      2175-1.72723E+00-4.21750E-01 5.23135E-01-6.83030E-01 5.23110E-01 4.34833E+00
 -1      2176-5.70576E+00-6.13358E+00-5.50374E+00 1.16053E+00 5.01302E+00-2.19307E+00
 -1      2177-6.38571E+00-3.45075E+00-3.67773E+00-1.72521E+00-3.13722E+00-4.14433E+00
 -1      2178-7.24916E+00-6.85709E+00-9.79087E+00-1.20704E+00 1.56888E+00 5.01608E+00
 -1      2179 1.37697E+00-7.86681E-02-2.80828E-01-8.83613E-01-2.95867E+00-1.25543E+00
 -1      2180-7.26933E+00-1.26401E+01-5.17098E+00-1.95472E+00 4.20460E+00 1.65174E+00
 -1      2181-4.21651E+00-6.48045E+00-3.92839E+00-9.11361E-01 3.22210E+00 2.06357E+00
 -1      2182-1.30089E-01-3.13560E+00-2.41158E-01-5.31251E-01-3.70403E+00-1.32286E+00
 -1      2183-6.00556E+00-7.79825E+00-6.58006E+00-1.43737E+00 3.21192E+00 4.42295E+00
 -1      2184-4.60737E+00-1.72409E+00-3.23793E+00-1.00981E+00 6.39249E-01 4.18878E+00
 -1      2185 4.68638E+00 3.43229E+00-6.56507E-01-4.90457E-01 1.36361E-01-3.05129E+00
 -1      2186-6.19538E-02 2.04573E+00 1.03211E-01 1.00974E-01 1.54788E-03 2.45767E+00
 -1      2187 2.70927E+00 3.63985E+00 2.12574E+00-8.13976E-01-4.64692E-01-1.39243E+00
 -1      2188 3.55375E+00 4.89057E+00 1.42292E+00-1.49352E-01-3.78957E-01-1.17270E+00
 -1      2189 1.23110E+00-3.58769E-01 1.14365E+00 8.59965E-01 2.01720E+00-7.87292E-01
 -1      2190 1.47106E+01 1.43893E+01 1.84846E+00-2.83018E-01-1.92334E-01-3.56423E+00
 -1      2191 3.12481E+00 1.78932E+00 2.13027E+00-7.77015E-02 1.67512E+00 5.32455E-01
 -1      2192 6.29335E+00 5.11666E+00 4.56244E+00 8.39301E-01 2.01248E+00 2.17600E-01
 -1      2193-8.01547E+00-4.87265E+00-3.86641E+00 9.62246E-01 6.09297E-01-5.14347E+00
 -1      2194 9.14682E-01 2.45553E+00-7.27335E-01-6.51245E-01-9.06916E-01-1.82004E+00
 -1      2195-5.56493E-01-6.62033E-01-3.16049E-01-6.80626E-01-2.67782E+00-1.44778E+00
 -1      2196-1.27503E+00-1.40484E+00-1.45586E+00-1.87592E+00-2.86131E+00-2.61914E+00
 -1      2197-3.89634E-01 1.79824E+00-1.75827E-01-1.34843E+00 9.71914E-01 2.01903E+00
 -1      2198 2.31219E+00 1.77603E+00 1.66083E+00-7.10994E-01-1.31291E+00 6.84241E+00
 -1      2199-2.14512E+00-1.47178E+00 1.22156E+00 6.65543E-01 2.74165E+00 1.44466E+00
 -1      2200-7.34873E-01-3.14329E+00-1.25947E+00-4.20966E-01-2.83775E+00-9.11649E-01
 -1      2201-5.50288E+00-7.84751E+00-5.50212E+00-1.71557E+00-6.00456E+00-7.08296E-01
 -1      2202 6.59508E+00 6.82272E+00 1.85823E+00-1.05343E+00-1.72553E-01-1.64017E+00
 -1      2203 8.04637E+00 4.12996E+00-8.93985E-01 1.61580E-01 1.27610E+00 3.27433E-01
 -1      2204-1.27046E-01 1.27788E+00 8.90063E-01-7.24703E-01-3.26329E+00-5.12524E+00
 -1      2205 1.58077E+00 2.40828E-01 3.81501E-01 3.64303E-01 1.27942E+00-3.69738E-01
 -1      2206 1.53728E+00 1.68645E+00 2.09940E+00-4.90576E-01 5.76372E-01-4.78384E+00
 -1      2207-3.98201E+00-5.28984E+00-3.71268E+00-8.71708E-01-5.65437E+00-3.03118E-01
 -1      2208-1.05228E+01-5.49955E+00-1.82005E+00-4.64218E-01 4.97491E-01 3.24695E+00
 -1      2209 5.12979E-01-3.13455E+00-1.50725E+00-3.42551E-01-2.63686E+00-1.42755E-01
 -1      2210 5.12030E+00 2.55416E+00 5.23379E+00 9.11325E-01 2.65744E+00 1.56165E+00
 -1      2211 9.86194E+00 9.41572E+00 1.60617E+00 5.52950E-01-7.77561E-01 4.81292E-01
 -1      2212-4.10557E+00-5.41852E-01-3.39831E-03 5.47601E-01-2.25024E-01 2.71302E+00
 -1      2213 7.27322E+00 5.00987E+00 2.96916E+00 7.38977E-01 2.14470E+00 1.19250E-03
 -1      2214 4.82072E+00 5.12966E+00 3.31474E+00-2.03903E+00 1.75466E+00-3.18095E+00
 -1      2215-8.54789E-01-4.17600E+00-6.41842E-01-1.47955E-01-4.69190E+00-1.26960E+00
 -1      2216 2.54198E+00 1.20167E+00 2.40499E+00 3.92622E-01-9.83592E-01 4.21778E+00
 -1      2217 7.75461E-01-4.29521E+00-2.24420E-01-1.41592E+00 2.87302E+00 1.67415E+00
 -1      2218-1.22252E+00-3.07070E+00 3.81337E-02 1.48371E+00 3.57321E+00-6.62217E-01
 -1      2219 1.07955E+00-4.64736E-01 1.89055E+00-5.32588E-01-1.76681E+00 2.71686E+00
 -1      2220 8.05564E-01 1.01763E+00-1.76781E+00-6.54790E-01-9.24452E-01-1.10501E+00
 -1      2221 3.02910E+00 8.68322E-01 1.44260E+00 7.17317E-01 1.37635E+00-3.65958E-02
 -1      2222 2.57379E+00 3.23226E+00 1.19536E+00-1.35621E-01-7.18479E-01-1.62085E+00
 -1      2223-4.41437E-01 1.51792E+00-5.40321E-01 4.77155E-01 2.19625E+00-3.01905E+00
 -1      2224-5.59489E+00-1.97125E+00 2.68608E-01 1.10958E+00 9.39279E-01-2.85965E+00
 -1      2225-4.32636E+00-3.20273E+00-9.29677E-01 1.32435E+00-1.40024E+00 3.16667E+00
 -1      2226-3.17402E-01 1.44097E+00 5.53450E-01-6.27799E-01-8.78044E-01-2.29215E+00
 -1      2227-8.00382E+00-5.19238E+00-4.29612E+00 1.04394E+00 4.02360E+00-4.38469E+00
 -1      2228 9.52341E+00 8.59262E+00-4.69539E-01 1.74621E-01-1.95604E-01 2.97700E+00
 -1      2229 2.46338E-01 1.10500E+00-6.41323E-02-1.18784E+00-1.09040E+00-1.42770E+00
 -1      2230-6.66702E+00-9.14290E+00-8.15800E+00 4.52725E-01 7.00057E+00-2.02391E+00
 -1      2231 7.22205E-01-5.84473E-01-2.08836E-01 5.61588E-01 2.03415E+00-1.75159E-01
 -1      2232-2.58816E+00-5.99227E+00-3.95621E+00-5.49975E-03-5.13198E+00-7.93087E-02
 -1      2233 9.16666E+00 9.88509E+00 5.46515E+00-8.66429E-01 1.16272E+00-6.44003E-01
 -1      2234-3.58840E+00-3.77155E+00-2.34554E+00 2.02457E+00-3.68493E+00 3.57307E+00
 -1      2235 1.53584E+00 5.74617E+00 2.85649E+00 2.09170E-01-3.53029E+00 2.26098E-01
 -1      2236 3.38228E+00 3.82420E+00 1.53360E+00 5.13657E-02-1.75323E+00-5.81110E-01
 -1      2237 2.75806E+00 1.08579E+00 1.32166E+00-6.78566E-01-8.43412E-01 3.50515E+00
 -1      2238-4.83990E+00-5.25437E+00 5.66583E-01-2.36617E+00-1.49542E+00-1.47220E+00
 -1      2239-2.39626E+00-1.93238E+00-1.01874E+00-8.18199E-01 5.13336E-01-4.08250E+00
 -1      2240-2.06977E+00-1.62926E+00-7.05899E-01 1.70521E+00-1.39191E+00 2.07859E+00
 -1      2241-4.65695E+00-2.07877E+00-1.55214E+00-1.66440E+00-2.67880E+00-4.96482E+00
 -1      2242 6.28342E+00 5.67660E+00 1.93845E+00-3.21861E-01 2.26471E+00 5.84421E-01
 -1      2243 3.32931E+00 1.58460E+00-1.43818E+00 7.12206E-01 1.75911E+00-8.71395E-02
 -1      2244 2.16125E+00 6.73939E-01 3.76245E-01-6.23052E-01 1.28325E+00 9.62933E-01
 -1      2245 2.03503E+00 3.39074E-01 3.57607E-01-7.27787E-01 2.07957E+00 7.90666E-01
 -1      2246 1.72968E+00 4.93412E-01-2.51582E-01-3.63441E-01 2.20951E+00 8.90158E-02
 -1      2247 1.25518E+00-6.97198E-01 7.14106E-01 1.08132E+00 1.88476E+00-1.20507E+00
 -1      2248 1.70027E+00-8.67321E-02 1.62786E+00 6.77076E-01 2.77111E+00-8.52903E-01
 -1      2249-2.02898E+00 2.65829E-01 4.81597E-01-1.00582E+00 9.19368E-01 3.49912E+00
 -1      2250 5.09347E+00 5.01217E+00 9.64245E-01-2.78036E-01 2.27866E+00 1.89779E-01
 -1      2251 2.28112E+00-3.50215E-01 8.15521E-01 1.47781E-02-2.75189E+00-2.06139E-01
 -1      2252-2.02179E+00-4.54032E+00-1.37684E+00 4.03349E-01 3.36217E+00 1.35859E+00
 -1      2253-5.74253E+00-8.30436E+00-6.47431E+00-1.36039E+00 4.45963E+00 1.01120E+00
 -1      2254 1.25487E+00 4.10244E-01-3.49111E-02-6.21298E-01-2.18934E+00-7.99535E-01
 -1      2255-3.25441E+00-2.56004E+00-3.75471E+00-2.02783E-01 1.83077E+00 4.51244E+00
 -1      2256-6.48482E+00-4.36107E+00-4.67473E+00-1.83992E+00 1.17204E-01 3.44932E+00
 -1      2257 9.67911E+00 7.79554E+00 1.92300E+00-1.10136E+00-1.51984E+00-7.97178E-01
 -1      2258 2.22852E+00 2.77373E+00 1.71585E+00-9.57722E-01-9.14043E-01-1.05507E+00
 -1      2259-3.54700E+00-3.30990E+00-1.11196E+00 5.59042E-01 1.11016E+00 2.16313E+00
 -1      2260-4.01447E+00-7.75733E+00-4.17202E+00 3.08767E-01 4.58812E+00 5.31586E-01
 -1      2261-6.69955E+00-1.10399E+01-4.17155E+00-1.44315E+00 5.16350E+00 1.26364E+00
 -1      2262-3.75385E+00-7.49979E+00-4.08205E+00-1.47266E-01-4.90946E+00 3.18431E-01
 -1      2263 6.23017E+00 4.85753E+00 3.04445E+00-4.19268E-01-1.33151E+00-7.78114E-01
 -1      2264 6.33824E+00 6.32514E+00 2.93897E+00-9.83791E-01-1.18807E+00-1.38566E+00
 -1      2265-1.09742E+00 8.95518E-01 9.88029E-01 7.34979E-01-6.34701E-01 2.16035E+00
 -1      2266-7.26463E+00-9.20776E+00-5.69558E+00 1.72077E+00-3.52615E+00 1.69579E+00
 -1      2267 1.58687E+00 1.29791E+00 1.09712E+00 2.18955E+00-2.14047E+00 9.68542E-01
 -1      2268 1.88416E+00 2.96701E+00 2.43824E+00 3.01104E-01 2.76953E-02-1.83874E+00
 -1      2269-7.30212E-01-5.43474E-02-1.27682E+00-2.67683E-01 5.31413E-01 1.31144E+00
 -1      2270 2.93918E+00 1.46586E+00 1.49782E+00 8.08839E-01-1.38702E+00 7.03644E-01
 -1      2271 1.22254E+01 1.14075E+01 1.51682E+00-1.59256E-01-2.05904E+00 1.72421E+00
 -1      2272-1.14397E-01 1.74746E+00 1.51844E-02 1.04375E+00-1.24634E+00 1.89110E+00
 -1      2273-1.49555E+00-5.77033E-01 7.00503E-01-9.49626E-01 9.51178E-01-4.62090E+00
 -1      2274 4.39358E+00 4.66745E+00 9.37122E-01-2.15389E-01-8.46305E-01-1.75323E+00
 -1      2275 6.79357E+00 1.09705E+01 5.90161E-01-1.48197E+00-4.79163E-01-1.26303E+00
 -1      2276-2.05327E+00-3.83453E-02 3.55488E-01 5.76117E-01-9.55231E-02 3.32430E+00
 -1      2277-3.70505E+00-4.38374E+00-2.40747E+00-5.72365E-01 4.71178E+00 2.48490E+00
 -1      2278 2.12235E+00-3.50609E-01 9.62510E-01 1.48520E+00-1.58503E+00 8.03142E-01
 -1      2279 1.05722E+00 1.70597E+00 2.05872E+00-2.81452E-01-2.44254E+00-3.22347E+00
 -1      2280 2.91962E+00-1.11414E+00-9.09754E-02 2.77638E-01 2.54599E+00-3.10418E-01
 -1      2281 1.12227E+01 9.24977E+00-1.61017E-01-7.79193E-01 5.69746E-01 2.25203E+00
 -1      2282 8.75016E+00 6.81319E+00 3.19848E+00 4.22025E-01 2.19801E+00-9.14819E-01
 -1      2283 1.46804E+00 2.77195E-01 1.22139E+00 6.80848E-01 1.55960E+00-1.41947E+00
 -1      2284 5.99935E+00 4.03917E+00 9.27335E-01 4.95767E-01-1.59594E+00 4.95889E-02
 -1      2285 5.33308E-01-5.43257E-01-1.71256E-01 1.12856E+00-3.48937E+00 1.79241E+00
 -1      2286-7.21783E-02-1.88529E-01 1.32645E+00-1.05699E+00 2.40682E+00 2.20828E+00
 -1      2287-5.78348E+00-6.82528E+00-6.70567E+00 1.01005E+00-4.65007E+00 1.74205E+00
 -1      2288 2.45181E+00 2.64340E+00 5.51444E+00-5.22570E-01-3.76604E+00-3.27951E+00
 -1      2289-5.84094E-01 2.76098E-01-4.11922E-01 1.28646E+00 3.64758E+00-2.89364E+00
 -1      2290 1.40823E+01 1.25470E+01-7.02178E-01 9.79678E-01 1.51040E+00 4.04905E-01
 -1      2291 2.63819E+00 2.17631E+00 1.17010E+00 2.87748E-01 1.26292E+00-1.24317E-01
 -1      2292 5.93683E+00 7.47267E+00 3.50626E+00 3.22242E-02-9.75855E-01-2.16332E+00
 -1      2293 6.34289E+00 5.39314E+00 3.80700E+00-5.73411E-01 1.42142E+00 6.84422E-01
 -1      2294 1.08882E+00 3.02712E+00 1.45347E+00-2.37360E-03-3.73490E-02-2.44031E+00
 -1      2295 9.03705E+00 6.34214E+00 3.15300E-01 1.81241E+00-7.74403E-02-1.53020E+00
 -1      2296 7.20001E-01 5.28580E-01 8.78235E-01 2.00423E+00-1.26603E+00 1.75736E+00
 -1      2297 7.39310E+00 7.37805E+00 2.85217E+00 7.78446E-01-4.53266E-01-7.21154E-01
 -1      2298-2.19968E+00-1.29193E+00-6.85661E-01-9.32429E-01-2.39054E+00-3.19956E+00
 -1      2299-1.66904E+00-1.65370E+00-1.60139E+00-7.50685E-01-2.47307E+00-9.28481E-01
 -1      2300 3.58929E-01 9.78086E-01 4.86493E-02-1.35207E+00-2.06419E+00-2.64275E+00
 -1      2301 3.15449E+00 1.66992E+00 1.43599E+00 4.86164E-01-1.41469E+00 3.63028E-01
 -1      2302 1.04367E+00 3.49103E-01 2.14796E+00-1.13873E+00 4.76259E+00 1.38690E+00
 -1      2303-7.84361E+00-5.08761E+00-6.87317E+00-1.04933E+00-2.70166E+00-6.03629E+00
 -1      2304 4.15841E+00 5.84391E+00 1.60889E+00 2.86853E-01 2.85708E-01 1.72118E+00
 -1      2305-2.77355E+00-4.69720E+00-1.41664E+00-1.58073E+00-4.76312E+00-2.15767E+00
 -1      2306 3.23204E+00 1.47465E+00 1.14137E+00-1.33707E-01-1.63034E+00-3.64570E-02
 -1      2307 6.17691E+00 7.66378E+00 1.48367E+00-1.14810E+00-1.35268E+00-5.09214E-01
 -1      2308 2.53370E+00 3.16463E+00 2.04812E+00 6.98290E-01 1.48669E-01-1.23181E+00
 -1      2309-4.71529E+00-2.10125E+00-3.79551E-01-1.02750E+00 2.26305E+00 3.56276E+00
 -1      2310-7.80588E-01 2.06507E+00-4.94013E-02-1.85995E-01-4.46448E-01-3.29969E+00
 -1      2311-1.58031E+00-1.38215E-01 6.03657E-01-1.47383E+00 1.98615E+00 1.91643E+00
 -1      2312-1.20632E+00-2.39602E+00 7.50362E-02 1.44585E+00-3.01966E+00 2.75316E+00
 -1      2313 3.05224E-01-1.63220E+00 5.57720E-01 8.42432E-01-2.21984E+00 9.38378E-01
 -1      2314 1.26135E+00-1.25946E+00 5.98605E-01 2.70523E-01 3.09402E+00 5.53515E-01
 -1      2315 7.67344E+00 7.99190E+00 2.29224E+00 1.27688E+00-4.58384E-01-1.70034E+00
 -1      2316-5.98645E-01 1.02537E+00-1.06661E+00 1.42661E-01 9.63694E-01-1.68385E+00
 -1      2317 2.06227E+00 3.50554E+00 2.24492E+00-2.27858E-02-3.17882E+00 3.17854E+00
 -1      2318-1.91062E-01 1.00723E-01 8.94206E-01-1.10134E+00 2.35489E+00 1.62690E+00
 -1      2319 5.53122E+00 5.29327E+00 1.10037E+00 5.54768E-01 1.80317E+00-1.05740E+00
 -1      2320 6.74313E+00 6.38381E+00 1.68963E+00 2.15900E+00 1.28285E+00-6.08128E-01
 -1      2321 3.45204E+00 7.11578E-02 2.84369E-01 2.79747E-01-1.19609E+00-4.04567E-01
 -1      2322 5.65944E-01 1.44928E-02 1.34761E+00-7.30321E-01-1.87869E+00-1.14024E+00
 -1      2323-5.60980E+00-4.44465E+00-2.10769E+00 3.28019E-01 1.00673E+00 2.35880E-01
 -1      2324-5.25248E+00-3.33814E+00-2.51249E+00 1.53498E+00-1.45359E+00 3.08322E+00
 -1      2325 3.81665E+00 4.39689E+00 2.17460E+00 9.15556E-01-7.74992E-01 1.17324E+00
 -1      2326-2.15010E+00 3.60816E-01 8.05991E-01-6.17236E-01-6.14229E-01-2.37035E+00
 -1      2327-1.71721E+00-3.28568E+00 1.00397E-01-7.31399E-02-1.06718E+00 2.77684E+00
 -1      2328 1.99617E+00 1.95422E+00 2.21572E+00-3.36728E-01-7.32614E-01 3.38093E+00
 -1      2329 3.51932E+00 2.47077E+00-3.13309E-01-1.11466E+00-1.56188E+00-1.05331E-01
 -1      2330-1.91683E+00-6.37338E+00-3.51683E+00 1.74865E+00-4.88305E+00 2.86823E+00
 -1      2331 3.88824E+00 4.28700E+00 3.92688E+00-4.69604E-01-2.28459E+00 1.61023E+00
 -1      2332 7.51877E+00 7.73622E+00 1.94808E+00 1.61239E-01-1.00266E+00 2.30409E+00
 -1      2333 6.41703E+00 6.65837E+00 3.62112E+00 9.77641E-01 1.38854E-01-1.89310E+00
 -1      2334 1.68217E+00 5.63994E-01-6.61815E-01-4.46910E-01-1.84071E+00-5.85994E-01
 -1      2335 6.44436E-02 2.42921E+00 1.37967E+00-2.76122E-01-3.20028E+00 3.81423E-01
 -1      2336-2.88057E+00-9.08624E-01-1.41093E+00 8.22926E-01-3.16012E+00 3.47998E+00
 -1      2337-1.22175E+00-1.87799E+00-6.17562E-02 1.20437E-01 4.14674E-01-2.20658E+00
 -1      2338-3.50448E+00-5.39524E+00-3.32283E+00-1.64775E+00 4.97317E+00 3.23182E+00
 -1      2339-3.48246E+00-3.66053E+00-6.26143E-01-2.85249E-01 1.56512E+00-1.84394E+00
 -1      2340 3.98833E+00 3.94517E+00 4.19266E+00-9.38125E-01-3.99500E+00 1.87392E+00
 -1      2341-2.89307E+00-5.99336E+00-2.74189E+00 7.35347E-01 3.81101E+00-7.30921E-01
 -1      2342-6.80270E-01 2.01429E-01 9.71678E-01-1.09430E-01-2.07698E-01-2.60182E+00
 -1      2343-6.25259E+00-5.35611E+00-2.70549E+00-2.19279E+00-2.25245E+00-3.04452E+00
 -1      2344-4.62191E+00-3.96274E+00-2.64396E+00-7.46713E-01-7.26324E-01-3.87864E+00
 -1      2345-7.23279E+00-4.09905E+00-3.04406E+00-2.98197E-01-1.13636E+00 4.75405E+00
 -1      2346 2.07900E+00 6.55003E-01 1.69438E+00 2.36847E-01-1.66782E+00 9.80739E-01
 -1      2347 1.43898E+01 1.58061E+01 1.78296E+00-8.75707E-01-2.46137E+00 5.75291E-01
 -1      2348-3.01311E+00-1.98418E+00 3.83839E-01-3.35775E-01 3.16430E+00-3.99383E-01
 -1      2349-2.13195E+00-1.89588E+00-2.02890E-01 5.19225E-01 2.77102E+00 1.09754E+00
 -1      2350-5.20629E+00-7.36351E+00-6.97212E+00 5.60461E-01 5.68763E+00-9.22025E-01
 -1      2351-6.34325E-02-5.28848E+00-1.48343E+00 1.55317E+00 3.87004E+00-1.74690E-01
 -1      2352-5.62681E+00-8.98054E+00-5.36439E+00 1.29579E+00 3.54770E+00-5.23860E-01
 -1      2353 4.74709E+00 7.85389E+00 1.19278E+00 7.87885E-01-1.73678E+00-1.72529E+00
 -1      2354 1.38638E+00 1.32887E+00 1.06876E+00-1.24067E+00-1.21925E+00-1.54055E+00
 -1      2355 5.80788E+00 7.29165E+00 2.90986E+00 5.91771E-01-5.24514E-01 1.49440E+00
 -1      2356 4.96995E+00 9.43086E+00 3.51803E+00-3.73573E-01-4.57299E+00 1.00991E+00
 -1      2357 6.08858E+00 5.29404E+00 2.27220E+00-1.74961E+00 4.91329E+00-3.67223E+00
 -1      2358 1.10333E+00-1.60920E+00 9.65714E-01-1.00281E-01 2.40792E+00-2.49728E-01
 -1      2359-1.54830E+00 1.25184E+00 6.93864E-01 2.06430E+00-2.04509E+00 2.00980E+00
 -1      2360-6.47361E+00-6.84528E+00-6.47630E+00 8.05496E-01-1.53896E+00-8.91241E-01
 -1      2361 1.25547E+00 2.69507E+00 2.17403E-01 4.21451E-01 2.18628E-01 1.77069E+00
 -1      2362 1.64952E+00 3.69504E+00 3.67635E+00-1.20783E-01-3.64443E+00-1.33581E+00
 -1      2363 4.13726E+00 6.12421E+00 1.63885E+00-9.19394E-01 4.54532E+00-2.56309E-01
 -1      2364 5.11535E+00 4.69608E+00 3.13655E+00 7.70470E-01-1.10349E+00 9.60034E-01
 -1      2365-5.29099E-01 1.11814E+00 6.96169E-01-7.37857E-01 4.82826E-01 2.75972E+00
 -1      2366-3.53539E+00-2.94047E+00-1.45700E+00-2.28558E-02-2.26361E+00 3.97713E-03
 -1      2367 9.83641E-01 2.28443E+00 1.05058E+00-8.26045E-01-1.41554E+00-1.81226E+00
 -1      2368 2.12542E+00 3.38503E+00 1.87526E+00 4.30964E-01-4.88261E-01 1.68887E+00
 -1      2369-8.74474E+00-8.98202E+00-2.00064E+00 1.68179E-01 9.93219E-01 3.77406E-01
 -1      2370 5.43545E-01 2.72596E+00-2.15538E-01-8.70797E-01 4.89860E-01 1.67488E+00
 -1      2371-2.04102E+00 1.30656E+00-2.24516E-01-5.34969E-01 2.18079E-02 2.77095E+00
 -1      2372-4.35106E+00-7.15001E+00-3.81729E+00-2.49604E-02-5.12738E+00-3.50731E-01
 -1      2373 1.64280E+00 4.45318E-01 2.48437E+00-1.63642E-01 2.04592E+00 3.08518E+00
 -1      2374 3.52364E-02 2.46576E-01 7.49365E-01-1.10915E+00-1.95887E+00-2.66296E+00
 -1      2375-5.70586E-01 1.64087E+00 8.91007E-01-1.96408E+00-1.63301E+00-2.63972E+00
 -1      2376 1.22615E+00 2.04043E+00 1.17644E+00 3.01005E-02-5.11928E-01 1.93226E+00
 -1      2377-6.82166E+00-1.10131E+01-8.61237E+00-3.89926E-01 4.10312E+00 2.07188E-01
 -1      2378-1.92365E-01 6.78542E-01 1.31849E+00 1.76325E-02-2.00451E-01 2.01000E+00
 -1      2379 2.37776E+00 4.06905E+00 2.40132E+00 1.49102E-02 1.52121E-01 1.26266E+00
 -1      2380-1.66577E-01 1.01593E+00 1.38699E+00-2.67979E-01 8.59726E-01 1.80065E+00
 -1      2381 1.61500E+00-4.74622E-01-1.26963E-01 6.15721E-01-1.00201E+00 1.43041E+00
 -1      2382-3.88637E+00-3.22718E+00-1.97244E+00 8.44932E-01-2.69724E+00 5.37961E+00
 -1      2383 5.26813E-01 2.46410E+00 7.80313E-01-3.79768E-01-1.15704E+00-1.69784E+00
 -1      2384 6.12081E+00 4.22372E+00 1.79033E+00 2.59434E-01-1.32859E+00-4.36621E-01
 -1      2385 3.63082E-01-5.92911E-01 1.16821E+00-2.75094E-01 2.34411E+00 9.32877E-01
 -1      2386-5.12410E+00-7.46887E+00-5.76631E+00-7.19175E-02-5.12914E+00 1.36977E+00
 -1      2387 1.04084E+01 4.61414E+00 6.86157E-01 8.03181E-01-1.30909E+00-1.08613E+00
 -1      2388-1.18267E+00-1.02364E-01 3.27706E-01 1.87009E+00 1.63447E+00-2.20045E+00
 -1      2389 1.61379E-02-1.26648E+00 7.10793E-01 6.52863E-01-2.16478E+00-1.07018E-01
 -1      2390 2.68446E+00 6.22704E-01 1.00208E+00 3.13576E-02 2.31642E+00-1.24092E-02
 -1      2391 4.92210E+00 6.87859E+00 1.68318E+00 8.83143E-02-1.79638E+00 7.38646E-01
 -1      2392 3.35707E+00 4.05883E+00 2.86581E-01-3.97823E-01 1.21081E+00 9.16477E-01
 -1      2393-2.72139E+00-2.83850E+00-4.44500E+00 4.33996E-01 1.39119E+00 4.60842E-01
 -1      2394 3.77094E+00 3.08434E+00-1.13013E-01-9.27557E-02 1.63760E+00 6.00446E-01
 -1      2395 6.54104E+00 7.32818E+00 3.17449E+00-5.74439E-01 7.19527E-01 1.64042E+00
 -1      2396 1.12546E+00 3.74858E+00 8.48702E-01-2.01619E-01-4.35570E+00 1.94243E+00
 -1      2397 2.05919E+00 1.18982E+00-2.07112E-01-1.85568E-01 1.63216E+00 5.28964E-01
 -1      2398 2.25885E+00-1.99751E-01 1.46929E+00 6.70857E-01 2.12264E+00-1.38089E+00
 -1      2399-8.67239E-01-2.97904E+00-1.57918E+00-1.28873E+00-2.75672E+00-8.69295E-01
 -1      2400 7.32488E+00 4.29255E+00 5.50440E+00 1.80808E+00-3.28117E+00-4.64435E+00
 -1      2401 4.90849E+00 5.78416E+00 4.61010E+00 1.36450E+00 2.73357E+00 2.26673E+00
 -1      2402 1.25397E+01 1.35463E+01 2.86175E-01 2.82487E-01-2.14059E+00-6.53356E-01
 -1      2403 1.40497E-01 7.62914E-01 5.34855E-01-8.80762E-01 1.70848E+00 2.09537E+00
 -1      2404-4.29466E+00-4.34869E-01-1.27902E-02-1.00624E+00 1.79682E-02 3.09224E+00
 -1      2405 1.54018E+00 3.04631E-02 5.16655E-01 2.10741E-01-1.98085E+00-5.33704E-01
 -1      2406 1.36196E+00 5.96233E-01-7.56556E-01-1.67620E-02-1.39922E+00-4.41391E-01
 -1      2407-3.20663E-01 3.33243E-01 2.92539E-01 1.75659E+00 2.05352E+00-2.61979E+00
 -1      2408 1.25362E+00 4.79454E+00 1.68082E+00-7.12097E-01-5.52176E-01-2.23671E+00
 -1      2409 3.37936E+00 4.79604E+00 2.90878E+00-5.45890E-01 1.16157E-01 1.34910E+00
 -1      2410-3.97635E+00-6.20722E+00-1.33960E+00-2.21990E+00 4.72219E+00 1.57142E+00
 -1      2411 7.71079E-01 1.59526E-02-7.71225E-01 6.11070E-01-1.09278E+00 1.16339E+00
 -1      2412 2.52382E+00 1.14464E+00 1.21407E+00-6.17520E-01-1.16720E+00 1.19710E+00
 -1      2413-7.25502E-01-2.29592E+00-7.46830E-01 4.91226E-01-5.86207E-01 3.02368E+00
 -1      2414 1.26750E+00 2.67532E+00 6.55818E-01-3.21306E-01 8.53023E-02 1.76439E+00
 -1      2415-5.51943E+00-6.47922E+00-4.27590E+00-1.02236E+00-3.58022E+00-4.83613E+00
 -1      2416 5.12641E+00 7.90496E+00 1.20064E+00-1.05128E+00-1.53884E+00 1.66409E+00
 -1      2417 4.05008E+00 1.66125E+00-8.55062E-02 3.01069E-01 1.70647E+00 1.19841E-02
 -1      2418-2.03595E+00-4.61196E-01-9.58692E-01 9.99247E-02-5.75639E-01 2.87583E+00
 -1      2419 1.52754E+00 1.65860E+00 1.12573E+00 1.14129E+00-1.34182E+00 1.18721E+00
 -1      2420 8.41238E+00 8.31918E+00 3.31469E+00 1.58700E+00 1.17115E+00-1.04313E+00
 -1      2421 1.63096E+00 2.41477E+00 2.77367E-01-6.66062E-01 9.05599E-01 8.76935E-01
 -1      2422 2.90922E+00 5.35670E-01 6.26019E-01 3.15184E-01 1.78165E+00-1.79679E-01
 -1      2423-7.29663E+00-7.50327E+00-7.00272E+00 9.30754E-01-4.62511E+00 3.53148E+00
 -1      2424 1.23495E+00 2.00608E+00 1.20311E+00-1.70540E+00 1.67350E+00 1.91966E+00
 -1      2425 1.51297E+00 1.37896E+00 4.96684E-01-7.47355E-01 1.53466E+00 1.46773E+00
 -1      2426-8.22577E-01-2.98777E-01 3.29489E-01 1.33854E+00 2.66168E+00-2.68341E+00
 -1      2427 1.07162E+01 1.06289E+01 3.71931E+00 1.08216E+00 9.14149E-01 6.43424E-01
 -1      2428 4.41791E+00 6.63801E+00-6.35699E-01-1.13572E+00 3.89341E-01 1.25015E+00
 -1      2429 7.62452E+00 7.14497E+00 7.59589E-02 1.53380E+00-2.10819E+00 1.00319E+00
 -1      2430-9.20070E+00-7.53585E+00-6.42161E+00-2.73840E+00-2.01164E+00-3.63876E+00
 -1      2431 5.20482E+00 7.30754E+00 2.89659E+00 9.80647E-01 3.72191E-01 1.96082E+00
 -1      2432 2.23048E+00 1.40071E+00-3.85730E-01-7.65404E-01-2.07521E+00-4.55388E+00
 -1      2433-3.90665E+00-7.68497E+00-7.11251E-01-1.74180E+00-3.29971E+00-4.18309E-01
 -1      2434-3.73551E+00-2.32025E+00 2.18150E-01-1.39572E+00 2.03730E+00 2.68830E+00
 -1      2435 7.45722E+00 6.57108E+00 1.81229E+00-2.13851E+00 1.00733E+00 1.37150E+00
 -1      2436 5.17039E+00 5.87234E+00 9.83264E-01 6.14377E-01 8.88876E-01-8.82429E-01
 -1      2437 5.63831E+00 4.84635E+00 2.33774E+00 7.97784E-01-1.66899E+00 6.52188E-01
 -1      2438 4.03936E+00 2.38777E+00 1.85534E+00-5.47517E-01-4.97194E+00 2.76417E+00
 -1      2439 2.69706E+00 1.77417E+00 4.24653E-01-8.98503E-01-1.37711E+00-1.29654E+00
 -1      2440 3.41102E+00 4.45766E+00 3.77849E-01-2.81089E-01 9.11961E-01 1.36307E+00
 -1      2441 1.08702E+00 1.99091E+00-9.64374E-02-1.09761E+00 1.39567E+00 1.90332E+00
 -1      2442 9.06314E+00 8.88620E+00 2.19324E+00 1.23031E+00-5.06232E-01 1.44576E+00
 -1      2443-5.77852E-01-7.91799E-01 1.19676E+00 9.51483E-01-1.65856E+00 2.48151E+00
 -1      2444 1.27519E+00 4.82886E-01-8.80726E-01 4.99988E-01-1.03711E+00 1.44401E+00
 -1      2445-3.54634E+00-3.73098E+00 1.48514E-01-3.61399E-01 9.33256E-01 3.07918E+00
 -1      2446 5.77770E+00 7.37461E+00 5.68515E+00 1.03806E+00-4.58257E+00-3.21546E-01
 -1      2447 2.15711E+00 1.88529E+00 1.80529E+00 4.61344E-01-7.32164E-01 1.40603E+00
 -1      2448-2.27368E+00-6.10128E+00-1.95399E+00 1.39434E+00-3.58216E+00 1.14087E+00
 -1      2449 1.10669E+00 2.63700E+00-9.59364E-01 3.26899E-01-5.14265E-01 1.56401E+00
 -1      2450 6.04952E+00 4.19344E+00 9.32582E-01-2.46201E-01 1.86197E+00 7.44371E-01
 -1      2451 3.18320E+00 2.82827E+00 2.87884E+00 1.39936E-01-1.39712E+00 8.08562E-01
 -1      2452 1.48883E+00 1.02559E+00 7.89915E-01 1.56291E+00-1.57120E+00 1.42440E+00
 -1      2453 2.68576E+00 2.07464E+00 2.56468E+00-4.25770E-02 1.37616E+00 1.14288E+00
 -1      2454 2.82522E+00 3.74692E+00 1.36709E+00-1.22213E-01-1.65777E-01 1.17702E+00
 -1      2455 3.81667E+00 3.12191E+00 4.39987E+00 3.64332E-01-4.81921E+00-1.53523E+00
 -1      2456 1.40113E+01 1.29741E+01 1.20644E+00-8.48048E-01 2.11763E+00-4.05334E-01
 -1      2457 1.12277E+01 8.64808E+00 1.76518E+00 2.00750E+00-1.70203E+00 9.49841E-01
 -1      2458-2.45295E+01-2.08838E+01-7.48110E+00 1.76282E+01 1.25897E+00 2.99594E-01
 -1      2459 1.54531E+01 1.60925E+01 1.05633E-01-6.65303E-01-2.72281E+00 1.77631E-01
 -1      2460-3.35035E+01-9.92103E+00-5.63942E+00 1.20492E+01 6.61083E-01 1.15772E+00
 -1      2461 5.73392E+00 5.43324E+00 2.36396E+00 7.46207E-01 8.44917E-01 3.16429E-01
 -1      2462 1.75301E+01 1.99581E+01 4.83170E+00-8.07970E-01-1.36966E+00-2.87586E+00
 -1      2463-2.72505E+01-2.62589E+01-3.12274E+00 2.47197E+01 3.17275E-01 5.14899E-01
 -1      2464 5.72296E+00 7.65339E+00 7.80876E-01 8.56560E-02 2.57548E+00-5.44182E-02
 -1      2465 1.38835E+01 1.37428E+01-1.59454E+00-1.45423E+00-2.19065E+00 2.43196E+00
 -1      2466-3.59256E+00-4.95794E+00-4.24825E+00-2.81333E-01-4.27733E-02 9.45726E-01
 -1      2467 1.41472E+01 1.26118E+01 6.52105E+00-5.09069E-01 3.61060E-02 5.63987E-01
 -1      2468 1.81802E+01 1.84251E+01 1.65482E+00-2.01126E+00 1.20744E+00-8.00803E-01
 -1      2469 1.42373E+01 1.09286E+01-2.29477E+00-8.54235E-01 1.12959E+00-2.29723E+00
 -1      2470-1.69453E+01-1.51853E+01-7.89031E+00 1.14811E+01-9.74534E-02-1.42831E-01
 -1      2471-2.16603E+01-2.11859E+01-5.15195E+00-1.89404E+01-2.77651E-01-6.72075E-01
 -1      2472 8.09908E+00 9.49359E+00 2.07025E+00-2.20922E+00 5.03869E-01-1.62047E+00
 -1      2473 1.48914E+01 1.49573E+01 1.98211E+00-4.52228E-01-1.63375E+00-1.91948E+00
 -1      2474 1.40067E+01 1.35787E+01 1.71155E+00 1.58697E+00 1.80012E+00 1.53989E+00
 -1      2475-1.99477E+01-5.47237E+00-5.89177E+00-9.80442E+00 2.94766E-01 6.91999E-01
 -1      2476-8.81303E+00-3.78499E+01-4.47272E+00-1.23142E+01 7.33011E-02-9.44656E-01
 -1      2477-2.25586E+01-3.03609E+01-1.54823E+01 1.72458E+01 1.54790E+00 2.16892E+00
 -1      2478 1.32725E+01 1.37127E+01 8.01184E-01 2.61309E-01-3.16692E+00 1.36388E+00
 -1      2479-1.44741E+01-3.40245E+01-9.04446E+00 1.23044E+01-1.17253E-01-8.58994E-01
 -1      2480-3.54209E+00-4.27742E+00 1.29445E+00-1.74795E+00 3.41214E-01 1.07840E+00
 -1      2481-2.69557E+01-2.95318E+01-9.16658E+00 2.22201E+01 2.73155E-01-9.18538E-01
 -1      2482-1.87823E+01-1.93960E+01-1.09622E+01 5.64339E+00 4.82082E-01 3.13752E+00
 -1      2483 1.52939E+01 1.97459E+01 3.15646E+00 1.34587E+00 9.88612E-01 2.37804E-01
 -1      2484-1.36654E+01-1.48087E+01-5.60044E+00-1.09391E+01 6.16656E-01-1.08272E-01
 -1      2485 6.13054E+00 1.03105E+01 3.66589E-01 2.58990E-01-8.67164E-01-1.50399E+00
 -1      2486-1.56319E+01-2.11842E+01-1.30098E+01 1.22980E+01-1.08062E+00 3.45960E+00
 -1      2487-4.57347E+00-5.27548E+00 9.57577E-01-6.02571E-01 1.21608E+00 1.70768E+00
 -1      2488-3.52299E+00-5.23642E+00 1.85074E+00-1.01881E+00 1.75814E-01 4.62345E-01
 -1      2489-4.08414E+01-3.52594E+01-1.02853E+01 3.11120E+01-1.39538E+00 4.36063E-01
 -1      2490-5.88425E+00-3.83868E+01-6.40100E+00-1.33948E-01 5.98777E-01 6.70016E-01
 -1      2491-1.40867E+01-3.69960E+01-1.05154E+01 1.13143E+01 7.07124E-01 5.35268E-01
 -1      2492-1.93273E+01-4.73876E+01-1.22515E+01 1.44785E+01 1.67735E-01 3.24098E+00
 -1      2493 1.96547E+01 1.61181E+01 3.75018E+00 2.76802E-01 1.85899E-01 1.93474E+00
 -1      2494 1.32720E+01 1.33273E+01 3.13440E+00 2.44864E+00 1.32735E+00 1.71292E+00
 -1      2495 2.75841E+00 3.39582E+00 2.90309E-01-2.79115E-03-3.69463E-01-1.21061E+00
 -1      2496-2.97927E+01-2.58769E+01-2.73897E+00 2.21141E+01 5.04445E-01 1.34779E+00
 -1      2497-4.04015E+01-3.98316E+00-5.74425E+00 1.14571E+00-3.65574E-01 1.34997E+00
 -1      2498-2.29630E+01-1.09746E+01-8.52400E+00 9.10235E+00-6.06958E-01-2.18477E-01
 -1      2499-2.03962E+01-6.81245E+00-7.39898E+00 5.83538E+00 5.66982E-01-2.81963E-01
 -1      2500 1.58624E+01 1.42064E+01 6.88222E-01-1.50563E+00 1.44788E+00-3.18459E+00
 -1      2501-2.60870E+01-3.36226E+01-8.55413E+00-2.06324E+01-2.24530E+00 2.97127E+00
 -1      2502-3.18555E+01-3.25038E+01-1.10878E+01-2.13464E+01 2.21209E-02 1.31740E-02
 -1      2503 1.55165E+01 1.76462E+01 3.18765E+00-1.53232E+00 1.41928E+00-8.46736E-01
 -1      2504 1.13609E+01 1.39884E+01-2.27791E-01-3.60661E+00 1.83714E-02-1.04742E+00
 -1      2505-6.26340E+00-2.01241E+01-1.03092E+01-8.25304E+00 1.83565E+00-2.52883E+00
 -1      2506 2.45990E+00 2.41274E+00 5.87988E-02-6.51080E-01 1.84642E+00 1.16228E+00
 -1      2507-9.17606E+00-2.16173E+01-9.21913E+00-5.35573E-01 1.25318E-01 2.03520E+00
 -1      2508 6.57514E+00 5.67295E+00 7.06024E-01 5.57739E-01-6.45072E-01 9.56870E-01
 -1      2509 1.83645E+01 1.58929E+01 3.47724E+00 1.38269E+00-8.54092E-01-1.16582E+00
 -1      2510-1.03424E+01-2.24343E+01-7.07755E+00 7.17208E+00 5.67344E-01 1.17271E+00
 -1      2511-2.26702E+01-8.53433E+00-1.16976E+01-5.76117E+00-2.29595E+00 9.05464E-01
 -1      2512-1.70910E+01-1.16114E+01-6.33096E+00 9.42582E-01 1.23479E-01 8.93220E-01
 -1      2513 1.30663E+01 7.87388E+00 1.49216E+00 1.22087E-01-1.61334E+00-5.54884E-01
 -1      2514 8.63495E+00 8.09913E+00 9.98911E-01-8.07912E-01 1.00650E+00-2.31090E+00
 -1      2515 7.98877E+00 7.31741E+00 1.78829E+00 1.07532E+00-1.31005E+00 1.72208E+00
 -1      2516 9.45862E-01-3.74314E+01-5.51489E+00-1.07526E-01 4.34647E-02-1.22389E+00
 -1      2517-1.41549E+01-3.99224E+01-1.24331E+01-1.16902E+01 5.31774E-01 7.71343E-01
 -1      2518-9.84305E+00-2.70899E+01-1.17907E+01-3.41906E+00 6.94348E-01 3.81586E+00
 -1      2519-2.25333E+01-3.68823E+01-9.33105E+00 2.13156E+01 4.04772E+00-3.88031E+00
 -1      2520-8.92817E+00-1.05969E+01-5.13126E+00-4.44226E-01 2.71014E-01-5.07687E-01
 -1      2521 8.66012E+00 1.17420E+01 2.44336E+00 6.27765E-01-8.42115E-01-2.33804E+00
 -1      2522-3.43028E+00-6.79015E+00 4.50189E-01 8.40652E-01 1.58308E+00 6.98733E-01
 -1      2523-1.50003E+01-3.51194E+01-6.46796E+00 1.66700E+01 2.18052E+00 1.67776E+00
 -1      2524-8.89800E+00-1.34747E+01-1.48996E+00 9.80152E-01-1.02999E+00 1.91289E-02
 -1      2525 1.59545E+01 1.48405E+01 1.20037E+00 6.50881E-01-8.80849E-01 2.58021E+00
 -1      2526-3.33137E+00-2.39967E+00 2.27307E+00 6.04282E-01 1.72588E+00-1.73588E+00
 -1      2527-1.57331E+01-1.33799E+01-5.53845E+00 1.17213E+01-1.84011E-01 1.39057E+00
 -1      2528 1.19572E+01 8.82293E+00 1.93384E+00 6.40985E-01 1.79207E+00-1.67931E-01
 -1      2529-1.18920E+01-1.90511E+01-1.01901E+01-4.75600E+00 2.88807E+00-5.29583E-01
 -1      2530-1.70043E+01-1.29201E+01-8.32698E+00 1.03125E+01-6.22291E-01-1.69565E+00
 -1      2531-2.10376E+01-2.54331E+01-8.55836E+00-1.81057E+01-3.96517E-02 1.91679E+00
 -1      2532-5.93768E+00-2.40113E+00 1.25902E+00-4.91011E-01-6.35850E-02-2.31247E+00
 -1      2533-2.00240E+01-3.82254E+01-1.03613E+01 2.21437E+01-2.66966E+00 2.09175E+00
 -1      2534-1.12236E+01-4.78498E+01-8.91658E+00 1.06951E+01 5.15638E-01 1.82991E+00
 -1      2535-1.06048E+01-2.89140E+01-1.28393E+01-1.27376E+01 4.61175E+00 1.36673E+00
 -1      2536-5.08529E+00-3.87258E+01-8.99991E+00-1.18672E+01-3.12909E-01-9.12660E-05
 -1      2537 7.60223E+00 5.17920E+00 2.35368E+00-2.74982E-01 1.63488E+00 5.75061E-02
 -1      2538-6.22693E+00-4.74558E+01-1.07780E+01-9.98457E+00-8.19245E-02-1.25742E+00
 -1      2539 7.39190E+00 5.65425E+00 4.30419E+00 7.11518E-01 1.57289E+00 1.10029E-01
 -1      2540-3.25271E+00-5.18396E+00 2.22806E+00 9.65356E-01-5.77961E-01 3.41532E-01
 -1      2541-9.37718E+00-3.57001E+01-9.41361E+00 8.00495E+00-1.08665E+00 4.72226E-01
 -1      2542-3.44349E+01-1.28943E+01-4.66366E+00-1.44082E+01-9.85197E-02 2.63474E-01
 -1      2543-1.30458E+01-3.49930E+01-9.20581E+00 1.08568E+01 1.22804E+00 1.44681E+00
 -1      2544 6.99222E+00 5.20652E+00 2.55771E+00 1.84427E-01 1.27149E+00-6.32571E-01
 -1      2545-1.30696E+01-2.04405E+01-8.32161E+00 1.33638E+01-7.99294E-01 5.05564E-01
 -1      2546-4.23171E+00-9.78024E+00 8.51377E-02 2.51549E+00 2.15420E+00 3.64440E+00
 -1      2547-4.27552E+00-4.54244E+00 1.19862E+00-1.26774E+00-3.61388E-01 2.18241E-02
 -1      2548-1.42912E+01-1.89457E+01-1.11186E+01 1.10121E+01-1.09540E+00 4.98771E+00
 -1      2549 3.06001E+00 3.17610E+00 1.17688E+00-9.16958E-01 1.98920E-01 1.21631E+00
 -1      2550-1.88089E+01-5.28147E+01-6.97625E+00-1.85000E+01-1.11382E+00 2.63953E+00
 -1      2551-6.20789E+01-5.94462E+00-1.11484E+01 3.93825E+00-4.57324E+00-2.15464E+00
 -1      2552 3.44438E+00 2.40035E+00 1.97393E-02-1.68387E-01-1.12470E+00-9.51001E-01
 -1      2553 2.56564E+00 2.48522E+00-1.78334E+00-1.13250E+00-1.47973E+00-8.14360E-01
 -1      2554-3.48105E+00-5.51177E+01-1.26431E+01 6.33786E+00 5.87236E-01 1.30016E+00
 -1      2555-3.51212E+01-3.76981E+01-1.36362E+01 2.36323E+01-7.24426E-01 2.41408E+00
 -1      2556 1.07991E+01 7.44354E+00 2.75001E+00-6.55735E-01 1.18958E+00 1.67514E+00
 -1      2557-2.94461E+01-4.64372E+00-9.34007E+00 1.30769E+00-2.21051E-01 2.44900E-01
 -1      2558-5.86073E+00-7.20705E+00 1.86796E+00-1.35709E+00 1.86357E+00 1.84613E+00
 -1      2559-4.58855E+01-1.42151E+01-1.11326E+01-1.43481E+01 2.66474E-01 1.87871E+00
 -1      2560 1.19831E+01 1.61687E+01 4.96641E+00 5.88114E-01-1.27414E+00 7.03591E-01
 -1      2561-2.37918E+01-2.83902E+01-1.73592E+01 1.83079E+01-1.35336E+00 3.34221E+00
 -1      2562-3.83559E+00-4.09944E+00 1.13469E+00 1.90318E+00 4.23531E-02 3.25858E-01
 -1      2563-2.73432E+01-1.04023E+01-8.87634E+00-1.08003E+01-9.95426E-01-1.59657E+00
 -1      2564 8.90446E+00 8.03695E+00 3.28697E+00 8.42551E-01 1.14126E+00 3.17768E-01
 -1      2565 7.20013E+00 5.59991E+00 1.90972E+00 1.20311E+00 3.41318E-01-1.24959E+00
 -1      2566-5.25438E+00-3.27599E+01-7.91400E+00-3.27321E+00-1.04726E+00 1.49088E+00
 -1      2567-9.02255E+00-5.24850E+01-9.74160E+00 3.21669E+00 7.47966E-01 7.16687E-01
 -1      2568-6.18019E+00-3.14615E+00 5.96522E-01 2.74939E-01-6.55958E-01 8.99470E-01
 -1      2569-5.73185E+00-3.29385E+01-1.01690E+01 2.76138E+00 1.24424E+00 1.60875E+00
 -1      2570-1.65059E+01-1.20185E+01-8.21028E+00-1.01835E+01-1.02985E+00 1.08049E+00
 -1      2571-1.70808E+01-1.71528E+01-8.27933E+00-1.11831E+01 1.45218E+00-8.11076E-01
 -1      2572-2.11647E+00-5.21597E+01-1.13996E+01 3.45832E+00-1.87128E+00-9.02393E-01
 -1      2573-2.69021E+01-6.12373E+00-5.87409E+00-1.10974E+01-2.44475E-01 2.62006E-01
 -1      2574-5.64521E+00-3.86663E+00 1.57461E+00-1.15307E+00-7.98788E-01-4.35099E-01
 -1      2575-1.07280E+01-2.66485E+01-8.42796E+00 1.13299E+01 2.92857E+00-5.01777E-01
 -1      2576-4.70306E+00-2.71191E+01-7.16504E+00-6.26732E-01 9.04658E-01-3.85932E-02
 -1      2577 3.47194E+00 1.86241E+00 1.93404E+00-2.08655E-01 1.72360E+00 5.08508E-01
 -1      2578 1.00747E+01 1.44088E+01 3.12128E+00 1.37548E+00-4.68466E-01 1.24494E+00
 -1      2579 9.85163E+00 8.32889E+00 1.83629E+00-1.55433E+00 1.21867E+00 5.55796E-01
 -1      2580-1.56596E+01-1.10594E+01-6.04125E+00 1.22494E+00 5.81724E-01 7.69710E-01
 -1      2581 8.45593E+00 1.14806E+01 1.90718E+00-4.39031E-01-2.35251E-01 1.73768E+00
 -1      2582-1.50316E+01-1.38911E+01-4.24372E+00-2.94193E+00-2.90197E-01 1.49499E+00
 -1      2583-3.11837E+00-4.84527E+01-4.14502E+00-1.07207E+00 1.11757E+00-2.44175E+00
 -1      2584 8.02170E+00 9.14999E+00 4.81579E+00-1.37835E+00 3.57476E-01 2.04337E+00
 -1      2585 3.18109E+00 3.67942E+00 2.05380E+00 9.87582E-02 1.39555E+00-1.73928E-01
 -1      2586 1.27111E+01 1.01446E+01 5.75543E+00 1.52448E+00 6.20033E-01-7.33615E-02
 -1      2587-1.18616E+01-3.04523E+01-8.55493E+00 1.38719E+01 1.26182E+00-3.26977E-01
 -1      2588-1.41837E+01-2.51889E+01-1.06674E+01 1.89996E+00 1.41795E+00 3.04956E+00
 -1      2589 9.44080E+00 1.15041E+01 3.16642E+00 1.93956E+00-1.03247E+00-1.86739E+00
 -1      2590-1.85234E+01-4.78555E+01-1.16627E+01-2.04050E+01 1.01006E-01 2.41563E+00
 -1      2591-1.43210E+01-4.96794E+01-6.35464E+00-1.31143E+01-2.54633E+00 2.29786E+00
 -1      2592-1.51883E+01-4.82144E+01-9.83891E+00-1.13549E+01 2.64768E+00 1.60744E+00
 -1      2593-4.76049E+00-2.94859E+00 1.85456E+00 1.29807E+00-8.91319E-02 3.31743E-01
 -1      2594 9.99741E+00 1.06343E+01 1.98003E+00 2.37155E+00-1.04415E+00 9.64769E-01
 -1      2595 7.72491E+00 1.01843E+01 2.70001E+00 8.01382E-01-1.38165E+00 1.53462E+00
 -1      2596-2.36787E+01-5.35665E+01-1.65985E+01 2.32611E+01 1.93349E+00-2.09548E+00
 -1      2597-6.17025E+00-3.25301E+00 1.52140E+00-1.54361E+00-3.38095E-01 7.17548E-01
 -1      2598-3.12520E+01-4.56013E+00-1.12378E+01 7.01770E-02 3.81339E-01-1.45274E+00
 -1      2599-6.03093E+00-2.96058E+00 1.21845E+00 2.35297E-01-9.25583E-02-7.93284E-01
 -1      2600-6.01280E+00-1.39546E+00 1.94115E+00-7.66877E-03-3.81103E-01-1.00069E+00
 -1      2601-1.34682E+01-1.59501E+01-1.11815E+01-9.78692E+00 1.83146E+00-1.20825E+00
 -1      2602-8.25378E+00-1.52323E+01 7.20585E-01 1.25673E+00 1.30994E-01 2.79745E+00
 -1      2603-4.61940E+00-3.17047E+00 3.01668E+00 1.02117E+00-9.54070E-01 1.25471E+00
 -1      2604-1.51233E+01-2.48236E+01-1.02450E+01 1.04673E+01 2.13640E+00 1.41315E+00
 -1      2605-3.87867E+00-4.49698E+01-8.79840E+00-1.41169E+01-1.14279E-01 2.32572E-01
 -1      2606-6.92917E+00-2.17665E+01-8.18876E+00-1.32158E+00 3.23021E-01-2.35499E+00
 -1      2607-3.92368E+00-4.17435E+00 2.06883E+00 4.31591E-02-1.19966E+00-1.71962E-01
 -1      2608-2.52815E+01-2.61138E+01-1.13442E+01 1.66952E+01 8.22627E-01-6.60123E-01
 -1      2609-5.37732E+00-3.09914E+01-1.09450E+01 2.56304E+00 3.32691E+00 1.24034E+00
 -1      2610 8.06950E+00 5.96401E+00 8.82627E-01 2.05338E+00-2.89736E-01 2.17770E+00
 -1      2611-4.17079E+01-1.24563E+01-6.83587E+00-1.11008E+01 4.44463E-01 2.66369E+00
 -1      2612-9.87840E+00-4.12581E+01-4.44031E+00-1.44557E+01-8.81156E-01-1.32706E+00
 -1      2613-4.16197E+01-1.73005E+01-5.15735E+00-1.77804E+01 2.76433E+00-1.75831E+00
 -1      2614-3.12362E+01-1.84592E+01-6.51717E+00-2.02560E+01 2.02869E+00-5.54039E-01
 -1      2615-5.00862E+00-2.97251E+00 2.61141E+00-1.00145E+00 3.54681E-01 6.43960E-01
 -1      2616-2.91096E+01-4.85512E+00-1.40940E+01-6.81133E+00-4.46959E+00-1.78241E+00
 -1      2617-5.45628E+01-1.29361E+01-1.07266E+01 1.32642E+01 2.43906E+00-5.94734E-01
 -1      2618-6.89421E+00-2.89787E+01-9.11729E+00-6.22659E-01-3.83792E-02-1.39251E+00
 -1      2619-6.43277E+00-7.91166E+00-3.16430E-01-3.68415E-01-8.12394E-01-1.07627E+00
 -1      2620-2.10653E+01-5.03809E+01-1.14789E+01-2.16105E+01-1.01344E+00-1.26563E+00
 -1      2621-1.17969E+01-4.83500E+01-8.10731E+00-5.55157E-01 2.08110E+00 7.03445E-01
 -1      2622-3.92924E+00-6.41579E+00 1.26369E+00-1.03265E+00 1.43977E+00-4.51660E-02
 -1      2623-5.07863E+00-7.94713E+00 4.19777E-01 1.81811E+00 1.16377E+00-1.38552E+00
 -1      2624-6.35777E+01-1.42527E+01-1.18124E+01-1.58070E+01-1.84828E+00 1.71744E+00
 -1      2625-9.71176E+00-5.15795E+01-1.42613E+01-1.46700E+01 6.39118E-01 4.20910E-01
 -1      2626-1.20232E+01-2.28818E+01-9.67879E+00 5.00297E+00 1.15603E+00 2.18261E+00
 -1      2627-3.04609E+01-3.02252E+01-9.48995E+00 2.14157E+01-1.76807E+00 5.64228E-02
 -1      2628-1.47057E+01-4.49338E+01-6.30703E+00 1.67913E+01-1.95729E-01-1.98199E+00
 -1      2629-2.93214E+00-5.21150E+00 9.45192E-01 3.51424E-01 2.12202E+00-7.50218E-01
 -1      2630-2.46289E+01-6.00156E+00-1.06623E+01 2.15775E-01-2.16215E+00-1.13462E+00
 -1      2631-5.85765E+00-9.65949E+00-1.02708E+00 6.05681E-01-1.10338E+00 1.62974E+00
 -1      2632-4.06169E+01-1.08888E+01-5.04944E+00 1.37126E+01-7.03526E-01-1.03569E+00
 -1      2633-3.98871E+01-1.37166E+01-7.94241E+00 1.74849E+01 1.48978E+00-5.15144E-01
 -1      2634-2.12284E+01-9.27851E+00-1.06238E+01 7.00699E+00 1.63839E+00 5.51624E-01
 -1      2635-3.19554E+00-7.20625E+00 2.38491E+00 3.37217E+00 1.70134E+00 5.52827E-01
 -1      2636-9.45248E+00-8.25286E+00-6.89857E-02 1.25403E+00-9.20478E-01 1.63687E+00
 -1      2637-5.05122E+00-3.11083E+00 1.73880E+00 1.05866E+00-2.10594E-01 4.68604E-01
 -1      2638-1.84572E+01-1.58301E+01-5.54810E+00-1.47284E+01-7.49448E-01-1.27006E-01
 -1      2639 2.53020E-01-5.28511E+01-7.37029E+00 3.29828E+00 5.58825E-01-2.09708E+00
 -1      2640-2.79257E+00-6.14880E+00 1.40534E+00-1.09801E-01-3.56588E-01-3.47275E-02
 -1      2641-5.48632E+01-1.58517E+01-1.36501E+01-1.02629E+01-2.55583E+00-2.18672E+00
 -1      2642-3.33612E+01-1.19791E+01-8.59898E+00 1.29315E+01-9.22419E-01 8.92178E-01
 -1      2643-4.59642E+00-5.93505E+00 1.07046E+00 1.03736E+00-3.30518E-01 5.27316E-01
 -1      2644-1.68021E+01-1.00216E+01-1.00558E+01 9.98487E+00 1.67788E+00 1.07234E+00
 -1      2645-2.97667E+01-3.97781E+01-7.94297E+00-3.05705E+01 1.36783E+00-3.35777E+00
 -1      2646-3.43889E+01-1.60619E+01-1.00372E+01 1.61867E+01 1.24190E+00 2.34801E+00
 -1      2647-3.65292E+01-1.91313E+00-3.99964E+00-5.57198E-01 1.69087E-01-1.67095E+00
 -1      2648-2.71654E+01-3.67089E+01-1.20601E+01-2.66847E+01 1.01419E+00 5.25807E-01
 -1      2649-4.59373E+01-3.91699E+00-5.44053E+00-7.14058E+00-2.44470E+00-5.49664E-02
 -1      2650-2.39007E+01-1.73470E+01-9.89056E+00-1.70247E+01-2.89887E-02 1.36447E-01
 -1      2651-3.39387E+01-8.30530E+00-1.08167E+01 6.63938E+00 1.45396E+00-1.03195E-02
 -1      2652-6.13414E+00-4.04018E+01-1.21250E+01 4.08023E+00-2.97752E+00-2.38241E+00
 -1      2653-1.09837E+01-4.35834E+01-1.13843E+01 8.74863E+00-2.79882E+00-9.09103E-01
 -1      2654-1.12523E+01-2.30724E+01-1.36659E+01-5.60480E+00 6.22672E-01-3.95119E+00
 -1      2655-2.18928E+01-1.55624E+01-6.30557E+00 1.57693E+01-4.49115E-01 1.20345E+00
 -1      2656-1.25920E+01-1.78782E+01-6.79305E+00-7.41422E-01-1.68595E+00-3.37604E-01
 -1      2657-1.66629E+01-1.44605E+01-1.48693E+01-8.43770E+00 2.27483E+00-1.45194E+00
 -1      2658-7.15425E+00-4.03827E+00 1.37209E+00 6.70916E-01-3.20245E-01-5.25148E-01
 -1      2659-2.22505E+01-1.24774E+01-8.76549E+00-4.98584E+00 2.40996E+00-1.71955E+00
 -1      2660-1.04243E+01-3.00476E+01-1.19282E+01 1.07493E+01-7.84941E-01-1.04663E+00
 -1      2661-6.00136E+00-4.14514E+00 2.36757E+00 1.32124E+00-7.04206E-01 8.33183E-01
 -1      2662-2.20335E+01-1.52745E+01-9.09779E+00 1.78064E+01-2.98502E+00 1.21491E+00
 -1      2663-3.77225E+00-3.65967E+00 1.32782E+00 2.02142E+00-4.20844E-01 3.40540E-02
 -1      2664-1.05623E+01-1.60623E+01-8.49576E+00-9.21895E+00-2.01455E+00 1.62987E+00
 -1      2665-2.30887E+00-9.15126E+00 2.85962E+00 2.75226E-01 2.40935E-01 2.21502E+00
 -1      2666-7.19636E+00-3.75877E+01-1.23282E+01-1.10525E+01-1.86770E+00-1.79450E+00
 -1      2667-2.21533E+01-5.11781E+01-1.17244E+01 2.13617E+01 1.27848E+00 2.76071E+00
 -1      2668-3.15044E+00-3.34441E+01-7.75497E+00-2.46396E+00 3.35213E-01 5.79298E-02
 -1      2669-8.42932E+00-3.25047E+01-1.06722E+01 1.05555E+01-2.77745E+00 2.98153E+00
 -1      2670-2.32113E+01-1.25907E+00-8.80562E+00-1.47954E+00 1.41960E+00-1.40848E+00
 -1      2671-4.88306E+01-6.43818E+00-8.51174E+00 1.44680E+01 3.76757E+00-1.88143E+00
 -1      2672-1.14158E+01-6.89382E+00 4.28282E-01-3.44221E+00 8.88789E-01-1.99700E+00
 -1      2673 1.41250E+01 1.20970E+01 4.08160E+00 2.64902E+00 1.27577E+00-1.02292E+00
 -1      2674-3.70958E+00-3.24973E+01-9.47524E+00 3.37252E+00-2.47853E+00-6.95541E-02
 -1      2675-1.98524E+01-8.76431E+00-1.19603E+01 5.48679E+00 3.86185E+00 5.12356E-01
 -1      2676-2.77026E+01-3.74325E+01-9.66644E+00-2.56767E+01-1.28139E+00-5.72863E-01
 -1      2677-1.19367E+01-1.75067E+01-7.30757E+00 1.11968E+01 1.38832E-01-1.81269E+00
 -1      2678-3.09098E+00-5.70796E+00 1.13846E+00 1.01611E+00 3.06476E-01-2.42257E-01
 -1      2679 1.15839E+01 1.38086E+01 3.84151E+00-9.61003E-01-1.57877E+00 5.61163E-01
 -1      2680-9.95854E+00-4.00095E+01-5.16874E+00 1.30210E+01-1.28493E+00-1.69006E+00
 -1      2681-1.95550E+01-1.98952E+01-1.02500E+01 1.59197E-01 4.90834E-01-1.80940E+00
 -1      2682 1.58248E-01-5.27308E+01-9.95487E+00-4.68833E+00 1.49858E-01-3.01784E+00
 -1      2683-6.16283E+00-1.33583E+00 3.10060E+00 8.15727E-02-9.53563E-02-4.32771E-01
 -1      2684 2.30066E+01 2.05570E+01 8.08102E+00 4.72675E-01 1.32331E-01 1.68044E+00
 -1      2685-1.43246E+01-3.88442E+01-1.49452E+01 1.36217E+01 3.21516E+00-6.66216E-02
 -1      2686-2.22589E+00-3.41893E+01-1.01716E+01-3.89235E+00-2.50973E+00 3.63139E+00
 -1      2687-8.78845E+00-5.55091E+00 3.48377E-02-1.85692E-01-1.31826E+00 1.78704E+00
 -1      2688-4.75525E+00-4.75430E+00 9.97685E-01 1.30575E-01 1.37960E+00 7.97511E-02
 -1      2689-8.83047E+00-2.00268E+01-8.72902E+00-8.36413E+00-2.48748E-01 7.15475E-01
 -1      2690-7.94670E+00-6.83058E+01-1.64909E+01 3.62326E+00-3.15470E+00-1.31269E+00
 -1      2691-2.26836E+01-4.81750E+01-1.62184E+01 2.03831E+01-5.88713E-01-3.26216E+00
 -1      2692-4.10280E+01-1.70476E+01-4.08474E+00 1.95940E+01-1.94546E+00 1.43313E-01
 -1      2693-6.60302E+00-1.02513E+00 4.56496E+00 2.77488E-01-2.61542E-01-1.64090E+00
 -1      2694-4.18561E+00-3.78301E+00 3.45386E+00 2.53293E+00 3.40127E-01-1.56393E+00
 -1      2695-5.02206E+00-3.64762E+01-1.12176E+01 6.98030E+00 2.77860E+00-2.26216E+00
 -1      2696-8.30535E+00-4.42978E+00 3.49044E-01-5.36902E+00 7.41740E-01-2.39371E+00
 -1      2697-7.92039E+00-3.03356E+01-9.05465E+00-9.21060E+00-2.45331E-01 2.78619E-01
 -1      2698-3.03762E+01-2.46728E+01-1.24619E+01-1.64073E+01 6.25859E-01-5.06764E-01
 -1      2699-6.98160E+01-1.56604E+01-1.09581E+01 1.41170E+01 1.54202E+00-8.05059E-01
 -1      2700-1.78913E+01-2.83350E+01-1.03119E+01-1.73031E+01 2.53002E+00 1.57753E+00
 -1      2701-4.90143E+01-5.34700E+00-5.35129E+00-9.16265E-01 1.27311E+00-6.88308E-01
 -1      2702-5.82862E+01-2.26747E+00-3.38288E+00-9.73666E+00 2.48857E-01 8.12181E-01
 -1      2703-2.79108E+01-2.05683E+01-1.13977E+01-2.08097E+01-1.35028E+00-1.78549E-01
 -1      2704 1.70648E+01 1.86561E+01 2.22061E+00-1.70487E+00-2.61540E+00 6.49774E-01
 -1      2705 1.21809E+01 7.97437E+00 2.92633E+00-5.58351E-01-1.44072E+00 2.16050E-02
 -1      2706-6.99004E+00-4.50556E+00 9.12352E-01 8.10567E-01 6.19200E-01 1.46030E+00
 -1      2707-4.43165E+00-7.47646E+00 1.30723E+00-7.00010E-01-1.66458E+00-8.81663E-01
 -1      2708-2.16425E+01-1.04899E+01-8.09354E+00-8.45472E+00-1.73374E+00 2.73485E+00
 -1      2709-4.51344E+00-8.18573E+00 1.33150E+00 1.94107E-01 2.62167E+00 8.26733E-01
 -1      2710-8.15946E+00-2.13393E+01-7.22242E+00-9.97198E+00 1.12674E+00 2.07729E-01
 -1      2711-5.21851E+00-3.18679E+00 4.56617E+00-2.23120E+00 1.84141E-01 3.49144E+00
 -1      2712-4.07740E+00-3.94215E+00 1.31611E+00 1.55761E+00 8.03411E-01-6.49657E-01
 -1      2713-2.23927E+01-2.91561E+01-1.06357E+01-2.35490E+01 6.25781E-02 4.49549E+00
 -1      2714-2.39888E+01-3.80635E+01-9.57112E+00 2.01865E+01 2.60497E+00-6.07497E+00
 -1      2715-1.16188E+01-4.01593E-01 1.05753E+00-1.13261E+00-1.19683E+00 1.16401E+00
 -1      2716-1.55968E+01-6.28503E+01-1.06702E+01 2.40163E+01-5.74168E-01-5.78038E+00
 -1      2717-3.61569E+01-2.45047E+01-9.28476E+00 3.04995E+01-1.21374E+00-1.51169E+00
 -1      2718-1.07468E+01-5.75218E+01-1.26528E+01 1.48938E+01-2.11030E+00 1.78268E+00
 -1      2719-5.67485E+01-4.55154E+00-1.34632E+01 7.35786E+00-1.10798E-02 1.21167E+00
 -1      2720-6.08715E+01-6.72399E+00-1.15455E+01-4.29544E+00-9.70312E-01 5.15479E+00
 -1      2721-8.03393E+00-5.26124E+01-5.61783E+00 1.19139E+00 2.10660E-01-2.45378E+00
 -1      2722-2.40476E+01-1.07980E+01-1.31541E+01 8.62343E+00-3.24560E+00-1.07779E+00
 -1      2723-1.32910E+00-3.70023E+00 3.39754E+00-1.58775E+00-7.49628E-01 5.10030E-01
 -1      2724-1.26377E+01-2.03655E+01-1.08498E+01 6.17519E+00 3.46849E+00 3.94833E+00
 -1      2725-2.21436E+01-9.32602E+00-1.23111E+01 1.01883E+01 2.35147E-01 3.46067E+00
 -1      2726-9.81362E+00-4.33903E+01-1.20659E+01-1.15109E+01-1.79862E+00-1.58301E+00
 -1      2727-4.46980E-01-5.22244E+01-1.09993E+01-3.36025E+00-6.74591E-01 1.89358E+00
 -1      2728-1.98922E+00-8.93432E+00 9.19582E-01-2.15088E+00 1.15067E+00-6.28604E-01
 -1      2729-4.50071E+01-6.30764E+00-9.48728E+00 1.50628E+01-1.95643E+00 2.70783E+00
 -1      2730-3.83816E+01-6.56278E+00-9.08591E+00-3.02819E+00-8.40527E-01 2.49485E+00
 -1      2731-8.49170E+00-4.50422E+01-3.44379E+00-9.65838E+00 1.73574E+00-3.21729E+00
 -1      2732-5.29245E+00-5.61380E+01-1.13675E+01-1.53926E+01-3.10196E+00-1.08132E+00
 -1      2733-6.77896E+00-1.07413E+00 3.84443E+00-9.52913E-01-3.10307E-01 6.55001E-01
 -1      2734-2.89859E+01-1.27973E+01-1.48943E+01 1.23474E+01-7.22542E-01 1.21514E-01
 -1      2735-4.86632E+00-4.31238E+00 8.45430E-01 6.29905E-01 8.23759E-02 1.01046E+00
 -1      2736-4.48979E+01-1.59635E+01-1.50524E+01-1.87208E+01 3.63273E+00 4.10550E+00
 -1      2737-3.44002E+01-6.13147E+00-7.92633E+00 1.09983E+00 1.00633E+00-2.21354E-02
 -1      2738-4.04022E+01-3.32462E+00-1.32858E+01 2.02066E+00-6.79196E-01-2.73010E+00
 -1      2739-1.91279E+01-3.38631E+01-1.29523E+01-1.88861E+01 5.67064E-01 2.68676E+00
 -1      2740-3.30037E+01-2.51740E+01-1.61128E+01 1.89887E+01 2.56826E+00-9.57498E-01
 -1      2741-3.94044E+01-7.29757E+00-9.06950E+00-1.18547E+01 2.35557E-01-2.09254E+00
 -1      2742-2.37828E+01-5.52354E+00-7.37652E+00 4.88776E+00 1.55478E+00-2.94776E-01
 -1      2743-9.48548E+00-5.43284E+01-1.64017E+01 3.69150E+00-5.20032E+00-4.46221E-01
 -1      2744-6.62849E+00-6.55169E+00 2.50826E-01-1.23111E+00 1.14875E+00-3.66256E-01
 -1      2745 9.06773E+00 7.94985E+00 2.03105E+00-1.84015E+00 1.02143E+00 3.21718E-01
 -1      2746-2.21844E+01-6.42545E+00-9.80264E+00-1.74355E+00-2.00139E+00 7.65145E-01
 -1      2747-6.61496E+01-1.17054E+01-1.64293E+01-9.76851E+00-5.63081E-01 7.56215E-01
 -1      2748-2.53646E+01-8.98130E+00-1.33771E+01 1.45119E+00 2.67814E+00 8.27799E-01
 -1      2749-3.20226E+01-1.25992E+01-9.44436E+00-1.25367E+01-1.75876E-02-1.12658E+00
 -1      2750-5.75404E+01-2.76393E+00-1.58421E+00-7.56727E+00-8.47567E-01-1.80980E+00
 -1      2751-2.41650E+01-1.49104E+01-1.13914E+01-3.22041E+00 2.76461E+00-3.69049E-01
 -1      2752-6.19082E+00-3.01244E+01-9.56878E+00-1.51505E+01-1.96584E+00 6.42642E-01
 -1      2753-5.77739E+00-2.96848E+01-1.31984E+01-9.69005E+00-1.58566E+00-5.18021E+00
 -1      2754-3.24541E+01-3.04397E+00-8.69950E+00-2.72045E+00 8.50940E-01-1.18158E+00
 -1      2755-2.95027E+01-1.02010E+01-8.73937E+00-1.51953E+01 1.02054E-01 2.12832E+00
 -1      2756-2.45450E+01-1.01449E+01-6.62106E+00 1.03249E+01 2.36021E-01-4.95126E-01
 -1      2757-4.32360E+01-1.58043E+01-1.31701E+01-1.79343E+01-8.14061E-01 1.40073E+00
 -1      2758-6.78249E+01-9.19277E+00-1.48255E+01 7.24400E+00-2.00462E+00-1.99202E+00
 -1      2759-2.23784E+01-1.44485E+01-8.40531E+00-1.60385E+01-2.12262E+00-3.22085E-01
 -1      2760 6.68413E+00 6.25144E+00 1.20536E-01 3.08115E-01-6.29017E-01 2.26842E+00
 -1      2761-3.85650E+00-1.95539E+00 4.31289E+00-1.46512E-01-2.58635E+00-1.06618E-01
 -1      2762-2.12821E+00-6.15727E+00 3.21329E+00-9.79902E-01 1.21680E+00-6.44422E-01
 -1      2763-6.49942E+01-6.56399E+00-1.47920E+01 4.39136E+00 6.20504E-01-9.18530E-01
 -1      2764-3.58458E+01-3.95223E+00-1.36388E+01-2.91322E+00-8.20022E-01 1.70418E+00
 -1      2765-2.97746E+00-3.16407E+00 3.60643E+00 1.00559E+00-9.40119E-01 1.28841E+00
 -1      2766-7.55595E+01-7.97702E+00-1.59414E+01 3.51874E+00 3.60211E+00-9.96139E-01
 -1      2767 2.18632E+00 1.22190E+00 6.81850E-01-2.28663E-01-9.66577E-01 1.47815E+00
 -1      2768-1.76219E+01-1.00462E+01-7.93930E+00-1.07136E+01-1.02872E+00 1.54283E+00
 -1      2769-1.37565E+01-1.52742E+01-6.12243E+00-3.24496E+00-1.01990E+00 1.83769E-01
 -1      2770-2.84455E+01-2.18992E+01-1.41789E+01 2.14185E+01-1.31872E+00 5.00511E+00
 -1      2771-1.14330E+01-1.21602E+01-4.73621E+00-6.08993E+00 9.07334E-01-8.95149E-01
 -1      2772-9.95030E+00-5.09970E-01 3.48958E+00 1.07103E+00-1.53761E+00 1.87741E+00
 -1      2773-3.03520E+00-5.27887E+00 1.74542E+00-7.80526E-01-6.18396E-01-9.50586E-02
 -1      2774-1.79201E+01-2.36225E+01-4.00695E+00-6.79742E-01-2.39009E-01-4.61452E-01
 -1      2775-6.72741E+01-1.44143E+01-1.36697E+01-8.82511E+00-1.94188E+00-4.69360E-01
 -1      2776-7.53139E+00-2.40163E+01-1.07389E+01-4.09127E+00 1.11210E+00 1.69942E+00
 -1      2777-5.33385E+01-1.35405E+01-8.91086E+00-1.69437E+01-4.47993E-02 3.84249E-01
 -1      2778-1.16487E+01-1.07413E+01-7.68300E+00 2.59104E-01-2.35678E-01-1.31409E+00
 -1      2779-1.56793E+00-4.79755E+01-4.70782E+00-3.78912E+00-4.50200E-01 1.17737E+00
 -1      2780-3.66839E+00-5.32172E+01-1.14696E+01 2.70372E+00 1.89740E-01 7.68113E-01
 -1      2781-8.81869E+00-4.97597E+00-4.85990E+00 3.20589E-01-4.22797E-01 5.71611E-01
 -1      2782-4.90553E+00-6.26381E+01-1.49911E+01-1.58227E-01-2.95086E+00 1.35177E+00
 -1      2783-5.41661E+00-5.26338E+01-1.61711E+01-4.12766E+00-2.47723E+00 2.89816E+00
 -1      2784-5.38768E+00-2.74721E+01-9.97439E+00-3.08151E+00 1.82942E+00-1.52430E+00
 -1      2785-1.44580E+00-6.25176E+00 4.07697E+00-5.01617E-01 5.34497E-01 1.62275E+00
 -1      2786-5.68294E+01-2.03238E+01-1.24476E+01 1.53105E+01 4.09057E+00-4.25744E-01
 -1      2787-3.81769E+01-6.08698E+00-8.51438E+00 1.48200E+00-1.74446E+00 1.19930E+00
 -1      2788-6.19881E+00-2.08963E+01-1.00834E+01-1.18496E+01 7.41032E+00 8.33756E-01
 -1      2789-2.21388E+00-4.24881E+00 1.91287E+00 9.08462E-01 3.39402E-01-4.68829E-01
 -1      2790-5.10002E+00-3.11465E+00 2.14907E+00 9.57012E-02 9.70735E-02 5.84516E-01
 -1      2791-3.80648E+00-5.83121E+00 2.36029E+00-5.26280E-01-1.05589E+00 9.28082E-01
 -1      2792-5.46595E+01-9.46124E+00-1.10368E+01 1.44352E+01-2.78115E+00 1.34255E+00
 -1      2793-2.02727E+01-2.82589E+00-5.16274E+00 6.17951E+00-9.39137E-01-1.28945E+00
 -1      2794-1.78064E+01-3.47675E+01-4.75515E+00-1.74717E+01 6.87823E-01-2.63955E+00
 -1      2795-3.84250E+01-1.83754E+01-1.40896E+01-1.95431E+01-1.12532E+00-2.74028E+00
 -1      2796-1.44809E+01-5.94751E+01-1.50333E+01 1.54040E+01 1.17566E+00 1.66437E-01
 -1      2797 1.37573E+00-3.94404E+00 5.34238E+00 2.14933E+00 1.49944E+00 3.32204E-01
 -1      2798 7.23897E+00 8.34740E+00 1.40930E-02-7.66067E-01-9.92644E-01-2.39821E+00
 -1      2799-3.31001E+01-1.08846E+01-9.92776E+00 8.62977E+00 4.50219E-01-7.70064E-01
 -1      2800-3.70159E+00-6.56584E+01-8.80796E+00 3.62185E+00 1.01530E+00 1.29220E-01
 -1      2801-3.56049E+01-2.13688E+01-2.39438E+00 2.17636E+01 8.17267E-01 2.80724E+00
 -1      2802-2.91122E+00-2.92524E+01-8.37910E+00 4.96274E+00 3.66246E+00 2.66682E+00
 -1      2803-8.23854E+00-9.94046E+00 1.52941E-01-1.16227E+00 2.03482E+00 6.17295E-01
 -1      2804-1.80692E+01-2.30824E+01-1.08409E+01-1.07914E+01 6.60546E-01-2.72911E-01
 -1      2805-3.72004E+01-1.78780E+01-8.04437E+00-1.64386E+01 2.28229E-01 1.99189E-01
 -1      2806-2.98967E+00-5.92256E-01 3.17081E+00 8.28995E-01 9.21451E-01 4.53756E-01
 -1      2807-1.95305E+01-1.42998E+01-8.51076E+00 1.28764E+00 7.89723E-01 2.44708E-01
 -1      2808 1.84316E+01 1.58185E+01 2.46753E+00 2.31401E+00-1.09746E+00-2.83988E+00
 -1      2809-3.94692E+01-2.65709E+01-1.61567E+01 2.75057E+01-2.93571E+00-1.11905E+00
 -1      2810-4.60938E+01-5.87816E+00-1.51616E+01-3.67790E+00-7.14706E-01 2.39237E+00
 -1      2811-1.92983E+00-7.66000E+00 2.78707E+00-5.01637E+00-4.40095E-01 1.93003E+00
 -1      2812-2.98495E+01-5.68209E+00-1.14631E+01 7.77206E+00-2.38446E+00-3.41276E-02
 -1      2813-6.16974E+00-6.44238E+00 1.42151E-01 1.14230E+00 1.67864E+00-1.29964E-01
 -1      2814-6.93389E+00-9.55659E+00 1.32745E+00 5.29435E-01-2.00622E+00 1.92580E-01
 -1      2815-5.50598E+00-9.17141E+00 2.13757E+00 2.36516E+00 4.52694E-02 1.86542E+00
 -1      2816-1.99302E+01-2.24244E+01-3.20352E+00-3.48174E+00 1.80766E+00 1.81346E+00
 -1      2817-1.22910E+01-1.59689E+01-3.65761E+00 8.72930E-02-8.29231E-01 5.99104E-01
 -1      2818-9.17334E+00-4.64358E+01-7.02701E+00 6.27900E+00 1.44428E+00 1.88579E+00
 -1      2819-2.43313E+01-7.49490E+01-1.43959E+01 1.82297E+01 3.89370E+00 1.31579E+00
 -1      2820-1.28977E+01-5.89738E+01-7.15197E+00 4.92235E+00 1.68029E+00 1.47872E+00
 -1      2821-3.02722E+01-1.66364E+01-7.47579E+00-1.97022E+01 1.89315E+00 1.45922E+00
 -1      2822-8.09459E+00-4.34651E+01-1.04048E+01 1.03660E+01-3.21260E+00 2.67213E+00
 -1      2823 1.08782E+00-8.75688E+00 3.48380E+00-1.29710E+00 1.66036E+00 1.54693E+00
 -1      2824-4.14974E+00-4.53411E+00 1.93005E+00-3.46974E+00 2.01805E+00-8.77251E-01
 -1      2825-6.47954E+00-7.99233E+00-6.21048E-03-2.83413E-01 1.54808E+00-6.08522E-01
 -1      2826-2.58682E+01-5.09610E+01-1.24704E+01-1.73148E+01-1.20030E+00-1.46178E+00
 -1      2827-5.83860E+01-4.07800E+00-8.12962E+00-5.89739E+00-6.94605E-03-4.61870E+00
 -1      2828-1.92394E+01-2.37744E+01-1.20882E+01-1.25020E+01 1.08451E+00 3.87589E-01
 -1      2829-1.76156E+00-9.04498E+00 3.83371E+00-1.36761E+00-1.02112E+00 1.93611E+00
 -1      2830-1.81936E+00-1.66622E+00 4.50916E+00 1.50742E+00 2.02664E-01-1.56174E+00
 -1      2831-2.31403E+01-4.14241E+01-1.44539E+01 1.78936E+01-1.22601E+00 3.48700E+00
 -1      2832-2.07286E+00-2.83667E+00 2.91273E+00 1.53228E-01 1.62927E+00 4.77044E-01
 -1      2833-1.39061E+01-6.50622E+01-4.52692E+00 1.47546E+01 1.62774E+00 1.00116E+00
 -1      2834-2.18035E+01-2.50039E+01-9.86677E+00-1.42893E+01 4.31222E-01-1.09049E-01
 -1      2835-2.66432E+01-1.67216E+01-1.76272E+01 9.06857E+00 3.92946E+00 7.55054E-01
 -1      2836-8.74453E+00-3.01002E+00 2.71612E+00-1.85981E+00 1.10595E+00-1.30780E+00
 -1      2837-1.28581E+01-4.29373E+01-1.37870E+01-1.91346E+01-1.46531E+00-1.10340E+00
 -1      2838-1.58231E+01-7.42956E+01-1.93412E+01 1.80839E+01-2.97677E+00-1.73954E+00
 -1      2839-8.02020E+00-2.11710E+01-1.06885E+01-2.25003E+00 5.82635E-01 4.16006E+00
 -1      2840-4.90068E+01-1.25627E+01-9.98550E+00-1.57920E+01 9.30419E-01 2.25032E+00
 -1      2841-5.21481E+01-1.18193E+01-2.74094E+00-9.28210E+00-3.81583E+00 1.76637E-01
 -1      2842-1.64806E+01-1.33136E+01-4.15472E+00-6.68289E-01-8.10798E-01 6.70832E-01
 -1      2843-1.07268E+01-2.23025E+01-9.83737E+00 1.02708E+01 3.06005E+00 2.05792E+00
 -1      2844-1.09730E+01-2.36498E+01-1.37018E+01-5.84720E-01 2.24487E+00-5.55514E+00
 -1      2845-1.98206E+01-5.89206E+00-9.36696E+00 5.33042E+00 1.73242E+00-1.90561E+00
 -1      2846-1.66893E+00-9.03225E+00 1.90331E+00-4.68239E-02-5.77054E-01-1.90845E+00
 -1      2847-4.62496E+01-9.09556E+00-4.49177E+00-1.12386E+01-2.54306E+00 8.60534E-01
 -1      2848-2.95669E+01-1.61016E+01-1.94455E+01 1.38937E+01 2.33204E+00 1.28607E+00
 -1      2849-2.65733E+01-6.28882E+01-8.87347E+00-2.66720E+01-1.40468E+00 3.97584E+00
 -1      2850-5.27497E+01-6.83973E+00-1.26841E+01-5.45335E+00-2.09582E+00 4.43194E+00
 -1      2851-4.52348E+01-4.24939E+00-1.40615E+01 5.60824E+00-3.73405E-01-1.40739E+00
 -1      2852-2.67032E+01-7.62547E+00-1.45814E+01 1.94212E+00-3.72120E+00-1.40782E+00
 -1      2853-2.08018E+01-6.99393E+00-9.67871E+00 4.28952E+00-3.38195E+00-5.89836E-01
 -1      2854-9.07679E+00-9.79993E+00 2.71474E+00 3.47125E-01-8.68949E-01-1.64400E+00
 -1      2855-4.93149E+01-8.82761E+00-3.16770E+00-9.35904E+00 2.86627E+00 2.01201E+00
 -1      2856-4.00765E+00-2.63064E+00 6.60641E-01 7.15722E-02 7.61002E-02 2.31201E+00
 -1      2857-2.41289E+01-5.06390E+01-1.77270E+01-2.31763E+01-2.85519E+00-1.61435E+00
 -1      2858-2.69379E+01-3.98412E+01-2.23665E+00-3.21835E+01 1.02491E+00 3.46949E-01
 -1      2859-3.08478E+01-6.37946E+00-9.29578E-01-1.06866E+01 2.76236E+00-4.83292E-01
 -1      2860-2.21881E+01-2.91289E+01-8.85849E+00-2.08900E+01 1.13284E+00-1.27023E+00
 -1      2861-4.47132E+01-1.22426E+01-8.31032E+00 2.18891E+01-3.90424E-01 7.52879E-01
 -1      2862-1.94566E+01-3.72181E+01-6.18550E+00 1.87138E+01-2.53536E+00-1.14021E+00
 -1      2863-5.41296E+00-2.97865E+01-8.34001E+00-4.33108E+00 1.28056E+00 8.75650E-01
 -1      2864-2.80118E+01-4.98747E+01-1.34690E+01 2.63378E+01-1.58052E+00 7.54685E-02
 -1      2865-2.73120E+00-7.98480E+00 1.85188E+00 4.82083E+00 3.78313E+00-4.21040E-01
 -1      2866-1.65769E+01-2.06266E+01-6.54841E+00-3.25422E-01-8.18092E-01-4.11101E-01
 -1      2867-5.26059E+01-3.99769E+00-8.26673E+00 1.53357E+01 1.72755E+00-1.51364E+00
 -1      2868-4.86736E+01-1.18808E+01-1.21847E+01-6.89690E-01 1.16511E+00-2.09540E-01
 -1      2869-2.85841E+01-9.72661E+00-7.74815E+00 8.54871E+00-9.68041E-01-5.99956E-01
 -1      2870-5.02384E+01-9.39523E+00-1.41723E+01 4.76564E+00 1.32807E+00 1.77010E-01
 -1      2871-3.04884E+00-6.15265E+01-1.08457E+01 5.42622E+00 1.89131E+00-1.43402E+00
 -1      2872-4.02534E+00-6.18653E+00 2.26745E+00 2.14927E+00-1.78093E+00-6.02088E-01
 -1      2873-3.18058E+01-2.33646E+01-1.18893E+01-2.51858E+01-1.86511E+00-4.47195E-01
 -1      2874-2.08201E+01-6.21677E+01-6.25105E+00 2.70131E+01-1.19881E+00-1.01031E+00
 -1      2875-4.92022E+00-3.40897E-01 4.02494E+00-5.10312E-01-1.13843E+00-1.92564E-01
 -1      2876-9.87423E+00-1.96215E+01-4.92462E+00 1.00059E+01 4.49137E-01 1.09167E-01
 -1      2877-3.81634E+00-5.34252E+00 1.11926E+00-1.74521E-01-6.06112E-01 3.08893E-01
 -1      2878-1.44932E+01-2.17604E+01-9.90083E+00-1.58782E+01 7.06736E-01 3.49377E+00
 -1      2879-5.22586E+01-9.29434E+00-1.33030E+00 1.59302E+01 3.70180E-01-1.12765E+00
 -1      2880-1.00943E+01-3.43848E+00 2.61732E+00-1.41916E+00 1.41361E+00 7.43454E-01
 -1      2881-1.86226E+01-2.54359E+01-1.96809E+01-3.66632E+00 6.71453E-01-7.52790E+00
 -1      2882-3.40812E+01-2.45458E+00-8.07439E+00 2.54633E+00 5.25036E-01 2.13556E+00
 -1      2883-1.29889E-01-2.64169E+00 4.68461E+00 1.70944E+00-1.20252E+00 3.54319E-01
 -1      2884-3.52724E+01-9.06911E+00-1.48896E+01-1.03113E+01-3.38687E+00-1.00623E+00
 -1      2885-1.20438E+01-4.37368E+01-1.23398E+01 1.16822E+01-1.99462E+00-9.12139E-01
 -1      2886-6.65212E+00-3.81642E+01-5.31275E+00 9.64783E+00 1.16085E+00-1.69241E+00
 -1      2887-1.30190E+01-6.62421E+01-1.63595E+01 1.70190E+01 1.70669E+00-4.29085E+00
 -1      2888-1.34608E+00-4.39457E+00 3.00662E+00-1.82981E+00-8.52554E-01-1.16521E+00
 -1      2889-1.44996E+01-2.83194E+01-6.12462E+00-1.26241E+01 3.34824E+00-9.86019E-01
 -1      2890 2.17650E+00-1.67524E+01 1.99869E+00 7.80384E+00-2.73970E-01-1.64808E+00
 -1      2891-4.69765E+01-1.20782E+01-6.13238E+00-1.23902E+01-3.51633E+00 5.40468E-01
 -1      2892-2.03191E+01-7.20347E+01-8.48344E+00-2.71596E+01-1.37124E+00 4.37407E+00
 -1      2893-1.13760E+01-4.01625E+00 3.00885E+00 1.89491E+00 1.51316E+00-1.26922E+00
 -1      2894-2.69360E+00-2.67361E+01-1.30756E+01-8.38588E+00-1.67833E+00-4.18201E+00
 -1      2895-3.15145E+01-1.29640E+01-1.32672E+01-1.19925E+01-9.86627E-01-2.93939E+00
 -1      2896-7.33823E+00-3.65956E+01-1.06705E+01 9.02951E+00-1.97549E+00-1.79172E+00
 -1      2897-2.83846E+01-4.74814E+01-5.04265E+00 2.78741E+01-9.41790E-01-2.48376E+00
 -1      2898 5.54391E-02-6.07317E+00 4.10329E+00-4.32714E+00-1.16269E+00-1.98426E+00
 -1      2899-9.67080E+00-3.70975E+01-9.60350E+00-1.83183E+01-2.58324E+00 6.40491E-01
 -1      2900 3.42573E+00-1.03757E+01 1.25867E+00 1.58011E+00-9.39680E-02-2.91759E+00
 -1      2901-1.82230E+01-3.99735E+01-1.60115E+01 1.26942E+01-2.41532E-01-9.97105E-01
 -1      2902-4.45680E-01-1.36450E+01 6.27090E-01 1.16356E+00 7.00415E-01-2.34662E+00
 -1      2903-2.15119E+01-2.89935E+01-1.28550E+01-1.56143E+01-7.74113E-01-7.19914E-01
 -1      2904-4.01041E+01-1.17855E+01-3.64248E+00-1.23446E+01 1.14008E+00 4.57889E-01
 -1      2905-8.40315E+00-6.51684E+00 2.31441E+00 1.75405E+00 1.23809E+00-2.02785E+00
 -1      2906-1.07790E+01-7.86451E-01 3.89497E+00-1.95274E+00-1.81586E+00-1.21259E+00
 -1      2907-1.35026E+01-1.79736E+01-1.00692E+01-9.71345E+00 2.26460E+00-3.72966E-01
 -1      2908-2.44285E+00-5.48889E+00 1.94630E+00-2.64357E+00-1.16248E+00 1.31108E+00
 -1      2909-5.15959E+00-4.42002E+00 1.67508E+00 3.48298E-01 7.13305E-02-1.43881E+00
 -1      2910-2.13644E+01-8.98558E+00-9.46791E+00 1.36591E+01-3.63550E+00 7.19874E-01
 -1      2911-4.84447E+01-1.02095E+01-1.38200E+01-1.37801E+01 2.09673E+00 1.68427E+00
 -1      2912-1.76217E+01-1.11633E+01-1.02203E+01-1.19744E+01-2.19662E+00-2.40324E-01
 -1      2913-3.19059E+01-4.10722E+01-1.34659E+01-2.81599E+01-5.90745E-01-1.40598E+00
 -1      2914-1.41015E+01-2.05208E+00-8.56376E-01-3.50422E+00-9.08059E-01 3.66591E-01
 -1      2915-7.71676E+00-1.11030E+01-7.01736E-01-1.62594E-01-2.61926E+00 1.22625E+00
 -1      2916-4.33885E+01-1.46054E+01-1.26517E+01-1.80318E+01-3.29220E-01 3.15179E+00
 -1      2917-1.75105E+01-2.37344E+01-1.00653E+01-1.79151E+01 2.76247E+00 2.83183E+00
 -1      2918-2.83580E+01-1.07239E+01-5.73905E+00-1.48951E+01 1.93536E+00 2.57476E+00
 -1      2919-1.25187E+01-1.36373E+01-6.01411E+00 6.78876E-01-1.69987E-01 1.46252E+00
 -1      2920-7.25268E+00-4.64839E+01-1.14335E+01 1.04341E+01-3.36444E+00 4.57146E+00
 -1      2921-2.37479E+01-5.17712E+01-1.63133E+01-1.88724E+01 4.09991E+00-1.21101E+00
 -1      2922-5.19539E+01-9.02740E+00-1.69968E+01 3.55149E+00 1.56453E+00-5.78393E-01
 -1      2923-2.28063E+01 4.84489E+00 3.65528E+00-1.13701E+00 1.47111E+00 6.77701E-02
 -1      2924-2.13534E+01-7.31547E+00-7.54367E+00-6.63945E+00 1.22472E+00 9.39305E-01
 -1      2925-9.56438E+00-5.30992E+01-1.62724E+01-5.37320E+00 5.08776E-01-5.52611E-01
 -1      2926-1.36681E+01-1.61681E+01 3.16561E-01-4.20047E+00-1.81896E+00 1.76654E+00
 -1      2927-2.22011E+01-4.13090E+01-7.51624E+00-2.23152E+01-1.82845E+00 4.38329E+00
 -1      2928-3.23385E+01-4.67866E+01-9.39943E+00-3.05556E+01-1.17122E+00 3.50523E+00
 -1      2929-5.95314E+01-5.75224E+00-1.32341E+01 6.35875E+00-5.24608E-02-1.12490E+00
 -1      2930-1.31467E+01-3.30694E+01-1.33783E+01-1.59112E+01 1.74627E+00 9.28892E-02
 -1      2931-5.74027E+00-5.11330E+00 1.39483E+00 6.05263E-01-1.19974E+00-1.05981E+00
 -1      2932-1.30836E+01 5.24773E-01 2.83612E+00 5.81444E-02-1.58873E+00-5.30238E-01
 -1      2933-6.01743E+01-5.01835E+00-1.41004E+01 5.87139E+00-2.87566E+00-1.27225E+00
 -1      2934-5.86558E+01-9.56186E+00-3.73875E+00 8.84605E+00 4.66723E+00 1.18114E+00
 -1      2935-2.10128E+01-9.94714E+00-2.94449E+00 9.50802E+00-3.29773E+00-3.60984E-01
 -1      2936-3.66956E+01-6.81187E+00-1.72111E+01-4.47431E+00-3.68976E-01 3.17962E+00
 -1      2937-2.01249E+01-4.01344E+01-1.80472E+01 1.59126E+01-2.26953E+00-8.13103E-01
 -1      2938-6.96934E+00-3.56557E+01-1.26349E+01-1.01528E+01-2.04782E+00-3.39223E+00
 -1      2939-5.91532E+00-4.26600E+01-1.20140E+01-4.69429E+00 3.94354E+00-1.15675E+00
 -1      2940-3.80712E+00-7.53510E+00-2.05154E-01-2.18720E-02-1.06322E+00 1.05738E+00
 -1      2941-1.01808E+01-2.55834E+01-1.05949E+01 6.35256E+00 4.97520E-01-1.87215E+00
 -1      2942-2.99228E+01-3.92920E+00-1.10814E+01-3.51580E+00-1.25410E+00-2.09909E-01
 -1      2943-4.56093E+01-1.65521E+00-7.79016E+00-3.36968E+00 2.16316E+00-1.90629E+00
 -1      2944-3.49171E+01-1.85219E+01-1.12156E+01-1.78321E+01-8.16026E-01-7.32801E+00
 -1      2945-7.32492E+00-3.02381E+01-1.09637E+01 5.38116E+00 9.12873E-01-2.41075E+00
 -1      2946-2.58679E+01-2.26166E+01-4.43848E+00 1.86167E-01 1.39572E+00 6.12962E-01
 -1      2947-5.78834E+00-2.67653E+01-1.08232E+01-2.12163E+00 4.51666E-01-2.01934E+00
 -1      2948-2.44215E+01-7.06391E+00-1.69410E+00-7.16200E+00-3.12532E+00 1.51767E+00
 -1      2949-3.09956E+01-1.73735E+01-1.90473E+01 9.43698E-01 4.86823E+00 3.24450E+00
 -1      2950-2.00605E+01-4.86742E+00-6.31839E+00 1.61158E+00 9.27150E-01 8.24012E-01
 -1      2951-2.63516E+00-2.51201E+00 4.57609E+00-1.55320E+00-1.30057E-01 1.30526E+00
 -1      2952-2.95030E+01-7.75318E+00-5.53819E+00 1.29274E+01-2.07417E+00 2.14668E-01
 -1      2953-4.81591E+01-3.22842E+01-1.17619E+01-3.32286E+01 3.46010E+00-1.02550E+00
 -1      2954-5.14374E+01-2.06218E+01-6.78673E+00-1.89349E+01 2.09585E+00 5.35079E-01
 -1      2955-2.75868E+01-1.72039E+01-7.76036E+00-1.27488E+01 2.84029E+00 2.43959E+00
 -1      2956-1.08195E+01-5.01153E+01-1.26683E+01 1.29004E+01-6.00966E+00 3.91226E+00
 -1      2957-1.58567E+01-2.42798E+01-1.47157E+01 3.90027E+00 6.84002E-01-3.53471E+00
 -1      2958-1.44170E+01-1.80146E+01-9.96883E+00-6.92764E+00 6.78781E-02 3.98650E+00
 -1      2959-2.84886E+01-2.92386E+00-1.22133E+01 1.91630E+00 1.64356E+00 2.86475E-01
 -1      2960-3.78752E+01-5.18695E+01-1.96423E+01-3.09347E+01-2.38656E+00 4.61308E+00
 -1      2961-5.98088E+01-3.86510E+00-6.56607E+00-6.46291E+00 2.00532E+00-4.29271E+00
 -1      2962-4.36483E+01-1.88530E+01-1.79600E+01-2.10824E+01 2.28986E+00 4.38657E+00
 -1      2963-2.94067E+01-1.21019E+01-1.86493E+01-1.43072E+00 5.29301E+00-3.50164E+00
 -1      2964-4.50151E+00-6.64554E+00 2.08971E+00 1.85289E+00 1.41630E+00-4.00950E-01
 -1      2965-3.00648E+01-4.11171E+01-1.06824E+01-2.72520E+01-3.15292E-01-2.74911E+00
 -1      2966-5.43110E+01-2.82411E+00-9.84494E+00-6.23258E+00 2.09722E+00-1.05924E+00
 -1      2967-1.83466E+00 1.63583E+00 6.40264E+00-3.01015E-01-1.69517E+00 2.37022E-01
 -1      2968-1.82384E+01-2.84942E+01-1.12551E+01 1.88315E+01 9.57063E-01-1.04528E+00
 -1      2969-5.10197E-01-2.99013E-01 4.33630E+00 1.59532E-01-1.28207E+00-1.65457E+00
 -1      2970-1.87704E+01-2.84092E+01-2.03510E+01 2.82928E+00-1.09322E+00-7.64754E+00
 -1      2971-1.63304E+01-2.18901E+01-1.33597E+01-3.82332E+00 4.26242E+00-2.78069E+00
 -1      2972-7.51556E+00-4.38833E+01-5.32625E+00 7.91405E+00-2.86019E+00-3.29397E+00
 -1      2973-3.70376E+01-1.09988E+01-1.91213E+01 2.32540E+00 2.51538E+00 1.94339E+00
 -1      2974-2.43930E+01-2.52502E+01-5.50401E+00 2.82984E+00-9.59877E-02 1.99675E+00
 -1      2975-2.89422E+00-5.93230E+01-7.49448E+00-2.65341E+00-2.33932E-01-1.76783E+00
 -1      2976-8.47604E+00-1.11632E+01 1.30268E+00 1.43250E+00-2.47276E-01-2.70210E+00
 -1      2977-7.25858E+00-2.55367E+01-6.47683E+00-3.18284E+00-1.02530E+00-7.09913E-01
 -1      2978-1.52208E+01-8.48577E-01-6.11506E-01 9.97886E-01-2.49289E+00-1.26875E+00
 -1      2979-1.12157E+01-3.00449E+01-1.40164E+01 4.33917E+00 2.31589E+00-1.65585E+00
 -1      2980-4.63570E+00-4.39136E+01-1.52280E+01-1.87567E+00-2.51614E+00 4.75755E+00
 -1      2981-9.49206E+00-4.40283E+01-1.73827E+01-3.63771E+00 4.49919E+00-1.88215E+00
 -1      2982-3.95152E+00-6.40683E+00 3.06878E+00-1.50879E+00 1.13968E+00 2.56888E+00
 -1      2983-6.88344E+00-3.47419E+01-9.98523E+00 5.00794E+00-1.66121E+00-3.28109E+00
 -1      2984-2.75633E+01-2.62765E+00-9.99908E+00-2.55047E+00 1.64740E+00-2.43466E+00
 -1      2985-3.18117E+01-1.02391E+01-1.15649E+01 1.45663E+01-4.58945E-01-3.95842E+00
 -1      2986-4.20778E+01-2.00145E+01-1.05270E+01 1.89089E+01-2.47490E+00-3.60480E+00
 -1      2987-3.23768E+01-2.44153E+01-1.45887E+01-2.45727E+01-2.39625E+00 1.53540E+00
 -1      2988-5.38822E+01-1.02571E+01-1.52297E+01 6.05035E+00-1.42133E-01 1.67060E+00
 -1      2989-6.36370E+00-1.93478E+00 2.33919E+00 6.01104E+00 3.02820E+00-3.70864E-01
 -1      2990-5.10957E+00-5.87246E+00 2.11303E+00 1.27608E+00-1.91362E+00 1.59153E-01
 -1      2991-5.37712E+00-3.14845E+01-4.66358E+00 5.52101E+00-1.53805E+00-1.42615E+00
 -1      2992-2.32383E+01-1.17891E+01-1.22434E+01 4.68623E+00-3.30778E+00-3.28529E+00
 -1      2993-1.32607E+01-1.21313E+01-5.85727E+00-6.72404E-01-7.67721E-02 1.00972E-01
 -1      2994-4.12416E+01-3.36116E+00-1.31062E+01 2.08631E+00 1.98821E-02-1.98035E+00
 -1      2995-7.43009E+01-4.45735E+00-4.76226E+00 4.88883E+00 2.87710E+00 1.43087E+00
 -1      2996-7.74198E+00-5.69373E+01-1.31395E+01-1.65292E+01-1.27025E+00-1.27750E+00
 -1      2997-9.49610E+00-7.06255E-02 3.23922E-01 6.59708E+00 2.91636E+00 1.79366E-01
 -1      2998-1.86126E+01-3.52871E+01-9.69487E+00-1.61579E+01-2.18851E+00 2.42544E+00
 -1      2999-2.45771E+01-1.79437E+01-1.72609E+01-3.04754E+00-4.06399E+00 1.61987E+00
 -1      3000-2.95283E+01-4.01301E+01-4.76289E+00-3.09707E+01 1.26346E+00-2.22937E+00
 -1      3001-9.41965E+00-1.86741E+01-7.89489E+00-6.72226E+00-3.69170E+00 3.69585E+00
 -1      3002-5.00985E+00-2.68167E+00 2.44581E+00-7.49935E-01 1.24698E+00 9.10688E-01
 -1      3003-2.94974E+01-2.25673E+01-1.06924E+01-2.97798E-01 9.49035E-01 2.80764E+00
 -1      3004-2.16793E+01-2.65467E+01-1.14631E+01-1.76007E+01 3.06080E-01-5.93474E-01
 -1      3005-4.12292E+01-3.55475E+01-5.50253E+00-2.88209E+01 1.62728E+00-5.13646E+00
 -1      3006-4.02597E+01-4.38318E+00-8.32147E+00 1.36027E+01-5.59049E-01 1.13189E-01
 -1      3007-2.09140E+01-4.60620E+01-1.86654E+01 1.71462E+01 9.55925E-01-1.43806E+00
 -1      3008-1.17040E+01-1.12515E+01 6.91620E-01 7.67859E-01 1.70639E+00-2.58337E+00
 -1      3009-3.45277E+01-9.24952E+00-1.13519E+01-1.04587E+01 1.12092E+00 1.09599E+00
 -1      3010-3.89506E+01-2.66848E+01-1.78605E+01-2.61429E+01-1.53690E+00 2.92523E-01
 -1      3011-1.66266E+01-3.59606E+01-1.23851E+01-1.61584E+01 2.06715E+00 6.62955E-01
 -1      3012-5.63875E+01-7.45814E+00-9.40400E+00 1.48942E+01 2.22353E+00-2.88601E+00
 -1      3013-3.83904E+01-2.08040E+01-4.73243E+00-1.62841E+01 3.41487E+00-4.64883E+00
 -1      3014-4.84648E+01-2.85953E+01-6.50605E+00-3.14773E+01 3.03843E+00-5.25746E+00
 -1      3015-4.21506E+01-3.37086E+01-1.60018E+01-3.15783E+01 6.43294E+00 1.09924E+00
 -1      3016-5.77874E+01-2.17758E+01-1.25943E+01 2.05500E+01 2.45815E+00 3.93422E-01
 -1      3017-4.73599E+01-1.47021E+01-1.55253E+01-1.50061E+01 3.67823E-01-1.26489E+00
 -1      3018-4.13003E+01-2.84105E+01-1.02103E+01 3.08982E+01-2.39611E+00-1.45226E+00
 -1      3019-1.37186E+01-7.15676E-01-2.11933E+00-2.28781E+00-8.74940E-01 9.10130E-01
 -1      3020-4.59637E+00-2.46076E+00 1.82448E-02 9.16835E-01 1.05429E+00-6.46582E-01
 -1      3021-1.17050E+01-1.11006E+01-5.16740E+00 1.10086E+00-1.82744E-01 6.48172E-01
 -1      3022-3.52062E+01-4.79742E+00-9.60056E+00 1.16973E+01-1.93828E+00-1.05121E+00
 -1      3023-1.96749E+01-2.09775E+01-6.26543E+00 1.82394E+00-9.95063E-01 4.71026E-01
 -1      3024-3.89133E+01-3.15617E+01-9.86466E+00-2.30825E+01-8.24691E-01 8.62151E-01
 -1      3025-9.98239E+00 8.93312E-01 3.35631E+00-7.24923E-01 1.80231E+00 1.26241E-01
 -1      3026-1.96352E+01-8.35074E+00-6.11609E+00 7.30297E+00-1.70997E+00-2.66086E-01
 -1      3027-8.77289E+00-5.14421E+01-1.20686E+01 8.67959E+00-4.84079E-01-3.26940E+00
 -1      3028-2.66539E+01-4.76952E+01-1.50366E+01 2.38666E+01-2.45891E+00 5.73611E-01
 -1      3029-2.00478E+01-2.69144E+00 3.34313E-01 1.06550E+01 2.96851E+00-2.29564E-01
 -1      3030-2.63496E+01-5.25234E+00-1.06665E+01 4.87151E+00-2.48779E+00-1.02995E+00
 -1      3031-3.75420E+01-2.82170E+01-7.29645E+00-3.00601E+01 3.08934E-01-1.81050E+00
 -1      3032-4.90081E+01-1.95032E+01-1.31041E+01 2.23422E+01-6.68452E-01-2.38159E+00
 -1      3033-8.80826E+00-3.85965E+01-1.24947E+01 1.01596E+01 2.17662E-01-4.17543E+00
 -1      3034-1.21087E+01-1.03415E+01 1.16876E-01 6.87682E-01-3.22095E+00-1.22949E+00
 -1      3035 5.87453E+00-2.19350E+01-9.03982E-01 1.26073E+00-1.04219E+00 2.63790E+00
 -1      3036-8.47401E+00-5.13952E+00 2.64406E+00-9.61199E-01-1.12814E+00-7.26017E-01
 -1      3037-4.37124E+01-2.05975E+01-1.53364E+01 1.95872E+01-6.09782E-01-1.27842E+00
 -1      3038-3.15150E+01-1.99813E+01-1.26696E+01-1.49448E+01 3.60095E+00-3.88537E-01
 -1      3039-3.44666E+01-1.18108E+01-4.72598E+00-1.72152E+01 3.16785E+00-3.14451E+00
 -1      3040-1.57711E+01-1.90496E+01-1.13056E+01-1.37197E+01-2.84174E-01 4.22657E+00
 -1      3041-5.46329E+01-1.01731E+01-7.55860E+00 1.41519E+01-2.36278E+00-2.61745E-01
 -1      3042-1.25621E+01-1.11531E+01-2.94924E+00-1.90201E+00 1.09903E+00 1.82011E+00
 -1      3043-8.81627E+00-5.20644E+01-5.85676E+00 9.42719E+00 3.58083E-01-3.23306E+00
 -1      3044-1.81833E+01-2.35882E+01-1.52303E+01 7.40298E+00 3.52954E+00 6.08352E+00
 -1      3045-1.13306E+01-2.63753E+01-1.14435E+01-1.36945E+01-3.44911E+00 1.65658E+00
 -1      3046 1.81147E+00-2.53621E+01 7.39949E-02 2.45871E-01 1.05470E+00-2.11716E+00
 -1      3047-3.37988E+01-7.02116E+00-1.20644E+01-8.29003E+00-2.61658E+00-2.67809E+00
 -1      3048-1.29986E+01-5.53690E+01-1.12432E+01-1.01102E+01 3.23395E+00 3.50700E+00
 -1      3049-5.41895E+00 6.88757E-01 4.28328E+00 4.02143E+00-1.47448E+00 1.12918E+00
 -1      3050-2.86603E+01-2.64475E+01-1.20581E+01-4.87323E-01 7.09931E-01 3.87165E+00
 -1      3051-4.20754E+01-7.33304E+00-1.44909E+01-4.25701E+00 6.79211E-01 6.54019E-02
 -1      3052-2.04113E+01-1.46386E+01-1.07570E+01-6.53425E+00 2.34269E+00-3.39447E+00
 -1      3053-1.61455E+01-1.25755E+01-8.10167E+00 6.51175E+00-2.53281E+00-9.29558E-01
 -1      3054-1.32863E+01-1.20827E+01-1.23298E+01-7.25312E+00-2.96572E+00 1.39670E+00
 -1      3055-8.63016E+00-4.21368E+01-1.72330E+01 6.67429E+00 2.23507E+00-2.46384E+00
 -1      3056-2.51605E+01-2.04412E+01-4.74688E+00-2.24126E+00 1.36799E+00 3.78961E+00
 -1      3057-3.95133E+01-1.26382E+01-1.04263E+01 1.28048E+01 2.25312E+00 1.24625E+00
 -1      3058-1.37859E+01-1.58736E+01-1.36314E+01 9.04558E+00-2.42963E+00-4.79911E+00
 -1      3059-3.97287E+01-3.28452E+01-8.28122E+00 3.22285E+01-1.61106E+00 1.67299E+00
 -1      3060-5.40669E+01-8.83042E+00-5.99732E+00 1.05755E+01-2.15594E+00-2.24818E-01
 -1      3061-4.92712E+01-1.43500E+00-2.40878E+00 3.99691E+00-3.18490E+00-2.39463E+00
 -1      3062-7.66162E+01-6.52119E+00-8.97457E+00 4.49063E+00-2.03646E+00 6.30429E-01
 -1      3063-6.19557E+01-1.77333E+01-1.49433E+01-1.45268E+01-1.26356E+00-2.19336E-01
 -1      3064-4.39895E+01-2.13270E+01-1.56915E+01-2.02715E+01 2.16370E-02-1.44903E+00
 -1      3065-2.13422E+01-4.06453E+01-1.02301E+01 2.06096E+01 1.31051E-01 9.96050E-01
 -1      3066-9.26475E+00-3.24510E+01-1.22378E+01 1.77725E+00 4.27858E-01-2.47354E+00
 -1      3067 1.12558E+01 1.17305E+01 5.26028E+00 7.47626E-01-1.67239E+00 1.33435E+00
 -1      3068-1.35132E+01-1.63458E+01-5.07838E+00-1.03238E+00 2.29053E-01-4.65971E-01
 -1      3069 3.68154E+00-1.73979E+00 7.38686E+00 1.39017E+01-2.50349E+00-1.02684E+00
 -1      3070-1.43059E+01-1.18243E+01-6.23299E+00 2.22136E+00 5.84932E-01-2.41807E-01
 -1      3071-2.78640E+01-1.49793E+01-1.57324E+01 1.27985E+01 1.48688E+00 6.74130E-01
 -1      3072-1.20042E+01-6.99702E+01-9.86247E+00 1.93230E+01-4.25346E+00-1.69080E+00
 -1      3073-1.59701E+01-2.77406E+01 1.39273E+00 1.76585E+01-2.02267E+00-3.23228E+00
 -1      3074-1.36711E+01-2.49509E+01 5.56339E-02 1.00554E+01-2.22852E+00-2.58659E+00
 -1      3075-1.52265E+01-3.30776E+01-6.78669E+00 1.88788E+01 7.64266E-01-2.40519E+00
 -1      3076-3.70960E+01-2.54982E+01-1.28902E+01 2.45334E+01-3.11924E+00 1.40270E+00
 -1      3077-3.66554E+01-1.22638E+01-1.62413E+01 1.61682E+01 8.23635E-01-2.54415E+00
 -1      3078-4.39723E+00-1.42874E+00 3.95337E+00-3.11477E+00-1.70882E+00-3.64704E-01
 -1      3079-8.20929E+00 1.62096E-01 2.10728E+00-3.87839E+00 2.25330E+00-1.40673E+00
 -1      3080-2.19183E+01-1.02108E+01-5.14282E+00-1.26827E+01 1.87420E+00 7.99272E-01
 -1      3081-2.07439E+01-4.62075E+01-1.01754E+01-2.06588E+01-1.29780E+00 3.61498E-01
 -1      3082-5.71738E+01-2.63188E+01-1.32972E+01 2.51807E+01 3.79781E+00-1.69327E+00
 -1      3083-8.59431E+00-5.44183E+00 5.42745E-01-6.32661E+00 1.30998E+00-1.35290E+00
 -1      3084-5.90460E+01-1.35104E+01-3.67864E+00 1.45577E+01 1.89960E-01-7.79719E-01
 -1      3085-6.08775E+01-8.24960E+00-1.77830E+01 6.77480E+00-3.67870E-02 1.84520E+00
 -1      3086-6.78722E+00-1.67757E+01-2.15923E+00 6.20469E+00 8.30322E-01 1.52838E+00
 -1      3087-1.67352E+01-2.71703E+01-1.20272E+01 1.80927E+01-1.60380E-01-3.65743E+00
 -1      3088-5.07644E+00-1.77864E+01-4.00178E+00-8.02946E+00 3.17497E-01 2.23379E+00
 -1      3089-3.16032E+00-2.98060E+00 3.37627E+00 5.28100E+00-1.05068E+00-2.48812E+00
 -1      3090-8.79482E+00-5.50191E+01-6.55221E+00-7.22654E+00 1.57909E+00 4.94147E+00
 -1      3091-2.29268E+00-5.88028E+00 5.31953E+00 3.55691E+00-1.59692E+00-2.61521E-01
 -1      3092-4.83829E+01-1.55059E+01-1.19196E+01 2.29552E+01 2.40063E+00 3.28309E+00
 -1      3093-2.82668E+00-1.12366E+01-1.53719E+00 2.12742E+00-1.63368E+00-4.92463E-01
 -1      3094-1.46985E+01-2.53903E+01-1.02240E+01 1.75125E+01 1.33727E+00-2.38450E+00
 -1      3095-8.01264E+00-4.16375E-01 1.57160E+00 2.89555E+00 3.67568E-01 6.47949E-01
 -1      3096-1.01942E+01-3.48766E+01-1.28032E+01-7.19433E+00 3.23532E+00 2.53706E+00
 -1      3097-4.88397E+00-3.36972E+01-1.16238E+01 1.07252E+01-2.94820E+00 3.84128E+00
 -1      3098-2.74017E+01-8.43012E+00-1.34242E+01 1.35705E+01-9.35892E-01-5.35884E+00
 -1      3099-2.72934E+01-1.24342E+01-8.53817E+00 1.43986E+01-1.81353E+00-2.96793E-01
 -1      3100-3.73782E+01-4.98469E+00-8.65114E+00 1.00680E+01 1.90245E+00 4.31720E-01
 -1      3101-1.40448E+01-6.56827E+01-1.77934E+01 5.39173E+00 2.38174E+00 1.70526E+00
 -1      3102-1.19384E+01-2.92129E+01-4.56444E+00-1.39342E+01-2.48732E-01-1.34435E+00
 -1      3103-3.83011E+01-1.88145E+01-1.42702E+01-1.94820E+01-1.31416E-02 1.38089E+00
 -1      3104-4.07268E+01-2.09344E+01-6.54905E+00-2.14402E+01 5.05727E+00-2.07491E-01
 -1      3105-6.31373E-01-3.87083E+00 3.59214E+00-2.52015E+00 6.79059E-01 2.04123E+00
 -1      3106-1.25006E+01-4.80753E+01-6.78768E+00 8.69583E+00 1.45872E+00 1.28886E+00
 -1      3107-5.77202E+00-7.63345E+00 1.07262E+00-9.15812E+00-2.12867E-01 2.38155E+00
 -1      3108-4.91991E+00-2.37821E+01-6.79858E+00 4.28313E+00 8.48829E-01 1.55385E+00
 -1      3109-8.37098E+00-3.18352E+01-1.09844E+01-1.53947E+01-1.04235E+00 8.81444E-01
 -1      3110-4.97334E+01-3.49670E+01-1.13665E+01-3.09557E+01 1.96149E+00-3.26691E+00
 -1      3111-8.45903E+00-4.01967E+01-1.29821E+01-8.67622E+00 1.89856E-01-2.29236E+00
 -1      3112-1.11253E+01-4.97387E+01-1.48549E+01 1.16894E+01 2.70461E+00 1.30820E+00
 -1      3113-4.10360E+00-4.20556E+01-9.51693E+00-7.48662E+00 2.72339E+00 3.54084E+00
 -1      3114-4.70880E+00-1.19860E+01 1.10221E+00-4.93369E+00 2.11866E-02-2.82940E+00
 -1      3115-7.58458E+00-4.27433E+01-1.25625E+01-1.11224E+01 1.18213E+00 1.03030E+00
 -1      3116-3.61564E+01-3.64612E+00 7.34958E-01-1.97697E+00-2.96384E+00-8.09554E-01
 -1      3117-3.37081E+01-1.59779E+01-1.33463E+01 1.61495E+01 9.43266E-01 1.03582E+00
 -1      3118-1.74664E+01-7.48199E+00-5.29155E+00-1.92996E+00-2.97483E+00-2.20726E+00
 -1      3119-3.07212E+01-6.59843E+00-1.28373E+01-7.14326E+00-1.51220E+00 2.90880E+00
 -1      3120-4.05996E+01-3.00844E+01-2.15189E+00 3.39325E+01 5.79634E-01 3.52543E+00
 -1      3121 2.72728E+00-1.35538E+01 3.38992E+00-6.71992E+00 1.86663E-01 1.69252E+00
 -1      3122-2.90355E+01-2.14823E+01-8.89013E+00-1.76340E+01 1.68082E+00-1.08343E+00
 -1      3123-1.57513E+01-2.66827E+01-1.58905E+01 4.61938E+00 3.70510E-01 4.52970E+00
 -1      3124-5.19423E+01-6.22353E+00-4.23308E+00 1.08857E+01-2.23858E+00 1.33518E+00
 -1      3125-3.71980E+01 1.37742E-01-9.59711E-01 5.00555E-01-2.70407E+00 5.70208E-01
 -1      3126-3.66496E+01-6.08149E+00-1.16106E+01-1.08268E+01-1.18377E+00-9.81783E-01
 -1      3127-5.68444E+00-1.82939E+01 2.71194E+00 7.50044E+00-1.53636E+00-1.29922E+00
 -1      3128-1.14627E+01-2.36624E+01-7.33261E+00-1.63076E+01 2.66341E+00 2.97777E+00
 -1      3129-1.23939E+01 7.20726E-01 3.07732E+00 8.36575E+00-7.56068E-01 1.24780E-01
 -1      3130-3.59040E+01-2.69769E+01-1.34960E+01 2.15416E+01 1.68439E-02 5.00101E-01
 -1      3131-3.62827E+01-2.42393E+01-1.29789E+01 2.43383E+01 4.08240E+00 1.80761E+00
 -1      3132 3.53249E+00-1.55764E+01 2.81649E+00 6.69604E+00-6.16550E-01-2.37926E-01
 -1      3133-3.91609E+01-2.94030E+01-1.33627E+01-2.83166E+01-3.05384E+00-1.04463E+00
 -1      3134-4.31440E+01-8.89082E+00-9.53755E+00-8.99449E+00-2.48756E+00 3.75317E-01
 -1      3135-4.56851E+01-1.29637E+01-1.26256E+01-9.65609E+00-1.34762E+00-5.19283E-01
 -1      3136-1.41419E+01-7.21915E+01-1.36403E+01-4.67711E+00 3.11554E+00 2.05547E+00
 -1      3137-1.01878E+01-4.73853E+01-9.52168E+00-1.20795E+01 1.02134E+00 2.52952E+00
 -1      3138-4.85874E+01-2.80241E+00-1.12016E+01-4.35693E+00 3.33131E+00-2.13603E+00
 -1      3139-1.66109E+01-1.37994E+01-7.90084E+00-1.06182E+01 1.25888E+00-1.80529E-01
 -1      3140-2.09972E+01-1.79332E+01-7.92797E+00-1.98045E+00-3.52654E-01-5.23260E-02
 -1      3141-7.69466E+00-7.56947E+00-4.11182E-03 7.82903E+00-2.58586E+00-2.63116E+00
 -1      3142-1.53188E+01-1.14009E+01-5.04298E+00 1.16854E+00 1.54963E-01-1.59679E+00
 -1      3143-1.23163E+01 1.90168E+00-5.88043E-01 3.57784E+00 8.20380E-01 7.84536E-01
 -1      3144-4.22821E+01-9.56077E+00-9.92210E+00-8.72944E+00-1.58805E+00 2.40621E-01
 -1      3145-3.20031E+01-1.67614E+01-3.30680E+00 1.34835E+01 3.90759E+00-1.67755E-01
 -1      3146-2.20969E+01-4.74761E+01-1.10449E+01 2.18688E+01 1.57264E-01 2.00264E+00
 -1      3147-4.18030E+00-2.36097E+01-1.12665E+01-9.74697E-01-2.42701E-01-4.05647E+00
 -1      3148-3.27705E+00-8.01611E+00 2.68275E+00 1.01087E+01 2.58657E+00 1.53598E-01
 -1      3149-8.89826E+00-4.75332E+01-1.47161E+01-2.58837E+00 2.15863E-01-1.45008E+00
 -1      3150-3.15180E+01-9.35939E+00-1.45383E+01-5.48442E+00 3.04414E+00 2.12419E+00
 -1      3151-1.52320E+01-4.73782E+01-5.31283E+00-2.43403E+01 1.22428E+00-2.63067E+00
 -1      3152-1.48399E+01-1.46680E+01-1.68779E+01-8.75288E+00 5.32635E+00-1.39090E+00
 -1      3153-2.19205E+01-1.20932E+01-1.47962E+01-7.68127E+00-3.07669E+00 4.50032E+00
 -1      3154-1.55146E+01-1.04383E+01-1.10565E+00-1.05767E+00 5.88617E-01 2.32948E-01
 -1      3155-2.00875E+01-1.02813E+01-7.40674E+00-1.16444E+01 6.42253E-01 2.35936E+00
 -1      3156-2.64396E+01-1.14881E+01-9.36856E+00-1.36180E+01 6.49976E-01 3.69554E+00
 -1      3157-3.68866E+01-2.84666E+00-1.53912E+01 2.43762E+00-2.15642E+00-4.88589E+00
 -1      3158-7.06035E+01-6.05783E+00-1.31680E+01 3.95976E+00-2.84116E+00 4.08350E-01
 -1      3159-1.01170E+01-5.36336E+01-1.04273E+00 5.32861E+00-1.33086E-01 3.51737E+00
 -1      3160-1.78702E+01-4.30792E+00-5.19931E+00 4.93933E+00-1.88385E+00 7.07230E-01
 -1      3161-1.02020E+01-3.34993E+01-3.11895E+00 2.62328E+00 7.37112E-02 2.82886E+00
 -1      3162-1.02773E+01-2.12918E+01-1.04947E+01 8.33307E+00-1.01037E+00-2.07459E+00
 -1      3163-3.70459E+01-4.74868E+00-9.47640E+00 1.14674E+01-8.12636E-01-1.18304E+00
 -1      3164-2.27159E+01-1.70196E+01-1.33485E+01-1.13578E+01 2.23636E+00-6.01681E-01
 -1      3165 2.17906E+01 1.91347E+01 4.40577E+00 7.92169E-02-9.34558E-01 1.49270E+00
 -1      3166-1.31422E+01-2.39276E+01-1.30061E+01 8.38001E+00-2.82406E+00-3.50064E+00
 -1      3167-2.17598E+01-1.06099E+01-1.16199E+01 6.22690E+00 1.39775E+00 9.51517E-01
 -1      3168 6.33350E+00 6.65708E+00 3.69762E+00-5.11234E-01 1.32968E+00-2.68615E+00
 -1      3169 8.03014E+00 8.65316E+00 4.05877E+00 5.37543E-01 2.37487E+00-2.04618E+00
 -1      3170-3.70071E+01-7.89927E+00-1.39472E+01-9.87216E+00-1.27145E+00 7.48311E-01
 -1      3171-1.43793E+01 5.20908E+00 5.00526E+00-6.91799E+00-2.09706E+00-2.15112E-01
 -1      3172-9.24953E+00-4.08031E+00-5.21732E-01-1.37263E+00 2.47524E+00-1.52391E+00
 -1      3173-4.07906E+00-7.12548E+00 2.49647E+00-7.63990E+00-8.61836E-01 1.20935E+00
 -1      3174-3.52102E+01-3.34067E+00-6.57798E+00-2.50743E+00-2.50687E+00 1.34938E+00
 -1      3175-1.32280E+01-6.54133E+01-6.64891E+00-1.36589E+01-2.05728E+00 9.59305E-01
 -1      3176-1.58788E+01-1.22770E+01-7.22550E+00 8.70203E-01 6.04436E-01 3.88242E-02
 -1      3177-1.96578E+01-3.66814E+01-9.02240E+00-1.97667E+01-2.92953E+00 2.93011E-01
 -1      3178 1.33000E+01 1.53569E+01 7.47396E-01 1.29697E+00-3.98620E-01-3.62076E-01
 -1      3179-3.08134E+01-1.86001E+01-9.75474E+00-1.83675E+01 1.38011E+00-7.64801E-01
 -1      3180-5.65397E+00-7.20649E+01-1.47953E+01-4.12900E+00 2.86069E+00 1.55433E+00
 -1      3181-6.44128E+00-4.07163E+01-1.17036E+01-8.56611E+00 2.08942E+00 2.51154E+00
 -1      3182-2.25757E+00-2.45374E+01-5.13192E+00-4.23543E+00-5.33785E-01 2.31345E+00
 -1      3183 5.48182E-01-3.71815E+01-6.77833E+00-2.91821E+00 2.21638E+00 3.12107E+00
 -1      3184-6.93562E+00-2.34259E+01-8.43363E+00-3.01178E+00-2.11374E-01-1.64981E+00
 -1      3185-6.81726E+00-2.70557E+01-8.35002E+00-2.55842E+00-1.63308E+00 1.81194E+00
 -1      3186-1.00886E+01-5.09224E+01-1.36328E+01-1.14084E+01 1.99092E+00 3.24432E-01
 -1      3187-3.07767E+00-3.77219E+01-8.11610E+00 6.10228E+00-2.13612E+00 3.14297E+00
 -1      3188-2.93158E+00-1.26263E+01 1.50328E+00 3.74789E+00-8.77805E-01-4.26600E-01
 -1      3189-2.36985E+01-1.98407E+01-8.72545E+00 7.75047E-01 6.91550E-01-3.60307E+00
 -1      3190-1.69478E+01-2.35499E+01-1.31391E+01 1.33744E+01-1.22560E+00-3.36194E+00
 -1      3191-6.20203E+00-4.59486E+01-1.32900E+01-2.14946E+00-9.90907E-01 1.67851E+00
 -1      3192-1.94978E+01-2.47165E+01-9.96518E+00 4.46855E-01-1.04952E+00-2.00459E-02
 -1      3193-3.01546E+01-2.57070E+01-1.36806E+01-2.10607E+01 3.29042E+00 2.23623E+00
 -1      3194-1.75823E+01-1.95194E+01-6.05049E+00 1.91066E+01 2.30792E+00 3.35835E+00
 -1      3195-2.24447E+01-3.92293E+00-3.72192E+00 1.20917E+01 4.26410E+00-3.71538E-01
 -1      3196-6.56448E+01-1.39285E+01-4.41907E+00-1.37742E+01-1.51224E+00 2.51188E+00
 -1      3197-5.16164E+01-2.95874E+00-1.24617E+01-5.30365E+00 1.69678E+00-1.24729E+00
 -1      3198 1.03573E+00-1.20367E+01 3.14872E+00-7.45337E-01 4.07276E-01 2.63069E+00
 -1      3199-4.96796E+01-1.13092E+01-9.81034E+00 1.66750E+01-3.96342E+00 2.98069E+00
 -1      3200-4.81430E+01-8.01558E+00-1.50027E+01 1.21047E+01 1.10505E+00-2.40647E+00
 -1      3201 7.45749E+00 6.60385E+00 3.49448E+00-7.44172E-01-5.74640E-01-2.56012E+00
 -1      3202-3.47640E+01-1.50473E+01-9.72115E+00-1.80476E+01 3.72731E-02-5.45409E+00
 -1      3203 1.83396E+01 1.63331E+01 5.54282E+00-8.96955E-01-1.52155E+00-2.54317E+00
 -1      3204-8.82703E+00-6.15921E+01-7.25058E+00-1.65776E+00 1.46625E+00 5.76859E+00
 -1      3205-1.51199E+01-3.16073E+01-1.62556E+01 1.33537E+01-2.73443E+00-1.37092E+00
 -1      3206-1.19196E+01-1.44324E+01-6.22031E+00-9.00610E+00-2.02797E+00 2.23426E+00
 -1      3207-3.71989E+01-2.97450E+01-1.26423E+01 2.70800E+01 2.81228E+00 8.04517E-03
 -1      3208-5.16739E+00-5.86528E+01-6.61823E+00-1.44430E+01 6.97772E-01-3.09765E+00
 -1      3209-2.54400E+01-1.42916E+01-1.34577E+01-3.12380E+00 4.17925E+00-1.48332E+00
 -1      3210-5.29342E+01-3.35989E+00-1.18756E+01 6.00443E+00-2.20921E+00 5.42588E-03
 -1      3211-4.08924E+01-7.16271E+00-3.36534E+00-8.60992E+00 1.87768E+00-3.16332E+00
 -1      3212-4.16476E+01-4.03435E+00-1.41352E+01 4.58252E-01 1.45277E+00 2.30777E+00
 -1      3213-3.12333E+01-7.88920E+00-1.08707E+01 6.88816E+00 1.82514E+00-6.50365E-01
 -1      3214-4.15369E+01-6.81159E+00-9.45948E+00 1.33089E+01-2.97353E-01-1.49743E+00
 -1      3215-2.21613E+01-4.16340E+01-2.52928E+00-2.44427E+01 2.47817E+00-6.18449E-01
 -1      3216-6.58578E+01-1.69101E+01-9.48837E+00-1.40070E+01-6.17206E-01 1.96882E+00
 -1      3217-1.70020E+01-8.41064E+01-1.53448E+01-6.44475E+00 2.75067E+00 6.18969E+00
 -1      3218-3.05354E+01-1.45943E+01-1.57871E+01 1.43835E+01 8.84449E-01-1.54172E+00
 -1      3219-2.27581E+01-1.75652E+01-4.90697E+00 1.47407E+00 8.31590E-01 6.89933E-01
 -1      3220 1.09882E+00-1.63305E+01 2.30327E+00-7.38875E+00-2.62909E+00 2.58140E+00
 -1      3221-3.02548E+00-4.74413E+01-1.13636E+01-4.15733E+00 4.76935E-01 6.94811E-01
 -1      3222-2.89782E+01-2.28415E+01-1.11791E+01-1.81421E+01 2.21043E+00 4.45442E-01
 -1      3223-4.07124E+01-3.05635E+01-1.51749E+01 2.97873E+01 4.39088E-02-6.35889E-01
 -1      3224-1.15172E+01-1.08987E+01-5.11788E+00-2.35339E+00-7.22705E-02-3.23159E-01
 -1      3225-2.90260E+01-2.36452E+01-1.15473E+01 2.86592E+00-5.43837E-01 3.81453E+00
 -1      3226-1.45515E+01 1.78315E+00-7.31577E-01 1.08732E+00-2.31379E+00 1.33167E+00
 -1      3227-6.08974E+00-9.67881E+00-1.73326E+00-6.02240E+00-1.55528E+00 1.01084E+00
 -1      3228-4.95589E+01-1.61698E+01-1.20136E+01 2.35336E+01 1.87418E+00-1.12295E+00
 -1      3229-7.27430E+00-6.36176E+01-9.30358E-01 7.48508E+00 1.08533E+00-3.93945E-01
 -1      3230-2.77125E+01-8.82572E-01-6.64205E+00-2.11665E+00 4.48455E-01-3.15218E+00
 -1      3231-4.61248E+01-3.29430E+01-1.03439E+01-2.98347E+01 2.26784E+00 1.67339E+00
 -1      3232 1.18886E+01 1.16786E+01 3.31970E+00-3.54332E-01 3.51329E-01 1.82395E+00
 -1      3233-4.09582E+01-2.08567E+01-1.74266E+01 2.21827E+01 1.40212E+00 4.76781E+00
 -1      3234-1.75833E+01-2.96537E+01-1.42104E+01 2.37714E+00 2.27367E+00 5.44321E+00
 -1      3235-1.88671E+01-3.08177E+01-9.33610E+00 1.90225E+01 7.76602E-01-2.98070E-01
 -1      3236-1.04957E+01-4.38081E+01-6.49093E+00-4.80699E+00-1.30829E+00 2.79046E+00
 -1      3237-9.44958E+00-1.69280E+00 7.93034E-01-6.31626E+00 1.87437E+00-3.36982E-01
 -1      3238-5.61687E-01-2.51983E+01-7.01344E+00 1.18007E+00 1.27329E+00-1.09182E+00
 -1      3239-5.57027E+01-6.00558E+00-1.15585E+01 5.43824E+00 6.86304E-02-8.23629E-01
 -1      3240-1.30796E+01-4.48711E+01-1.40331E+01 1.32712E+01-7.27832E-01 5.37051E-02
 -1      3241-8.18929E+00-3.69138E+01-1.18623E+01-5.77881E+00 2.30686E+00-1.34181E+00
 -1      3242-4.30745E+01-3.42748E+01-1.25837E+01 3.21562E+01-3.17881E+00 7.39783E-01
 -1      3243-1.75456E+01-2.33683E+01-1.11025E+00-1.44588E+01-1.60279E+00 5.86897E+00
 -1      3244-2.67474E+01-3.11513E+00-1.10514E+01-3.62969E+00-3.00205E+00 2.69963E+00
 -1      3245-3.87636E+01-6.48782E+00-1.54874E+01-5.57422E+00-9.61751E-01 4.57062E+00
 -1      3246-1.24625E+01-2.66416E+01-1.72511E+01-9.16208E-01-1.47171E+00-7.30120E+00
 -1      3247-2.44499E+01-9.19406E+00-1.12163E+01 5.78692E+00 2.72840E+00 1.36341E+00
 -1      3248-2.96395E+01-1.21505E+01-9.13121E+00 1.49408E+01 1.31464E+00 2.22334E+00
 -1      3249-1.97453E+01-1.00266E+01-1.15113E+01 4.61166E+00 5.62536E+00 9.75846E-01
 -1      3250-1.96341E+01-2.67871E+00-1.95986E+00-1.00200E+01-1.90864E+00 8.65864E-01
 -1      3251-1.53580E-01-1.02455E+01 2.36532E-01-5.06941E-01-1.57706E+00-1.33394E-01
 -1      3252-3.96870E+01-6.59855E+00-2.51156E+00 5.65889E+00 3.42589E+00 1.40940E+00
 -1      3253 6.14960E+00 6.92631E+00 2.93004E-01-4.96555E-01 2.15717E+00 1.21384E+00
 -1      3254-2.95590E+01-4.52649E+01-3.12004E+00-3.46095E+01 1.99282E+00 6.74087E-01
 -1      3255-2.19850E+01-1.64521E+01-8.25355E+00 1.79984E+01 1.85007E+00-1.06569E-01
 -1      3256 1.81251E+00-1.44965E+01 1.76769E+00 5.75139E-02-1.39685E-01 3.35211E+00
 -1      3257-3.02725E+01-2.38475E+01-1.13843E+01 4.52776E-02-3.95651E-01-1.10729E+00
 -1      3258-9.79184E+00 4.70054E-01 4.59156E+00-9.95464E+00 1.52371E+00-4.11535E-01
 -1      3259-6.03855E+01-1.45541E+01-8.05062E+00 1.15664E+01 2.80225E+00 1.63891E+00
 -1      3260-1.50628E+01-2.30952E+00-3.71642E+00 1.15198E+00-1.90667E+00-1.41989E+00
 -1      3261-4.77732E+01-2.11766E+01-1.38835E+01 2.21358E+01-8.57955E-01-1.50602E+00
 -1      3262-5.54482E+01-1.24822E+01-1.64915E+01 1.72509E+01 8.29257E-01-1.04377E+00
 -1      3263-2.68857E+01-1.32551E+01-8.94345E+00-1.38102E+01 3.11172E+00-8.51079E-01
 -1      3264-1.12613E+01-1.66642E+01-1.47335E+00-1.33748E+01-5.05811E-01 1.00140E+00
 -1      3265-9.24694E+00-1.11199E+01 1.62880E+00 2.13655E-01 1.79370E+00-1.54102E-02
 -1      3266-1.60602E+01-2.22276E+01-5.02380E+00-9.02554E-01-2.89786E+00 6.62368E-01
 -1      3267-1.49377E+01-1.98411E+01-1.26513E+01 4.77781E+00-1.70378E+00-5.54361E+00
 -1      3268-1.77796E+01-6.21922E+01-6.87602E+00 2.59205E+01-1.90065E+00-7.36935E-01
 -1      3269-1.77653E+01-4.09242E+01-1.13186E+01 1.69210E+01 1.17186E+00-3.68473E+00
 -1      3270-2.22445E+01-1.88952E+01-5.28272E+00-8.17939E-01-1.14800E+00-7.17204E-01
 -1      3271-2.33429E+01-2.62967E+01-7.38635E+00-2.74578E-01-3.48585E+00-2.62490E-01
 -1      3272-2.09369E+01-3.39086E+01-1.52374E+01-1.60075E+01 7.43845E-01-8.57773E-01
 -1      3273-8.33292E+00-4.67425E+01-1.59280E+01 4.59200E+00 3.88886E+00 2.96922E+00
 -1      3274-6.29819E+01-1.37156E+01-1.74927E+01-1.79826E+01-1.83746E+00-2.66662E+00
 -1      3275-1.88129E+01-5.66368E+01-1.57792E+01 2.07604E+01-2.35665E+00-4.00670E+00
 -1      3276-1.05283E+01-3.38697E+00 6.65153E+00 9.91642E+00-1.65619E+00-3.18725E+00
 -1      3277-7.54689E+00-7.18630E+00 3.10640E+00-1.31390E+01-1.01026E+00 1.78377E+00
 -1      3278-3.79858E+01-1.88729E+01-1.17848E+01-2.31494E+01 2.97217E+00-1.04899E+00
 -1      3279-2.98834E+01-3.70849E+01-1.44103E+01-2.63446E+01 3.21266E+00 4.03405E+00
 -1      3280-5.20617E+01-2.22608E+01-1.54299E+01 2.64889E+01-1.84286E-01-1.82021E+00
 -1      3281-1.30043E+01-1.16533E+01-5.11917E+00-8.89872E+00 1.08594E+00-2.86076E+00
 -1      3282-4.97991E+00-7.26832E+01-9.44031E+00 4.64302E+00 6.18856E-01-1.80858E+00
 -1      3283-5.60784E+01-4.39665E+00-7.76860E+00 6.99006E+00-1.17287E+00-1.00740E-01
 -1      3284-2.34968E+01-2.19684E+01-2.28632E+00-2.72121E+00-5.47071E-01-1.63242E+00
 -1      3285-2.38956E+01-1.15767E+01-1.12863E+01-1.17330E+01 1.10871E+00-5.86416E+00
 -1      3286-1.30875E+01-3.10911E+01-1.40866E+01 1.26776E+01-2.86787E+00-1.76913E+00
 -1      3287-9.23199E+00-2.01012E+01-6.63355E+00 2.89516E+00 5.93170E-01 1.55728E+00
 -1      3288-1.11374E+01-4.61685E+01-1.04760E+01 1.29018E+01-1.33934E+00-1.59576E+00
 -1      3289-9.95831E+00-1.65770E+01-7.98326E+00 7.19550E+00-8.86117E-02-3.31288E+00
 -1      3290-5.07983E+01-6.19737E+00-1.24649E+01 6.53002E+00-8.49017E-01-2.87905E+00
 -1      3291-1.75473E+01-1.78541E+01-1.50096E+01-7.67251E+00 1.60060E+00-5.96429E+00
 -1      3292-9.28120E+00-4.27524E+01-1.22308E+01 1.24389E+01-1.98422E+00 1.17410E+00
 -1      3293-3.01139E+01-6.49760E+01-1.60723E+01-2.92412E+01-5.33488E+00 1.67649E+00
 -1      3294-2.01470E+01-6.72530E+01-5.93098E+00-2.74909E+01-4.09863E+00-6.05540E-01
 -1      3295-3.65147E+01-2.13095E+01-1.07315E+01 2.01131E+01-2.53634E+00-2.67639E+00
 -1      3296-1.81860E+01-2.96472E+01-1.02894E+01-1.70201E+01 2.07275E+00-7.21569E-01
 -1      3297-1.18340E+01-4.12251E+01-1.17087E+01-1.85501E+01-2.20527E+00 2.22491E+00
 -1      3298-1.04353E+01-3.78410E+01-1.27591E+01-1.65955E+01-2.45417E+00-3.54183E-01
 -1      3299-3.60827E+01-3.77946E+01-1.74020E+01-2.76817E+01 1.27207E+00-2.48163E+00
 -1      3300-5.40583E+01-2.02820E+01-1.01067E+01-2.14198E+01-3.30761E+00-1.90962E-01
 -1      3301-1.48695E+01-2.12358E+01-8.20937E+00-1.25543E+01-1.34429E+00-2.23384E+00
 -1      3302-2.52882E+01-1.64704E+01-7.67314E+00-1.48877E+01 3.35788E+00 3.52936E-01
 -1      3303-5.33859E+01-6.50209E+00-5.99016E+00-1.74532E+01 3.31658E+00-2.99940E+00
 -1      3304-4.35621E+00-4.93712E+01-9.24149E+00-9.80870E+00 6.54033E-02 2.20045E+00
 -1      3305-2.74463E+01-2.19458E+01-8.71116E+00 2.19600E+01 2.17679E+00-1.02433E+00
 -1      3306-2.46162E+01-2.28281E+01-7.35476E+00-1.95665E+00-2.36311E+00-3.08867E+00
 -1      3307-3.32103E+01-1.31626E+01-1.02325E+01 1.71446E+01-1.63156E+00 6.68952E-01
 -1      3308-2.52775E+01-3.61024E+01-1.04458E+01-2.28570E+01-2.97857E+00 4.74961E-01
 -1      3309-4.28204E+01-8.47623E+00-1.54935E+01 1.02418E+01 2.66196E+00-4.08456E+00
 -1      3310-9.92066E+00-4.18474E+01-1.08150E+01-9.44232E+00 1.39063E+00-1.04667E+00
 -1      3311-1.54394E+01-6.29752E+00 5.65792E+00-1.62127E+01-1.00195E+00 5.26758E+00
 -1      3312-4.72287E+01-9.28138E+00-1.50168E+01-1.11594E+01-1.97841E+00-3.92104E+00
 -1      3313-1.66286E+00-4.03376E+01-5.59106E+00-3.00851E+00 1.26211E+00-4.22390E+00
 -1      3314-1.93076E+01-2.18816E+01-4.99940E+00 2.71114E+00-1.58328E+00 1.86576E+00
 -1      3315-1.74658E+01-1.06228E+01-7.10700E+00 8.81666E+00 1.42251E+00-1.29861E+00
 -1      3316 1.12508E+01 1.05839E+01 4.50895E+00 1.90710E-02-2.37139E+00 2.81782E-01
 -1      3317-2.94151E+01-1.45610E+01-8.76448E+00-1.45455E+01-1.72488E+00-2.43087E+00
 -1      3318-5.93188E+01-1.43997E+01-1.42084E+01-1.23817E+01 3.22750E+00 9.00016E-01
 -1      3319-5.75201E+01-7.80208E+00-8.86774E+00 4.57496E+00 3.18424E+00 1.18938E+00
 -1      3320-3.76070E+01-1.98241E+01-4.44429E+00-1.81434E+01-5.08315E+00 7.88627E-01
 -1      3321-5.12161E+01-2.05057E+01-9.79617E+00-2.30130E+01-7.53833E-01-1.77811E+00
 -1      3322-5.74849E+00-1.47467E+01-2.78569E+00-4.16582E+00 2.81184E-01 2.73438E+00
 -1      3323-6.00011E+01-2.55981E+01-1.09962E+01-2.58141E+01 5.86649E+00-2.46280E+00
 -1      3324-2.28991E+01-1.74674E+01-8.77875E+00-1.48926E+01 1.31757E-01-3.05290E+00
 -1      3325-8.91435E+00-6.29921E+01-1.21341E+01-1.54165E+01 3.77086E-01-2.26018E+00
 -1      3326-2.03094E+01-2.02061E+01-1.96232E+01 5.94878E+00-3.07209E+00-9.03052E+00
 -1      3327-3.37173E+00-6.08274E+01-7.47333E+00-2.95698E+00-1.85622E+00-2.50420E+00
 -1      3328-3.29072E+01-3.37630E+01-1.83397E+01-2.13799E+01 1.06584E+00-7.91078E-01
 -1      3329-1.51828E+01-1.29472E+01-3.91660E+00-1.32714E+01-1.19204E+00-6.25234E-02
 -1      3330-1.47308E+01-6.82153E+01-5.53350E+00-1.36461E+01-1.13765E+00 1.21268E+00
 -1      3331-5.36441E+01-2.44344E+01-1.68093E+01-2.09100E+01 1.82449E+00 3.16938E+00
 -1      3332-7.40796E+00-2.70648E+01-1.19309E+01-3.62746E+00 2.95961E+00 3.88652E+00
 -1      3333-2.96194E+01-1.87974E+01-1.24262E+01 1.68238E+01 1.50526E+00 1.64118E+00
 -1      3334-2.69329E+01-1.76509E+01-7.34505E+00 1.50154E+01-1.26443E+00 2.85140E-01
 -1      3335-2.03647E+01-5.19256E+01-8.61094E+00 2.13718E+01-6.47036E-01-2.42808E+00
 -1      3336-3.30388E+01-2.27798E+01-1.46803E+01-2.20008E+01 3.94970E-01-2.58683E+00
 -1      3337-5.42241E+01-1.23099E+01-1.28872E+01 1.58317E+01-2.53539E+00 6.28232E+00
 -1      3338-6.29986E+00-2.48228E+01-5.95338E+00-1.05755E+01 4.89948E-01 2.48405E+00
 -1      3339-2.37970E+01-2.53148E+01-4.51935E+00 2.82062E+00 2.75291E-01 9.12425E-02
 -1      3340-1.83701E+01-4.49920E+01-1.26859E+01-1.92422E+01 3.73657E+00-1.75532E+00
 -1      3341-2.27467E+01-3.26219E+01-1.06880E+01 1.55019E+01-1.26726E+00-2.71515E+00
 -1      3342-2.14345E+01-2.32114E+01-9.41118E+00 2.75177E+00-7.88227E-01-1.87147E-01
 -1      3343-6.87405E+00-3.56326E+01-1.30290E+01 5.93390E+00 2.36341E+00 2.68075E+00
 -1      3344-3.86292E+01-2.15784E+01-8.36550E+00-1.99576E+01 3.36899E+00-7.06303E-02
 -1      3345-6.13945E+00-2.31056E+01-7.66342E+00-1.44128E+00 2.93113E-01 1.99414E+00
 -1      3346-2.51301E+01-2.09855E+01-6.29850E+00 1.94669E+01 2.38639E+00 5.09387E-01
 -1      3347-3.35079E+01-2.31181E+01-1.45193E+01 2.23423E+01 6.93417E+00-2.26179E-01
 -1      3348-1.45582E+01 2.13463E+00 5.26797E+00 4.72948E+00 2.48301E+00 2.84390E+00
 -1      3349-1.71542E+01-3.02887E+01-1.06400E+01 1.77162E+01 9.46503E-01-4.12693E+00
 -1      3350-1.01584E+01-6.25819E+01-4.38047E+00-1.83078E+01 3.88971E+00 2.13292E-01
 -1      3351-3.22366E+01-1.92592E+01-2.13276E+00 2.19557E+01-2.60422E+00-2.57437E+00
 -1      3352-5.71459E+01-1.04436E+01-1.34203E+01 1.32852E+01-8.36568E-01-1.45942E-01
 -1      3353-2.42953E+01-3.12788E+01-8.55396E+00 3.41819E+00 6.76140E-01 1.07356E+00
 -1      3354-4.90497E+01-6.65787E+00-1.34049E+01-6.17585E+00 1.23075E+00-2.77994E+00
 -1      3355-2.04272E+01-1.99128E+01-3.54428E+00 1.81343E+00-1.81324E+00 1.67285E+00
 -1      3356-1.63462E+01-1.18383E+01-1.37902E+01-8.72313E+00-3.02331E+00 6.36501E-01
 -1      3357-6.66469E+00-8.06667E-01 1.36401E+00-4.43054E+00 1.36302E+00-5.19277E-01
 -1      3358-9.50293E+00-1.93100E+01-7.67654E+00-7.38285E+00 9.81885E-01-9.17113E-01
 -1      3359-3.29399E+01 2.58898E+00-2.02833E+00-3.70330E+00-1.63543E+00-1.33186E+00
 -1      3360-8.05533E+01-2.31411E+01-1.25399E+01 1.44674E+01 1.00576E+00 2.74906E+00
 -1      3361-2.76827E+01-2.48304E+01-2.71211E+00 3.55246E+00-2.50040E+00 2.94497E+00
 -1      3362-2.62919E+01-2.71239E+01-2.95884E+00 1.68026E+00 9.47841E-02 2.90547E+00
 -1      3363-1.10114E+01-3.63353E+01-6.65748E+00 1.72269E+01 1.19005E+00-3.09120E+00
 -1      3364-5.11900E+01-2.50995E+01-1.29339E+01 2.61569E+01 1.74523E-01-1.66168E-01
 -1      3365-3.72301E+01-9.75741E+00-1.45405E+01 5.33324E+00-2.86097E+00 6.17763E-02
 -1      3366-1.12536E+01-2.18577E+01-9.05623E+00 1.14561E+01 3.12431E-01 1.88792E+00
 -1      3367-6.72025E+01-2.24469E+01-9.92188E+00 2.61119E+01 6.45885E+00-6.28554E-02
 -1      3368-2.69698E+01-2.52729E+01-1.03592E+01-2.04043E-01-1.28558E+00-2.00661E+00
 -1      3369-2.03757E+01-3.39942E+01-1.04260E+01 1.84775E+01-1.51361E+00-6.91824E-01
 -1      3370-3.49848E+01-1.99779E+01-1.38784E+01-1.54515E+01-1.25345E+00-2.86118E+00
 -1      3371-2.78558E+00-1.96377E+01 1.04159E+00 1.06333E+01-6.59195E-01-3.18546E+00
 -1      3372-1.68308E+01-2.22841E+01-4.92841E+00 1.35453E+01 1.77083E-01 3.68289E+00
 -1      3373-2.81812E+01-2.15608E+01-1.26720E+01 2.09980E+01 2.54847E+00-1.21167E+00
 -1      3374-3.42762E+01-3.01589E+01-3.60947E+00 3.16479E+01-1.28538E+00-4.66667E+00
 -1      3375-4.59800E+01-1.78064E+01-1.47159E+01 2.08907E+01-1.32172E+00-7.91264E-01
 -1      3376-2.14336E+01-2.23263E+01-4.75418E+00-2.59029E+00-2.45766E+00-5.64041E-01
 -1      3377-2.68212E+01-2.15125E+01-1.44980E+01 2.00560E+01-3.17600E+00 3.65503E+00
 -1      3378-2.65110E+01-2.93629E+01-7.58737E+00 1.83695E+00 1.87091E+00 1.23253E+00
 -1      3379-3.99131E+01-1.06415E+00-7.80414E+00 1.31518E+00 1.05731E+00-2.55897E+00
 -1      3380-1.99387E+00-3.79374E+01-8.96836E+00-2.66730E+00-9.89223E-01-3.10797E+00
 -1      3381-5.19752E+01-4.50220E+00-3.63461E+00-4.22241E+00-1.60215E+00 2.77215E+00
 -1      3382-6.92888E+00-6.86761E+01-7.20366E+00-6.46390E+00-2.23999E+00-1.07872E-01
 -1      3383-2.25166E+01-7.00887E+00-1.42002E+01 5.26849E+00-6.25176E+00 1.85553E+00
 -1      3384-4.77768E+00-6.11366E+01-1.20621E+01-4.68938E+00-1.03614E-02-2.42226E+00
 -1      3385-7.08719E+01-1.35324E+01-6.68122E+00-4.14230E+00-2.21491E+00-2.48212E+00
 -1      3386-1.84661E+01-4.76751E+01-1.17682E+01 2.25115E+01-3.15829E+00 9.86615E-01
 -1      3387-3.73126E+00-3.16145E+01-7.84634E+00-7.02395E+00-1.30282E+00 2.93787E+00
 -1      3388-1.31312E+01-4.30825E+01-3.02538E+00-8.94120E+00-2.32772E+00 3.32424E+00
 -1      3389-2.64061E+01-3.20028E+01-1.07678E+01 2.85240E+00-2.73454E-01-2.74309E-01
 -1      3390-1.79228E+01-2.82946E+01-1.03366E+01-1.59919E+01 1.36122E+00-1.28369E+00
 -1      3391-3.59513E+01-2.14915E+01-3.73454E+00-1.99117E+01-2.74326E+00 2.70301E+00
 -1      3392 5.87743E+00 4.19730E+00 2.70910E+00 6.27040E-01 1.36581E+00 5.81246E-01
 -1      3393-5.99403E+00-3.98055E+01-1.23400E+01-4.58506E+00 4.34553E-01 2.09582E+00
 -1      3394-4.97259E+01-3.69967E+01-1.29362E+01-3.11005E+01 3.08793E-01 2.66119E+00
 -1      3395-2.80881E+01-9.64053E+00-1.57423E+01-4.77620E+00 4.04354E+00 1.26532E+00
 -1      3396-3.32105E+01-4.78892E+00-1.00583E+01 5.23835E+00 1.26321E+00-1.70211E+00
 -1      3397-4.01291E+01-3.34369E+01-8.07406E+00-3.00677E+01-2.48747E+00-3.34255E+00
 -1      3398-2.32160E+01-9.98393E+00-8.40122E+00-9.97279E+00 2.77614E+00-1.00022E+00
 -1      3399-1.31935E+01-1.67402E+00-4.72301E+00 1.47170E+00 3.18569E+00 6.55226E-01
 -1      3400-2.19468E+01-1.51293E+01-1.23335E+01 1.71178E+01 2.54548E+00-8.95342E-02
 -1      3401-1.42374E+01 3.47573E+00 2.00049E+00 1.31468E+00 3.28535E+00 6.79832E-01
 -1      3402-2.25310E+01-2.36454E+01-9.60986E+00-8.95775E-01-4.16725E+00 2.40498E-01
 -1      3403-2.46256E+01-1.72901E+01-6.31213E+00-1.48416E+01-1.79078E+00 9.03041E-01
 -1      3404-2.43190E+01-2.56071E+01-1.25718E+01-3.39488E+00-2.46326E+00-2.87513E+00
 -1      3405-1.64422E+01-2.57925E+01-1.29648E+01 1.48868E+01-2.41054E+00-1.88190E+00
 -1      3406-2.11017E+01-2.24272E+01-1.42030E+01 4.80922E+00 2.23015E+00 6.18114E+00
 -1      3407-3.06987E+01-3.02630E+01-1.51683E+01 6.19581E-01-1.03825E+00 1.54900E+00
 -1      3408-6.59343E+01-3.16491E+00-1.47969E+00-5.90891E+00 1.08021E+00 4.90346E+00
 -1      3409-1.94450E+01-1.62259E+01-1.08246E-01 9.06770E+00-6.50648E+00-8.00959E-01
 -1      3410 7.57986E+00 9.05164E+00 3.32602E+00 2.27085E-01-6.89035E-02-1.82796E+00
 -1      3411-6.31546E+01-1.18289E+01-3.84617E+00-1.96951E+01 8.82897E-01-3.40532E+00
 -1      3412-3.06675E+01-3.50293E+01-1.84728E+01 2.20993E+01 1.20613E+00 1.99663E+00
 -1      3413-6.92553E+00-4.71158E+01-1.28198E+01 5.88590E+00 3.04624E+00 7.65375E-01
 -1      3414-1.74594E+01-2.06573E+01-6.83117E+00-1.01181E+00-6.83610E-01-1.99306E-01
 -1      3415-4.18446E+01-9.35864E+00-1.43338E+01 1.28476E+01-2.67375E+00 1.69545E-02
 -1      3416-1.18113E+01-2.97351E+01-7.42421E+00 1.19866E+01-7.19192E-01 1.84098E+00
 -1      3417-2.86823E+01-3.81655E+01-1.32620E+01 2.25047E+01-1.71760E+00 1.43654E-01
 -1      3418-4.92916E+01-3.20872E+01-1.06116E+01 3.03651E+01-6.12514E+00-4.32385E-01
 -1      3419-3.05551E+01-3.93120E+01-8.32627E+00 3.02362E+01 1.48047E+00 2.04351E+00
 -1      3420 1.50377E+01 8.75073E+00 1.16010E+00-3.64517E-01 1.50085E+00-3.82954E-01
 -1      3421-1.31242E+01-1.57774E+01-5.42597E+00 2.41255E+00 8.23796E-02-2.12289E-01
 -1      3422-2.11873E+01-4.06654E+01-6.56160E+00 1.95963E+01 2.07408E+00 4.58792E+00
 -1      3423-2.13652E+01-1.04802E+01-1.05039E+01-5.09106E-01-4.99668E+00 1.29659E+00
 -1      3424-7.11280E+01-3.41019E+01-1.84550E+01 3.31843E+01-3.39221E+00-1.22235E-01
 -1      3425-1.98911E+01-2.61145E+01-1.49829E+00 4.93269E-01-4.09541E+00 1.56151E+00
 -1      3426-9.10110E+00-3.93135E+01-1.19051E+01 1.36409E+01-2.21923E+00 3.19855E+00
 -1      3427 1.30787E+01 1.44386E+01 6.05994E+00-1.20797E+00 1.24469E+00 9.20914E-02
 -1      3428-1.64598E+01-3.37449E+01-1.84335E+01-2.73917E+00-2.20201E+00 6.14950E+00
 -1      3429-2.25385E+01-2.50131E+01-7.37502E+00-2.72306E+00 1.73449E+00 1.78077E+00
 -1      3430 1.88968E+00 4.52780E+00-1.45646E+00 1.18183E-01-4.39680E-03-2.07265E+00
 -1      3431 3.53466E+00 4.02250E+00 9.88038E-01 8.97140E-01-5.40619E-01-1.21762E+00
 -1      3432-3.87036E+01-4.44396E+01-8.78168E+00 3.19266E+01-1.09703E+00 3.86811E+00
 -1      3433-4.96323E+00-4.96302E+00 1.21903E+00-2.52889E+00-3.26148E-01 1.46050E-01
 -1      3434-1.96071E+01-2.48021E+01-5.97316E+00 1.85308E+00-3.22579E+00 5.30060E-01
 -1      3435-1.23494E+01-2.96605E+01-1.12792E+01 1.29047E+01 4.42105E+00 2.77115E-01
 -1      3436 1.84762E+01 2.26653E+01 2.92667E+00-6.46939E-01-1.21705E+00-2.29296E-02
 -1      3437-1.09687E+01-5.78002E+01-1.75359E+01 6.85850E+00 1.07986E+00 1.77895E+00
 -1      3438-1.16287E+01-1.65733E+01-6.18510E+00 1.05236E+00-1.04494E+00 3.94365E-01
 -1      3439 1.08919E+01 8.97042E+00 1.00721E+00-1.61130E+00-3.09164E-01-1.47881E+00
 -1      3440-1.48463E+01-1.26106E+01-5.91885E+00 2.31716E+00-7.93630E-01-2.69512E-01
 -1      3441 7.44844E+00 7.29784E+00 1.02379E+00 1.11211E+00-6.04305E-02-6.60097E-01
 -1      3442 2.36015E+00 3.43033E+00-7.01487E-01-4.49663E-01-1.56855E-03 1.93260E+00
 -1      3443 5.00509E+00 2.88387E+00 2.56849E+00-3.85453E-01 7.46812E-01 1.00585E+00
 -1      3444 1.21901E+01 1.46947E+01 4.29580E+00 2.24322E+00 7.92146E-02-9.21562E-01
 -1      3445-3.28114E+00-3.27385E+01-5.58780E+00 5.38138E+00-2.02378E-01 5.01691E-02
 -1      3446-6.65676E+01-2.16637E+01-7.03213E+00-2.66402E+01-6.61720E+00-3.32512E+00
 -1      3447-3.87272E+01-3.99342E+01-6.17724E+00-3.46574E+01 5.79218E-01-3.48627E+00
 -1      3448-6.89158E+00-3.10422E+01-1.02640E+01-4.62650E+00-7.63586E-01 4.00727E+00
 -1      3449-2.41524E+01-2.10137E+01-1.02192E+01-9.60981E-01-4.21259E-01-2.08692E+00
 -1      3450-1.89078E+01-1.09421E+01-1.28187E+01 7.09192E-01-6.79488E+00 3.81127E+00
 -1      3451-3.15706E+01-1.25891E+01-3.84361E+00-1.53434E+01-1.33728E+00 2.97603E+00
 -1      3452-2.05539E+01-2.46047E+01-1.01777E+01 2.06306E+00 6.94546E-01-2.64985E-01
 -1      3453-2.08390E+01-2.26313E+01-9.81718E+00 1.24278E+00 8.38650E-02-1.14915E+00
 -1      3454-3.72968E+01-8.34330E+00-1.27190E+01-8.43847E+00 5.23501E-01-7.03317E-01
 -1      3455-2.56238E+01-2.14703E+01-6.99502E+00 1.89933E+01-3.31722E+00 2.46779E-01
 -1      3456-2.53592E+01-2.29544E+01-1.24007E+01 2.10303E+00 1.18186E+00 1.41143E-01
 -1      3457-2.69717E+01-3.05146E+01-1.24294E+01 9.67783E-01 1.50991E+00-1.38359E+00
 -1      3458-2.07218E+01-2.64640E+01-3.30080E+00-2.65235E+00 7.64093E-01-1.91200E-01
 -1      3459-1.02787E+01-2.70492E+01-9.91973E+00 1.38388E+01-7.07529E-01-2.51209E+00
 -1      3460-2.60949E+01-1.37221E+00-8.25507E+00-2.27025E+00-3.44058E+00-1.40011E+00
 -1      3461-3.64019E+00-4.06975E+01-1.06661E+01-6.60180E+00-1.29975E+00 3.08000E+00
 -1      3462-7.64866E+00-3.84415E+01-8.53337E+00-4.99503E+00 2.02731E+00 2.58229E+00
 -1      3463-2.31861E+01-2.57510E+01-5.94501E+00-1.81063E+00 9.71238E-02 2.40398E-01
 -1      3464-2.79421E+01-2.58537E+01-1.15114E+01-3.65950E+00-1.81437E+00-3.63967E+00
 -1      3465-8.29847E+00-4.51445E+01-5.28815E+00-5.52246E+00-6.04546E-01-3.58766E+00
 -1      3466-2.20863E+01-3.56689E+01-1.11580E+01-2.04047E+01 3.72619E+00-6.74091E-01
 -1      3467-2.01077E+01-3.80591E+01-5.25470E+00 1.84874E+01 4.08533E+00 1.53445E+00
 -1      3468-2.80037E+01-6.36931E+00 5.79241E-01 1.37255E+01-3.08430E+00-1.45325E+00
 -1      3469-4.44197E+00-4.77112E+01-1.47323E+01-1.98371E+00-1.01991E+00 2.24118E+00
 -1      3470-2.75129E+01-5.03326E+00-4.72335E+00-9.27296E+00-1.85700E+00 2.53519E+00
 -1      3471-6.07630E+00 1.51857E+00 2.35546E+00-5.11812E+00-1.24938E+00-2.58114E-01
 -1      3472-3.18088E+01-2.92118E+01-1.20302E+01 3.96372E+00-2.28561E+00 4.15847E+00
 -1      3473-2.07503E+01-1.43039E+01-1.37522E+01 1.22109E+01 2.20012E+00-1.02121E+00
 -1      3474-1.90101E+01-5.87742E+01-4.59523E+00 2.71350E+01 6.64051E-01 3.29489E+00
 -1      3475-3.03462E+01-3.64258E+01-1.98282E+01 2.29809E+01-8.09806E-01 5.44066E-01
 -1      3476-2.43802E+01-2.39617E+01-6.60489E+00 1.28617E+00 6.46041E-03 7.09197E-02
 -1      3477-2.32004E+01-2.30139E+01-8.56077E+00-3.11847E+00 2.29908E+00 3.56086E+00
 -1      3478-4.34870E+01-9.92322E+00-7.22775E+00-6.82911E+00 1.23784E+00 1.85928E-01
 -1      3479-2.40501E+01-2.58129E+01-8.28572E+00 1.72646E+00 1.01376E+00 1.28400E+00
 -1      3480-2.28864E+01-2.44349E+01-9.20187E+00 1.28184E+00-1.55223E+00 7.73986E-01
 -1      3481-3.73895E+01-6.34744E+00-7.02795E-01-4.29138E+00-4.97306E+00 2.51022E+00
 -1      3482-2.39480E+01-7.64593E+00-1.00706E+01-9.77527E-01 1.90009E+00 1.39836E-01
 -1      3483-1.90309E+01-3.34729E+01-1.43464E+01 1.79649E+01 1.42370E+00 1.73975E+00
 -1      3484-2.86921E+01-4.52692E+01-3.53119E+00 3.32418E+01 3.00438E+00 7.13604E-02
 -1      3485-1.15624E+01-1.68208E+01-5.15602E+00-9.82739E-01 1.67187E-01-3.60383E-01
 -1      3486-3.63907E+01-4.21815E+01-7.60658E+00 3.09555E+01-1.38008E-01 3.44941E+00
 -1      3487 1.78822E+01 1.31255E+01 1.23383E+00 4.04641E+00-1.02815E+00 2.24687E+00
 -1      3488-1.18319E+01-1.99308E+01-7.13649E+00 1.04044E+01 1.92042E+00 1.28910E+00
 -1      3489-3.02247E+01-3.06212E+01-1.09730E+01 2.23552E+00 1.64587E+00-9.47197E-03
 -1      3490 1.60129E+01 1.24930E+01 7.78943E-01-2.94427E+00-6.33508E-01-2.18386E+00
 -1      3491-1.01546E+01-1.12046E+01-8.22737E+00-1.95642E+00-7.18020E-01-2.01487E-01
 -1      3492-1.15100E+01-1.51849E+01-6.17489E+00 2.38228E+00 2.88682E-01 3.25218E-01
 -1      3493 1.83193E-01-1.77682E+01 1.82945E+00 1.57141E+00 2.79427E+00 2.74080E+00
 -1      3494-3.86106E+01-2.48829E+01-3.71685E+00 2.65891E+01 6.02839E+00 2.41838E+00
 -1      3495-4.59675E+00-5.56519E+00-7.85104E+00-4.69830E-01-2.48065E+00-1.43537E+00
 -1      3496 4.32602E+00 3.51786E+00-2.16275E-01-6.93183E-01-1.37859E+00 2.74493E+00
 -1      3497-7.79893E+00-4.84549E+00-5.38191E+00-7.31289E-02-1.06783E+00 5.12638E-01
 -1      3498-1.64578E+00 3.91902E-01-1.48720E+00 6.35084E-01 9.75497E-01 8.07012E-02
 -1      3499-1.85429E-01 1.48571E-01-5.92871E+00 5.70157E-01 2.29337E+00 1.48180E+00
 -1      3500 2.09013E-01 7.52950E-01-3.54801E+00-3.40074E-01 3.00085E+00-2.30245E-01
 -1      3501 3.93929E+00 1.23687E+00-1.84532E+00-1.03986E+00 2.22147E+00-1.00272E+00
 -1      3502-2.78314E+00-2.16352E+00-3.26159E+00 6.57286E-01 8.58474E-01 8.40157E-01
 -1      3503-4.16371E+00-4.71631E+00-4.22428E+00 1.28413E+00 1.81909E-01 8.10197E-01
 -1      3504-9.69139E+00-1.29953E+01-2.77237E+00 6.61788E+00 4.81859E-01 1.22586E+00
 -1      3505 2.21429E+00 8.43883E-01-1.98150E+00-1.64160E-01-3.63319E-01-2.55412E+00
 -1      3506 1.66351E+00 2.29954E+00-4.44824E+00 3.73149E-01 1.36576E+00-2.08386E+00
 -1      3507-6.33400E-01-1.59656E+00-2.24232E+00 2.36230E-01-9.84355E-03-8.89584E-01
 -1      3508-2.44214E+00-4.13999E+00-3.39928E+00 6.12203E-01 7.07270E-01 2.53372E+00
 -1      3509 1.10404E+00 1.00168E+00-1.13086E+00-6.37653E-01 2.61664E-02 1.91187E-02
 -1      3510-1.62465E+00 1.15345E-02-1.39353E+00-6.48079E-01-2.12379E+00-7.63390E-02
 -1      3511-1.33366E+00-2.51326E-02-9.02303E-01 4.09932E-01-2.59563E+00 1.80111E+00
 -1      3512-5.27943E+00-4.91114E+00-1.43272E+00 4.24217E-01 7.69115E-01 1.13384E+00
 -1      3513-3.55326E+00-6.38478E+00-1.98049E+00 7.77379E-02 1.48161E+00-1.45493E+00
 -1      3514-6.17114E-01-2.78119E+00-4.30868E+00-4.11589E-01-5.63045E-03-3.42477E+00
 -1      3515 2.04751E-01-1.11625E+00-1.06023E+00 4.40419E-01-1.32483E+00-2.52472E+00
 -1      3516-5.41505E+00-6.32962E+00-4.60118E-01-1.81644E+00 7.19135E-01-1.49222E+00
 -1      3517-3.44874E+00-1.48748E+01-1.36030E+00 1.08190E+00 5.73666E-01-6.04291E-01
 -1      3518-3.59537E-01-5.57195E-01-2.32891E+00-3.40553E-01 8.77430E-01 2.49971E-01
 -1      3519-1.67847E+00-3.82063E-01 3.15790E-01-4.79671E-01 1.22359E+00-5.58864E-02
 -1      3520-3.97003E+00-5.06062E+00-5.96613E+00 1.46940E-01 8.67365E-01-3.47597E-01
 -1      3521-9.47956E+00-6.53316E+00-7.06208E-01-4.82414E+00-8.79873E-01 8.82847E-01
 -1      3522-8.68201E+00-9.86174E+00-2.84681E+00-9.98314E-01 3.04820E-01 1.04374E+00
 -1      3523-8.35078E+00-1.20068E+01-2.58891E+00 2.81881E+00 6.91328E-01 1.16077E+00
 -1      3524-1.00900E+01-1.32083E+01-3.26145E+00-5.54108E-01 1.78577E-01-1.68111E+00
 -1      3525 1.04977E-01 1.75161E+00-1.05792E+00 4.69038E-01-2.05933E+00-1.36367E+00
 -1      3526-3.69825E+00-3.03107E+00-2.53988E+00-5.42119E-01-5.60552E-02 1.11554E+00
 -1      3527-1.13974E+01-9.19282E+00-2.98933E+00 3.77652E-01 2.29183E-01 5.08212E-02
 -1      3528 2.93142E+00 1.75675E+00-3.53426E+00 1.98623E-01-1.02298E-01 2.67908E+00
 -1      3529-1.74093E+00-1.80395E+00-1.31142E+00-8.30063E-01-7.05898E-01 6.60553E-01
 -1      3530-1.11489E+01-4.87537E+00-6.43768E-01 1.79021E+00 4.11402E-01 6.18834E-02
 -1      3531 2.43689E+00 2.19379E-01-2.28941E+00 7.58568E-02-4.56070E-01 2.72844E+00
 -1      3532-1.49460E+01-1.58357E+01-3.54221E+00-9.89072E-01-7.58702E-02 2.14085E+00
 -1      3533-8.45127E+00-6.29436E+00 7.11497E-01 3.61854E-01 1.28498E+00-4.25704E-02
 -1      3534-3.81336E+00-6.47974E+00-3.10969E+00-7.12709E-01 1.10534E+00-2.25238E+00
 -1      3535-9.30367E+00-6.03563E+00 6.44655E-01 1.46440E+00-3.04559E-01 3.54660E-01
 -1      3536-3.71228E+00-2.40559E+00-1.90115E+00 8.43974E-01 1.06943E+00 1.22525E-01
 -1      3537-1.36899E+00-2.67720E+00-1.69717E+00-3.66935E-01-7.46345E-01 2.87945E-01
 -1      3538-8.19820E+00-5.75602E+00-2.76235E-01-1.94299E+00 3.90461E-01 4.20524E-01
 -1      3539-1.07415E+01-9.94862E+00-5.37158E+00 7.79956E-01-1.37629E-01-2.25104E-02
 -1      3540-1.47649E+01-1.48490E+01-4.13581E+00 8.10292E-01-9.76336E-02-1.63114E-01
 -1      3541-8.58589E+00-8.99706E+00-2.40599E+00 4.84467E-02-5.53996E-01 3.49755E-01
 -1      3542-5.84157E-01-7.03371E-01-6.19602E-01-1.12708E-01 9.78217E-01-1.80879E-01
 -1      3543-3.54451E+00-2.62441E+00-1.95209E+00 5.09166E-01-7.47321E-01-7.33617E-02
 -1      3544-2.04647E+00 3.82304E-01-1.74537E+00-3.71717E-01-2.59745E+00-8.93532E-01
 -1      3545-3.90073E-01 1.33376E+00-2.52305E+00 8.21714E-01-2.12490E+00 1.14256E+00
 -1      3546-9.19105E+00-9.83269E+00-3.82507E+00 3.70796E-01 1.74604E+00-7.16949E-01
 -1      3547-1.17841E+01-1.17070E+01-4.81968E+00 7.06567E-01-9.98151E-01 6.48567E-01
 -1      3548-1.74531E+01-1.79153E+01-8.14672E+00 7.55049E-01-8.20229E-01-1.41949E+00
 -1      3549-8.42709E+00-1.72247E+01-2.69020E-01-4.60614E+00 5.79001E-01 1.98491E+00
 -1      3550-2.33969E+01-1.24879E+01-3.64059E+00 1.27478E+01-7.57267E-01-4.16893E-01
 -1      3551-1.21496E+01-1.09559E+01-5.92053E+00 2.83730E-01-1.06312E+00 1.80160E+00
 -1      3552-3.55863E+00-2.99336E+00-2.74151E+00 5.85358E-01 8.05217E-01 9.15395E-02
 -1      3553-1.27425E+01-2.13286E+01-2.64777E+00-8.87045E+00 9.73749E-01-1.51362E+00
 -1      3554-2.22741E+01-1.00730E+01-7.98082E+00-1.10848E+01-7.66545E-01 2.19455E-01
 -1      3555-2.87309E+01-5.40599E+00-1.67876E+00-6.70910E+00-9.93630E-01 7.66174E-01
 -1      3556-7.89544E+00-1.25694E+01-2.43118E+00-6.43045E+00 5.84107E-01 3.78720E-02
 -1      3557-1.34689E+01-1.43551E+01-3.42921E+00 1.11133E+00 3.35071E-01 1.42572E+00
 -1      3558-1.02622E+01-9.71620E+00 1.57692E+00-4.23282E+00-1.06529E+00 6.87708E-01
 -1      3559-1.46401E+01-6.92757E+00 1.67743E+00-5.00657E+00 1.68787E+00 2.61438E-01
 -1      3560-2.89409E+01-5.23531E+00-7.18038E+00 6.30717E+00-2.17730E+00-4.73265E-01
 -1      3561-7.03531E+00-1.23926E+01 1.01244E+00 2.42338E+00-9.27535E-02-1.20127E+00
 -1      3562-1.00286E+01-9.36725E+00-1.03234E+01-3.55525E-01 1.91835E+00-1.09863E+00
 -1      3563-4.79753E+00-5.45186E+00-1.75160E+00-3.67081E-02 9.99438E-01 6.45288E-02
 -1      3564-1.46415E+01-1.71700E+01-9.20273E+00 1.11334E+00 1.23234E+00 4.72635E-01
 -1      3565 1.14305E+00 1.31912E+00-1.43132E+00-4.94260E-01 1.82070E+00-1.17293E+00
 -1      3566-1.12972E+01-1.12391E+01-5.74642E+00-1.82104E+00-8.94751E-01-1.77765E+00
 -1      3567-3.78755E+00-5.10090E+00-3.05673E+00-2.15254E-01-3.13831E-01-7.56578E-03
 -1      3568-3.94815E+00-4.28181E+01-9.27221E+00 6.70889E+00-1.64482E+00-1.02890E+00
 -1      3569-3.18038E+00-1.88164E+00-4.84849E+00-4.60152E-02-1.90155E+00-9.03432E-01
 -1      3570-1.39831E+01-1.60670E+01-8.85973E+00 1.43850E+00 8.07127E-01 6.80578E-01
 -1      3571-1.33329E+01-2.90088E+00-2.79816E+00 1.61228E+00 1.07582E+00 6.75258E-02
 -1      3572-1.05179E+01-9.60651E+00-6.29088E+00 1.52874E-01 1.05028E+00 5.39588E-01
 -1      3573-3.23452E+01-5.69529E+00-2.12307E+00 7.23633E+00 1.61924E+00 3.77590E-01
 -1      3574-3.85119E+01-3.98284E+00-7.06853E+00 7.67196E+00 1.14650E+00-1.04825E+00
 -1      3575-5.09200E+00-7.75137E+00-3.30361E+00-4.83470E-01 5.26597E-01 2.11282E+00
 -1      3576-3.31906E+01-1.81078E+01-8.18666E+00 2.00031E+01-1.73863E+00-4.83874E-01
 -1      3577-1.04884E+01-1.91813E+01-2.38648E+00 8.61108E+00 3.95876E-01 2.25386E+00
 -1      3578-8.40387E+00-7.82704E+00-2.06690E+00 2.11026E+00 9.94598E-01 1.37986E+00
 -1      3579-2.11433E+01-1.05280E+01-7.61305E+00 1.30380E+01-1.21545E+00 1.52463E+00
 -1      3580-2.65266E+01-4.63710E+00-3.95983E+00-7.16810E+00 1.65155E-01 7.04221E-01
 -1      3581-1.25884E+01-9.62427E+00-4.82887E-01-7.15028E+00 8.84083E-01 2.04955E-01
 -1      3582-4.03659E+00-2.47567E+00-3.01715E+00 7.93055E-01-8.97575E-01-5.92737E-01
 -1      3583-8.10125E+00-7.73215E+00-3.88750E+00 2.17053E-01-4.22718E-02 8.11836E-01
 -1      3584-4.72679E+00-2.40467E+01-7.88574E+00-4.74124E+00 1.10767E-01-2.24951E+00
 -1      3585-9.86995E+00-1.14199E+01-2.51405E+00 6.72360E-01 3.40535E-01-9.21618E-01
 -1      3586-2.45213E+00-3.78248E-01-2.58355E+00 7.53490E-01-2.77749E+00 8.15057E-01
 -1      3587-1.07400E+01-9.94277E+00-3.22108E+00 1.46163E+00-1.06347E+00 4.20231E-01
 -1      3588-4.76682E+00-2.30726E+00-3.35953E+00-5.06235E-01 8.36242E-01 4.75139E-01
 -1      3589-1.49118E+01-1.14807E+01-4.68754E+00 7.14659E-01-2.40891E-01 4.65833E-01
 -1      3590-7.29672E+00-5.61663E+00-2.30319E+00 6.57241E-01 5.77778E-01-3.53093E-01
 -1      3591-1.36681E+01-6.18056E+00-3.36560E+00-9.97652E-01 9.98943E-01 3.24954E-01
 -1      3592-3.94520E+01-5.64204E+00-5.69071E+00 5.67956E+00-2.13722E+00-8.59553E-01
 -1      3593-1.20724E+01-1.95907E+01-9.72039E+00-9.45147E+00 2.26249E+00-1.53152E-01
 -1      3594-7.05797E+00-5.84794E+00-3.14116E+00 1.14593E+00-1.67733E+00-1.12754E+00
 -1      3595-2.63077E+01-3.68523E+00-8.48357E+00 4.45317E+00-1.17212E+00-1.07588E+00
 -1      3596-1.23758E+01-1.20552E+01-5.95372E+00-5.25235E+00 1.41536E+00-5.99355E-01
 -1      3597-1.10925E+01-7.54787E+00-8.26294E-01 4.02974E+00 7.25132E-01 4.90266E-01
 -1      3598-4.09265E+00-1.14907E+01-7.93830E-01-7.61726E-01-2.60544E-01 1.26920E+00
 -1      3599-9.08223E+00-1.15068E+01-2.06376E+00 1.34633E-01 8.89377E-01-4.02559E-01
 -1      3600-1.28239E+01-1.22816E+01-2.53529E+00 8.51278E-01 4.53936E-01-4.02024E+00
 -1      3601-1.16586E+01-1.47872E+01-3.40043E+00 1.90676E+00 3.03818E-01 6.82801E-01
 -1      3602-2.97366E+00-3.82406E+00-2.22197E+00-4.49043E-01-1.38007E+00 1.69697E+00
 -1      3603-5.04587E+00-1.74009E+01 1.20619E+00-1.35454E+00 6.22909E-01 1.38604E+00
 -1      3604-1.40105E+01-1.08819E+01-2.95415E+00 9.92032E-01-7.42415E-01-7.40243E-01
 -1      3605-9.00719E+00-1.08968E+01-5.39123E+00-9.46192E-01-3.81322E-01-2.57315E-01
 -1      3606-4.98925E+00-1.34228E+01-5.45458E-01 3.47996E+00 2.74435E-01 8.51427E-01
 -1      3607-1.02668E+01-2.22801E+01-2.73581E+00 1.16627E+01-8.28857E-01 2.46877E-02
 -1      3608-1.45863E+01-1.20810E+01-2.72511E+00 2.09275E-01 4.96400E-01 6.46107E-01
 -1      3609-1.58164E+01-1.24465E+01-8.11123E+00 1.36809E+00 2.59260E-01 2.20320E-01
 -1      3610-1.47566E+01-8.88958E+00-2.79147E+00-9.42548E+00 1.93565E+00-1.03204E+00
 -1      3611-1.29311E+01-1.65163E+01-6.46319E+00 1.07336E-01-1.23907E+00 5.25630E-01
 -1      3612-3.45124E+01-5.30321E+00-5.68114E+00 8.33332E+00-1.69136E+00 1.42881E+00
 -1      3613-5.36380E+00-8.17351E+00 1.54885E-01-5.31350E-01 2.07029E+00-1.38734E+00
 -1      3614-5.04500E+00-7.56863E+00-2.94358E+00-1.69161E-01-4.24099E-02 1.92506E+00
 -1      3615-1.86203E+01-1.76017E+01-5.65635E+00-6.65975E-01-7.12336E-01-1.28160E+00
 -1      3616-3.06750E+01-4.09392E+00-7.13740E+00-6.17314E+00-8.09867E-01-6.23183E-01
 -1      3617-1.89000E+01-1.69973E+01-5.56380E+00 7.69859E-01-2.77645E+00 4.18242E-01
 -1      3618-1.00228E+00-8.46834E-01 8.18647E-02-2.07320E-02-1.83770E+00 1.38042E+00
 -1      3619-1.55288E+01-1.37057E+01-5.46368E+00 1.15560E+00-1.93242E+00 3.65809E-01
 -1      3620-6.45792E+00-4.80213E+00 1.79360E+00 1.41588E+00-9.86853E-01-6.51518E-01
 -1      3621-9.95164E+00-1.95162E+01-6.12215E+00 1.09066E+01-5.43777E-01-1.23291E+00
 -1      3622-9.62325E+00-2.20192E+01-6.74120E+00-1.30670E+01-1.23580E+00 4.90865E-01
 -1      3623-1.24880E+01-1.26973E+01-5.79647E+00-3.92760E+00-7.58803E-01 1.17354E+00
 -1      3624-1.55877E+01-1.55973E+01-4.95429E+00-8.95288E-02-1.33693E-01-8.80214E-01
 -1      3625-7.39913E+00-4.35143E+01-1.07589E+01 7.01038E+00 1.40519E+00 1.02209E+00
 -1      3626-3.28362E+01-4.66651E+00-6.62254E+00-5.70607E+00 1.54590E+00-1.21803E+00
 -1      3627-6.48813E-01 1.85617E+00-9.86442E-01 1.56669E+00 1.57423E+00 9.51482E-01
 -1      3628-1.57172E+01-1.56041E+01-7.68897E+00 1.08584E+00-2.35511E-01 2.52200E+00
 -1      3629-1.31116E+01-9.15992E+00-5.70598E+00 3.16060E-01-8.88890E-01 6.10940E-01
 -1      3630-1.11823E+01-9.24574E+00-2.50376E+00-1.34308E+00 4.47926E-01 1.82067E-01
 -1      3631 1.41050E+00 1.41487E+00-1.62256E+00 3.38674E-01 2.04860E+00 1.00608E+00
 -1      3632-2.85925E+01-5.23560E+00-4.72182E+00 4.67846E+00 3.84223E-01 1.07383E-01
 -1      3633-3.56411E+00-2.98268E+01-4.56000E+00-5.81754E+00-2.52325E-01-1.33973E+00
 -1      3634-1.27989E+01-1.24031E+01-6.33435E+00-3.31505E-01-1.54880E+00 9.71883E-01
 -1      3635-8.96894E+00-1.10266E+01-4.48216E+00-3.60260E-01-1.42226E-01-2.22355E-01
 -1      3636-3.50613E+01-3.63041E+00-2.70160E+00-6.22230E+00 8.69341E-01-1.22361E+00
 -1      3637-2.06430E+01-1.04421E+01-8.01373E+00 1.11774E+01-1.39299E+00-2.13229E+00
 -1      3638-1.00211E+01-9.14008E+00-3.29790E+00-8.16367E-01-1.87866E-01-2.58228E-01
 -1      3639-2.34104E+01-4.26847E+00-6.33654E+00-3.19256E+00-9.23673E-01 1.54235E+00
 -1      3640 1.43138E+00-9.83012E-01 2.49163E-01-5.30229E-01 1.63107E+00-3.17792E+00
 -1      3641-8.21686E+00-8.67039E+00-3.31481E+00 3.06747E+00 1.93833E-01 1.03156E+00
 -1      3642-9.51136E+00-1.04123E+01-6.16696E+00-6.59323E-01-7.77078E-01 8.89092E-01
 -1      3643-1.20104E+01-8.95695E+00-8.28799E-01-8.03642E-01-4.20890E-01 1.53460E-02
 -1      3644-1.80001E+01-3.96077E+01-4.67017E+00 2.01620E+01-1.49392E+00-2.78509E+00
 -1      3645-1.61700E+01-8.04628E+00-3.94888E+00-6.79481E+00 2.68371E-01-9.22557E-01
 -1      3646-8.68341E+00-1.31499E+01-3.84081E+00 2.51531E+00-1.31328E-01-1.55331E+00
 -1      3647-1.29738E+01-1.47650E+01-2.88660E+00-6.54513E-01 1.87505E+00-3.33037E-02
 -1      3648-1.44292E+01-1.34901E+01-4.48760E+00-6.68132E-03 2.28863E-01 3.50287E-01
 -1      3649-3.63533E+00-4.05436E+01-6.55179E+00-8.66757E+00-8.51089E-02-1.49249E+00
 -1      3650-1.74034E+01-2.38390E+01-1.36708E+00-1.46882E+01 8.05098E-01-1.81717E+00
 -1      3651-2.68529E+01-2.41187E+01-9.88251E+00 2.40546E+00-1.70328E+00 4.44580E+00
 -1      3652-8.07425E+00-9.29801E+00-1.19596E-02-2.67134E-01-3.20060E-01-1.32404E+00
 -1      3653-1.55177E+01-1.51668E+01-2.20453E+00 1.24547E-01 1.45642E+00-2.10516E-02
 -1      3654-8.93572E+00-1.32412E+01-2.40002E+00-6.39159E+00 3.05088E-01 6.18955E-01
 -1      3655-9.85703E+00-1.90938E+01-7.31118E+00-1.12293E+01 5.29171E-01 2.77754E+00
 -1      3656-2.09913E+01-2.01509E+01-8.10734E+00 9.93120E-01 2.15539E+00 7.11975E-01
 -1      3657-4.91145E+00-4.82661E+00-2.84200E+00-1.29999E-01-1.48931E+00 9.66712E-03
 -1      3658-8.72083E+00-8.25940E+00-3.36608E+00 1.27510E-01-1.50352E-01-3.02676E-01
 -1      3659-1.01917E+01-2.19263E+01-5.05388E+00-1.16737E+01-4.46424E-01 2.53650E-01
 -1      3660-4.36258E+00-2.72335E+01-6.84230E+00 6.31500E+00-5.01654E-01 2.29266E+00
 -1      3661-2.65535E+01-6.29226E+00-3.95458E+00-6.09248E+00 1.04108E+00-1.74161E-01
 -1      3662-1.12172E+01-5.34722E+00 5.68329E-01 3.69175E-01-7.14684E-01 5.59301E-01
 -1      3663-1.00786E+01-9.39829E+00-3.91398E+00-3.15674E-01 1.38668E+00-9.29599E-01
 -1      3664-1.88031E+01-2.50004E+00-6.31383E+00-2.75031E+00 7.34775E-01-1.04532E+00
 -1      3665-4.26548E+01-6.55214E+00-7.29034E+00 6.54905E+00 2.01494E+00-1.64778E-01
 -1      3666-3.76017E+00-5.58970E+00-4.02838E+00 9.41188E-01-9.64921E-01-1.66186E+00
 -1      3667-2.52903E+01-1.56922E+01-4.58142E+00 1.60457E+01 2.27610E+00 5.61330E-01
 -1      3668-1.88738E+01-1.79766E+01-5.87714E+00-1.49172E+00 9.60551E-01 3.26065E+00
 -1      3669-3.19440E+01-3.10201E+00-8.60045E+00 5.74106E+00 1.90142E+00 7.52848E-01
 -1      3670-1.90111E+01-1.12557E+01-5.13566E+00 1.14422E+01 3.98532E-01-7.82180E-02
 -1      3671-1.81453E+01-8.25119E+00-3.34004E+00-9.13296E+00 2.97851E-01 1.19150E+00
 -1      3672-1.48570E+01-2.76275E+01-7.32426E+00-1.67075E+01 3.73564E-01 1.70206E+00
 -1      3673-3.03477E-01-2.66911E+01-3.10285E+00-4.11156E+00 1.04965E+00 1.21834E+00
 -1      3674-1.86328E+01-3.96890E+01-3.39397E+00-2.20796E+01-1.70966E+00 3.97006E+00
 -1      3675-9.59521E+00-1.05299E+01-2.40806E+00 3.64575E+00-3.86033E-01-3.88294E-01
 -1      3676-3.24881E+01-6.84847E+00-1.65416E+00 6.45228E+00-2.15652E+00-9.99524E-01
 -1      3677-2.78175E+01-1.50809E+01-6.74706E+00 1.90474E+01 1.27712E+00 1.10627E+00
 -1      3678-1.62282E+01-1.49439E+01-6.14199E+00 1.40396E-02-9.79430E-02-1.54270E-01
 -1      3679-1.44339E+00-4.10537E+01-7.83373E+00-6.47948E+00-1.41044E+00 1.52689E+00
 -1      3680-4.79451E+00-4.81972E+00-1.63399E+00-3.85280E-01 1.51903E-01 5.73056E-01
 -1      3681-1.23198E+01-1.09425E+01-2.97660E+00-1.21089E+00-2.95453E-01 3.25078E-01
 -1      3682-2.30363E+01-1.28355E+01-6.54586E+00-1.48491E+01-1.10500E+00 4.22906E-01
 -1      3683-2.19263E+01-1.29755E+01-7.39734E+00-1.26698E+01 4.80636E-01 1.65332E+00
 -1      3684-2.14077E+01-2.31066E+01-1.17094E+01 8.28858E-02-9.27985E-01 4.15725E-01
 -1      3685-6.01663E+00-1.22787E+01-2.72426E+00-1.49951E+00 8.02219E-03 5.78245E-01
 -1      3686-7.96448E+00-5.42183E+00-3.36368E+00 5.86365E-01 2.25312E-01-3.49054E+00
 -1      3687-2.59433E+00-3.09471E+01-3.37678E+00 7.20299E+00-1.13201E+00 1.51670E+00
 -1      3688-2.21701E+01-1.09649E+01-9.60741E+00 1.33094E+01 1.46246E+00-4.31225E-01
 -1      3689-1.36672E+01-7.12408E+00-4.09205E+00 2.71622E+00 1.59292E+00-1.25986E-02
 -1      3690-1.09242E+01-2.03651E+01-4.68156E+00 1.18238E+01-2.20685E-02-4.66058E-01
 -1      3691-1.47139E+01-1.38028E+01-9.00418E+00 5.96605E-03 8.23432E-01 2.27126E+00
 -1      3692-3.72069E+00-1.98834E+01-2.71802E+00 4.46139E+00-5.44426E-01-1.46598E+00
 -1      3693-3.45102E+00-5.97260E+00-3.08785E+00 1.24402E+00-6.01377E-01-9.98538E-01
 -1      3694-1.13059E+01-1.04821E+01-7.83809E+00 5.52735E-01-1.92565E+00-4.84253E-01
 -1      3695-7.38726E-01-1.89003E+00-2.04980E+00-3.28853E-01-6.75377E-01 8.67852E-01
 -1      3696-2.51505E+00-1.50555E+00-2.45466E+00 3.68462E-01-8.31570E-01 5.58927E-01
 -1      3697-1.97738E+01-8.87533E+00-3.83915E+00-1.28582E+01-3.67197E-01-2.03222E+00
 -1      3698-9.95592E+00-1.09648E+01-3.36915E+00 2.03736E-01 9.03706E-01-7.91931E-01
 -1      3699-2.15191E+00-3.73191E+00-1.83672E+00 4.21888E-01-7.55323E-01-8.23012E-01
 -1      3700 9.01541E-01 2.01301E+00 2.23465E+00-5.12299E-01-2.32521E+00 1.08038E+00
 -1      3701-1.48423E+01-1.28572E+01-6.84511E+00 9.71512E-01 7.80623E-01 4.25065E-01
 -1      3702-1.71519E+01-9.26461E+00-6.10831E+00 2.32186E+00-3.02415E+00-3.91308E-01
 -1      3703-1.58649E+01-1.44502E+01-4.89545E+00-1.40247E+00-2.28191E+00-2.33574E+00
 -1      3704 7.01367E-01-1.15871E+00 2.34630E-01 1.64475E-01-6.11165E-01-2.73605E+00
 -1      3705-2.35486E+01-3.95924E+00-6.07008E+00-4.19926E+00 1.08682E+00 7.76248E-01
 -1      3706-3.73017E+01-5.71401E+00-6.83522E+00-9.39078E+00-1.50167E+00 1.25385E+00
 -1      3707-1.97872E+00-2.86045E+00-1.45817E+00-1.01960E+00-2.90651E-01 1.02058E+00
 -1      3708-2.40329E+00-2.72061E+00-3.05403E+00-7.03382E-01-8.70298E-01 5.27948E-01
 -1      3709-1.51278E+00-2.21507E+00-8.59761E-01 3.75051E-01-2.90997E-02-7.19449E-01
 -1      3710-2.20787E+00-1.83539E+00-1.63965E+00 3.98547E-01 8.49788E-01 7.15471E-01
 -1      3711-2.34783E+00-2.28772E+00-2.75684E+00-9.14743E-01-4.93721E-01-1.08228E+00
 -1      3712-4.30844E+00-3.53314E+01-4.90166E+00-4.60439E+00 5.31754E-01-1.82793E+00
 -1      3713-8.78446E+00-9.11983E+00-4.71398E+00 8.82855E-01-1.60823E+00-8.16016E-01
 -1      3714-1.53800E+01-2.01222E+01-6.22506E+00 1.04787E+00-1.34931E+00 4.63151E-01
 -1      3715-5.71932E-01 1.75216E-01-2.35908E+00 2.64959E-01-1.59810E+00 1.80957E-01
 -1      3716-1.47318E+01-1.10372E+01-4.58125E+00-3.13134E+00-1.38434E+00 1.72100E+00
 -1      3717-8.89451E+00-1.05768E+01-2.39632E+00 3.77705E-01-8.02852E-01 1.16615E+00
 -1      3718-9.63750E+00-1.23201E+01-3.65035E+00-4.06105E-01 2.35615E+00-1.68824E+00
 -1      3719-1.92479E+01-1.65712E+01-4.83356E+00 1.60515E+00-8.93850E-01 1.03942E+00
 -1      3720-1.75197E+01-1.85713E+01-5.03047E+00-1.01855E-01 2.49607E+00-1.13074E+00
 -1      3721-4.04471E+01-3.54611E+00-8.36408E+00 7.75091E+00-7.57430E-01 2.63329E-01
 -1      3722-8.27779E+00-1.64676E+01-4.80643E+00-5.57730E-01 3.03280E-01-1.05172E+00
 -1      3723-1.81855E+01-1.70131E+01-7.01380E+00-1.02284E-01 7.36628E-01-1.14198E+00
 -1      3724-4.53610E+00-6.03422E+00-2.82782E+00-6.15853E-01-1.40179E+00-7.63688E-01
 -1      3725-1.22614E+01-1.41158E+01-6.32383E+00 2.76382E-01-4.92999E-01 1.75896E+00
 -1      3726-2.40149E+00-3.76266E+01-2.90152E+00 5.06536E+00 2.73026E-01-2.30344E+00
 -1      3727-3.03530E+01-1.69468E+01-5.08486E+00-2.08437E+01-1.00233E+00-5.35951E-01
 -1      3728-1.59455E+01-1.65760E+01-8.85220E+00 5.11982E+00-8.87470E-01-2.70799E+00
 -1      3729-1.37400E+01-1.04560E+01-3.72694E+00-4.95092E-01-3.65193E-01-2.33415E-01
 -1      3730-1.72076E+01-1.62381E+01-8.16292E+00-5.73531E-01-7.22222E-01 2.39622E+00
 -1      3731-2.19387E-02-7.84321E-01 6.50886E-01-1.87842E-01-1.93509E-01-1.26529E+00
 -1      3732-2.46730E+00-4.17201E+00-3.09986E+00-9.46568E-01-2.63804E-02-1.70371E+00
 -1      3733-2.52765E+00-4.02372E+00-1.84519E+00 5.64378E-01-1.49156E-01 8.26274E-01
 -1      3734-2.48809E+00-1.86866E+00-2.40688E+00 8.72788E-01-8.28623E-01-2.44265E-01
 -1      3735-2.46561E+00-5.06592E+00-3.16128E+00 5.49850E-01-2.44802E-01 1.17948E+00
 -1      3736-4.94467E+00-5.82434E+00-2.56016E+00 1.18948E+00 2.88474E-01 3.25291E-01
 -1      3737-1.92167E+00-1.76007E+00-3.16106E+00-4.00545E-01-5.02368E-01-5.60813E-01
 -1      3738-1.92714E+01-2.92910E+00-5.36160E+00-4.84670E+00-1.71537E+00 1.85098E-01
 -1      3739-7.90239E+00-9.13857E+00-4.14077E+00-6.30623E-01-5.70473E-01-4.80431E-01
 -1      3740-7.91600E+00-1.90738E+01-6.99944E+00-7.56548E-01 2.67650E-01-2.65055E+00
 -1      3741-1.58002E+01-7.75812E+00-7.03282E+00 7.07188E+00 1.06992E+00-5.94101E-01
 -1      3742-8.16372E+00-9.20334E+00-2.61167E+00 3.72866E-01-7.72898E-01 2.23129E+00
 -1      3743-1.19492E+01-1.17649E+01-9.90898E-01-8.63002E-01-2.62430E-01 5.88665E-01
 -1      3744-9.25451E-01-2.06241E+00-1.05730E+00-3.79346E-01-9.92477E-01 1.47735E+00
 -1      3745-1.34637E+00-1.12304E+00-1.93894E+00 2.10593E-01-8.83171E-01-6.63695E-01
 -1      3746-2.10796E+01-3.23122E+01-5.26838E+00 1.85561E+01-1.21239E-01 2.12595E+00
 -3
 9999
