    1C
    1U meshsolid_t.inp                                                  
    1UUSER                                                              
    1UDATE              11.july.2016                                    
    1UTIME              01:26:39                                        
    1UHOST                                                              
    1UPGM               CalculiX                                        
    1UVERSION           Version 2.10                             
    1UCOMPILETIME       Sa 5. MÃ¤r 12:23:33 CET 2016                    
    1UDIR                                                               
    1UDBN                                                               
    1UMAT    1PDMS                                                      
    2C                          2766                                     1
 -1         1 2.32070E+00-4.50000E-01 5.00000E-01
 -1         2 2.32070E+00-4.50000E-01 1.45000E+00
 -1         3 8.13414E+00 9.00000E-01 1.45000E+00
 -1         4 5.28227E+00 4.50000E-01 1.45000E+00
 -1         5 5.28227E+00-4.50000E-01 1.45000E+00
 -1         6 8.13414E+00 4.50000E-01 1.45000E+00
 -1         7 1.10957E+01 4.50000E-01 5.00000E-01
 -1         8 1.10957E+01-4.50000E-01 1.45000E+00
 -1         9 1.10957E+01 4.50000E-01 1.45000E+00
 -1        10 5.28227E+00 4.50000E-01 5.00000E-01
 -1        11 2.32070E+00 4.50000E-01 1.45000E+00
 -1        12 5.28227E+00-4.50000E-01 5.00000E-01
 -1        13 8.13414E+00-4.50000E-01 1.45000E+00
 -1        14 8.13414E+00-4.50000E-01 5.00000E-01
 -1        15 8.13414E+00 9.00000E-01 5.00000E-01
 -1        16 5.28227E+00-9.00000E-01 1.45000E+00
 -1        17 8.13414E+00-9.00000E-01 1.45000E+00
 -1        18 5.28227E+00 9.00000E-01 1.45000E+00
 -1        19 7.68717E+00 2.69706E+00 1.45000E+00
 -1        20 1.00789E+01 4.66189E+00 1.45000E+00
 -1        21 7.34276E+00 3.52855E+00 1.45000E+00
 -1        22 5.22459E+00 1.18994E+00 1.45000E+00
 -1        23 7.17055E+00 3.94429E+00 1.45000E+00
 -1        24 1.00789E+01 4.66189E+00 5.00000E-01
 -1        25 1.04233E+01 3.83040E+00 1.45000E+00
 -1        26 4.70797E+00 2.43718E+00 1.45000E+00
 -1        27 1.97184E+00 1.30384E+00 1.45000E+00
 -1        28 2.31626E+00 4.72349E-01 1.45000E+00
 -1        29 5.05239E+00 1.60569E+00 1.45000E+00
 -1        30 5.05239E+00 1.60569E+00 5.00000E-01
 -1        31 5.22459E+00 1.18994E+00 5.00000E-01
 -1        32 4.53576E+00 2.85293E+00 1.45000E+00
 -1        33 4.70797E+00 2.43718E+00 5.00000E-01
 -1        34 7.85938E+00 2.28131E+00 1.45000E+00
 -1        35 7.68717E+00 2.69706E+00 5.00000E-01
 -1        36 7.85938E+00 2.28131E+00 5.00000E-01
 -1        37 7.17055E+00 3.94429E+00 5.00000E-01
 -1        38 7.34276E+00 3.52855E+00 5.00000E-01
 -1        39 4.53576E+00 2.85293E+00 5.00000E-01
 -1        40 1.32279E+00 1.95918E+00 1.45000E+00
 -1        41 1.95918E+00 1.32279E+00 5.00000E-01
 -1        42 5.43351E+00 6.06990E+00 1.45000E+00
 -1        43 4.05332E+00 3.41693E+00 1.45000E+00
 -1        44 7.52765E+00 8.16405E+00 5.00000E-01
 -1        45 7.52765E+00 8.16405E+00 1.45000E+00
 -1        46 5.43351E+00 6.06990E+00 5.00000E-01
 -1        47 1.95918E+00 1.32279E+00 1.45000E+00
 -1        48 8.16405E+00 7.52765E+00 1.45000E+00
 -1        49 6.06990E+00 5.43351E+00 1.45000E+00
 -1        50 4.37152E+00 3.09873E+00 1.45000E+00
 -1        51 3.09873E+00 4.37152E+00 1.45000E+00
 -1        52 3.41693E+00 4.05332E+00 1.45000E+00
 -1        53 6.38810E+00 5.11531E+00 5.00000E-01
 -1        54 6.38810E+00 5.11531E+00 1.45000E+00
 -1        55 5.11531E+00 6.38810E+00 1.45000E+00
 -1        56 4.37152E+00 3.09873E+00 5.00000E-01
 -1        57 4.72349E-01 2.31626E+00 5.00000E-01
 -1        58 2.28131E+00 7.85938E+00 1.45000E+00
 -1        59 3.52855E+00 7.34276E+00 1.45000E+00
 -1        60 2.85293E+00 4.53576E+00 1.45000E+00
 -1        61 2.69706E+00 7.68717E+00 1.45000E+00
 -1        62 2.43718E+00 4.70797E+00 1.45000E+00
 -1        63 1.30384E+00 1.97184E+00 1.45000E+00
 -1        64 4.72349E-01 2.31626E+00 1.45000E+00
 -1        65 3.83040E+00 1.04233E+01 1.45000E+00
 -1        66 4.66189E+00 1.00789E+01 1.45000E+00
 -1        67 2.69706E+00 7.68717E+00 5.00000E-01
 -1        68 3.83040E+00 1.04233E+01 5.00000E-01
 -1        69 1.60569E+00 5.05239E+00 1.45000E+00
 -1        70 1.30384E+00 1.97184E+00 5.00000E-01
 -1        71 3.52855E+00 7.34276E+00 5.00000E-01
 -1        72 2.43718E+00 4.70797E+00 5.00000E-01
 -1        73 1.18994E+00 5.22459E+00 5.00000E-01
 -1        74 1.18994E+00 5.22459E+00 1.45000E+00
 -1        75 3.94429E+00 7.17055E+00 5.00000E-01
 -1        76 3.94429E+00 7.17055E+00 1.45000E+00
 -1        77 4.50000E-01 1.10957E+01 1.45000E+00
 -1        78-4.50000E-01 8.13414E+00 1.45000E+00
 -1        79 4.50000E-01 5.28227E+00 1.45000E+00
 -1        80-4.50000E-01 1.10957E+01 1.45000E+00
 -1        81-4.50000E-01 1.10957E+01 5.00000E-01
 -1        82-4.50000E-01 2.32070E+00 5.00000E-01
 -1        83-4.50000E-01 5.28227E+00 5.00000E-01
 -1        84-4.50000E-01 2.32070E+00 1.45000E+00
 -1        85 4.50000E-01 2.32070E+00 1.45000E+00
 -1        86 4.50000E-01 8.13414E+00 1.45000E+00
 -1        87 9.00000E-01 5.28227E+00 5.00000E-01
 -1        88-9.00000E-01 5.28227E+00 5.00000E-01
 -1        89-9.00000E-01 5.28227E+00 1.45000E+00
 -1        90-4.50000E-01 5.28227E+00 1.45000E+00
 -1        91 9.00000E-01 8.13414E+00 5.00000E-01
 -1        92-4.50000E-01 8.13414E+00 5.00000E-01
 -1        93 9.00000E-01 5.28227E+00 1.45000E+00
 -1        94 9.00000E-01 8.13414E+00 1.45000E+00
 -1        95-9.00000E-01 8.13414E+00 5.00000E-01
 -1        96-9.00000E-01 8.13414E+00 1.45000E+00
 -1        97-1.30384E+00 1.97184E+00 1.45000E+00
 -1        98-1.60569E+00 5.05239E+00 1.45000E+00
 -1        99-2.28131E+00 7.85938E+00 1.45000E+00
 -1       100-2.43718E+00 4.70797E+00 1.45000E+00
 -1       101-2.69706E+00 7.68717E+00 1.45000E+00
 -1       102-2.85293E+00 4.53576E+00 1.45000E+00
 -1       103-3.52855E+00 7.34276E+00 1.45000E+00
 -1       104-3.83040E+00 1.04233E+01 1.45000E+00
 -1       105-3.94429E+00 7.17055E+00 1.45000E+00
 -1       106-4.66189E+00 1.00789E+01 1.45000E+00
 -1       107-1.30384E+00 1.97184E+00 5.00000E-01
 -1       108-4.72349E-01 2.31626E+00 1.45000E+00
 -1       109-1.18994E+00 5.22459E+00 1.45000E+00
 -1       110-2.85293E+00 4.53576E+00 5.00000E-01
 -1       111-1.95918E+00 1.32279E+00 1.45000E+00
 -1       112-1.95918E+00 1.32279E+00 5.00000E-01
 -1       113-3.41693E+00 4.05332E+00 1.45000E+00
 -1       114-4.37152E+00 3.09873E+00 1.45000E+00
 -1       115-1.32279E+00 1.95918E+00 1.45000E+00
 -1       116-7.52765E+00 8.16405E+00 1.45000E+00
 -1       117-6.06990E+00 5.43351E+00 5.00000E-01
 -1       118-8.16405E+00 7.52765E+00 1.45000E+00
 -1       119-4.37152E+00 3.09873E+00 5.00000E-01
 -1       120-4.05332E+00 3.41693E+00 1.45000E+00
 -1       121-4.05332E+00 3.41693E+00 5.00000E-01
 -1       122-5.43351E+00 6.06990E+00 5.00000E-01
 -1       123-5.11531E+00 6.38810E+00 1.45000E+00
 -1       124-5.11531E+00 6.38810E+00 5.00000E-01
 -1       125-5.43351E+00 6.06990E+00 1.45000E+00
 -1       126-6.06990E+00 5.43351E+00 1.45000E+00
 -1       127-3.09873E+00 4.37152E+00 1.45000E+00
 -1       128-3.09873E+00 4.37152E+00 5.00000E-01
 -1       129-6.38810E+00 5.11531E+00 5.00000E-01
 -1       130-6.38810E+00 5.11531E+00 1.45000E+00
 -1       131-1.97184E+00 1.30384E+00 1.45000E+00
 -1       132-2.31626E+00 4.72349E-01 1.45000E+00
 -1       133-1.04233E+01 3.83040E+00 1.45000E+00
 -1       134-4.53576E+00 2.85293E+00 1.45000E+00
 -1       135-4.70797E+00 2.43718E+00 1.45000E+00
 -1       136-7.34276E+00 3.52855E+00 1.45000E+00
 -1       137-1.00789E+01 4.66189E+00 5.00000E-01
 -1       138-1.00789E+01 4.66189E+00 1.45000E+00
 -1       139-4.70797E+00 2.43718E+00 5.00000E-01
 -1       140-5.05239E+00 1.60569E+00 1.45000E+00
 -1       141-5.22459E+00 1.18994E+00 1.45000E+00
 -1       142-5.22459E+00 1.18994E+00 5.00000E-01
 -1       143-7.68717E+00 2.69706E+00 5.00000E-01
 -1       144-7.68717E+00 2.69706E+00 1.45000E+00
 -1       145-7.85938E+00 2.28131E+00 1.45000E+00
 -1       146-7.17055E+00 3.94429E+00 1.45000E+00
 -1       147-8.13414E+00 4.50000E-01 1.45000E+00
 -1       148-5.28227E+00 4.50000E-01 1.45000E+00
 -1       149-5.28227E+00-4.50000E-01 1.45000E+00
 -1       150-5.28227E+00 9.00000E-01 1.45000E+00
 -1       151-8.13414E+00-4.50000E-01 1.45000E+00
 -1       152-5.28227E+00-9.00000E-01 1.45000E+00
 -1       153-2.32070E+00 4.50000E-01 1.45000E+00
 -1       154-1.10957E+01 4.50000E-01 1.45000E+00
 -1       155-1.10957E+01-4.50000E-01 1.45000E+00
 -1       156-2.32070E+00-4.50000E-01 1.45000E+00
 -1       157-5.28227E+00 4.50000E-01 5.00000E-01
 -1       158-5.28227E+00-4.50000E-01 5.00000E-01
 -1       159-8.13414E+00 4.50000E-01 5.00000E-01
 -1       160-8.13414E+00 9.00000E-01 1.45000E+00
 -1       161-8.13414E+00-9.00000E-01 1.45000E+00
 -1       162-5.28227E+00-9.00000E-01 5.00000E-01
 -1       163-1.97184E+00-1.30384E+00 1.45000E+00
 -1       164-2.31626E+00-4.72349E-01 1.45000E+00
 -1       165-4.70797E+00-2.43718E+00 1.45000E+00
 -1       166-7.17055E+00-3.94429E+00 1.45000E+00
 -1       167-7.34276E+00-3.52855E+00 1.45000E+00
 -1       168-7.68717E+00-2.69706E+00 1.45000E+00
 -1       169-7.85938E+00-2.28131E+00 1.45000E+00
 -1       170-1.04233E+01-3.83040E+00 1.45000E+00
 -1       171-1.00789E+01-4.66189E+00 1.45000E+00
 -1       172-1.97184E+00-1.30384E+00 5.00000E-01
 -1       173-2.31626E+00-4.72349E-01 5.00000E-01
 -1       174-7.68717E+00-2.69706E+00 5.00000E-01
 -1       175-5.05239E+00-1.60569E+00 1.45000E+00
 -1       176-5.22459E+00-1.18994E+00 1.45000E+00
 -1       177-4.70797E+00-2.43718E+00 5.00000E-01
 -1       178-4.53576E+00-2.85293E+00 5.00000E-01
 -1       179-4.53576E+00-2.85293E+00 1.45000E+00
 -1       180-1.32279E+00-1.95918E+00 1.45000E+00
 -1       181-4.05332E+00-3.41693E+00 1.45000E+00
 -1       182-4.37152E+00-3.09873E+00 1.45000E+00
 -1       183-3.09873E+00-4.37152E+00 1.45000E+00
 -1       184-6.06990E+00-5.43351E+00 1.45000E+00
 -1       185-6.38810E+00-5.11531E+00 1.45000E+00
 -1       186-5.43351E+00-6.06990E+00 1.45000E+00
 -1       187-7.52765E+00-8.16405E+00 5.00000E-01
 -1       188-7.52765E+00-8.16405E+00 1.45000E+00
 -1       189-5.43351E+00-6.06990E+00 5.00000E-01
 -1       190-3.41693E+00-4.05332E+00 1.45000E+00
 -1       191-1.95918E+00-1.32279E+00 1.45000E+00
 -1       192-8.16405E+00-7.52765E+00 5.00000E-01
 -1       193-8.16405E+00-7.52765E+00 1.45000E+00
 -1       194-4.05332E+00-3.41693E+00 5.00000E-01
 -1       195-3.09873E+00-4.37152E+00 5.00000E-01
 -1       196-6.38810E+00-5.11531E+00 5.00000E-01
 -1       197-5.11531E+00-6.38810E+00 1.45000E+00
 -1       198-1.30384E+00-1.97184E+00 5.00000E-01
 -1       199-2.85293E+00-4.53576E+00 1.45000E+00
 -1       200-4.72349E-01-2.31626E+00 1.45000E+00
 -1       201-2.43718E+00-4.70797E+00 1.45000E+00
 -1       202-2.69706E+00-7.68717E+00 1.45000E+00
 -1       203-1.60569E+00-5.05239E+00 1.45000E+00
 -1       204-3.52855E+00-7.34276E+00 1.45000E+00
 -1       205-3.83040E+00-1.04233E+01 1.45000E+00
 -1       206-1.18994E+00-5.22459E+00 1.45000E+00
 -1       207-4.72349E-01-2.31626E+00 5.00000E-01
 -1       208-1.60569E+00-5.05239E+00 5.00000E-01
 -1       209-1.30384E+00-1.97184E+00 1.45000E+00
 -1       210-4.66189E+00-1.00789E+01 1.45000E+00
 -1       211-1.18994E+00-5.22459E+00 5.00000E-01
 -1       212-2.28131E+00-7.85938E+00 1.45000E+00
 -1       213-2.69706E+00-7.68717E+00 5.00000E-01
 -1       214-3.94429E+00-7.17055E+00 5.00000E-01
 -1       215-2.85293E+00-4.53576E+00 5.00000E-01
 -1       216-3.94429E+00-7.17055E+00 1.45000E+00
 -1       217-4.50000E-01-2.32070E+00 1.45000E+00
 -1       218-4.50000E-01-2.32070E+00 5.00000E-01
 -1       219-4.50000E-01-5.28227E+00 1.45000E+00
 -1       220 4.50000E-01-2.32070E+00 1.45000E+00
 -1       221 4.50000E-01-8.13414E+00 1.45000E+00
 -1       222 4.50000E-01-1.10957E+01 1.45000E+00
 -1       223-4.50000E-01-1.10957E+01 1.45000E+00
 -1       224 4.50000E-01-5.28227E+00 1.45000E+00
 -1       225 4.50000E-01-5.28227E+00 5.00000E-01
 -1       226-4.50000E-01-5.28227E+00 5.00000E-01
 -1       227-9.00000E-01-5.28227E+00 1.45000E+00
 -1       228 9.00000E-01-5.28227E+00 5.00000E-01
 -1       229-4.50000E-01-8.13414E+00 1.45000E+00
 -1       230 4.50000E-01-8.13414E+00 5.00000E-01
 -1       231-9.00000E-01-8.13414E+00 1.45000E+00
 -1       232 9.00000E-01-8.13414E+00 1.45000E+00
 -1       233 9.00000E-01-5.28227E+00 1.45000E+00
 -1       234 4.72349E-01-2.31626E+00 5.00000E-01
 -1       235 4.66189E+00-1.00789E+01 1.45000E+00
 -1       236 2.69706E+00-7.68717E+00 1.45000E+00
 -1       237 1.30384E+00-1.97184E+00 1.45000E+00
 -1       238 2.28131E+00-7.85938E+00 1.45000E+00
 -1       239 3.52855E+00-7.34276E+00 1.45000E+00
 -1       240 3.52855E+00-7.34276E+00 5.00000E-01
 -1       241 2.43718E+00-4.70797E+00 1.45000E+00
 -1       242 4.72349E-01-2.31626E+00 1.45000E+00
 -1       243 3.83040E+00-1.04233E+01 5.00000E-01
 -1       244 3.83040E+00-1.04233E+01 1.45000E+00
 -1       245 1.60569E+00-5.05239E+00 5.00000E-01
 -1       246 1.18994E+00-5.22459E+00 1.45000E+00
 -1       247 1.60569E+00-5.05239E+00 1.45000E+00
 -1       248 2.43718E+00-4.70797E+00 5.00000E-01
 -1       249 2.28131E+00-7.85938E+00 5.00000E-01
 -1       250 1.18994E+00-5.22459E+00 5.00000E-01
 -1       251 3.94429E+00-7.17055E+00 1.45000E+00
 -1       252 2.85293E+00-4.53576E+00 1.45000E+00
 -1       253 1.95918E+00-1.32279E+00 1.45000E+00
 -1       254 1.32279E+00-1.95918E+00 1.45000E+00
 -1       255 4.05332E+00-3.41693E+00 1.45000E+00
 -1       256 5.43351E+00-6.06990E+00 1.45000E+00
 -1       257 5.11531E+00-6.38810E+00 1.45000E+00
 -1       258 6.06990E+00-5.43351E+00 1.45000E+00
 -1       259 7.52765E+00-8.16405E+00 1.45000E+00
 -1       260 8.16405E+00-7.52765E+00 1.45000E+00
 -1       261 4.05332E+00-3.41693E+00 5.00000E-01
 -1       262 3.41693E+00-4.05332E+00 1.45000E+00
 -1       263 3.41693E+00-4.05332E+00 5.00000E-01
 -1       264 7.52765E+00-8.16405E+00 5.00000E-01
 -1       265 3.09873E+00-4.37152E+00 5.00000E-01
 -1       266 3.09873E+00-4.37152E+00 1.45000E+00
 -1       267 4.37152E+00-3.09873E+00 1.45000E+00
 -1       268 5.43351E+00-6.06990E+00 5.00000E-01
 -1       269 6.38810E+00-5.11531E+00 1.45000E+00
 -1       270 4.37152E+00-3.09873E+00 5.00000E-01
 -1       271 2.31626E+00-4.72349E-01 1.45000E+00
 -1       272 5.05239E+00-1.60569E+00 1.45000E+00
 -1       273 4.70797E+00-2.43718E+00 1.45000E+00
 -1       274 4.53576E+00-2.85293E+00 1.45000E+00
 -1       275 1.04233E+01-3.83040E+00 1.45000E+00
 -1       276 7.34276E+00-3.52855E+00 1.45000E+00
 -1       277 1.00789E+01-4.66189E+00 1.45000E+00
 -1       278 7.68717E+00-2.69706E+00 1.45000E+00
 -1       279 1.97184E+00-1.30384E+00 1.45000E+00
 -1       280 5.05239E+00-1.60569E+00 5.00000E-01
 -1       281 7.34276E+00-3.52855E+00 5.00000E-01
 -1       282 7.85938E+00-2.28131E+00 1.45000E+00
 -1       283 7.17055E+00-3.94429E+00 1.45000E+00
 -1       284 7.85938E+00-2.28131E+00 5.00000E-01
 -1       285 5.22459E+00-1.18994E+00 1.45000E+00
 -1       286 1.47118E+01-2.92635E+00 5.00000E-01
 -1       287-5.74025E+00-1.38582E+01-5.00000E-01
 -1       288 1.06066E+01 1.06066E+01-5.00000E-01
 -1       289 1.24720E+01 8.33355E+00-5.00000E-01
 -1       290-2.92635E+00 1.47118E+01-5.00000E-01
 -1       291-1.24720E+01 8.33355E+00 5.00000E-01
 -1       292-1.38582E+01 5.74025E+00-5.00000E-01
 -1       293 1.38582E+01 5.74025E+00-5.00000E-01
 -1       294 1.47118E+01 2.92635E+00-5.00000E-01
 -1       295 2.92635E+00 1.47118E+01-5.00000E-01
 -1       296-1.47118E+01 2.92635E+00 5.00000E-01
 -1       297-1.50000E+01 0.00000E+00-5.00000E-01
 -1       298-1.24720E+01 8.33355E+00-5.00000E-01
 -1       299 0.00000E+00 1.50000E+01-5.00000E-01
 -1       300 1.50000E+01 0.00000E+00-5.00000E-01
 -1       301 0.00000E+00-1.50000E+01-5.00000E-01
 -1       302 2.92635E+00-1.47118E+01 5.00000E-01
 -1       303 1.47118E+01-2.92635E+00-5.00000E-01
 -1       304 2.92635E+00-1.47118E+01-5.00000E-01
 -1       305 5.74025E+00-1.38582E+01 5.00000E-01
 -1       306 8.33355E+00-1.24720E+01 5.00000E-01
 -1       307 8.33355E+00-1.24720E+01-5.00000E-01
 -1       308-2.92635E+00-1.47118E+01-5.00000E-01
 -1       309 0.00000E+00-1.50000E+01 5.00000E-01
 -1       310-1.06066E+01-1.06066E+01-5.00000E-01
 -1       311-8.33355E+00-1.24720E+01 5.00000E-01
 -1       312-1.24720E+01-8.33355E+00-5.00000E-01
 -1       313 1.06066E+01-1.06066E+01-5.00000E-01
 -1       314 5.74025E+00-1.38582E+01-5.00000E-01
 -1       315 8.33355E+00 1.24720E+01-5.00000E-01
 -1       316 5.74025E+00 1.38582E+01-5.00000E-01
 -1       317-5.74025E+00 1.38582E+01-5.00000E-01
 -1       318-8.33355E+00 1.24720E+01-5.00000E-01
 -1       319-1.06066E+01 1.06066E+01-5.00000E-01
 -1       320-1.47118E+01 2.92635E+00-5.00000E-01
 -1       321-1.10957E+01 4.50000E-01 5.00000E-01
 -1       322-1.04233E+01 3.83040E+00 5.00000E-01
 -1       323-8.13414E+00-9.00000E-01 5.00000E-01
 -1       324-8.13414E+00-4.50000E-01 5.00000E-01
 -1       325-1.10957E+01-4.50000E-01 5.00000E-01
 -1       326-1.24720E+01-8.33355E+00 5.00000E-01
 -1       327-1.38582E+01-5.74025E+00 5.00000E-01
 -1       328-1.50000E+01 0.00000E+00 5.00000E-01
 -1       329-7.17055E+00 3.94429E+00 5.00000E-01
 -1       330-7.34276E+00 3.52855E+00 5.00000E-01
 -1       331-1.06066E+01 1.06066E+01 5.00000E-01
 -1       332-8.16405E+00 7.52765E+00 5.00000E-01
 -1       333-7.85938E+00 2.28131E+00 5.00000E-01
 -1       334-5.28227E+00 9.00000E-01 5.00000E-01
 -1       335-8.13414E+00 9.00000E-01 5.00000E-01
 -1       336-6.06990E+00-5.43351E+00 5.00000E-01
 -1       337-7.34276E+00-3.52855E+00 5.00000E-01
 -1       338-1.06066E+01-1.06066E+01 5.00000E-01
 -1       339-1.00789E+01-4.66189E+00 5.00000E-01
 -1       340-1.04233E+01-3.83040E+00 5.00000E-01
 -1       341-4.53576E+00 2.85293E+00 5.00000E-01
 -1       342-3.52855E+00-7.34276E+00 5.00000E-01
 -1       343-4.66189E+00-1.00789E+01 5.00000E-01
 -1       344-4.37152E+00-3.09873E+00 5.00000E-01
 -1       345-7.17055E+00-3.94429E+00 5.00000E-01
 -1       346-3.52855E+00 7.34276E+00 5.00000E-01
 -1       347-4.66189E+00 1.00789E+01 5.00000E-01
 -1       348-3.94429E+00 7.17055E+00 5.00000E-01
 -1       349-2.31626E+00 4.72349E-01 5.00000E-01
 -1       350-5.05239E+00 1.60569E+00 5.00000E-01
 -1       351-2.32070E+00 4.50000E-01 5.00000E-01
 -1       352-1.95918E+00-1.32279E+00 5.00000E-01
 -1       353-1.97184E+00 1.30384E+00 5.00000E-01
 -1       354-2.43718E+00 4.70797E+00 5.00000E-01
 -1       355-1.32279E+00 1.95918E+00 5.00000E-01
 -1       356-3.41693E+00 4.05332E+00 5.00000E-01
 -1       357-9.00000E-01-5.28227E+00 5.00000E-01
 -1       358-1.32279E+00-1.95918E+00 5.00000E-01
 -1       359-2.43718E+00-4.70797E+00 5.00000E-01
 -1       360-3.41693E+00-4.05332E+00 5.00000E-01
 -1       361-2.32070E+00-4.50000E-01 5.00000E-01
 -1       362-5.05239E+00-1.60569E+00 5.00000E-01
 -1       363-7.85938E+00-2.28131E+00 5.00000E-01
 -1       364-5.22459E+00-1.18994E+00 5.00000E-01
 -1       365-5.11531E+00-6.38810E+00 5.00000E-01
 -1       366-4.50000E-01-8.13414E+00 5.00000E-01
 -1       367-1.18994E+00 5.22459E+00 5.00000E-01
 -1       368-4.72349E-01 2.31626E+00 5.00000E-01
 -1       369-1.60569E+00 5.05239E+00 5.00000E-01
 -1       370 4.50000E-01 8.13414E+00 5.00000E-01
 -1       371 4.50000E-01-2.32070E+00 5.00000E-01
 -1       372 4.50000E-01 2.32070E+00 5.00000E-01
 -1       373 1.60569E+00 5.05239E+00 5.00000E-01
 -1       374 4.50000E-01 5.28227E+00 5.00000E-01
 -1       375 1.97184E+00-1.30384E+00 5.00000E-01
 -1       376 4.53576E+00-2.85293E+00 5.00000E-01
 -1       377 4.70797E+00-2.43718E+00 5.00000E-01
 -1       378 1.95918E+00-1.32279E+00 5.00000E-01
 -1       379 1.32279E+00-1.95918E+00 5.00000E-01
 -1       380 3.94429E+00-7.17055E+00 5.00000E-01
 -1       381 3.09873E+00 4.37152E+00 5.00000E-01
 -1       382 3.41693E+00 4.05332E+00 5.00000E-01
 -1       383 1.32279E+00 1.95918E+00 5.00000E-01
 -1       384 2.85293E+00 4.53576E+00 5.00000E-01
 -1       385 4.66189E+00-1.00789E+01 5.00000E-01
 -1       386 5.11531E+00-6.38810E+00 5.00000E-01
 -1       387 5.22459E+00-1.18994E+00 5.00000E-01
 -1       388 2.31626E+00-4.72349E-01 5.00000E-01
 -1       389 1.97184E+00 1.30384E+00 5.00000E-01
 -1       390 2.31626E+00 4.72349E-01 5.00000E-01
 -1       391 6.38810E+00-5.11531E+00 5.00000E-01
 -1       392 5.28227E+00-9.00000E-01 5.00000E-01
 -1       393 1.06066E+01 1.06066E+01 5.00000E-01
 -1       394 8.16405E+00 7.52765E+00 5.00000E-01
 -1       395 4.66189E+00 1.00789E+01 5.00000E-01
 -1       396 8.33355E+00 1.24720E+01 5.00000E-01
 -1       397 5.74025E+00 1.38582E+01 5.00000E-01
 -1       398 5.11531E+00 6.38810E+00 5.00000E-01
 -1       399 2.28131E+00 7.85938E+00 5.00000E-01
 -1       400 2.92635E+00 1.47118E+01 5.00000E-01
 -1       401 0.00000E+00 1.50000E+01 5.00000E-01
 -1       402 4.50000E-01 1.10957E+01 5.00000E-01
 -1       403-2.92635E+00 1.47118E+01 5.00000E-01
 -1       404-3.83040E+00 1.04233E+01 5.00000E-01
 -1       405-2.28131E+00 7.85938E+00 5.00000E-01
 -1       406-2.69706E+00 7.68717E+00 5.00000E-01
 -1       407-5.74025E+00 1.38582E+01 5.00000E-01
 -1       408-8.33355E+00 1.24720E+01 5.00000E-01
 -1       409-7.52765E+00 8.16405E+00 5.00000E-01
 -1       410 1.24720E+01 8.33355E+00 5.00000E-01
 -1       411 6.06990E+00 5.43351E+00 5.00000E-01
 -1       412 1.47118E+01 2.92635E+00 5.00000E-01
 -1       413 1.38582E+01 5.74025E+00 5.00000E-01
 -1       414 1.50000E+01 0.00000E+00 5.00000E-01
 -1       415 1.10957E+01-4.50000E-01 5.00000E-01
 -1       416 1.04233E+01 3.83040E+00 5.00000E-01
 -1       417 8.13414E+00 4.50000E-01 5.00000E-01
 -1       418 1.38582E+01-5.74025E+00 5.00000E-01
 -1       419 8.13414E+00-9.00000E-01 5.00000E-01
 -1       420 1.04233E+01-3.83040E+00 5.00000E-01
 -1       421 7.68717E+00-2.69706E+00 5.00000E-01
 -1       422 1.24720E+01-8.33355E+00 5.00000E-01
 -1       423 7.17055E+00-3.94429E+00 5.00000E-01
 -1       424 1.00789E+01-4.66189E+00 5.00000E-01
 -1       425 8.16405E+00-7.52765E+00 5.00000E-01
 -1       426 6.06990E+00-5.43351E+00 5.00000E-01
 -1       427 2.69706E+00-7.68717E+00 5.00000E-01
 -1       428 4.50000E-01-1.10957E+01 5.00000E-01
 -1       429 9.00000E-01-8.13414E+00 5.00000E-01
 -1       430-9.00000E-01-8.13414E+00 5.00000E-01
 -1       431-2.28131E+00-7.85938E+00 5.00000E-01
 -1       432-2.92635E+00-1.47118E+01 5.00000E-01
 -1       433-4.50000E-01-1.10957E+01 5.00000E-01
 -1       434-3.83040E+00-1.04233E+01 5.00000E-01
 -1       435-5.74025E+00-1.38582E+01 5.00000E-01
 -1       436 5.28227E+00 9.00000E-01 5.00000E-01
 -1       437 2.32070E+00 4.50000E-01 5.00000E-01
 -1       438 4.05332E+00 3.41693E+00 5.00000E-01
 -1       439 2.85293E+00-4.53576E+00 5.00000E-01
 -1       440 1.30384E+00-1.97184E+00 5.00000E-01
 -1       441-1.38582E+01 5.74025E+00 5.00000E-01
 -1       442 1.06066E+01-1.06066E+01 5.00000E-01
 -1       443 1.38582E+01-5.74025E+00-5.00000E-01
 -1       444 1.24720E+01-8.33355E+00-5.00000E-01
 -1       445-8.33355E+00-1.24720E+01-5.00000E-01
 -1       446-1.47118E+01-2.92635E+00-5.00000E-01
 -1       447-1.47118E+01-2.92635E+00 5.00000E-01
 -1       448-1.38582E+01-5.74025E+00-5.00000E-01
 -1       449 3.80149E+00 4.50000E-01 1.45000E+00
 -1       450 3.80149E+00-4.50000E-01 1.45000E+00
 -1       451 6.70821E+00 9.00000E-01 1.45000E+00
 -1       452 6.70821E+00-9.00000E-01 1.45000E+00
 -1       453 9.61492E+00 4.50000E-01 1.45000E+00
 -1       454 9.61492E+00-4.50000E-01 1.45000E+00
 -1       455 9.61492E+00 4.50000E-01 5.00000E-01
 -1       456 3.80149E+00 4.50000E-01 5.00000E-01
 -1       457 3.80149E+00-4.50000E-01 5.00000E-01
 -1       458 9.61492E+00-4.50000E-01 5.00000E-01
 -1       459 6.70821E+00-9.00000E-01 5.00000E-01
 -1       460 6.70821E+00 9.00000E-01 5.00000E-01
 -1       461 9.05523E+00 3.26373E+00 1.45000E+00
 -1       462 8.71083E+00 4.09522E+00 1.45000E+00
 -1       463 6.54199E+00 1.73563E+00 1.45000E+00
 -1       464 5.85316E+00 3.39861E+00 1.45000E+00
 -1       465 3.68432E+00 1.03902E+00 1.45000E+00
 -1       466 3.33991E+00 1.87051E+00 1.45000E+00
 -1       467 8.71083E+00 4.09522E+00 5.00000E-01
 -1       468 3.33991E+00 1.87051E+00 5.00000E-01
 -1       469 3.68432E+00 1.03902E+00 5.00000E-01
 -1       470 9.05523E+00 3.26373E+00 5.00000E-01
 -1       471 6.54199E+00 1.73563E+00 5.00000E-01
 -1       472 5.85316E+00 3.39861E+00 5.00000E-01
 -1       473 7.11697E+00 6.48058E+00 1.45000E+00
 -1       474 6.48058E+00 7.11697E+00 1.45000E+00
 -1       475 5.37981E+00 4.10702E+00 1.45000E+00
 -1       476 4.10702E+00 5.37981E+00 1.45000E+00
 -1       477 3.00625E+00 2.36986E+00 1.45000E+00
 -1       478 2.36986E+00 3.00625E+00 1.45000E+00
 -1       479 6.48058E+00 7.11697E+00 5.00000E-01
 -1       480 2.36986E+00 3.00625E+00 5.00000E-01
 -1       481 3.00625E+00 2.36986E+00 5.00000E-01
 -1       482 7.11697E+00 6.48058E+00 5.00000E-01
 -1       483 5.37981E+00 4.10702E+00 5.00000E-01
 -1       484 4.10702E+00 5.37981E+00 5.00000E-01
 -1       485 1.73563E+00 6.54199E+00 1.45000E+00
 -1       486 4.09522E+00 8.71083E+00 1.45000E+00
 -1       487 3.26373E+00 9.05523E+00 1.45000E+00
 -1       488 1.87051E+00 3.33991E+00 1.45000E+00
 -1       489 1.03902E+00 3.68432E+00 1.45000E+00
 -1       490 3.39861E+00 5.85316E+00 1.45000E+00
 -1       491 3.26373E+00 9.05523E+00 5.00000E-01
 -1       492 1.03902E+00 3.68432E+00 5.00000E-01
 -1       493 1.87051E+00 3.33991E+00 5.00000E-01
 -1       494 4.09522E+00 8.71083E+00 5.00000E-01
 -1       495 3.39861E+00 5.85316E+00 5.00000E-01
 -1       496 1.73563E+00 6.54199E+00 5.00000E-01
 -1       497-9.00000E-01 6.70821E+00 1.45000E+00
 -1       498 4.50000E-01 9.61492E+00 1.45000E+00
 -1       499-4.50000E-01 9.61492E+00 1.45000E+00
 -1       500 4.50000E-01 3.80149E+00 1.45000E+00
 -1       501-4.50000E-01 3.80149E+00 1.45000E+00
 -1       502 9.00000E-01 6.70821E+00 1.45000E+00
 -1       503-4.50000E-01 9.61492E+00 5.00000E-01
 -1       504-4.50000E-01 3.80149E+00 5.00000E-01
 -1       505 4.50000E-01 3.80149E+00 5.00000E-01
 -1       506 4.50000E-01 9.61492E+00 5.00000E-01
 -1       507 9.00000E-01 6.70821E+00 5.00000E-01
 -1       508-9.00000E-01 6.70821E+00 5.00000E-01
 -1       509-1.73563E+00 6.54199E+00 1.45000E+00
 -1       510-1.03902E+00 3.68432E+00 1.45000E+00
 -1       511-1.87051E+00 3.33991E+00 1.45000E+00
 -1       512-3.26373E+00 9.05523E+00 1.45000E+00
 -1       513-4.09522E+00 8.71083E+00 1.45000E+00
 -1       514-3.39861E+00 5.85316E+00 1.45000E+00
 -1       515-4.09522E+00 8.71083E+00 5.00000E-01
 -1       516-1.87051E+00 3.33991E+00 5.00000E-01
 -1       517-1.03902E+00 3.68432E+00 5.00000E-01
 -1       518-3.26373E+00 9.05523E+00 5.00000E-01
 -1       519-1.73563E+00 6.54199E+00 5.00000E-01
 -1       520-3.39861E+00 5.85316E+00 5.00000E-01
 -1       521-6.48058E+00 7.11697E+00 1.45000E+00
 -1       522-7.11697E+00 6.48058E+00 1.45000E+00
 -1       523-4.10702E+00 5.37981E+00 1.45000E+00
 -1       524-5.37981E+00 4.10702E+00 1.45000E+00
 -1       525-2.36986E+00 3.00625E+00 1.45000E+00
 -1       526-3.00625E+00 2.36986E+00 1.45000E+00
 -1       527-7.11697E+00 6.48058E+00 5.00000E-01
 -1       528-3.00625E+00 2.36986E+00 5.00000E-01
 -1       529-2.36986E+00 3.00625E+00 5.00000E-01
 -1       530-6.48058E+00 7.11697E+00 5.00000E-01
 -1       531-4.10702E+00 5.37981E+00 5.00000E-01
 -1       532-5.37981E+00 4.10702E+00 5.00000E-01
 -1       533-8.71083E+00 4.09522E+00 1.45000E+00
 -1       534-9.05523E+00 3.26373E+00 1.45000E+00
 -1       535-5.85316E+00 3.39861E+00 1.45000E+00
 -1       536-6.54199E+00 1.73563E+00 1.45000E+00
 -1       537-3.33991E+00 1.87051E+00 1.45000E+00
 -1       538-3.68432E+00 1.03902E+00 1.45000E+00
 -1       539-9.05523E+00 3.26373E+00 5.00000E-01
 -1       540-3.68432E+00 1.03902E+00 5.00000E-01
 -1       541-3.33991E+00 1.87051E+00 5.00000E-01
 -1       542-8.71083E+00 4.09522E+00 5.00000E-01
 -1       543-5.85316E+00 3.39861E+00 5.00000E-01
 -1       544-6.54199E+00 1.73563E+00 5.00000E-01
 -1       545-9.61492E+00 4.50000E-01 1.45000E+00
 -1       546-9.61492E+00-4.50000E-01 1.45000E+00
 -1       547-6.70821E+00 9.00000E-01 1.45000E+00
 -1       548-6.70821E+00-9.00000E-01 1.45000E+00
 -1       549-3.80149E+00 4.50000E-01 1.45000E+00
 -1       550-3.80149E+00-4.50000E-01 1.45000E+00
 -1       551-9.61492E+00-4.50000E-01 5.00000E-01
 -1       552-3.80149E+00-4.50000E-01 5.00000E-01
 -1       553-3.80149E+00 4.50000E-01 5.00000E-01
 -1       554-9.61492E+00 4.50000E-01 5.00000E-01
 -1       555-6.70821E+00 9.00000E-01 5.00000E-01
 -1       556-6.70821E+00-9.00000E-01 5.00000E-01
 -1       557-3.33991E+00-1.87051E+00 1.45000E+00
 -1       558-3.68432E+00-1.03902E+00 1.45000E+00
 -1       559-5.85316E+00-3.39861E+00 1.45000E+00
 -1       560-6.54199E+00-1.73563E+00 1.45000E+00
 -1       561-8.71083E+00-4.09522E+00 1.45000E+00
 -1       562-9.05523E+00-3.26373E+00 1.45000E+00
 -1       563-8.71083E+00-4.09522E+00 5.00000E-01
 -1       564-3.33991E+00-1.87051E+00 5.00000E-01
 -1       565-3.68432E+00-1.03902E+00 5.00000E-01
 -1       566-9.05523E+00-3.26373E+00 5.00000E-01
 -1       567-6.54199E+00-1.73563E+00 5.00000E-01
 -1       568-5.85316E+00-3.39861E+00 5.00000E-01
 -1       569-2.36986E+00-3.00625E+00 1.45000E+00
 -1       570-3.00625E+00-2.36986E+00 1.45000E+00
 -1       571-4.10702E+00-5.37981E+00 1.45000E+00
 -1       572-5.37981E+00-4.10702E+00 1.45000E+00
 -1       573-6.48058E+00-7.11697E+00 1.45000E+00
 -1       574-7.11697E+00-6.48058E+00 1.45000E+00
 -1       575-6.48058E+00-7.11697E+00 5.00000E-01
 -1       576-2.36986E+00-3.00625E+00 5.00000E-01
 -1       577-3.00625E+00-2.36986E+00 5.00000E-01
 -1       578-7.11697E+00-6.48058E+00 5.00000E-01
 -1       579-5.37981E+00-4.10702E+00 5.00000E-01
 -1       580-4.10702E+00-5.37981E+00 5.00000E-01
 -1       581-3.39861E+00-5.85316E+00 1.45000E+00
 -1       582-1.03902E+00-3.68432E+00 1.45000E+00
 -1       583-1.87051E+00-3.33991E+00 1.45000E+00
 -1       584-3.26373E+00-9.05523E+00 1.45000E+00
 -1       585-4.09522E+00-8.71083E+00 1.45000E+00
 -1       586-1.73563E+00-6.54199E+00 1.45000E+00
 -1       587-3.26373E+00-9.05523E+00 5.00000E-01
 -1       588-1.03902E+00-3.68432E+00 5.00000E-01
 -1       589-1.87051E+00-3.33991E+00 5.00000E-01
 -1       590-4.09522E+00-8.71083E+00 5.00000E-01
 -1       591-3.39861E+00-5.85316E+00 5.00000E-01
 -1       592-1.73563E+00-6.54199E+00 5.00000E-01
 -1       593-9.00000E-01-6.70821E+00 1.45000E+00
 -1       594 4.50000E-01-3.80149E+00 1.45000E+00
 -1       595-4.50000E-01-3.80149E+00 1.45000E+00
 -1       596 4.50000E-01-9.61492E+00 1.45000E+00
 -1       597-4.50000E-01-9.61492E+00 1.45000E+00
 -1       598 9.00000E-01-6.70821E+00 1.45000E+00
 -1       599 4.50000E-01-9.61492E+00 5.00000E-01
 -1       600 4.50000E-01-3.80149E+00 5.00000E-01
 -1       601-4.50000E-01-3.80149E+00 5.00000E-01
 -1       602-4.50000E-01-9.61492E+00 5.00000E-01
 -1       603-9.00000E-01-6.70821E+00 5.00000E-01
 -1       604 9.00000E-01-6.70821E+00 5.00000E-01
 -1       605 3.39861E+00-5.85316E+00 1.45000E+00
 -1       606 4.09522E+00-8.71083E+00 1.45000E+00
 -1       607 3.26373E+00-9.05523E+00 1.45000E+00
 -1       608 1.87051E+00-3.33991E+00 1.45000E+00
 -1       609 1.03902E+00-3.68432E+00 1.45000E+00
 -1       610 1.73563E+00-6.54199E+00 1.45000E+00
 -1       611 4.09522E+00-8.71083E+00 5.00000E-01
 -1       612 1.87051E+00-3.33991E+00 5.00000E-01
 -1       613 1.03902E+00-3.68432E+00 5.00000E-01
 -1       614 3.26373E+00-9.05523E+00 5.00000E-01
 -1       615 1.73563E+00-6.54199E+00 5.00000E-01
 -1       616 3.39861E+00-5.85316E+00 5.00000E-01
 -1       617 3.00625E+00-2.36986E+00 1.45000E+00
 -1       618 2.36986E+00-3.00625E+00 1.45000E+00
 -1       619 5.37981E+00-4.10702E+00 1.45000E+00
 -1       620 4.10702E+00-5.37981E+00 1.45000E+00
 -1       621 7.11697E+00-6.48058E+00 1.45000E+00
 -1       622 6.48058E+00-7.11697E+00 1.45000E+00
 -1       623 7.11697E+00-6.48058E+00 5.00000E-01
 -1       624 3.00625E+00-2.36986E+00 5.00000E-01
 -1       625 2.36986E+00-3.00625E+00 5.00000E-01
 -1       626 6.48058E+00-7.11697E+00 5.00000E-01
 -1       627 4.10702E+00-5.37981E+00 5.00000E-01
 -1       628 5.37981E+00-4.10702E+00 5.00000E-01
 -1       629 3.68432E+00-1.03902E+00 1.45000E+00
 -1       630 3.33991E+00-1.87051E+00 1.45000E+00
 -1       631 6.54199E+00-1.73563E+00 1.45000E+00
 -1       632 5.85316E+00-3.39861E+00 1.45000E+00
 -1       633 9.05523E+00-3.26373E+00 1.45000E+00
 -1       634 8.71083E+00-4.09522E+00 1.45000E+00
 -1       635 9.05523E+00-3.26373E+00 5.00000E-01
 -1       636 3.68432E+00-1.03902E+00 5.00000E-01
 -1       637 3.33991E+00-1.87051E+00 5.00000E-01
 -1       638 8.71083E+00-4.09522E+00 5.00000E-01
 -1       639 5.85316E+00-3.39861E+00 5.00000E-01
 -1       640 6.54199E+00-1.73563E+00 5.00000E-01
 -1       641 9.47007E+00 1.15393E+01 5.00000E-01
 -1       642 9.47007E+00 1.15393E+01-5.00000E-01
 -1       643 1.48559E+01-1.46318E+00 5.00000E-01
 -1       644 1.48559E+01-1.46318E+00-5.00000E-01
 -1       645-4.33330E+00-1.42850E+01 5.00000E-01
 -1       646-4.33330E+00-1.42850E+01-5.00000E-01
 -1       647 1.15393E+01 9.47007E+00 5.00000E-01
 -1       648 1.15393E+01 9.47007E+00-5.00000E-01
 -1       649-4.33330E+00 1.42850E+01 5.00000E-01
 -1       650-4.33330E+00 1.42850E+01-5.00000E-01
 -1       651-1.31651E+01 7.03690E+00-5.00000E-01
 -1       652-1.31651E+01 7.03690E+00 5.00000E-01
 -1       653 1.42850E+01 4.33330E+00 5.00000E-01
 -1       654 1.42850E+01 4.33330E+00-5.00000E-01
 -1       655 1.31651E+01 7.03690E+00 5.00000E-01
 -1       656 1.31651E+01 7.03690E+00-5.00000E-01
 -1       657 7.03690E+00 1.31651E+01 5.00000E-01
 -1       658 7.03690E+00 1.31651E+01-5.00000E-01
 -1       659 1.46318E+00 1.48559E+01 5.00000E-01
 -1       660 1.46318E+00 1.48559E+01-5.00000E-01
 -1       661 4.33330E+00 1.42850E+01 5.00000E-01
 -1       662 4.33330E+00 1.42850E+01-5.00000E-01
 -1       663-1.48559E+01 1.46318E+00-5.00000E-01
 -1       664-1.48559E+01 1.46318E+00 5.00000E-01
 -1       665-1.15393E+01 9.47007E+00-5.00000E-01
 -1       666-1.15393E+01 9.47007E+00 5.00000E-01
 -1       667-7.03690E+00 1.31651E+01 5.00000E-01
 -1       668-7.03690E+00 1.31651E+01-5.00000E-01
 -1       669-1.46318E+00 1.48559E+01 5.00000E-01
 -1       670-1.46318E+00 1.48559E+01-5.00000E-01
 -1       671-9.47007E+00 1.15393E+01 5.00000E-01
 -1       672-9.47007E+00 1.15393E+01-5.00000E-01
 -1       673 1.48559E+01 1.46318E+00 5.00000E-01
 -1       674 1.48559E+01 1.46318E+00-5.00000E-01
 -1       675 1.46318E+00-1.48559E+01 5.00000E-01
 -1       676 1.46318E+00-1.48559E+01-5.00000E-01
 -1       677 1.42850E+01-4.33330E+00 5.00000E-01
 -1       678 1.42850E+01-4.33330E+00-5.00000E-01
 -1       679 4.33330E+00-1.42850E+01 5.00000E-01
 -1       680 4.33330E+00-1.42850E+01-5.00000E-01
 -1       681 7.03690E+00-1.31651E+01 5.00000E-01
 -1       682 7.03690E+00-1.31651E+01-5.00000E-01
 -1       683-1.46318E+00-1.48559E+01 5.00000E-01
 -1       684-1.46318E+00-1.48559E+01-5.00000E-01
 -1       685-9.47007E+00-1.15393E+01 5.00000E-01
 -1       686-9.47007E+00-1.15393E+01-5.00000E-01
 -1       687-1.31651E+01-7.03690E+00-5.00000E-01
 -1       688-1.31651E+01-7.03690E+00 5.00000E-01
 -1       689-1.48559E+01-1.46318E+00-5.00000E-01
 -1       690-1.48559E+01-1.46318E+00 5.00000E-01
 -1       691 1.31651E+01-7.03690E+00-5.00000E-01
 -1       692 1.15393E+01-9.47007E+00-5.00000E-01
 -1       693 9.47007E+00-1.15393E+01-5.00000E-01
 -1       694-7.03690E+00-1.31651E+01-5.00000E-01
 -1       695-1.15393E+01-9.47007E+00-5.00000E-01
 -1       696-1.42850E+01-4.33330E+00-5.00000E-01
 -1       697-1.42850E+01 4.33330E+00-5.00000E-01
 -1       698-1.15393E+01-9.47007E+00 5.00000E-01
 -1       699-1.42850E+01 4.33330E+00 5.00000E-01
 -1       700-1.42850E+01-4.33330E+00 5.00000E-01
 -1       701 1.31651E+01-7.03690E+00 5.00000E-01
 -1       702 1.15393E+01-9.47007E+00 5.00000E-01
 -1       703 9.47007E+00-1.15393E+01 5.00000E-01
 -1       704-7.03690E+00-1.31651E+01 5.00000E-01
 -1       705 4.54188E+00 4.50000E-01 1.45000E+00
 -1       706 3.06109E+00 4.50000E-01 1.45000E+00
 -1       707 4.54188E+00-4.50000E-01 1.45000E+00
 -1       708 5.99524E+00 9.00000E-01 1.45000E+00
 -1       709 8.87453E+00 4.50000E-01 1.45000E+00
 -1       710 1.03553E+01-4.50000E-01 1.45000E+00
 -1       711 7.42117E+00 9.00000E-01 5.00000E-01
 -1       712 5.99524E+00 9.00000E-01 5.00000E-01
 -1       713 3.00029E+00 7.55684E-01 1.45000E+00
 -1       714 4.36836E+00 1.32235E+00 1.45000E+00
 -1       715 2.65587E+00 1.58718E+00 1.45000E+00
 -1       716 4.36836E+00 1.32235E+00 5.00000E-01
 -1       717 6.51185E+00 3.67145E+00 5.00000E-01
 -1       718 5.19446E+00 3.12577E+00 5.00000E-01
 -1       719 3.52978E+00 2.89339E+00 1.45000E+00
 -1       720 1.84633E+00 2.48271E+00 1.45000E+00
 -1       721 7.64051E+00 7.00412E+00 5.00000E-01
 -1       722 7.55684E-01 3.00029E+00 1.45000E+00
 -1       723 3.12577E+00 5.19446E+00 1.45000E+00
 -1       724 3.67145E+00 6.51185E+00 1.45000E+00
 -1       725 4.50000E-01 3.06109E+00 1.45000E+00
 -1       726 4.50000E-01 4.54188E+00 1.45000E+00
 -1       727-4.50000E-01 3.06109E+00 1.45000E+00
 -1       728 9.00000E-01 7.42117E+00 1.45000E+00
 -1       729-3.67145E+00 6.51185E+00 1.45000E+00
 -1       730-3.12577E+00 5.19446E+00 1.45000E+00
 -1       731-3.67145E+00 6.51185E+00 5.00000E-01
 -1       732-3.12577E+00 5.19446E+00 5.00000E-01
 -1       733-1.84633E+00 2.48271E+00 1.45000E+00
 -1       734-2.89339E+00 3.52978E+00 1.45000E+00
 -1       735-2.48271E+00 1.84633E+00 1.45000E+00
 -1       736-2.89339E+00 3.52978E+00 5.00000E-01
 -1       737-2.65587E+00 1.58718E+00 1.45000E+00
 -1       738-4.02394E+00 2.15385E+00 1.45000E+00
 -1       739-3.00029E+00 7.55684E-01 1.45000E+00
 -1       740-4.02394E+00 2.15385E+00 5.00000E-01
 -1       741-7.20068E+00 2.00847E+00 5.00000E-01
 -1       742-5.88329E+00 1.46278E+00 5.00000E-01
 -1       743-3.06109E+00 4.50000E-01 1.45000E+00
 -1       744-4.54188E+00 4.50000E-01 1.45000E+00
 -1       745-3.06109E+00-4.50000E-01 1.45000E+00
 -1       746-4.54188E+00 4.50000E-01 5.00000E-01
 -1       747-7.42117E+00-9.00000E-01 5.00000E-01
 -1       748-5.99524E+00-9.00000E-01 5.00000E-01
 -1       749-2.65587E+00-1.58718E+00 1.45000E+00
 -1       750-4.36836E+00-1.32235E+00 1.45000E+00
 -1       751-5.88329E+00-1.46278E+00 1.45000E+00
 -1       752-7.20068E+00-2.00847E+00 1.45000E+00
 -1       753-9.73927E+00-3.54707E+00 1.45000E+00
 -1       754-4.36836E+00-1.32235E+00 5.00000E-01
 -1       755-6.51185E+00-3.67145E+00 5.00000E-01
 -1       756-5.19446E+00-3.12577E+00 5.00000E-01
 -1       757-1.84633E+00-2.48271E+00 1.45000E+00
 -1       758-3.52978E+00-2.89339E+00 1.45000E+00
 -1       759-4.87567E+00-3.60287E+00 1.45000E+00
 -1       760-5.88396E+00-4.61117E+00 1.45000E+00
 -1       761-7.64051E+00-7.00412E+00 1.45000E+00
 -1       762-4.61117E+00-5.88396E+00 5.00000E-01
 -1       763-3.60287E+00-4.87567E+00 5.00000E-01
 -1       764-7.55684E-01-3.00029E+00 1.45000E+00
 -1       765-2.15385E+00-4.02394E+00 1.45000E+00
 -1       766-1.46278E+00-5.88329E+00 1.45000E+00
 -1       767-2.15385E+00-4.02394E+00 5.00000E-01
 -1       768-1.46278E+00-5.88329E+00 5.00000E-01
 -1       769 4.50000E-01-3.06109E+00 1.45000E+00
 -1       770-4.50000E-01-4.54188E+00 1.45000E+00
 -1       771 4.50000E-01-8.87453E+00 1.45000E+00
 -1       772-4.50000E-01-1.03553E+01 1.45000E+00
 -1       773 9.00000E-01-7.42117E+00 5.00000E-01
 -1       774 9.00000E-01-5.99524E+00 5.00000E-01
 -1       775 1.58718E+00-2.65587E+00 1.45000E+00
 -1       776 1.32235E+00-4.36836E+00 1.45000E+00
 -1       777 1.46278E+00-5.88329E+00 1.45000E+00
 -1       778 2.00847E+00-7.20068E+00 1.45000E+00
 -1       779 1.32235E+00-4.36836E+00 5.00000E-01
 -1       780 2.48271E+00-1.84633E+00 1.45000E+00
 -1       781 2.89339E+00-3.52978E+00 1.45000E+00
 -1       782 4.87567E+00-3.60287E+00 1.45000E+00
 -1       783 6.59344E+00-5.95705E+00 1.45000E+00
 -1       784 7.00412E+00-7.64051E+00 1.45000E+00
 -1       785 2.89339E+00-3.52978E+00 5.00000E-01
 -1       786 3.00029E+00-7.55684E-01 1.45000E+00
 -1       787 4.02394E+00-2.15385E+00 1.45000E+00
 -1       788 5.88329E+00-1.46278E+00 1.45000E+00
 -1       789 8.37120E+00-2.98040E+00 1.45000E+00
 -1       790 9.39487E+00-4.37855E+00 1.45000E+00
 -1       791 4.02394E+00-2.15385E+00 5.00000E-01
 -1       792 7.20068E+00-2.00847E+00 5.00000E-01
 -1       793 5.88329E+00-1.46278E+00 5.00000E-01
 -1       794 1.00383E+01 1.10730E+01 5.00000E-01
 -1       795-5.03678E+00-1.40716E+01 5.00000E-01
 -1       796 1.20056E+01 8.90181E+00 5.00000E-01
 -1       797-3.62983E+00 1.44984E+01 5.00000E-01
 -1       798 1.44984E+01 3.62983E+00 5.00000E-01
 -1       799 1.28186E+01 7.68523E+00 5.00000E-01
 -1       800 1.35117E+01 6.38858E+00 5.00000E-01
 -1       801 1.28186E+01 7.68523E+00-5.00000E-01
 -1       802 6.38858E+00 1.35117E+01 5.00000E-01
 -1       803 7.68523E+00 1.28186E+01 5.00000E-01
 -1       804 6.38858E+00 1.35117E+01-5.00000E-01
 -1       805 3.62983E+00 1.44984E+01 5.00000E-01
 -1       806 5.03678E+00 1.40716E+01 5.00000E-01
 -1       807 3.62983E+00 1.44984E+01-5.00000E-01
 -1       808-1.49279E+01 7.31588E-01-5.00000E-01
 -1       809-1.20056E+01 8.90181E+00-5.00000E-01
 -1       810-1.10730E+01 1.00383E+01 5.00000E-01
 -1       811-7.68523E+00 1.28186E+01 5.00000E-01
 -1       812-6.38858E+00 1.35117E+01 5.00000E-01
 -1       813-7.68523E+00 1.28186E+01-5.00000E-01
 -1       814-2.19476E+00 1.47838E+01 5.00000E-01
 -1       815-7.31588E-01 1.49279E+01 5.00000E-01
 -1       816-2.19476E+00 1.47838E+01-5.00000E-01
 -1       817-1.00383E+01 1.10730E+01 5.00000E-01
 -1       818-8.90181E+00 1.20056E+01 5.00000E-01
 -1       819-1.00383E+01 1.10730E+01-5.00000E-01
 -1       820 1.47838E+01 2.19476E+00 5.00000E-01
 -1       821 1.49279E+01 7.31588E-01 5.00000E-01
 -1       822 1.47838E+01 2.19476E+00-5.00000E-01
 -1       823 7.31588E-01-1.49279E+01 5.00000E-01
 -1       824 5.03678E+00-1.40716E+01 5.00000E-01
 -1       825 3.62983E+00-1.44984E+01 5.00000E-01
 -1       826 5.03678E+00-1.40716E+01-5.00000E-01
 -1       827 6.38858E+00-1.35117E+01 5.00000E-01
 -1       828 7.68523E+00-1.28186E+01-5.00000E-01
 -1       829-7.31588E-01-1.49279E+01 5.00000E-01
 -1       830-2.19476E+00-1.47838E+01 5.00000E-01
 -1       831-7.31588E-01-1.49279E+01-5.00000E-01
 -1       832-1.00383E+01-1.10730E+01 5.00000E-01
 -1       833-1.47838E+01-2.19476E+00-5.00000E-01
 -1       834 1.28186E+01-7.68523E+00-5.00000E-01
 -1       835 1.10730E+01-1.00383E+01-5.00000E-01
 -1       836 1.00383E+01-1.10730E+01-5.00000E-01
 -1       837 8.90181E+00-1.20056E+01-5.00000E-01
 -1       838-6.38858E+00-1.35117E+01-5.00000E-01
 -1       839-7.68523E+00-1.28186E+01-5.00000E-01
 -1       840-1.10730E+01-1.00383E+01-5.00000E-01
 -1       841-1.20056E+01-8.90181E+00-5.00000E-01
 -1       842-1.44984E+01-3.62983E+00-5.00000E-01
 -1       843-1.40716E+01 5.03678E+00-5.00000E-01
 -1       844-1.20056E+01-8.90181E+00 5.00000E-01
 -1       845-1.44984E+01 3.62983E+00 5.00000E-01
 -1       846-1.40716E+01-5.03678E+00 5.00000E-01
 -1       847 1.35117E+01-6.38858E+00 5.00000E-01
 -1       848 1.20056E+01-8.90181E+00 5.00000E-01
 -1       849 1.00383E+01-1.10730E+01 5.00000E-01
 -1       850-6.38858E+00-1.35117E+01 5.00000E-01
 -1       851 3.06109E+00-4.50000E-01 1.45000E+00
 -1       852 7.42117E+00 9.00000E-01 1.45000E+00
 -1       853 7.42117E+00-9.00000E-01 1.45000E+00
 -1       854 5.99524E+00-9.00000E-01 1.45000E+00
 -1       855 1.03553E+01 4.50000E-01 1.45000E+00
 -1       856 8.87453E+00-4.50000E-01 1.45000E+00
 -1       857 4.54188E+00-4.50000E-01 5.00000E-01
 -1       858 8.87453E+00 4.50000E-01 5.00000E-01
 -1       859 1.03553E+01 4.50000E-01 5.00000E-01
 -1       860 3.06109E+00 4.50000E-01 5.00000E-01
 -1       861 4.54188E+00 4.50000E-01 5.00000E-01
 -1       862 3.06109E+00-4.50000E-01 5.00000E-01
 -1       863 1.03553E+01-4.50000E-01 5.00000E-01
 -1       864 8.87453E+00-4.50000E-01 5.00000E-01
 -1       865 7.42117E+00-9.00000E-01 5.00000E-01
 -1       866 5.99524E+00-9.00000E-01 5.00000E-01
 -1       867 8.02680E+00 3.81189E+00 1.45000E+00
 -1       868 9.73927E+00 3.54707E+00 1.45000E+00
 -1       869 8.37120E+00 2.98040E+00 1.45000E+00
 -1       870 9.39487E+00 4.37855E+00 1.45000E+00
 -1       871 7.20068E+00 2.00847E+00 1.45000E+00
 -1       872 5.88329E+00 1.46278E+00 1.45000E+00
 -1       873 5.19446E+00 3.12577E+00 1.45000E+00
 -1       874 6.51185E+00 3.67145E+00 1.45000E+00
 -1       875 4.02394E+00 2.15385E+00 1.45000E+00
 -1       876 8.02680E+00 3.81189E+00 5.00000E-01
 -1       877 9.39487E+00 4.37855E+00 5.00000E-01
 -1       878 2.65587E+00 1.58718E+00 5.00000E-01
 -1       879 4.02394E+00 2.15385E+00 5.00000E-01
 -1       880 3.00029E+00 7.55684E-01 5.00000E-01
 -1       881 9.73927E+00 3.54707E+00 5.00000E-01
 -1       882 8.37120E+00 2.98040E+00 5.00000E-01
 -1       883 7.20068E+00 2.00847E+00 5.00000E-01
 -1       884 5.88329E+00 1.46278E+00 5.00000E-01
 -1       885 2.48271E+00 1.84633E+00 1.45000E+00
 -1       886 5.88396E+00 4.61117E+00 1.45000E+00
 -1       887 7.64051E+00 7.00412E+00 1.45000E+00
 -1       888 6.59344E+00 5.95705E+00 1.45000E+00
 -1       889 5.95705E+00 6.59344E+00 1.45000E+00
 -1       890 7.00412E+00 7.64051E+00 1.45000E+00
 -1       891 4.87567E+00 3.60287E+00 1.45000E+00
 -1       892 3.60287E+00 4.87567E+00 1.45000E+00
 -1       893 4.61117E+00 5.88396E+00 1.45000E+00
 -1       894 2.89339E+00 3.52978E+00 1.45000E+00
 -1       895 5.95705E+00 6.59344E+00 5.00000E-01
 -1       896 7.00412E+00 7.64051E+00 5.00000E-01
 -1       897 1.84633E+00 2.48271E+00 5.00000E-01
 -1       898 2.89339E+00 3.52978E+00 5.00000E-01
 -1       899 3.52978E+00 2.89339E+00 5.00000E-01
 -1       900 2.48271E+00 1.84633E+00 5.00000E-01
 -1       901 6.59344E+00 5.95705E+00 5.00000E-01
 -1       902 3.60287E+00 4.87567E+00 5.00000E-01
 -1       903 4.61117E+00 5.88396E+00 5.00000E-01
 -1       904 5.88396E+00 4.61117E+00 5.00000E-01
 -1       905 4.87567E+00 3.60287E+00 5.00000E-01
 -1       906 2.15385E+00 4.02394E+00 1.45000E+00
 -1       907 1.58718E+00 2.65587E+00 1.45000E+00
 -1       908 1.46278E+00 5.88329E+00 1.45000E+00
 -1       909 2.00847E+00 7.20068E+00 1.45000E+00
 -1       910 4.37855E+00 9.39487E+00 1.45000E+00
 -1       911 3.81189E+00 8.02680E+00 1.45000E+00
 -1       912 2.98040E+00 8.37120E+00 1.45000E+00
 -1       913 3.54707E+00 9.73927E+00 1.45000E+00
 -1       914 1.32235E+00 4.36836E+00 1.45000E+00
 -1       915 2.98040E+00 8.37120E+00 5.00000E-01
 -1       916 3.54707E+00 9.73927E+00 5.00000E-01
 -1       917 7.55684E-01 3.00029E+00 5.00000E-01
 -1       918 1.32235E+00 4.36836E+00 5.00000E-01
 -1       919 2.15385E+00 4.02394E+00 5.00000E-01
 -1       920 1.58718E+00 2.65587E+00 5.00000E-01
 -1       921 4.37855E+00 9.39487E+00 5.00000E-01
 -1       922 3.81189E+00 8.02680E+00 5.00000E-01
 -1       923 1.46278E+00 5.88329E+00 5.00000E-01
 -1       924 2.00847E+00 7.20068E+00 5.00000E-01
 -1       925 3.67145E+00 6.51185E+00 5.00000E-01
 -1       926 3.12577E+00 5.19446E+00 5.00000E-01
 -1       927-9.00000E-01 5.99524E+00 1.45000E+00
 -1       928-9.00000E-01 7.42117E+00 1.45000E+00
 -1       929 4.50000E-01 1.03553E+01 1.45000E+00
 -1       930 4.50000E-01 8.87453E+00 1.45000E+00
 -1       931-4.50000E-01 8.87453E+00 1.45000E+00
 -1       932-4.50000E-01 1.03553E+01 1.45000E+00
 -1       933-4.50000E-01 4.54188E+00 1.45000E+00
 -1       934 9.00000E-01 5.99524E+00 1.45000E+00
 -1       935 4.50000E-01 1.03553E+01 5.00000E-01
 -1       936-4.50000E-01 8.87453E+00 5.00000E-01
 -1       937-4.50000E-01 1.03553E+01 5.00000E-01
 -1       938-4.50000E-01 3.06109E+00 5.00000E-01
 -1       939-4.50000E-01 4.54188E+00 5.00000E-01
 -1       940 4.50000E-01 4.54188E+00 5.00000E-01
 -1       941 4.50000E-01 3.06109E+00 5.00000E-01
 -1       942 4.50000E-01 8.87453E+00 5.00000E-01
 -1       943-3.81189E+00 8.02680E+00 1.45000E+00
 -1       944-1.32235E+00 4.36836E+00 1.45000E+00
 -1       945-9.00000E-01 5.99524E+00 5.00000E-01
 -1       946-9.00000E-01 7.42117E+00 5.00000E-01
 -1       947 9.00000E-01 7.42117E+00 5.00000E-01
 -1       948 9.00000E-01 5.99524E+00 5.00000E-01
 -1       949-7.55684E-01 3.00029E+00 1.45000E+00
 -1       950-2.00847E+00 7.20068E+00 1.45000E+00
 -1       951-1.46278E+00 5.88329E+00 1.45000E+00
 -1       952-1.58718E+00 2.65587E+00 1.45000E+00
 -1       953-2.15385E+00 4.02394E+00 1.45000E+00
 -1       954-3.54707E+00 9.73927E+00 1.45000E+00
 -1       955-2.98040E+00 8.37120E+00 1.45000E+00
 -1       956-4.37855E+00 9.39487E+00 1.45000E+00
 -1       957-3.81189E+00 8.02680E+00 5.00000E-01
 -1       958-4.37855E+00 9.39487E+00 5.00000E-01
 -1       959-1.58718E+00 2.65587E+00 5.00000E-01
 -1       960-2.15385E+00 4.02394E+00 5.00000E-01
 -1       961-1.32235E+00 4.36836E+00 5.00000E-01
 -1       962-7.55684E-01 3.00029E+00 5.00000E-01
 -1       963-3.54707E+00 9.73927E+00 5.00000E-01
 -1       964-2.98040E+00 8.37120E+00 5.00000E-01
 -1       965-2.00847E+00 7.20068E+00 5.00000E-01
 -1       966-1.46278E+00 5.88329E+00 5.00000E-01
 -1       967-4.61117E+00 5.88396E+00 1.45000E+00
 -1       968-7.00412E+00 7.64051E+00 1.45000E+00
 -1       969-5.95705E+00 6.59344E+00 1.45000E+00
 -1       970-6.59344E+00 5.95705E+00 1.45000E+00
 -1       971-7.64051E+00 7.00412E+00 1.45000E+00
 -1       972-3.60287E+00 4.87567E+00 1.45000E+00
 -1       973-4.87567E+00 3.60287E+00 1.45000E+00
 -1       974-5.88396E+00 4.61117E+00 1.45000E+00
 -1       975-3.52978E+00 2.89339E+00 1.45000E+00
 -1       976-6.59344E+00 5.95705E+00 5.00000E-01
 -1       977-7.64051E+00 7.00412E+00 5.00000E-01
 -1       978-2.48271E+00 1.84633E+00 5.00000E-01
 -1       979-3.52978E+00 2.89339E+00 5.00000E-01
 -1       980-1.84633E+00 2.48271E+00 5.00000E-01
 -1       981-4.87567E+00 3.60287E+00 5.00000E-01
 -1       982-7.00412E+00 7.64051E+00 5.00000E-01
 -1       983-5.95705E+00 6.59344E+00 5.00000E-01
 -1       984-5.88396E+00 4.61117E+00 5.00000E-01
 -1       985-4.61117E+00 5.88396E+00 5.00000E-01
 -1       986-3.60287E+00 4.87567E+00 5.00000E-01
 -1       987-6.51185E+00 3.67145E+00 1.45000E+00
 -1       988-9.39487E+00 4.37855E+00 1.45000E+00
 -1       989-8.02680E+00 3.81189E+00 1.45000E+00
 -1       990-8.37120E+00 2.98040E+00 1.45000E+00
 -1       991-9.73927E+00 3.54707E+00 1.45000E+00
 -1       992-5.19446E+00 3.12577E+00 1.45000E+00
 -1       993-5.88329E+00 1.46278E+00 1.45000E+00
 -1       994-7.20068E+00 2.00847E+00 1.45000E+00
 -1       995-4.36836E+00 1.32235E+00 1.45000E+00
 -1       996-8.37120E+00 2.98040E+00 5.00000E-01
 -1       997-9.73927E+00 3.54707E+00 5.00000E-01
 -1       998-3.00029E+00 7.55684E-01 5.00000E-01
 -1       999-4.36836E+00 1.32235E+00 5.00000E-01
 -1      1000-2.65587E+00 1.58718E+00 5.00000E-01
 -1      1001-9.39487E+00 4.37855E+00 5.00000E-01
 -1      1002-8.02680E+00 3.81189E+00 5.00000E-01
 -1      1003-6.51185E+00 3.67145E+00 5.00000E-01
 -1      1004-5.19446E+00 3.12577E+00 5.00000E-01
 -1      1005-7.42117E+00 9.00000E-01 1.45000E+00
 -1      1006-1.03553E+01 4.50000E-01 1.45000E+00
 -1      1007-8.87453E+00 4.50000E-01 1.45000E+00
 -1      1008-8.87453E+00-4.50000E-01 1.45000E+00
 -1      1009-1.03553E+01-4.50000E-01 1.45000E+00
 -1      1010-5.99524E+00 9.00000E-01 1.45000E+00
 -1      1011-5.99524E+00-9.00000E-01 1.45000E+00
 -1      1012-7.42117E+00-9.00000E-01 1.45000E+00
 -1      1013-4.54188E+00-4.50000E-01 1.45000E+00
 -1      1014-8.87453E+00-4.50000E-01 5.00000E-01
 -1      1015-1.03553E+01-4.50000E-01 5.00000E-01
 -1      1016-3.06109E+00-4.50000E-01 5.00000E-01
 -1      1017-4.54188E+00-4.50000E-01 5.00000E-01
 -1      1018-3.06109E+00 4.50000E-01 5.00000E-01
 -1      1019-1.03553E+01 4.50000E-01 5.00000E-01
 -1      1020-8.87453E+00 4.50000E-01 5.00000E-01
 -1      1021-7.42117E+00 9.00000E-01 5.00000E-01
 -1      1022-5.99524E+00 9.00000E-01 5.00000E-01
 -1      1023-4.02394E+00-2.15385E+00 1.45000E+00
 -1      1024-3.00029E+00-7.55684E-01 1.45000E+00
 -1      1025-5.19446E+00-3.12577E+00 1.45000E+00
 -1      1026-6.51185E+00-3.67145E+00 1.45000E+00
 -1      1027-8.02680E+00-3.81189E+00 1.45000E+00
 -1      1028-9.39487E+00-4.37855E+00 1.45000E+00
 -1      1029-8.37120E+00-2.98040E+00 1.45000E+00
 -1      1030-8.02680E+00-3.81189E+00 5.00000E-01
 -1      1031-9.39487E+00-4.37855E+00 5.00000E-01
 -1      1032-2.65587E+00-1.58718E+00 5.00000E-01
 -1      1033-4.02394E+00-2.15385E+00 5.00000E-01
 -1      1034-3.00029E+00-7.55684E-01 5.00000E-01
 -1      1035-9.73927E+00-3.54707E+00 5.00000E-01
 -1      1036-8.37120E+00-2.98040E+00 5.00000E-01
 -1      1037-7.20068E+00-2.00847E+00 5.00000E-01
 -1      1038-5.88329E+00-1.46278E+00 5.00000E-01
 -1      1039-2.89339E+00-3.52978E+00 1.45000E+00
 -1      1040-2.48271E+00-1.84633E+00 1.45000E+00
 -1      1041-3.60287E+00-4.87567E+00 1.45000E+00
 -1      1042-4.61117E+00-5.88396E+00 1.45000E+00
 -1      1043-5.95705E+00-6.59344E+00 1.45000E+00
 -1      1044-7.00412E+00-7.64051E+00 1.45000E+00
 -1      1045-6.59344E+00-5.95705E+00 1.45000E+00
 -1      1046-3.52978E+00-2.89339E+00 5.00000E-01
 -1      1047-5.95705E+00-6.59344E+00 5.00000E-01
 -1      1048-7.00412E+00-7.64051E+00 5.00000E-01
 -1      1049-1.84633E+00-2.48271E+00 5.00000E-01
 -1      1050-2.89339E+00-3.52978E+00 5.00000E-01
 -1      1051-2.48271E+00-1.84633E+00 5.00000E-01
 -1      1052-7.64051E+00-7.00412E+00 5.00000E-01
 -1      1053-6.59344E+00-5.95705E+00 5.00000E-01
 -1      1054-5.88396E+00-4.61117E+00 5.00000E-01
 -1      1055-4.87567E+00-3.60287E+00 5.00000E-01
 -1      1056-1.32235E+00-4.36836E+00 1.45000E+00
 -1      1057-3.67145E+00-6.51185E+00 1.45000E+00
 -1      1058-3.12577E+00-5.19446E+00 1.45000E+00
 -1      1059-1.58718E+00-2.65587E+00 1.45000E+00
 -1      1060-4.37855E+00-9.39487E+00 1.45000E+00
 -1      1061-2.98040E+00-8.37120E+00 1.45000E+00
 -1      1062-3.54707E+00-9.73927E+00 1.45000E+00
 -1      1063-3.81189E+00-8.02680E+00 1.45000E+00
 -1      1064-2.00847E+00-7.20068E+00 1.45000E+00
 -1      1065-2.98040E+00-8.37120E+00 5.00000E-01
 -1      1066-3.54707E+00-9.73927E+00 5.00000E-01
 -1      1067-7.55684E-01-3.00029E+00 5.00000E-01
 -1      1068-1.32235E+00-4.36836E+00 5.00000E-01
 -1      1069-1.58718E+00-2.65587E+00 5.00000E-01
 -1      1070-4.37855E+00-9.39487E+00 5.00000E-01
 -1      1071-3.81189E+00-8.02680E+00 5.00000E-01
 -1      1072-2.00847E+00-7.20068E+00 5.00000E-01
 -1      1073-3.67145E+00-6.51185E+00 5.00000E-01
 -1      1074-3.12577E+00-5.19446E+00 5.00000E-01
 -1      1075 4.50000E-01-4.54188E+00 1.45000E+00
 -1      1076-9.00000E-01-7.42117E+00 1.45000E+00
 -1      1077-9.00000E-01-5.99524E+00 1.45000E+00
 -1      1078-4.50000E-01-3.06109E+00 1.45000E+00
 -1      1079 4.50000E-01-1.03553E+01 1.45000E+00
 -1      1080-4.50000E-01-8.87453E+00 1.45000E+00
 -1      1081 9.00000E-01-5.99524E+00 1.45000E+00
 -1      1082 9.00000E-01-7.42117E+00 1.45000E+00
 -1      1083-4.50000E-01-4.54188E+00 5.00000E-01
 -1      1084 4.50000E-01-8.87453E+00 5.00000E-01
 -1      1085 4.50000E-01-1.03553E+01 5.00000E-01
 -1      1086 4.50000E-01-3.06109E+00 5.00000E-01
 -1      1087 4.50000E-01-4.54188E+00 5.00000E-01
 -1      1088-4.50000E-01-3.06109E+00 5.00000E-01
 -1      1089-4.50000E-01-1.03553E+01 5.00000E-01
 -1      1090-4.50000E-01-8.87453E+00 5.00000E-01
 -1      1091-9.00000E-01-7.42117E+00 5.00000E-01
 -1      1092-9.00000E-01-5.99524E+00 5.00000E-01
 -1      1093 2.15385E+00-4.02394E+00 1.45000E+00
 -1      1094 3.12577E+00-5.19446E+00 1.45000E+00
 -1      1095 3.67145E+00-6.51185E+00 1.45000E+00
 -1      1096 3.81189E+00-8.02680E+00 1.45000E+00
 -1      1097 4.37855E+00-9.39487E+00 1.45000E+00
 -1      1098 3.54707E+00-9.73927E+00 1.45000E+00
 -1      1099 2.98040E+00-8.37120E+00 1.45000E+00
 -1      1100 7.55684E-01-3.00029E+00 1.45000E+00
 -1      1101 3.81189E+00-8.02680E+00 5.00000E-01
 -1      1102 4.37855E+00-9.39487E+00 5.00000E-01
 -1      1103 1.58718E+00-2.65587E+00 5.00000E-01
 -1      1104 2.15385E+00-4.02394E+00 5.00000E-01
 -1      1105 7.55684E-01-3.00029E+00 5.00000E-01
 -1      1106 3.54707E+00-9.73927E+00 5.00000E-01
 -1      1107 2.98040E+00-8.37120E+00 5.00000E-01
 -1      1108 3.12577E+00-5.19446E+00 5.00000E-01
 -1      1109 3.67145E+00-6.51185E+00 5.00000E-01
 -1      1110 2.00847E+00-7.20068E+00 5.00000E-01
 -1      1111 1.46278E+00-5.88329E+00 5.00000E-01
 -1      1112 3.52978E+00-2.89339E+00 1.45000E+00
 -1      1113 1.84633E+00-2.48271E+00 1.45000E+00
 -1      1114 5.88396E+00-4.61117E+00 1.45000E+00
 -1      1115 4.61117E+00-5.88396E+00 1.45000E+00
 -1      1116 3.60287E+00-4.87567E+00 1.45000E+00
 -1      1117 7.64051E+00-7.00412E+00 1.45000E+00
 -1      1118 5.95705E+00-6.59344E+00 1.45000E+00
 -1      1119 6.59344E+00-5.95705E+00 5.00000E-01
 -1      1120 7.64051E+00-7.00412E+00 5.00000E-01
 -1      1121 2.48271E+00-1.84633E+00 5.00000E-01
 -1      1122 3.52978E+00-2.89339E+00 5.00000E-01
 -1      1123 1.84633E+00-2.48271E+00 5.00000E-01
 -1      1124 7.00412E+00-7.64051E+00 5.00000E-01
 -1      1125 5.95705E+00-6.59344E+00 5.00000E-01
 -1      1126 4.87567E+00-3.60287E+00 5.00000E-01
 -1      1127 5.88396E+00-4.61117E+00 5.00000E-01
 -1      1128 4.61117E+00-5.88396E+00 5.00000E-01
 -1      1129 3.60287E+00-4.87567E+00 5.00000E-01
 -1      1130 4.36836E+00-1.32235E+00 1.45000E+00
 -1      1131 2.65587E+00-1.58718E+00 1.45000E+00
 -1      1132 7.20068E+00-2.00847E+00 1.45000E+00
 -1      1133 6.51185E+00-3.67145E+00 1.45000E+00
 -1      1134 5.19446E+00-3.12577E+00 1.45000E+00
 -1      1135 9.73927E+00-3.54707E+00 1.45000E+00
 -1      1136 8.02680E+00-3.81189E+00 1.45000E+00
 -1      1137 8.37120E+00-2.98040E+00 5.00000E-01
 -1      1138 9.73927E+00-3.54707E+00 5.00000E-01
 -1      1139 3.00029E+00-7.55684E-01 5.00000E-01
 -1      1140 4.36836E+00-1.32235E+00 5.00000E-01
 -1      1141 2.65587E+00-1.58718E+00 5.00000E-01
 -1      1142 9.39487E+00-4.37855E+00 5.00000E-01
 -1      1143 8.02680E+00-3.81189E+00 5.00000E-01
 -1      1144 6.51185E+00-3.67145E+00 5.00000E-01
 -1      1145 5.19446E+00-3.12577E+00 5.00000E-01
 -1      1146 8.90181E+00 1.20056E+01 5.00000E-01
 -1      1147 8.90181E+00 1.20056E+01-5.00000E-01
 -1      1148 1.00383E+01 1.10730E+01-5.00000E-01
 -1      1149 1.47838E+01-2.19476E+00 5.00000E-01
 -1      1150 1.49279E+01-7.31588E-01 5.00000E-01
 -1      1151 1.49279E+01-7.31588E-01-5.00000E-01
 -1      1152 1.47838E+01-2.19476E+00-5.00000E-01
 -1      1153-3.62983E+00-1.44984E+01 5.00000E-01
 -1      1154-3.62983E+00-1.44984E+01-5.00000E-01
 -1      1155-5.03678E+00-1.40716E+01-5.00000E-01
 -1      1156 1.10730E+01 1.00383E+01 5.00000E-01
 -1      1157 1.10730E+01 1.00383E+01-5.00000E-01
 -1      1158 1.20056E+01 8.90181E+00-5.00000E-01
 -1      1159-5.03678E+00 1.40716E+01 5.00000E-01
 -1      1160-5.03678E+00 1.40716E+01-5.00000E-01
 -1      1161-3.62983E+00 1.44984E+01-5.00000E-01
 -1      1162-1.35117E+01 6.38858E+00-5.00000E-01
 -1      1163-1.28186E+01 7.68523E+00-5.00000E-01
 -1      1164-1.28186E+01 7.68523E+00 5.00000E-01
 -1      1165-1.35117E+01 6.38858E+00 5.00000E-01
 -1      1166 1.40716E+01 5.03678E+00 5.00000E-01
 -1      1167 1.40716E+01 5.03678E+00-5.00000E-01
 -1      1168 1.44984E+01 3.62983E+00-5.00000E-01
 -1      1169 1.35117E+01 6.38858E+00-5.00000E-01
 -1      1170 7.68523E+00 1.28186E+01-5.00000E-01
 -1      1171 2.19476E+00 1.47838E+01 5.00000E-01
 -1      1172 7.31588E-01 1.49279E+01 5.00000E-01
 -1      1173 7.31588E-01 1.49279E+01-5.00000E-01
 -1      1174 2.19476E+00 1.47838E+01-5.00000E-01
 -1      1175 5.03678E+00 1.40716E+01-5.00000E-01
 -1      1176-1.47838E+01 2.19476E+00-5.00000E-01
 -1      1177-1.47838E+01 2.19476E+00 5.00000E-01
 -1      1178-1.49279E+01 7.31588E-01 5.00000E-01
 -1      1179-1.10730E+01 1.00383E+01-5.00000E-01
 -1      1180-1.20056E+01 8.90181E+00 5.00000E-01
 -1      1181-6.38858E+00 1.35117E+01-5.00000E-01
 -1      1182-7.31588E-01 1.49279E+01-5.00000E-01
 -1      1183-8.90181E+00 1.20056E+01-5.00000E-01
 -1      1184 1.49279E+01 7.31588E-01-5.00000E-01
 -1      1185 2.19476E+00-1.47838E+01 5.00000E-01
 -1      1186 2.19476E+00-1.47838E+01-5.00000E-01
 -1      1187 7.31588E-01-1.49279E+01-5.00000E-01
 -1      1188 1.40716E+01-5.03678E+00 5.00000E-01
 -1      1189 1.44984E+01-3.62983E+00 5.00000E-01
 -1      1190 1.44984E+01-3.62983E+00-5.00000E-01
 -1      1191 1.40716E+01-5.03678E+00-5.00000E-01
 -1      1192 3.62983E+00-1.44984E+01-5.00000E-01
 -1      1193 7.68523E+00-1.28186E+01 5.00000E-01
 -1      1194 6.38858E+00-1.35117E+01-5.00000E-01
 -1      1195-2.19476E+00-1.47838E+01-5.00000E-01
 -1      1196-8.90181E+00-1.20056E+01 5.00000E-01
 -1      1197-8.90181E+00-1.20056E+01-5.00000E-01
 -1      1198-1.00383E+01-1.10730E+01-5.00000E-01
 -1      1199-1.28186E+01-7.68523E+00-5.00000E-01
 -1      1200-1.35117E+01-6.38858E+00-5.00000E-01
 -1      1201-1.35117E+01-6.38858E+00 5.00000E-01
 -1      1202-1.28186E+01-7.68523E+00 5.00000E-01
 -1      1203-1.49279E+01-7.31588E-01-5.00000E-01
 -1      1204-1.49279E+01-7.31588E-01 5.00000E-01
 -1      1205-1.47838E+01-2.19476E+00 5.00000E-01
 -1      1206 1.35117E+01-6.38858E+00-5.00000E-01
 -1      1207 1.20056E+01-8.90181E+00-5.00000E-01
 -1      1208-1.40716E+01-5.03678E+00-5.00000E-01
 -1      1209-1.44984E+01 3.62983E+00-5.00000E-01
 -1      1210-1.10730E+01-1.00383E+01 5.00000E-01
 -1      1211-1.40716E+01 5.03678E+00 5.00000E-01
 -1      1212-1.44984E+01-3.62983E+00 5.00000E-01
 -1      1213 1.28186E+01-7.68523E+00 5.00000E-01
 -1      1214 1.10730E+01-1.00383E+01 5.00000E-01
 -1      1215 8.90181E+00-1.20056E+01 5.00000E-01
 -1      1216-7.68523E+00-1.28186E+01 5.00000E-01
 -1      1217 2.98935E+00-4.86511E+00 5.00000E-01
 -1      1218 1.58456E+00 2.22095E+00 5.00000E-01
 -1      1219 1.43302E+00 2.28372E+00 5.00000E-01
 -1      1220-6.14017E-01-2.65828E+00 5.00000E-01
 -1      1221-4.50000E-01-2.65828E+00 5.00000E-01
 -1      1222-4.86511E+00-2.98935E+00 5.00000E-01
 -1      1223 2.22095E+00 1.58456E+00 5.00000E-01
 -1      1224 2.28372E+00 1.43302E+00 5.00000E-01
 -1      1225-6.14017E-01 2.65828E+00 5.00000E-01
 -1      1226-4.50000E-01 2.65828E+00 5.00000E-01
 -1      1227 1.64099E+00-1.64099E+00 5.00000E-01
 -1      1228 4.50000E-01 2.32070E+00 9.75000E-01
 -1      1229 2.31626E+00 4.72349E-01 9.75000E-01
 -1      1230-2.65828E+00 6.14017E-01 5.00000E-01
 -1      1231-2.65828E+00 4.50000E-01 5.00000E-01
 -1      1232-5.43183E-01-2.48727E+00 5.00000E-01
 -1      1233-4.50000E-01-2.48727E+00 5.00000E-01
 -1      1234 2.22095E+00-1.58456E+00 5.00000E-01
 -1      1235 2.28372E+00-1.43302E+00 5.00000E-01
 -1      1236 4.72349E-01 2.31626E+00 9.75000E-01
 -1      1237 6.14017E-01-2.65828E+00 5.00000E-01
 -1      1238 4.50000E-01-2.65828E+00 5.00000E-01
 -1      1239-2.65828E+00-6.14017E-01 5.00000E-01
 -1      1240-2.65828E+00-4.50000E-01 5.00000E-01
 -1      1241-2.22095E+00-1.58456E+00 5.00000E-01
 -1      1242-2.28372E+00-1.43302E+00 5.00000E-01
 -1      1243 6.14017E-01 2.65828E+00 5.00000E-01
 -1      1244 4.50000E-01 2.65828E+00 5.00000E-01
 -1      1245-1.58456E+00 2.22095E+00 5.00000E-01
 -1      1246-1.43302E+00 2.28372E+00 5.00000E-01
 -1      1247 2.65828E+00 6.14017E-01 5.00000E-01
 -1      1248 2.65828E+00 4.50000E-01 5.00000E-01
 -1      1249 2.09006E+00 1.45367E+00 5.00000E-01
 -1      1250 2.12572E+00 1.36758E+00 5.00000E-01
 -1      1251 2.32070E+00-4.50000E-01 9.75000E-01
 -1      1252 1.64099E+00 1.64099E+00 1.45000E+00
 -1      1253 2.65828E+00-6.14017E-01 5.00000E-01
 -1      1254 2.65828E+00-4.50000E-01 5.00000E-01
 -1      1255-2.32070E+00 4.50000E-01 9.75000E-01
 -1      1256 2.14405E+00 8.88094E-01 5.00000E-01
 -1      1257 1.45367E+00 2.09006E+00 5.00000E-01
 -1      1258 1.36758E+00 2.12572E+00 5.00000E-01
 -1      1259-1.64099E+00 1.64099E+00 5.00000E-01
 -1      1260-2.22095E+00 1.58456E+00 5.00000E-01
 -1      1261-2.28372E+00 1.43302E+00 5.00000E-01
 -1      1262 1.64099E+00 1.64099E+00 5.00000E-01
 -1      1263-4.50000E-01-2.32070E+00 9.75000E-01
 -1      1264 0.00000E+00-2.32070E+00 5.00000E-01
 -1      1265 0.00000E+00 2.32070E+00 5.00000E-01
 -1      1266-5.43183E-01 2.48727E+00 5.00000E-01
 -1      1267-4.50000E-01 2.48727E+00 5.00000E-01
 -1      1268 1.30384E+00 1.97184E+00 9.75000E-01
 -1      1269 8.88094E-01 2.14405E+00 5.00000E-01
 -1      1270-1.58456E+00-2.22095E+00 5.00000E-01
 -1      1271-1.43302E+00-2.28372E+00 5.00000E-01
 -1      1272 1.32279E+00 1.95918E+00 9.75000E-01
 -1      1273 1.97184E+00-1.30384E+00 9.75000E-01
 -1      1274-1.30384E+00-1.97184E+00 9.75000E-01
 -1      1275-8.88094E-01-2.14405E+00 5.00000E-01
 -1      1276 1.95918E+00 1.32279E+00 9.75000E-01
 -1      1277-2.48727E+00-5.43183E-01 5.00000E-01
 -1      1278-2.48727E+00-4.50000E-01 5.00000E-01
 -1      1279-2.32070E+00 0.00000E+00 5.00000E-01
 -1      1280-2.14405E+00-8.88094E-01 5.00000E-01
 -1      1281-6.80222E-01-2.23015E+00 5.00000E-01
 -1      1282 1.58456E+00-2.22095E+00 5.00000E-01
 -1      1283 1.43302E+00-2.28372E+00 5.00000E-01
 -1      1284-8.88094E-01 2.14405E+00 5.00000E-01
 -1      1285 8.88094E-01-2.14405E+00 5.00000E-01
 -1      1286 0.00000E+00-2.32070E+00 1.45000E+00
 -1      1287-4.50000E-01 2.32070E+00 9.75000E-01
 -1      1288 4.50000E-01-2.32070E+00 9.75000E-01
 -1      1289-2.31626E+00 4.72349E-01 9.75000E-01
 -1      1290-1.80008E+00 1.48189E+00 5.00000E-01
 -1      1291 2.32070E+00 0.00000E+00 5.00000E-01
 -1      1292-2.05795E+00-1.09597E+00 5.00000E-01
 -1      1293 1.48189E+00 1.80008E+00 5.00000E-01
 -1      1294 1.09597E+00 2.05795E+00 5.00000E-01
 -1      1295 5.43183E-01-2.48727E+00 5.00000E-01
 -1      1296 4.50000E-01-2.48727E+00 5.00000E-01
 -1      1297 2.09006E+00-1.45367E+00 5.00000E-01
 -1      1298 2.12572E+00-1.36758E+00 5.00000E-01
 -1      1299 1.95918E+00-1.32279E+00 9.75000E-01
 -1      1300 1.97184E+00 1.30384E+00 9.75000E-01
 -1      1301-1.45367E+00 2.09006E+00 5.00000E-01
 -1      1302-1.36758E+00 2.12572E+00 5.00000E-01
 -1      1303-1.32279E+00 1.95918E+00 9.75000E-01
 -1      1304 4.72349E-01-2.31626E+00 9.75000E-01
 -1      1305-1.95918E+00 1.32279E+00 9.75000E-01
 -1      1306 5.43183E-01 2.48727E+00 5.00000E-01
 -1      1307 4.50000E-01 2.48727E+00 5.00000E-01
 -1      1308-4.72349E-01-2.31626E+00 9.75000E-01
 -1      1309 1.19990E+00 2.01489E+00 5.00000E-01
 -1      1310 1.40234E+00 1.87963E+00 5.00000E-01
 -1      1311-1.30384E+00 1.97184E+00 9.75000E-01
 -1      1312 2.02462E+00-1.38823E+00 5.00000E-01
 -1      1313 2.04673E+00-1.33486E+00 5.00000E-01
 -1      1314-1.64099E+00-1.64099E+00 5.00000E-01
 -1      1315 2.14405E+00-8.88094E-01 5.00000E-01
 -1      1316 2.05795E+00-1.09597E+00 5.00000E-01
 -1      1317 2.25000E-01-2.32070E+00 5.00000E-01
 -1      1318-2.40176E+00-5.07766E-01 5.00000E-01
 -1      1319-2.40176E+00-4.50000E-01 5.00000E-01
 -1      1320-1.45367E+00-2.09006E+00 5.00000E-01
 -1      1321-1.36758E+00-2.12572E+00 5.00000E-01
 -1      1322-1.48189E+00-1.80008E+00 5.00000E-01
 -1      1323 2.48727E+00 5.43183E-01 5.00000E-01
 -1      1324 2.48727E+00 4.50000E-01 5.00000E-01
 -1      1325-2.48727E+00 5.43183E-01 5.00000E-01
 -1      1326-2.48727E+00 4.50000E-01 5.00000E-01
 -1      1327-2.31626E+00-4.72349E-01 9.75000E-01
 -1      1328-2.32070E+00-4.50000E-01 9.75000E-01
 -1      1329 1.97184E+00-1.30384E+00 7.37500E-01
 -1      1330 2.02462E+00 1.38823E+00 5.00000E-01
 -1      1331 2.04673E+00 1.33486E+00 5.00000E-01
 -1      1332-5.07766E-01-2.40176E+00 5.00000E-01
 -1      1333-4.50000E-01-2.40176E+00 5.00000E-01
 -1      1334-2.25000E-01-2.32070E+00 5.00000E-01
 -1      1335-2.25000E-01 2.32070E+00 5.00000E-01
 -1      1336-1.97184E+00-1.30384E+00 9.75000E-01
 -1      1337-5.07766E-01 2.40176E+00 5.00000E-01
 -1      1338-4.50000E-01 2.40176E+00 5.00000E-01
 -1      1339-2.32070E+00-2.25000E-01 5.00000E-01
 -1      1340 1.38823E+00 2.02462E+00 5.00000E-01
 -1      1341 1.33486E+00 2.04673E+00 5.00000E-01
 -1      1342 2.05795E+00 1.09597E+00 5.00000E-01
 -1      1343 1.32279E+00 1.95918E+00 7.37500E-01
 -1      1344-2.31626E+00-4.72349E-01 7.37500E-01
 -1      1345 1.95918E+00 1.32279E+00 7.37500E-01
 -1      1346-6.80222E-01 2.23015E+00 5.00000E-01
 -1      1347-2.23015E+00-6.80222E-01 5.00000E-01
 -1      1348 6.80222E-01 2.23015E+00 5.00000E-01
 -1      1349-3.37500E-01 2.32070E+00 5.00000E-01
 -1      1350 1.80008E+00 1.48189E+00 5.00000E-01
 -1      1351 1.30384E+00 1.97184E+00 7.37500E-01
 -1      1352-2.14405E+00 8.88094E-01 5.00000E-01
 -1      1353 5.07766E-01-2.40176E+00 5.00000E-01
 -1      1354 4.50000E-01-2.40176E+00 5.00000E-01
 -1      1355 2.32070E+00 4.50000E-01 9.75000E-01
 -1      1356 1.45367E+00-2.09006E+00 5.00000E-01
 -1      1357 1.36758E+00-2.12572E+00 5.00000E-01
 -1      1358 1.30384E+00-1.97184E+00 9.75000E-01
 -1      1359-2.09006E+00 1.45367E+00 5.00000E-01
 -1      1360-2.12572E+00 1.36758E+00 5.00000E-01
 -1      1361 4.50000E-01-2.32070E+00 7.37500E-01
 -1      1362-1.32279E+00-1.95918E+00 9.75000E-01
 -1      1363-2.09006E+00-1.45367E+00 5.00000E-01
 -1      1364-2.12572E+00-1.36758E+00 5.00000E-01
 -1      1365-4.50000E-01 2.32070E+00 7.37500E-01
 -1      1366 1.95918E+00-1.32279E+00 7.37500E-01
 -1      1367 1.80008E+00-1.48189E+00 5.00000E-01
 -1      1368-1.95918E+00-1.32279E+00 9.75000E-01
 -1      1369 4.90057E-01-2.35901E+00 5.00000E-01
 -1      1370 4.50000E-01-2.35901E+00 5.00000E-01
 -1      1371 4.72349E-01-2.31626E+00 7.37500E-01
 -1      1372-1.80008E+00-1.48189E+00 5.00000E-01
 -1      1373 4.50000E-01-2.32070E+00 6.18750E-01
 -1      1374-2.05795E+00 1.09597E+00 5.00000E-01
 -1      1375-2.40176E+00 5.07766E-01 5.00000E-01
 -1      1376-2.40176E+00 4.50000E-01 5.00000E-01
 -1      1377 3.37500E-01-2.32070E+00 5.00000E-01
 -1      1378 2.48727E+00-5.43183E-01 5.00000E-01
 -1      1379 2.48727E+00-4.50000E-01 5.00000E-01
 -1      1380-2.32070E+00 2.25000E-01 5.00000E-01
 -1      1381-4.50000E-01-2.32070E+00 7.37500E-01
 -1      1382-1.38823E+00 2.02462E+00 5.00000E-01
 -1      1383-1.33486E+00 2.04673E+00 5.00000E-01
 -1      1384 1.32279E+00-1.95918E+00 9.75000E-01
 -1      1385 2.31626E+00-4.72349E-01 9.75000E-01
 -1      1386-2.32070E+00 4.50000E-01 7.37500E-01
 -1      1387 1.09597E+00-2.05795E+00 5.00000E-01
 -1      1388-1.48189E+00 1.80008E+00 5.00000E-01
 -1      1389-2.02462E+00 1.38823E+00 5.00000E-01
 -1      1390-2.04673E+00 1.33486E+00 5.00000E-01
 -1      1391-1.97184E+00 1.30384E+00 9.75000E-01
 -1      1392-2.31626E+00 4.72349E-01 7.37500E-01
 -1      1393 2.40176E+00 5.07766E-01 5.00000E-01
 -1      1394 2.40176E+00 4.50000E-01 5.00000E-01
 -1      1395-2.23015E+00 6.80222E-01 5.00000E-01
 -1      1396-1.09597E+00 2.05795E+00 5.00000E-01
 -1      1397 2.23015E+00 6.80222E-01 5.00000E-01
 -1      1398-1.09597E+00-2.05795E+00 5.00000E-01
 -1      1399-4.72349E-01-2.31626E+00 7.37500E-01
 -1      1400 2.32070E+00 2.25000E-01 5.00000E-01
 -1      1401 6.80222E-01-2.23015E+00 5.00000E-01
 -1      1402 5.76285E-01-2.27321E+00 5.00000E-01
 -1      1403 2.01489E+00 1.19990E+00 5.00000E-01
 -1      1404 1.35551E+00 1.99190E+00 5.00000E-01
 -1      1405 1.31850E+00 2.00723E+00 5.00000E-01
 -1      1406 1.25187E+00 1.99337E+00 5.00000E-01
 -1      1407-5.76285E-01 2.27321E+00 5.00000E-01
 -1      1408-4.72349E-01 2.31626E+00 9.75000E-01
 -1      1409 1.32279E+00 1.95918E+00 6.18750E-01
 -1      1410-2.35901E+00-4.90057E-01 5.00000E-01
 -1      1411-2.35901E+00-4.50000E-01 5.00000E-01
 -1      1412-2.32070E+00-3.37500E-01 5.00000E-01
 -1      1413 1.87963E+00 1.40234E+00 5.00000E-01
 -1      1414 2.32070E+00 4.50000E-01 7.37500E-01
 -1      1415 5.07766E-01 2.40176E+00 5.00000E-01
 -1      1416 4.50000E-01 2.40176E+00 5.00000E-01
 -1      1417 4.72349E-01 2.31626E+00 7.37500E-01
 -1      1418 1.97184E+00 1.30384E+00 7.37500E-01
 -1      1419 4.72349E-01-2.31626E+00 6.18750E-01
 -1      1420 2.31626E+00 4.72349E-01 7.37500E-01
 -1      1421-1.40234E+00-1.87963E+00 5.00000E-01
 -1      1422-1.30384E+00 1.97184E+00 7.37500E-01
 -1      1423-1.97184E+00 1.30384E+00 7.37500E-01
 -1      1424 1.99190E+00-1.35551E+00 5.00000E-01
 -1      1425 2.00723E+00-1.31850E+00 5.00000E-01
 -1      1426 2.01489E+00-1.19990E+00 5.00000E-01
 -1      1427-2.02462E+00-1.38823E+00 5.00000E-01
 -1      1428-2.04673E+00-1.33486E+00 5.00000E-01
 -1      1429-1.38823E+00-2.02462E+00 5.00000E-01
 -1      1430-1.33486E+00-2.04673E+00 5.00000E-01
 -1      1431-4.72349E-01 2.31626E+00 7.37500E-01
 -1      1432-1.97184E+00-1.30384E+00 7.37500E-01
 -1      1433-2.27321E+00-5.76285E-01 5.00000E-01
 -1      1434-1.95918E+00-1.32279E+00 7.37500E-01
 -1      1435 2.32070E+00-2.25000E-01 5.00000E-01
 -1      1436-1.87963E+00 1.40234E+00 5.00000E-01
 -1      1437 2.25000E-01 2.32070E+00 5.00000E-01
 -1      1438-4.90057E-01-2.35901E+00 5.00000E-01
 -1      1439-4.50000E-01-2.35901E+00 5.00000E-01
 -1      1440-2.32070E+00-4.50000E-01 7.37500E-01
 -1      1441-1.30384E+00-1.97184E+00 7.37500E-01
 -1      1442 1.97184E+00-1.30384E+00 6.18750E-01
 -1      1443 1.38823E+00-2.02462E+00 5.00000E-01
 -1      1444 1.33486E+00-2.04673E+00 5.00000E-01
 -1      1445-1.32279E+00 1.95918E+00 7.37500E-01
 -1      1446-2.01489E+00-1.19990E+00 5.00000E-01
 -1      1447-5.76285E-01-2.27321E+00 5.00000E-01
 -1      1448-1.32279E+00-1.95918E+00 7.37500E-01
 -1      1449-4.50000E-01-2.32070E+00 6.18750E-01
 -1      1450-1.87963E+00-1.40234E+00 5.00000E-01
 -1      1451 1.95918E+00-1.32279E+00 6.18750E-01
 -1      1452 1.30384E+00 1.97184E+00 6.18750E-01
 -1      1453 1.48189E+00-1.80008E+00 5.00000E-01
 -1      1454 1.87963E+00-1.40234E+00 5.00000E-01
 -1      1455 1.30384E+00-1.97184E+00 7.37500E-01
 -1      1456-2.32070E+00-4.50000E-01 6.18750E-01
 -1      1457 1.32279E+00-1.95918E+00 7.37500E-01
 -1      1458 2.23015E+00-6.80222E-01 5.00000E-01
 -1      1459-2.35901E+00 4.90057E-01 5.00000E-01
 -1      1460-2.35901E+00 4.50000E-01 5.00000E-01
 -1      1461-3.37500E-01-2.32070E+00 5.00000E-01
 -1      1462-2.01489E+00 1.19990E+00 5.00000E-01
 -1      1463-2.32070E+00 3.37500E-01 5.00000E-01
 -1      1464-1.35551E+00-1.99190E+00 5.00000E-01
 -1      1465-1.31850E+00-2.00723E+00 5.00000E-01
 -1      1466-1.19990E+00-2.01489E+00 5.00000E-01
 -1      1467 2.40176E+00-5.07766E-01 5.00000E-01
 -1      1468 2.40176E+00-4.50000E-01 5.00000E-01
 -1      1469-1.25187E+00-1.99337E+00 5.00000E-01
 -1      1470-2.31626E+00 4.72349E-01 6.18750E-01
 -1      1471-2.27321E+00 5.76285E-01 5.00000E-01
 -1      1472-1.32279E+00-1.95918E+00 6.18750E-01
 -1      1473-1.99190E+00 1.35551E+00 5.00000E-01
 -1      1474-2.00723E+00 1.31850E+00 5.00000E-01
 -1      1475 1.99190E+00 1.35551E+00 5.00000E-01
 -1      1476 2.00723E+00 1.31850E+00 5.00000E-01
 -1      1477 4.50000E-01 2.32070E+00 7.37500E-01
 -1      1478-1.95918E+00 1.32279E+00 7.37500E-01
 -1      1479 4.90057E-01 2.35901E+00 5.00000E-01
 -1      1480 4.50000E-01 2.35901E+00 5.00000E-01
 -1      1481-1.35551E+00 1.99190E+00 5.00000E-01
 -1      1482-1.31850E+00 2.00723E+00 5.00000E-01
 -1      1483-1.19990E+00 2.01489E+00 5.00000E-01
 -1      1484 4.50000E-01 2.32070E+00 6.18750E-01
 -1      1485-4.72349E-01-2.31626E+00 6.18750E-01
 -1      1486-1.91941E+00-1.36256E+00 5.00000E-01
 -1      1487 4.72349E-01 2.31626E+00 6.18750E-01
 -1      1488 5.76285E-01 2.27321E+00 5.00000E-01
 -1      1489 2.35901E+00 4.90057E-01 5.00000E-01
 -1      1490 2.35901E+00 4.50000E-01 5.00000E-01
 -1      1491-2.32070E+00 4.50000E-01 6.18750E-01
 -1      1492-1.95918E+00 1.32279E+00 6.18750E-01
 -1      1493 2.32070E+00 3.37500E-01 5.00000E-01
 -1      1494 2.27321E+00 5.76285E-01 5.00000E-01
 -1      1495-1.40234E+00 1.87963E+00 5.00000E-01
 -1      1496 3.37500E-01 2.32070E+00 5.00000E-01
 -1      1497 2.31626E+00-4.72349E-01 7.37500E-01
 -1      1498-1.95918E+00-1.32279E+00 6.18750E-01
 -1      1499 2.32070E+00 4.50000E-01 6.18750E-01
 -1      1500-1.30384E+00-1.97184E+00 6.18750E-01
 -1      1501 2.32070E+00-4.50000E-01 7.37500E-01
 -1      1502-2.31626E+00-4.72349E-01 6.18750E-01
 -1      1503-1.97184E+00 1.30384E+00 6.18750E-01
 -1      1504 1.97184E+00 1.30384E+00 6.18750E-01
 -1      1505 1.95918E+00 1.32279E+00 6.18750E-01
 -1      1506-1.30384E+00 1.97184E+00 6.18750E-01
 -1      1507 1.35551E+00-1.99190E+00 5.00000E-01
 -1      1508 1.31850E+00-2.00723E+00 5.00000E-01
 -1      1509 1.97184E+00-1.30384E+00 5.59375E-01
 -1      1510 1.19990E+00-2.01489E+00 5.00000E-01
 -1      1511 2.31626E+00 4.72349E-01 6.18750E-01
 -1      1512-1.32279E+00 1.95918E+00 6.18750E-01
 -1      1513 2.32070E+00-3.37500E-01 5.00000E-01
 -1      1514 2.35901E+00-4.90057E-01 5.00000E-01
 -1      1515 2.35901E+00-4.50000E-01 5.00000E-01
 -1      1516 2.27321E+00-5.76285E-01 5.00000E-01
 -1      1517 2.32070E+00-4.50000E-01 6.18750E-01
 -1      1518 1.40234E+00-1.87963E+00 5.00000E-01
 -1      1519 1.30384E+00-1.97184E+00 6.18750E-01
 -1      1520 1.32279E+00-1.95918E+00 6.18750E-01
 -1      1521 2.31626E+00-4.72349E-01 6.18750E-01
 -1      1522-4.30523E+00-1.03939E+01-5.00000E-01
 -1      1523 9.35357E+00 6.24987E+00-5.00000E-01
 -1      1524-7.95528E+00 7.95528E+00-5.00000E-01
 -1      1525 9.92119E+00 1.34652E+00-5.00000E-01
 -1      1526-1.03939E+01-4.30523E+00-5.00000E-01
 -1      1527 6.33052E+00-4.71995E+00-5.00000E-01
 -1      1528-1.20307E+01 4.98325E+00 5.00000E-01
 -1      1529-1.23742E+01-2.46139E+00 5.00000E-01
 -1      1530-1.23742E+01 2.46139E+00 5.00000E-01
 -1      1531-1.30219E+01 0.00000E+00 5.00000E-01
 -1      1532 1.12873E+01 3.98919E+00-5.00000E-01
 -1      1533-9.20789E+00 9.20789E+00 5.00000E-01
 -1      1534 1.04291E+01-2.77951E+00-5.00000E-01
 -1      1535-1.04904E+01 7.00943E+00 5.00000E-01
 -1      1536-1.04904E+01-7.00943E+00 5.00000E-01
 -1      1537-1.20307E+01-4.98325E+00 5.00000E-01
 -1      1538 0.00000E+00 0.00000E+00 5.00000E-01
 -1      1539 9.20789E+00 9.20789E+00 5.00000E-01
 -1      1540-1.12589E+01-7.39583E-01-5.00000E-01
 -1      1541 7.00943E+00 1.04904E+01 5.00000E-01
 -1      1542 4.98325E+00 1.20307E+01 5.00000E-01
 -1      1543 2.46139E+00 1.23742E+01 5.00000E-01
 -1      1544 0.00000E+00 1.30219E+01 5.00000E-01
 -1      1545-2.46139E+00 1.23742E+01 5.00000E-01
 -1      1546 1.06184E+01 6.92596E+00 5.00000E-01
 -1      1547-4.98325E+00 1.20307E+01 5.00000E-01
 -1      1548-7.00943E+00 1.04904E+01 5.00000E-01
 -1      1549 1.20307E+01 4.98325E+00 5.00000E-01
 -1      1550-1.70909E+00 6.07021E-01-5.00000E-01
 -1      1551-3.81952E+00 1.29160E+01 5.00000E-01
 -1      1552 1.30219E+01 0.00000E+00 5.00000E-01
 -1      1553 1.23742E+01-2.46139E+00 5.00000E-01
 -1      1554-6.85460E+00 2.56205E+00-5.00000E-01
 -1      1555 1.23742E+01 2.46139E+00 5.00000E-01
 -1      1556 1.20307E+01-4.98325E+00 5.00000E-01
 -1      1557 9.20720E+00 1.83143E+00 5.00000E-01
 -1      1558 1.04904E+01-7.00943E+00 5.00000E-01
 -1      1559 9.20789E+00-9.20789E+00 5.00000E-01
 -1      1560 7.00943E+00-1.04904E+01 5.00000E-01
 -1      1561 4.98325E+00-1.20307E+01 5.00000E-01
 -1      1562 5.93136E+00 8.87689E+00-5.00000E-01
 -1      1563 2.46139E+00-1.23742E+01 5.00000E-01
 -1      1564 4.27570E+00 3.17751E+00-5.00000E-01
 -1      1565 0.00000E+00-1.30219E+01 5.00000E-01
 -1      1566-2.46139E+00-1.23742E+01 5.00000E-01
 -1      1567-4.98325E+00-1.20307E+01 5.00000E-01
 -1      1568-7.00943E+00-1.04904E+01 5.00000E-01
 -1      1569-9.20789E+00-9.20789E+00 5.00000E-01
 -1      1570-1.30922E+01-1.81454E-01-5.00000E-01
 -1      1571-1.29160E+01-3.81952E+00 5.00000E-01
 -1      1572 9.05892E+00-6.95903E+00-5.00000E-01
 -1      1573-1.23408E+01-4.12763E+00-5.00000E-01
 -1      1574 1.09059E+01-5.72676E+00 5.00000E-01
 -1      1575 9.06720E+00-6.05851E+00 5.00000E-01
 -1      1576 8.46497E+00 5.65611E+00 5.00000E-01
 -1      1577-3.81952E+00-1.29160E+01 5.00000E-01
 -1      1578 9.98512E+00-1.98617E+00 5.00000E-01
 -1      1579-4.53326E+00-4.53326E+00-5.00000E-01
 -1      1580-1.11734E+00 1.22673E+01 5.00000E-01
 -1      1581-7.88420E+00-9.46435E+00 5.00000E-01
 -1      1582 1.17611E+01-3.66219E+00 5.00000E-01
 -1      1583 3.66219E+00 1.17611E+01 5.00000E-01
 -1      1584 1.02879E+01 7.96759E+00-5.00000E-01
 -1      1585 1.21502E+01-4.06980E+00-5.00000E-01
 -1      1586 6.05851E+00-9.06720E+00 5.00000E-01
 -1      1587-1.08902E+01 2.91938E+00-5.00000E-01
 -1      1588 5.59636E+00 1.12499E+01-5.00000E-01
 -1      1589-9.70524E-01 7.79171E+00-5.00000E-01
 -1      1590-1.18338E+01 6.43215E+00 5.00000E-01
 -1      1591-1.25454E+01-5.45531E+00-5.00000E-01
 -1      1592 1.31335E+01-2.83168E+00-5.00000E-01
 -1      1593 8.64079E+00 3.68283E+00-5.00000E-01
 -1      1594 1.27711E+01 2.72174E+00-5.00000E-01
 -1      1595 5.72676E+00-1.09059E+01 5.00000E-01
 -1      1596 6.72630E+00 1.11459E+00-5.00000E-01
 -1      1597 1.04306E+01-8.08470E+00-5.00000E-01
 -1      1598-1.33720E+01-3.67222E+00-5.00000E-01
 -1      1599-2.12747E+00-1.06955E+01 5.00000E-01
 -1      1600-9.39629E+00-7.23591E+00-5.00000E-01
 -1      1601-9.06720E+00-6.05851E+00 5.00000E-01
 -1      1602-1.07117E+01 2.16677E+00 5.00000E-01
 -1      1603 9.46435E+00-7.88420E+00 5.00000E-01
 -1      1604-7.25253E+00-1.49553E+00-5.00000E-01
 -1      1605 1.11734E+00 1.22673E+01 5.00000E-01
 -1      1606-1.33945E+01 1.41395E+00 5.00000E-01
 -1      1607 1.11853E+01 2.36749E+00-5.00000E-01
 -1      1608 3.78288E+00-9.13282E+00-5.00000E-01
 -1      1609 3.27559E+00 1.20645E+01-5.00000E-01
 -1      1610 2.12747E+00-1.06955E+01 5.00000E-01
 -1      1611 2.12747E+00 1.06955E+01 5.00000E-01
 -1      1612 9.75082E+00 5.93638E+00 5.00000E-01
 -1      1613-7.03214E+00 1.03068E+01-5.00000E-01
 -1      1614 8.47152E+00 1.04711E+01 5.00000E-01
 -1      1615 0.00000E+00-1.12497E+01-5.00000E-01
 -1      1616 5.26113E+00-7.87385E+00 5.00000E-01
 -1      1617-9.31739E+00-7.22448E+00 5.00000E-01
 -1      1618-1.04711E+01 8.47152E+00 5.00000E-01
 -1      1619 6.23716E+00 5.73270E+00-5.00000E-01
 -1      1620-9.09163E-01-1.29808E+01-5.00000E-01
 -1      1621-9.06720E+00 6.05851E+00 5.00000E-01
 -1      1622 2.56456E+00 6.52149E+00-5.00000E-01
 -1      1623-9.45815E+00-2.19048E+00-5.00000E-01
 -1      1624 5.65612E+00 8.46499E+00 5.00000E-01
 -1      1625-3.53010E+00-1.16684E+01 5.00000E-01
 -1      1626 1.19177E+01 6.38580E+00 5.00000E-01
 -1      1627-9.20720E+00-1.83143E+00 5.00000E-01
 -1      1628-1.09059E+01-5.72676E+00 5.00000E-01
 -1      1629 1.07498E+01-8.35275E+00 5.00000E-01
 -1      1630-1.13962E+01 3.14225E+00 5.00000E-01
 -1      1631-6.05195E+00-7.52708E+00-5.00000E-01
 -1      1632-5.85724E+00 1.17379E+01-5.00000E-01
 -1      1633-1.16848E+01 1.15139E+00-5.00000E-01
 -1      1634 7.54915E+00 1.03154E+01-5.00000E-01
 -1      1635-2.12747E+00 1.06955E+01 5.00000E-01
 -1      1636-6.05851E+00 9.06720E+00 5.00000E-01
 -1      1637 5.46588E+00 1.25652E+01-5.00000E-01
 -1      1638 2.63606E+00-1.25731E+00-5.00000E-01
 -1      1639-1.28014E+01 2.71580E+00-5.00000E-01
 -1      1640-7.49189E-01 1.13564E+01-5.00000E-01
 -1      1641-1.03287E+01 6.77108E+00-5.00000E-01
 -1      1642 3.81952E+00-1.29160E+01 5.00000E-01
 -1      1643 1.17002E+01 5.83710E+00-5.00000E-01
 -1      1644-1.11234E+00 4.60738E-01 5.00000E-01
 -1      1645 7.55367E+00 7.44771E+00-5.00000E-01
 -1      1646-1.14340E+01-4.94699E+00-5.00000E-01
 -1      1647 1.30134E+01-9.12376E-01-5.00000E-01
 -1      1648 1.11734E+00-1.22673E+01 5.00000E-01
 -1      1649-7.87385E+00-5.26113E+00 5.00000E-01
 -1      1650-1.69491E+00 1.35075E+01 5.00000E-01
 -1      1651-1.17328E+01 5.02095E+00-5.00000E-01
 -1      1652-7.46360E+00-4.42043E+00-5.00000E-01
 -1      1653-1.04711E+01-8.47152E+00 5.00000E-01
 -1      1654 6.27027E-01 3.42025E+00-5.00000E-01
 -1      1655 6.73503E+00-1.18307E+01 5.00000E-01
 -1      1656-4.76650E+00 3.08966E-01-5.00000E-01
 -1      1657-3.53010E+00 1.16684E+01 5.00000E-01
 -1      1658 1.24933E+01-5.42744E+00-5.00000E-01
 -1      1659-1.30406E+01-1.94219E+00-5.00000E-01
 -1      1660-2.60603E+00-7.39301E+00-5.00000E-01
 -1      1661-9.15036E+00 9.41152E+00-5.00000E-01
 -1      1662 1.01153E+01-4.99100E+00-5.00000E-01
 -1      1663-1.23522E+01-1.04087E+00-5.00000E-01
 -1      1664-1.93988E+00-9.75171E+00-5.00000E-01
 -1      1665-1.35095E+01-1.69992E+00 5.00000E-01
 -1      1666-1.29160E+01 3.81952E+00 5.00000E-01
 -1      1667 1.66005E+00 9.45461E+00-5.00000E-01
 -1      1668-1.86107E-01 1.31395E+01-5.00000E-01
 -1      1669 9.71761E+00-9.40156E+00-5.00000E-01
 -1      1670-1.84747E+00-9.28785E+00 5.00000E-01
 -1      1671 1.17820E+01-2.76786E+00-5.00000E-01
 -1      1672 9.15214E+00-8.24397E+00-5.00000E-01
 -1      1673-3.26072E+00 4.27207E+00-5.00000E-01
 -1      1674 2.32361E+00 1.37872E+00-5.00000E-01
 -1      1675 1.11102E+01-2.57289E+00 5.00000E-01
 -1      1676-1.36614E+01 9.76190E-01-5.00000E-01
 -1      1677-6.43215E+00-1.18338E+01 5.00000E-01
 -1      1678-6.05851E+00-9.06720E+00 5.00000E-01
 -1      1679-1.41395E+00-1.33945E+01 5.00000E-01
 -1      1680-9.03330E+00-9.26888E+00-5.00000E-01
 -1      1681 1.14865E+01 7.22883E+00-5.00000E-01
 -1      1682-7.77761E+00-7.99578E+00-5.00000E-01
 -1      1683-7.91401E+00-6.18234E+00-5.00000E-01
 -1      1684 1.27780E+01 4.23212E+00-5.00000E-01
 -1      1685-1.84747E+00 9.28785E+00 5.00000E-01
 -1      1686-1.12265E+01-2.67244E+00-5.00000E-01
 -1      1687-1.72452E+00-1.37593E+01-5.00000E-01
 -1      1688-1.06368E+01 8.25390E+00-5.00000E-01
 -1      1689-8.71057E+00 4.56840E+00-5.00000E-01
 -1      1690 4.50816E+00 9.66623E-01-5.00000E-01
 -1      1691-1.02834E+01 4.38237E+00-5.00000E-01
 -1      1692 6.47320E+00 3.30096E+00-5.00000E-01
 -1      1693 2.44515E+00 3.20545E+00-5.00000E-01
 -1      1694-1.33796E+01 3.67455E+00-5.00000E-01
 -1      1695 8.47152E+00-1.04711E+01 5.00000E-01
 -1      1696-8.90987E+00 7.15312E-01-5.00000E-01
 -1      1697-1.02009E+01 1.54701E+00-5.00000E-01
 -1      1698-6.80987E+00 5.09362E-01-5.00000E-01
 -1      1699-5.67523E+00 1.56092E+00-5.00000E-01
 -1      1700 1.07701E+01 2.25001E+00 5.00000E-01
 -1      1701 1.33945E+01 1.41395E+00 5.00000E-01
 -1      1702 1.29160E+01 3.81952E+00 5.00000E-01
 -1      1703 1.84747E+00-9.28785E+00 5.00000E-01
 -1      1704-1.23873E+01-2.93777E+00-5.00000E-01
 -1      1705-1.19416E+01 3.71751E+00-5.00000E-01
 -1      1706 1.33945E+01-1.41395E+00 5.00000E-01
 -1      1707 1.31317E+01-3.59935E+00 5.00000E-01
 -1      1708 1.16684E+01 3.53010E+00 5.00000E-01
 -1      1709 3.34572E+00 2.22813E+00-5.00000E-01
 -1      1710 1.03722E+01 5.16380E+00-5.00000E-01
 -1      1711-8.35275E+00-1.07498E+01 5.00000E-01
 -1      1712-1.17847E+01 6.50090E+00-5.00000E-01
 -1      1713-1.20095E+01 8.47917E-02-5.00000E-01
 -1      1714-8.47152E+00 1.04711E+01 5.00000E-01
 -1      1715-6.43215E+00 1.18338E+01 5.00000E-01
 -1      1716 4.48752E+00 1.18040E+01-5.00000E-01
 -1      1717 3.49276E+00 1.01251E+01-5.00000E-01
 -1      1718 1.04774E+01 8.41572E+00 5.00000E-01
 -1      1719-4.93918E-01-3.89035E+00-5.00000E-01
 -1      1720-1.23019E+01-1.12644E+00 5.00000E-01
 -1      1721 1.16622E+01 4.83925E-01-5.00000E-01
 -1      1722 7.91562E+00 5.26666E+00-5.00000E-01
 -1      1723-3.58017E+00 2.12584E+00-5.00000E-01
 -1      1724-8.01906E+00-2.91028E+00-5.00000E-01
 -1      1725 1.42304E+00 2.35604E+00-5.00000E-01
 -1      1726 3.19568E+00-1.18010E+01-5.00000E-01
 -1      1727-9.33541E+00 7.75087E+00-5.00000E-01
 -1      1728 6.32102E+00-7.80352E+00-5.00000E-01
 -1      1729-9.42925E+00 7.72666E+00 5.00000E-01
 -1      1730-5.75463E+00 1.07469E+01 5.00000E-01
 -1      1731 8.48024E+00-9.25139E-01-5.00000E-01
 -1      1732-2.99501E+00-2.03244E+00-5.00000E-01
 -1      1733 9.79468E+00 2.79620E+00-5.00000E-01
 -1      1734-6.79394E-01-1.52761E+00-5.00000E-01
 -1      1735 9.69097E-01 7.63551E+00-5.00000E-01
 -1      1736 4.58481E+00 1.06122E+01-5.00000E-01
 -1      1737 1.30372E+00 1.14801E+01-5.00000E-01
 -1      1738-9.31198E+00 1.85227E+00 5.00000E-01
 -1      1739 5.62137E+00-1.81192E+00-5.00000E-01
 -1      1740-2.35851E+00 1.26962E+01-5.00000E-01
 -1      1741 1.32506E+01-3.93422E+00-5.00000E-01
 -1      1742-1.07469E+01 5.75463E+00 5.00000E-01
 -1      1743 7.72666E+00 9.42925E+00 5.00000E-01
 -1      1744 1.05778E+01-6.50679E+00-5.00000E-01
 -1      1745 1.13435E+01-4.99584E+00-5.00000E-01
 -1      1746 3.78984E+00-1.16695E+01 5.00000E-01
 -1      1747-6.07073E+00-3.05088E+00-5.00000E-01
 -1      1748 8.27275E+00 1.93303E+00-5.00000E-01
 -1      1749 5.69792E+00-1.68978E-01-5.00000E-01
 -1      1750 1.09502E+01 5.60203E+00 5.00000E-01
 -1      1751 1.19173E+01 4.81850E+00-5.00000E-01
 -1      1752-7.84116E+00 9.26744E+00-5.00000E-01
 -1      1753-8.40895E+00 1.06108E+01-5.00000E-01
 -1      1754-8.95292E+00-4.97824E+00-5.00000E-01
 -1      1755 7.78739E+00-7.69714E+00-5.00000E-01
 -1      1756-1.70826E+00-1.14568E+01-5.00000E-01
 -1      1757-3.44038E+00-8.90207E+00-5.00000E-01
 -1      1758 1.16277E+01 7.52107E+00 5.00000E-01
 -1      1759-5.07797E+00 3.45975E+00-5.00000E-01
 -1      1760-1.52061E+00 2.91618E+00-5.00000E-01
 -1      1761-2.31692E-01 9.53506E+00-5.00000E-01
 -1      1762-5.19336E+00-1.20554E+01-5.00000E-01
 -1      1763-1.11959E+01-6.78653E+00-5.00000E-01
 -1      1764-1.01874E+01-5.74225E+00-5.00000E-01
 -1      1765-1.05996E+01-8.22658E+00-5.00000E-01
 -1      1766 6.94635E+00-6.26365E+00-5.00000E-01
 -1      1767 7.37591E+00 8.88128E+00-5.00000E-01
 -1      1768-3.16214E+00-3.18040E-01-5.00000E-01
 -1      1769-4.60738E-01-1.11234E+00 5.00000E-01
 -1      1770 6.79232E+00-1.03684E+01-5.00000E-01
 -1      1771 6.71552E+00-1.17842E+01-5.00000E-01
 -1      1772 4.21367E+00 5.25557E+00-5.00000E-01
 -1      1773 1.84294E+00-1.01046E+01-5.00000E-01
 -1      1774 8.05175E+00 4.80370E-01-5.00000E-01
 -1      1775 3.21963E-01 1.06766E+01-5.00000E-01
 -1      1776-1.01856E+01-9.30246E+00-5.00000E-01
 -1      1777-2.04661E+00-1.26057E+01-5.00000E-01
 -1      1778-2.85284E+00 1.35552E+01 5.00000E-01
 -1      1779-4.46133E+00 7.94060E+00-5.00000E-01
 -1      1780-4.36635E+00-6.50004E+00-5.00000E-01
 -1      1781-1.61705E+00-2.78987E+00-5.00000E-01
 -1      1782-1.20062E+01 0.00000E+00 5.00000E-01
 -1      1783 4.55911E+00 9.20216E+00-5.00000E-01
 -1      1784-1.18306E+01-6.74037E+00 5.00000E-01
 -1      1785 6.90228E-01 5.53663E+00-5.00000E-01
 -1      1786-2.36415E+00-5.15073E+00-5.00000E-01
 -1      1787-4.51993E+00 1.44371E+00-5.00000E-01
 -1      1788 7.14329E+00-8.97816E+00-5.00000E-01
 -1      1789 2.59962E+00 4.86006E+00-5.00000E-01
 -1      1790 3.24810E+00 5.70483E+00-5.00000E-01
 -1      1791 1.81367E+00 5.67456E+00-5.00000E-01
 -1      1792 4.86885E+00-1.07705E+01-5.00000E-01
 -1      1793 3.53399E+00-1.04768E+01-5.00000E-01
 -1      1794-4.47505E+00-1.31138E+00-5.00000E-01
 -1      1795 5.31775E+00 4.24857E+00-5.00000E-01
 -1      1796 8.94398E+00 7.58561E+00-5.00000E-01
 -1      1797 5.97799E+00 7.29446E+00-5.00000E-01
 -1      1798 1.36962E+01-1.83306E+00-5.00000E-01
 -1      1799 6.81591E+00 4.56155E+00-5.00000E-01
 -1      1800 9.31986E+00 7.97397E+00 5.00000E-01
 -1      1801-1.74814E+00-4.04702E+00-5.00000E-01
 -1      1802-1.06853E+01 3.83075E-01-5.00000E-01
 -1      1803 6.43215E+00 1.18338E+01 5.00000E-01
 -1      1804 7.87385E+00-5.26113E+00 5.00000E-01
 -1      1805 1.18307E+01-6.73503E+00 5.00000E-01
 -1      1806-1.16684E+01-3.53010E+00 5.00000E-01
 -1      1807-2.79589E+00-3.30235E+00-5.00000E-01
 -1      1808-7.22448E+00 9.31739E+00 5.00000E-01
 -1      1809-5.26113E+00 7.87385E+00 5.00000E-01
 -1      1810 4.13299E+00-6.17492E-01-5.00000E-01
 -1      1811-1.07097E+01-2.28674E+00 5.00000E-01
 -1      1812 4.44854E+00 2.07802E+00-5.00000E-01
 -1      1813-3.62073E+00-5.44629E+00-5.00000E-01
 -1      1814-8.22505E+00-1.06016E+01-5.00000E-01
 -1      1815-1.20391E+00-1.21311E+01 5.00000E-01
 -1      1816 2.41777E+00 1.32980E+01-5.00000E-01
 -1      1817-4.36813E+00-2.92478E+00-5.00000E-01
 -1      1818 6.76253E+00 1.18721E+01-5.00000E-01
 -1      1819 6.26224E+00 1.01337E+01-5.00000E-01
 -1      1820-5.75463E+00-1.07469E+01 5.00000E-01
 -1      1821-1.87182E+00-1.62122E+00-5.00000E-01
 -1      1822 7.52046E+00 5.02501E+00 5.00000E-01
 -1      1823-9.17734E+00 2.92038E+00-5.00000E-01
 -1      1824 7.52160E+00 3.69282E+00-5.00000E-01
 -1      1825 4.15526E+00 7.42029E+00-5.00000E-01
 -1      1826 6.83745E+00 6.63470E+00-5.00000E-01
 -1      1827 5.02731E+00 6.33431E+00-5.00000E-01
 -1      1828 9.15092E+00 9.41260E+00-5.00000E-01
 -1      1829 5.37970E+00 3.14585E+00-5.00000E-01
 -1      1830-5.90003E+00-7.31302E-01-5.00000E-01
 -1      1831 4.92068E+00-1.24227E+01-5.00000E-01
 -1      1832 5.51077E+00-9.24583E+00-5.00000E-01
 -1      1833 5.92717E+00-1.10314E+01-5.00000E-01
 -1      1834 1.50545E+00 6.70416E+00-5.00000E-01
 -1      1835 8.29580E+00-1.00085E+01-5.00000E-01
 -1      1836-9.57043E+00-6.64670E-01-5.00000E-01
 -1      1837-6.75167E+00-1.14170E+01-5.00000E-01
 -1      1838 3.37205E+00 3.95343E+00-5.00000E-01
 -1      1839-2.96347E+00 9.73634E-01-5.00000E-01
 -1      1840 8.41857E+00-5.34775E+00-5.00000E-01
 -1      1841 4.72083E+00-6.25679E+00-5.00000E-01
 -1      1842 1.09512E+00 1.35590E+01-5.00000E-01
 -1      1843-4.32832E+00-1.30024E+01-5.00000E-01
 -1      1844-2.36598E-01 1.64910E+00-5.00000E-01
 -1      1845-3.90334E+00 3.27083E+00-5.00000E-01
 -1      1846-4.62157E+00-7.97792E+00-5.00000E-01
 -1      1847-6.34366E+00 5.81823E+00-5.00000E-01
 -1      1848-1.02079E+01-9.47162E+00 5.00000E-01
 -1      1849-6.14601E+00-5.69577E+00-5.00000E-01
 -1      1850-9.09873E+00-6.12197E+00-5.00000E-01
 -1      1851 1.15472E+01-7.42242E+00-5.00000E-01
 -1      1852-7.67264E+00-9.35513E+00-5.00000E-01
 -1      1853-6.20614E+00 8.46419E+00-5.00000E-01
 -1      1854-8.79062E+00 6.20526E+00-5.00000E-01
 -1      1855-7.07667E+00-3.42088E+00-5.00000E-01
 -1      1856-7.34598E-02-6.53202E+00-5.00000E-01
 -1      1857 8.50209E+00 1.09392E+01-5.00000E-01
 -1      1858 9.13593E+00 5.02505E+00-5.00000E-01
 -1      1859-4.24616E-01-2.69626E+00-5.00000E-01
 -1      1860-1.13249E+01-3.75132E+00-5.00000E-01
 -1      1861 6.07907E+00 2.14750E+00-5.00000E-01
 -1      1862 3.60322E+00 1.31279E+01 5.00000E-01
 -1      1863-2.04222E+00 1.79648E+00-5.00000E-01
 -1      1864 1.69491E+00 1.35075E+01 5.00000E-01
 -1      1865-1.27200E+01 1.59321E+00-5.00000E-01
 -1      1866-1.15835E+01 7.62155E+00-5.00000E-01
 -1      1867 9.41715E+00-5.88378E+00-5.00000E-01
 -1      1868 7.22448E+00-9.31739E+00 5.00000E-01
 -1      1869-1.17863E+01 2.25959E+00-5.00000E-01
 -1      1870 1.00924E+00-1.77157E+00-5.00000E-01
 -1      1871 1.35808E+01 1.70694E+00-5.00000E-01
 -1      1872-7.65752E+00 5.44028E+00-5.00000E-01
 -1      1873-1.16900E+01 1.48427E+00 5.00000E-01
 -1      1874-9.59161E-01-1.04868E+01-5.00000E-01
 -1      1875 1.03002E+01 9.14710E+00-5.00000E-01
 -1      1876 1.09677E+01-3.85409E+00-5.00000E-01
 -1      1877-5.17000E+00-3.65517E+00-5.00000E-01
 -1      1878 1.03685E+01-8.91917E-01-5.00000E-01
 -1      1879-3.60901E+00 1.31636E+01-5.00000E-01
 -1      1880-2.93722E+00-1.07555E+01-5.00000E-01
 -1      1881 7.41214E-01 1.24736E+01-5.00000E-01
 -1      1882 1.64379E+00-1.29396E+01-5.00000E-01
 -1      1883-9.23942E+00-3.55164E+00-5.00000E-01
 -1      1884 6.83974E-01 8.78458E+00-5.00000E-01
 -1      1885-4.63180E+00-9.20794E+00-5.00000E-01
 -1      1886-1.14413E+01 7.96317E+00 5.00000E-01
 -1      1887-7.87385E+00 5.26113E+00 5.00000E-01
 -1      1888 1.69491E+00-1.35075E+01 5.00000E-01
 -1      1889 1.84747E+00 9.28785E+00 5.00000E-01
 -1      1890-2.72822E+00 2.98440E+00-5.00000E-01
 -1      1891-5.27963E+00-2.17494E+00-5.00000E-01
 -1      1892 3.94840E-01-5.81292E-02-5.00000E-01
 -1      1893-6.22910E+00-1.72784E+00-5.00000E-01
 -1      1894-8.97731E-01-5.30892E+00-5.00000E-01
 -1      1895 5.75463E+00 1.07469E+01 5.00000E-01
 -1      1896 7.34167E+00 2.57582E+00-5.00000E-01
 -1      1897 3.73687E-01-9.79559E+00-5.00000E-01
 -1      1898 2.51913E+00 1.09979E+01-5.00000E-01
 -1      1899 2.39148E-01-1.36780E+01-5.00000E-01
 -1      1900-7.72518E-01-9.21599E+00-5.00000E-01
 -1      1901 8.17510E+00 6.43028E+00-5.00000E-01
 -1      1902-7.32438E+00 6.75485E+00-5.00000E-01
 -1      1903-7.33518E+00 3.97910E+00-5.00000E-01
 -1      1904 1.43293E+00-1.15003E+01-5.00000E-01
 -1      1905 1.95050E-01-1.24565E+01-5.00000E-01
 -1      1906-1.08999E+01 5.79101E+00-5.00000E-01
 -1      1907-7.56768E+00-1.16022E+01 5.00000E-01
 -1      1908 3.40533E+00 1.11673E+00-5.00000E-01
 -1      1909 1.34974E+01-2.53482E+00 5.00000E-01
 -1      1910 1.21311E+01-1.20391E+00 5.00000E-01
 -1      1911-6.70895E+00 1.53839E+00-5.00000E-01
 -1      1912-7.94842E+00-2.90567E-01-5.00000E-01
 -1      1913 1.52361E+00-7.97562E+00-5.00000E-01
 -1      1914 2.27461E+00-5.53956E+00-5.00000E-01
 -1      1915 7.82304E+00-1.14316E+01 5.00000E-01
 -1      1916-1.29039E+01 4.77305E+00-5.00000E-01
 -1      1917-3.25686E+00-6.49443E+00-5.00000E-01
 -1      1918 5.62366E+00 9.44271E-01-5.00000E-01
 -1      1919 1.03130E+00-3.37981E+00-5.00000E-01
 -1      1920 9.44123E+00-1.86646E+00-5.00000E-01
 -1      1921-5.00710E+00 2.39412E+00-5.00000E-01
 -1      1922-7.11238E+00-7.03390E+00-5.00000E-01
 -1      1923-5.26113E+00-7.87385E+00 5.00000E-01
 -1      1924 3.01282E+00-6.77349E-02-5.00000E-01
 -1      1925 3.59587E+00-1.31202E+01-5.00000E-01
 -1      1926 2.48138E+00 8.10187E+00-5.00000E-01
 -1      1927-4.35028E+00 5.94622E+00-5.00000E-01
 -1      1928 2.46437E+00-8.92296E+00-5.00000E-01
 -1      1929 1.02272E+01 9.42814E+00 5.00000E-01
 -1      1930-1.30555E+01 4.84426E+00 5.00000E-01
 -1      1931-1.35568E+01-2.85606E+00 5.00000E-01
 -1      1932 7.07897E+00-5.84263E-01-5.00000E-01
 -1      1933-5.65512E+00-4.67686E+00-5.00000E-01
 -1      1934-2.75136E+00 7.03553E+00-5.00000E-01
 -1      1935-1.30985E+00 4.98121E+00-5.00000E-01
 -1      1936-5.28192E+00 4.86916E+00-5.00000E-01
 -1      1937-8.17596E-02 6.70717E+00-5.00000E-01
 -1      1938 9.40699E+00 7.98527E-02-5.00000E-01
 -1      1939-2.06622E+00-6.31705E+00-5.00000E-01
 -1      1940-3.67316E+00-7.48093E+00-5.00000E-01
 -1      1941 1.36870E+01 2.40027E-01-5.00000E-01
 -1      1942 3.19676E+00-7.25487E+00-5.00000E-01
 -1      1943 1.03935E+01 6.79718E+00-5.00000E-01
 -1      1944-2.38466E-01 1.19746E+00 5.00000E-01
 -1      1945-7.16438E+00 1.16132E+01-5.00000E-01
 -1      1946-5.02154E+00 1.27552E+01-5.00000E-01
 -1      1947 4.31242E+00 1.30384E+01-5.00000E-01
 -1      1948 9.87338E+00 4.03123E+00-5.00000E-01
 -1      1949-2.06438E+00 4.01287E+00-5.00000E-01
 -1      1950 1.70293E+00-3.07322E-01-5.00000E-01
 -1      1951 2.16150E+00 1.22048E+01-5.00000E-01
 -1      1952-1.05432E+01-1.69429E+00-5.00000E-01
 -1      1953 2.85284E+00-1.35552E+01 5.00000E-01
 -1      1954 1.21311E+01 1.20391E+00 5.00000E-01
 -1      1955-7.52300E+00 1.17353E+01 5.00000E-01
 -1      1956 4.72830E+00-7.85019E+00-5.00000E-01
 -1      1957 1.39020E+00 4.47948E+00-5.00000E-01
 -1      1958 1.21851E+01 1.61849E+00-5.00000E-01
 -1      1959 6.17086E+00 9.58586E+00 5.00000E-01
 -1      1960-2.45593E+00 5.09610E+00-5.00000E-01
 -1      1961-6.02993E+00 7.12848E+00-5.00000E-01
 -1      1962-1.71831E+00 1.36962E+01-5.00000E-01
 -1      1963-1.18163E+00 1.24734E+01-5.00000E-01
 -1      1964-7.12086E+00-1.03453E+01-5.00000E-01
 -1      1965-3.19941E+00 5.97506E+00-5.00000E-01
 -1      1966-3.72968E+00 1.09340E+01-5.00000E-01
 -1      1967-4.97184E+00-5.56096E+00-5.00000E-01
 -1      1968-3.61847E-01 2.80631E+00-5.00000E-01
 -1      1969 3.98058E+00-2.33195E+00-5.00000E-01
 -1      1970-6.89429E+00 7.69393E+00-5.00000E-01
 -1      1971-6.41509E+00 4.66990E+00-5.00000E-01
 -1      1972-1.14319E+01-7.82659E+00 5.00000E-01
 -1      1973 1.05196E+01 3.65911E-01-5.00000E-01
 -1      1974-3.39091E+00-4.30407E+00-5.00000E-01
 -1      1975-7.98065E+00 2.97018E+00-5.00000E-01
 -1      1976-5.45460E+00-6.53697E+00-5.00000E-01
 -1      1977-5.58087E+00-1.07801E+01-5.00000E-01
 -1      1978-7.79581E+00-1.15648E+01-5.00000E-01
 -1      1979 7.76974E+00-1.11314E+01-5.00000E-01
 -1      1980 9.67440E-01 1.12404E+00-5.00000E-01
 -1      1981-3.09473E+00-1.33375E+01-5.00000E-01
 -1      1982-8.43651E-01 3.89036E+00-5.00000E-01
 -1      1983-3.22550E+00-1.20337E+01-5.00000E-01
 -1      1984-2.03202E+00-4.89456E-01-5.00000E-01
 -1      1985-9.11891E+00 1.80871E+00-5.00000E-01
 -1      1986 2.83416E+00-3.77969E+00-5.00000E-01
 -1      1987-1.86836E-01 4.81610E+00-5.00000E-01
 -1      1988-6.15810E+00-9.15997E+00-5.00000E-01
 -1      1989 5.83221E+00-6.70811E+00-5.00000E-01
 -1      1990 8.95776E+00-3.69875E+00-5.00000E-01
 -1      1991-7.90456E+00 1.75711E+00-5.00000E-01
 -1      1992 1.21828E+01-6.50200E+00-5.00000E-01
 -1      1993 7.10990E-01-5.11407E+00-5.00000E-01
 -1      1994 1.33173E+00-6.58267E+00-5.00000E-01
 -1      1995-4.90387E+00 9.63489E+00-5.00000E-01
 -1      1996 4.67535E+00 1.30599E+01 5.00000E-01
 -1      1997 5.99001E-01-7.39330E+00-5.00000E-01
 -1      1998 1.11234E+00-4.60738E-01 5.00000E-01
 -1      1999-3.79720E+00 6.85252E+00-5.00000E-01
 -1      2000 2.78731E+00 9.21333E+00-5.00000E-01
 -1      2001-1.08883E+00-7.70058E+00-5.00000E-01
 -1      2002 2.45746E+00-1.37010E+01-5.00000E-01
 -1      2003 1.16873E+01-1.36869E+00-5.00000E-01
 -1      2004-9.73947E+00 5.45960E+00-5.00000E-01
 -1      2005-6.07592E+00 9.62901E+00-5.00000E-01
 -1      2006-8.55658E+00-1.35710E+00-5.00000E-01
 -1      2007 2.15321E+00-2.56015E+00-5.00000E-01
 -1      2008-1.09619E+00-6.66878E+00-5.00000E-01
 -1      2009-2.04212E+00-8.50716E+00-5.00000E-01
 -1      2010 5.63409E+00-5.60193E+00-5.00000E-01
 -1      2011 7.37558E+00-2.41557E+00-5.00000E-01
 -1      2012-1.46465E+00 6.48034E+00-5.00000E-01
 -1      2013 3.46661E+00-6.00426E+00-5.00000E-01
 -1      2014 8.86652E-01 7.99045E-01 5.00000E-01
 -1      2015-1.10176E-01-8.28702E+00-5.00000E-01
 -1      2016 3.57765E+00 8.39796E+00-5.00000E-01
 -1      2017 3.74409E+00-8.11448E+00-5.00000E-01
 -1      2018-4.68391E+00 1.16259E+01-5.00000E-01
 -1      2019-5.37240E+00 6.27836E+00-5.00000E-01
 -1      2020-2.74133E+00 1.37056E+01-5.00000E-01
 -1      2021 7.51068E+00-3.86600E+00-5.00000E-01
 -1      2022-2.74884E+00 9.10816E+00-5.00000E-01
 -1      2023-3.32012E+00 1.20299E+01-5.00000E-01
 -1      2024-6.28904E+00 3.54387E+00-5.00000E-01
 -1      2025-6.17515E-01 5.78849E+00-5.00000E-01
 -1      2026 5.23655E+00-3.44625E+00-5.00000E-01
 -1      2027-1.15642E+01-7.78254E+00-5.00000E-01
 -1      2028 1.74994E+00-4.40385E+00-5.00000E-01
 -1      2029-2.59784E+00-1.35621E+01 5.00000E-01
 -1      2030-4.21531E+00-1.15100E+01-5.00000E-01
 -1      2031 4.02602E+00-3.54571E+00-5.00000E-01
 -1      2032 6.67915E+00-1.58869E+00-5.00000E-01
 -1      2033-3.29700E+00 8.07251E+00-5.00000E-01
 -1      2034-2.12806E+00 1.13366E+01-5.00000E-01
 -1      2035 2.17128E+00-7.17671E+00-5.00000E-01
 -1      2036 8.37043E-01-8.81509E+00-5.00000E-01
 -1      2037-2.71904E+00 1.03006E+01-5.00000E-01
 -1      2038-5.49493E+00 1.06345E+01-5.00000E-01
 -1      2039 8.53215E+00-2.60652E+00-5.00000E-01
 -1      2040-3.98822E+00 8.96912E+00-5.00000E-01
 -1      2041 3.22155E+00-4.87175E+00-5.00000E-01
 -1      2042-1.55016E+00 9.67477E+00-5.00000E-01
 -1      2043 5.22492E+00-4.56289E+00-5.00000E-01
 -1      2044 6.39113E+00-3.56125E+00-5.00000E-01
 -1      2045-2.12211E+00 8.02868E+00-5.00000E-01
 -1      2046 4.27366E+00-5.23685E+00-5.00000E-01
 -1      2047 5.05342E-01 1.51010E+00 5.00000E-01
 -1      2048 3.95299E+00 2.56345E+00-5.00000E-01
 -1      2049 5.05372E+00 3.47149E-01-5.00000E-01
 -1      2050-1.21090E+00 1.21090E+00 5.00000E-01
 -1      2051-9.80009E-01-3.26308E+00-5.00000E-01
 -1      2052 5.17173E-01-2.58259E+00-5.00000E-01
 -1      2053 3.02916E+00-2.14389E+00-5.00000E-01
 -1      2054-2.14831E+00 2.52725E+00-5.00000E-01
 -1      2055-5.77615E+00 5.31890E-01-5.00000E-01
 -1      2056 5.11053E-01 2.50370E+00-5.00000E-01
 -1      2057-5.11779E+00-2.90713E+00-5.00000E-01
 -1      2058 2.96196E+00 1.65024E+00-5.00000E-01
 -1      2059-5.14957E+00 9.89904E-01-5.00000E-01
 -1      2060-6.98044E-01 1.68523E+00 5.00000E-01
 -1      2061-4.23753E+00 2.55840E+00-5.00000E-01
 -1      2062-1.23479E+00-2.09443E+00-5.00000E-01
 -1      2063 4.84224E+00 3.66875E+00-5.00000E-01
 -1      2064 2.24092E+00 4.51896E-01-5.00000E-01
 -1      2065 1.88793E+00-1.72094E+00-5.00000E-01
 -1      2066 4.58372E+00-2.91710E+00-5.00000E-01
 -1      2067 6.00384E+00-1.00649E+00-5.00000E-01
 -1      2068-2.85108E+00 1.77493E+00-5.00000E-01
 -1      2069 9.24620E-01-8.35036E-01-5.00000E-01
 -1      2070-2.40457E+00-2.59042E+00-5.00000E-01
 -1      2071-9.07904E-01 3.21270E+00-5.00000E-01
 -1      2072-2.49623E+00 2.43056E-01-5.00000E-01
 -1      2073-4.72306E+00 2.94818E+00-5.00000E-01
 -1      2074 3.33633E+00-8.24647E-01-5.00000E-01
 -1      2075-1.11311E+00 2.04500E+00-5.00000E-01
 -1      2076 1.53059E+00 3.26629E+00-5.00000E-01
 -1      2077-2.75227E+00 3.72840E+00-5.00000E-01
 -1      2078-2.70863E+00-1.13918E+00-5.00000E-01
 -1      2079-7.81580E+00 7.30903E-01-5.00000E-01
 -1      2080-5.66738E+00 1.04069E+00-5.00000E-01
 -1      2081-3.31131E+00 5.12649E+00-5.00000E-01
 -1      2082-1.71247E+00 0.00000E+00 5.00000E-01
 -1      2083-5.13392E-01 2.20452E+00-5.00000E-01
 -1      2084-2.58008E+00-4.10812E+00-5.00000E-01
 -1      2085 2.91602E+00 6.21612E-01-5.00000E-01
 -1      2086-4.75220E+00-3.30849E+00-5.00000E-01
 -1      2087-1.41952E+00 1.32950E+00-5.00000E-01
 -1      2088 0.00000E+00-1.71247E+00 5.00000E-01
 -1      2089-1.21090E+00-1.21090E+00 5.00000E-01
 -1      2090-5.31528E+00-1.33513E+00-5.00000E-01
 -1      2091 1.95584E+00 2.75457E+00-5.00000E-01
 -1      2092 4.74828E+00 9.44490E-01 5.00000E-01
 -1      2093 1.43074E-01-1.80083E+00-5.00000E-01
 -1      2094-3.93674E+00-2.08595E+00-5.00000E-01
 -1      2095-3.60425E+00-1.09802E+00-5.00000E-01
 -1      2096-2.61993E+00-5.54383E-01-5.00000E-01
 -1      2097 2.73484E+00-6.34143E-01-5.00000E-01
 -1      2098 5.06494E+00 9.06999E-01-5.00000E-01
 -1      2099 1.30387E+00 5.18264E+00-5.00000E-01
 -1      2100 3.46595E+00 4.81579E+00-5.00000E-01
 -1      2101-4.74829E+00-9.44478E-01 5.00000E-01
 -1      2102 3.66097E+00 3.74744E-01-5.00000E-01
 -1      2103 4.62778E+00-1.52548E+00-5.00000E-01
 -1      2104-2.47775E+00-1.70573E+00-5.00000E-01
 -1      2105 2.54445E+00 4.03069E+00-5.00000E-01
 -1      2106-3.79068E+00 4.39747E-01-5.00000E-01
 -1      2107 1.71247E+00 0.00000E+00 5.00000E-01
 -1      2108-2.86360E+00-4.71050E+00-5.00000E-01
 -1      2109-2.24638E+00 1.09792E+00-5.00000E-01
 -1      2110 1.69886E+00 9.67363E-01-5.00000E-01
 -1      2111-1.05499E+00-4.49739E+00-5.00000E-01
 -1      2112-1.37826E+00-5.93320E+00-5.00000E-01
 -1      2113 4.47295E-01-4.16866E+00-5.00000E-01
 -1      2114-9.44490E-01 4.74828E+00 5.00000E-01
 -1      2115-2.61380E+00 4.36749E+00-5.00000E-01
 -1      2116 6.42210E-01 4.74453E+00-5.00000E-01
 -1      2117 2.62438E+00-7.99839E+00-5.00000E-01
 -1      2118 4.02539E+00-2.68968E+00 5.00000E-01
 -1      2119 1.67462E+00 1.68428E+00-5.00000E-01
 -1      2120 2.68968E+00-4.02539E+00 5.00000E-01
 -1      2121 9.44490E-01-4.74828E+00 5.00000E-01
 -1      2122 1.39370E+00-5.69099E+00-5.00000E-01
 -1      2123 1.95719E+00-3.46948E+00-5.00000E-01
 -1      2124-1.36921E+00 5.73264E+00-5.00000E-01
 -1      2125 2.52867E+00-4.50279E+00-5.00000E-01
 -1      2126 8.74559E-01 1.85863E+00-5.00000E-01
 -1      2127 2.48780E+00-1.85349E+00-5.00000E-01
 -1      2128-2.11202E+00 3.16967E+00-5.00000E-01
 -1      2129 2.58478E+00 2.31709E+00-5.00000E-01
 -1      2130-4.74828E+00 9.44490E-01 5.00000E-01
 -1      2131-4.02539E+00 2.68968E+00 5.00000E-01
 -1      2132-1.82458E+00-2.22301E+00-5.00000E-01
 -1      2133-1.28203E+00-1.49264E+00-5.00000E-01
 -1      2134 4.82635E+00 3.11476E+00-5.00000E-01
 -1      2135-4.91690E+00-5.54469E-01-5.00000E-01
 -1      2136 1.48113E+00-2.31107E+00-5.00000E-01
 -1      2137-9.44478E-01-4.74829E+00 5.00000E-01
 -1      2138-4.06338E-01-2.08018E+00-5.00000E-01
 -1      2139 5.27322E+00-1.15307E+00-5.00000E-01
 -1      2140 7.65258E-01-1.27241E+00 5.00000E-01
 -1      2141 1.45430E+00-9.71787E-01 5.00000E-01
 -1      2142-2.13979E+00-3.19947E+00-5.00000E-01
 -1      2143-9.18543E-01-4.38945E-01-5.00000E-01
 -1      2144-2.73945E-01 3.49447E+00-5.00000E-01
 -1      2145-1.60232E+00 2.34706E+00-5.00000E-01
 -1      2146-8.31195E-01 1.50091E+00-5.00000E-01
 -1      2147 1.23212E+00 5.76712E+00-5.00000E-01
 -1      2148 2.99793E+00 4.41704E+00-5.00000E-01
 -1      2149-2.68968E+00 4.02539E+00 5.00000E-01
 -1      2150 2.31408E+00-1.70165E-01-5.00000E-01
 -1      2151-1.71280E+00 6.21654E-01 5.00000E-01
 -1      2152-7.77690E-02 1.80926E+00 5.00000E-01
 -1      2153-2.68968E+00-4.02539E+00 5.00000E-01
 -1      2154-5.60314E+00-2.32090E+00 1.45000E+00
 -1      2155-3.14305E+00 3.44082E-01-5.00000E-01
 -1      2156 2.68968E+00 4.02539E+00 5.00000E-01
 -1      2157-1.94320E+00 8.01777E-02-5.00000E-01
 -1      2158 5.44194E-01-1.77340E+00 5.00000E-01
 -1      2159-3.51471E+00-2.83332E+00-5.00000E-01
 -1      2160 5.85724E-01-2.06940E+00-5.00000E-01
 -1      2161-3.98924E+00-3.64510E-01-5.00000E-01
 -1      2162-4.90279E+00-1.05365E+00-5.00000E-01
 -1      2163 1.77846E+00-5.37720E-01 5.00000E-01
 -1      2164 1.60862E+00 3.29726E-01-5.00000E-01
 -1      2165 1.83070E-01-3.36244E+00-5.00000E-01
 -1      2166 1.46345E+00 9.77904E-01 5.00000E-01
 -1      2167 9.44490E-01 4.74828E+00 5.00000E-01
 -1      2168 1.75095E-02-2.40106E+00-5.00000E-01
 -1      2169 5.76499E-01-5.96563E+00-5.00000E-01
 -1      2170 9.01856E-01-5.58061E+00-5.00000E-01
 -1      2171 1.62888E+00-1.03592E+00-5.00000E-01
 -1      2172 4.69658E+00-8.99186E-01-5.00000E-01
 -1      2173 1.63600E+00-2.92445E+00-5.00000E-01
 -1      2174 2.43070E+00-5.86822E+00 1.45000E+00
 -1      2175-1.45813E+00-8.42348E-01-5.00000E-01
 -1      2176 2.54304E+00-5.28870E+00 1.45000E+00
 -1      2177 3.07690E+00-4.30832E+00-5.00000E-01
 -1      2178 2.82053E-01 1.94970E+00-5.00000E-01
 -1      2179 1.02463E+00 1.53339E+00 5.00000E-01
 -1      2180-1.66092E+00-6.87973E-01 5.00000E-01
 -1      2181-6.21654E-01-1.71280E+00 5.00000E-01
 -1      2182 1.18398E+00-1.50218E+00 5.00000E-01
 -1      2183 2.11592E+00-7.17357E-01-5.00000E-01
 -1      2184-1.61009E+00-1.09933E+00 5.00000E-01
 -1      2185-1.61690E+00 1.04834E+00 5.00000E-01
 -1      2186-4.02539E+00-2.68968E+00 5.00000E-01
 -1      2187-4.27304E-01 1.94427E+00 5.00000E-01
 -1      2188-1.91585E+00-3.61157E-01 5.00000E-01
 -1      2189 1.16904E+00 1.74955E+00 5.00000E-01
 -1      2190 2.42946E-01-2.00331E+00 5.00000E-01
 -1      2191-4.50000E-01-2.83713E+00 9.84564E-01
 -1      2192-1.04834E+00-1.61690E+00 5.00000E-01
 -1      2193-3.10699E-01-1.95318E+00 5.00000E-01
 -1      2194 4.74828E+00-9.44490E-01 5.00000E-01
 -1      2195 1.24132E+00 1.85774E+00 5.00000E-01
 -1      2196 1.71457E+00 1.14567E+00 5.00000E-01
 -1      2197-4.24395E-01 2.13335E+00 5.00000E-01
 -1      2198 3.40167E-01 1.90601E+00 5.00000E-01
 -1      2199-1.95710E+00-6.56173E-01 5.00000E-01
 -1      2200-4.99085E-01-2.08683E+00 5.00000E-01
 -1      2201 1.80481E+00 5.04037E-01 5.00000E-01
 -1      2202-1.10372E+00 1.60943E+00 5.00000E-01
 -1      2203 1.50147E+00 2.44896E+00 9.84562E-01
 -1      2204 1.40390E+00 2.21342E+00 8.03377E-01
 -1      2205-4.50000E-01-2.58218E+00 8.03376E-01
 -1      2206 1.68458E+00 2.32097E+00 9.92005E-01
 -1      2207 1.84022E+00 1.22961E+00 5.00000E-01
 -1      2208 9.89882E-01-1.80184E+00 5.00000E-01
 -1      2209-1.95318E+00 3.10699E-01 5.00000E-01
 -1      2210-1.73233E+00 1.25504E+00 5.00000E-01
 -1      2211 5.13521E-01-2.04552E+00 5.00000E-01
 -1      2212 2.03636E+00 2.25000E-01 5.00000E-01
 -1      2213 1.22275E+00-1.73998E+00 5.00000E-01
 -1      2214 1.27759E+00 1.91204E+00 5.00000E-01
 -1      2215 1.70999E+00-1.14261E+00 5.00000E-01
 -1      2216 0.00000E+00 2.32070E+00 9.50658E-01
 -1      2217 6.68151E-01 2.78897E+00 9.92005E-01
 -1      2218-1.68458E+00 2.32097E+00 9.92005E-01
 -1      2219-4.50000E-01 2.85968E+00 9.75000E-01
 -1      2220-8.88094E-01-2.14405E+00 9.50659E-01
 -1      2221 4.50000E-01-2.83713E+00 9.84564E-01
 -1      2222 2.06004E+00 4.80240E-01 5.00000E-01
 -1      2223 2.44896E+00-1.50147E+00 9.84562E-01
 -1      2224 3.27308E+00-1.50530E+00-5.00000E-01
 -1      2225 2.14405E+00 8.88094E-01 9.50659E-01
 -1      2226 2.10100E+00-9.92031E-01 8.31909E-01
 -1      2227 1.64099E+00 1.64099E+00 9.50654E-01
 -1      2228-2.13321E+00-3.37500E-01 5.00000E-01
 -1      2229 2.00797E+00-2.36644E-01 5.00000E-01
 -1      2230-1.51010E+00-2.46979E+00 9.75000E-01
 -1      2231-1.19845E+00 1.79358E+00 5.00000E-01
 -1      2232-2.32097E+00 1.68458E+00 9.92005E-01
 -1      2233-2.44896E+00-1.50147E+00 9.84562E-01
 -1      2234-2.32070E+00 0.00000E+00 9.50658E-01
 -1      2235 6.68151E-01-2.78897E+00 9.92005E-01
 -1      2236-1.40697E+00-2.22082E+00 8.09069E-01
 -1      2237 2.46979E+00 1.51010E+00 9.75000E-01
 -1      2238 8.88094E-01-2.14405E+00 9.50659E-01
 -1      2239 9.92031E-01 2.10100E+00 8.31909E-01
 -1      2240 1.51912E+00 2.15551E+00 7.63007E-01
 -1      2241 1.12500E-01-2.32070E+00 8.31908E-01
 -1      2242 2.56337E-01-2.32070E+00 6.95641E-01
 -1      2243 5.78600E-01-2.57277E+00 7.92948E-01
 -1      2244-1.68458E+00-2.32097E+00 9.92005E-01
 -1      2245 1.51010E+00-2.46979E+00 9.75000E-01
 -1      2246 2.32097E+00-1.68458E+00 9.92005E-01
 -1      2247-4.50000E-01 2.61576E+00 7.98228E-01
 -1      2248-1.12500E-01 2.32070E+00 7.25329E-01
 -1      2249 1.40697E+00-2.22082E+00 8.09069E-01
 -1      2250-2.14405E+00-8.88094E-01 9.50659E-01
 -1      2251-1.64099E+00-1.64099E+00 9.50654E-01
 -1      2252 1.90322E+00 1.27170E+00 5.00000E-01
 -1      2253 1.50934E+00 1.77263E+00 7.62109E-01
 -1      2254 1.12492E+00 2.04595E+00 6.95642E-01
 -1      2255-2.35183E+00-1.71544E+00 9.75000E-01
 -1      2256 4.50000E-01-2.57277E+00 7.37128E-01
 -1      2257 2.22082E+00 1.40697E+00 8.09069E-01
 -1      2258-1.64099E+00 1.64099E+00 9.50654E-01
 -1      2259-2.85968E+00 4.50000E-01 9.75000E-01
 -1      2260-1.50792E+00 2.14431E+00 8.03458E-01
 -1      2261-2.85968E+00-4.50000E-01 9.75000E-01
 -1      2262-6.84850E-01-2.82928E+00 9.75000E-01
 -1      2263 2.20472E+00-1.40030E+00 7.37123E-01
 -1      2264-1.12500E-01-2.32070E+00 7.23152E-01
 -1      2265 4.50000E-01 2.85968E+00 9.75000E-01
 -1      2266 2.04595E+00-1.12492E+00 6.95642E-01
 -1      2267-2.59019E+00-4.50000E-01 8.09069E-01
 -1      2268-2.32070E+00 1.86174E-01 7.62112E-01
 -1      2269-2.15551E+00-1.51912E+00 8.09629E-01
 -1      2270-1.40030E+00 2.20472E+00 7.96686E-01
 -1      2271 2.04732E+00-5.04649E-01 5.00000E-01
 -1      2272-5.78600E-01-2.57277E+00 8.09629E-01
 -1      2273 2.78897E+00-6.68151E-01 9.92005E-01
 -1      2274-1.51912E+00-2.15551E+00 7.92948E-01
 -1      2275-2.20056E+00-4.37747E-01 5.00000E-01
 -1      2276-1.25504E+00-1.73233E+00 5.00000E-01
 -1      2277 2.57277E+00-5.78600E-01 7.92948E-01
 -1      2278 2.32070E+00 0.00000E+00 9.50658E-01
 -1      2279-2.08683E+00 4.99085E-01 5.00000E-01
 -1      2280-2.32070E+00 3.08430E-01 6.46290E-01
 -1      2281 1.83793E+00-1.22808E+00 5.00000E-01
 -1      2282 1.64099E+00-1.64099E+00 9.50654E-01
 -1      2283-2.15551E+00 1.51912E+00 7.92948E-01
 -1      2284-2.83832E-01-2.32070E+00 6.69593E-01
 -1      2285 2.16697E+00-1.53058E+00 7.88285E-01
 -1      2286 1.71544E+00-2.35183E+00 9.75000E-01
 -1      2287 2.82928E+00 6.84850E-01 9.75000E-01
 -1      2288-3.37500E-01-2.17500E+00 5.00000E-01
 -1      2289 3.60010E-01-2.14121E+00 5.00000E-01
 -1      2290-2.81250E-01 2.18078E+00 5.00000E-01
 -1      2291 1.42674E+00 2.06313E+00 6.61191E-01
 -1      2292-4.42852E-01 2.22625E+00 5.00000E-01
 -1      2293 5.78600E-01 2.57277E+00 7.92948E-01
 -1      2294-2.57277E+00-5.78600E-01 7.63008E-01
 -1      2295 2.35183E+00 1.71544E+00 9.75000E-01
 -1      2296-2.14405E+00 8.88094E-01 9.50659E-01
 -1      2297 4.50000E-01 2.59019E+00 8.09069E-01
 -1      2298 4.97036E-01 2.08189E+00 5.00000E-01
 -1      2299 2.17595E+00 3.40766E-01 5.00000E-01
 -1      2300-1.06004E+00-1.83873E+00 5.00000E-01
 -1      2301 2.17243E+00 1.53604E+00 8.00304E-01
 -1      2302-1.20242E+00-1.86778E+00 5.00000E-01
 -1      2303-4.50000E-01 2.48694E+00 6.76934E-01
 -1      2304-2.17500E+00 3.37500E-01 5.00000E-01
 -1      2305-2.82928E+00 6.84850E-01 9.75000E-01
 -1      2306-2.18710E+00-7.84158E-01 7.25329E-01
 -1      2307 1.44211E+00 1.83986E+00 6.42263E-01
 -1      2308-4.54870E-01-2.19795E+00 5.00000E-01
 -1      2309-5.41736E-01 2.15832E+00 5.00000E-01
 -1      2310 7.16093E-01-2.21530E+00 7.62112E-01
 -1      2311 1.51912E+00-2.15551E+00 8.09629E-01
 -1      2312 2.18792E+00 4.68606E-01 5.00000E-01
 -1      2313-7.84158E-01-2.18710E+00 7.25329E-01
 -1      2314 2.85968E+00-4.50000E-01 9.75000E-01
 -1      2315 2.59019E+00-4.50000E-01 8.09069E-01
 -1      2316 2.32070E+00 1.86174E-01 7.62112E-01
 -1      2317 2.85968E+00 4.50000E-01 9.75000E-01
 -1      2318 4.50000E-01-2.44452E+00 6.16228E-01
 -1      2319 3.36038E-01-2.32070E+00 6.14050E-01
 -1      2320-1.87970E+00 1.14391E+00 5.00000E-01
 -1      2321-1.83422E+00-1.12507E+00 5.00000E-01
 -1      2322 6.13899E-01-2.25763E+00 6.51235E-01
 -1      2323 1.72053E+00 1.56144E+00 7.25327E-01
 -1      2324 5.25474E-01-2.44452E+00 6.31504E-01
 -1      2325 1.72053E+00-1.56144E+00 7.25327E-01
 -1      2326-2.26005E+00-4.49566E-01 5.00000E-01
 -1      2327-6.68151E-01 2.78897E+00 9.92005E-01
 -1      2328-2.21342E+00-1.40390E+00 8.03377E-01
 -1      2329-7.84158E-01 2.18710E+00 8.31909E-01
 -1      2330 4.50000E-01-2.38039E+00 5.72452E-01
 -1      2331 1.40030E+00 2.20472E+00 6.39785E-01
 -1      2332-3.53788E-01 2.23289E+00 5.00000E-01
 -1      2333 2.07908E+00 1.44269E+00 6.78768E-01
 -1      2334-1.87522E+00 1.25299E+00 5.00000E-01
 -1      2335 4.80011E-01-2.18777E+00 5.00000E-01
 -1      2336-1.70146E+00-1.29241E+00 5.00000E-01
 -1      2337-1.92086E+00 1.28349E+00 5.00000E-01
 -1      2338 2.32070E+00 3.08430E-01 6.46290E-01
 -1      2339 1.90207E+00-1.27093E+00 5.00000E-01
 -1      2340-2.57277E+00 5.78600E-01 7.63008E-01
 -1      2341 2.08816E+00-1.35202E+00 6.48640E-01
 -1      2342 2.15883E+00-3.51387E-01 5.00000E-01
 -1      2343-1.25606E+00 1.87980E+00 5.00000E-01
 -1      2344 2.59488E+00 5.87757E-01 8.00305E-01
 -1      2345-1.36120E+00 2.11033E+00 6.65468E-01
 -1      2346 3.93750E-01-2.23815E+00 5.00000E-01
 -1      2347 2.18710E+00 7.84158E-01 7.25329E-01
 -1      2348-1.56144E+00-1.72053E+00 7.25327E-01
 -1      2349 1.84142E+00-1.44055E+00 6.69938E-01
 -1      2350-2.44896E+00 1.50147E+00 9.84562E-01
 -1      2351-1.90303E+00-1.21445E+00 5.00000E-01
 -1      2352-2.07280E+00 1.06010E+00 7.62112E-01
 -1      2353-1.82007E+00-1.29952E+00 5.00000E-01
 -1      2354-1.04318E+00 2.07981E+00 7.79454E-01
 -1      2355-4.52148E-01 2.27304E+00 5.00000E-01
 -1      2356-5.17084E-01 2.22837E+00 5.00000E-01
 -1      2357 1.38466E+00 2.02105E+00 5.91501E-01
 -1      2358 1.52120E+00-1.76077E+00 7.25327E-01
 -1      2359-2.32070E+00-2.81250E-01 6.72039E-01
 -1      2360 1.53087E+00-1.37177E+00 5.00000E-01
 -1      2361 7.84158E-01 2.18710E+00 7.23152E-01
 -1      2362-1.72053E+00 1.56144E+00 7.25327E-01
 -1      2363 5.32776E-01 2.46214E+00 6.69684E-01
 -1      2364 3.37500E-01 2.17450E+00 5.00000E-01
 -1      2365-2.19795E+00 4.54870E-01 5.00000E-01
 -1      2366-5.78600E-01 2.57277E+00 7.63008E-01
 -1      2367 5.52313E-01-2.28314E+00 5.88082E-01
 -1      2368 2.09011E+00 1.01832E+00 7.39536E-01
 -1      2369-2.20472E+00 1.40030E+00 7.37123E-01
 -1      2370-6.51270E-01 2.24215E+00 6.95642E-01
 -1      2371-1.98765E+00-1.06039E+00-5.00000E-01
 -1      2372 2.12083E+00 1.36555E+00 6.73439E-01
 -1      2373-1.74065E+00-1.54132E+00 7.39533E-01
 -1      2374-1.30319E+00-1.86003E+00 5.00000E-01
 -1      2375-1.44211E+00-1.83986E+00 6.68831E-01
 -1      2376 2.47291E+00 5.37236E-01 6.78768E-01
 -1      2377-1.28029E+00-1.91607E+00 5.00000E-01
 -1      2378-1.42095E+00-2.05734E+00 6.31504E-01
 -1      2379-3.93750E-01-2.25700E+00 5.00000E-01
 -1      2380-4.54269E-01-2.25849E+00 5.00000E-01
 -1      2381-2.25168E+00-6.28254E-01 6.68833E-01
 -1      2382 4.59094E-01-2.25100E+00 5.00000E-01
 -1      2383-1.83986E+00 1.44211E+00 6.68831E-01
 -1      2384 1.43909E+00-2.07548E+00 6.74809E-01
 -1      2385 2.01545E+00-1.19855E+00 6.14050E-01
 -1      2386 1.15040E+00-1.89539E+00 5.00000E-01
 -1      2387-5.35292E-01-2.46822E+00 6.74809E-01
 -1      2388-2.03642E+00-1.14794E+00 6.72040E-01
 -1      2389-1.43350E+00 2.06989E+00 6.68639E-01
 -1      2390-1.28504E+00 1.92318E+00 5.00000E-01
 -1      2391-2.07548E+00-1.43909E+00 6.74809E-01
 -1      2392-1.89348E+00-1.28812E+00 5.00000E-01
 -1      2393 1.35122E+00-2.08623E+00 6.47174E-01
 -1      2394 1.35122E+00 2.08623E+00 6.16224E-01
 -1      2395 1.19855E+00 2.01545E+00 6.14050E-01
 -1      2396-2.44452E+00 4.50000E-01 6.16228E-01
 -1      2397 2.05734E+00-1.42095E+00 6.31504E-01
 -1      2398-1.50934E+00 1.77263E+00 7.62109E-01
 -1      2399 4.56704E-01 2.19613E+00 5.00000E-01
 -1      2400-1.36555E+00-2.12083E+00 6.73439E-01
 -1      2401-2.44452E+00-4.50000E-01 6.16228E-01
 -1      2402-2.32070E+00-3.51193E-01 5.99692E-01
 -1      2403 2.24582E+00 3.98704E-01 5.00000E-01
 -1      2404-2.05734E+00 1.42095E+00 6.31504E-01
 -1      2405-4.50000E-01-2.44452E+00 6.16228E-01
 -1      2406-3.52831E-01-2.32070E+00 5.98140E-01
 -1      2407-2.03642E+00 1.14794E+00 6.42264E-01
 -1      2408-2.21530E+00 7.16093E-01 7.62112E-01
 -1      2409-2.25763E+00 6.13899E-01 6.51235E-01
 -1      2410 2.18137E+00-4.84985E-01 5.00000E-01
 -1      2411-1.39191E+00-1.89006E+00 5.98697E-01
 -1      2412-2.25921E+00 4.49399E-01 5.00000E-01
 -1      2413 1.32719E+00 2.02820E+00 5.73352E-01
 -1      2414-6.28254E-01-2.25168E+00 6.65954E-01
 -1      2415-1.83986E+00-1.44211E+00 6.54247E-01
 -1      2416-1.32668E+00 2.02698E+00 5.72449E-01
 -1      2417 2.04114E+00-1.33254E+00 5.82910E-01
 -1      2418 1.40954E-01 2.32070E+00 7.39535E-01
 -1      2419 2.87871E-01 2.32070E+00 6.59681E-01
 -1      2420 6.28254E-01 2.25168E+00 6.65954E-01
 -1      2421-2.32070E+00 3.69462E-01 5.82385E-01
 -1      2422-7.06645E-01 1.95044E+00 5.00000E-01
 -1      2423-1.89006E+00 1.39191E+00 5.98697E-01
 -1      2424-1.14794E+00-2.03642E+00 6.65954E-01
 -1      2425-1.14794E+00 2.03642E+00 6.57067E-01
 -1      2426 1.89031E+00-1.39166E+00 5.98359E-01
 -1      2427-1.44211E+00 1.83986E+00 6.42263E-01
 -1      2428 4.50000E-01 2.44452E+00 6.16228E-01
 -1      2429 3.57459E-01 2.32070E+00 5.93756E-01
 -1      2430 3.93750E-01 2.25520E+00 5.00000E-01
 -1      2431 2.18710E+00-7.84158E-01 7.23152E-01
 -1      2432 2.25231E+00 4.63010E-01 5.00000E-01
 -1      2433-2.38171E+00-4.50000E-01 5.73354E-01
 -1      2434-1.35122E+00-2.08623E+00 5.85493E-01
 -1      2435-4.50000E-01-2.38171E+00 5.73354E-01
 -1      2436-2.02864E+00-1.39225E+00 5.99866E-01
 -1      2437 2.32070E+00 3.69462E-01 5.82385E-01
 -1      2438 2.03389E+00 1.15405E+00 6.59682E-01
 -1      2439 2.00725E+00 1.21834E+00 5.93756E-01
 -1      2440-2.44452E+00 5.25474E-01 6.31504E-01
 -1      2441 2.48466E+00-4.50000E-01 6.72540E-01
 -1      2442 2.23587E+00-4.07094E-01 5.00000E-01
 -1      2443-2.44452E+00-5.25474E-01 6.31504E-01
 -1      2444-2.08623E+00 1.35122E+00 6.16224E-01
 -1      2445-2.00623E+00 1.22083E+00 5.91208E-01
 -1      2446 1.83986E+00 1.44211E+00 6.65952E-01
 -1      2447-5.09939E-01-2.40701E+00 5.99866E-01
 -1      2448 1.41923E+00-1.86274E+00 6.41382E-01
 -1      2449 1.26384E+00-1.85366E+00 5.00000E-01
 -1      2450 2.25168E+00 6.28254E-01 6.65954E-01
 -1      2451 5.61810E-01 2.27920E+00 5.97821E-01
 -1      2452 2.40980E+00 5.11096E-01 6.02222E-01
 -1      2453 1.22812E+00-1.93160E+00 5.00000E-01
 -1      2454-1.38886E+00 2.02525E+00 5.96132E-01
 -1      2455 4.55036E-01 2.25743E+00 5.00000E-01
 -1      2456 2.25168E+00-6.28254E-01 6.68292E-01
 -1      2457-1.21438E+00-2.00890E+00 5.97821E-01
 -1      2458-2.28314E+00 5.52313E-01 5.88082E-01
 -1      2459 2.24836E+00-4.73850E-01 5.00000E-01
 -1      2460 2.32070E+00-2.81250E-01 6.65954E-01
 -1      2461 2.41822E+00-4.50000E-01 5.98278E-01
 -1      2462 2.32070E+00-3.53168E-01 5.97821E-01
 -1      2463 2.03078E+00 1.39439E+00 6.02222E-01
 -1      2464-2.27885E+00-5.62665E-01 5.98698E-01
 -1      2465-5.61810E-01-2.27920E+00 5.97821E-01
 -1      2466 1.14794E+00-2.03642E+00 6.65954E-01
 -1      2467 1.33201E+00-2.03985E+00 5.81959E-01
 -1      2468 2.27920E+00 5.61810E-01 5.97821E-01
 -1      2469 1.28555E+00-1.91076E+00 5.00000E-01
 -1      2470 1.89071E+00 1.39126E+00 5.97820E-01
 -1      2471 1.37703E+00-1.90494E+00 5.78757E-01
 -1      2472 1.21438E+00-2.00890E+00 5.97821E-01
 -1      2473 2.44452E+00-5.25474E-01 6.31504E-01
 -1      2474 2.27892E+00-5.62504E-01 5.98532E-01
 -1      2475 1.52425E+00 2.28124E+00 6.42353E-02
 -1      2476-5.35161E-01-2.69090E+00 6.60244E-02
 -1      2477 5.63874E+00 1.12162E+00 7.22546E-02
 -1      2478 2.28124E+00 1.52425E+00 6.06676E-02
 -1      2479-5.35161E-01 2.69090E+00 5.04703E-02
 -1      2480 4.21601E+00 2.81705E+00-1.49836E-02
 -1      2481 4.78030E+00-3.19410E+00 3.04126E-02
 -1      2482-2.33238E+00-4.63936E-01-4.52675E-02
 -1      2483-6.82520E-01-3.43129E+00 3.71584E-02
 -1      2484 5.35161E-01-2.69090E+00 6.61219E-02
 -1      2485-2.20163E+00-1.47106E+00-2.52772E-02
 -1      2486 5.35161E-01 2.69090E+00 5.43368E-02
 -1      2487 2.25051E+00-1.50371E+00-3.05228E-02
 -1      2488-4.95148E-01-2.48949E+00 2.69603E-01
 -1      2489-1.94367E+00 2.90890E+00 4.73869E-02
 -1      2490-2.69090E+00 5.35161E-01 1.05385E-02
 -1      2491 1.82778E+00 1.22130E+00-2.67679E-02
 -1      2492-4.78030E+00 3.19410E+00 5.62219E-02
 -1      2493-1.10911E+00-2.45320E+00 1.49019E-01
 -1      2494-3.19410E+00 4.78030E+00 2.13021E-02
 -1      2495 2.69090E+00 5.35161E-01 4.30713E-02
 -1      2496-1.61328E+00 1.07800E+00 3.93882E-02
 -1      2497-3.42415E+00 6.81100E-01-3.69042E-03
 -1      2498 1.12162E+00 5.63874E+00 7.37513E-02
 -1      2499-5.63874E+00-1.12162E+00 1.29868E-02
 -1      2500 2.11049E+00 1.41017E+00 2.67086E-01
 -1      2501-4.35883E-01 2.19117E+00 5.39518E-03
 -1      2502-3.42900E+00-6.82065E-01-7.25936E-03
 -1      2503 2.69090E+00-5.35161E-01 6.62849E-02
 -1      2504 3.19410E+00 4.78030E+00 5.05150E-02
 -1      2505 3.43129E+00 6.82520E-01 2.18155E-02
 -1      2506-2.28124E+00 1.52425E+00 6.53229E-03
 -1      2507-3.19410E+00-4.78030E+00 3.10480E-02
 -1      2508-1.12162E+00-5.63874E+00 1.18129E-02
 -1      2509 4.04070E-01-2.03104E+00 2.57718E-02
 -1      2510-4.95148E-01 2.48949E+00 2.62290E-01
 -1      2511-1.35827E+00-2.03280E+00-6.18407E-03
 -1      2512-6.82520E-01 3.43129E+00 4.62671E-02
 -1      2513 5.63874E+00-1.12162E+00 2.07979E-02
 -1      2514 1.88114E+00 1.25695E+00 2.42603E-01
 -1      2515-1.12162E+00 5.63874E+00 5.30378E-02
 -1      2516 1.21239E+00 1.81444E+00-4.14729E-02
 -1      2517-2.48949E+00-4.95148E-01 2.31832E-01
 -1      2518 1.41017E+00 2.11049E+00 2.68762E-01
 -1      2519 2.90890E+00 1.94367E+00 5.11002E-02
 -1      2520-1.08314E+00 2.36551E+00 5.00303E-02
 -1      2521-1.63071E+00-1.08964E+00 3.56565E-02
 -1      2522 1.52425E+00-2.28124E+00 7.07798E-02
 -1      2523-3.93258E-01-1.97662E+00 5.53583E-02
 -1      2524-1.24485E+00 1.86303E+00-1.75749E-02
 -1      2525-1.94367E+00-2.90890E+00 3.51299E-02
 -1      2526-1.94963E+00 1.30270E+00 9.26134E-02
 -1      2527 2.19232E+00 4.36110E-01 7.03207E-03
 -1      2528-1.97649E+00 3.93232E-01 1.12976E-02
 -1      2529-1.92574E+00-1.28674E+00 1.34874E-01
 -1      2530 1.17279E+00-1.75516E+00 1.85550E-02
 -1      2531 4.68405E-01-2.35487E+00 1.49543E-01
 -1      2532-4.24395E-01 2.13335E+00 2.85331E-01
 -1      2533 2.11049E+00-1.41017E+00 2.36788E-01
 -1      2534-1.44512E+00 2.09862E+00 1.82090E-01
 -1      2535 4.95148E-01 2.48949E+00 2.64111E-01
 -1      2536 6.82520E-01-3.43129E+00 3.34066E-02
 -1      2537-1.62523E-01-2.57277E+00 3.24858E-01
 -1      2538 1.24132E+00 1.85774E+00 2.42391E-01
 -1      2539-4.60269E-01 2.31392E+00 3.14071E-01
 -1      2540-2.43841E+00-1.58587E+00 2.16462E-01
 -1      2541 1.94367E+00-2.90890E+00 4.81062E-02
 -1      2542-1.19155E+00-1.78324E+00 2.05525E-01
 -1      2543-2.48949E+00 4.95148E-01 2.43380E-01
 -1      2544 2.42892E+00 4.83115E-01 2.07486E-01
 -1      2545 1.12162E+00-5.63874E+00 6.22570E-02
 -1      2546 2.43841E+00-1.58587E+00 2.39672E-01
 -1      2547 1.98951E+00 1.32935E+00 3.40173E-01
 -1      2548-4.78161E-01-2.40398E+00 3.85083E-01
 -1      2549-1.14955E-01 2.42359E+00 1.18034E-01
 -1      2550 1.13471E+00 2.31473E+00 3.24612E-01
 -1      2551-2.85968E+00-5.32008E-01 1.96035E-01
 -1      2552-1.58587E+00-2.43841E+00 7.99431E-02
 -1      2553-2.40398E+00-4.78161E-01 3.66158E-01
 -1      2554-2.40659E+00-8.06121E-01 3.13839E-01
 -1      2555-2.09676E+00-4.86252E-01 2.60938E-01
 -1      2556-2.32013E+00-1.75323E-01 1.79034E-01
 -1      2557 4.19156E-01 2.10698E+00 1.58518E-01
 -1      2558-4.78161E-01 2.40398E+00 4.05148E-01
 -1      2559-1.41017E+00-2.11049E+00 2.68442E-01
 -1      2560 2.03519E+00-4.04894E-01-1.02997E-02
 -1      2561-7.64997E-01 2.35091E+00 3.09460E-01
 -1      2562 2.31473E+00 1.13471E+00 3.24205E-01
 -1      2563 1.81893E+00 1.60931E+00 1.86057E-01
 -1      2564 1.34300E+00-2.00995E+00 1.64867E-01
 -1      2565-2.11049E+00 1.41017E+00 2.87844E-01
 -1      2566 1.27759E+00 1.91204E+00 3.71196E-01
 -1      2567-2.11049E+00-1.41017E+00 2.91641E-01
 -1      2568-1.19845E+00 1.79358E+00 2.75901E-01
 -1      2569 2.48949E+00-4.95148E-01 2.69725E-01
 -1      2570 8.56815E-01-2.45753E+00 2.36099E-01
 -1      2571 1.36174E+00 2.03800E+00 3.84662E-01
 -1      2572 1.70999E+00-1.14261E+00 1.07336E-01
 -1      2573 2.03800E+00-1.36174E+00 3.68641E-01
 -1      2574-1.58587E+00 2.43841E+00 2.02678E-01
 -1      2575 1.31779E+00 1.97220E+00 4.16032E-01
 -1      2576 4.31999E-01-2.17163E+00 3.07140E-01
 -1      2577-1.95804E+00-1.30832E+00 3.15659E-01
 -1      2578 1.83793E+00-1.22808E+00 3.04057E-01
 -1      2579 1.24449E+00-1.86249E+00 3.08607E-01
 -1      2580-1.36174E+00 2.03800E+00 3.36490E-01
 -1      2581 4.96591E-01-2.40639E+00 3.32280E-01
 -1      2582-4.59963E-01 2.31238E+00 4.07482E-01
 -1      2583-2.19080E+00 4.35809E-01 2.24272E-01
 -1      2584 2.57277E+00 1.62523E-01 2.96448E-01
 -1      2585 1.91348E+00-1.66229E+00 3.15824E-01
 -1      2586-4.36811E-01-2.19585E+00 3.15194E-01
 -1      2587-2.33460E+00 4.64377E-01 3.23882E-01
 -1      2588 4.54742E-01-2.28610E+00 3.71417E-01
 -1      2589 1.29602E+00 1.93962E+00 4.55418E-01
 -1      2590-4.69282E-01 2.35929E+00 4.51436E-01
 -1      2591-6.12481E-01 2.32965E+00 4.04711E-01
 -1      2592-2.23662E+00-4.44912E-01 3.50817E-01
 -1      2593 2.18688E+00 4.35030E-01 2.80647E-01
 -1      2594 4.53137E-01 2.27802E+00 2.87412E-01
 -1      2595 1.92895E+00-1.28889E+00 3.76710E-01
 -1      2596-1.29571E+00-1.93915E+00 2.94993E-01
 -1      2597 4.76233E-01 2.39428E+00 3.75016E-01
 -1      2598 1.44335E+00-2.18689E+00 2.84849E-01
 -1      2599 2.14076E+00 1.21957E+00 3.80063E-01
 -1      2600-1.94008E+00 1.29633E+00 2.97452E-01
 -1      2601-2.57277E+00 1.62523E-01 3.17872E-01
 -1      2602-2.02890E+00 1.35566E+00 3.85230E-01
 -1      2603 1.90322E+00 1.27170E+00 4.04355E-01
 -1      2604 8.11191E-01 2.28636E+00-4.61168E-04
 -1      2605 4.69668E-01-2.36123E+00 4.20785E-01
 -1      2606 8.31184E-02-2.67862E+00 6.56847E-01
 -1      2607-2.03800E+00-1.36174E+00 4.03712E-01
 -1      2608-1.96106E+00-1.31034E+00 4.08223E-01
 -1      2609 2.94468E-01-2.46211E+00 3.59094E-01
 -1      2610 2.33550E+00 4.64556E-01 3.38973E-01
 -1      2611 1.98601E+00-1.32701E+00 4.22251E-01
 -1      2612 2.07184E+00-1.19100E+00 3.54101E-01
 -1      2613 6.95014E-01-2.23641E+00 2.48793E-01
 -1      2614 2.20291E+00-4.38215E-01 2.29929E-01
 -1      2615 1.93509E+00 1.29299E+00 4.52177E-01
 -1      2616-3.07494E-01-2.44452E+00 4.04973E-01
 -1      2617-4.69668E-01-2.36123E+00 4.43106E-01
 -1      2618-1.36174E+00-2.03800E+00 3.84501E-01
 -1      2619 1.36114E+00-2.03709E+00 3.42094E-01
 -1      2620-2.36123E+00-4.69668E-01 4.33564E-01
 -1      2621 1.62523E-01 2.57277E+00 3.23507E-01
 -1      2622 2.23917E+00 7.55198E-01 2.11316E-01
 -1      2623 1.45603E+00 1.88993E+00 3.21703E-01
 -1      2624 1.18886E+00 2.06842E+00 3.21703E-01
 -1      2625-1.52742E+00 1.95088E+00 3.86970E-01
 -1      2626-1.27418E+00 1.90694E+00 3.57844E-01
 -1      2627-1.94396E+00 1.29892E+00 4.00651E-01
 -1      2628 4.65421E-01-2.33986E+00 4.61212E-01
 -1      2629-4.60120E-01 2.31317E+00 4.54597E-01
 -1      2630-2.35393E+00-6.31777E-01 4.01563E-01
 -1      2631-2.14076E+00 1.21957E+00 4.03837E-01
 -1      2632-1.10796E+00-2.18118E+00 2.89928E-01
 -1      2633 2.57277E+00 4.96591E-01 3.34268E-01
 -1      2634-2.28188E+00 7.85681E-01 1.50134E-01
 -1      2635 2.63238E+00-1.09733E+00 7.03809E-01
 -1      2636-2.27736E+00-4.53005E-01 4.25954E-01
 -1      2637-1.95088E+00 1.52742E+00 3.95667E-01
 -1      2638 2.44452E+00 4.78883E-01 3.90211E-01
 -1      2639-6.64582E-01-2.38690E+00 3.98021E-01
 -1      2640-3.62565E-01-2.31861E+00 3.50638E-01
 -1      2641-2.44452E+00-3.07494E-01 4.00823E-01
 -1      2642-2.38690E+00 6.64582E-01 3.60827E-01
 -1      2643-2.63945E+00-1.12500E-01 6.43182E-01
 -1      2644-1.21957E+00 2.14076E+00 3.91825E-01
 -1      2645-2.44452E+00 4.78883E-01 3.84602E-01
 -1      2646 4.55387E-01 2.28935E+00 3.95772E-01
 -1      2647 3.83463E-01-2.32462E+00 4.18458E-01
 -1      2648 1.42510E+00 1.95503E+00 4.24615E-01
 -1      2649 2.38690E+00 6.64582E-01 3.85938E-01
 -1      2650-1.27109E+00-1.90230E+00 4.07115E-01
 -1      2651 6.64582E-01 2.38690E+00 3.94633E-01
 -1      2652-2.35630E+00 4.68689E-01 4.15142E-01
 -1      2653 5.68465E-01-2.35158E+00 4.37347E-01
 -1      2654 2.44452E+00 3.07494E-01 4.12140E-01
 -1      2655 2.40398E+00-4.78161E-01 3.85144E-01
 -1      2656 1.89321E+00-1.45837E+00 3.54101E-01
 -1      2657-1.31799E+00-1.97251E+00 4.16265E-01
 -1      2658-1.99224E+00 1.33117E+00 4.39213E-01
 -1      2659 8.41981E-01-2.48102E+00 6.36918E-01
 -1      2660-2.31730E+00-4.60939E-01 4.52668E-01
 -1      2661-2.14076E+00-1.21957E+00 4.06992E-01
 -1      2662-2.00140E+00-1.33729E+00 4.52148E-01
 -1      2663 1.76229E+00 1.95805E+00 6.26597E-01
 -1      2664-2.33982E+00-3.71028E-01 4.01314E-01
 -1      2665 2.00175E+00 1.33753E+00 4.30102E-01
 -1      2666-4.49399E-01-2.25921E+00 4.09698E-01
 -1      2667-1.33753E+00 2.00175E+00 4.18642E-01
 -1      2668 1.29773E+00-1.94219E+00 3.82699E-01
 -1      2669 1.53743E+00-1.80016E+00 2.64174E-01
 -1      2670 2.25274E+00 4.48114E-01 4.11732E-01
 -1      2671-1.28504E+00 1.92318E+00 4.37151E-01
 -1      2672-1.96266E+00-1.31141E+00 4.54863E-01
 -1      2673-1.92394E+00-1.46283E+00 4.12772E-01
 -1      2674-2.03326E+00 2.06023E+00 9.03876E-02
 -1      2675 2.36123E+00 4.69668E-01 4.23651E-01
 -1      2676 1.93450E+00-1.29260E+00 4.46222E-01
 -1      2677-1.67579E+00-1.51669E+00 1.82292E-01
 -1      2678-1.94811E+00-1.78902E+00 5.09476E-01
 -1      2679-2.44452E+00 3.07494E-01 4.10938E-01
 -1      2680-1.12894E+00 2.37321E+00 6.50955E-01
 -1      2681-4.58371E-01-2.30437E+00 4.44974E-01
 -1      2682-9.63823E-02-2.10574E+00 2.22230E-01
 -1      2683-3.45641E-01-2.32100E+00-1.16645E-03
 -1      2684 1.25600E+00 2.07683E+00 4.17596E-01
 -1      2685 1.32542E+00 1.98363E+00 4.60493E-01
 -1      2686 1.09574E+00 2.50509E+00 7.12590E-01
 -1      2687 1.96346E+00 1.51180E+00 3.73299E-01
 -1      2688-2.29996E+00-5.48356E-01 4.08235E-01
 -1      2689-2.39442E+00-1.11357E+00 6.57503E-01
 -1      2690-2.17738E+00-6.78097E-01 2.95731E-01
 -1      2691 4.69668E-01 2.36123E+00 4.41087E-01
 -1      2692 1.21957E+00-2.14076E+00 3.93642E-01
 -1      2693 2.30441E+00 4.58380E-01 4.42045E-01
 -1      2694-5.64879E-01-2.30644E+00 3.67548E-01
 -1      2695-1.21957E+00-2.14076E+00 4.14113E-01
 -1      2696 2.05379E+00-1.26196E+00 4.38868E-01
 -1      2697-1.29741E+00-1.94170E+00 4.55606E-01
 -1      2698 2.26059E+00-4.49673E-01 3.65254E-01
 -1      2699-1.42510E+00-1.95503E+00 4.24837E-01
 -1      2700-1.91354E+00 9.14383E-01 2.01195E-01
 -1      2701-1.95016E+00 1.30306E+00 4.52415E-01
 -1      2702 3.07494E-01 2.44452E+00 4.02059E-01
 -1      2703-1.95635E+00-7.28430E-01-1.09327E-01
 -1      2704-2.81250E-01 2.26485E+00 3.31273E-01
 -1      2705 1.67441E+00 2.00677E+00 3.90115E-01
 -1      2706-2.63238E+00 1.09733E+00 7.03809E-01
 -1      2707-1.70634E+00-1.96828E+00 6.06460E-01
 -1      2708-1.95503E+00 1.42510E+00 4.36661E-01
 -1      2709-2.33986E+00 3.93750E-01 4.43693E-01
 -1      2710 2.27356E+00-1.18643E+00 4.74892E-01
 -1      2711 1.33753E+00-2.00175E+00 4.28126E-01
 -1      2712-1.07707E+00-2.48015E+00 5.33812E-01
 -1      2713 2.37522E+00-9.29588E-01 6.64778E-02
 -1      2714-1.31354E+00 1.96585E+00 4.48661E-01
 -1      2715-1.32542E+00-1.98363E+00 4.60676E-01
 -1      2716-6.85982E-02 1.96599E+00 8.99805E-02
 -1      2717 2.38690E+00-6.64582E-01 3.98028E-01
 -1      2718 1.95503E+00 1.42510E+00 4.38942E-01
 -1      2719-7.84499E-01-2.18793E+00 2.46459E-01
 -1      2720-5.51068E-01 2.20097E+00 3.55679E-01
 -1      2721 1.52742E+00-1.95088E+00 3.88523E-01
 -1      2722 1.95503E+00-1.42510E+00 4.32963E-01
 -1      2723 4.59037E-01 2.30772E+00 4.47404E-01
 -1      2724-2.25921E+00 4.49399E-01 4.22109E-01
 -1      2725 2.35158E+00 5.68465E-01 4.37915E-01
 -1      2726-5.68465E-01-2.35158E+00 4.49449E-01
 -1      2727-2.33986E+00 4.65421E-01 4.59477E-01
 -1      2728-3.79947E-01-2.38039E+00 4.44727E-01
 -1      2729-2.35158E+00 5.68465E-01 4.35330E-01
 -1      2730 2.32678E+00-4.62823E-01 4.16475E-01
 -1      2731 2.44452E+00-3.07494E-01 4.04984E-01
 -1      2732-2.05379E+00 1.26196E+00 4.43167E-01
 -1      2733 4.54696E-01-2.28587E+00 4.57475E-01
 -1      2734 2.05379E+00 1.26196E+00 4.43206E-01
 -1      2735-2.29083E+00 4.55681E-01 4.60317E-01
 -1      2736-1.22495E+00 2.00964E+00 3.85604E-01
 -1      2737-2.24785E+00 2.81250E-01 3.59516E-01
 -1      2738 1.30464E+00-1.95253E+00 4.42282E-01
 -1      2739 1.85887E+00-2.04268E+00 1.50033E-01
 -1      2740-1.26958E+00-2.05726E+00 4.27360E-01
 -1      2741 5.68465E-01 2.35158E+00 4.39556E-01
 -1      2742 2.38039E+00 3.79947E-01 4.41835E-01
 -1      2743-9.80481E-01 2.07311E+00 2.23263E-01
 -1      2744 1.96808E+00-1.70425E+00 6.05889E-01
 -1      2745-1.42510E+00 1.95503E+00 4.36889E-01
 -1      2746 3.79947E-01 2.38039E+00 4.44637E-01
 -1      2747-2.34043E+00 1.12316E+00 6.15061E-01
 -1      2748 2.35231E+00-5.66689E-01 4.25175E-01
 -1      2749 2.63945E+00-1.12500E-01 6.53705E-01
 -1      2750 2.19811E+00 1.20525E+00 5.73584E-01
 -1      2751-1.26196E+00 2.05379E+00 4.51740E-01
 -1      2752-6.78295E-01 2.01371E+00 1.24861E-01
 -1      2753 1.26196E+00-2.05379E+00 4.42818E-01
 -1      2754-1.75418E+00 1.96404E+00 6.34504E-01
 -1      2755-1.22987E+00-2.25969E+00 5.88973E-01
 -1      2756 1.42510E+00-1.95503E+00 4.38671E-01
 -1      2757 2.33986E+00-4.65421E-01 4.60793E-01
 -1      2758-2.47145E+00 8.23219E-01 6.06460E-01
 -1      2759-2.47145E+00-8.23219E-01 6.06460E-01
 -1      2760-1.20949E+00 2.18264E+00 5.67823E-01
 -1      2761 2.42214E+00 7.16682E-01 5.90600E-01
 -1      2762 2.37908E+00-3.78747E-01 4.30134E-01
 -1      2763 2.28189E+00-4.53905E-01 4.55256E-01
 -1      2764 1.96350E+00 1.58904E+00 5.90600E-01
 -1      2765 2.27617E+00-2.57786E-01 3.06443E-01
 -1      2766 1.20488E+00-2.20679E+00 5.80646E-01
 -3
    3C                          9034                                     1
 -1         1    3    0    1
 -2       223      1089       772       222
 -1         2    3    0    1
 -2      1083       219       225      1087
 -1         3    3    0    1
 -2      1644      2050      2146      2496
 -1         4    3    0    1
 -2       225       228       224       774
 -1         5    3    0    1
 -2       168      1036       174       167
 -1         6    3    0    1
 -2      2160      2052      2509      2168
 -1         7    3    0    1
 -2       659      1174      1171      1864
 -1         8    3    0    1
 -2       525       736       529       528
 -1         9    3    0    1
 -2      1537      1201      1591      1784
 -1        10    3    0    1
 -2       633      1138       638       635
 -1        11    3    0    1
 -2      1584      1546      1681      1758
 -1        12    3    0    1
 -2       531       986      1936      2081
 -1        13    3    0    1
 -2      1244      2486      2535      2621
 -1        14    3    0    1
 -2      1096      1107       607      1099
 -1        15    3    0    1
 -2       555       556       747      1698
 -1        16    3    0    1
 -2      1606      1531      1865      1873
 -1        17    3    0    1
 -2       381       384      2148      2156
 -1        18    3    0    1
 -2       623      1120      1766      1840
 -1        19    3    0    1
 -2      2692      1357      2753      2766
 -1        20    3    0    1
 -2        95        78        96       928
 -1        21    3    0    1
 -2        15        36      1557      1748
 -1        22    3    0    1
 -2        83        88       927       945
 -1        23    3    0    1
 -2       256      1114      1127      1128
 -1        24    3    0    1
 -2       316       806      1175      1996
 -1        25    3    0    1
 -2       490       925       495       485
 -1        26    3    0    1
 -2       532       984      1936      1971
 -1        27    3    0    1
 -2      1677      1762      1837      1977
 -1        28    3    0    1
 -2      1740      1580      2034      1963
 -1        29    3    0    1
 -2       196       336      1849      1933
 -1        30    3    0    1
 -2       453       859       710       863
 -1        31    3    0    1
 -2       965       405      1589      2045
 -1        32    3    0    1
 -2      1580      1740      2034      1545
 -1        33    3    0    1
 -2       241       245       776       779
 -1        34    3    0    1
 -2       328      1531      1570      1676
 -1        35    3    0    1
 -2       255       261       263       785
 -1        36    3    0    1
 -2       509       965       519       731
 -1        37    3    0    1
 -2       450       857       449       707
 -1        38    3    0    1
 -2       129       117       130       974
 -1        39    3    0    1
 -2      1843      1577      1983      2030
 -1        40    3    0    1
 -2        83        88      1987      2114
 -1        41    3    0    1
 -2       177       362       754      1794
 -1        42    3    0    1
 -2       427       236       240      1109
 -1        43    3    0    1
 -2      1618      1688      1727      1729
 -1        44    3    0    1
 -2      2486      1968      2549      2621
 -1        45    3    0    1
 -2       495       496       485       925
 -1        46    3    0    1
 -2       339      1601      1628      1764
 -1        47    3    0    1
 -2      1257      1258      2571      1340
 -1        48    3    0    1
 -2        33      1812      1829      1861
 -1        49    3    0    1
 -2        44       721       887       890
 -1        50    3    0    1
 -2      1525       858      1748      1774
 -1        51    3    0    1
 -2      1194       681       682      1655
 -1        52    3    0    1
 -2       936      1589      1761      1884
 -1        53    3    0    1
 -2      2526      2506      2565      2637
 -1        54    3    0    1
 -2      1889       915      1926      2000
 -1        55    3    0    1
 -2       395       921      1717      1783
 -1        56    3    0    1
 -2       174       363      1037      1724
 -1        57    3    0    1
 -2       826       680      1642      1925
 -1        58    3    0    1
 -2       977       982      1902      1970
 -1        59    3    0    1
 -2      1119      1527      1766      2010
 -1        60    3    0    1
 -2        56        39       879      2480
 -1        61    3    0    1
 -2      1074       766       586       768
 -1        62    3    0    1
 -2      1611       935      1737      1775
 -1        63    3    0    1
 -2       277      1142       790       275
 -1        64    3    0    1
 -2      2569      1378      1379      2655
 -1        65    3    0    1
 -2       981      1673      1759      1936
 -1        66    3    0    1
 -2       148      1011       748       149
 -1        67    3    0    1
 -2       322       137      1001      1691
 -1        68    3    0    1
 -2       619      1127       627       628
 -1        69    3    0    1
 -2       566       563      1035      1883
 -1        70    3    0    1
 -2      2665      1331      1475      1476
 -1        71    3    0    1
 -2       342       204       202      1073
 -1        72    3    0    1
 -2       504       940       500       505
 -1        73    3    0    1
 -2        81       937      1640      1775
 -1        74    3    0    1
 -2      1631      1846      1923      1988
 -1        75    3    0    1
 -2      1584      1546      1718      1800
 -1        76    3    0    1
 -2       468       481       899      1709
 -1        77    3    0    1
 -2      1532       416      1607      1708
 -1        78    3    0    1
 -2      1256      1397      2649      2761
 -1        79    3    0    1
 -2       274      1145       376       273
 -1        80    3    0    1
 -2       424      1574      1662      1745
 -1        81    3    0    1
 -2       473       890       721       896
 -1        82    3    0    1
 -2      1643      1549      1750      1751
 -1        83    3    0    1
 -2       721       896      1645      1826
 -1        84    3    0    1
 -2       117       967       984       985
 -1        85    3    0    1
 -2      1658      1574      1745      1992
 -1        86    3    0    1
 -2       521       982       977       968
 -1        87    3    0    1
 -2       354       100        98       732
 -1        88    3    0    1
 -2      1016       552      2497      2502
 -1        89    3    0    1
 -2       695       841      1653      1765
 -1        90    3    0    1
 -2      1633      1602      1869      1873
 -1        91    3    0    1
 -2       280       272       377      1145
 -1        92    3    0    1
 -2      2566      2538      2571      2623
 -1        93    3    0    1
 -2      1140       636      2103      2224
 -1        94    3    0    1
 -2       526       979       525       528
 -1        95    3    0    1
 -2      1766      1527      1804      1840
 -1        96    3    0    1
 -2      1034      1032      2540      2554
 -1        97    3    0    1
 -2       634      1143      1136       633
 -1        98    3    0    1
 -2       899       480       898      1693
 -1        99    3    0    1
 -2       506       942      1667      1889
 -1       100    3    0    1
 -2      2544      2527      2584      2593
 -1       101    3    0    1
 -2        61       915       912        59
 -1       102    3    0    1
 -2      1570      1659      1663      1665
 -1       103    3    0    1
 -2      1635       937      1685      2042
 -1       104    3    0    1
 -2      1146       641      1614      1857
 -1       105    3    0    1
 -2      1208       846      1571      1598
 -1       106    3    0    1
 -2        69        73        74       908
 -1       107    3    0    1
 -2       435       287      1762      1843
 -1       108    3    0    1
 -2       961       100       960       944
 -1       109    3    0    1
 -2       457       456       857      1810
 -1       110    3    0    1
 -2      1542      1947      1583      1996
 -1       111    3    0    1
 -2      1528       137      1651      1742
 -1       112    3    0    1
 -2      1569       187      1581      1682
 -1       113    3    0    1
 -2       339       340      1526      1646
 -1       114    3    0    1
 -2       685      1198       832      1711
 -1       115    3    0    1
 -2      1159      1160      1551      1946
 -1       116    3    0    1
 -2       747       556      1604      1912
 -1       117    3    0    1
 -2       411        53       904      1619
 -1       118    3    0    1
 -2      1583      1609      1862      1947
 -1       119    3    0    1
 -2        88        89        83       927
 -1       120    3    0    1
 -2      1982       939      1987      2114
 -1       121    3    0    1
 -2       578      1047       573       575
 -1       122    3    0    1
 -2       829       831      1679      1899
 -1       123    3    0    1
 -2      1664       602      1670      1874
 -1       124    3    0    1
 -2       474       896       473       479
 -1       125    3    0    1
 -2       152       149       162       748
 -1       126    3    0    1
 -2       562      1035       566       561
 -1       127    3    0    1
 -2       549       746       553       552
 -1       128    3    0    1
 -2      1050       360      2084      2153
 -1       129    3    0    1
 -2        10       712       866      1749
 -1       130    3    0    1
 -2        14         6       417       711
 -1       131    3    0    1
 -2       181       194       763      1055
 -1       132    3    0    1
 -2      2573      1312      1313      2611
 -1       133    3    0    1
 -2      2135       162      2499      2162
 -1       134    3    0    1
 -2      1613      1548      1714      1752
 -1       135    3    0    1
 -2      2217      2203      2239      2686
 -1       136    3    0    1
 -2        14         6       711       865
 -1       137    3    0    1
 -2       101       965       731       406
 -1       138    3    0    1
 -2      1777      1566      1981      2029
 -1       139    3    0    1
 -2       547      1012       747       548
 -1       140    3    0    1
 -2      1941      1552      1954      1958
 -1       141    3    0    1
 -2      1588      1542      1716      1736
 -1       142    3    0    1
 -2       626      1125      1766      1989
 -1       143    3    0    1
 -2      1641      1535      1688      1866
 -1       144    3    0    1
 -2       574      1052       578       573
 -1       145    3    0    1
 -2      1821      2521      2529      2677
 -1       146    3    0    1
 -2      1601      1031      1649      1754
 -1       147    3    0    1
 -2       363       323       747      1604
 -1       148    3    0    1
 -2      1544      1640      1668      1881
 -1       149    3    0    1
 -2       815       401      1544      1668
 -1       150    3    0    1
 -2       260      1120       259      1117
 -1       151    3    0    1
 -2       333       741      1021      1991
 -1       152    3    0    1
 -2       192      1601      1683      1850
 -1       153    3    0    1
 -2      1718      1584      1800      1875
 -1       154    3    0    1
 -2      2651      2686      2363      2420
 -1       155    3    0    1
 -2       489       918       914       906
 -1       156    3    0    1
 -2      1600      1569      1617      1653
 -1       157    3    0    1
 -2      1651      1528      1712      1916
 -1       158    3    0    1
 -2      1585      1582      1671      1876
 -1       159    3    0    1
 -2       663      1178       808      1676
 -1       160    3    0    1
 -2       221       366       230      1090
 -1       161    3    0    1
 -2       577       564      1051      1732
 -1       162    3    0    1
 -2       573      1048      1044       761
 -1       163    3    0    1
 -2      1293      2623      2648      2705
 -1       164    3    0    1
 -2       289       796      1158      1758
 -1       165    3    0    1
 -2       269      1127       258      1114
 -1       166    3    0    1
 -2      1599      1664      1670      1874
 -1       167    3    0    1
 -2       376       377      1145      2481
 -1       168    3    0    1
 -2      1204       297       328      1570
 -1       169    3    0    1
 -2      1010       148       748      1022
 -1       170    3    0    1
 -2      1856       604      1994      2169
 -1       171    3    0    1
 -2      1573      1537      1591      1646
 -1       172    3    0    1
 -2      1600      1536      1617      1850
 -1       173    3    0    1
 -2       785      1104      1986      2120
 -1       174    3    0    1
 -2      1564       899      1838      2048
 -1       175    3    0    1
 -2       514       732       509       730
 -1       176    3    0    1
 -2      1636      1809      1853      1995
 -1       177    3    0    1
 -2      2109      2072      2528      2634
 -1       178    3    0    1
 -2      2517      2482      2556      2592
 -1       179    3    0    1
 -2      1119       623      1125      1766
 -1       180    3    0    1
 -2       776      1104      1093       241
 -1       181    3    0    1
 -2        59        67        71       925
 -1       182    3    0    1
 -2       258      1119       256       426
 -1       183    3    0    1
 -2       880      1908       469      2505
 -1       184    3    0    1
 -2        29       716        26        30
 -1       185    3    0    1
 -2      1037       363      1604      1724
 -1       186    3    0    1
 -2       819       671       817      1714
 -1       187    3    0    1
 -2       566      1036      1623      1627
 -1       188    3    0    1
 -2       129       984      1003      1971
 -1       189    3    0    1
 -2      1003       543      1554      2024
 -1       190    3    0    1
 -2      1531      1570      1713      1782
 -1       191    3    0    1
 -2      1592      1553      1671      1707
 -1       192    3    0    1
 -2      1535      1688      1866      1886
 -1       193    3    0    1
 -2       504       940       939       500
 -1       194    3    0    1
 -2        24       416      1532      1549
 -1       195    3    0    1
 -2      1004       536       742       992
 -1       196    3    0    1
 -2       729       965       950       509
 -1       197    3    0    1
 -2        72        62       373       918
 -1       198    3    0    1
 -2       292      1165       441      1930
 -1       199    3    0    1
 -2       140       142       141       742
 -1       200    3    0    1
 -2      1595      1561      1792      1833
 -1       201    3    0    1
 -2       281      1144      2011      2044
 -1       202    3    0    1
 -2      1710      1643      1750      1751
 -1       203    3    0    1
 -2       590      1071      1757      1846
 -1       204    3    0    1
 -2       365       189       762      1967
 -1       205    3    0    1
 -2      1190      1189      1707      1741
 -1       206    3    0    1
 -2      2594      1348      2604      2651
 -1       207    3    0    1
 -2       882       876      1593      1824
 -1       208    3    0    1
 -2      1658       847      1805      1992
 -1       209    3    0    1
 -2       593      1081       774      1077
 -1       210    3    0    1
 -2      1122      1969      2031      2053
 -1       211    3    0    1
 -2      2679      1463      2396      2421
 -1       212    3    0    1
 -2       935        77        81       937
 -1       213    3    0    1
 -2       556      1604      1698      1830
 -1       214    3    0    1
 -2       144       143       136       987
 -1       215    3    0    1
 -2      1678      1631      1923      1988
 -1       216    3    0    1
 -2      1018      2490      1230      1231
 -1       217    3    0    1
 -2      1158      1584      1718      1875
 -1       218    3    0    1
 -2       676       675      1888      1899
 -1       219    3    0    1
 -2       194       360       181       763
 -1       220    3    0    1
 -2       926        62       373        72
 -1       221    3    0    1
 -2      2580      1302      2667      2751
 -1       222    3    0    1
 -2      1002       534       996       989
 -1       223    3    0    1
 -2        92       370        78       947
 -1       224    3    0    1
 -2       935       506       503      1761
 -1       225    3    0    1
 -2      1185      1186      1888      2002
 -1       226    3    0    1
 -2       100       961       354        98
 -1       227    3    0    1
 -2       340      1526      1686      1883
 -1       228    3    0    1
 -2      1582      1553      1671      1675
 -1       229    3    0    1
 -2       572      1055       759       571
 -1       230    3    0    1
 -2       350       142       140       742
 -1       231    3    0    1
 -2       119       341       981      2492
 -1       232    3    0    1
 -2      2058      1674      2478      2129
 -1       233    3    0    1
 -2       858       455       864      1938
 -1       234    3    0    1
 -2       837       306      1215      1915
 -1       235    3    0    1
 -2      1483      2644      2751      2760
 -1       236    3    0    1
 -2       507      1735      1834      1937
 -1       237    3    0    1
 -2      1560      1595      1770      1833
 -1       238    3    0    1
 -2      1195       683       684      1687
 -1       239    3    0    1
 -2      2237       713       466       715
 -1       240    3    0    1
 -2       802       316       804      1637
 -1       241    3    0    1
 -2      1539      1718      1875      1929
 -1       242    3    0    1
 -2       514       731       509       520
 -1       243    3    0    1
 -2      1181       667       668      1715
 -1       244    3    0    1
 -2       547      1021       555       747
 -1       245    3    0    1
 -2       718       884        30      1861
 -1       246    3    0    1
 -2       542       539       533       997
 -1       247    3    0    1
 -2      1207       422       444      1851
 -1       248    3    0    1
 -2      1198       685       686      1711
 -1       249    3    0    1
 -2       564      1032      1051      1732
 -1       250    3    0    1
 -2       766      1074      1058       203
 -1       251    3    0    1
 -2      1587      1630      1705      1869
 -1       252    3    0    1
 -2      1548      1715      1945      1955
 -1       253    3    0    1
 -2      1106      1610      1703      1773
 -1       254    3    0    1
 -2       570      1046       577       569
 -1       255    3    0    1
 -2       131       132       737      2296
 -1       256    3    0    1
 -2      1646      1628      1763      1764
 -1       257    3    0    1
 -2       567       568       559       755
 -1       258    3    0    1
 -2      1740      1545      1879      2023
 -1       259    3    0    1
 -2       292      1211       843      1930
 -1       260    3    0    1
 -2       401       299      1172      1842
 -1       261    3    0    1
 -2       626       621       623      1125
 -1       262    3    0    1
 -2      1998      1892      2014      2164
 -1       263    3    0    1
 -2      2273      2226      2277      2635
 -1       264    3    0    1
 -2      1619       904      1795      1799
 -1       265    3    0    1
 -2       501       939       500       504
 -1       266    3    0    1
 -2      1563      1726      1925      2002
 -1       267    3    0    1
 -2       942       503       506      1761
 -1       268    3    0    1
 -2       438      1564      1838      2063
 -1       269    3    0    1
 -2       538       740       738       537
 -1       270    3    0    1
 -2      1740      1545      1778      1879
 -1       271    3    0    1
 -2       711       460       883      1596
 -1       272    3    0    1
 -2      1074       591      1786      1939
 -1       273    3    0    1
 -2       308       432       830      2029
 -1       274    3    0    1
 -2       655       801       656      1626
 -1       275    3    0    1
 -2      2054      1760      2489      2145
 -1       276    3    0    1
 -2       551      1019      1015       545
 -1       277    3    0    1
 -2       537       740       541       540
 -1       278    3    0    1
 -2       507       947      1735      1937
 -1       279    3    0    1
 -2       645       795      1577      1843
 -1       280    3    0    1
 -2       129       329      1887      1971
 -1       281    3    0    1
 -2      1021       555       747      1698
 -1       282    3    0    1
 -2       448       327      1200      1591
 -1       283    3    0    1
 -2       273      1140       272       377
 -1       284    3    0    1
 -2       596      1085      1079       772
 -1       285    3    0    1
 -2       143       145       741       994
 -1       286    3    0    1
 -2      1523      1796      1800      1943
 -1       287    3    0    1
 -2       398        75      1825      1827
 -1       288    3    0    1
 -2       315       396      1818      1857
 -1       289    3    0    1
 -2      1846      1631      1923      1976
 -1       290    3    0    1
 -2       141       140       742       993
 -1       291    3    0    1
 -2       556       748      1893      2499
 -1       292    3    0    1
 -2      1559       264      1672      1788
 -1       293    3    0    1
 -2        24      1612      1710      1858
 -1       294    3    0    1
 -2       940       505      1987      2116
 -1       295    3    0    1
 -2      1188      1556      1707      1741
 -1       296    3    0    1
 -2      2511      2542      2596      2632
 -1       297    3    0    1
 -2       148       157       748      1022
 -1       298    3    0    1
 -2      2075      1863      2087      2524
 -1       299    3    0    1
 -2       294       412      1594      1871
 -1       300    3    0    1
 -2      1573      1704      1806      1860
 -1       301    3    0    1
 -2       884       471      1596      1861
 -1       302    3    0    1
 -2      2051      1859      2476      2483
 -1       303    3    0    1
 -2       278       282       792      1132
 -1       304    3    0    1
 -2        30       716      1690      2092
 -1       305    3    0    1
 -2      1927       731      1965      1999
 -1       306    3    0    1
 -2         4        10       712       866
 -1       307    3    0    1
 -2       235      1102       385       243
 -1       308    3    0    1
 -2       168       167       755      1026
 -1       309    3    0    1
 -2       970       969       117       976
 -1       310    3    0    1
 -2      1208      1571      1573      1598
 -1       311    3    0    1
 -2      1571      1208      1573      1591
 -1       312    3    0    1
 -2      1633       321      1713      1802
 -1       313    3    0    1
 -2       598       593       604       773
 -1       314    3    0    1
 -2       520       731      1934      1965
 -1       315    3    0    1
 -2        44      1539      1796      1828
 -1       316    3    0    1
 -2       736       529      1890      2077
 -1       317    3    0    1
 -2      1139      1638      2074      2224
 -1       318    3    0    1
 -2       919      1693      2105      2156
 -1       319    3    0    1
 -2       264      1728      1755      1788
 -1       320    3    0    1
 -2       493       492       917      2686
 -1       321    3    0    1
 -2       496       495       485       926
 -1       322    3    0    1
 -2       219      1081      1077       774
 -1       323    3    0    1
 -2      2096      2482      2551      2554
 -1       324    3    0    1
 -2       325      1015      1811      1952
 -1       325    3    0    1
 -2      1180       809      1688      1886
 -1       326    3    0    1
 -2      1540      1663      1720      1782
 -1       327    3    0    1
 -2       713        28      2225      2287
 -1       328    3    0    1
 -2      2495      2562      2622      2649
 -1       329    3    0    1
 -2        62       919       918        72
 -1       330    3    0    1
 -2       963       404      1966      1995
 -1       331    3    0    1
 -2      1568      1711      1814      1907
 -1       332    3    0    1
 -2       804       657       802      1803
 -1       333    3    0    1
 -2       206       768       203       211
 -1       334    3    0    1
 -2      2014      2164      2166      2201
 -1       335    3    0    1
 -2       582       767       589       588
 -1       336    3    0    1
 -2       186       197       762      1042
 -1       337    3    0    1
 -2       526       979       975       525
 -1       338    3    0    1
 -2       426       268      1127      2010
 -1       339    3    0    1
 -2      2205      1263      2264      2284
 -1       340    3    0    1
 -2      1535      1641      1727      1729
 -1       341    3    0    1
 -2       935       506      1761      1775
 -1       342    3    0    1
 -2       645      1155       795      1843
 -1       343    3    0    1
 -2       549       746       552      1017
 -1       344    3    0    1
 -2      1077       219       774      1092
 -1       345    3    0    1
 -2      1571      1573      1598      1704
 -1       346    3    0    1
 -2       313       849       442      1669
 -1       347    3    0    1
 -2      1046      1033      2159      2186
 -1       348    3    0    1
 -2      1629      1558      1805      1851
 -1       349    3    0    1
 -2        45        44       887       890
 -1       350    3    0    1
 -2      2088      2181      2523      2193
 -1       351    3    0    1
 -2       375       378      2611      1425
 -1       352    3    0    1
 -2       325       321      1015      1802
 -1       353    3    0    1
 -2      1048       187      1052      1682
 -1       354    3    0    1
 -2       731       520      1927      1965
 -1       355    3    0    1
 -2       834       422      1213      1851
 -1       356    3    0    1
 -2      1546      1626      1643      1681
 -1       357    3    0    1
 -2      2570      1285      2613      1401
 -1       358    3    0    1
 -2      1031       563      1649      1754
 -1       359    3    0    1
 -2       899       382       438      1838
 -1       360    3    0    1
 -2       774       604      1856      2169
 -1       361    3    0    1
 -2       483       484       475       903
 -1       362    3    0    1
 -2       225       224       219       774
 -1       363    3    0    1
 -2      1574       424      1662      1867
 -1       364    3    0    1
 -2       945        88       966      2515
 -1       365    3    0    1
 -2       922       487       915       911
 -1       366    3    0    1
 -2       463       884       718       471
 -1       367    3    0    1
 -2      1588      1637      1803      1818
 -1       368    3    0    1
 -2        35        19        38       717
 -1       369    3    0    1
 -2       125       974       117       967
 -1       370    3    0    1
 -2       281       276       421      1144
 -1       371    3    0    1
 -2        92        95       936      1589
 -1       372    3    0    1
 -2       519       520      1934      1965
 -1       373    3    0    1
 -2      1635      1657      2034      2037
 -1       374    3    0    1
 -2      1604      1037      1724      1855
 -1       375    3    0    1
 -2       143       741       987       994
 -1       376    3    0    1
 -2       490       926       485       495
 -1       377    3    0    1
 -2       590      1846      1885      1923
 -1       378    3    0    1
 -2       822       673       820      1871
 -1       379    3    0    1
 -2      2595      1426      2676      2696
 -1       380    3    0    1
 -2       360       195       763      2507
 -1       381    3    0    1
 -2      1061      1071      1063       204
 -1       382    3    0    1
 -2       278      1137       276       421
 -1       383    3    0    1
 -2      1068       588      1083      2111
 -1       384    3    0    1
 -2      1544      1605      1842      1864
 -1       385    3    0    1
 -2       609      1104       613       608
 -1       386    3    0    1
 -2      2510      2501      2539      2561
 -1       387    3    0    1
 -2        68       395       921      1717
 -1       388    3    0    1
 -2      2007      2136      2522      2739
 -1       389    3    0    1
 -2       177       362       165       754
 -1       390    3    0    1
 -2       562      1030      1027       561
 -1       391    3    0    1
 -2        29       884        22        30
 -1       392    3    0    1
 -2       202      1057      1072      1073
 -1       393    3    0    1
 -2       125       974       126       117
 -1       394    3    0    1
 -2      1037       567      1747      1893
 -1       395    3    0    1
 -2       940       918      2116      2167
 -1       396    3    0    1
 -2      1604      1037      1855      1893
 -1       397    3    0    1
 -2       363       174      1036      1724
 -1       398    3    0    1
 -2      2564      2598      2619      2692
 -1       399    3    0    1
 -2       526       528      2218      2232
 -1       400    3    0    1
 -2      1773      1085      1897      1904
 -1       401    3    0    1
 -2      1794       177      1891      2094
 -1       402    3    0    1
 -2       602       596       599      1090
 -1       403    3    0    1
 -2      2484      1086      1237      1238
 -1       404    3    0    1
 -2      1142       424      1575      1867
 -1       405    3    0    1
 -2       452       866       451       459
 -1       406    3    0    1
 -2       219      1081       774       224
 -1       407    3    0    1
 -2      1568      1820      1964      1988
 -1       408    3    0    1
 -2       135       350       139       999
 -1       409    3    0    1
 -2      1907      1964      1814      1568
 -1       410    3    0    1
 -2       144       145       143       994
 -1       411    3    0    1
 -2      2610      2638      2649      2725
 -1       412    3    0    1
 -2      2543      2587      2642      2645
 -1       413    3    0    1
 -2       859         7       863      1973
 -1       414    3    0    1
 -2       214      1780      1917      1940
 -1       415    3    0    1
 -2      1652      1030      1724      1883
 -1       416    3    0    1
 -2      1662      1142      1840      1867
 -1       417    3    0    1
 -2      1649      1652      1683      1754
 -1       418    3    0    1
 -2      1610      1563      1648      1904
 -1       419    3    0    1
 -2       463       464       472       718
 -1       420    3    0    1
 -2       255       262       263      1129
 -1       421    3    0    1
 -2      2150      2097      2503      2183
 -1       422    3    0    1
 -2      1623      1686      1811      1952
 -1       423    3    0    1
 -2       425      1572      1672      1755
 -1       424    3    0    1
 -2       838       694      1677      1762
 -1       425    3    0    1
 -2       251      1109       380       239
 -1       426    3    0    1
 -2       478       898       894       477
 -1       427    3    0    1
 -2        44       394       721      1645
 -1       428    3    0    1
 -2       257      1128      1115       256
 -1       429    3    0    1
 -2       484       483       902      1772
 -1       430    3    0    1
 -2       841      1972       326       844
 -1       431    3    0    1
 -2       513       958       956       954
 -1       432    3    0    1
 -2      1561      1642      1746      1831
 -1       433    3    0    1
 -2       863      1878      1938      1973
 -1       434    3    0    1
 -2       428      1085      1610      1904
 -1       435    3    0    1
 -2       331       817      1533      1661
 -1       436    3    0    1
 -2       606      1101       611       614
 -1       437    3    0    1
 -2       576       589      2142      2525
 -1       438    3    0    1
 -2       143       144       136       990
 -1       439    3    0    1
 -2      1648      1563      1882      1904
 -1       440    3    0    1
 -2       937       935      1761      1775
 -1       441    3    0    1
 -2       413       293      1166      1684
 -1       442    3    0    1
 -2       547       548       556       748
 -1       443    3    0    1
 -2       527       530      1847      1961
 -1       444    3    0    1
 -2       602      1090      1897      1900
 -1       445    3    0    1
 -2       137      1001      1691      2004
 -1       446    3    0    1
 -2       471       463       472       718
 -1       447    3    0    1
 -2      1157       647      1156      1875
 -1       448    3    0    1
 -2      1036       363      1623      1627
 -1       449    3    0    1
 -2       563      1031      1035      1883
 -1       450    3    0    1
 -2       412       294       820      1871
 -1       451    3    0    1
 -2       603       593       604       774
 -1       452    3    0    1
 -2       236      1107       427       240
 -1       453    3    0    1
 -2       621      1120       784      1124
 -1       454    3    0    1
 -2       759       571       763      1041
 -1       455    3    0    1
 -2       935      1611      1667      1775
 -1       456    3    0    1
 -2       919       493      2076      2105
 -1       457    3    0    1
 -2      1167       653      1166      1684
 -1       458    3    0    1
 -2       622      1125      1118       621
 -1       459    3    0    1
 -2       718        29       872       873
 -1       460    3    0    1
 -2      1552       415      1721      1910
 -1       461    3    0    1
 -2      1849      1047      1922      1976
 -1       462    3    0    1
 -2       460       712      1596      1749
 -1       463    3    0    1
 -2       463       884       872       718
 -1       464    3    0    1
 -2       654       653      1684      1702
 -1       465    3    0    1
 -2       287       435       795      1843
 -1       466    3    0    1
 -2       712       884      1596      2477
 -1       467    3    0    1
 -2       335       333      1021      1991
 -1       468    3    0    1
 -2       522       977       971       521
 -1       469    3    0    1
 -2       152       149       748      1011
 -1       470    3    0    1
 -2      1336      2233      2250      2328
 -1       471    3    0    1
 -2      1283      1357      2598      2692
 -1       472    3    0    1
 -2      1047       575      1631      1923
 -1       473    3    0    1
 -2       534      1002       539       533
 -1       474    3    0    1
 -2       280       793      1739      2513
 -1       475    3    0    1
 -2       487       922       491       486
 -1       476    3    0    1
 -2       683       830      1679      1687
 -1       477    3    0    1
 -2      1251      2278      2314      2315
 -1       478    3    0    1
 -2      1619       895      1797      1827
 -1       479    3    0    1
 -2       122       117       969       983
 -1       480    3    0    1
 -2       438       382        43       905
 -1       481    3    0    1
 -2       396      1541      1818      1857
 -1       482    3    0    1
 -2       480       899       477       481
 -1       483    3    0    1
 -2      2087      1644      2146      2496
 -1       484    3    0    1
 -2      1523       394      1796      1901
 -1       485    3    0    1
 -2        12        10         4       866
 -1       486    3    0    1
 -2        48        44       721       887
 -1       487    3    0    1
 -2       146      1003       987       136
 -1       488    3    0    1
 -2      1590      1528      1651      1742
 -1       489    3    0    1
 -2      1113       253       780      2282
 -1       490    3    0    1
 -2       484       483       475       902
 -1       491    3    0    1
 -2       921      1624      1783      1959
 -1       492    3    0    1
 -2       482       901      1722      1822
 -1       493    3    0    1
 -2       339      1031      1601      1754
 -1       494    3    0    1
 -2       248      1108      1217      2176
 -1       495    3    0    1
 -2       655      1169       800      1626
 -1       496    3    0    1
 -2       479       473       721       896
 -1       497    3    0    1
 -2        25       877       868       870
 -1       498    3    0    1
 -2       310       832      1198      1848
 -1       499    3    0    1
 -2       374        87      1785      2498
 -1       500    3    0    1
 -2       918       492      1957      2076
 -1       501    3    0    1
 -2      1525      1557      1700      1733
 -1       502    3    0    1
 -2       452       866       854       451
 -1       503    3    0    1
 -2      1241      2567      1363      2673
 -1       504    3    0    1
 -2       902       382       381      2504
 -1       505    3    0    1
 -2       502       948       934       497
 -1       506    3    0    1
 -2      1033      2094      2159      2186
 -1       507    3    0    1
 -2      1687      1679      1777      2029
 -1       508    3    0    1
 -2        19        21        38       717
 -1       509    3    0    1
 -2      1021       555      1698      1911
 -1       510    3    0    1
 -2       575      1048      1052      1922
 -1       511    3    0    1
 -2       250       228      1993      2545
 -1       512    3    0    1
 -2       325       321      1713      1782
 -1       513    3    0    1
 -2       452       865       451       853
 -1       514    3    0    1
 -2      2500      1224      1250      2599
 -1       515    3    0    1
 -2      1557       882      1733      1748
 -1       516    3    0    1
 -2       831      1620      1679      1899
 -1       517    3    0    1
 -2      1640      1580      1668      1963
 -1       518    3    0    1
 -2       517       516      1760      2489
 -1       519    3    0    1
 -2      2569      2503      2614      2765
 -1       520    3    0    1
 -2       651      1590      1164       652
 -1       521    3    0    1
 -2       308      1687      1981      2029
 -1       522    3    0    1
 -2      1530      1606      1865      1873
 -1       523    3    0    1
 -2       898       899      1693      1838
 -1       524    3    0    1
 -2       554      1020      1696      1738
 -1       525    3    0    1
 -2       554      1019      1802      1836
 -1       526    3    0    1
 -2       495       925      1772      1790
 -1       527    3    0    1
 -2       499       936       498       931
 -1       528    3    0    1
 -2       236       778      1109      1110
 -1       529    3    0    1
 -2      1108      1129      2013      2041
 -1       530    3    0    1
 -2       175       754       750       165
 -1       531    3    0    1
 -2       330       143       996      1975
 -1       532    3    0    1
 -2       663      1176      1606      1676
 -1       533    3    0    1
 -2      1641      1621      1727      1729
 -1       534    3    0    1
 -2      1258      1294      1309      2395
 -1       535    3    0    1
 -2       476       903       475       484
 -1       536    3    0    1
 -2       587       590      1071      1757
 -1       537    3    0    1
 -2      1800      1584      1828      1875
 -1       538    3    0    1
 -2       966       730        98       951
 -1       539    3    0    1
 -2       626       623      1124      1766
 -1       540    3    0    1
 -2       384       381      2148      2504
 -1       541    3    0    1
 -2       671       819       672      1714
 -1       542    3    0    1
 -2        61       924       724       909
 -1       543    3    0    1
 -2      1572      1597      1603      1672
 -1       544    3    0    1
 -2       617      1122       785       624
 -1       545    3    0    1
 -2       730       966       732       509
 -1       546    3    0    1
 -2       509       966       732       519
 -1       547    3    0    1
 -2        42       895       889       888
 -1       548    3    0    1
 -2      1248      2654      2316      2338
 -1       549    3    0    1
 -2       527      1847      1872      1902
 -1       550    3    0    1
 -2        10       436       712      2477
 -1       551    3    0    1
 -2       322      1651      1691      1705
 -1       552    3    0    1
 -2      1065       587      1071      1757
 -1       553    3    0    1
 -2      2407      2631      2444      2445
 -1       554    3    0    1
 -2       807       661       805      1862
 -1       555    3    0    1
 -2       750      1033      1023       165
 -1       556    3    0    1
 -2       648      1158      1718      1875
 -1       557    3    0    1
 -2        33       718      1829      2134
 -1       558    3    0    1
 -2       712       460       459      1749
 -1       559    3    0    1
 -2        44       721       896      1645
 -1       560    3    0    1
 -2       174       167       337       755
 -1       561    3    0    1
 -2      1919       612      2123      2541
 -1       562    3    0    1
 -2       340      1035      1686      1811
 -1       563    3    0    1
 -2       492      2203      2217      2686
 -1       564    3    0    1
 -2      1069      2493      1271      2712
 -1       565    3    0    1
 -2      1780       365      1967      1976
 -1       566    3    0    1
 -2        83        89        90       927
 -1       567    3    0    1
 -2      1625       434      1880      2030
 -1       568    3    0    1
 -2        72       926      1789      1791
 -1       569    3    0    1
 -2       229      1090       366       221
 -1       570    3    0    1
 -2       496       924       925      1622
 -1       571    3    0    1
 -2       522       977       521       527
 -1       572    3    0    1
 -2         4         5        12       866
 -1       573    3    0    1
 -2       462       881       877       868
 -1       574    3    0    1
 -2      1668      1650      1962      1963
 -1       575    3    0    1
 -2        26       879        33       716
 -1       576    3    0    1
 -2       636       457      1810      2074
 -1       577    3    0    1
 -2        30        26        33       716
 -1       578    3    0    1
 -2       813       667       811      1945
 -1       579    3    0    1
 -2       597      1089       602       596
 -1       580    3    0    1
 -2        26        39        32       718
 -1       581    3    0    1
 -2      1542      1588      1637      1803
 -1       582    3    0    1
 -2        26        29       718       873
 -1       583    3    0    1
 -2       485       924       909       724
 -1       584    3    0    1
 -2       210      1070      1060       205
 -1       585    3    0    1
 -2      1212      1571      1598      1931
 -1       586    3    0    1
 -2        13       864        14         6
 -1       587    3    0    1
 -2       540       553      2106      2497
 -1       588    3    0    1
 -2      1982      2071      2144      2512
 -1       589    3    0    1
 -2      1684      1594      1702      1708
 -1       590    3    0    1
 -2       322      1587      1630      1705
 -1       591    3    0    1
 -2       125       970       969       117
 -1       592    3    0    1
 -2      1590      1162      1712      1916
 -1       593    3    0    1
 -2      2616      1221      2284      2405
 -1       594    3    0    1
 -2       382       902      2063      2100
 -1       595    3    0    1
 -2       768      1092      2112      2508
 -1       596    3    0    1
 -2       879       468       899      1709
 -1       597    3    0    1
 -2        91       399       947      1735
 -1       598    3    0    1
 -2       498       935       506       503
 -1       599    3    0    1
 -2      1696       554      1738      1985
 -1       600    3    0    1
 -2      1647      1553      1706      1910
 -1       601    3    0    1
 -2      1163      1164      1712      1866
 -1       602    3    0    1
 -2       337       345      1030      1652
 -1       603    3    0    1
 -2       902        52        43       892
 -1       604    3    0    1
 -2      1532        24      1549      1750
 -1       605    3    0    1
 -2       394      1523      1796      1800
 -1       606    3    0    1
 -2       926        72      1789      2504
 -1       607    3    0    1
 -2       926        69       923       373
 -1       608    3    0    1
 -2      1164      1590      1866      1886
 -1       609    3    0    1
 -2       189      1053       336      1849
 -1       610    3    0    1
 -2      2103       387      2139      2194
 -1       611    3    0    1
 -2        86        91       728       947
 -1       612    3    0    1
 -2      2570      1283      2598      2692
 -1       613    3    0    1
 -2      1548      1613      1730      2005
 -1       614    3    0    1
 -2       478       898       477       480
 -1       615    3    0    1
 -2      1181       812      1632      1946
 -1       616    3    0    1
 -2       755      1054      1652      1933
 -1       617    3    0    1
 -2      1950      2163      2107      1998
 -1       618    3    0    1
 -2      1120      1572      1755      1766
 -1       619    3    0    1
 -2      2534      1246      1301      2580
 -1       620    3    0    1
 -2       222      1085       772      1079
 -1       621    3    0    1
 -2        46        42       903       904
 -1       622    3    0    1
 -2       313      1214       835      1669
 -1       623    3    0    1
 -2      2106      1768      2497      2502
 -1       624    3    0    1
 -2       350       139      1787      1921
 -1       625    3    0    1
 -2       192      1600      1617      1850
 -1       626    3    0    1
 -2       243       244      1097      1098
 -1       627    3    0    1
 -2      1598      1571      1704      1931
 -1       628    3    0    1
 -2      1859      2051      2476      2493
 -1       629    3    0    1
 -2       935       503       937      1761
 -1       630    3    0    1
 -2       635      1138      1534      1578
 -1       631    3    0    1
 -2      1593       882      1824      1896
 -1       632    3    0    1
 -2      1359      1360      2602      1389
 -1       633    3    0    1
 -2      1542      1583      1716      1736
 -1       634    3    0    1
 -2       167       166       755      1026
 -1       635    3    0    1
 -2      2538      1269      1294      2624
 -1       636    3    0    1
 -2       546      1014       551       545
 -1       637    3    0    1
 -2      2164      2107      2527      2201
 -1       638    3    0    1
 -2       747       556      1037      1604
 -1       639    3    0    1
 -2       187       192       761      1052
 -1       640    3    0    1
 -2      1562        44      1767      1959
 -1       641    3    0    1
 -2       781      1122       617      1112
 -1       642    3    0    1
 -2       580       579       763      1579
 -1       643    3    0    1
 -2      1539      1718      1800      1875
 -1       644    3    0    1
 -2      1902       530      1961      1970
 -1       645    3    0    1
 -2      2554      1034      2689      2759
 -1       646    3    0    1
 -2       632      1144       639       631
 -1       647    3    0    1
 -2       571       759       763      1055
 -1       648    3    0    1
 -2       585      1071      1063       584
 -1       649    3    0    1
 -2       883       711      1596      1748
 -1       650    3    0    1
 -2      1549       293      1684      1751
 -1       651    3    0    1
 -2      1031       563      1754      1883
 -1       652    3    0    1
 -2      1615       433      1756      1815
 -1       653    3    0    1
 -2        35       882      1748      1896
 -1       654    3    0    1
 -2      1684      1532      1708      1751
 -1       655    3    0    1
 -2       147      1012       747      1005
 -1       656    3    0    1
 -2       137       138       133       988
 -1       657    3    0    1
 -2       979      1845      2061      2131
 -1       658    3    0    1
 -2       799       289       801      1758
 -1       659    3    0    1
 -2       602      1089      1670      1874
 -1       660    3    0    1
 -2       193       188       187       761
 -1       661    3    0    1
 -2       117       122       967       985
 -1       662    3    0    1
 -2       845       699      1666      1694
 -1       663    3    0    1
 -2       924        67       925      1622
 -1       664    3    0    1
 -2       463       718       872       873
 -1       665    3    0    1
 -2      1533      1524      1661      1752
 -1       666    3    0    1
 -2      2553      1278      1319      2641
 -1       667    3    0    1
 -2      1714       672       818      1753
 -1       668    3    0    1
 -2      2564      2522      2598      2692
 -1       669    3    0    1
 -2      2322      1401      2324      2367
 -1       670    3    0    1
 -2       480       899       898       477
 -1       671    3    0    1
 -2       214       365      1073      1780
 -1       672    3    0    1
 -2       518       512       515       957
 -1       673    3    0    1
 -2       697       699       845      1694
 -1       674    3    0    1
 -2       463       464       718       873
 -1       675    3    0    1
 -2       427      1110      1942      2035
 -1       676    3    0    1
 -2       527       983       976      1847
 -1       677    3    0    1
 -2      1236      2293      2361      2420
 -1       678    3    0    1
 -2      1158       796      1718      1758
 -1       679    3    0    1
 -2      1694      1666      1705      1916
 -1       680    3    0    1
 -2        21        23       717       874
 -1       681    3    0    1
 -2       124       348      1779      1809
 -1       682    3    0    1
 -2       294       798      1168      1594
 -1       683    3    0    1
 -2       494       491       486       916
 -1       684    3    0    1
 -2      1594      1555      1607      1958
 -1       685    3    0    1
 -2      2535      1306      1307      2597
 -1       686    3    0    1
 -2      1523       394      1612      1800
 -1       687    3    0    1
 -2      1566      1625      1880      1983
 -1       688    3    0    1
 -2       187       761      1048      1052
 -1       689    3    0    1
 -2       377       280      1145      1739
 -1       690    3    0    1
 -2      1161      1778      1879      2020
 -1       691    3    0    1
 -2       190       181       360       763
 -1       692    3    0    1
 -2       453       458       455       863
 -1       693    3    0    1
 -2      1178       663       664      1676
 -1       694    3    0    1
 -2       748       556      1698      1830
 -1       695    3    0    1
 -2      2523      2093      2682      2683
 -1       696    3    0    1
 -2      2559      1270      1320      2699
 -1       697    3    0    1
 -2       380      1109      1841      1942
 -1       698    3    0    1
 -2      1138       420      1662      1876
 -1       699    3    0    1
 -2        86       942       370        78
 -1       700    3    0    1
 -2      1551       650      1879      1946
 -1       701    3    0    1
 -2      2475      1725      2076      2091
 -1       702    3    0    1
 -2       732       986      2081      2494
 -1       703    3    0    1
 -2       758      1050       181      1046
 -1       704    3    0    1
 -2       587      1066      1664      1670
 -1       705    3    0    1
 -2      1018      2490      2155      2497
 -1       706    3    0    1
 -2      1535      1621      1641      1729
 -1       707    3    0    1
 -2       946       508       965      2012
 -1       708    3    0    1
 -2       496      1622      1791      1834
 -1       709    3    0    1
 -2      1699       742      1911      2080
 -1       710    3    0    1
 -2         8       863         7       415
 -1       711    3    0    1
 -2       118       977       332       116
 -1       712    3    0    1
 -2      1921       139      2061      2073
 -1       713    3    0    1
 -2      1069      1067      2051      2493
 -1       714    3    0    1
 -2       595      1083       601       594
 -1       715    3    0    1
 -2       330       329      1003      1903
 -1       716    3    0    1
 -2        82       368      2590      2629
 -1       717    3    0    1
 -2       451       853       711       852
 -1       718    3    0    1
 -2      1531      1178      1606      1676
 -1       719    3    0    1
 -2       298       291      1866      1886
 -1       720    3    0    1
 -2       840       310      1776      1848
 -1       721    3    0    1
 -2       923       485       723       926
 -1       722    3    0    1
 -2       453       859       855       710
 -1       723    3    0    1
 -2       249      1107      1703      1928
 -1       724    3    0    1
 -2       126       130       117       974
 -1       725    3    0    1
 -2      1101       380      1956      2017
 -1       726    3    0    1
 -2      2394      1452      2395      2413
 -1       727    3    0    1
 -2      1842      1816      1864      1951
 -1       728    3    0    1
 -2      1606      1176      1639      1865
 -1       729    3    0    1
 -2       123       125       122       967
 -1       730    3    0    1
 -2       941      2486      1243      1244
 -1       731    3    0    1
 -2      2496      2151      2185      2700
 -1       732    3    0    1
 -2      1544        81      1580      1640
 -1       733    3    0    1
 -2      1050      1046       576      1807
 -1       734    3    0    1
 -2      1782      1633      1865      1873
 -1       735    3    0    1
 -2      1993       225      2170      2545
 -1       736    3    0    1
 -2      1015      1540      1802      1836
 -1       737    3    0    1
 -2       219       225       774      1092
 -1       738    3    0    1
 -2      1927       531      1936      2081
 -1       739    3    0    1
 -2      1053       578      1683      1849
 -1       740    3    0    1
 -2       117       976       983      1847
 -1       741    3    0    1
 -2      1628      1536      1763      1764
 -1       742    3    0    1
 -2      1888      1563      1953      2002
 -1       743    3    0    1
 -2      1559      1603      1629      1669
 -1       744    3    0    1
 -2       323       747      1604      1912
 -1       745    3    0    1
 -2       396      1146      1614      1857
 -1       746    3    0    1
 -2       342       202       213      1073
 -1       747    3    0    1
 -2       139      1787      1921      2061
 -1       748    3    0    1
 -2      1106       243      1610      1793
 -1       749    3    0    1
 -2       530       982      1853      1970
 -1       750    3    0    1
 -2       155      1015       325       154
 -1       751    3    0    1
 -2       120       979       121       113
 -1       752    3    0    1
 -2       122       117       983      1847
 -1       753    3    0    1
 -2      1626      1546      1643      1750
 -1       754    3    0    1
 -2       694       850       838      1677
 -1       755    3    0    1
 -2       333       335      1738      1991
 -1       756    3    0    1
 -2         7      1607      1700      1954
 -1       757    3    0    1
 -2      1214       442      1559      1669
 -1       758    3    0    1
 -2      1689      1872      1887      1903
 -1       759    3    0    1
 -2       272       280       387       793
 -1       760    3    0    1
 -2       259      1124      1120       264
 -1       761    3    0    1
 -2       641      1148       794      1857
 -1       762    3    0    1
 -2       539       996      1823      1975
 -1       763    3    0    1
 -2       781      1122      1112       255
 -1       764    3    0    1
 -2      1657      1966      2018      2023
 -1       765    3    0    1
 -2       122       117       125       969
 -1       766    3    0    1
 -2      1726      1610      1746      1793
 -1       767    3    0    1
 -2      2211      2190      2576      2289
 -1       768    3    0    1
 -2       522       976       527       521
 -1       769    3    0    1
 -2       469       716       861      1690
 -1       770    3    0    1
 -2       204       214      1057      1073
 -1       771    3    0    1
 -2        78       936       930       942
 -1       772    3    0    1
 -2       853       451       711       865
 -1       773    3    0    1
 -2      1754      1601      1764      1850
 -1       774    3    0    1
 -2       210      1070       205       343
 -1       775    3    0    1
 -2      1553      1647      1706      1798
 -1       776    3    0    1
 -2       536       742       992       993
 -1       777    3    0    1
 -2       750      1033       558      1023
 -1       778    3    0    1
 -2       579       580       762      1967
 -1       779    3    0    1
 -2       918       919       492      2076
 -1       780    3    0    1
 -2      1015      1627      1811      1952
 -1       781    3    0    1
 -2       882      1593      1733      1748
 -1       782    3    0    1
 -2        70       383      2214      2589
 -1       783    3    0    1
 -2      1030       345      1649      1652
 -1       784    3    0    1
 -2       192       193       187       761
 -1       785    3    0    1
 -2       558      1033       565       557
 -1       786    3    0    1
 -2      1580        81      1635      1640
 -1       787    3    0    1
 -2       997      1001      1689      1691
 -1       788    3    0    1
 -2      1536      1600      1764      1850
 -1       789    3    0    1
 -2      2178      2056      2549      2557
 -1       790    3    0    1
 -2      2050      2087      2146      2496
 -1       791    3    0    1
 -2       527       982       977       521
 -1       792    3    0    1
 -2      1548      1714      1752      1808
 -1       793    3    0    1
 -2       572      1054       579       571
 -1       794    3    0    1
 -2       184       186       189       762
 -1       795    3    0    1
 -2       366       229       221      1091
 -1       796    3    0    1
 -2       485       923       496       926
 -1       797    3    0    1
 -2       201      1074       199       359
 -1       798    3    0    1
 -2      1583      1609      1717      1898
 -1       799    3    0    1
 -2       162       149       158       748
 -1       800    3    0    1
 -2       649      1160       650      1551
 -1       801    3    0    1
 -2      1845       119      2061      2131
 -1       802    3    0    1
 -2       120       981       113       121
 -1       803    3    0    1
 -2       227      1092       357       219
 -1       804    3    0    1
 -2       264      1728      1586      1124
 -1       805    3    0    1
 -2       426       391      1119      1527
 -1       806    3    0    1
 -2       807       805      1816      1862
 -1       807    3    0    1
 -2      1946      1551      2018      2023
 -1       808    3    0    1
 -2       143       136       987      1003
 -1       809    3    0    1
 -2       175       754       165       362
 -1       810    3    0    1
 -2       340      1686      1806      1811
 -1       811    3    0    1
 -2       471       712       884      1596
 -1       812    3    0    1
 -2       461       882       876       470
 -1       813    3    0    1
 -2       593      1081       598       774
 -1       814    3    0    1
 -2        83       940       939      1987
 -1       815    3    0    1
 -2       334       157      1022      2055
 -1       816    3    0    1
 -2      1192       679       680      1925
 -1       817    3    0    1
 -2       370        91      1735      1884
 -1       818    3    0    1
 -2       904       483       903      1795
 -1       819    3    0    1
 -2       855         7       710       859
 -1       820    3    0    1
 -2       775      2235      2238      2245
 -1       821    3    0    1
 -2       550      1017      1013       549
 -1       822    3    0    1
 -2       815      1544      1650      1668
 -1       823    3    0    1
 -2      1043      1053       184      1047
 -1       824    3    0    1
 -2      1845       736      1890      2077
 -1       825    3    0    1
 -2      2062      1781      2493      2552
 -1       826    3    0    1
 -2       158       148       157       748
 -1       827    3    0    1
 -2      1919      2052      2165      2536
 -1       828    3    0    1
 -2      1072      1073       592      1917
 -1       829    3    0    1
 -2      1662       424      1745      1876
 -1       830    3    0    1
 -2      1072       603      1091      2008
 -1       831    3    0    1
 -2      1152       286      1149      1909
 -1       832    3    0    1
 -2      1565      1620      1679      1815
 -1       833    3    0    1
 -2       272       280       793      1145
 -1       834    3    0    1
 -2       593      1091       603       773
 -1       835    3    0    1
 -2      1309      2214      2589      1406
 -1       836    3    0    1
 -2      1547      1632      1946      2018
 -1       837    3    0    1
 -2       586      1073      1057       581
 -1       838    3    0    1
 -2      1264      1317      2606      2609
 -1       839    3    0    1
 -2       462       881       868       461
 -1       840    3    0    1
 -2       406       101       346       731
 -1       841    3    0    1
 -2      1797       398      1825      1827
 -1       842    3    0    1
 -2      1192       825      1925      1953
 -1       843    3    0    1
 -2       143       330      1003      1554
 -1       844    3    0    1
 -2       898       493       919      1693
 -1       845    3    0    1
 -2       411        46      1619      1795
 -1       846    3    0    1
 -2       571       760       762      1042
 -1       847    3    0    1
 -2       459       711       865      1932
 -1       848    3    0    1
 -2      1069      1067       589      2483
 -1       849    3    0    1
 -2       458       453       455       864
 -1       850    3    0    1
 -2       556       555       748      1698
 -1       851    3    0    1
 -2       262       785       781       255
 -1       852    3    0    1
 -2      1535      1618      1688      1886
 -1       853    3    0    1
 -2       687      1199      1763      1784
 -1       854    3    0    1
 -2       696       846      1208      1598
 -1       855    3    0    1
 -2       839      1677      1837      1907
 -1       856    3    0    1
 -2      1545      1650      1740      1778
 -1       857    3    0    1
 -2       461       881       470       467
 -1       858    3    0    1
 -2       811       667      1715      1945
 -1       859    3    0    1
 -2       297      1178       328      1676
 -1       860    3    0    1
 -2       234      1369      1402      2367
 -1       861    3    0    1
 -2       876       467      1593      1722
 -1       862    3    0    1
 -2      1091      1856      1997      2001
 -1       863    3    0    1
 -2       586      1074       592       581
 -1       864    3    0    1
 -2      1145      1739      2026      2481
 -1       865    3    0    1
 -2       332       982       116       977
 -1       866    3    0    1
 -2       979       528      1723      1890
 -1       867    3    0    1
 -2       204      1065       342       202
 -1       868    3    0    1
 -2       585      1066       590       584
 -1       869    3    0    1
 -2       555       547       556       748
 -1       870    3    0    1
 -2       996      1738      1823      1985
 -1       871    3    0    1
 -2        52       898       382        43
 -1       872    3    0    1
 -2      1066       585      1060      1062
 -1       873    3    0    1
 -2      1808      1636      1853      2005
 -1       874    3    0    1
 -2      1582      1556      1585      1707
 -1       875    3    0    1
 -2      1327      2250      2294      2306
 -1       876    3    0    1
 -2       434       343      1522      2030
 -1       877    3    0    1
 -2       202      1065       342       213
 -1       878    3    0    1
 -2       579       571       580       763
 -1       879    3    0    1
 -2      1677      1568      1837      1907
 -1       880    3    0    1
 -2      2205      1381      2284      2405
 -1       881    3    0    1
 -2      2593      2212      1400      2299
 -1       882    3    0    1
 -2      1147       641      1146      1857
 -1       883    3    0    1
 -2      1027      1036      1030       562
 -1       884    3    0    1
 -2      1127       619       627      1128
 -1       885    3    0    1
 -2       148       158       157      1017
 -1       886    3    0    1
 -2      1073      1780      1813      1917
 -1       887    3    0    1
 -2       101       103       346       731
 -1       888    3    0    1
 -2      1540       325      1713      1782
 -1       889    3    0    1
 -2         4        10       436       712
 -1       890    3    0    1
 -2      2576      2289      2647      2346
 -1       891    3    0    1
 -2      1070       590      1757      1885
 -1       892    3    0    1
 -2      1738       335      1985      1991
 -1       893    3    0    1
 -2       360       183       190       763
 -1       894    3    0    1
 -2      1773      1703      1928      2036
 -1       895    3    0    1
 -2       456       861      1810      2102
 -1       896    3    0    1
 -2       818      1714      1753      1955
 -1       897    3    0    1
 -2       122       117      1847      2019
 -1       898    3    0    1
 -2       360       763      1579      1974
 -1       899    3    0    1
 -2       741      1003       544      1554
 -1       900    3    0    1
 -2       759       181       763      1055
 -1       901    3    0    1
 -2       382       899        43       898
 -1       902    3    0    1
 -2      1568      1820      1837      1964
 -1       903    3    0    1
 -2      1575      1574      1744      1867
 -1       904    3    0    1
 -2       225      2169      2170      2545
 -1       905    3    0    1
 -2       154      1019      1015       321
 -1       906    3    0    1
 -2      1035      1623      1686      1811
 -1       907    3    0    1
 -2       330       143       136       996
 -1       908    3    0    1
 -2       621      1120      1117       784
 -1       909    3    0    1
 -2      1190       677      1189      1741
 -1       910    3    0    1
 -2       961       517       960      1949
 -1       911    3    0    1
 -2      2119      1980      2491      2516
 -1       912    3    0    1
 -2       566      1623      1724      1883
 -1       913    3    0    1
 -2      1644      2151      2496      2528
 -1       914    3    0    1
 -2       861       456      1690      2102
 -1       915    3    0    1
 -2       561      1031      1028       753
 -1       916    3    0    1
 -2       100       354       110       732
 -1       917    3    0    1
 -2       738       999       740       538
 -1       918    3    0    1
 -2      1481      2667      1482      2714
 -1       919    3    0    1
 -2       454       864       856       453
 -1       920    3    0    1
 -2      1543      1583      1611      1898
 -1       921    3    0    1
 -2       981       120       113       973
 -1       922    3    0    1
 -2       916      1611      1717      2000
 -1       923    3    0    1
 -2       858        15      1557      1748
 -1       924    3    0    1
 -2       328      1178      1531      1676
 -1       925    3    0    1
 -2        10        12         4       857
 -1       926    3    0    1
 -2      1628      1591      1646      1763
 -1       927    3    0    1
 -2       444       422       834      1851
 -1       928    3    0    1
 -2      1556       420      1582      1745
 -1       929    3    0    1
 -2       514       732       520       509
 -1       930    3    0    1
 -2       140       999       350       135
 -1       931    3    0    1
 -2       619      1126       628       627
 -1       932    3    0    1
 -2       336      1849      1933      1967
 -1       933    3    0    1
 -2       497       946       728       947
 -1       934    3    0    1
 -2        13       864         6       856
 -1       935    3    0    1
 -2      1215       693       837      1695
 -1       936    3    0    1
 -2       410       289       799      1758
 -1       937    3    0    1
 -2       592       603      1072      2008
 -1       938    3    0    1
 -2       455       859      1938      1973
 -1       939    3    0    1
 -2        20       877        24       416
 -1       940    3    0    1
 -2       580      1780      1967      1813
 -1       941    3    0    1
 -2      1525       455      1938      1973
 -1       942    3    0    1
 -2       245       241       248       779
 -1       943    3    0    1
 -2      1686      1529      1704      1806
 -1       944    3    0    1
 -2       935       402      1737      1775
 -1       945    3    0    1
 -2      1772       483       903       484
 -1       946    3    0    1
 -2       624       617       625       785
 -1       947    3    0    1
 -2      1759      1921      2073      2492
 -1       948    3    0    1
 -2       629       637       636       791
 -1       949    3    0    1
 -2       584      1066       590       587
 -1       950    3    0    1
 -2       858        15      1748      1774
 -1       951    3    0    1
 -2      1488      2651      2741      2451
 -1       952    3    0    1
 -2       265       263      1129      2177
 -1       953    3    0    1
 -2       382       899       438        43
 -1       954    3    0    1
 -2      1179      1533      1618      1661
 -1       955    3    0    1
 -2       100       961       960       354
 -1       956    3    0    1
 -2       636      1810      2103      2224
 -1       957    3    0    1
 -2        46       903      1772      1795
 -1       958    3    0    1
 -2      1111       245       777      2174
 -1       959    3    0    1
 -2       331      1661      1179       319
 -1       960    3    0    1
 -2      1605      1544      1842      1881
 -1       961    3    0    1
 -2       360      2084       195      1974
 -1       962    3    0    1
 -2      1528      1162      1916      1930
 -1       963    3    0    1
 -2      1569      1581      1680      1682
 -1       964    3    0    1
 -2      1086      1105      2484      1237
 -1       965    3    0    1
 -2       742       140       992       993
 -1       966    3    0    1
 -2      1097       243      1098      1106
 -1       967    3    0    1
 -2      1770      1560      1835      1868
 -1       968    3    0    1
 -2      1816      1543      1864      1951
 -1       969    3    0    1
 -2       267      1126       255       270
 -1       970    3    0    1
 -2       713      2225      2237      2287
 -1       971    3    0    1
 -2       243       244       235      1097
 -1       972    3    0    1
 -2       607      1106       614       606
 -1       973    3    0    1
 -2      1612      1523      1710      1858
 -1       974    3    0    1
 -2        46       895       901      1619
 -1       975    3    0    1
 -2      1599       433      1756      1874
 -1       976    3    0    1
 -2      1609      1583      1717      1736
 -1       977    3    0    1
 -2       920      2475      1219      2550
 -1       978    3    0    1
 -2      2012       966      2124      2515
 -1       979    3    0    1
 -2       593      1082      1076       773
 -1       980    3    0    1
 -2      1725      2126      2516      2604
 -1       981    3    0    1
 -2       451       459       711       865
 -1       982    3    0    1
 -2      1121       624      2007      2127
 -1       983    3    0    1
 -2       365      1780      1923      1976
 -1       984    3    0    1
 -2       614      1107      1608      1928
 -1       985    3    0    1
 -2       630       791       637       629
 -1       986    3    0    1
 -2       171      1031       339       170
 -1       987    3    0    1
 -2       158       149       148       748
 -1       988    3    0    1
 -2      1569      1198      1711       832
 -1       989    3    0    1
 -2       849      1559      1669      1695
 -1       990    3    0    1
 -2      1129       263      2031      2177
 -1       991    3    0    1
 -2      1678      1568      1852      1988
 -1       992    3    0    1
 -2      1109       616      1128      2013
 -1       993    3    0    1
 -2       428      1615      1648      1905
 -1       994    3    0    1
 -2       142      1699      2059      2080
 -1       995    3    0    1
 -2      1673       981      1759      1845
 -1       996    3    0    1
 -2        33      1812      2480      2134
 -1       997    3    0    1
 -2       603       604       773      1856
 -1       998    3    0    1
 -2       691      1213       701      1992
 -1       999    3    0    1
 -2       513       963       954       512
 -1      1000    3    0    1
 -2       693       837      1695      1979
 -1      1001    3    0    1
 -2       819       817      1661      1714
 -1      1002    3    0    1
 -2      1558      1597      1744      1851
 -1      1003    3    0    1
 -2       547      1022      1010       748
 -1      1004    3    0    1
 -2      1581      1814      1852      1964
 -1      1005    3    0    1
 -2       470       881      1557      1733
 -1      1006    3    0    1
 -2      1692       472      1795      1829
 -1      1007    3    0    1
 -2      1201       687      1200      1591
 -1      1008    3    0    1
 -2       899       438      1564      1838
 -1      1009    3    0    1
 -2       677      1190       678      1741
 -1      1010    3    0    1
 -2       615      1914      2013      2035
 -1      1011    3    0    1
 -2      1156      1157      1875      1929
 -1      1012    3    0    1
 -2       255      1122       261       785
 -1      1013    3    0    1
 -2       474       895       473       889
 -1      1014    3    0    1
 -2       147       159       324      1014
 -1      1015    3    0    1
 -2      2199      1280      1347      2690
 -1      1016    3    0    1
 -2       657      1170       803      1818
 -1      1017    3    0    1
 -2       596      1085       772      1089
 -1      1018    3    0    1
 -2       302      1186      1185      2002
 -1      1019    3    0    1
 -2       902        43       382       905
 -1      1020    3    0    1
 -2       462       876       467       461
 -1      1021    3    0    1
 -2      2189      2179      1269      2538
 -1      1022    3    0    1
 -2      1604       556      1698      1912
 -1      1023    3    0    1
 -2      1269      2550      2604      2651
 -1      1024    3    0    1
 -2      1563      1925      1953      2002
 -1      1025    3    0    1
 -2       367       369      1935      2114
 -1      1026    3    0    1
 -2      2611      2595      2676      2696
 -1      1027    3    0    1
 -2       405       946       965      1589
 -1      1028    3    0    1
 -2       946       497       507       947
 -1      1029    3    0    1
 -2       512       964       957       518
 -1      1030    3    0    1
 -2      1632       812      1715      1946
 -1      1031    3    0    1
 -2       497       945       507       948
 -1      1032    3    0    1
 -2       331       319       817      1661
 -1      1033    3    0    1
 -2       858       455      1525      1557
 -1      1034    3    0    1
 -2      1107      1096       607      1101
 -1      1035    3    0    1
 -2      2051      1069      2493      2525
 -1      1036    3    0    1
 -2       534      1002       996       539
 -1      1037    3    0    1
 -2      1524       977      1902      1970
 -1      1038    3    0    1
 -2       862      1924      2074      2503
 -1      1039    3    0    1
 -2       409      1752      1853      1970
 -1      1040    3    0    1
 -2       395      1819      1895      1959
 -1      1041    3    0    1
 -2       167       174       337      1036
 -1      1042    3    0    1
 -2         6         3       711       852
 -1      1043    3    0    1
 -2      1594      1701      1958      1871
 -1      1044    3    0    1
 -2       579       568      1877      1933
 -1      1045    3    0    1
 -2      1372      1363      2673      2678
 -1      1046    3    0    1
 -2       476       902       484       475
 -1      1047    3    0    1
 -2      2586      2523      2682      2683
 -1      1048    3    0    1
 -2      1551      1547      1946      2018
 -1      1049    3    0    1
 -2       607      1101      1096       606
 -1      1050    3    0    1
 -2      1894      1083      1993      2113
 -1      1051    3    0    1
 -2        78       936       931       930
 -1      1052    3    0    1
 -2       517       504       962      2512
 -1      1053    3    0    1
 -2      1663      1531      1720      1782
 -1      1054    3    0    1
 -2      1812      2048      2480      2134
 -1      1055    3    0    1
 -2       820       673      1701      1871
 -1      1056    3    0    1
 -2       607      1106       606      1098
 -1      1057    3    0    1
 -2       563      1652      1754      1883
 -1      1058    3    0    1
 -2       101       964       406       346
 -1      1059    3    0    1
 -2       712       459       866      1749
 -1      1060    3    0    1
 -2      1002       539       542      1975
 -1      1061    3    0    1
 -2        44       721       890       896
 -1      1062    3    0    1
 -2      2259      1231      2268      2643
 -1      1063    3    0    1
 -2        24      1532      1710      1750
 -1      1064    3    0    1
 -2      1594      1532      1607      1708
 -1      1065    3    0    1
 -2        69       926       723        62
 -1      1066    3    0    1
 -2       485       923       723       908
 -1      1067    3    0    1
 -2      2010      1128      2043      2046
 -1      1068    3    0    1
 -2      1070      1066      1522      1885
 -1      1069    3    0    1
 -2      1621       137      1742      2004
 -1      1070    3    0    1
 -2       487       922       915       491
 -1      1071    3    0    1
 -2       158      1830      2055      2135
 -1      1072    3    0    1
 -2       194       763      1055      1579
 -1      1073    3    0    1
 -2       376      1969      2066      2118
 -1      1074    3    0    1
 -2        55       903       398        42
 -1      1075    3    0    1
 -2      1804      1143      1840      2021
 -1      1076    3    0    1
 -2       961       960       354      1949
 -1      1077    3    0    1
 -2        66       921       910        65
 -1      1078    3    0    1
 -2      1567       850      1677      1762
 -1      1079    3    0    1
 -2      1623       363      1724      2006
 -1      1080    3    0    1
 -2      2126      2178      2557      2604
 -1      1081    3    0    1
 -2      1066      1070      1757      1885
 -1      1082    3    0    1
 -2      1529      1686      1720      1811
 -1      1083    3    0    1
 -2      1102       243      1097      1106
 -1      1084    3    0    1
 -2       151       161       747      1012
 -1      1085    3    0    1
 -2       692       702       848      1629
 -1      1086    3    0    1
 -2      1067      1088      2476      1220
 -1      1087    3    0    1
 -2        79        83       945       948
 -1      1088    3    0    1
 -2      1882      1648      1904      1905
 -1      1089    3    0    1
 -2      1922      1047       578       575
 -1      1090    3    0    1
 -2      1539        44      1767      1828
 -1      1091    3    0    1
 -2       517       516       510       960
 -1      1092    3    0    1
 -2      1865      1633      1869      1873
 -1      1093    3    0    1
 -2        53       411       901      1619
 -1      1094    3    0    1
 -2       293      1549      1643      1751
 -1      1095    3    0    1
 -2        44        48        45       887
 -1      1096    3    0    1
 -2      2276      1322      2650      2374
 -1      1097    3    0    1
 -2      1258      2571      1340      1341
 -1      1098    3    0    1
 -2       504       940       505      1987
 -1      1099    3    0    1
 -2        25       877        20       416
 -1      1100    3    0    1
 -2       475       904       903       886
 -1      1101    3    0    1
 -2        32        26       718       873
 -1      1102    3    0    1
 -2       418       847      1556      1658
 -1      1103    3    0    1
 -2       981       113       121       986
 -1      1104    3    0    1
 -2       924        67      1622      1926
 -1      1105    3    0    1
 -2      1575      1744      1572      1867
 -1      1106    3    0    1
 -2       736       113       121       979
 -1      1107    3    0    1
 -2      1594       412      1701      1871
 -1      1108    3    0    1
 -2       491       916      1717      2000
 -1      1109    3    0    1
 -2      1693       898      1838      2105
 -1      1110    3    0    1
 -2      1020       335      1696      1738
 -1      1111    3    0    1
 -2      1885      1678      1923      1988
 -1      1112    3    0    1
 -2      1166       293      1167      1684
 -1      1113    3    0    1
 -2       260      1120       425       259
 -1      1114    3    0    1
 -2       534       996       989       990
 -1      1115    3    0    1
 -2      1189       677      1707      1741
 -1      1116    3    0    1
 -2      1556      1188      1658      1741
 -1      1117    3    0    1
 -2       420      1138      1534      1876
 -1      1118    3    0    1
 -2        42       411        46       901
 -1      1119    3    0    1
 -2       593       598       604       774
 -1      1120    3    0    1
 -2      1658      1805      1574      1992
 -1      1121    3    0    1
 -2      2627      1462      2701      2732
 -1      1122    3    0    1
 -2      1158       647       648      1718
 -1      1123    3    0    1
 -2      1562      1624      1783      1825
 -1      1124    3    0    1
 -2      1615       428      1648      1904
 -1      1125    3    0    1
 -2      1632      1613      1730      1945
 -1      1126    3    0    1
 -2       901        53      1619      1822
 -1      1127    3    0    1
 -2       459       866      1749      2067
 -1      1128    3    0    1
 -2       425       264      1120      1755
 -1      1129    3    0    1
 -2      1816      1174      1842      1864
 -1      1130    3    0    1
 -2       381       382      1838      2504
 -1      1131    3    0    1
 -2       411        42        46       904
 -1      1132    3    0    1
 -2        79       933        83       939
 -1      1133    3    0    1
 -2        83       940        79       939
 -1      1134    3    0    1
 -2       359       767      2084      2153
 -1      1135    3    0    1
 -2       468       465       469       879
 -1      1136    3    0    1
 -2       415      1721      1878      1973
 -1      1137    3    0    1
 -2      1230      2543      1325      2645
 -1      1138    3    0    1
 -2      1525      1557      1733      1748
 -1      1139    3    0    1
 -2      1107       239      1101       240
 -1      1140    3    0    1
 -2      1515      1468      2757      2762
 -1      1141    3    0    1
 -2        29       716       714        26
 -1      1142    3    0    1
 -2       159       147       324       747
 -1      1143    3    0    1
 -2       332       982       977      1524
 -1      1144    3    0    1
 -2        26        29        30       718
 -1      1145    3    0    1
 -2      1184       673       674      1701
 -1      1146    3    0    1
 -2      2097      2503      2183      2713
 -1      1147    3    0    1
 -2      2084      1050       767      1807
 -1      1148    3    0    1
 -2       241       245       248      2176
 -1      1149    3    0    1
 -2      2549      1226      1335      2621
 -1      1150    3    0    1
 -2       773       221      1076      1091
 -1      1151    3    0    1
 -2      1892      1538      1998      2014
 -1      1152    3    0    1
 -2      1541      1634      1743      1819
 -1      1153    3    0    1
 -2      1030      1652      1724      1855
 -1      1154    3    0    1
 -2      1160       650      1551      1946
 -1      1155    3    0    1
 -2       689      1204       690      1665
 -1      1156    3    0    1
 -2       580       579      1579      1967
 -1      1157    3    0    1
 -2       593      1082       773       598
 -1      1158    3    0    1
 -2       245       247       241       776
 -1      1159    3    0    1
 -2      1522      1066      1757      1885
 -1      1160    3    0    1
 -2       692      1207      1597      1629
 -1      1161    3    0    1
 -2       618       785       625       617
 -1      1162    3    0    1
 -2       999       740      1723      1787
 -1      1163    3    0    1
 -2       272       273       377      1145
 -1      1164    3    0    1
 -2       174       337      1724      1855
 -1      1165    3    0    1
 -2      2565      1260      1359      2637
 -1      1166    3    0    1
 -2       651      1165      1162      1590
 -1      1167    3    0    1
 -2       645      1154       646      1981
 -1      1168    3    0    1
 -2      1559      1603      1669      1672
 -1      1169    3    0    1
 -2      1279      2082      2556      2737
 -1      1170    3    0    1
 -2       204      1071       342      1065
 -1      1171    3    0    1
 -2       917       941      2486      1243
 -1      1172    3    0    1
 -2      1696       554      1697      1802
 -1      1173    3    0    1
 -2       188       187       761      1044
 -1      1174    3    0    1
 -2       356       128      1673      2494
 -1      1175    3    0    1
 -2      2220      2230      2236      2712
 -1      1176    3    0    1
 -2       882       876       470      1593
 -1      1177    3    0    1
 -2      2565      2526      2600      2631
 -1      1178    3    0    1
 -2       586      1073      1072      1057
 -1      1179    3    0    1
 -2       878       880       468      2287
 -1      1180    3    0    1
 -2       848      1207      1629      1851
 -1      1181    3    0    1
 -2        42       895       888       901
 -1      1182    3    0    1
 -2       101       965       406        99
 -1      1183    3    0    1
 -2       490       926       723       485
 -1      1184    3    0    1
 -2       374       940      2116      2167
 -1      1185    3    0    1
 -2         8       855         9         7
 -1      1186    3    0    1
 -2       499       936       503       498
 -1      1187    3    0    1
 -2        35        19       717       883
 -1      1188    3    0    1
 -2      1128       627      2043      2046
 -1      1189    3    0    1
 -2       464       463       717       874
 -1      1190    3    0    1
 -2      1019      1015       321      1802
 -1      1191    3    0    1
 -2      2526      2631      2634      2700
 -1      1192    3    0    1
 -2       480       899       481      1693
 -1      1193    3    0    1
 -2      1683      1649      1754      1850
 -1      1194    3    0    1
 -2         7      1607      1721      1973
 -1      1195    3    0    1
 -2       120       981       121       114
 -1      1196    3    0    1
 -2      1119       426      1527      2010
 -1      1197    3    0    1
 -2      2522      1103      1283      2570
 -1      1198    3    0    1
 -2       797      1161      1778      1879
 -1      1199    3    0    1
 -2       416      1532      1549      1708
 -1      1200    3    0    1
 -2      1363      1372      2673      2415
 -1      1201    3    0    1
 -2      1686       340      1806      1860
 -1      1202    3    0    1
 -2      2579      2668      2386      1510
 -1      1203    3    0    1
 -2       471       460       712      1596
 -1      1204    3    0    1
 -2      1649      1601      1754      1850
 -1      1205    3    0    1
 -2       426      1127      1527      2010
 -1      1206    3    0    1
 -2      1753      1548      1945      1955
 -1      1207    3    0    1
 -2      1696       159      1912      2079
 -1      1208    3    0    1
 -2      1641      1742      1906      2004
 -1      1209    3    0    1
 -2       406       405      1934      2045
 -1      1210    3    0    1
 -2      1577      1566      1981      1983
 -1      1211    3    0    1
 -2      1613      1730      2005      2038
 -1      1212    3    0    1
 -2      2594      1437      2364      1496
 -1      1213    3    0    1
 -2       858         6        14       864
 -1      1214    3    0    1
 -2      1663      1540      1713      1782
 -1      1215    3    0    1
 -2        19       882        35        38
 -1      1216    3    0    1
 -2       959       962      1760      2489
 -1      1217    3    0    1
 -2      2235      1304      2238      2243
 -1      1218    3    0    1
 -2        52       902        43       382
 -1      1219    3    0    1
 -2        78       728       946       947
 -1      1220    3    0    1
 -2      1538      1644      1892      2143
 -1      1221    3    0    1
 -2       366       221       230      1091
 -1      1222    3    0    1
 -2       457       456      2102      2505
 -1      1223    3    0    1
 -2      1531      1782      1865      1873
 -1      1224    3    0    1
 -2       736       528       979      1890
 -1      1225    3    0    1
 -2       792       865      2011      2032
 -1      1226    3    0    1
 -2       650       649      1551      1879
 -1      1227    3    0    1
 -2      2658      1389      1473      2708
 -1      1228    3    0    1
 -2       355      1481      2714      2745
 -1      1229    3    0    1
 -2      1620      1756      1777      1815
 -1      1230    3    0    1
 -2       763      1579      1974      2507
 -1      1231    3    0    1
 -2       402      1737      1775      1881
 -1      1232    3    0    1
 -2      1074       215       359      2507
 -1      1233    3    0    1
 -2       643      1149      1706      1798
 -1      1234    3    0    1
 -2       436        31       884      2477
 -1      1235    3    0    1
 -2      1106      1610      1773      1793
 -1      1236    3    0    1
 -2       622      1124       626       621
 -1      1237    3    0    1
 -2      1935       961      1982      2114
 -1      1238    3    0    1
 -2       982       977      1524      1970
 -1      1239    3    0    1
 -2      1490       437      1493      2437
 -1      1240    3    0    1
 -2       580       591      1780      1813
 -1      1241    3    0    1
 -2       412      1555      1594      1701
 -1      1242    3    0    1
 -2        67        71       925      1622
 -1      1243    3    0    1
 -2      1543      1609      1816      1862
 -1      1244    3    0    1
 -2       918      1957      2116      2167
 -1      1245    3    0    1
 -2      1035       566      1623      1627
 -1      1246    3    0    1
 -2      1908       880      2495      2505
 -1      1247    3    0    1
 -2      2069      1998      2140      2141
 -1      1248    3    0    1
 -2      1188      1191      1658      1741
 -1      1249    3    0    1
 -2      1772       495       902       484
 -1      1250    3    0    1
 -2       416      1532      1607      1733
 -1      1251    3    0    1
 -2       473       890       887       721
 -1      1252    3    0    1
 -2      2181      2192      2542      2300
 -1      1253    3    0    1
 -2       923       948      1834      2498
 -1      1254    3    0    1
 -2      1172      1544      1842      1864
 -1      1255    3    0    1
 -2      1656       158      2055      2135
 -1      1256    3    0    1
 -2       103       964       955       101
 -1      1257    3    0    1
 -2       139       341      2061      2073
 -1      1258    3    0    1
 -2      1591       687      1763      1784
 -1      1259    3    0    1
 -2      1016      1018      2261      2643
 -1      1260    3    0    1
 -2       258      1119       783       256
 -1      1261    3    0    1
 -2      2078      2096      2551      2554
 -1      1262    3    0    1
 -2       139       740       999      1787
 -1      1263    3    0    1
 -2        26        30        33       718
 -1      1264    3    0    1
 -2      1375      1376      2645      2652
 -1      1265    3    0    1
 -2       363      1036      1623      1724
 -1      1266    3    0    1
 -2      1586      1770      1788      1868
 -1      1267    3    0    1
 -2      1526       340      1686      1860
 -1      1268    3    0    1
 -2       560       559       567      2154
 -1      1269    3    0    1
 -2      1292      2529      2661      2690
 -1      1270    3    0    1
 -2      1817       194      2159      2186
 -1      1271    3    0    1
 -2        38        37       876      1824
 -1      1272    3    0    1
 -2       293       800      1169      1549
 -1      1273    3    0    1
 -2       391      1127      1144      1527
 -1      1274    3    0    1
 -2       638       633       635      1143
 -1      1275    3    0    1
 -2       551      1019       554      1836
 -1      1276    3    0    1
 -2       861       857       456      1810
 -1      1277    3    0    1
 -2       431       213      1072      1660
 -1      1278    3    0    1
 -2       536      1003       987       535
 -1      1279    3    0    1
 -2        95        78       928       946
 -1      1280    3    0    1
 -2      1484      1477      2428      2429
 -1      1281    3    0    1
 -2      1205       833      1665      1931
 -1      1282    3    0    1
 -2      1742      1691      2004       137
 -1      1283    3    0    1
 -2       583       767       589       582
 -1      1284    3    0    1
 -2       295       400      1171      1816
 -1      1285    3    0    1
 -2       472       483       904      1795
 -1      1286    3    0    1
 -2       984       117       985      1936
 -1      1287    3    0    1
 -2      1614      1148      1828      1857
 -1      1288    3    0    1
 -2      1204       328      1531      1570
 -1      1289    3    0    1
 -2        15       711      1748      1774
 -1      1290    3    0    1
 -2      2218      1303      2258      2260
 -1      1291    3    0    1
 -2       586      1072      1064      1057
 -1      1292    3    0    1
 -2       793       640      1145      1739
 -1      1293    3    0    1
 -2       506       935      1667      1775
 -1      1294    3    0    1
 -2        52       902       382        51
 -1      1295    3    0    1
 -2       356       121       986      1673
 -1      1296    3    0    1
 -2       667       813       668      1945
 -1      1297    3    0    1
 -2      2640      2288      2666      2379
 -1      1298    3    0    1
 -2      2573      1297      1312      2722
 -1      1299    3    0    1
 -2       502       947       507       497
 -1      1300    3    0    1
 -2       877       881      1593      1948
 -1      1301    3    0    1
 -2      1786       359      2108      2507
 -1      1302    3    0    1
 -2      1572      1558      1597      1744
 -1      1303    3    0    1
 -2      2562      1256      2649      2761
 -1      1304    3    0    1
 -2      1570      1531      1663      1782
 -1      1305    3    0    1
 -2      1546      1643      1750      1943
 -1      1306    3    0    1
 -2       360       195       183       763
 -1      1307    3    0    1
 -2      1248      2495      2584      2633
 -1      1308    3    0    1
 -2       288       794      1148      1929
 -1      1309    3    0    1
 -2       595      1083       594       770
 -1      1310    3    0    1
 -2      1743      1539      1767      1828
 -1      1311    3    0    1
 -2       694      1677      1762      1837
 -1      1312    3    0    1
 -2      1165      1162      1528      1930
 -1      1313    3    0    1
 -2        69       926        62       373
 -1      1314    3    0    1
 -2       773       230      1091      1997
 -1      1315    3    0    1
 -2       466       879       465       468
 -1      1316    3    0    1
 -2      2082      2151      2528      2209
 -1      1317    3    0    1
 -2      1655       828      1771      1915
 -1      1318    3    0    1
 -2      1646      1806      1573      1537
 -1      1319    3    0    1
 -2       365       189      1967      1976
 -1      1320    3    0    1
 -2       342       214      1073      1917
 -1      1321    3    0    1
 -2      1533      1661      1714      1752
 -1      1322    3    0    1
 -2      1074       203       768       208
 -1      1323    3    0    1
 -2       471       883      1596      1861
 -1      1324    3    0    1
 -2      1540      1663      1686      1720
 -1      1325    3    0    1
 -2       517      1760      1949      1982
 -1      1326    3    0    1
 -2       860       862      1924      2505
 -1      1327    3    0    1
 -2      2543      1230      1325      2642
 -1      1328    3    0    1
 -2      1021       741      1911      1991
 -1      1329    3    0    1
 -2       804       802      1637      1803
 -1      1330    3    0    1
 -2       464       463       472       717
 -1      1331    3    0    1
 -2       264      1586      1788      1868
 -1      1332    3    0    1
 -2       663      1177       664      1606
 -1      1333    3    0    1
 -2      2556      1279      1339      2228
 -1      1334    3    0    1
 -2      1349      1338      1365      2303
 -1      1335    3    0    1
 -2      1964      1820      1977      1988
 -1      1336    3    0    1
 -2      2072      2551      2556      2601
 -1      1337    3    0    1
 -2       428       433      1089      1615
 -1      1338    3    0    1
 -2      2195      2189      2566      1293
 -1      1339    3    0    1
 -2       895      1619      1797      1826
 -1      1340    3    0    1
 -2      1664       602      1874      1900
 -1      1341    3    0    1
 -2      1689      1621      1854      2004
 -1      1342    3    0    1
 -2       557      1033       565       564
 -1      1343    3    0    1
 -2       471       472      1692      1861
 -1      1344    3    0    1
 -2       468      1709      2058      2519
 -1      1345    3    0    1
 -2       582      1068       767       588
 -1      1346    3    0    1
 -2       450       857       457       449
 -1      1347    3    0    1
 -2       454       863       458       453
 -1      1348    3    0    1
 -2       884        29       718        30
 -1      1349    3    0    1
 -2         7       710       859       863
 -1      1350    3    0    1
 -2       876       467      1722      1822
 -1      1351    3    0    1
 -2        21       882       869        19
 -1      1352    3    0    1
 -2        25       881       877       416
 -1      1353    3    0    1
 -2       831       683       829      1687
 -1      1354    3    0    1
 -2       896       479      1797      1826
 -1      1355    3    0    1
 -2       297      1204      1203      1570
 -1      1356    3    0    1
 -2       514       731       729       509
 -1      1357    3    0    1
 -2      1565      1882      1888      1899
 -1      1358    3    0    1
 -2      1140       636      1810      2103
 -1      1359    3    0    1
 -2       644       643      1706      1798
 -1      1360    3    0    1
 -2      2522      2065      2564      2739
 -1      1361    3    0    1
 -2       327      1208       846      1591
 -1      1362    3    0    1
 -2       614       611      1106      1608
 -1      1363    3    0    1
 -2       427      1942      2017      2117
 -1      1364    3    0    1
 -2      1532      1549      1708      1751
 -1      1365    3    0    1
 -2       288      1148      1828      1929
 -1      1366    3    0    1
 -2       474       895       479       473
 -1      1367    3    0    1
 -2      1017      1794      2101      2135
 -1      1368    3    0    1
 -2       160      1021      1005       147
 -1      1369    3    0    1
 -2         6       853       711       865
 -1      1370    3    0    1
 -2       472       471       718      1861
 -1      1371    3    0    1
 -2       503       942       506       498
 -1      1372    3    0    1
 -2       387       392       793      2513
 -1      1373    3    0    1
 -2      1853      1636      1995      2005
 -1      1374    3    0    1
 -2       143       330       136      1003
 -1      1375    3    0    1
 -2       942       936      1761      1884
 -1      1376    3    0    1
 -2       742       544      1699      1911
 -1      1377    3    0    1
 -2       144       143       987       994
 -1      1378    3    0    1
 -2       345       755      1652      1855
 -1      1379    3    0    1
 -2      1627      1623      1836      2006
 -1      1380    3    0    1
 -2       938       962      2479      1225
 -1      1381    3    0    1
 -2      2047      2179      2516      2557
 -1      1382    3    0    1
 -2       346       406       731      1934
 -1      1383    3    0    1
 -2      2538      1262      2563      2623
 -1      1384    3    0    1
 -2      1586      1728      1788      1832
 -1      1385    3    0    1
 -2      1173       659      1172      1842
 -1      1386    3    0    1
 -2       524       984       974       523
 -1      1387    3    0    1
 -2       946        92       947      1937
 -1      1388    3    0    1
 -2       729       965       101       950
 -1      1389    3    0    1
 -2       102       732       100       110
 -1      1390    3    0    1
 -2       513       963       958       954
 -1      1391    3    0    1
 -2      1317      2606      2318      2319
 -1      1392    3    0    1
 -2       380       240      1942      2017
 -1      1393    3    0    1
 -2       296      1530      1639      1666
 -1      1394    3    0    1
 -2      1556      1582      1585      1745
 -1      1395    3    0    1
 -2      1121      1141      2053      2546
 -1      1396    3    0    1
 -2       877       467      1576      1858
 -1      1397    3    0    1
 -2       147       151       324       747
 -1      1398    3    0    1
 -2       221       232       773      1082
 -1      1399    3    0    1
 -2      1525       858      1774      1938
 -1      1400    3    0    1
 -2       554      1697      1738      1985
 -1      1401    3    0    1
 -2       818      1753       672      1183
 -1      1402    3    0    1
 -2      1555      1594      1607      1708
 -1      1403    3    0    1
 -2      1537       339      1628      1646
 -1      1404    3    0    1
 -2      2570      2531      2581      2613
 -1      1405    3    0    1
 -2       543       544      1554      1921
 -1      1406    3    0    1
 -2        38        35       717      1692
 -1      1407    3    0    1
 -2      1085       428      1089      1615
 -1      1408    3    0    1
 -2       804      1818       658      1803
 -1      1409    3    0    1
 -2       499       937       498       503
 -1      1410    3    0    1
 -2       895       398      1797      1827
 -1      1411    3    0    1
 -2       455       858      1525      1938
 -1      1412    3    0    1
 -2       634      1142       638      1138
 -1      1413    3    0    1
 -2       632      1145      1134       631
 -1      1414    3    0    1
 -2      1138       634       790      1135
 -1      1415    3    0    1
 -2       849       313       836      1669
 -1      1416    3    0    1
 -2      1541      1634      1818      1857
 -1      1417    3    0    1
 -2       256       258       426      1127
 -1      1418    3    0    1
 -2      2598      1357      2619      2692
 -1      1419    3    0    1
 -2       395      1717      1736      1783
 -1      1420    3    0    1
 -2       276       281       421      1137
 -1      1421    3    0    1
 -2       634      1138       638       633
 -1      1422    3    0    1
 -2       847      1556      1658      1805
 -1      1423    3    0    1
 -2       278      1137       789       276
 -1      1424    3    0    1
 -2      1698      1022      2055      2080
 -1      1425    3    0    1
 -2      1285      2208      2579      2613
 -1      1426    3    0    1
 -2      1085      1615      1897      1904
 -1      1427    3    0    1
 -2      1197       685      1196      1711
 -1      1428    3    0    1
 -2       411        49        42       904
 -1      1429    3    0    1
 -2      1600       192      1682      1683
 -1      1430    3    0    1
 -2       768      1074      1786      1939
 -1      1431    3    0    1
 -2       399       924       947      1735
 -1      1432    3    0    1
 -2      1124      1120      1755      1766
 -1      1433    3    0    1
 -2       923       926       373      1791
 -1      1434    3    0    1
 -2        80       937        77       932
 -1      1435    3    0    1
 -2       673       822       674      1871
 -1      1436    3    0    1
 -2       481       480      1693      2129
 -1      1437    3    0    1
 -2       961       517      1949      1982
 -1      1438    3    0    1
 -2       800      1169      1549      1643
 -1      1439    3    0    1
 -2       157       746      1017      1656
 -1      1440    3    0    1
 -2       505       504      1987      2144
 -1      1441    3    0    1
 -2      1657       404      1966      2037
 -1      1442    3    0    1
 -2      1583        68      1717      1736
 -1      1443    3    0    1
 -2       534       997       533       539
 -1      1444    3    0    1
 -2      2530      2182      2208      2579
 -1      1445    3    0    1
 -2       131      1391      2296      2350
 -1      1446    3    0    1
 -2       298       291      1163      1866
 -1      1447    3    0    1
 -2       459      1932      2032      2067
 -1      1448    3    0    1
 -2      1528      1630      1666      1705
 -1      1449    3    0    1
 -2       455       458       864      1938
 -1      1450    3    0    1
 -2        81       937      1635      1640
 -1      1451    3    0    1
 -2      1588      1542      1637      1716
 -1      1452    3    0    1
 -2      1577       646      1843      1981
 -1      1453    3    0    1
 -2       979      1723      1845      1890
 -1      1454    3    0    1
 -2       698      1776       840       695
 -1      1455    3    0    1
 -2       424       420      1556      1745
 -1      1456    3    0    1
 -2       876       882        38      1824
 -1      1457    3    0    1
 -2       438       899      1564      2480
 -1      1458    3    0    1
 -2       425      1572      1603      1672
 -1      1459    3    0    1
 -2       299       401      1668      1842
 -1      1460    3    0    1
 -2      1124       264      1728      1755
 -1      1461    3    0    1
 -2       224      1087       225       219
 -1      1462    3    0    1
 -2       592       768      2008      2112
 -1      1463    3    0    1
 -2      1224      1223      2500      1249
 -1      1464    3    0    1
 -2      1221      2205      2284      2405
 -1      1465    3    0    1
 -2       922       491       494      2016
 -1      1466    3    0    1
 -2       467       470       876      1593
 -1      1467    3    0    1
 -2        44      1645      1767      1796
 -1      1468    3    0    1
 -2      1589       370      1735      1884
 -1      1469    3    0    1
 -2      1153      1154      1981      2029
 -1      1470    3    0    1
 -2       801       655       799      1626
 -1      1471    3    0    1
 -2       479       895      1797      1826
 -1      1472    3    0    1
 -2      1789       373      1791      2099
 -1      1473    3    0    1
 -2      2204      1268      2239      2254
 -1      1474    3    0    1
 -2       296      1209       845      1694
 -1      1475    3    0    1
 -2       330      1003      1554      2024
 -1      1476    3    0    1
 -2       504       517      1982      2512
 -1      1477    3    0    1
 -2       765      1068       201       767
 -1      1478    3    0    1
 -2      1410      1318      1433      2464
 -1      1479    3    0    1
 -2       805       400      1816      1862
 -1      1480    3    0    1
 -2       976       527      1872      1887
 -1      1481    3    0    1
 -2      1596       884      1861      2477
 -1      1482    3    0    1
 -2      1524      1533      1661      1727
 -1      1483    3    0    1
 -2      1728      1124      1755      1766
 -1      1484    3    0    1
 -2       863         7       415      1973
 -1      1485    3    0    1
 -2        98       369       732       966
 -1      1486    3    0    1
 -2       411        46       901      1619
 -1      1487    3    0    1
 -2      1614      1541      1634      1743
 -1      1488    3    0    1
 -2      2524      2534      2625      2626
 -1      1489    3    0    1
 -2      1624      1562      1797      1825
 -1      1490    3    0    1
 -2      1536      1600      1763      1764
 -1      1491    3    0    1
 -2       354        98       369       732
 -1      1492    3    0    1
 -2        92       370      1589      1884
 -1      1493    3    0    1
 -2       489       919       918       906
 -1      1494    3    0    1
 -2        37      1692      1799      1824
 -1      1495    3    0    1
 -2       591      1073      1813      1917
 -1      1496    3    0    1
 -2      1557       881      1700      1733
 -1      1497    3    0    1
 -2        95       405      1685      2045
 -1      1498    3    0    1
 -2      1604       323      1912      2006
 -1      1499    3    0    1
 -2      1634      1614      1828      1857
 -1      1500    3    0    1
 -2       746      1656      1787      2106
 -1      1501    3    0    1
 -2       850       838      1677      1762
 -1      1502    3    0    1
 -2       612       625      2123      2541
 -1      1503    3    0    1
 -2       740       979      1723      2131
 -1      1504    3    0    1
 -2       565      1794      2094       754
 -1      1505    3    0    1
 -2       341       139      2061      2131
 -1      1506    3    0    1
 -2       347      1730      1995      2005
 -1      1507    3    0    1
 -2       711      1596      1748      1774
 -1      1508    3    0    1
 -2      1577      1153      1981      2029
 -1      1509    3    0    1
 -2       425      1120      1572      1755
 -1      1510    3    0    1
 -2       183       190       763      1041
 -1      1511    3    0    1
 -2       941       504       938      2219
 -1      1512    3    0    1
 -2       289      1158      1681      1758
 -1      1513    3    0    1
 -2      2717      2277      2456      2635
 -1      1514    3    0    1
 -2       366       430       229      1091
 -1      1515    3    0    1
 -2       736       121       356      1845
 -1      1516    3    0    1
 -2       716        30      1690      1812
 -1      1517    3    0    1
 -2       826       679       824      1642
 -1      1518    3    0    1
 -2       533      1001       997       988
 -1      1519    3    0    1
 -2       117       129      1847      1971
 -1      1520    3    0    1
 -2       696       700       846      1598
 -1      1521    3    0    1
 -2       899       481      1693      1709
 -1      1522    3    0    1
 -2      1650       815      1668      1962
 -1      1523    3    0    1
 -2      1642      1563      1726      1925
 -1      1524    3    0    1
 -2      1628      1591      1763      1784
 -1      1525    3    0    1
 -2      1037       567       755      1747
 -1      1526    3    0    1
 -2       170      1035      1031       340
 -1      1527    3    0    1
 -2      2093      2088      2523      2682
 -1      1528    3    0    1
 -2       472       718      1829      1861
 -1      1529    3    0    1
 -2      1602      1630      1869      1873
 -1      1530    3    0    1
 -2        92       936       942      1884
 -1      1531    3    0    1
 -2       300       821      1184      1941
 -1      1532    3    0    1
 -2        46      1619      1772      1827
 -1      1533    3    0    1
 -2      1806      1646      1573      1860
 -1      1534    3    0    1
 -2      1555      1607      1700      1708
 -1      1535    3    0    1
 -2        95      1685      2042      2045
 -1      1536    3    0    1
 -2      2163      1315      2614      2271
 -1      1537    3    0    1
 -2       525       736       528       979
 -1      1538    3    0    1
 -2      1621      1535      1641      1742
 -1      1539    3    0    1
 -2      1559       425      1603      1672
 -1      1540    3    0    1
 -2       891        43       902       905
 -1      1541    3    0    1
 -2       701      1213      1805      1992
 -1      1542    3    0    1
 -2       239      1107       236       240
 -1      1543    3    0    1
 -2       884       718       471      1861
 -1      1544    3    0    1
 -2      1479      1415      1488      2741
 -1      1545    3    0    1
 -2      1152       643       644      1798
 -1      1546    3    0    1
 -2       264       259       425      1120
 -1      1547    3    0    1
 -2      1659      1663      1665      1720
 -1      1548    3    0    1
 -2      2520      2145      2524      2534
 -1      1549    3    0    1
 -2      1969       377      2066      2103
 -1      1550    3    0    1
 -2      1202       687       688      1784
 -1      1551    3    0    1
 -2      2065      2487      2171      2572
 -1      1552    3    0    1
 -2       413      1166      1549      1684
 -1      1553    3    0    1
 -2      2285      2282      2325      2744
 -1      1554    3    0    1
 -2      2085      1908      2495      2505
 -1      1555    3    0    1
 -2      1019       321      1602      1697
 -1      1556    3    0    1
 -2      1529      1659      1665      1720
 -1      1557    3    0    1
 -2       540       541       998      2497
 -1      1558    3    0    1
 -2      1198      1569      1711      1680
 -1      1559    3    0    1
 -2       332       977      1854      1902
 -1      1560    3    0    1
 -2      1140       787       629       791
 -1      1561    3    0    1
 -2       632      1145       631       639
 -1      1562    3    0    1
 -2       284       792       865      1731
 -1      1563    3    0    1
 -2      1692       883      1861      1896
 -1      1564    3    0    1
 -2      1212       446       447      1931
 -1      1565    3    0    1
 -2      1586      1616      1728      1832
 -1      1566    3    0    1
 -2       337      1030      1724      1855
 -1      1567    3    0    1
 -2      1567      1762      1820      1977
 -1      1568    3    0    1
 -2       667       668      1715      1945
 -1      1569    3    0    1
 -2      1637      1175      1947      1996
 -1      1570    3    0    1
 -2       879        33      1812      2480
 -1      1571    3    0    1
 -2      1025       165      1222      2154
 -1      1572    3    0    1
 -2      1580      1545      1650      1740
 -1      1573    3    0    1
 -2      1563      1610      1726      1904
 -1      1574    3    0    1
 -2       262       785       255       263
 -1      1575    3    0    1
 -2       265      1129      2041      2177
 -1      1576    3    0    1
 -2       665      1179      1618      1688
 -1      1577    3    0    1
 -2      1633      1713      1782      1865
 -1      1578    3    0    1
 -2       157       746      1656      2130
 -1      1579    3    0    1
 -2       609      1104       779       613
 -1      1580    3    0    1
 -2      1124      1120       264      1755
 -1      1581    3    0    1
 -2       245       248      1108      1914
 -1      1582    3    0    1
 -2       616       615      1914      2013
 -1      1583    3    0    1
 -2       653      1166      1684      1702
 -1      1584    3    0    1
 -2       672      1714       818       671
 -1      1585    3    0    1
 -2       162       364      2499      2162
 -1      1586    3    0    1
 -2      1872      1887      1903      1971
 -1      1587    3    0    1
 -2      1776       698       840      1848
 -1      1588    3    0    1
 -2      1610      1726      1773      1793
 -1      1589    3    0    1
 -2       578      1052      1649      1683
 -1      1590    3    0    1
 -2       640       631       639      1144
 -1      1591    3    0    1
 -2       451       712       459       866
 -1      1592    3    0    1
 -2      1001      1621      1689      2004
 -1      1593    3    0    1
 -2      1004       543      1759      1921
 -1      1594    3    0    1
 -2      1852      1568      1964      1988
 -1      1595    3    0    1
 -2       900       480       481      2129
 -1      1596    3    0    1
 -2      2601      1231      2643      2679
 -1      1597    3    0    1
 -2      1138       420      1534      1675
 -1      1598    3    0    1
 -2       231      1091      1076       229
 -1      1599    3    0    1
 -2      1151       644      1706      1798
 -1      1600    3    0    1
 -2      2596      1398      2300      2650
 -1      1601    3    0    1
 -2       572      1055       571       579
 -1      1602    3    0    1
 -2      1569      1653      1776      1848
 -1      1603    3    0    1
 -2      1158      1584      1681      1758
 -1      1604    3    0    1
 -2       578      1052      1683      1922
 -1      1605    3    0    1
 -2      2206       885       478       720
 -1      1606    3    0    1
 -2       535      1004       544       543
 -1      1607    3    0    1
 -2      1934       519      1965      2012
 -1      1608    3    0    1
 -2      1542        68      1583      1736
 -1      1609    3    0    1
 -2       879        33       716      1812
 -1      1610    3    0    1
 -2       882      1593      1748      1896
 -1      1611    3    0    1
 -2      1680      1653      1600      1765
 -1      1612    3    0    1
 -2      1002      1689      1887      1903
 -1      1613    3    0    1
 -2        14        13         6       865
 -1      1614    3    0    1
 -2       451       712       460       459
 -1      1615    3    0    1
 -2         5       857       707         4
 -1      1616    3    0    1
 -2       343      1678      1885      1988
 -1      1617    3    0    1
 -2        18       712         4       436
 -1      1618    3    0    1
 -2        18       712       708         4
 -1      1619    3    0    1
 -2         8       863       710         7
 -1      1620    3    0    1
 -2         8       855         7       710
 -1      1621    3    0    1
 -2       623      1766      1804      1840
 -1      1622    3    0    1
 -2       578      1683      1849      1922
 -1      1623    3    0    1
 -2       459       460       451       711
 -1      1624    3    0    1
 -2      1608       385      1792      1832
 -1      1625    3    0    1
 -2       495       496       925      1622
 -1      1626    3    0    1
 -2      1805      1658      1574      1556
 -1      1627    3    0    1
 -2        17       865        13       419
 -1      1628    3    0    1
 -2        15       417         3       711
 -1      1629    3    0    1
 -2       417         6         3       711
 -1      1630    3    0    1
 -2        17       865       853        13
 -1      1631    3    0    1
 -2       394       721      1645      1901
 -1      1632    3    0    1
 -2       543      1759      1921      2024
 -1      1633    3    0    1
 -2       542       539       997      1823
 -1      1634    3    0    1
 -2       919       493       492      2076
 -1      1635    3    0    1
 -2       264       425      1672      1755
 -1      1636    3    0    1
 -2      1584      1796      1800      1828
 -1      1637    3    0    1
 -2       245       250      1993      2545
 -1      1638    3    0    1
 -2      1262      2491      2179      2563
 -1      1639    3    0    1
 -2      1672       264      1755      1788
 -1      1640    3    0    1
 -2       470       461       467       876
 -1      1641    3    0    1
 -2       382       899       898      1838
 -1      1642    3    0    1
 -2        34       883        19        36
 -1      1643    3    0    1
 -2       463       471       472       717
 -1      1644    3    0    1
 -2        29       884       718       872
 -1      1645    3    0    1
 -2        37        21        23       717
 -1      1646    3    0    1
 -2        38        21        37       717
 -1      1647    3    0    1
 -2       466       879       875       465
 -1      1648    3    0    1
 -2       393       288      1156      1929
 -1      1649    3    0    1
 -2        26        33        39       718
 -1      1650    3    0    1
 -2       880       878      1908      2058
 -1      1651    3    0    1
 -2       479       473       482       721
 -1      1652    3    0    1
 -2      1183       818      1753      1955
 -1      1653    3    0    1
 -2      1960      2081      2115      2494
 -1      1654    3    0    1
 -2       394        48        44       721
 -1      1655    3    0    1
 -2        49       901       411        42
 -1      1656    3    0    1
 -2       474       896       890       473
 -1      1657    3    0    1
 -2        83        90        79       927
 -1      1658    3    0    1
 -2        62       926       723        60
 -1      1659    3    0    1
 -2        60       926       384        72
 -1      1660    3    0    1
 -2        76        59        75       724
 -1      1661    3    0    1
 -2      1819      1541      1895      1959
 -1      1662    3    0    1
 -2        79       933        90        83
 -1      1663    3    0    1
 -2       501       939       933       500
 -1      1664    3    0    1
 -2        77       935        81       402
 -1      1665    3    0    1
 -2       512       963       518       515
 -1      1666    3    0    1
 -2      1696       554      1802      1836
 -1      1667    3    0    1
 -2       497       946       507       508
 -1      1668    3    0    1
 -2        94        86        91       728
 -1      1669    3    0    1
 -2       667      1181       812      1715
 -1      1670    3    0    1
 -2       105       731       348       103
 -1      1671    3    0    1
 -2       519       509       520       732
 -1      1672    3    0    1
 -2       102       732       730       100
 -1      1673    3    0    1
 -2      1375      1459      1471      2458
 -1      1674    3    0    1
 -2       509       519       520       731
 -1      1675    3    0    1
 -2        99       965       406       405
 -1      1676    3    0    1
 -2       730       966        98       732
 -1      1677    3    0    1
 -2       105       731       103       729
 -1      1678    3    0    1
 -2       103       348       346       731
 -1      1679    3    0    1
 -2       103       101       729       731
 -1      1680    3    0    1
 -2        98       100       730       732
 -1      1681    3    0    1
 -2       332       409      1524      1533
 -1      1682    3    0    1
 -2       881       470       467      1593
 -1      1683    3    0    1
 -2       385      1102      1586      1832
 -1      1684    3    0    1
 -2       694       839      1677      1837
 -1      1685    3    0    1
 -2      2514      1262      2196      1350
 -1      1686    3    0    1
 -2      2215      2578      1316      2281
 -1      1687    3    0    1
 -2       113       736       121       356
 -1      1688    3    0    1
 -2       136       143       990       996
 -1      1689    3    0    1
 -2      1674      2495      2562      2622
 -1      1690    3    0    1
 -2       532       531       523       981
 -1      1691    3    0    1
 -2       189       336      1054      1967
 -1      1692    3    0    1
 -2      1429      2618      2699      2715
 -1      1693    3    0    1
 -2       538       740       537       540
 -1      1694    3    0    1
 -2      1564       899      2048      2480
 -1      1695    3    0    1
 -2       939       504      1982      1987
 -1      1696    3    0    1
 -2      1072      1660      1917      1939
 -1      1697    3    0    1
 -2       143       145       333       741
 -1      1698    3    0    1
 -2      1574      1558      1575      1744
 -1      1699    3    0    1
 -2       741       536       987       994
 -1      1700    3    0    1
 -2       545      1019      1015      1006
 -1      1701    3    0    1
 -2       804      1818      1803      1637
 -1      1702    3    0    1
 -2       538       999       740       540
 -1      1703    3    0    1
 -2      1447      2666      2681      2694
 -1      1704    3    0    1
 -2      1642      1746      1831      1925
 -1      1705    3    0    1
 -2      2026      1126      2031      2043
 -1      1706    3    0    1
 -2       548       547       556       747
 -1      1707    3    0    1
 -2       423       391      1527      1804
 -1      1708    3    0    1
 -2      1553      1582      1671      1707
 -1      1709    3    0    1
 -2      1968      2479      2501      2549
 -1      1710    3    0    1
 -2       547       555       556       747
 -1      1711    3    0    1
 -2       323       151       161       747
 -1      1712    3    0    1
 -2       323       324       151       747
 -1      1713    3    0    1
 -2       155      1015       154      1009
 -1      1714    3    0    1
 -2       190      1050       360       181
 -1      1715    3    0    1
 -2       176      1038       364       175
 -1      1716    3    0    1
 -2       169      1037       752       168
 -1      1717    3    0    1
 -2       693      1215       703      1695
 -1      1718    3    0    1
 -2      1307      2702      1496      2429
 -1      1719    3    0    1
 -2      1003       543       544      1554
 -1      1720    3    0    1
 -2       551      1019       545       554
 -1      1721    3    0    1
 -2      2107      2560      2212      2229
 -1      1722    3    0    1
 -2       372      2691      2746      1480
 -1      1723    3    0    1
 -2       169      1037       168       363
 -1      1724    3    0    1
 -2       174       168       167       755
 -1      1725    3    0    1
 -2       559       560       567       755
 -1      1726    3    0    1
 -2       337       166       345       755
 -1      1727    3    0    1
 -2       167       166       337       755
 -1      1728    3    0    1
 -2      2497       552      2106      2502
 -1      1729    3    0    1
 -2       339      1628      1646      1764
 -1      1730    3    0    1
 -2       561      1030       563       566
 -1      1731    3    0    1
 -2       560      1037       567       755
 -1      1732    3    0    1
 -2      1038       175       751      2154
 -1      1733    3    0    1
 -2       568       567       559      2154
 -1      1734    3    0    1
 -2       182      1055       344       181
 -1      1735    3    0    1
 -2       203      1068       208       201
 -1      1736    3    0    1
 -2       185      1054       760       184
 -1      1737    3    0    1
 -2        56       438      1564      2480
 -1      1738    3    0    1
 -2       574      1052       573       761
 -1      1739    3    0    1
 -2       392        12      2139      2172
 -1      1740    3    0    1
 -2      1688      1535      1727      1729
 -1      1741    3    0    1
 -2       756       362      1038      2154
 -1      1742    3    0    1
 -2       571       579       580       762
 -1      1743    3    0    1
 -2      1631      1047      1923      1976
 -1      1744    3    0    1
 -2       185      1054       184       196
 -1      1745    3    0    1
 -2       756      1038       567      2154
 -1      1746    3    0    1
 -2       373        72      1789      1791
 -1      1747    3    0    1
 -2       579       571       763      1055
 -1      1748    3    0    1
 -2       186       365       189       762
 -1      1749    3    0    1
 -2       186       197       365       762
 -1      1750    3    0    1
 -2      1621      1727       332      1854
 -1      1751    3    0    1
 -2       184      1042       762       760
 -1      1752    3    0    1
 -2       184      1042       186       762
 -1      1753    3    0    1
 -2       181      1041       763       190
 -1      1754    3    0    1
 -2       181      1041       759       763
 -1      1755    3    0    1
 -2      1330      1475      2463      2470
 -1      1756    3    0    1
 -2       206       768       766       203
 -1      1757    3    0    1
 -2      2548      2617      2640      2681
 -1      1758    3    0    1
 -2       586      1074       581      1058
 -1      1759    3    0    1
 -2       581      1073       591       592
 -1      1760    3    0    1
 -2       583       767       582       765
 -1      1761    3    0    1
 -2       717        35       883      1692
 -1      1762    3    0    1
 -2       591       592      1917      1939
 -1      1763    3    0    1
 -2      2511      2542      2632      2719
 -1      1764    3    0    1
 -2       211       203       208       768
 -1      1765    3    0    1
 -2      1125       626      1616      1989
 -1      1766    3    0    1
 -2       228      1081       224       774
 -1      1767    3    0    1
 -2       597      1090      1080       596
 -1      1768    3    0    1
 -2       230       221       773      1091
 -1      1769    3    0    1
 -2       189      1849      1967      1976
 -1      1770    3    0    1
 -2      2306      2250      2689      2388
 -1      1771    3    0    1
 -2       231      1091       229       430
 -1      1772    3    0    1
 -2       593       603       604       773
 -1      1773    3    0    1
 -2       647       648      1718      1875
 -1      1774    3    0    1
 -2       492       917      1654      2076
 -1      1775    3    0    1
 -2       799       801      1626      1758
 -1      1776    3    0    1
 -2      2607      1364      1427      1428
 -1      1777    3    0    1
 -2      1552      1647      1706      1910
 -1      1778    3    0    1
 -2       146      1003       136       329
 -1      1779    3    0    1
 -2       593      1092      1077       774
 -1      1780    3    0    1
 -2       776      1104       609      1093
 -1      1781    3    0    1
 -2       232       429       221       773
 -1      1782    3    0    1
 -2       221       429       230       773
 -1      1783    3    0    1
 -2      2253      1343      2291      2307
 -1      1784    3    0    1
 -2       238      1110       236       249
 -1      1785    3    0    1
 -2       228      1081       233       224
 -1      1786    3    0    1
 -2      2490      1230      1231      2543
 -1      1787    3    0    1
 -2      1560      1695      1835      1868
 -1      1788    3    0    1
 -2       249       236       427      1110
 -1      1789    3    0    1
 -2       246       245       247       777
 -1      1790    3    0    1
 -2       246      1111       250       245
 -1      1791    3    0    1
 -2       238      1110       778       236
 -1      1792    3    0    1
 -2      1651       137      1691      1742
 -1      1793    3    0    1
 -2       594      1087      1083       600
 -1      1794    3    0    1
 -2      1588      1736      1819      1895
 -1      1795    3    0    1
 -2      2163      1950      2560      2572
 -1      1796    3    0    1
 -2      2163      1950      2107      2560
 -1      1797    3    0    1
 -2      1282      1283      1356      2598
 -1      1798    3    0    1
 -2      2579      2668      2669      1518
 -1      1799    3    0    1
 -2       274      1145       273      1134
 -1      1800    3    0    1
 -2       267      1126       782       255
 -1      1801    3    0    1
 -2       631       640       639      1145
 -1      1802    3    0    1
 -2        71       925      1622      1825
 -1      1803    3    0    1
 -2      1570       689      1659      1665
 -1      1804    3    0    1
 -2      1393      2638      2675      2725
 -1      1805    3    0    1
 -2      1648      1615      1904      1905
 -1      1806    3    0    1
 -2       999       350      1787      2130
 -1      1807    3    0    1
 -2       615      1914      1994      2122
 -1      1808    3    0    1
 -2       637      1969      2053      2224
 -1      1809    3    0    1
 -2       618       785       617       781
 -1      1810    3    0    1
 -2      2478      1223      2563      2687
 -1      1811    3    0    1
 -2       285       793       272       387
 -1      1812    3    0    1
 -2       285       793       788       272
 -1      1813    3    0    1
 -2       110       128       986      2494
 -1      1814    3    0    1
 -2       277      1142       275       424
 -1      1815    3    0    1
 -2       631       792      1133      1144
 -1      1816    3    0    1
 -2      1186       675      1185      1888
 -1      1817    3    0    1
 -2      2509      2093      2168      2682
 -1      1818    3    0    1
 -2       508       945      2012      2025
 -1      1819    3    0    1
 -2      2635      2717      2431      2456
 -1      1820    3    0    1
 -2       630       791       629       787
 -1      1821    3    0    1
 -2       500       501       504      2219
 -1      1822    3    0    1
 -2       564      1033      2094      2159
 -1      1823    3    0    1
 -2      1647      1552      1721      1910
 -1      1824    3    0    1
 -2       278       282       284       792
 -1      1825    3    0    1
 -2       284       421       278       792
 -1      1826    3    0    1
 -2       773       604      1110      1994
 -1      1827    3    0    1
 -2      1547      1159      1551      1946
 -1      1828    3    0    1
 -2       424      1556      1574      1745
 -1      1829    3    0    1
 -2      1592      1553      1707      1909
 -1      1830    3    0    1
 -2      2562      1256      2622      2649
 -1      1831    3    0    1
 -2      1256      2514      2196      1342
 -1      1832    3    0    1
 -2       380      1942      1956      2017
 -1      1833    3    0    1
 -2       322       997      1587      1691
 -1      1834    3    0    1
 -2       215       195      2084      2507
 -1      1835    3    0    1
 -2      1586      1560      1770      1868
 -1      1836    3    0    1
 -2      1759       532      1936      2024
 -1      1837    3    0    1
 -2       683       831       684      1687
 -1      1838    3    0    1
 -2       916       491      1717      1783
 -1      1839    3    0    1
 -2       712      1596      1749      1918
 -1      1840    3    0    1
 -2      1197       686      1711      1814
 -1      1841    3    0    1
 -2      1664      1066      1757      1880
 -1      1842    3    0    1
 -2      1630      1530      1666      1705
 -1      1843    3    0    1
 -2      1673       356      1845      2077
 -1      1844    3    0    1
 -2      1317      1296      1377      2319
 -1      1845    3    0    1
 -2      1727      1621       332      1729
 -1      1846    3    0    1
 -2      1653       695      1765      1776
 -1      1847    3    0    1
 -2       884        30      1861      2477
 -1      1848    3    0    1
 -2       882       867       461       876
 -1      1849    3    0    1
 -2       350       139       999      1787
 -1      1850    3    0    1
 -2       396       315      1146      1857
 -1      1851    3    0    1
 -2      1612        24      1710      1750
 -1      1852    3    0    1
 -2       489       919       488       492
 -1      1853    3    0    1
 -2       919       489       918       492
 -1      1854    3    0    1
 -2      1620      1615      1756      1815
 -1      1855    3    0    1
 -2       128       110      2115      2494
 -1      1856    3    0    1
 -2        59        75       724       925
 -1      1857    3    0    1
 -2        12        10       866      1749
 -1      1858    3    0    1
 -2       374        83        79       948
 -1      1859    3    0    1
 -2      1563      1648      1882      1888
 -1      1860    3    0    1
 -2        61       915        59        67
 -1      1861    3    0    1
 -2      1531      1204      1570      1665
 -1      1862    3    0    1
 -2       284       419      1578      1920
 -1      1863    3    0    1
 -2       547      1022       748       555
 -1      1864    3    0    1
 -2       695       844       698      1653
 -1      1865    3    0    1
 -2      1052      1682      1683      1922
 -1      1866    3    0    1
 -2      2614      2163      2229      2560
 -1      1867    3    0    1
 -2       566      1035      1623      1883
 -1      1868    3    0    1
 -2      1645       896      1797      1826
 -1      1869    3    0    1
 -2       762       189      1054      1967
 -1      1870    3    0    1
 -2       647      1158       796      1718
 -1      1871    3    0    1
 -2       810      1179      1533      1618
 -1      1872    3    0    1
 -2       527       982       521       530
 -1      1873    3    0    1
 -2       522       976       521       970
 -1      1874    3    0    1
 -2       361       173      1411      2660
 -1      1875    3    0    1
 -2       519       508       945      2012
 -1      1876    3    0    1
 -2       322      1587      1602      1630
 -1      1877    3    0    1
 -2       420       424      1142      1662
 -1      1878    3    0    1
 -2       535      1003       543       544
 -1      1879    3    0    1
 -2       363       747      1037      1604
 -1      1880    3    0    1
 -2       428       433      1615      1905
 -1      1881    3    0    1
 -2      1746       243      1792      1793
 -1      1882    3    0    1
 -2       883       471       717      1692
 -1      1883    3    0    1
 -2      1531      1663      1665      1570
 -1      1884    3    0    1
 -2       289       410       796      1758
 -1      1885    3    0    1
 -2      1138      1534      1578      1675
 -1      1886    3    0    1
 -2      2133      2089      2521      2542
 -1      1887    3    0    1
 -2       964       943       512       957
 -1      1888    3    0    1
 -2      1541      1803      1818      1895
 -1      1889    3    0    1
 -2       511       960       510       516
 -1      1890    3    0    1
 -2       681      1194       827      1655
 -1      1891    3    0    1
 -2       370        86        78       947
 -1      1892    3    0    1
 -2       104       963       958       404
 -1      1893    3    0    1
 -2       333       143      1554      1975
 -1      1894    3    0    1
 -2      2047      2126      2178      2557
 -1      1895    3    0    1
 -2       660       659      1842      1864
 -1      1896    3    0    1
 -2       415         7      1552      1721
 -1      1897    3    0    1
 -2       611      1616      1832      1956
 -1      1898    3    0    1
 -2      2619      2564      2668      2669
 -1      1899    3    0    1
 -2       881       416      1733      1948
 -1      1900    3    0    1
 -2       467       877      1593      1858
 -1      1901    3    0    1
 -2       697      1211       699      1930
 -1      1902    3    0    1
 -2       381       384       902      2504
 -1      1903    3    0    1
 -2      1780       580      1967       762
 -1      1904    3    0    1
 -2      1734      1769      1892      2143
 -1      1905    3    0    1
 -2       661      1862      1947      1996
 -1      1906    3    0    1
 -2       528       541       979      1723
 -1      1907    3    0    1
 -2      1018      2490      1231      2601
 -1      1908    3    0    1
 -2       366       430      2001      2015
 -1      1909    3    0    1
 -2      1603      1597      1669      1672
 -1      1910    3    0    1
 -2       859         7      1525      1700
 -1      1911    3    0    1
 -2      1610      1563      1726      1746
 -1      1912    3    0    1
 -2      2056      2486      2557      2604
 -1      1913    3    0    1
 -2       295      1171      1174      1816
 -1      1914    3    0    1
 -2         6       858        14       417
 -1      1915    3    0    1
 -2        44       896      1562      1767
 -1      1916    3    0    1
 -2         4       861       857       705
 -1      1917    3    0    1
 -2      1221      2205      2606      2284
 -1      1918    3    0    1
 -2       129       976      1847      1872
 -1      1919    3    0    1
 -2      1659      1529      1663      1720
 -1      1920    3    0    1
 -2       507       946       947      1937
 -1      1921    3    0    1
 -2       844       695       841      1653
 -1      1922    3    0    1
 -2       982       530      1902      1970
 -1      1923    3    0    1
 -2      1353      1296      1354      2605
 -1      1924    3    0    1
 -2      1663      1531      1665      1720
 -1      1925    3    0    1
 -2      1968      2479      2144      2512
 -1      1926    3    0    1
 -2        68       916      1611      1717
 -1      1927    3    0    1
 -2      1227      1453      2721      2744
 -1      1928    3    0    1
 -2      1689       542      1823      1975
 -1      1929    3    0    1
 -2       343      1070      1522      1885
 -1      1930    3    0    1
 -2       608      1104       613       612
 -1      1931    3    0    1
 -2       225       219       226      1092
 -1      1932    3    0    1
 -2        56       438       905      1564
 -1      1933    3    0    1
 -2      1892      1980      2014      2164
 -1      1934    3    0    1
 -2       741       143      1003      1554
 -1      1935    3    0    1
 -2       241      1104       248       779
 -1      1936    3    0    1
 -2      1071       214      1846      1923
 -1      1937    3    0    1
 -2       593      1092       774       603
 -1      1938    3    0    1
 -2       593      1091       773      1076
 -1      1939    3    0    1
 -2       794      1148      1614      1857
 -1      1940    3    0    1
 -2       607      1107      1101       614
 -1      1941    3    0    1
 -2      1921       139      2073      2492
 -1      1942    3    0    1
 -2      2506      1260      2565      2637
 -1      1943    3    0    1
 -2       812      1181      1632      1715
 -1      1944    3    0    1
 -2      1532      1710      1750      1751
 -1      1945    3    0    1
 -2      2344      2376      2450      2761
 -1      1946    3    0    1
 -2       807       662      1862      1947
 -1      1947    3    0    1
 -2       550      1017       549       552
 -1      1948    3    0    1
 -2      2250      2294      2306      2759
 -1      1949    3    0    1
 -2      1138       275       790      1142
 -1      1950    3    0    1
 -2       268       256      1127      1128
 -1      1951    3    0    1
 -2       256       426       268      1127
 -1      1952    3    0    1
 -2       257      1128       256       386
 -1      1953    3    0    1
 -2       846      1208      1571      1591
 -1      1954    3    0    1
 -2      2566      2195      1293      1310
 -1      1955    3    0    1
 -2      1536      1628      1763      1784
 -1      1956    3    0    1
 -2       646       645      1577      1843
 -1      1957    3    0    1
 -2      1655      1561      1771      1831
 -1      1958    3    0    1
 -2       315       803      1170      1818
 -1      1959    3    0    1
 -2      1108       616      1914      2013
 -1      1960    3    0    1
 -2      1773      1106      1793      1928
 -1      1961    3    0    1
 -2       903        46       904      1795
 -1      1962    3    0    1
 -2      1572      1120      1575      1840
 -1      1963    3    0    1
 -2       619      1126       627      1129
 -1      1964    3    0    1
 -2      1191       677       678      1741
 -1      1965    3    0    1
 -2       435       850      1567      1762
 -1      1966    3    0    1
 -2      1088      2476      1220      1221
 -1      1967    3    0    1
 -2       581      1074       592       591
 -1      1968    3    0    1
 -2      1548      1613      1753      1945
 -1      1969    3    0    1
 -2      1052      1048      1682      1922
 -1      1970    3    0    1
 -2       316      1175      1637      1996
 -1      1971    3    0    1
 -2       415         7      1721      1973
 -1      1972    3    0    1
 -2       506      1667      1761      1775
 -1      1973    3    0    1
 -2       407      1159      1547      1946
 -1      1974    3    0    1
 -2      2089      2180      2521      2184
 -1      1975    3    0    1
 -2      1611      1543      1898      1951
 -1      1976    3    0    1
 -2       186      1047       184       189
 -1      1977    3    0    1
 -2      1084       599      1090      1897
 -1      1978    3    0    1
 -2       817      1533      1661      1714
 -1      1979    3    0    1
 -2      1703       429      1913      2036
 -1      1980    3    0    1
 -2       456       469       861      1690
 -1      1981    3    0    1
 -2      1202      1199      1784      2027
 -1      1982    3    0    1
 -2       270       261      2031      2481
 -1      1983    3    0    1
 -2      1670       430      1900      2009
 -1      1984    3    0    1
 -2      1713      1531      1782      1865
 -1      1985    3    0    1
 -2       190      1050       181      1039
 -1      1986    3    0    1
 -2       446      1205       447      1931
 -1      1987    3    0    1
 -2      1792      1561      1831      1833
 -1      1988    3    0    1
 -2      1883       340      1031      1035
 -1      1989    3    0    1
 -2       965       731       406      1934
 -1      1990    3    0    1
 -2       765      1068       767       582
 -1      1991    3    0    1
 -2      1603      1597      1629      1669
 -1      1992    3    0    1
 -2       679       825      1642      1925
 -1      1993    3    0    1
 -2       546      1014       545      1008
 -1      1994    3    0    1
 -2       457      1810      1924      2102
 -1      1995    3    0    1
 -2       756      1055      1877      2086
 -1      1996    3    0    1
 -2       570      1046       569       758
 -1      1997    3    0    1
 -2       850       287       838      1762
 -1      1998    3    0    1
 -2       213      1072      1660      1917
 -1      1999    3    0    1
 -2      2531      2581      2588      2609
 -1      2000    3    0    1
 -2       385      1608      1792      1793
 -1      2001    3    0    1
 -2      1715       811      1945      1955
 -1      2002    3    0    1
 -2       124       348      1927      1999
 -1      2003    3    0    1
 -2       359       767      1068      1801
 -1      2004    3    0    1
 -2       696      1212       700      1598
 -1      2005    3    0    1
 -2      1817       178      2057      1222
 -1      2006    3    0    1
 -2       462       877       870       868
 -1      2007    3    0    1
 -2         6       853       852       711
 -1      2008    3    0    1
 -2        16       866       392         5
 -1      2009    3    0    1
 -2       463       883       471       717
 -1      2010    3    0    1
 -2       623       626      1125      1766
 -1      2011    3    0    1
 -2       452       865       459       451
 -1      2012    3    0    1
 -2       225       774      1856      2169
 -1      2013    3    0    1
 -2      1582      1585      1671      1707
 -1      2014    3    0    1
 -2       457       456       449       857
 -1      2015    3    0    1
 -2      1157       288      1875      1929
 -1      2016    3    0    1
 -2       420      1582      1745      1876
 -1      2017    3    0    1
 -2      1105      2484      1237      2570
 -1      2018    3    0    1
 -2       883      1596      1861      1896
 -1      2019    3    0    1
 -2      1139       636       637      2224
 -1      2020    3    0    1
 -2      1622       925      1790      1825
 -1      2021    3    0    1
 -2       467      1593      1722      1858
 -1      2022    3    0    1
 -2       629      1140       791       636
 -1      2023    3    0    1
 -2      1935        88      1987      2515
 -1      2024    3    0    1
 -2       742       350      1699      1921
 -1      2025    3    0    1
 -2       877      1576      1612      1858
 -1      2026    3    0    1
 -2         5       857         4        12
 -1      2027    3    0    1
 -2         4       707       705       857
 -1      2028    3    0    1
 -2         4       861        10       857
 -1      2029    3    0    1
 -2       707       449       705       857
 -1      2030    3    0    1
 -2       449       861       705       857
 -1      2031    3    0    1
 -2       460       471       883      1596
 -1      2032    3    0    1
 -2      1539        44      1796      1800
 -1      2033    3    0    1
 -2      1740      1650      1962      2020
 -1      2034    3    0    1
 -2      1590       651      1164      1712
 -1      2035    3    0    1
 -2       811       813      1945      1955
 -1      2036    3    0    1
 -2      1546      1584      1718      1758
 -1      2037    3    0    1
 -2      1574      1556      1658      1745
 -1      2038    3    0    1
 -2      1600      1653      1536      1765
 -1      2039    3    0    1
 -2       412       798      1594      1702
 -1      2040    3    0    1
 -2      2377      2650      1469      2697
 -1      2041    3    0    1
 -2      2109      1863      2506      2526
 -1      2042    3    0    1
 -2      1066       587      1664      1757
 -1      2043    3    0    1
 -2       921       494       916      1783
 -1      2044    3    0    1
 -2       449       861       857       456
 -1      2045    3    0    1
 -2      1632      1547      1730      2018
 -1      2046    3    0    1
 -2      2278       706      2314      2317
 -1      2047    3    0    1
 -2       240       427      1109      1942
 -1      2048    3    0    1
 -2      1541       396      1614      1857
 -1      2049    3    0    1
 -2       454       863       453       710
 -1      2050    3    0    1
 -2       859       453       455       863
 -1      2051    3    0    1
 -2       454       864       453       458
 -1      2052    3    0    1
 -2       453       856       709       864
 -1      2053    3    0    1
 -2       858       453       709       864
 -1      2054    3    0    1
 -2       453       858       455       864
 -1      2055    3    0    1
 -2       856         6       709       864
 -1      2056    3    0    1
 -2         6       858       709       864
 -1      2057    3    0    1
 -2        14       419        13       865
 -1      2058    3    0    1
 -2       853         6        13       865
 -1      2059    3    0    1
 -2       712       708         4       866
 -1      2060    3    0    1
 -2        16       866         5       854
 -1      2061    3    0    1
 -2        12         5       392       866
 -1      2062    3    0    1
 -2         4       854         5       866
 -1      2063    3    0    1
 -2       451       854       708       866
 -1      2064    3    0    1
 -2       712       451       708       866
 -1      2065    3    0    1
 -2       854         4       708       866
 -1      2066    3    0    1
 -2       867       882       869        21
 -1      2067    3    0    1
 -2        25       877       870        20
 -1      2068    3    0    1
 -2      1594      1168      1684      1702
 -1      2069    3    0    1
 -2       714       879       875        26
 -1      2070    3    0    1
 -2        34       883       871        19
 -1      2071    3    0    1
 -2       405        95       946      1589
 -1      2072    3    0    1
 -2        29       884       872        22
 -1      2073    3    0    1
 -2        22       884        31        30
 -1      2074    3    0    1
 -2       717       463       871       874
 -1      2075    3    0    1
 -2        19       717       871       874
 -1      2076    3    0    1
 -2        19        21       717       874
 -1      2077    3    0    1
 -2      1014      1836      1912      2006
 -1      2078    3    0    1
 -2       714       879       465       875
 -1      2079    3    0    1
 -2      1639       296      1666      1694
 -1      2080    3    0    1
 -2       187       192      1052      1682
 -1      2081    3    0    1
 -2      1699       350      1787      1921
 -1      2082    3    0    1
 -2       387       392      2139      2194
 -1      2083    3    0    1
 -2       717        19       871       883
 -1      2084    3    0    1
 -2      2488      1232      1233      2548
 -1      2085    3    0    1
 -2      1052      1601      1649      1683
 -1      2086    3    0    1
 -2       656      1169      1626      1643
 -1      2087    3    0    1
 -2       462       876       461       867
 -1      2088    3    0    1
 -2       867       882       461       869
 -1      2089    3    0    1
 -2       826      1642      1831      1925
 -1      2090    3    0    1
 -2        25       881       868       877
 -1      2091    3    0    1
 -2      2529      2485      2554      2703
 -1      2092    3    0    1
 -2      1224      2500      2562      2599
 -1      2093    3    0    1
 -2       364       362      1038      2499
 -1      2094    3    0    1
 -2       477       899       898       719
 -1      2095    3    0    1
 -2       740      1723      1787      2061
 -1      2096    3    0    1
 -2      1219      2518      1257      1258
 -1      2097    3    0    1
 -2       310       338       832      1848
 -1      2098    3    0    1
 -2      2592      2553      2636      2664
 -1      2099    3    0    1
 -2      1787       746       999      2130
 -1      2100    3    0    1
 -2       714       879        26       716
 -1      2101    3    0    1
 -2       879       714       465       716
 -1      2102    3    0    1
 -2       465       716       469       879
 -1      2103    3    0    1
 -2      1128      1841      2013      2046
 -1      2104    3    0    1
 -2      1550      1644      2087      2496
 -1      2105    3    0    1
 -2       291       809      1180      1886
 -1      2106    3    0    1
 -2       433      1599      1756      1815
 -1      2107    3    0    1
 -2       462       881       461       467
 -1      2108    3    0    1
 -2       881       462       877       467
 -1      2109    3    0    1
 -2       356       121      1673      1845
 -1      2110    3    0    1
 -2        21       882        19        38
 -1      2111    3    0    1
 -2       882        21       876        38
 -1      2112    3    0    1
 -2       296      1530      1606      1639
 -1      2113    3    0    1
 -2       867       882        21       876
 -1      2114    3    0    1
 -2       551      1015      1836      1952
 -1      2115    3    0    1
 -2       213       342      1660      1940
 -1      2116    3    0    1
 -2       463       883       717       871
 -1      2117    3    0    1
 -2        19        35        36       883
 -1      2118    3    0    1
 -2       476       903       893       475
 -1      2119    3    0    1
 -2        42       886       903       904
 -1      2120    3    0    1
 -2        49        53       886       904
 -1      2121    3    0    1
 -2        54        49        53       886
 -1      2122    3    0    1
 -2      1786       591      1813      1917
 -1      2123    3    0    1
 -2       984       117      1936      1971
 -1      2124    3    0    1
 -2      2518      2571      2623      2648
 -1      2125    3    0    1
 -2      1620      1565      1899      1905
 -1      2126    3    0    1
 -2       917       941      1654      2486
 -1      2127    3    0    1
 -2      1698      1021      1911      2079
 -1      2128    3    0    1
 -2       936        92      1589      1884
 -1      2129    3    0    1
 -2        51       902       382       381
 -1      2130    3    0    1
 -2        62       926        60        72
 -1      2131    3    0    1
 -2        49       411        53       904
 -1      2132    3    0    1
 -2        50       905        56        43
 -1      2133    3    0    1
 -2       479       901       482       473
 -1      2134    3    0    1
 -2       287       850       435      1762
 -1      2135    3    0    1
 -2       486       922       491       494
 -1      2136    3    0    1
 -2       196       345       755      1652
 -1      2137    3    0    1
 -2       475       905       902       483
 -1      2138    3    0    1
 -2       433       428      1565      1905
 -1      2139    3    0    1
 -2      1575      1572      1840      1867
 -1      2140    3    0    1
 -2      1647      1553      1910      2003
 -1      2141    3    0    1
 -2       889       473       888       895
 -1      2142    3    0    1
 -2       473       901       888       895
 -1      2143    3    0    1
 -2       488       919       493       492
 -1      2144    3    0    1
 -2        87      2099      2116      2498
 -1      2145    3    0    1
 -2       159       324      1014      1912
 -1      2146    3    0    1
 -2       194      1817      1974      2086
 -1      2147    3    0    1
 -2       920      2475      1218      1219
 -1      2148    3    0    1
 -2       194      1046      1050      2159
 -1      2149    3    0    1
 -2       337       345      1652      1855
 -1      2150    3    0    1
 -2       840      1848       698      1210
 -1      2151    3    0    1
 -2      2164      1950      2527      2560
 -1      2152    3    0    1
 -2       401      1544      1668      1842
 -1      2153    3    0    1
 -2        52       898        43       894
 -1      2154    3    0    1
 -2       894        43       719       898
 -1      2155    3    0    1
 -2       477       894       719       898
 -1      2156    3    0    1
 -2        43       899       719       898
 -1      2157    3    0    1
 -2      1664       587      1670      2009
 -1      2158    3    0    1
 -2       556      1604      1830      1893
 -1      2159    3    0    1
 -2       627      1108      1129      2013
 -1      2160    3    0    1
 -2       479       901       473       895
 -1      2161    3    0    1
 -2       895        42        46       901
 -1      2162    3    0    1
 -2       517      1760      1982      2071
 -1      2163    3    0    1
 -2        49       901        42       888
 -1      2164    3    0    1
 -2       489       919       906       488
 -1      2165    3    0    1
 -2        52       902        51       892
 -1      2166    3    0    1
 -2       892       475       891       902
 -1      2167    3    0    1
 -2       475       905       891       902
 -1      2168    3    0    1
 -2        43       892       891       902
 -1      2169    3    0    1
 -2       476       902       475       892
 -1      2170    3    0    1
 -2       335      1696      1738      1985
 -1      2171    3    0    1
 -2        55       903        42       893
 -1      2172    3    0    1
 -2       398        46        42       903
 -1      2173    3    0    1
 -2        42       886       893       903
 -1      2174    3    0    1
 -2       119       341      2061      2131
 -1      2175    3    0    1
 -2       475       893       886       903
 -1      2176    3    0    1
 -2       475       904       483       903
 -1      2177    3    0    1
 -2        42        49       886       904
 -1      2178    3    0    1
 -2        50       905        43       891
 -1      2179    3    0    1
 -2        56       438        43       905
 -1      2180    3    0    1
 -2        61       924       909        58
 -1      2181    3    0    1
 -2        58       924       399        67
 -1      2182    3    0    1
 -2        69       918       373        62
 -1      2183    3    0    1
 -2      1791       923      2147      2498
 -1      2184    3    0    1
 -2        66       921        65       395
 -1      2185    3    0    1
 -2       487       916       913       486
 -1      2186    3    0    1
 -2       504      1982      1987      2144
 -1      2187    3    0    1
 -2       917      1654      2076      2486
 -1      2188    3    0    1
 -2       230       366      1091      1997
 -1      2189    3    0    1
 -2      1094      1108      2174      2176
 -1      2190    3    0    1
 -2       487       916       486       491
 -1      2191    3    0    1
 -2      1785        87      2116      2498
 -1      2192    3    0    1
 -2       513       957       515       512
 -1      2193    3    0    1
 -2        67        59        71       915
 -1      2194    3    0    1
 -2        69        73       908       923
 -1      2195    3    0    1
 -2       398      1624      1797      1825
 -1      2196    3    0    1
 -2       487       915       911       912
 -1      2197    3    0    1
 -2        69       926       923       723
 -1      2198    3    0    1
 -2       911        59       912       915
 -1      2199    3    0    1
 -2        59       922        71       915
 -1      2200    3    0    1
 -2      2484      2052      2165      2168
 -1      2201    3    0    1
 -2      1711      1814      1907      1978
 -1      2202    3    0    1
 -2        65       916       910       913
 -1      2203    3    0    1
 -2       402      1605      1737      1881
 -1      2204    3    0    1
 -2       910       486       913       916
 -1      2205    3    0    1
 -2       486       921       494       916
 -1      2206    3    0    1
 -2      1674      2478      2119      2491
 -1      2207    3    0    1
 -2      2261      2234      2267      2643
 -1      2208    3    0    1
 -2      1616      1728      1956      1989
 -1      2209    3    0    1
 -2      1600      1536      1763      1765
 -1      2210    3    0    1
 -2      1525         7      1607      1700
 -1      2211    3    0    1
 -2      1085       428      1615      1904
 -1      2212    3    0    1
 -2       500       940       939       726
 -1      2213    3    0    1
 -2      1204      1203      1570      1665
 -1      2214    3    0    1
 -2      2528      2157      2555      2556
 -1      2215    3    0    1
 -2      1527       423      1804      2021
 -1      2216    3    0    1
 -2      1273      2226      2263      2266
 -1      2217    3    0    1
 -2      2595      2578      2281      1426
 -1      2218    3    0    1
 -2        69       918        62       914
 -1      2219    3    0    1
 -2        62       906       914       918
 -1      2220    3    0    1
 -2        62       919       906       918
 -1      2221    3    0    1
 -2       878      2058      2478      2519
 -1      2222    3    0    1
 -2       901       482      1722      1826
 -1      2223    3    0    1
 -2      1723       979      1845      2061
 -1      2224    3    0    1
 -2       916        65       910       921
 -1      2225    3    0    1
 -2       486       921       916       910
 -1      2226    3    0    1
 -2        65       916        68       921
 -1      2227    3    0    1
 -2       395        65        68       921
 -1      2228    3    0    1
 -2       337      1030      1036      1724
 -1      2229    3    0    1
 -2      2055       334      2059      2080
 -1      2230    3    0    1
 -2       977       527      1872      1902
 -1      2231    3    0    1
 -2      1054       196      1652      1933
 -1      2232    3    0    1
 -2       487       922       486       911
 -1      2233    3    0    1
 -2        59       922       915       911
 -1      2234    3    0    1
 -2       100       961        98       944
 -1      2235    3    0    1
 -2       511       960       953       510
 -1      2236    3    0    1
 -2       497       945       508       507
 -1      2237    3    0    1
 -2      1523       394      1576      1612
 -1      2238    3    0    1
 -2        73        69       373       923
 -1      2239    3    0    1
 -2       723        69       908       923
 -1      2240    3    0    1
 -2        61       924        58        67
 -1      2241    3    0    1
 -2       490       925       485       724
 -1      2242    3    0    1
 -2       377       376      2066      2481
 -1      2243    3    0    1
 -2       402      1605      1611      1737
 -1      2244    3    0    1
 -2        59        61        67       925
 -1      2245    3    0    1
 -2       485       924       724       925
 -1      2246    3    0    1
 -2        61       924        67       925
 -1      2247    3    0    1
 -2       924        61       724       925
 -1      2248    3    0    1
 -2        59        71        75       925
 -1      2249    3    0    1
 -2       360       763      1974      2507
 -1      2250    3    0    1
 -2        61        59       724       925
 -1      2251    3    0    1
 -2       924       485       496       925
 -1      2252    3    0    1
 -2        87        79       934       948
 -1      2253    3    0    1
 -2        80       937        81        77
 -1      2254    3    0    1
 -2       499       937       932       498
 -1      2255    3    0    1
 -2       881       416      1700      1733
 -1      2256    3    0    1
 -2       498       935       503       937
 -1      2257    3    0    1
 -2      1571      1573      1704      1806
 -1      2258    3    0    1
 -2       502       948       497       507
 -1      2259    3    0    1
 -2      1122       261      2031      2118
 -1      2260    3    0    1
 -2        87        79        93       934
 -1      2261    3    0    1
 -2      1701      1594      1958      1555
 -1      2262    3    0    1
 -2       409      1524      1533      1752
 -1      2263    3    0    1
 -2       746      1656      2106      2161
 -1      2264    3    0    1
 -2      2569      2614      2713      2717
 -1      2265    3    0    1
 -2       922       915       491      2016
 -1      2266    3    0    1
 -2       923       496       926      1791
 -1      2267    3    0    1
 -2       901       479       482      1826
 -1      2268    3    0    1
 -2       882        35        38      1824
 -1      2269    3    0    1
 -2      1469       198      2697      2715
 -1      2270    3    0    1
 -2       839       445      1907      1978
 -1      2271    3    0    1
 -2       717        37      1692      1799
 -1      2272    3    0    1
 -2       931       498       930       936
 -1      2273    3    0    1
 -2       498       942       930       936
 -1      2274    3    0    1
 -2       106       958       347       104
 -1      2275    3    0    1
 -2       932        77       929       937
 -1      2276    3    0    1
 -2        77       935       929       937
 -1      2277    3    0    1
 -2       498       932       929       937
 -1      2278    3    0    1
 -2       935       498       929       937
 -1      2279    3    0    1
 -2       496       924      1622      1834
 -1      2280    3    0    1
 -2       727       725      2216      2265
 -1      2281    3    0    1
 -2      2618      1429      1430      2715
 -1      2282    3    0    1
 -2      1717      1611      1898      2000
 -1      2283    3    0    1
 -2       915      1926      2000      2016
 -1      2284    3    0    1
 -2       370        92        78       942
 -1      2285    3    0    1
 -2      1002       330       996      1975
 -1      2286    3    0    1
 -2        83       940       374        79
 -1      2287    3    0    1
 -2      1050      1046      1807      2159
 -1      2288    3    0    1
 -2       693       849       836      1695
 -1      2289    3    0    1
 -2        98       961       354       369
 -1      2290    3    0    1
 -2      1164      1590      1712      1866
 -1      2291    3    0    1
 -2        36       711       883      1748
 -1      2292    3    0    1
 -2       933        79       726       939
 -1      2293    3    0    1
 -2       500       933       726       939
 -1      2294    3    0    1
 -2       725        85      2216      2265
 -1      2295    3    0    1
 -2        79       940       726       939
 -1      2296    3    0    1
 -2       736       529       528      1890
 -1      2297    3    0    1
 -2       736       979      1845      1890
 -1      2298    3    0    1
 -2      1597      1558      1629      1851
 -1      2299    3    0    1
 -2       653      1168       798      1702
 -1      2300    3    0    1
 -2       516       529      2077      2128
 -1      2301    3    0    1
 -2       997       322      1587      1602
 -1      2302    3    0    1
 -2       503       942       498       936
 -1      2303    3    0    1
 -2       936        78        92       942
 -1      2304    3    0    1
 -2        86       942        78       930
 -1      2305    3    0    1
 -2       117       122       125       967
 -1      2306    3    0    1
 -2       864       458      1578      1920
 -1      2307    3    0    1
 -2       972       113       981       986
 -1      2308    3    0    1
 -2       524       984       523       532
 -1      2309    3    0    1
 -2        79        83       927       945
 -1      2310    3    0    1
 -2      2479       938      1225      1226
 -1      2311    3    0    1
 -2      1119      1766      1989      2010
 -1      2312    3    0    1
 -2       502       947       497       728
 -1      2313    3    0    1
 -2        95        92        78       946
 -1      2314    3    0    1
 -2        78       728       928       946
 -1      2315    3    0    1
 -2       946       497       728       928
 -1      2316    3    0    1
 -2        92        78       946       947
 -1      2317    3    0    1
 -2      1050       360      1807      1974
 -1      2318    3    0    1
 -2        86       370        91       947
 -1      2319    3    0    1
 -2        78        86       728       947
 -1      2320    3    0    1
 -2       927        79       945       948
 -1      2321    3    0    1
 -2        79        87       374       948
 -1      2322    3    0    1
 -2      1373      2318      2319      2330
 -1      2323    3    0    1
 -2        79       927       934       948
 -1      2324    3    0    1
 -2       497       934       927       948
 -1      2325    3    0    1
 -2       945       497       927       948
 -1      2326    3    0    1
 -2       109       966       367        98
 -1      2327    3    0    1
 -2      2550      1269      2604      2624
 -1      2328    3    0    1
 -2       377      1739      2066      2103
 -1      2329    3    0    1
 -2      1576       482      1722      1822
 -1      2330    3    0    1
 -2      1191       418      1188      1658
 -1      2331    3    0    1
 -2       943       964       955       103
 -1      2332    3    0    1
 -2      1556      1585      1707      1741
 -1      2333    3    0    1
 -2       385      1102      1608      1793
 -1      2334    3    0    1
 -2      1620       831      1679      1687
 -1      2335    3    0    1
 -2       662       661      1862      1947
 -1      2336    3    0    1
 -2       129       117       974       984
 -1      2337    3    0    1
 -2       142       334      2059      2130
 -1      2338    3    0    1
 -2       299       401       815      1668
 -1      2339    3    0    1
 -2      1084       599      1897      2036
 -1      2340    3    0    1
 -2       336       189      1849      1967
 -1      2341    3    0    1
 -2      1102      1106      1608      1793
 -1      2342    3    0    1
 -2      2088      2093      2509      2682
 -1      2343    3    0    1
 -2       344       194      1817      2186
 -1      2344    3    0    1
 -2       513       957       512       943
 -1      2345    3    0    1
 -2       943       964       512       955
 -1      2346    3    0    1
 -2       178       177      1817      2057
 -1      2347    3    0    1
 -2       106       958       104       956
 -1      2348    3    0    1
 -2       347       404       104       958
 -1      2349    3    0    1
 -2       104       954       956       958
 -1      2350    3    0    1
 -2       104       963       954       958
 -1      2351    3    0    1
 -2      1526      1031      1754      1883
 -1      2352    3    0    1
 -2      1543      1611      1737      1951
 -1      2353    3    0    1
 -2      1433      1347      2688      2690
 -1      2354    3    0    1
 -2      1074       768       592      1939
 -1      2355    3    0    1
 -2       417        15       858      1774
 -1      2356    3    0    1
 -2      1528      1651      1705      1916
 -1      2357    3    0    1
 -2       100       960       944       953
 -1      2358    3    0    1
 -2       377       280      1739      2103
 -1      2359    3    0    1
 -2       944       510       953       960
 -1      2360    3    0    1
 -2       510       961       517       960
 -1      2361    3    0    1
 -2       510       961       960       944
 -1      2362    3    0    1
 -2       883       471      1692      1861
 -1      2363    3    0    1
 -2      2311      1384      2358      1457
 -1      2364    3    0    1
 -2      2592      2275      1433      2690
 -1      2365    3    0    1
 -2      2510      1226      1266      1267
 -1      2366    3    0    1
 -2      1722       876      1822      1824
 -1      2367    3    0    1
 -2       513       963       512       515
 -1      2368    3    0    1
 -2       963       513       958       515
 -1      2369    3    0    1
 -2      1661      1618      1688      1727
 -1      2370    3    0    1
 -2       103       964       101       346
 -1      2371    3    0    1
 -2       964       103       957       346
 -1      2372    3    0    1
 -2        14       858       864      1774
 -1      2373    3    0    1
 -2       943       964       103       957
 -1      2374    3    0    1
 -2       729       965       509       731
 -1      2375    3    0    1
 -2       101       965        99       950
 -1      2376    3    0    1
 -2       965       729       101       731
 -1      2377    3    0    1
 -2       730       966       509       951
 -1      2378    3    0    1
 -2        98       367       369       966
 -1      2379    3    0    1
 -2       109       966        98       951
 -1      2380    3    0    1
 -2       123       985       967       122
 -1      2381    3    0    1
 -2       125       970       117       126
 -1      2382    3    0    1
 -2       524       981       532       523
 -1      2383    3    0    1
 -2        92       946      1589      1937
 -1      2384    3    0    1
 -2       293       413       800      1549
 -1      2385    3    0    1
 -2       114       981       121       119
 -1      2386    3    0    1
 -2       127       986       128       113
 -1      2387    3    0    1
 -2       527       983       530       521
 -1      2388    3    0    1
 -2       698       695      1653      1776
 -1      2389    3    0    1
 -2       948      1785      2147      2498
 -1      2390    3    0    1
 -2       416        24      1532      1948
 -1      2391    3    0    1
 -2       533      1002       539       542
 -1      2392    3    0    1
 -2       408       318       811      1955
 -1      2393    3    0    1
 -2       521       983       969       976
 -1      2394    3    0    1
 -2       970       521       969       976
 -1      2395    3    0    1
 -2       756       568      1747      2057
 -1      2396    3    0    1
 -2      2289      2576      2335      2346
 -1      2397    3    0    1
 -2       118       977       116       971
 -1      2398    3    0    1
 -2       971       116       968       977
 -1      2399    3    0    1
 -2       521       971       968       977
 -1      2400    3    0    1
 -2       969       117       976       983
 -1      2401    3    0    1
 -2        36       882      1557      1748
 -1      2402    3    0    1
 -2       116       982       968       977
 -1      2403    3    0    1
 -2       332       982       409       116
 -1      2404    3    0    1
 -2       121       981      1673      1845
 -1      2405    3    0    1
 -2      2479      2501      2510      2561
 -1      2406    3    0    1
 -2       916        68       921      1717
 -1      2407    3    0    1
 -2       120       979       113       975
 -1      2408    3    0    1
 -2       113       736       734       979
 -1      2409    3    0    1
 -2       975       113       734       979
 -1      2410    3    0    1
 -2       736       525       734       979
 -1      2411    3    0    1
 -2       525       975       734       979
 -1      2412    3    0    1
 -2        71       922      1825      2016
 -1      2413    3    0    1
 -2       147      1012       151       747
 -1      2414    3    0    1
 -2       160      1021       147       335
 -1      2415    3    0    1
 -2       547      1012      1005       747
 -1      2416    3    0    1
 -2       135      1004       134       139
 -1      2417    3    0    1
 -2       523       986       981       531
 -1      2418    3    0    1
 -2       536      1004       535       992
 -1      2419    3    0    1
 -2       999       738       135       995
 -1      2420    3    0    1
 -2       120       981       114       973
 -1      2421    3    0    1
 -2       973       523       972       981
 -1      2422    3    0    1
 -2       523       986       972       981
 -1      2423    3    0    1
 -2       113       973       972       981
 -1      2424    3    0    1
 -2       524       981       523       973
 -1      2425    3    0    1
 -2      1911      1021      1991      2079
 -1      2426    3    0    1
 -2      1214      1559      1629      1669
 -1      2427    3    0    1
 -2       527       983       521       976
 -1      2428    3    0    1
 -2      1190      1592      1707      1909
 -1      2429    3    0    1
 -2       946       965      1589      2012
 -1      2430    3    0    1
 -2      1533      1618      1661      1727
 -1      2431    3    0    1
 -2       531       532       523       984
 -1      2432    3    0    1
 -2       974       117       967       984
 -1      2433    3    0    1
 -2      1680      1653      1765      1776
 -1      2434    3    0    1
 -2       294       412       798      1594
 -1      2435    3    0    1
 -2       123       985       122       124
 -1      2436    3    0    1
 -2       773      1091      1856      1997
 -1      2437    3    0    1
 -2       523       974       967       984
 -1      2438    3    0    1
 -2       523       985       531       984
 -1      2439    3    0    1
 -2       523       985       984       967
 -1      2440    3    0    1
 -2       121       113       356       986
 -1      2441    3    0    1
 -2       303      1152      1798      1909
 -1      2442    3    0    1
 -2       756      1055      2086      1222
 -1      2443    3    0    1
 -2       127       986       113       972
 -1      2444    3    0    1
 -2       128       356       113       986
 -1      2445    3    0    1
 -2       536      1003       741       987
 -1      2446    3    0    1
 -2      1571      1529      1704      1931
 -1      2447    3    0    1
 -2       534       997       991       533
 -1      2448    3    0    1
 -2       697      1694      1916      1930
 -1      2449    3    0    1
 -2       140      1004       742       992
 -1      2450    3    0    1
 -2       140      1004       992       135
 -1      2451    3    0    1
 -2       536      1004       544       535
 -1      2452    3    0    1
 -2      1004       140       742       350
 -1      2453    3    0    1
 -2       135      1004       992       134
 -1      2454    3    0    1
 -2       134      1004       341       139
 -1      2455    3    0    1
 -2       536      1004       742       544
 -1      2456    3    0    1
 -2       738       999       135       740
 -1      2457    3    0    1
 -2      1200       327      1201      1591
 -1      2458    3    0    1
 -2      1601       192      1617      1850
 -1      2459    3    0    1
 -2      1570      1531      1713      1865
 -1      2460    3    0    1
 -2       741       143       987      1003
 -1      2461    3    0    1
 -2      1605      1842      1864      1951
 -1      2462    3    0    1
 -2       922        71       915      2016
 -1      2463    3    0    1
 -2       470       882      1593      1733
 -1      2464    3    0    1
 -2       989       136       990       996
 -1      2465    3    0    1
 -2       136      1002       330       996
 -1      2466    3    0    1
 -2       268       426      1119      2010
 -1      2467    3    0    1
 -2       133       997       988       991
 -1      2468    3    0    1
 -2       988       533       991       997
 -1      2469    3    0    1
 -2       533      1001       542       997
 -1      2470    3    0    1
 -2      1260      2283      2362      2754
 -1      2471    3    0    1
 -2      2235       775       609      2245
 -1      2472    3    0    1
 -2      1207      1597      1629      1851
 -1      2473    3    0    1
 -2       738       999       538       995
 -1      2474    3    0    1
 -2       740       135       139       999
 -1      2475    3    0    1
 -2       140       999       135       995
 -1      2476    3    0    1
 -2       976       527      1847      1872
 -1      2477    3    0    1
 -2       905      1772      1795      2063
 -1      2478    3    0    1
 -2       997       133       988      1001
 -1      2479    3    0    1
 -2      1649       563      1652      1754
 -1      2480    3    0    1
 -2       133       137       988      1001
 -1      2481    3    0    1
 -2       935       402      1611      1737
 -1      2482    3    0    1
 -2       133       997       322      1001
 -1      2483    3    0    1
 -2       137       133       322      1001
 -1      2484    3    0    1
 -2       534      1002       533       989
 -1      2485    3    0    1
 -2       429       230       773      1997
 -1      2486    3    0    1
 -2       136      1002       996       989
 -1      2487    3    0    1
 -2      1124      1586      1616      1728
 -1      2488    3    0    1
 -2       536      1003       535       544
 -1      2489    3    0    1
 -2      1003       536       741       544
 -1      2490    3    0    1
 -2       329       136       330      1003
 -1      2491    3    0    1
 -2       140      1004       135       350
 -1      2492    3    0    1
 -2      1004       135       350       139
 -1      2493    3    0    1
 -2       546      1015      1009       545
 -1      2494    3    0    1
 -2       325       321       154      1015
 -1      2495    3    0    1
 -2      1015      1540      1836      1952
 -1      2496    3    0    1
 -2       604       774      1994      2169
 -1      2497    3    0    1
 -2       151      1014      1008       147
 -1      2498    3    0    1
 -2       547      1011       548       748
 -1      2499    3    0    1
 -2       165      1033       177       754
 -1      2500    3    0    1
 -2       148      1011      1010       748
 -1      2501    3    0    1
 -2       547      1011       748      1010
 -1      2502    3    0    1
 -2       150      1022       334       148
 -1      2503    3    0    1
 -2       345       196      1649      1652
 -1      2504    3    0    1
 -2       798      1168      1594      1702
 -1      2505    3    0    1
 -2       149      1017       158       148
 -1      2506    3    0    1
 -2       455       859       863      1938
 -1      2507    3    0    1
 -2      1601       339      1754      1764
 -1      2508    3    0    1
 -2      1055       344      2086      1222
 -1      2509    3    0    1
 -2      1596       460      1749      1932
 -1      2510    3    0    1
 -2      1837      1907      1964      1978
 -1      2511    3    0    1
 -2       551      1020       554       545
 -1      2512    3    0    1
 -2       562      1036      1030       566
 -1      2513    3    0    1
 -2       468      1709      1908      2058
 -1      2514    3    0    1
 -2      1526       339      1646      1764
 -1      2515    3    0    1
 -2       151      1014       147       324
 -1      2516    3    0    1
 -2       147      1008      1007      1014
 -1      2517    3    0    1
 -2       147      1020       159      1014
 -1      2518    3    0    1
 -2      1002       996       539      1975
 -1      2519    3    0    1
 -2      1008       545      1007      1014
 -1      2520    3    0    1
 -2       545      1020      1007      1014
 -1      2521    3    0    1
 -2      2486      2535      2557      2604
 -1      2522    3    0    1
 -2       546      1015       545       551
 -1      2523    3    0    1
 -2       545      1009      1006      1015
 -1      2524    3    0    1
 -2      1789        72      1957      2105
 -1      2525    3    0    1
 -2      1009       154      1006      1015
 -1      2526    3    0    1
 -2       154      1019      1006      1015
 -1      2527    3    0    1
 -2       320       296      1176      1639
 -1      2528    3    0    1
 -2      1529      1571      1704      1806
 -1      2529    3    0    1
 -2      2323      2301      2446      2764
 -1      2530    3    0    1
 -2       563       561       566      1035
 -1      2531    3    0    1
 -2      2526      1259      2625      2637
 -1      2532    3    0    1
 -2      2136      2065      2522      2739
 -1      2533    3    0    1
 -2       561      1031       753      1035
 -1      2534    3    0    1
 -2      1726      1746      1792      1793
 -1      2535    3    0    1
 -2       823      1565      1888      1899
 -1      2536    3    0    1
 -2       149      1017       148      1013
 -1      2537    3    0    1
 -2       746       148       157      1017
 -1      2538    3    0    1
 -2       148       746       744      1017
 -1      2539    3    0    1
 -2      1013       148       744      1017
 -1      2540    3    0    1
 -2       746       549       744      1017
 -1      2541    3    0    1
 -2       549      1013       744      1017
 -1      2542    3    0    1
 -2       280       793      1145      1739
 -1      2543    3    0    1
 -2      1549      1532      1750      1751
 -1      2544    3    0    1
 -2      1746      1726      1792      1831
 -1      2545    3    0    1
 -2      1719      2051      2483      2165
 -1      2546    3    0    1
 -2      1186       302       304      2002
 -1      2547    3    0    1
 -2       551      1020       545      1014
 -1      2548    3    0    1
 -2       147      1020      1014      1007
 -1      2549    3    0    1
 -2       159       147       747      1021
 -1      2550    3    0    1
 -2       747       147      1005      1021
 -1      2551    3    0    1
 -2       547      1021       747      1005
 -1      2552    3    0    1
 -2       335       147       159      1021
 -1      2553    3    0    1
 -2       150      1022       148      1010
 -1      2554    3    0    1
 -2       148       334       157      1022
 -1      2555    3    0    1
 -2       558      1033       754       565
 -1      2556    3    0    1
 -2       567       568       756      2154
 -1      2557    3    0    1
 -2       752       168       755      1026
 -1      2558    3    0    1
 -2       560       752       755      1026
 -1      2559    3    0    1
 -2       559       560       755      1026
 -1      2560    3    0    1
 -2      1555      1701      1954      1958
 -1      2561    3    0    1
 -2      1615       433      1815      1905
 -1      2562    3    0    1
 -2       401      1172      1544      1842
 -1      2563    3    0    1
 -2      1553      1592      1798      1909
 -1      2564    3    0    1
 -2      1027      1036       167      1030
 -1      2565    3    0    1
 -2      2517      2482      2551      2556
 -1      2566    3    0    1
 -2       177       362      1794      1891
 -1      2567    3    0    1
 -2      1065       342       213      1940
 -1      2568    3    0    1
 -2      1578      1534      1878      2003
 -1      2569    3    0    1
 -2       562      1030       561       566
 -1      2570    3    0    1
 -2      1036      1027       167      1029
 -1      2571    3    0    1
 -2       579       762      1054      1967
 -1      2572    3    0    1
 -2       334       157      2059      2130
 -1      2573    3    0    1
 -2      1004       742       544      1921
 -1      2574    3    0    1
 -2      1166      1549      1684      1702
 -1      2575    3    0    1
 -2        14       864      1731      1774
 -1      2576    3    0    1
 -2       171      1031       170      1028
 -1      2577    3    0    1
 -2       339       340       170      1031
 -1      2578    3    0    1
 -2       170       753      1028      1031
 -1      2579    3    0    1
 -2       170      1035       753      1031
 -1      2580    3    0    1
 -2      1913       773      1994      1997
 -1      2581    3    0    1
 -2       189      1053      1047       184
 -1      2582    3    0    1
 -2       585      1071       584       590
 -1      2583    3    0    1
 -2      1178       297       808      1676
 -1      2584    3    0    1
 -2       339       340      1031      1526
 -1      2585    3    0    1
 -2       750      1033       165       754
 -1      2586    3    0    1
 -2       558      1033       557      1023
 -1      2587    3    0    1
 -2      1033       750       558       754
 -1      2588    3    0    1
 -2      2306      1280      2689      2759
 -1      2589    3    0    1
 -2      1072       431      1660      2001
 -1      2590    3    0    1
 -2       395        68      1542      1736
 -1      2591    3    0    1
 -2       562      1035       561       753
 -1      2592    3    0    1
 -2      1031       561       563      1035
 -1      2593    3    0    1
 -2      1714      1613      1752      1753
 -1      2594    3    0    1
 -2      1027      1036       562      1029
 -1      2595    3    0    1
 -2      1030       167       337      1036
 -1      2596    3    0    1
 -2       168      1036       167      1029
 -1      2597    3    0    1
 -2      1799      1722      1822      1824
 -1      2598    3    0    1
 -2       168       752       755      1037
 -1      2599    3    0    1
 -2       174       168       755      1037
 -1      2600    3    0    1
 -2       560      1037       755       752
 -1      2601    3    0    1
 -2       363       168       174      1037
 -1      2602    3    0    1
 -2       176      1038       175       751
 -1      2603    3    0    1
 -2       175       364       362      1038
 -1      2604    3    0    1
 -2      1599      1566      1756      1815
 -1      2605    3    0    1
 -2       186      1047      1043       184
 -1      2606    3    0    1
 -2       187       761      1044      1048
 -1      2607    3    0    1
 -2      1162      1165      1528      1590
 -1      2608    3    0    1
 -2       574      1053      1045       573
 -1      2609    3    0    1
 -2       768      1092      2008      2112
 -1      2610    3    0    1
 -2      1540       325      1720      1811
 -1      2611    3    0    1
 -2       362       756      1038      1891
 -1      2612    3    0    1
 -2      2491      2478      2500      2562
 -1      2613    3    0    1
 -2       577       576       569      1046
 -1      2614    3    0    1
 -2      2529      2554      2661      2690
 -1      2615    3    0    1
 -2       645       646      1577      1981
 -1      2616    3    0    1
 -2       460       459      1749      1932
 -1      2617    3    0    1
 -2      1378      1379      2655      1467
 -1      2618    3    0    1
 -2      2485      2078      2540      2554
 -1      2619    3    0    1
 -2      1653      1600      1536      1617
 -1      2620    3    0    1
 -2       758      1050      1046       569
 -1      2621    3    0    1
 -2      1050       758       181      1039
 -1      2622    3    0    1
 -2      1043      1053       573      1045
 -1      2623    3    0    1
 -2      1043      1053      1045       184
 -1      2624    3    0    1
 -2        37        38      1692      1824
 -1      2625    3    0    1
 -2      1841       268      1989      2010
 -1      2626    3    0    1
 -2       574      1053       573       578
 -1      2627    3    0    1
 -2       578      1047      1053       573
 -1      2628    3    0    1
 -2      1271      2632      2712      2493
 -1      2629    3    0    1
 -2       394      1523      1576      1901
 -1      2630    3    0    1
 -2      1341      1405      2684      2685
 -1      2631    3    0    1
 -2       573      1048       761      1052
 -1      2632    3    0    1
 -2      2671      2343      1483      2390
 -1      2633    3    0    1
 -2       360       194       181      1050
 -1      2634    3    0    1
 -2       758      1050       569      1039
 -1      2635    3    0    1
 -2       569      1050      1046       576
 -1      2636    3    0    1
 -2      1046       181       194      1050
 -1      2637    3    0    1
 -2      2520      2145      2534      2574
 -1      2638    3    0    1
 -2       369       961      1935      2114
 -1      2639    3    0    1
 -2      1524      1533      1727      1729
 -1      2640    3    0    1
 -2       573       578       575      1052
 -1      2641    3    0    1
 -2       905      1795      1829      2063
 -1      2642    3    0    1
 -2      1048       573       575      1052
 -1      2643    3    0    1
 -2      1053      1043       573      1047
 -1      2644    3    0    1
 -2       467      1576      1722      1822
 -1      2645    3    0    1
 -2       189      1053       184       336
 -1      2646    3    0    1
 -2       571       579       762      1054
 -1      2647    3    0    1
 -2       760       571       762      1054
 -1      2648    3    0    1
 -2       762       184       760      1054
 -1      2649    3    0    1
 -2       336       196      1054      1933
 -1      2650    3    0    1
 -2      1201       327      1537      1591
 -1      2651    3    0    1
 -2       189       184       762      1054
 -1      2652    3    0    1
 -2       184       189       336      1054
 -1      2653    3    0    1
 -2       572      1054       571       760
 -1      2654    3    0    1
 -2       196       184       336      1054
 -1      2655    3    0    1
 -2      1706      1553      1798      1909
 -1      2656    3    0    1
 -2      1068       765       201      1056
 -1      2657    3    0    1
 -2       182      1055       181       759
 -1      2658    3    0    1
 -2       344       194       181      1055
 -1      2659    3    0    1
 -2       563      1030      1649      1652
 -1      2660    3    0    1
 -2       694      1216       704      1677
 -1      2661    3    0    1
 -2       214       216       204      1057
 -1      2662    3    0    1
 -2      1691      1651      1742      1906
 -1      2663    3    0    1
 -2       203      1074      1058       201
 -1      2664    3    0    1
 -2       201      1074      1058       199
 -1      2665    3    0    1
 -2       199      1074       215       359
 -1      2666    3    0    1
 -2       766      1074       586      1058
 -1      2667    3    0    1
 -2       586      1074       768       592
 -1      2668    3    0    1
 -2      1275      2632      1398      2300
 -1      2669    3    0    1
 -2      1205       689       690      1665
 -1      2670    3    0    1
 -2       585      1070       590      1066
 -1      2671    3    0    1
 -2      1747       567      1891      1893
 -1      2672    3    0    1
 -2       212      1072       431       202
 -1      2673    3    0    1
 -2       842      1212      1598      1931
 -1      2674    3    0    1
 -2       229      1090       221      1080
 -1      2675    3    0    1
 -2      1176      1177      1606      1639
 -1      2676    3    0    1
 -2      1073       586      1072       592
 -1      2677    3    0    1
 -2       456       469      1690      2505
 -1      2678    3    0    1
 -2       204      1065       202      1061
 -1      2679    3    0    1
 -2        83       945      1937      2025
 -1      2680    3    0    1
 -2      1061      1071       584      1063
 -1      2681    3    0    1
 -2       192      1052      1682      1683
 -1      2682    3    0    1
 -2      1532      1594      1684      1708
 -1      2683    3    0    1
 -2      1142      1575      1840      1867
 -1      2684    3    0    1
 -2       585      1066       584      1062
 -1      2685    3    0    1
 -2       590       584       587      1071
 -1      2686    3    0    1
 -2       205      1066      1060      1062
 -1      2687    3    0    1
 -2      1085       222       772      1089
 -1      2688    3    0    1
 -2      1552      1701      1941      1954
 -1      2689    3    0    1
 -2      1464       358      1465      2715
 -1      2690    3    0    1
 -2      1554       333      1975      1991
 -1      2691    3    0    1
 -2       201       208       359      1068
 -1      2692    3    0    1
 -2      1102       385      1608      1832
 -1      2693    3    0    1
 -2      1530      1639      1666      1705
 -1      2694    3    0    1
 -2      1542      1588      1803      1895
 -1      2695    3    0    1
 -2       765      1068       582      1056
 -1      2696    3    0    1
 -2       767       201       359      1068
 -1      2697    3    0    1
 -2       203      1068       201      1056
 -1      2698    3    0    1
 -2      1066       205      1060      1070
 -1      2699    3    0    1
 -2      1538      1892      1998      2069
 -1      2700    3    0    1
 -2       585      1070      1066      1060
 -1      2701    3    0    1
 -2       205      1066       434      1070
 -1      2702    3    0    1
 -2       343       205       434      1070
 -1      2703    3    0    1
 -2       712       436       884      2477
 -1      2704    3    0    1
 -2       137       322      1528      1651
 -1      2705    3    0    1
 -2      1548      1715      1730      1945
 -1      2706    3    0    1
 -2      1061      1071       204      1065
 -1      2707    3    0    1
 -2      1071      1061       584      1065
 -1      2708    3    0    1
 -2       584      1065       587      1071
 -1      2709    3    0    1
 -2      1201       688      1591      1784
 -1      2710    3    0    1
 -2       576       577      1051      2070
 -1      2711    3    0    1
 -2       212      1072       202      1064
 -1      2712    3    0    1
 -2       213       202       431      1072
 -1      2713    3    0    1
 -2       286      1152       303      1909
 -1      2714    3    0    1
 -2       202      1057      1064      1072
 -1      2715    3    0    1
 -2       213       202      1072      1073
 -1      2716    3    0    1
 -2       342       214       204      1073
 -1      2717    3    0    1
 -2       586      1073       581       592
 -1      2718    3    0    1
 -2       202       204      1057      1073
 -1      2719    3    0    1
 -2       203      1074       201       208
 -1      2720    3    0    1
 -2      1074       201       208       359
 -1      2721    3    0    1
 -2       766      1074       203       768
 -1      2722    3    0    1
 -2       785      1122      1986      2053
 -1      2723    3    0    1
 -2       221       773      1076      1082
 -1      2724    3    0    1
 -2       921       916      1717      1783
 -1      2725    3    0    1
 -2      1574      1558      1744      1805
 -1      2726    3    0    1
 -2       861       857      1810      2049
 -1      2727    3    0    1
 -2      2096      1768      2502      2551
 -1      2728    3    0    1
 -2      2192      2089      2542      2276
 -1      2729    3    0    1
 -2      1644      1538      1892      1944
 -1      2730    3    0    1
 -2       601       600       594      1083
 -1      2731    3    0    1
 -2       219      1083       225       226
 -1      2732    3    0    1
 -2       925      1772      1790      1827
 -1      2733    3    0    1
 -2       770      1087      1083       594
 -1      2734    3    0    1
 -2      1087       770       219      1075
 -1      2735    3    0    1
 -2       770      1087       219      1083
 -1      2736    3    0    1
 -2       688       687      1591      1784
 -1      2737    3    0    1
 -2      1405      1406      2684      2685
 -1      2738    3    0    1
 -2      1667      1889      1926      2000
 -1      2739    3    0    1
 -2       223      1089       222       433
 -1      2740    3    0    1
 -2      1070       590      1066      1757
 -1      2741    3    0    1
 -2       902       926      1790      2504
 -1      2742    3    0    1
 -2       902      1790      2100      2504
 -1      2743    3    0    1
 -2       362       754      1794      2101
 -1      2744    3    0    1
 -2      1644      2082      2143      2180
 -1      2745    3    0    1
 -2       340      1883      1031      1526
 -1      2746    3    0    1
 -2       611       606       614      1106
 -1      2747    3    0    1
 -2       770      1087       594      1075
 -1      2748    3    0    1
 -2       224      1087       219      1075
 -1      2749    3    0    1
 -2      2065      2136      2522      2564
 -1      2750    3    0    1
 -2      1257      1310      2307      2357
 -1      2751    3    0    1
 -2      1022       748       555      1698
 -1      2752    3    0    1
 -2        33        30      1812      1861
 -1      2753    3    0    1
 -2      2487      1638      2171      2183
 -1      2754    3    0    1
 -2      1119      1527      1804      1766
 -1      2755    3    0    1
 -2       596       602       599      1089
 -1      2756    3    0    1
 -2       580       591       762      1780
 -1      2757    3    0    1
 -2       597      1089       596       772
 -1      2758    3    0    1
 -2      1085       596       599      1089
 -1      2759    3    0    1
 -2       428       433       222      1089
 -1      2760    3    0    1
 -2       222      1085       428      1089
 -1      2761    3    0    1
 -2       819       672      1714      1753
 -1      2762    3    0    1
 -2      1576      1523      1612      1858
 -1      2763    3    0    1
 -2       597      1090       596       602
 -1      2764    3    0    1
 -2       596      1084       599      1090
 -1      2765    3    0    1
 -2      1084       221       230      1090
 -1      2766    3    0    1
 -2       596      1080       771      1090
 -1      2767    3    0    1
 -2      1084       596       771      1090
 -1      2768    3    0    1
 -2      1080       221       771      1090
 -1      2769    3    0    1
 -2       221      1084       771      1090
 -1      2770    3    0    1
 -2       221       229      1076      1091
 -1      2771    3    0    1
 -2       227      1092       219      1077
 -1      2772    3    0    1
 -2       226       219       357      1092
 -1      2773    3    0    1
 -2      1169       293      1549      1643
 -1      2774    3    0    1
 -2       236       239       240      1109
 -1      2775    3    0    1
 -2       265       262      1116      1129
 -1      2776    3    0    1
 -2      2140      2182      2530      2572
 -1      2777    3    0    1
 -2       427       236      1109      1110
 -1      2778    3    0    1
 -2      2328      1364      2689      2388
 -1      2779    3    0    1
 -2       239      1107      1099       236
 -1      2780    3    0    1
 -2      1096      1107      1099       239
 -1      2781    3    0    1
 -2       419        14       864      1731
 -1      2782    3    0    1
 -2       942       506      1667      1884
 -1      2783    3    0    1
 -2       622      1125       621       626
 -1      2784    3    0    1
 -2       607      1101       606       614
 -1      2785    3    0    1
 -2      1137       284      1920      2039
 -1      2786    3    0    1
 -2      1710        24      1858      1948
 -1      2787    3    0    1
 -2       926      1622      1790      1791
 -1      2788    3    0    1
 -2       235      1102       243      1097
 -1      2789    3    0    1
 -2       567      1038      1891      1893
 -1      2790    3    0    1
 -2      2637      1260      2362      2754
 -1      2791    3    0    1
 -2       621       626       623      1124
 -1      2792    3    0    1
 -2      1567       435      1762      1843
 -1      2793    3    0    1
 -2       398        46       903      1827
 -1      2794    3    0    1
 -2       419       284       865      1731
 -1      2795    3    0    1
 -2      1437      2702      2418      2419
 -1      2796    3    0    1
 -2       776      1104       241       779
 -1      2797    3    0    1
 -2       609      1104       608      1093
 -1      2798    3    0    1
 -2      1104       776       609       779
 -1      2799    3    0    1
 -2       611      1102      1106      1608
 -1      2800    3    0    1
 -2      1283      2522      2570      2598
 -1      2801    3    0    1
 -2      2559      2511      2596      2632
 -1      2802    3    0    1
 -2      2488      2639      2694      2719
 -1      2803    3    0    1
 -2      1891       362      2090      2499
 -1      2804    3    0    1
 -2       606      1097      1098      1106
 -1      2805    3    0    1
 -2       606      1102      1097      1106
 -1      2806    3    0    1
 -2      1102       606       611      1106
 -1      2807    3    0    1
 -2      1096      1107       239      1101
 -1      2808    3    0    1
 -2       787      1140      1130       273
 -1      2809    3    0    1
 -2      1644      2050      2496      2185
 -1      2810    3    0    1
 -2      1049      1270      2552      2678
 -1      2811    3    0    1
 -2       283      1144       276       423
 -1      2812    3    0    1
 -2       793       788       272      1145
 -1      2813    3    0    1
 -2       792       278      1132      1133
 -1      2814    3    0    1
 -2      1123      1103      2522      2541
 -1      2815    3    0    1
 -2      2496      2524      2526      1259
 -1      2816    3    0    1
 -2      2517      2482      2592      2690
 -1      2817    3    0    1
 -2      1656       746      1787      2130
 -1      2818    3    0    1
 -2       195       215      2084      2153
 -1      2819    3    0    1
 -2      1609      1816      1862      1947
 -1      2820    3    0    1
 -2      2151      1644      2496      2185
 -1      2821    3    0    1
 -2       239       380       240      1109
 -1      2822    3    0    1
 -2       239       236      1095      1109
 -1      2823    3    0    1
 -2       236       778      1095      1109
 -1      2824    3    0    1
 -2       251      1109       239      1095
 -1      2825    3    0    1
 -2       246      1111       245       777
 -1      2826    3    0    1
 -2       266       265       262      1116
 -1      2827    3    0    1
 -2       620      1128       627       619
 -1      2828    3    0    1
 -2       412       820      1701      1871
 -1      2829    3    0    1
 -2       269      1127       391       258
 -1      2830    3    0    1
 -2      1661       819      1714      1753
 -1      2831    3    0    1
 -2       620      1129      1116       619
 -1      2832    3    0    1
 -2      1160       649      1159      1551
 -1      2833    3    0    1
 -2       426       256       268      1119
 -1      2834    3    0    1
 -2       296       845      1666      1694
 -1      2835    3    0    1
 -2      1048      1631      1678      1988
 -1      2836    3    0    1
 -2       981      1759      1845      2492
 -1      2837    3    0    1
 -2       620      1129       619       627
 -1      2838    3    0    1
 -2      1177       296      1606      1639
 -1      2839    3    0    1
 -2      1756      1566      1777      1815
 -1      2840    3    0    1
 -2      1607      1525      1700      1733
 -1      2841    3    0    1
 -2       876        37      1822      1824
 -1      2842    3    0    1
 -2       634      1143       633       638
 -1      2843    3    0    1
 -2        68      1583      1717      1898
 -1      2844    3    0    1
 -2       783      1125       621      1118
 -1      2845    3    0    1
 -2       783      1125      1118       256
 -1      2846    3    0    1
 -2       256      1125       268      1119
 -1      2847    3    0    1
 -2       325      1015      1540      1802
 -1      2848    3    0    1
 -2      1558      1744      1805      1851
 -1      2849    3    0    1
 -2      1177       663      1176      1606
 -1      2850    3    0    1
 -2       339      1526      1754      1764
 -1      2851    3    0    1
 -2      1117       259       784      1120
 -1      2852    3    0    1
 -2       259      1124       784      1120
 -1      2853    3    0    1
 -2      1554       544      1699      1921
 -1      2854    3    0    1
 -2      1551      1657      2018      2023
 -1      2855    3    0    1
 -2       781      1122       255       785
 -1      2856    3    0    1
 -2      1122       781       617       785
 -1      2857    3    0    1
 -2      1767        44      1796      1828
 -1      2858    3    0    1
 -2      1242      2540      2554      2661
 -1      2859    3    0    1
 -2       173      1410      1411      2660
 -1      2860    3    0    1
 -2      1924       457      2102      2505
 -1      2861    3    0    1
 -2      2553      2517      2641      2664
 -1      2862    3    0    1
 -2      2606      2242      2256      2318
 -1      2863    3    0    1
 -2      1690       469      1908      2505
 -1      2864    3    0    1
 -2      1342      2599      2603      1403
 -1      2865    3    0    1
 -2      1448      2274      2375      2378
 -1      2866    3    0    1
 -2       614       611      1608      2017
 -1      2867    3    0    1
 -2      1537      1591      1628      1784
 -1      2868    3    0    1
 -2       622      1124       621       784
 -1      2869    3    0    1
 -2      1120       621       623      1124
 -1      2870    3    0    1
 -2       983       527       530      1847
 -1      2871    3    0    1
 -2       194      1046      2159      2186
 -1      2872    3    0    1
 -2       783      1125       256      1119
 -1      2873    3    0    1
 -2      1125       783       621      1119
 -1      2874    3    0    1
 -2       621      1119       623      1125
 -1      2875    3    0    1
 -2      1576       467      1722      1858
 -1      2876    3    0    1
 -2       787      1140       629      1130
 -1      2877    3    0    1
 -2       273      1140      1130       272
 -1      2878    3    0    1
 -2        35       883      1692      1896
 -1      2879    3    0    1
 -2       255       261       270      1126
 -1      2880    3    0    1
 -2       272      1140       280       377
 -1      2881    3    0    1
 -2      1606      1531      1676      1865
 -1      2882    3    0    1
 -2       391       426       258      1127
 -1      2883    3    0    1
 -2       258       256      1114      1127
 -1      2884    3    0    1
 -2      1072       213      1073      1917
 -1      2885    3    0    1
 -2       620      1128       619      1115
 -1      2886    3    0    1
 -2       256       268       386      1128
 -1      2887    3    0    1
 -2      1115       619      1114      1128
 -1      2888    3    0    1
 -2      1114       256      1115      1128
 -1      2889    3    0    1
 -2       619      1127      1114      1128
 -1      2890    3    0    1
 -2       255       261      1126      1129
 -1      2891    3    0    1
 -2       261       255       263      1129
 -1      2892    3    0    1
 -2      1126       782       255      1129
 -1      2893    3    0    1
 -2      1208       327       448      1591
 -1      2894    3    0    1
 -2       265       263       262      1129
 -1      2895    3    0    1
 -2       255      1116       262      1129
 -1      2896    3    0    1
 -2      1116       255       782      1129
 -1      2897    3    0    1
 -2       619      1116       782      1129
 -1      2898    3    0    1
 -2      1126       619       782      1129
 -1      2899    3    0    1
 -2       283      1144      1133       276
 -1      2900    3    0    1
 -2       631       792      1132      1133
 -1      2901    3    0    1
 -2      1949       354      1960      2115
 -1      2902    3    0    1
 -2       919       918      1957      2076
 -1      2903    3    0    1
 -2      1232      1233      2548      1332
 -1      2904    3    0    1
 -2       457       862      1924      2074
 -1      2905    3    0    1
 -2       850       694       704      1677
 -1      2906    3    0    1
 -2       421       278       792      1144
 -1      2907    3    0    1
 -2      1544      1580      1650      1668
 -1      2908    3    0    1
 -2       789      1143       633      1136
 -1      2909    3    0    1
 -2       789      1143      1136       276
 -1      2910    3    0    1
 -2       276      1143       281      1137
 -1      2911    3    0    1
 -2       792       278      1133      1144
 -1      2912    3    0    1
 -2       370        91       947      1735
 -1      2913    3    0    1
 -2       664       663      1606      1676
 -1      2914    3    0    1
 -2       634      1138       633      1135
 -1      2915    3    0    1
 -2      2673      1427      1450      1486
 -1      2916    3    0    1
 -2       275      1138       790      1135
 -1      2917    3    0    1
 -2      2534      2626      2736      2580
 -1      2918    3    0    1
 -2       857      1140      1810      2194
 -1      2919    3    0    1
 -2      1140       273       791       377
 -1      2920    3    0    1
 -2       787      1140       273       791
 -1      2921    3    0    1
 -2      1426      1298      2710      2385
 -1      2922    3    0    1
 -2      1430      1464      1465      2715
 -1      2923    3    0    1
 -2      2679      2280      1463      2421
 -1      2924    3    0    1
 -2       637       636       791      2224
 -1      2925    3    0    1
 -2      1244      2535      1306      1307
 -1      2926    3    0    1
 -2       634      1142      1138       790
 -1      2927    3    0    1
 -2       275      1138       420      1142
 -1      2928    3    0    1
 -2       424       275       420      1142
 -1      2929    3    0    1
 -2      1666      1528      1705      1916
 -1      2930    3    0    1
 -2       996      1823      1975      1985
 -1      2931    3    0    1
 -2       700      1212      1571      1598
 -1      2932    3    0    1
 -2       789      1143       276      1137
 -1      2933    3    0    1
 -2      1143       789       633      1137
 -1      2934    3    0    1
 -2       633      1137       635      1143
 -1      2935    3    0    1
 -2       276       278       421      1144
 -1      2936    3    0    1
 -2       632      1144       631      1133
 -1      2937    3    0    1
 -2       281       423       276      1144
 -1      2938    3    0    1
 -2       278       276      1133      1144
 -1      2939    3    0    1
 -2       631       640       792      1144
 -1      2940    3    0    1
 -2       273       376       377      1145
 -1      2941    3    0    1
 -2       273       272      1134      1145
 -1      2942    3    0    1
 -2       788       631      1134      1145
 -1      2943    3    0    1
 -2       631       793       640      1145
 -1      2944    3    0    1
 -2       272       788      1134      1145
 -1      2945    3    0    1
 -2       793       631       788      1145
 -1      2946    3    0    1
 -2       337       174       755      1855
 -1      2947    3    0    1
 -2       999       740       540      1723
 -1      2948    3    0    1
 -2       531      1927      1965      2081
 -1      2949    3    0    1
 -2      1594      1555      1702      1708
 -1      2950    3    0    1
 -2      1892      1950      1998      2069
 -1      2951    3    0    1
 -2       762       591      1073      1780
 -1      2952    3    0    1
 -2      1602      1019      1697      1738
 -1      2953    3    0    1
 -2       877       881       467      1593
 -1      2954    3    0    1
 -2      1597      1558      1603      1629
 -1      2955    3    0    1
 -2       849       693       703      1695
 -1      2956    3    0    1
 -2      1066      1599      1664      1670
 -1      2957    3    0    1
 -2       665      1180       809      1688
 -1      2958    3    0    1
 -2      1682       187      1852      1988
 -1      2959    3    0    1
 -2      1624       494      1783      1825
 -1      2960    3    0    1
 -2       624       637      1969      2053
 -1      2961    3    0    1
 -2      1597       692      1629      1669
 -1      2962    3    0    1
 -2       615       774      1111      1994
 -1      2963    3    0    1
 -2       270       376      2066      2118
 -1      2964    3    0    1
 -2      1138      1534      1876      1990
 -1      2965    3    0    1
 -2        24       877      1612      1858
 -1      2966    3    0    1
 -2      1187       675       676      1899
 -1      2967    3    0    1
 -2       718        33      1829      1861
 -1      2968    3    0    1
 -2       859      1525      1557      1700
 -1      2969    3    0    1
 -2      1820      1677      1837      1977
 -1      2970    3    0    1
 -2      1762      1567      1843      2030
 -1      2971    3    0    1
 -2      1633       321      1697      1873
 -1      2972    3    0    1
 -2       492       493       917      2076
 -1      2973    3    0    1
 -2       292       843      1916      1930
 -1      2974    3    0    1
 -2       591      1073      1780      1813
 -1      2975    3    0    1
 -2        91       370       942      1884
 -1      2976    3    0    1
 -2       922       494      1825      2016
 -1      2977    3    0    1
 -2      1686      1720      1811      1952
 -1      2978    3    0    1
 -2      1623      1627      1836      1952
 -1      2979    3    0    1
 -2      1178       664      1606      1676
 -1      2980    3    0    1
 -2      1085       599      1773      1897
 -1      2981    3    0    1
 -2       541       740       979      1723
 -1      2982    3    0    1
 -2      1190       286       303      1909
 -1      2983    3    0    1
 -2      1651      1590      1742      1906
 -1      2984    3    0    1
 -2       428      1610      1648      1904
 -1      2985    3    0    1
 -2      1778      1161       403      2020
 -1      2986    3    0    1
 -2      1552      1721      1954      1958
 -1      2987    3    0    1
 -2      1214       313       442      1669
 -1      2988    3    0    1
 -2       756      1747      1891      2057
 -1      2989    3    0    1
 -2       677      1188      1707      1741
 -1      2990    3    0    1
 -2       945       508      1937      2025
 -1      2991    3    0    1
 -2      1570      1663      1713      1782
 -1      2992    3    0    1
 -2       679       826       680      1642
 -1      2993    3    0    1
 -2       325      1540      1720      1782
 -1      2994    3    0    1
 -2       366       430      1091      2001
 -1      2995    3    0    1
 -2      1610      1085      1773      1904
 -1      2996    3    0    1
 -2       755      1652      1855      1933
 -1      2997    3    0    1
 -2       563      1030      1652      1883
 -1      2998    3    0    1
 -2       434      1522      1880      2030
 -1      2999    3    0    1
 -2      1607       416      1700      1708
 -1      3000    3    0    1
 -2       187      1678      1852      1988
 -1      3001    3    0    1
 -2      1894      1083      2111      2137
 -1      3002    3    0    1
 -2       740       541       540      1723
 -1      3003    3    0    1
 -2        95        92       946      1589
 -1      3004    3    0    1
 -2      1534       635      1578      1920
 -1      3005    3    0    1
 -2       896        44      1645      1767
 -1      3006    3    0    1
 -2       268       386      1841      1989
 -1      3007    3    0    1
 -2      1566      1577      1625      1983
 -1      3008    3    0    1
 -2       365       762      1073      1780
 -1      3009    3    0    1
 -2      1030       337      1652      1855
 -1      3010    3    0    1
 -2       249      1703      1913      1928
 -1      3011    3    0    1
 -2       340      1646      1806      1860
 -1      3012    3    0    1
 -2      1581      1680      1682      1852
 -1      3013    3    0    1
 -2      1546      1523      1612      1800
 -1      3014    3    0    1
 -2       941       505      2144      2512
 -1      3015    3    0    1
 -2       692      1214       702      1629
 -1      3016    3    0    1
 -2      1162       651      1590      1712
 -1      3017    3    0    1
 -2      1179      1533       331       810
 -1      3018    3    0    1
 -2       508       519       965      2012
 -1      3019    3    0    1
 -2      1721       415      1878      2003
 -1      3020    3    0    1
 -2       829       683      1679      1687
 -1      3021    3    0    1
 -2      2113      1919      2165      2536
 -1      3022    3    0    1
 -2      1565       428      1648      1905
 -1      3023    3    0    1
 -2       354       369      1949      1960
 -1      3024    3    0    1
 -2      1599      1664      1756      1880
 -1      3025    3    0    1
 -2       567       568       755      1747
 -1      3026    3    0    1
 -2       397       316       802      1637
 -1      3027    3    0    1
 -2      1137       635      1990      2039
 -1      3028    3    0    1
 -2      1600       192      1683      1850
 -1      3029    3    0    1
 -2      1739      2032      2067      2513
 -1      3030    3    0    1
 -2       556       567      1037      1604
 -1      3031    3    0    1
 -2      1581      1569      1680      1711
 -1      3032    3    0    1
 -2        36        15       711      1748
 -1      3033    3    0    1
 -2      2527      2495      2544      2584
 -1      3034    3    0    1
 -2      1020       551       554      1836
 -1      3035    3    0    1
 -2       477       478       480      2295
 -1      3036    3    0    1
 -2       677      1191      1188      1741
 -1      3037    3    0    1
 -2      1019       551      1015      1836
 -1      3038    3    0    1
 -2       861        10      2049      2092
 -1      3039    3    0    1
 -2      1055      1579      1877      2086
 -1      3040    3    0    1
 -2      1110       615      1109      2035
 -1      3041    3    0    1
 -2       880      2495      1247      2562
 -1      3042    3    0    1
 -2      1653      1680      1600      1569
 -1      3043    3    0    1
 -2       924       399        67      1926
 -1      3044    3    0    1
 -2      2485      2529      2554      2661
 -1      3045    3    0    1
 -2      1537       846      1571      1591
 -1      3046    3    0    1
 -2      1188       418      1556      1658
 -1      3047    3    0    1
 -2       458       864      1731      1920
 -1      3048    3    0    1
 -2      1566      1679      1777      1815
 -1      3049    3    0    1
 -2        53        37      1799      1822
 -1      3050    3    0    1
 -2      1591      1537      1628      1646
 -1      3051    3    0    1
 -2      1601      1536      1628      1764
 -1      3052    3    0    1
 -2      1533      1179       331      1661
 -1      3053    3    0    1
 -2       174       337      1036      1724
 -1      3054    3    0    1
 -2       402        81      1640      1775
 -1      3055    3    0    1
 -2       416      1607      1700      1733
 -1      3056    3    0    1
 -2       810       665      1179      1618
 -1      3057    3    0    1
 -2       357       211      1894      2508
 -1      3058    3    0    1
 -2       689       833      1659      1665
 -1      3059    3    0    1
 -2      1151      1647      1706      1941
 -1      3060    3    0    1
 -2       472       483      1795      1829
 -1      3061    3    0    1
 -2       635      1137      1578      1920
 -1      3062    3    0    1
 -2       817       319       819      1661
 -1      3063    3    0    1
 -2      1206       418       443      1658
 -1      3064    3    0    1
 -2      1216       694       839      1677
 -1      3065    3    0    1
 -2       603       592      1092      2008
 -1      3066    3    0    1
 -2      1610       243      1746      1793
 -1      3067    3    0    1
 -2      1073       591       592      1917
 -1      3068    3    0    1
 -2      1525       858      1557      1748
 -1      3069    3    0    1
 -2      1065       587      1757      2009
 -1      3070    3    0    1
 -2      1679      1620      1777      1815
 -1      3071    3    0    1
 -2      1073       214      1780      1917
 -1      3072    3    0    1
 -2      1639      1530      1865      1869
 -1      3073    3    0    1
 -2       679      1192       825      1925
 -1      3074    3    0    1
 -2      1542      1637      1716      1947
 -1      3075    3    0    1
 -2      1209       296       320      1694
 -1      3076    3    0    1
 -2      1017      1794      2135      2161
 -1      3077    3    0    1
 -2       802      1542      1637      1803
 -1      3078    3    0    1
 -2       591      1074      1786      1813
 -1      3079    3    0    1
 -2       881      1593      1733       470
 -1      3080    3    0    1
 -2      1662      1574      1744      1745
 -1      3081    3    0    1
 -2      1623      1035      1627      1811
 -1      3082    3    0    1
 -2       225      1083      1087      1993
 -1      3083    3    0    1
 -2       982       332       409      1524
 -1      3084    3    0    1
 -2      1220      1221      2488      1232
 -1      3085    3    0    1
 -2       320       296      1639      1694
 -1      3086    3    0    1
 -2      1539      1800      1828      1875
 -1      3087    3    0    1
 -2      1567      1762      1977      2030
 -1      3088    3    0    1
 -2      1632      1547      1715      1730
 -1      3089    3    0    1
 -2      1862      1583      1947      1996
 -1      3090    3    0    1
 -2       380       240      1109      1942
 -1      3091    3    0    1
 -2       503       942       936      1761
 -1      3092    3    0    1
 -2      1579       579      1933      1967
 -1      3093    3    0    1
 -2      1549      1684      1708      1751
 -1      3094    3    0    1
 -2       226      1083      1894      2137
 -1      3095    3    0    1
 -2       321       325      1713      1802
 -1      3096    3    0    1
 -2       683      1195       830      1687
 -1      3097    3    0    1
 -2       676      1882      1888      2002
 -1      3098    3    0    1
 -2       433      1089      1615      1874
 -1      3099    3    0    1
 -2       697       845      1209      1694
 -1      3100    3    0    1
 -2       121       981       986      1673
 -1      3101    3    0    1
 -2       194       344      1817      2086
 -1      3102    3    0    1
 -2       527       982       530      1902
 -1      3103    3    0    1
 -2       213       342      1073      1917
 -1      3104    3    0    1
 -2      1882      1563      1888      2002
 -1      3105    3    0    1
 -2      1192       304      1953      2002
 -1      3106    3    0    1
 -2      1554       330      1903      1975
 -1      3107    3    0    1
 -2       674      1184      1701      1871
 -1      3108    3    0    1
 -2       741      1554      1911      1991
 -1      3109    3    0    1
 -2       896        44      1562      1624
 -1      3110    3    0    1
 -2      1935      2025      2124      2515
 -1      3111    3    0    1
 -2       773      1110      1913      1994
 -1      3112    3    0    1
 -2       841       844      1653      1765
 -1      3113    3    0    1
 -2       472       717      1692      1795
 -1      3114    3    0    1
 -2      1746      1726      1831      1925
 -1      3115    3    0    1
 -2       471       472       717      1692
 -1      3116    3    0    1
 -2      1667       506      1761      1884
 -1      3117    3    0    1
 -2      1535      1641      1712      1866
 -1      3118    3    0    1
 -2      1037       174      1724      1855
 -1      3119    3    0    1
 -2      1180       665       666      1688
 -1      3120    3    0    1
 -2       194       360       763      1579
 -1      3121    3    0    1
 -2       947       370      1735      1937
 -1      3122    3    0    1
 -2        91       399      1735      1926
 -1      3123    3    0    1
 -2      1146       315      1147      1857
 -1      3124    3    0    1
 -2      1600       192      1680      1682
 -1      3125    3    0    1
 -2        46       895      1619      1827
 -1      3126    3    0    1
 -2      1770      1586      1788      1832
 -1      3127    3    0    1
 -2        39        33       879      2480
 -1      3128    3    0    1
 -2       945       508       507      1937
 -1      3129    3    0    1
 -2      1589        95      2042      2045
 -1      3130    3    0    1
 -2      1636       347      1995      2005
 -1      3131    3    0    1
 -2      1649      1053      1683      1849
 -1      3132    3    0    1
 -2      1641      1621      1742      2004
 -1      3133    3    0    1
 -2       542       539      1823      1975
 -1      3134    3    0    1
 -2         7       859      1525      1973
 -1      3135    3    0    1
 -2       898       382      1838      2156
 -1      3136    3    0    1
 -2      1535      1641      1688      1727
 -1      3137    3    0    1
 -2       579      1055      1579      1877
 -1      3138    3    0    1
 -2      1724       566      1030      1036
 -1      3139    3    0    1
 -2       187      1581      1682      1852
 -1      3140    3    0    1
 -2       515       518      2033      2040
 -1      3141    3    0    1
 -2       226       357      1894      2508
 -1      3142    3    0    1
 -2       362      1794      1891      2090
 -1      3143    3    0    1
 -2       763       579      1055      1579
 -1      3144    3    0    1
 -2       192      1569      1600      1680
 -1      3145    3    0    1
 -2      1585      1592      1707      1741
 -1      3146    3    0    1
 -2      1522       343      1885      1977
 -1      3147    3    0    1
 -2      1566      1599      1756      1880
 -1      3148    3    0    1
 -2      1837       839      1907      1978
 -1      3149    3    0    1
 -2      1164       651      1163      1712
 -1      3150    3    0    1
 -2      1169       655       656      1626
 -1      3151    3    0    1
 -2       158       157      1017      1656
 -1      3152    3    0    1
 -2       742      1004       350      1921
 -1      3153    3    0    1
 -2      1532        24      1710      1948
 -1      3154    3    0    1
 -2      1148       641       642      1857
 -1      3155    3    0    1
 -2       800      1549      1626      1643
 -1      3156    3    0    1
 -2      2476      1067      1220      2493
 -1      3157    3    0    1
 -2      1022      1698      1911      2080
 -1      3158    3    0    1
 -2      1810       636      2074      2224
 -1      3159    3    0    1
 -2      1065      1660      1757      1940
 -1      3160    3    0    1
 -2       505       492       917      1654
 -1      3161    3    0    1
 -2      1701      1941      1954      1958
 -1      3162    3    0    1
 -2       505       917       941      1654
 -1      3163    3    0    1
 -2      1569      1653      1680      1776
 -1      3164    3    0    1
 -2       835      1214      1629      1669
 -1      3165    3    0    1
 -2       196      1649      1652      1849
 -1      3166    3    0    1
 -2      1714      1548      1753      1955
 -1      3167    3    0    1
 -2       172       352      2672      2392
 -1      3168    3    0    1
 -2      1152      1149      1798      1909
 -1      3169    3    0    1
 -2      1820      1837      1964      1977
 -1      3170    3    0    1
 -2      1292      2529      2577      2661
 -1      3171    3    0    1
 -2      1838       382      2063      2100
 -1      3172    3    0    1
 -2      2476      1220      1221      2488
 -1      3173    3    0    1
 -2      1549      1626      1643      1750
 -1      3174    3    0    1
 -2      1190       303      1592      1909
 -1      3175    3    0    1
 -2       763       580      1579      1813
 -1      3176    3    0    1
 -2       540       999      1723      1787
 -1      3177    3    0    1
 -2      1648      1565      1882      1888
 -1      3178    3    0    1
 -2      1785       374      1987      2116
 -1      3179    3    0    1
 -2      1101       611       614      2017
 -1      3180    3    0    1
 -2      1176       296      1177      1639
 -1      3181    3    0    1
 -2       599      1703      1773      1897
 -1      3182    3    0    1
 -2       628      1126      2026      2043
 -1      3183    3    0    1
 -2       814       816      1962      2020
 -1      3184    3    0    1
 -2      1710      1612      1750      1943
 -1      3185    3    0    1
 -2      2495       860      1248      2584
 -1      3186    3    0    1
 -2      1019       321      1697      1802
 -1      3187    3    0    1
 -2       982       527       977      1902
 -1      3188    3    0    1
 -2      1536      1601      1617      1850
 -1      3189    3    0    1
 -2       297       328      1570      1676
 -1      3190    3    0    1
 -2      1794      2101      2135      2162
 -1      3191    3    0    1
 -2      1198      1569      1680      1848
 -1      3192    3    0    1
 -2       333       143       741      1554
 -1      3193    3    0    1
 -2      1769      1734      2093      2523
 -1      3194    3    0    1
 -2      1623      1035      1686      1883
 -1      3195    3    0    1
 -2      1652      1649      1683      1849
 -1      3196    3    0    1
 -2      1756      1566      1880      1983
 -1      3197    3    0    1
 -2        33        30       716      1812
 -1      3198    3    0    1
 -2       506       942      1761      1884
 -1      3199    3    0    1
 -2        10      1918      2049      2477
 -1      3200    3    0    1
 -2      1549      1684      1702      1708
 -1      3201    3    0    1
 -2      1155       645       646      1843
 -1      3202    3    0    1
 -2       997       322      1001      1691
 -1      3203    3    0    1
 -2       340      1526      1646      1860
 -1      3204    3    0    1
 -2      1640       937      1761      1775
 -1      3205    3    0    1
 -2       423       391      1144      1527
 -1      3206    3    0    1
 -2      1701      1871      1941      1958
 -1      3207    3    0    1
 -2       615      1110      1994      2035
 -1      3208    3    0    1
 -2      1563      1642      1726      1746
 -1      3209    3    0    1
 -2       599      1703      1897      2036
 -1      3210    3    0    1
 -2       732       520      1960      1965
 -1      3211    3    0    1
 -2       299       815      1182      1668
 -1      3212    3    0    1
 -2      1609      1583      1716      1947
 -1      3213    3    0    1
 -2       329       129      1003      1971
 -1      3214    3    0    1
 -2      1566      1756      1777      1983
 -1      3215    3    0    1
 -2       350       142       742      1699
 -1      3216    3    0    1
 -2      1720      1540      1811      1952
 -1      3217    3    0    1
 -2       643      1152      1149      1798
 -1      3218    3    0    1
 -2       350      1004       139      1921
 -1      3219    3    0    1
 -2      1527       423      2021      2044
 -1      3220    3    0    1
 -2       858       864      1774      1938
 -1      3221    3    0    1
 -2      1828      1539      1875      1929
 -1      3222    3    0    1
 -2      1669       836      1695      1835
 -1      3223    3    0    1
 -2      1585      1592      1671      1707
 -1      3224    3    0    1
 -2       938       941      2144      2512
 -1      3225    3    0    1
 -2      1616       626      1728      1989
 -1      3226    3    0    1
 -2       839      1216      1677      1907
 -1      3227    3    0    1
 -2       882       470      1557      1733
 -1      3228    3    0    1
 -2      1030       563       566      1883
 -1      3229    3    0    1
 -2      1528      1590      1651      1712
 -1      3230    3    0    1
 -2      1541      1614      1634      1857
 -1      3231    3    0    1
 -2       293       413      1549      1684
 -1      3232    3    0    1
 -2      1122       624      1969      2053
 -1      3233    3    0    1
 -2        81       935       937      1775
 -1      3234    3    0    1
 -2      1119       623      1766      1804
 -1      3235    3    0    1
 -2      1181       668      1632      1715
 -1      3236    3    0    1
 -2      1650      1580      1740      1963
 -1      3237    3    0    1
 -2      1589       370      1937      1735
 -1      3238    3    0    1
 -2      1159       317      1160      1946
 -1      3239    3    0    1
 -2      1887       329      1903      1971
 -1      3240    3    0    1
 -2      1547      1632      1715      1946
 -1      3241    3    0    1
 -2      1625      1880      1983      2030
 -1      3242    3    0    1
 -2      1647      1552      1706      1941
 -1      3243    3    0    1
 -2      1537       340      1646      1806
 -1      3244    3    0    1
 -2      1185      1888      1953      2002
 -1      3245    3    0    1
 -2      2527      2491      2201      2622
 -1      3246    3    0    1
 -2      1583      1609      1716      1736
 -1      3247    3    0    1
 -2       986      1673      1936      2081
 -1      3248    3    0    1
 -2       626      1124      1728      1766
 -1      3249    3    0    1
 -2      1613      1548      1752      1808
 -1      3250    3    0    1
 -2       418      1191       443      1658
 -1      3251    3    0    1
 -2       899       879      2048      2480
 -1      3252    3    0    1
 -2       288      1828      1875      1929
 -1      3253    3    0    1
 -2      1914       615      1994      2035
 -1      3254    3    0    1
 -2       682       681       828      1655
 -1      3255    3    0    1
 -2      2175      2143      2180      2521
 -1      3256    3    0    1
 -2       121       736       979      1845
 -1      3257    3    0    1
 -2       481      1693      1709      2129
 -1      3258    3    0    1
 -2      1529      1659      1663      1704
 -1      3259    3    0    1
 -2      1535      1641      1742      1906
 -1      3260    3    0    1
 -2      1175       661       662      1996
 -1      3261    3    0    1
 -2      1820       343      1977      1988
 -1      3262    3    0    1
 -2       627      1128      2013      2046
 -1      3263    3    0    1
 -2      1527      1119      1804       391
 -1      3264    3    0    1
 -2      1599      1066      1664      1880
 -1      3265    3    0    1
 -2      1539        44      1743      1767
 -1      3266    3    0    1
 -2      1592      1190      1707      1741
 -1      3267    3    0    1
 -2      1593       876      1722      1824
 -1      3268    3    0    1
 -2      1569       192      1600      1617
 -1      3269    3    0    1
 -2       828       681      1193      1655
 -1      3270    3    0    1
 -2      1574      1662      1744      1867
 -1      3271    3    0    1
 -2       846       700      1571      1598
 -1      3272    3    0    1
 -2      1537      1571      1573      1591
 -1      3273    3    0    1
 -2      1106      1608      1793      1928
 -1      3274    3    0    1
 -2      1807       767      2084      2142
 -1      3275    3    0    1
 -2       433      1565      1815      1905
 -1      3276    3    0    1
 -2       795       435      1567      1843
 -1      3277    3    0    1
 -2       482       479       721      1826
 -1      3278    3    0    1
 -2       556       567      1604      1893
 -1      3279    3    0    1
 -2      1757       590      1846      1885
 -1      3280    3    0    1
 -2      1298      2573      1312      1313
 -1      3281    3    0    1
 -2       551      1020      1014      1836
 -1      3282    3    0    1
 -2       340       339      1537      1646
 -1      3283    3    0    1
 -2      1664      1599      1756      1874
 -1      3284    3    0    1
 -2      1553      1592      1647      1798
 -1      3285    3    0    1
 -2       214       342      1071      1940
 -1      3286    3    0    1
 -2      1212       696       842      1598
 -1      3287    3    0    1
 -2      1998      1538      2069      2140
 -1      3288    3    0    1
 -2       418      1206       847      1658
 -1      3289    3    0    1
 -2       494       921      1624      1783
 -1      3290    3    0    1
 -2       554      1019      1697      1802
 -1      3291    3    0    1
 -2      1127      1527      2010      2043
 -1      3292    3    0    1
 -2      1558      1572      1597      1603
 -1      3293    3    0    1
 -2      1072      1660      1939      2008
 -1      3294    3    0    1
 -2      1619       901      1722      1826
 -1      3295    3    0    1
 -2       926       384        72      2504
 -1      3296    3    0    1
 -2      1704      1686      1806      1860
 -1      3297    3    0    1
 -2      1722      1576      1858      1901
 -1      3298    3    0    1
 -2      1686      1540      1720      1952
 -1      3299    3    0    1
 -2      1528      1162      1590      1916
 -1      3300    3    0    1
 -2      1203       689      1570      1665
 -1      3301    3    0    1
 -2       834      1213      1805      1851
 -1      3302    3    0    1
 -2      1189      1190      1707      1909
 -1      3303    3    0    1
 -2       640       639      1145      1739
 -1      3304    3    0    1
 -2      1035       340      1686      1883
 -1      3305    3    0    1
 -2      1584      1158      1718      1758
 -1      3306    3    0    1
 -2       578       575      1052      1922
 -1      3307    3    0    1
 -2       327       846      1537      1591
 -1      3308    3    0    1
 -2      1685       964      2022      2045
 -1      3309    3    0    1
 -2      2048      1564      2480      2134
 -1      3310    3    0    1
 -2      1607         7      1721      1954
 -1      3311    3    0    1
 -2      1641      1535      1712      1906
 -1      3312    3    0    1
 -2       801       656      1626      1681
 -1      3313    3    0    1
 -2      1210       310       840      1848
 -1      3314    3    0    1
 -2      1686      1529      1806      1811
 -1      3315    3    0    1
 -2       659      1173       660      1842
 -1      3316    3    0    1
 -2      1620      1615      1815      1905
 -1      3317    3    0    1
 -2       530       527      1902      1961
 -1      3318    3    0    1
 -2      2026       628      2043      2044
 -1      3319    3    0    1
 -2       137       322      1651      1691
 -1      3320    3    0    1
 -2       925       903      1772      1827
 -1      3321    3    0    1
 -2      1692       472      1829      1861
 -1      3322    3    0    1
 -2      1556      1585      1658      1745
 -1      3323    3    0    1
 -2       494       491      1783      2016
 -1      3324    3    0    1
 -2       858        14       417      1774
 -1      3325    3    0    1
 -2      1528       322      1630      1705
 -1      3326    3    0    1
 -2      1184      1701      1871      1941
 -1      3327    3    0    1
 -2       332      1524      1727      1729
 -1      3328    3    0    1
 -2       347      1966      1995      2038
 -1      3329    3    0    1
 -2      1066       590       587      1757
 -1      3330    3    0    1
 -2      1052       192      1601      1683
 -1      3331    3    0    1
 -2      1667      1611      1737      1775
 -1      3332    3    0    1
 -2       879      1812      2048      2480
 -1      3333    3    0    1
 -2      1789       926      1790      1791
 -1      3334    3    0    1
 -2      1619        53      1799      1822
 -1      3335    3    0    1
 -2       641      1147       642      1857
 -1      3336    3    0    1
 -2       859       863      1938      1973
 -1      3337    3    0    1
 -2      1019       554      1697      1738
 -1      3338    3    0    1
 -2      1726      1563      1882      2002
 -1      3339    3    0    1
 -2       566      1724      1030      1883
 -1      3340    3    0    1
 -2      1882       676      1888      1899
 -1      3341    3    0    1
 -2       342       213      1660      1917
 -1      3342    3    0    1
 -2       661       807       662      1862
 -1      3343    3    0    1
 -2       859       455      1525      1973
 -1      3344    3    0    1
 -2       682      1194      1655      1771
 -1      3345    3    0    1
 -2      1168       653       654      1702
 -1      3346    3    0    1
 -2       335       159      1020      1696
 -1      3347    3    0    1
 -2      1568      1581      1852      1964
 -1      3348    3    0    1
 -2       359       215      2084      2108
 -1      3349    3    0    1
 -2      2620      2636      2660      2688
 -1      3350    3    0    1
 -2       139       740      1787      2061
 -1      3351    3    0    1
 -2       623      1120      1124      1766
 -1      3352    3    0    1
 -2      1696      1014      1836      1912
 -1      3353    3    0    1
 -2       602      1664      1670      1900
 -1      3354    3    0    1
 -2       643      1151       644      1706
 -1      3355    3    0    1
 -2      1695      1560      1835      1979
 -1      3356    3    0    1
 -2       128       356       986      2494
 -1      3357    3    0    1
 -2      1566      1777      1981      1983
 -1      3358    3    0    1
 -2      1165       651       652      1590
 -1      3359    3    0    1
 -2      1593       881      1733      1948
 -1      3360    3    0    1
 -2       386       268      1125      1989
 -1      3361    3    0    1
 -2      1528      1590      1712      1916
 -1      3362    3    0    1
 -2      1579       579      1877      1933
 -1      3363    3    0    1
 -2        30        33       718      1861
 -1      3364    3    0    1
 -2       532       531       981      1936
 -1      3365    3    0    1
 -2      1619        46      1772      1795
 -1      3366    3    0    1
 -2      1524       332      1533      1729
 -1      3367    3    0    1
 -2      1579       763      1813      2507
 -1      3368    3    0    1
 -2       520       519       732      1960
 -1      3369    3    0    1
 -2       458       455       863      1938
 -1      3370    3    0    1
 -2        36        35       882      1748
 -1      3371    3    0    1
 -2       494       491       916      1783
 -1      3372    3    0    1
 -2      1760       516      2128      2489
 -1      3373    3    0    1
 -2       614      1106      1703      1928
 -1      3374    3    0    1
 -2       317       812      1181      1946
 -1      3375    3    0    1
 -2       342       214      1917      1940
 -1      3376    3    0    1
 -2      1242      1241      2540      2567
 -1      3377    3    0    1
 -2      1964      1907      1814      1978
 -1      3378    3    0    1
 -2        53       904      1619      1799
 -1      3379    3    0    1
 -2      1168       654      1684      1702
 -1      3380    3    0    1
 -2      1541      1588      1818      1819
 -1      3381    3    0    1
 -2      1543      1583      1609      1862
 -1      3382    3    0    1
 -2      1031       339      1526      1754
 -1      3383    3    0    1
 -2         7      1525      1607      1973
 -1      3384    3    0    1
 -2      1621      1641      1854      2004
 -1      3385    3    0    1
 -2       335      1696      1985      1991
 -1      3386    3    0    1
 -2       717       472       904      1795
 -1      3387    3    0    1
 -2       901      1619      1722      1822
 -1      3388    3    0    1
 -2      1546      1626      1681      1758
 -1      3389    3    0    1
 -2       965       519      1934      2012
 -1      3390    3    0    1
 -2      1677      1567      1762      1820
 -1      3391    3    0    1
 -2       925      1790      1825      1827
 -1      3392    3    0    1
 -2       369       354       732      1960
 -1      3393    3    0    1
 -2       666       665      1618      1688
 -1      3394    3    0    1
 -2       395       921      1783      1959
 -1      3395    3    0    1
 -2      1149      1706      1798      1909
 -1      3396    3    0    1
 -2      1180       666      1618      1688
 -1      3397    3    0    1
 -2      1544      1668      1842      1881
 -1      3398    3    0    1
 -2      1048      1631      1682      1922
 -1      3399    3    0    1
 -2      1601      1649      1683      1850
 -1      3400    3    0    1
 -2      1624      1562      1783      1959
 -1      3401    3    0    1
 -2       826       305       314      1831
 -1      3402    3    0    1
 -2       396      1541      1803      1818
 -1      3403    3    0    1
 -2       589      1801      2142      2525
 -1      3404    3    0    1
 -2       626      1124      1616      1728
 -1      3405    3    0    1
 -2       249       427      1107      2117
 -1      3406    3    0    1
 -2      1066       434      1522      1880
 -1      3407    3    0    1
 -2       556       747      1698      1912
 -1      3408    3    0    1
 -2      2482      2517      2551      2554
 -1      3409    3    0    1
 -2      1036       566      1623      1724
 -1      3410    3    0    1
 -2      1151       643      1150      1706
 -1      3411    3    0    1
 -2       196       755      1054      1652
 -1      3412    3    0    1
 -2       424       420      1745      1876
 -1      3413    3    0    1
 -2       957       964       346      2033
 -1      3414    3    0    1
 -2      1572      1558      1575      1603
 -1      3415    3    0    1
 -2       425      1572      1575      1603
 -1      3416    3    0    1
 -2      1053       578      1649      1683
 -1      3417    3    0    1
 -2      1607      1555      1954      1958
 -1      3418    3    0    1
 -2      1762      1677      1820      1977
 -1      3419    3    0    1
 -2      1642      1726      1746      1925
 -1      3420    3    0    1
 -2       721       479       896      1826
 -1      3421    3    0    1
 -2      1618      1179      1661      1688
 -1      3422    3    0    1
 -2       287       795      1155      1843
 -1      3423    3    0    1
 -2      1749        10      1918      2049
 -1      3424    3    0    1
 -2       370        92       942      1884
 -1      3425    3    0    1
 -2      1590      1535      1712      1866
 -1      3426    3    0    1
 -2       857      1810      2049      2172
 -1      3427    3    0    1
 -2      1150      1151      1706      1941
 -1      3428    3    0    1
 -2       833      1659      1665      1931
 -1      3429    3    0    1
 -2       409      1752      1808      1853
 -1      3430    3    0    1
 -2      1661      1714      1752      1753
 -1      3431    3    0    1
 -2      1664      1670      1900      2009
 -1      3432    3    0    1
 -2        36        35      1748      1896
 -1      3433    3    0    1
 -2      1621      1641      1727      1854
 -1      3434    3    0    1
 -2      1555       412      1594      1702
 -1      3435    3    0    1
 -2      1728       264      1586      1788
 -1      3436    3    0    1
 -2      1033       177       754      1794
 -1      3437    3    0    1
 -2      1070       590      1885      1923
 -1      3438    3    0    1
 -2      1184       821      1701      1941
 -1      3439    3    0    1
 -2      1622        71      1825      1926
 -1      3440    3    0    1
 -2       192      1569      1680      1682
 -1      3441    3    0    1
 -2      1066       434      1070      1522
 -1      3442    3    0    1
 -2       434       343      1070      1522
 -1      3443    3    0    1
 -2       685      1197       686      1711
 -1      3444    3    0    1
 -2       881       877       416      1948
 -1      3445    3    0    1
 -2       795      1567      1577      1843
 -1      3446    3    0    1
 -2      1652       196      1849      1933
 -1      3447    3    0    1
 -2        10       436      2477      2098
 -1      3448    3    0    1
 -2      1534      1578      1878      1920
 -1      3449    3    0    1
 -2       699      1666      1694      1930
 -1      3450    3    0    1
 -2      1101      1107       240      2017
 -1      3451    3    0    1
 -2      1618      1535      1688      1729
 -1      3452    3    0    1
 -2       214      1071      1846      1940
 -1      3453    3    0    1
 -2      1580      1650      1668      1963
 -1      3454    3    0    1
 -2       828       682      1655      1771
 -1      3455    3    0    1
 -2      1138       420      1142      1662
 -1      3456    3    0    1
 -2       687      1202      1199      1784
 -1      3457    3    0    1
 -2      2608      1450      2353      1486
 -1      3458    3    0    1
 -2       321      1633      1713      1782
 -1      3459    3    0    1
 -2      1001      1689      1691      2004
 -1      3460    3    0    1
 -2      1122       785      1986      2031
 -1      3461    3    0    1
 -2      1626       801      1681      1758
 -1      3462    3    0    1
 -2       286      1190      1189      1909
 -1      3463    3    0    1
 -2      1849       578      1047      1053
 -1      3464    3    0    1
 -2       945       507       948      1937
 -1      3465    3    0    1
 -2      1847       129      1872      1971
 -1      3466    3    0    1
 -2       905       902       483      1772
 -1      3467    3    0    1
 -2      1529      1663      1686      1704
 -1      3468    3    0    1
 -2       455       859      1525      1557
 -1      3469    3    0    1
 -2        75       925      1825      1827
 -1      3470    3    0    1
 -2      1564        56      2480      2134
 -1      3471    3    0    1
 -2      1645       721      1826      1901
 -1      3472    3    0    1
 -2      1533      1618      1727      1729
 -1      3473    3    0    1
 -2       368      1337      1338      2590
 -1      3474    3    0    1
 -2        37      1799      1822      1824
 -1      3475    3    0    1
 -2      1626       656      1643      1681
 -1      3476    3    0    1
 -2      2105      1838      2148      2156
 -1      3477    3    0    1
 -2       385      1595      1792      1832
 -1      3478    3    0    1
 -2       122       985      1936      2019
 -1      3479    3    0    1
 -2        37        38       717      1692
 -1      3480    3    0    1
 -2       793       640      2032      2067
 -1      3481    3    0    1
 -2      1803      1588      1818      1895
 -1      3482    3    0    1
 -2      1580      1544      1640      1668
 -1      3483    3    0    1
 -2       736       960      2077      2149
 -1      3484    3    0    1
 -2      1475        41      1505      2470
 -1      3485    3    0    1
 -2        95       936      1589      2042
 -1      3486    3    0    1
 -2      1583      1543      1609      1898
 -1      3487    3    0    1
 -2      1565      1648      1882      1905
 -1      3488    3    0    1
 -2      1582      1585      1745      1876
 -1      3489    3    0    1
 -2      1634      1541      1818      1819
 -1      3490    3    0    1
 -2       768      1074       208      1786
 -1      3491    3    0    1
 -2      1949       960      2077      2128
 -1      3492    3    0    1
 -2      1199      1763      1784      2027
 -1      3493    3    0    1
 -2       326      2027       841       312
 -1      3494    3    0    1
 -2       555      1022      1698      1911
 -1      3495    3    0    1
 -2        72       373      1789      1957
 -1      3496    3    0    1
 -2       458       863      1878      1938
 -1      3497    3    0    1
 -2       717      1692      1795      1799
 -1      3498    3    0    1
 -2       659      1172      1842      1864
 -1      3499    3    0    1
 -2      1172       299      1173      1842
 -1      3500    3    0    1
 -2       354       110       732      2494
 -1      3501    3    0    1
 -2      2556      2583      2601      2737
 -1      3502    3    0    1
 -2      1107      1608      1928      2017
 -1      3503    3    0    1
 -2       264       425      1559      1672
 -1      3504    3    0    1
 -2      2478      2058      2129      2519
 -1      3505    3    0    1
 -2       302      1185      1953      2002
 -1      3506    3    0    1
 -2        44       394      1796      1800
 -1      3507    3    0    1
 -2       692       835      1629      1669
 -1      3508    3    0    1
 -2       480       493       898      1693
 -1      3509    3    0    1
 -2        46       398       895      1827
 -1      3510    3    0    1
 -2      1667       942      1884      1889
 -1      3511    3    0    1
 -2      1627       551      1836      1952
 -1      3512    3    0    1
 -2      2641      2359      2401      2402
 -1      3513    3    0    1
 -2       575      1047      1631      1922
 -1      3514    3    0    1
 -2       836       849      1669      1695
 -1      3515    3    0    1
 -2      1650      1740      1962      1963
 -1      3516    3    0    1
 -2      1002       542      1689      1975
 -1      3517    3    0    1
 -2      1169       800      1626      1643
 -1      3518    3    0    1
 -2      1663      1529      1686      1720
 -1      3519    3    0    1
 -2      1738      1697      1823      1985
 -1      3520    3    0    1
 -2      1703      1773      1897      2036
 -1      3521    3    0    1
 -2       356       736      1845      2077
 -1      3522    3    0    1
 -2       692       848      1207      1629
 -1      3523    3    0    1
 -2        68       395      1717      1736
 -1      3524    3    0    1
 -2      1587       322      1691      1705
 -1      3525    3    0    1
 -2       323       324       747      1912
 -1      3526    3    0    1
 -2      1195       830      1687      2029
 -1      3527    3    0    1
 -2       335       159      1696      2079
 -1      3528    3    0    1
 -2      1120       425      1572      1575
 -1      3529    3    0    1
 -2        15       417       711      1774
 -1      3530    3    0    1
 -2       567      1037      1604      1893
 -1      3531    3    0    1
 -2       903        46      1772      1827
 -1      3532    3    0    1
 -2       324       159       747      1912
 -1      3533    3    0    1
 -2       386       380      1841      1956
 -1      3534    3    0    1
 -2      1620      1565      1679      1899
 -1      3535    3    0    1
 -2       673      1184       821      1701
 -1      3536    3    0    1
 -2       442       849      1559      1669
 -1      3537    3    0    1
 -2       322      1528      1651      1705
 -1      3538    3    0    1
 -2       814       290       816      2020
 -1      3539    3    0    1
 -2      1214       692       835      1629
 -1      3540    3    0    1
 -2       687      1201       688      1591
 -1      3541    3    0    1
 -2       935        81       402      1775
 -1      3542    3    0    1
 -2      1048       187      1682      1988
 -1      3543    3    0    1
 -2      1585      1556      1658      1741
 -1      3544    3    0    1
 -2      2500      1224      1249      1250
 -1      3545    3    0    1
 -2      1211       292       441      1930
 -1      3546    3    0    1
 -2       831       829      1679      1687
 -1      3547    3    0    1
 -2      1014      1020      1696      1836
 -1      3548    3    0    1
 -2       653      1167       654      1684
 -1      3549    3    0    1
 -2      1204       689      1203      1665
 -1      3550    3    0    1
 -2      1161      1778       403       797
 -1      3551    3    0    1
 -2      1914      1108      2041      1217
 -1      3552    3    0    1
 -2      1571      1537      1573      1806
 -1      3553    3    0    1
 -2       433      1615      1756      1874
 -1      3554    3    0    1
 -2       194       360      1579      1974
 -1      3555    3    0    1
 -2       983      1847      1961      2019
 -1      3556    3    0    1
 -2       516       736       960      2077
 -1      3557    3    0    1
 -2      1731        14      1774      1932
 -1      3558    3    0    1
 -2        44       394      1645      1796
 -1      3559    3    0    1
 -2      1666      1639      1694      1705
 -1      3560    3    0    1
 -2       865      1731      2011      2032
 -1      3561    3    0    1
 -2       689      1205       833      1665
 -1      3562    3    0    1
 -2      1605      1543      1611      1737
 -1      3563    3    0    1
 -2       792       421      1144      2011
 -1      3564    3    0    1
 -2       192       187      1569      1682
 -1      3565    3    0    1
 -2       321      1633      1697      1802
 -1      3566    3    0    1
 -2      1671      1582      1675      1876
 -1      3567    3    0    1
 -2      1816       807      1862      1947
 -1      3568    3    0    1
 -2       345       337       755      1855
 -1      3569    3    0    1
 -2      2517      1239      2551      2554
 -1      3570    3    0    1
 -2       483      1772       903      1795
 -1      3571    3    0    1
 -2      1601      1536      1764      1850
 -1      3572    3    0    1
 -2      1590      1535      1866      1886
 -1      3573    3    0    1
 -2       424      1142      1662      1867
 -1      3574    3    0    1
 -2      1744      1575      1572      1558
 -1      3575    3    0    1
 -2       801       289      1681      1758
 -1      3576    3    0    1
 -2       391       426      1127      1527
 -1      3577    3    0    1
 -2       693      1695      1835      1979
 -1      3578    3    0    1
 -2       805       295       807      1816
 -1      3579    3    0    1
 -2      1198       832      1569      1848
 -1      3580    3    0    1
 -2      1659      1529      1665      1931
 -1      3581    3    0    1
 -2      1565      1620      1815      1905
 -1      3582    3    0    1
 -2       957       515      1779      1809
 -1      3583    3    0    1
 -2      1051      1049      2070      2132
 -1      3584    3    0    1
 -2       977       332      1524      1902
 -1      3585    3    0    1
 -2       604       603       774      1856
 -1      3586    3    0    1
 -2      1548      1613      1714      1753
 -1      3587    3    0    1
 -2      1066      1522      1757      1880
 -1      3588    3    0    1
 -2       864       458      1731      1938
 -1      3589    3    0    1
 -2       820       294       822      1871
 -1      3590    3    0    1
 -2      1038       756       567      1891
 -1      3591    3    0    1
 -2      1768      1018      2155      2497
 -1      3592    3    0    1
 -2       369      1935      1949      1960
 -1      3593    3    0    1
 -2       208      1074       359      1786
 -1      3594    3    0    1
 -2       964       406      2033      2045
 -1      3595    3    0    1
 -2      1161       649       650      1879
 -1      3596    3    0    1
 -2      1743      1634      1767      1819
 -1      3597    3    0    1
 -2       666       665       810      1618
 -1      3598    3    0    1
 -2      1552      1647      1721      1941
 -1      3599    3    0    1
 -2       291      1164      1866      1886
 -1      3600    3    0    1
 -2      1618      1180      1688      1886
 -1      3601    3    0    1
 -2        10       712      1749      1918
 -1      3602    3    0    1
 -2      1048       575      1631      1922
 -1      3603    3    0    1
 -2       578      1849      1047      1922
 -1      3604    3    0    1
 -2       243       385      1792      1793
 -1      3605    3    0    1
 -2      1653       698      1776      1848
 -1      3606    3    0    1
 -2       844      1653      1765      1972
 -1      3607    3    0    1
 -2       543       532      1004      1759
 -1      3608    3    0    1
 -2       532       981      1004      1759
 -1      3609    3    0    1
 -2      1812      1861      2477      2098
 -1      3610    3    0    1
 -2       492      1654      1957      2076
 -1      3611    3    0    1
 -2      1065       213      1660      1940
 -1      3612    3    0    1
 -2       493      1693      2076      2105
 -1      3613    3    0    1
 -2        72       919      1957      2105
 -1      3614    3    0    1
 -2      1290      2526      2600      2637
 -1      3615    3    0    1
 -2      1650      1740      1778      2020
 -1      3616    3    0    1
 -2       325      1540      1713      1802
 -1      3617    3    0    1
 -2       343      1885      1977      1988
 -1      3618    3    0    1
 -2      1653      1536      1765      1972
 -1      3619    3    0    1
 -2       459      1749      1932      2067
 -1      3620    3    0    1
 -2       657       804       658      1803
 -1      3621    3    0    1
 -2      1763      1536      1784      1972
 -1      3622    3    0    1
 -2       400      1816      1862      1864
 -1      3623    3    0    1
 -2       346       406      1934      2033
 -1      3624    3    0    1
 -2      1065       431      1670      2009
 -1      3625    3    0    1
 -2      1090      1084      1897      1900
 -1      3626    3    0    1
 -2       958       515      1995      2040
 -1      3627    3    0    1
 -2       964       518      2022      2033
 -1      3628    3    0    1
 -2      1611       935      1667      1889
 -1      3629    3    0    1
 -2      1531      1570      1676      1865
 -1      3630    3    0    1
 -2      1176      1606      1676      1865
 -1      3631    3    0    1
 -2      1037      1747      1855      1893
 -1      3632    3    0    1
 -2       963       958       404      1995
 -1      3633    3    0    1
 -2      1680      1581      1814      1852
 -1      3634    3    0    1
 -2        56       879       899      2480
 -1      3635    3    0    1
 -2       483       905      1772      1795
 -1      3636    3    0    1
 -2        46       411       904      1795
 -1      3637    3    0    1
 -2      1722      1619      1799      1822
 -1      3638    3    0    1
 -2      1102       243      1106      1793
 -1      3639    3    0    1
 -2       741       333      1554      1991
 -1      3640    3    0    1
 -2       904       411      1619      1795
 -1      3641    3    0    1
 -2      1960       732      2081      2494
 -1      3642    3    0    1
 -2       601      1067      1088      2483
 -1      3643    3    0    1
 -2      1890       529      2054      2489
 -1      3644    3    0    1
 -2       691       701       847      1992
 -1      3645    3    0    1
 -2       919       898      1693      2156
 -1      3646    3    0    1
 -2      1120      1572      1766      1840
 -1      3647    3    0    1
 -2       333      1738      1985      1991
 -1      3648    3    0    1
 -2      1020       554      1696      1836
 -1      3649    3    0    1
 -2      1019      1015      1802      1836
 -1      3650    3    0    1
 -2      1586      1560      1595      1770
 -1      3651    3    0    1
 -2      1102       385       243      1793
 -1      3652    3    0    1
 -2      1068       767       588      1801
 -1      3653    3    0    1
 -2       904       717      1795      1799
 -1      3654    3    0    1
 -2      2670      2610      2693      2742
 -1      3655    3    0    1
 -2       611      1102      1608      1832
 -1      3656    3    0    1
 -2      1838      2100      2148      2504
 -1      3657    3    0    1
 -2      1685      2022      2042      2045
 -1      3658    3    0    1
 -2       357       226      1894      2137
 -1      3659    3    0    1
 -2      1767      1743      1819      1959
 -1      3660    3    0    1
 -2       484       495       903      1772
 -1      3661    3    0    1
 -2       903       495       925      1772
 -1      3662    3    0    1
 -2       495       926      1622      1790
 -1      3663    3    0    1
 -2      1854       977      1872      1902
 -1      3664    3    0    1
 -2      1610      1085      1703      1773
 -1      3665    3    0    1
 -2      1918      2049      2477      2098
 -1      3666    3    0    1
 -2       419       864      1578      1920
 -1      3667    3    0    1
 -2      1085       599      1703      1773
 -1      3668    3    0    1
 -2      1015       325      1540      1952
 -1      3669    3    0    1
 -2      1540       325      1811      1952
 -1      3670    3    0    1
 -2      1679      1620      1687      1777
 -1      3671    3    0    1
 -2      1813      1786      2108      2507
 -1      3672    3    0    1
 -2      1935       961      1949      1982
 -1      3673    3    0    1
 -2      2078      1034      2540      2554
 -1      3674    3    0    1
 -2       423       281      2021      2044
 -1      3675    3    0    1
 -2       580      1579      1813      1967
 -1      3676    3    0    1
 -2       321      1633      1782      1873
 -1      3677    3    0    1
 -2      2482      2072      2551      2556
 -1      3678    3    0    1
 -2      1522       343      1977      2030
 -1      3679    3    0    1
 -2       579      1054      1933      1967
 -1      3680    3    0    1
 -2      1524       332      1727      1854
 -1      3681    3    0    1
 -2       249      1913      2035      2117
 -1      3682    3    0    1
 -2      1054       336      1933      1967
 -1      3683    3    0    1
 -2      1546      1523      1800      1943
 -1      3684    3    0    1
 -2      1106       614      1608      1928
 -1      3685    3    0    1
 -2      1211       697       843      1930
 -1      3686    3    0    1
 -2       568       756      1877      2057
 -1      3687    3    0    1
 -2      2486       917      1243      2550
 -1      3688    3    0    1
 -2       793       640      1739      2032
 -1      3689    3    0    1
 -2      1107       427      2017      2117
 -1      3690    3    0    1
 -2      1198      1680      1776      1848
 -1      3691    3    0    1
 -2       310      1210       338      1848
 -1      3692    3    0    1
 -2      1844      1944      1980      2047
 -1      3693    3    0    1
 -2      1323      1247      2633      2649
 -1      3694    3    0    1
 -2      1053       189      1047      1849
 -1      3695    3    0    1
 -2       310      1198      1776      1848
 -1      3696    3    0    1
 -2       965       406       405      1934
 -1      3697    3    0    1
 -2      1021      1698      1912      2079
 -1      3698    3    0    1
 -2       346       348       957      1779
 -1      3699    3    0    1
 -2       528      1723      1890      2068
 -1      3700    3    0    1
 -2      1744      1805      1851      1992
 -1      3701    3    0    1
 -2      1592       303      1798      1909
 -1      3702    3    0    1
 -2      1553      1671      1675      2003
 -1      3703    3    0    1
 -2      1703      1106      1773      1928
 -1      3704    3    0    1
 -2      1680      1569      1776      1848
 -1      3705    3    0    1
 -2      1107       614      1703      1928
 -1      3706    3    0    1
 -2       369       367      1935      2515
 -1      3707    3    0    1
 -2       373       926        72      1791
 -1      3708    3    0    1
 -2       495      1772       902      1790
 -1      3709    3    0    1
 -2      1790       902       495       926
 -1      3710    3    0    1
 -2      1647      1151      1706      1798
 -1      3711    3    0    1
 -2      1980      1944      2014      2047
 -1      3712    3    0    1
 -2      1770      1595      1832      1833
 -1      3713    3    0    1
 -2       925       495      1622      1790
 -1      3714    3    0    1
 -2      1561      1655      1771      1833
 -1      3715    3    0    1
 -2      1170       657       658      1818
 -1      3716    3    0    1
 -2      1655      1560      1771      1833
 -1      3717    3    0    1
 -2       395      1783      1819      1959
 -1      3718    3    0    1
 -2       986       981       531      1936
 -1      3719    3    0    1
 -2      1809       530      1853      1961
 -1      3720    3    0    1
 -2       613       779      1919      2028
 -1      3721    3    0    1
 -2       863       415      1878      1973
 -1      3722    3    0    1
 -2      1913       249      1928      2117
 -1      3723    3    0    1
 -2      1721      1607      1954      1958
 -1      3724    3    0    1
 -2      2493      2511      2552      2559
 -1      3725    3    0    1
 -2      1561      1771      1831      1833
 -1      3726    3    0    1
 -2      1560      1770      1771      1833
 -1      3727    3    0    1
 -2      1721      1552      1941      1958
 -1      3728    3    0    1
 -2       841       844      1765      1972
 -1      3729    3    0    1
 -2       754      1017      1794      2101
 -1      3730    3    0    1
 -2       779      1919      2028      2113
 -1      3731    3    0    1
 -2      1693       898      2105      2156
 -1      3732    3    0    1
 -2       926      1622       496       495
 -1      3733    3    0    1
 -2      1622       926       496      1791
 -1      3734    3    0    1
 -2      2678      1363      2391      2415
 -1      3735    3    0    1
 -2       836       693      1695      1835
 -1      3736    3    0    1
 -2      1595      1560      1655      1833
 -1      3737    3    0    1
 -2      1595      1586      1770      1832
 -1      3738    3    0    1
 -2       385      1586      1595      1832
 -1      3739    3    0    1
 -2      1586      1102      1616      1832
 -1      3740    3    0    1
 -2      1102       611      1616      1832
 -1      3741    3    0    1
 -2      1595      1792      1832      1833
 -1      3742    3    0    1
 -2       243       385      1746      1792
 -1      3743    3    0    1
 -2      1561       385      1595      1792
 -1      3744    3    0    1
 -2       385      1561      1746      1792
 -1      3745    3    0    1
 -2      1542      1637      1947      1996
 -1      3746    3    0    1
 -2      1561       824      1642      1831
 -1      3747    3    0    1
 -2      1194       827      1655      1831
 -1      3748    3    0    1
 -2       864      1731      1774      1938
 -1      3749    3    0    1
 -2      1638      1139      2074      2503
 -1      3750    3    0    1
 -2       565      2095      2161      2502
 -1      3751    3    0    1
 -2      1794       565      2094      2095
 -1      3752    3    0    1
 -2      1194      1655      1771      1831
 -1      3753    3    0    1
 -2       824       826      1642      1831
 -1      3754    3    0    1
 -2       245       247       777      2174
 -1      3755    3    0    1
 -2       986       356      1673      2494
 -1      3756    3    0    1
 -2       658       657      1803      1818
 -1      3757    3    0    1
 -2      1561      1746      1792      1831
 -1      3758    3    0    1
 -2      1768      1016      2497      2502
 -1      3759    3    0    1
 -2       362      1794      2090      2162
 -1      3760    3    0    1
 -2       637       629       636      2635
 -1      3761    3    0    1
 -2       552       565      2161      2502
 -1      3762    3    0    1
 -2       896      1562      1767      1797
 -1      3763    3    0    1
 -2      1645       896      1767      1797
 -1      3764    3    0    1
 -2       398       903       925      1827
 -1      3765    3    0    1
 -2      1148       794      1614      1828
 -1      3766    3    0    1
 -2        75       398       925      1827
 -1      3767    3    0    1
 -2       895       901      1619      1826
 -1      3768    3    0    1
 -2      1562       896      1624      1797
 -1      3769    3    0    1
 -2      1582       420      1675      1876
 -1      3770    3    0    1
 -2       895       398      1624      1797
 -1      3771    3    0    1
 -2       129       117       984      1971
 -1      3772    3    0    1
 -2       479       895      1624      1797
 -1      3773    3    0    1
 -2       479       901       895      1826
 -1      3774    3    0    1
 -2       896       479      1624      1797
 -1      3775    3    0    1
 -2        53        37       717      1799
 -1      3776    3    0    1
 -2        53       717       904      1799
 -1      3777    3    0    1
 -2       261       263       785      2031
 -1      3778    3    0    1
 -2        38        35      1692      1896
 -1      3779    3    0    1
 -2      2032       793      2067      2513
 -1      3780    3    0    1
 -2       369       732       966      1960
 -1      3781    3    0    1
 -2      1588      1541      1818      1895
 -1      3782    3    0    1
 -2       359       208      1786      1801
 -1      3783    3    0    1
 -2       208       359      1068      1801
 -1      3784    3    0    1
 -2       767       589       588      1801
 -1      3785    3    0    1
 -2       211       357      1894      2137
 -1      3786    3    0    1
 -2       348       957      1779      1809
 -1      3787    3    0    1
 -2      1714      1533      1752      1808
 -1      3788    3    0    1
 -2      1140       280       377      2103
 -1      3789    3    0    1
 -2      1533       409      1752      1808
 -1      3790    3    0    1
 -2      1596       883      1748      1896
 -1      3791    3    0    1
 -2       966       732       519      1960
 -1      3792    3    0    1
 -2      1679      1566      1777      2029
 -1      3793    3    0    1
 -2       673       674      1701      1871
 -1      3794    3    0    1
 -2       261      1126      2031      2481
 -1      3795    3    0    1
 -2      1841       386      1956      1989
 -1      3796    3    0    1
 -2       564      2078      2095      2502
 -1      3797    3    0    1
 -2       520       519      1960      1965
 -1      3798    3    0    1
 -2       577       576      1046      1807
 -1      3799    3    0    1
 -2      1736       395      1783      1819
 -1      3800    3    0    1
 -2       315       396       803      1818
 -1      3801    3    0    1
 -2       657       803      1803      1818
 -1      3802    3    0    1
 -2       588       601      1719      2483
 -1      3803    3    0    1
 -2       330      1002      1903      1975
 -1      3804    3    0    1
 -2      1687      1777      1981      2029
 -1      3805    3    0    1
 -2       143       330      1554      1975
 -1      3806    3    0    1
 -2      1935      1987      2025      2515
 -1      3807    3    0    1
 -2       803       396      1803      1818
 -1      3808    3    0    1
 -2       982       409      1853      1970
 -1      3809    3    0    1
 -2       960       516      2077      2128
 -1      3810    3    0    1
 -2       409      1524      1752      1970
 -1      3811    3    0    1
 -2       409       982      1524      1970
 -1      3812    3    0    1
 -2      2493      2632      2712      2719
 -1      3813    3    0    1
 -2      2069      1769      2093      2140
 -1      3814    3    0    1
 -2       636       457       857      1810
 -1      3815    3    0    1
 -2        10       712      1918      2477
 -1      3816    3    0    1
 -2       636       857      1140      1810
 -1      3817    3    0    1
 -2       591       580      1074      1813
 -1      3818    3    0    1
 -2       580       763      1074      1813
 -1      3819    3    0    1
 -2      1002      1689      1903      1975
 -1      3820    3    0    1
 -2      1680      1581      1711      1814
 -1      3821    3    0    1
 -2        30      1812      2477      2098
 -1      3822    3    0    1
 -2       861        10       857      2049
 -1      3823    3    0    1
 -2      1198      1680      1711      1814
 -1      3824    3    0    1
 -2       686      1198      1711      1814
 -1      3825    3    0    1
 -2      1143       638      1840      2021
 -1      3826    3    0    1
 -2      1581      1568      1711      1814
 -1      3827    3    0    1
 -2      1579       194      1974      2086
 -1      3828    3    0    1
 -2      1631      1048      1682      1988
 -1      3829    3    0    1
 -2      1530      1606      1639      1865
 -1      3830    3    0    1
 -2       400       295       805      1816
 -1      3831    3    0    1
 -2       225       228      1993      2121
 -1      3832    3    0    1
 -2      2564      1870      2065      2136
 -1      3833    3    0    1
 -2      2248      2247      2265      2297
 -1      3834    3    0    1
 -2      2383      1478      2404      2423
 -1      3835    3    0    1
 -2      1234      1297      2585      2744
 -1      3836    3    0    1
 -2       900       878      2478      2519
 -1      3837    3    0    1
 -2       830      1679      1687      2029
 -1      3838    3    0    1
 -2       333       996      1975      1985
 -1      3839    3    0    1
 -2      1213       691       834      1992
 -1      3840    3    0    1
 -2       996       333      1738      1985
 -1      3841    3    0    1
 -2      1744      1574      1805      1992
 -1      3842    3    0    1
 -2      1021       335      1991      2079
 -1      3843    3    0    1
 -2        12       392      2139      2513
 -1      3844    3    0    1
 -2       438       905      1564      2063
 -1      3845    3    0    1
 -2        88       367      1935      2114
 -1      3846    3    0    1
 -2      1795       905      1829       483
 -1      3847    3    0    1
 -2      1760       516      1949      2128
 -1      3848    3    0    1
 -2      1587      1602      1697      1823
 -1      3849    3    0    1
 -2      1697      1602      1738      1823
 -1      3850    3    0    1
 -2      1689       997      1691      1823
 -1      3851    3    0    1
 -2       997      1587      1691      1823
 -1      3852    3    0    1
 -2      1689       997       542      1001
 -1      3853    3    0    1
 -2       997      1689       542      1823
 -1      3854    3    0    1
 -2      1587       997      1602      1823
 -1      3855    3    0    1
 -2       539       996      1738      1823
 -1      3856    3    0    1
 -2       592       768      1092      2008
 -1      3857    3    0    1
 -2       997       539      1738      1823
 -1      3858    3    0    1
 -2      1602       997      1738      1823
 -1      3859    3    0    1
 -2        71        75       925      1825
 -1      3860    3    0    1
 -2      1634      1743      1767      1828
 -1      3861    3    0    1
 -2       946       508      1589      1937
 -1      3862    3    0    1
 -2       946       507       508      1937
 -1      3863    3    0    1
 -2       948       507      1785      1937
 -1      3864    3    0    1
 -2       432       308      1153      2029
 -1      3865    3    0    1
 -2      1534      1671      1675      1876
 -1      3866    3    0    1
 -2        75       922      1624      1825
 -1      3867    3    0    1
 -2        75        71       922      1825
 -1      3868    3    0    1
 -2       922       494      1624      1825
 -1      3869    3    0    1
 -2       398        75      1624      1825
 -1      3870    3    0    1
 -2      1796      1539      1800      1828
 -1      3871    3    0    1
 -2       420      1534      1675      1876
 -1      3872    3    0    1
 -2      1634      1614      1743      1828
 -1      3873    3    0    1
 -2       785       263      1986      2031
 -1      3874    3    0    1
 -2      1666      1528      1916      1930
 -1      3875    3    0    1
 -2       420       424      1662      1876
 -1      3876    3    0    1
 -2       794      1539      1614      1828
 -1      3877    3    0    1
 -2      1614      1539      1743      1828
 -1      3878    3    0    1
 -2      1694      1666      1916      1930
 -1      3879    3    0    1
 -2      2534      1245      2574      2674
 -1      3880    3    0    1
 -2       483       472       718      1829
 -1      3881    3    0    1
 -2       483       718       905      1829
 -1      3882    3    0    1
 -2       516       529       736      2077
 -1      3883    3    0    1
 -2       516       960      1949      2128
 -1      3884    3    0    1
 -2      1213       834      1805      1992
 -1      3885    3    0    1
 -2       748      1038      1893      2499
 -1      3886    3    0    1
 -2       768       592      1939      2112
 -1      3887    3    0    1
 -2      1071      1065      1757      1940
 -1      3888    3    0    1
 -2       305       824      1561      1831
 -1      3889    3    0    1
 -2       305       826       824      1831
 -1      3890    3    0    1
 -2       305      1194       314      1831
 -1      3891    3    0    1
 -2       827       305      1561      1831
 -1      3892    3    0    1
 -2      1194       305       827      1831
 -1      3893    3    0    1
 -2       827      1561      1655      1831
 -1      3894    3    0    1
 -2      1561      1595      1655      1833
 -1      3895    3    0    1
 -2      1789       384      2105      2148
 -1      3896    3    0    1
 -2       947       507      1735      1834
 -1      3897    3    0    1
 -2       924       947      1735      1834
 -1      3898    3    0    1
 -2       923       496      1791      1834
 -1      3899    3    0    1
 -2       496       507       924      1834
 -1      3900    3    0    1
 -2       507       496       948      1834
 -1      3901    3    0    1
 -2       924       507       947      1834
 -1      3902    3    0    1
 -2       496       923       948      1834
 -1      3903    3    0    1
 -2      1559      1669      1695      1835
 -1      3904    3    0    1
 -2      1747       568      1877      2057
 -1      3905    3    0    1
 -2      1788      1559      1868      1835
 -1      3906    3    0    1
 -2      1669      1559      1672      1835
 -1      3907    3    0    1
 -2      1672      1559      1788      1835
 -1      3908    3    0    1
 -2      1553      1592      1671      2003
 -1      3909    3    0    1
 -2        12       857      2049      2172
 -1      3910    3    0    1
 -2      1156       288      1157      1929
 -1      3911    3    0    1
 -2       288       393       794      1929
 -1      3912    3    0    1
 -2       551      1014      1627      1836
 -1      3913    3    0    1
 -2      1642      1563      1925      1953
 -1      3914    3    0    1
 -2       369      1935      1960      2124
 -1      3915    3    0    1
 -2       825      1642      1925      1953
 -1      3916    3    0    1
 -2      1950      2150      2527      2560
 -1      3917    3    0    1
 -2      1677      1568      1820      1837
 -1      3918    3    0    1
 -2       680       679      1642      1925
 -1      3919    3    0    1
 -2         7      1552      1721      1954
 -1      3920    3    0    1
 -2       565       564      2095      2502
 -1      3921    3    0    1
 -2       923      1834      2147      2498
 -1      3922    3    0    1
 -2       998      1839      2490      2497
 -1      3923    3    0    1
 -2       245       779      2028      2121
 -1      3924    3    0    1
 -2      1816      1543      1862      1864
 -1      3925    3    0    1
 -2      1171      1174      1816      1864
 -1      3926    3    0    1
 -2      1074      1786      1813      2507
 -1      3927    3    0    1
 -2      1250      1331      2665      2734
 -1      3928    3    0    1
 -2       400      1171      1816      1864
 -1      3929    3    0    1
 -2       638      1142      1804      1840
 -1      3930    3    0    1
 -2      1143       638      1804      1840
 -1      3931    3    0    1
 -2      1575      1120      1804      1840
 -1      3932    3    0    1
 -2      1142      1575      1804      1840
 -1      3933    3    0    1
 -2      1966       347      2018      2038
 -1      3934    3    0    1
 -2      1120       623      1804      1840
 -1      3935    3    0    1
 -2       641       794      1614      1857
 -1      3936    3    0    1
 -2        30      1812      1861      2477
 -1      3937    3    0    1
 -2      1320      1270      2378      2707
 -1      3938    3    0    1
 -2      2022       963      2037      2040
 -1      3939    3    0    1
 -2       306       307       828      1915
 -1      3940    3    0    1
 -2      1584      1546      1800      1943
 -1      3941    3    0    1
 -2      1872       129      1887      1971
 -1      3942    3    0    1
 -2      1416      1484      2428      2429
 -1      3943    3    0    1
 -2       530      1853      1961      1970
 -1      3944    3    0    1
 -2      1841      1128      2010      2046
 -1      3945    3    0    1
 -2       421       281      1144      2011
 -1      3946    3    0    1
 -2       284       421       792      2011
 -1      3947    3    0    1
 -2      1004       544       543      1921
 -1      3948    3    0    1
 -2      1796      1584      1800      1943
 -1      3949    3    0    1
 -2       268       386      1128      1841
 -1      3950    3    0    1
 -2      1662      1138      1876      1990
 -1      3951    3    0    1
 -2       792       865      1731      2011
 -1      3952    3    0    1
 -2       518       963      2022      2040
 -1      3953    3    0    1
 -2       373        72       918      1957
 -1      3954    3    0    1
 -2      1137       635      1143      1990
 -1      3955    3    0    1
 -2      1110      1913      1994      2035
 -1      3956    3    0    1
 -2      1138       635      1534      1990
 -1      3957    3    0    1
 -2      2479       962      2520      2561
 -1      3958    3    0    1
 -2      1892      1844      1944      1980
 -1      3959    3    0    1
 -2      1743      1541      1819      1959
 -1      3960    3    0    1
 -2       899       879      1709      2048
 -1      3961    3    0    1
 -2      1709       879      1812      2048
 -1      3962    3    0    1
 -2       386      1109      1128      1841
 -1      3963    3    0    1
 -2       386       380      1109      1841
 -1      3964    3    0    1
 -2       902      1772      2063      2100
 -1      3965    3    0    1
 -2       518      2022      2033      2040
 -1      3966    3    0    1
 -2      1643      1710      1750      1943
 -1      3967    3    0    1
 -2       843       697      1916      1930
 -1      3968    3    0    1
 -2      1630      1530      1869      1873
 -1      3969    3    0    1
 -2       321      1602      1697      1873
 -1      3970    3    0    1
 -2      1602      1633      1697      1873
 -1      3971    3    0    1
 -2      1726      1610      1773      1904
 -1      3972    3    0    1
 -2       117       129       976      1847
 -1      3973    3    0    1
 -2      1125      1119      1766      1989
 -1      3974    3    0    1
 -2       590      1071      1846      1923
 -1      3975    3    0    1
 -2       196       336      1053      1849
 -1      3976    3    0    1
 -2       196      1053      1649      1849
 -1      3977    3    0    1
 -2      1122       261       785      2031
 -1      3978    3    0    1
 -2       422      1629      1805      1851
 -1      3979    3    0    1
 -2      1213       422      1805      1851
 -1      3980    3    0    1
 -2       422      1207       848      1851
 -1      3981    3    0    1
 -2       422       848      1629      1851
 -1      3982    3    0    1
 -2      1568      1581      1678      1852
 -1      3983    3    0    1
 -2      1581       187      1678      1852
 -1      3984    3    0    1
 -2       365       762      1780      1967
 -1      3985    3    0    1
 -2      1947      1542      1583      1716
 -1      3986    3    0    1
 -2       661      1175       806      1996
 -1      3987    3    0    1
 -2       316       397       806      1996
 -1      3988    3    0    1
 -2       397       316      1637      1996
 -1      3989    3    0    1
 -2      1536      1763      1765      2027
 -1      3990    3    0    1
 -2       638      1143      1990      2021
 -1      3991    3    0    1
 -2      1527      1804      1840      2021
 -1      3992    3    0    1
 -2       982      1636      1809      1853
 -1      3993    3    0    1
 -2       982       409      1636      1853
 -1      3994    3    0    1
 -2      1636       409      1808      1853
 -1      3995    3    0    1
 -2       662       661      1947      1996
 -1      3996    3    0    1
 -2       530       982      1809      1853
 -1      3997    3    0    1
 -2       815      1182      1668      1962
 -1      3998    3    0    1
 -2       332       977      1621      1854
 -1      3999    3    0    1
 -2      1530      1865      1869      1873
 -1      4000    3    0    1
 -2       755      1037      1747      1855
 -1      4001    3    0    1
 -2       755       174      1037      1855
 -1      4002    3    0    1
 -2        38      1692      1824      1896
 -1      4003    3    0    1
 -2      1071      1757      1846      1940
 -1      4004    3    0    1
 -2      1091       603       773      1856
 -1      4005    3    0    1
 -2      1611        68      1717      1898
 -1      4006    3    0    1
 -2      1022       334      2055      2080
 -1      4007    3    0    1
 -2       211       208      1894      2508
 -1      4008    3    0    1
 -2      1092       774       603      1856
 -1      4009    3    0    1
 -2      1145       377      1739      2481
 -1      4010    3    0    1
 -2      1627      1623      1811      1952
 -1      4011    3    0    1
 -2      1786       359      2084      2108
 -1      4012    3    0    1
 -2      1611      1667      1737      1898
 -1      4013    3    0    1
 -2       482      1722      1826      1901
 -1      4014    3    0    1
 -2      1583        68      1611      1898
 -1      4015    3    0    1
 -2       647      1157       648      1875
 -1      4016    3    0    1
 -2        35        38      1824      1896
 -1      4017    3    0    1
 -2      1565      1882      1899      1905
 -1      4018    3    0    1
 -2      1108       616       615      1914
 -1      4019    3    0    1
 -2      2671       355      2390      2714
 -1      4020    3    0    1
 -2       225       774      1092      1856
 -1      4021    3    0    1
 -2      1631      1048      1678      1923
 -1      4022    3    0    1
 -2       575      1048      1631      1923
 -1      4023    3    0    1
 -2       604       615      1110      1994
 -1      4024    3    0    1
 -2       603      1092      1856      2008
 -1      4025    3    0    1
 -2       767      1801      2084      2142
 -1      4026    3    0    1
 -2      1576      1523      1858      1901
 -1      4027    3    0    1
 -2      1588      1542      1736      1895
 -1      4028    3    0    1
 -2      1542       395      1736      1895
 -1      4029    3    0    1
 -2       882        35      1824      1896
 -1      4030    3    0    1
 -2        35        36       883      1896
 -1      4031    3    0    1
 -2      1736       395      1819      1895
 -1      4032    3    0    1
 -2       592      1072      1939      2008
 -1      4033    3    0    1
 -2       883        36      1748      1896
 -1      4034    3    0    1
 -2       226       225      1092      1856
 -1      4035    3    0    1
 -2       544       742      1699      1921
 -1      4036    3    0    1
 -2       195       360      1974      2507
 -1      4037    3    0    1
 -2      1111      1108       615      1914
 -1      4038    3    0    1
 -2      2126      2047      2516      2557
 -1      4039    3    0    1
 -2       270      2031      2066      2481
 -1      4040    3    0    1
 -2      1541      1588      1819      1895
 -1      4041    3    0    1
 -2      2484      1086      2165      2536
 -1      4042    3    0    1
 -2        24       877      1858      1948
 -1      4043    3    0    1
 -2       416      1532      1733      1948
 -1      4044    3    0    1
 -2       877      1593      1858      1948
 -1      4045    3    0    1
 -2      2479       938      1226      2621
 -1      4046    3    0    1
 -2       866        12      1749      2513
 -1      4047    3    0    1
 -2      1174       660      1842      1864
 -1      4048    3    0    1
 -2      1174       659       660      1864
 -1      4049    3    0    1
 -2       301       823      1187      1899
 -1      4050    3    0    1
 -2       527       977      1872      1887
 -1      4051    3    0    1
 -2      1163       291      1164      1866
 -1      4052    3    0    1
 -2       542      1002      1689      1887
 -1      4053    3    0    1
 -2       129       976      1872      1887
 -1      4054    3    0    1
 -2       424      1574      1575      1867
 -1      4055    3    0    1
 -2      1559      1788      1868       264
 -1      4056    3    0    1
 -2      1695      1559      1835      1868
 -1      4057    3    0    1
 -2      1788      1770      1835      1868
 -1      4058    3    0    1
 -2      1602      1587      1697      1869
 -1      4059    3    0    1
 -2      1633      1602      1697      1869
 -1      4060    3    0    1
 -2      1587      1602      1630      1869
 -1      4061    3    0    1
 -2      1530      1639      1705      1869
 -1      4062    3    0    1
 -2      1630      1530      1705      1869
 -1      4063    3    0    1
 -2      1091      1856      2001      2008
 -1      4064    3    0    1
 -2      2206      1252      2227      2295
 -1      4065    3    0    1
 -2      1975       333      1985      1991
 -1      4066    3    0    1
 -2      1529      1659      1704      1931
 -1      4067    3    0    1
 -2       567       556       748      1893
 -1      4068    3    0    1
 -2      1703      1913      1928      2036
 -1      4069    3    0    1
 -2      1809      1779      1853      1995
 -1      4070    3    0    1
 -2       567       748      1038      1893
 -1      4071    3    0    1
 -2       864       419      1731      1920
 -1      4072    3    0    1
 -2       334       142      2059      2080
 -1      4073    3    0    1
 -2      1578       458      1878      1920
 -1      4074    3    0    1
 -2      1660      1072      2001      2008
 -1      4075    3    0    1
 -2      1543      1609      1898      1951
 -1      4076    3    0    1
 -2      1122       785       624      2053
 -1      4077    3    0    1
 -2      1126       376      1145      2481
 -1      4078    3    0    1
 -2      1678      1070      1885      1923
 -1      4079    3    0    1
 -2      1083       601      1719      2111
 -1      4080    3    0    1
 -2      1193       828      1655      1915
 -1      4081    3    0    1
 -2      1605      1737      1881      1951
 -1      4082    3    0    1
 -2      1337      2558      2590      2591
 -1      4083    3    0    1
 -2       346       348      1779      1999
 -1      4084    3    0    1
 -2      1091       603      1856      2008
 -1      4085    3    0    1
 -2       635      1137      1920      2039
 -1      4086    3    0    1
 -2       600       613      2113      2536
 -1      4087    3    0    1
 -2       419       284      1731      1920
 -1      4088    3    0    1
 -2      1734      2089      2143      2175
 -1      4089    3    0    1
 -2       306       828      1193      1915
 -1      4090    3    0    1
 -2       884        31        30      2477
 -1      4091    3    0    1
 -2      1089       433      1599      1874
 -1      4092    3    0    1
 -2      1089      1599      1670      1874
 -1      4093    3    0    1
 -2       697       699      1694      1930
 -1      4094    3    0    1
 -2      2644      1284      2680      2760
 -1      4095    3    0    1
 -2       543       532      1759      2024
 -1      4096    3    0    1
 -2       936       503      1761      2042
 -1      4097    3    0    1
 -2      1667      1611      1889      2000
 -1      4098    3    0    1
 -2       965       519       731      1934
 -1      4099    3    0    1
 -2       579       756      1055      1877
 -1      4100    3    0    1
 -2       579       568       756      1877
 -1      4101    3    0    1
 -2        83       945       948      1937
 -1      4102    3    0    1
 -2       627      1129      2043      2046
 -1      4103    3    0    1
 -2       544      1554      1699      1911
 -1      4104    3    0    1
 -2       544       741      1554      1911
 -1      4105    3    0    1
 -2      1186       676      1888      2002
 -1      4106    3    0    1
 -2      1786       591      1917      1939
 -1      4107    3    0    1
 -2      1074       592       591      1939
 -1      4108    3    0    1
 -2       592      1072      1917      1939
 -1      4109    3    0    1
 -2       431      1660      2001      2009
 -1      4110    3    0    1
 -2       863       415      1578      1878
 -1      4111    3    0    1
 -2       458       863      1578      1878
 -1      4112    3    0    1
 -2      1691      1742      2004      1906
 -1      4113    3    0    1
 -2      1545      1551      1778      1879
 -1      4114    3    0    1
 -2       649      1161       797      1879
 -1      4115    3    0    1
 -2       649       797      1551      1879
 -1      4116    3    0    1
 -2      1551       797      1778      1879
 -1      4117    3    0    1
 -2       434      1599      1625      1880
 -1      4118    3    0    1
 -2      1599      1566      1625      1880
 -1      4119    3    0    1
 -2       434      1066      1599      1880
 -1      4120    3    0    1
 -2      1640       402      1775      1881
 -1      4121    3    0    1
 -2        81       402      1640      1881
 -1      4122    3    0    1
 -2      1544        81      1640      1881
 -1      4123    3    0    1
 -2       402      1544      1605      1881
 -1      4124    3    0    1
 -2       402        81      1544      1881
 -1      4125    3    0    1
 -2        67        71      1622      1926
 -1      4126    3    0    1
 -2       527      1847      1902      1961
 -1      4127    3    0    1
 -2      1721      1647      1910      2003
 -1      4128    3    0    1
 -2       415      1721      1910      2003
 -1      4129    3    0    1
 -2      1779      1809      1853      1961
 -1      4130    3    0    1
 -2      1874       602      1897      1900
 -1      4131    3    0    1
 -2       587      1664      1757      2009
 -1      4132    3    0    1
 -2       935       506      1667      1889
 -1      4133    3    0    1
 -2      1900       430      2001      2009
 -1      4134    3    0    1
 -2      1842      1605      1881      1951
 -1      4135    3    0    1
 -2      1070       343      1678      1885
 -1      4136    3    0    1
 -2       809       298      1866      1886
 -1      4137    3    0    1
 -2       291       298       809      1886
 -1      4138    3    0    1
 -2      1688       809      1866      1886
 -1      4139    3    0    1
 -2      1621      1001      1689      1887
 -1      4140    3    0    1
 -2      1001       542      1689      1887
 -1      4141    3    0    1
 -2      1563      1726      1882      1904
 -1      4142    3    0    1
 -2      1621      1689      1854      1887
 -1      4143    3    0    1
 -2       977      1621      1854      1887
 -1      4144    3    0    1
 -2       977      1854      1872      1887
 -1      4145    3    0    1
 -2      1854      1689      1872      1887
 -1      4146    3    0    1
 -2       675      1186       676      1888
 -1      4147    3    0    1
 -2       491      1717      1783      2016
 -1      4148    3    0    1
 -2      1127       628      1527      2043
 -1      4149    3    0    1
 -2        91      1667      1884      1889
 -1      4150    3    0    1
 -2       942        91      1884      1889
 -1      4151    3    0    1
 -2      1960       732      1965      2081
 -1      4152    3    0    1
 -2       351      1460      1463      2421
 -1      4153    3    0    1
 -2      1069      1270      1271      2552
 -1      4154    3    0    1
 -2        30      1690      1812      2098
 -1      4155    3    0    1
 -2      2049        10      2477      2098
 -1      4156    3    0    1
 -2       568       756      1747      1891
 -1      4157    3    0    1
 -2       567       568      1747      1891
 -1      4158    3    0    1
 -2       568       567       756      1891
 -1      4159    3    0    1
 -2       362       177       756      1891
 -1      4160    3    0    1
 -2      1715      1632      1730      1945
 -1      4161    3    0    1
 -2      2630      2517      2688      2690
 -1      4162    3    0    1
 -2      1740      1545      2023      2034
 -1      4163    3    0    1
 -2      2655      2730      2757      2762
 -1      4164    3    0    1
 -2       554      1696      1697      1985
 -1      4165    3    0    1
 -2      1737      1611      1898      1951
 -1      4166    3    0    1
 -2       668      1632      1715      1945
 -1      4167    3    0    1
 -2       159      1021      1912      2079
 -1      4168    3    0    1
 -2      1605      1543      1737      1951
 -1      4169    3    0    1
 -2      1613      1548      1730      1945
 -1      4170    3    0    1
 -2      1609      1543      1816      1951
 -1      4171    3    0    1
 -2       348       731      1927      1999
 -1      4172    3    0    1
 -2       261       270      1126      2481
 -1      4173    3    0    1
 -2      1939       592      2008      2112
 -1      4174    3    0    1
 -2      1660       342      1917      1940
 -1      4175    3    0    1
 -2      1780       214      1846      1940
 -1      4176    3    0    1
 -2      2110      1980      2164      2166
 -1      4177    3    0    1
 -2      1071       342      1065      1940
 -1      4178    3    0    1
 -2      1786       768      1939      2112
 -1      4179    3    0    1
 -2       599       602      1090      1897
 -1      4180    3    0    1
 -2       394      1645      1796      1901
 -1      4181    3    0    1
 -2      1089      1615      1874      1897
 -1      4182    3    0    1
 -2      1089      1085      1615      1897
 -1      4183    3    0    1
 -2       599      1085      1089      1897
 -1      4184    3    0    1
 -2       482       721      1576      1901
 -1      4185    3    0    1
 -2       721       394      1576      1901
 -1      4186    3    0    1
 -2       721       482      1826      1901
 -1      4187    3    0    1
 -2       602       599      1089      1897
 -1      4188    3    0    1
 -2       602      1089      1874      1897
 -1      4189    3    0    1
 -2      1127       627       628      2043
 -1      4190    3    0    1
 -2       245      1108      1111      1914
 -1      4191    3    0    1
 -2       482      1576      1722      1901
 -1      4192    3    0    1
 -2       675      1187       823      1899
 -1      4193    3    0    1
 -2       301       309       823      1899
 -1      4194    3    0    1
 -2       829       301       831      1899
 -1      4195    3    0    1
 -2       675       823      1888      1899
 -1      4196    3    0    1
 -2       823       309      1565      1899
 -1      4197    3    0    1
 -2       309       301       829      1899
 -1      4198    3    0    1
 -2       309       829      1565      1899
 -1      4199    3    0    1
 -2      1565       829      1679      1899
 -1      4200    3    0    1
 -2        71      1825      1926      2016
 -1      4201    3    0    1
 -2       430      1090      1670      1900
 -1      4202    3    0    1
 -2      1090       602      1670      1900
 -1      4203    3    0    1
 -2      1524       332      1854      1902
 -1      4204    3    0    1
 -2      1937       508      2012      2025
 -1      4205    3    0    1
 -2       386      1616      1956      1989
 -1      4206    3    0    1
 -2      1104       248       779      2028
 -1      4207    3    0    1
 -2      1047       365      1923      1976
 -1      4208    3    0    1
 -2      1589       936      1761      2042
 -1      4209    3    0    1
 -2      1780      1846      1923      1976
 -1      4210    3    0    1
 -2       937      1635      1640      2042
 -1      4211    3    0    1
 -2      1047      1631      1922      1976
 -1      4212    3    0    1
 -2       189      1047      1849      1976
 -1      4213    3    0    1
 -2       189       365      1047      1976
 -1      4214    3    0    1
 -2       329      1002      1887      1903
 -1      4215    3    0    1
 -2       329       330      1002      1903
 -1      4216    3    0    1
 -2       438        56       899      2480
 -1      4217    3    0    1
 -2      1590      1651      1712      1906
 -1      4218    3    0    1
 -2      1137      1990      2021      2039
 -1      4219    3    0    1
 -2      1535      1590      1712      1906
 -1      4220    3    0    1
 -2      1590      1535      1742      1906
 -1      4221    3    0    1
 -2       445       311       839      1907
 -1      4222    3    0    1
 -2      1560      1770      1835      1979
 -1      4223    3    0    1
 -2       839       311      1216      1907
 -1      4224    3    0    1
 -2      1695       837      1915      1979
 -1      4225    3    0    1
 -2       157      1656      2055      2059
 -1      4226    3    0    1
 -2      2594      2535      2597      2651
 -1      4227    3    0    1
 -2      1723       979      2061      2131
 -1      4228    3    0    1
 -2       334       157      2055      2059
 -1      4229    3    0    1
 -2       469       716      1690      1908
 -1      4230    3    0    1
 -2      1690       716      1812      1908
 -1      4231    3    0    1
 -2       879      1709      1812      1908
 -1      4232    3    0    1
 -2       879       468      1709      1908
 -1      4233    3    0    1
 -2       469       468       879      1908
 -1      4234    3    0    1
 -2       716       469       879      1908
 -1      4235    3    0    1
 -2       716       879      1812      1908
 -1      4236    3    0    1
 -2      1050       767      1807      2142
 -1      4237    3    0    1
 -2       544       555       741      1911
 -1      4238    3    0    1
 -2       555       544      1022      1911
 -1      4239    3    0    1
 -2       741       555      1021      1911
 -1      4240    3    0    1
 -2      1805       834      1851      1992
 -1      4241    3    0    1
 -2       544       742      1022      1911
 -1      4242    3    0    1
 -2      1206       847      1658      1992
 -1      4243    3    0    1
 -2       747       159      1021      1912
 -1      4244    3    0    1
 -2       747      1021      1698      1912
 -1      4245    3    0    1
 -2      1020      1014      1696      1912
 -1      4246    3    0    1
 -2       159      1020      1696      1912
 -1      4247    3    0    1
 -2      1020       159      1014      1912
 -1      4248    3    0    1
 -2      1986      1122      2031      2053
 -1      4249    3    0    1
 -2       743       153      2234      2259
 -1      4250    3    0    1
 -2       324       323      1014      1912
 -1      4251    3    0    1
 -2      1718       647      1875      1929
 -1      4252    3    0    1
 -2      1148       794      1828      1929
 -1      4253    3    0    1
 -2       615       604       774      1994
 -1      4254    3    0    1
 -2       837      1215      1695      1915
 -1      4255    3    0    1
 -2        88       367       966      2515
 -1      4256    3    0    1
 -2      1092      2008      2112      2508
 -1      4257    3    0    1
 -2       446      1598      1659      1931
 -1      4258    3    0    1
 -2       376       377      1969      2118
 -1      4259    3    0    1
 -2      1226      1225      2510      1266
 -1      4260    3    0    1
 -2       307       306       837      1915
 -1      4261    3    0    1
 -2       249       429       773      1913
 -1      4262    3    0    1
 -2       429       249      1703      1913
 -1      4263    3    0    1
 -2       249       773      1110      1913
 -1      4264    3    0    1
 -2       794      1539      1828      1929
 -1      4265    3    0    1
 -2       647      1156      1875      1929
 -1      4266    3    0    1
 -2       984      1003      1971      2024
 -1      4267    3    0    1
 -2       404       347      1966      1995
 -1      4268    3    0    1
 -2      1643      1546      1681      1943
 -1      4269    3    0    1
 -2      1935      1982      1987      2114
 -1      4270    3    0    1
 -2       940       504       939      1987
 -1      4271    3    0    1
 -2       329      1003      1903      1971
 -1      4272    3    0    1
 -2       742      1022      1911      2080
 -1      4273    3    0    1
 -2      1137       284      1578      1920
 -1      4274    3    0    1
 -2      1546      1584      1681      1943
 -1      4275    3    0    1
 -2       430      1090      1900      2015
 -1      4276    3    0    1
 -2      1612      1546      1750      1943
 -1      4277    3    0    1
 -2       230       366      1997      2015
 -1      4278    3    0    1
 -2      1523      1546      1612      1943
 -1      4279    3    0    1
 -2      1523      1612      1710      1943
 -1      4280    3    0    1
 -2      1126      2026      2031      2481
 -1      4281    3    0    1
 -2       691       847      1206      1992
 -1      4282    3    0    1
 -2       230      1084      2015      2036
 -1      4283    3    0    1
 -2       847       701      1805      1992
 -1      4284    3    0    1
 -2       359       215      2108      2507
 -1      4285    3    0    1
 -2       981      1004      1759      2492
 -1      4286    3    0    1
 -2      1144       423      1527      2044
 -1      4287    3    0    1
 -2       458      1731      1878      1920
 -1      4288    3    0    1
 -2       347       404       958      1995
 -1      4289    3    0    1
 -2       208       211      1894      2111
 -1      4290    3    0    1
 -2       249      1107      1928      2117
 -1      4291    3    0    1
 -2       940        83       374      1987
 -1      4292    3    0    1
 -2       214       365      1780      1923
 -1      4293    3    0    1
 -2      1728       626      1766      1989
 -1      4294    3    0    1
 -2       214      1780      1846      1923
 -1      4295    3    0    1
 -2      1543      1605      1864      1951
 -1      4296    3    0    1
 -2       978      1000      2068      2506
 -1      4297    3    0    1
 -2      1055       194      1579      2086
 -1      4298    3    0    1
 -2      1861      1918      2477      2098
 -1      4299    3    0    1
 -2      2381      2443      2464      2759
 -1      4300    3    0    1
 -2      2496      2185      2210      2320
 -1      4301    3    0    1
 -2       712      1596      1918      2477
 -1      4302    3    0    1
 -2      1051       577      1732      2070
 -1      4303    3    0    1
 -2      1987        83      2025      2515
 -1      4304    3    0    1
 -2      1607      1555      1700      1954
 -1      4305    3    0    1
 -2        91      1667      1889      1926
 -1      4306    3    0    1
 -2        91      1735      1884      1926
 -1      4307    3    0    1
 -2      1667        91      1884      1926
 -1      4308    3    0    1
 -2       924      1622      1834      1926
 -1      4309    3    0    1
 -2       399       924      1735      1926
 -1      4310    3    0    1
 -2      1735       924      1834      1926
 -1      4311    3    0    1
 -2      1128       268      1841      2010
 -1      4312    3    0    1
 -2      1127       268      1128      2010
 -1      4313    3    0    1
 -2       213      1065      1660      2009
 -1      4314    3    0    1
 -2        67       399       915      1926
 -1      4315    3    0    1
 -2       915       399      1889      1926
 -1      4316    3    0    1
 -2       399        91      1889      1926
 -1      4317    3    0    1
 -2      1650       814      1962      2020
 -1      4318    3    0    1
 -2       341       119      2061      2492
 -1      4319    3    0    1
 -2       520       531       985      1927
 -1      4320    3    0    1
 -2       124       731       985      1927
 -1      4321    3    0    1
 -2       731       520       985      1927
 -1      4322    3    0    1
 -2       802       397      1637      1996
 -1      4323    3    0    1
 -2       124       348       731      1927
 -1      4324    3    0    1
 -2      1554       543      1921      2024
 -1      4325    3    0    1
 -2      1162       292      1916      1930
 -1      4326    3    0    1
 -2      1165       292      1162      1930
 -1      4327    3    0    1
 -2       446       842      1598      1931
 -1      4328    3    0    1
 -2       446      1212       842      1931
 -1      4329    3    0    1
 -2      1659      1598      1704      1931
 -1      4330    3    0    1
 -2       833       446      1659      1931
 -1      4331    3    0    1
 -2      1205       446       833      1931
 -1      4332    3    0    1
 -2       459       460       711      1932
 -1      4333    3    0    1
 -2       711        14       865      1932
 -1      4334    3    0    1
 -2       419        14      1731      1932
 -1      4335    3    0    1
 -2        14       419       865      1932
 -1      4336    3    0    1
 -2       865       419      1731      1932
 -1      4337    3    0    1
 -2       711      1596      1774      1932
 -1      4338    3    0    1
 -2       711       460      1596      1932
 -1      4339    3    0    1
 -2       417       711      1774      1932
 -1      4340    3    0    1
 -2        14       417      1774      1932
 -1      4341    3    0    1
 -2       417        14       711      1932
 -1      4342    3    0    1
 -2       265       439      2041      1217
 -1      4343    3    0    1
 -2      1914      1108      2013      2041
 -1      4344    3    0    1
 -2      1747       755      1855      1933
 -1      4345    3    0    1
 -2       568       755      1747      1933
 -1      4346    3    0    1
 -2       568      1747      1877      1933
 -1      4347    3    0    1
 -2       568       579      1054      1933
 -1      4348    3    0    1
 -2       755       568      1054      1933
 -1      4349    3    0    1
 -2       532       981      1759      1936
 -1      4350    3    0    1
 -2       117      1847      1936      1971
 -1      4351    3    0    1
 -2       531       532       984      1936
 -1      4352    3    0    1
 -2       519       520       731      1934
 -1      4353    3    0    1
 -2      1542       802      1637      1996
 -1      4354    3    0    1
 -2       616      1109      1942      2013
 -1      4355    3    0    1
 -2        92       370       947      1937
 -1      4356    3    0    1
 -2      1104      1986      2120      2125
 -1      4357    3    0    1
 -2       370      1589      1937        92
 -1      4358    3    0    1
 -2       981       986      1673      1936
 -1      4359    3    0    1
 -2       117       122       985      1936
 -1      4360    3    0    1
 -2      1109      1128      1841      2013
 -1      4361    3    0    1
 -2       531       985      1927      1936
 -1      4362    3    0    1
 -2       985       531       984      1936
 -1      4363    3    0    1
 -2      1110      1109      1942      2035
 -1      4364    3    0    1
 -2      1545      1551      1879      2023
 -1      4365    3    0    1
 -2      1244      2297      2418      2419
 -1      4366    3    0    1
 -2      1371      1419      2322      2324
 -1      4367    3    0    1
 -2      2093      2160      2509      2168
 -1      4368    3    0    1
 -2       639      1145      1739      2026
 -1      4369    3    0    1
 -2      1843      1577      1981      1983
 -1      4370    3    0    1
 -2      1846      1885      1923      1988
 -1      4371    3    0    1
 -2      1731       458      1878      1938
 -1      4372    3    0    1
 -2       263       261      1129      2031
 -1      4373    3    0    1
 -2       374       948      1785      1937
 -1      4374    3    0    1
 -2       374        83       948      1937
 -1      4375    3    0    1
 -2      1109      1841      1942      2013
 -1      4376    3    0    1
 -2      1084      1897      2015      2036
 -1      4377    3    0    1
 -2      1660      1065      1757      2009
 -1      4378    3    0    1
 -2       821      1552      1701      1941
 -1      4379    3    0    1
 -2       300       414       821      1941
 -1      4380    3    0    1
 -2      1150       300      1151      1941
 -1      4381    3    0    1
 -2       821       414      1552      1941
 -1      4382    3    0    1
 -2       414       300      1150      1941
 -1      4383    3    0    1
 -2       414      1150      1552      1941
 -1      4384    3    0    1
 -2      1552      1150      1706      1941
 -1      4385    3    0    1
 -2      1913       429      1997      2036
 -1      4386    3    0    1
 -2      2657      1469      2697      2715
 -1      4387    3    0    1
 -2       363      1604      1724      2006
 -1      4388    3    0    1
 -2      1109       427      1110      1942
 -1      4389    3    0    1
 -2       208      1786      1894      2508
 -1      4390    3    0    1
 -2       128       356      1673      2149
 -1      4391    3    0    1
 -2       230      1084      1090      2015
 -1      4392    3    0    1
 -2      1841       380      1942      1956
 -1      4393    3    0    1
 -2       404      1657      1966      2018
 -1      4394    3    0    1
 -2      1616      1728      1832      1956
 -1      4395    3    0    1
 -2      1608       611      1832      1956
 -1      4396    3    0    1
 -2       407       317      1159      1946
 -1      4397    3    0    1
 -2       812      1547      1715      1946
 -1      4398    3    0    1
 -2       812       407      1547      1946
 -1      4399    3    0    1
 -2       317       407       812      1946
 -1      4400    3    0    1
 -2       429       773      1913      1997
 -1      4401    3    0    1
 -2       877        24       416      1948
 -1      4402    3    0    1
 -2       961       354       369      1949
 -1      4403    3    0    1
 -2       530       983      1847      1961
 -1      4404    3    0    1
 -2       961       369      1935      1949
 -1      4405    3    0    1
 -2       516       517      1760      1949
 -1      4406    3    0    1
 -2       517       516       960      1949
 -1      4407    3    0    1
 -2       384        72      1789      2105
 -1      4408    3    0    1
 -2       529      1890      2128      2489
 -1      4409    3    0    1
 -2       731      1934      1965      1999
 -1      4410    3    0    1
 -2      1611      1667      1898      2000
 -1      4411    3    0    1
 -2      1969      1122      2031      2118
 -1      4412    3    0    1
 -2       611      1101      1956      2017
 -1      4413    3    0    1
 -2       348       346       731      1999
 -1      4414    3    0    1
 -2      1107      1101       614      2017
 -1      4415    3    0    1
 -2      1608       611      1956      2017
 -1      4416    3    0    1
 -2      1015       551      1627      1952
 -1      4417    3    0    1
 -2      1592      1553      1647      2003
 -1      4418    3    0    1
 -2       302      1192       304      1953
 -1      4419    3    0    1
 -2      1534      1578      1675      2003
 -1      4420    3    0    1
 -2      1192       302       825      1953
 -1      4421    3    0    1
 -2      1671      1534      1675      2003
 -1      4422    3    0    1
 -2        44      1743      1767      1959
 -1      4423    3    0    1
 -2       318       408       818      1955
 -1      4424    3    0    1
 -2       813       318      1945      1955
 -1      4425    3    0    1
 -2       811       318       813      1955
 -1      4426    3    0    1
 -2       318      1183      1945      1955
 -1      4427    3    0    1
 -2       318       818      1183      1955
 -1      4428    3    0    1
 -2      1183      1753      1945      1955
 -1      4429    3    0    1
 -2      1101       380      1616      1956
 -1      4430    3    0    1
 -2       380       386      1616      1956
 -1      4431    3    0    1
 -2       611      1101      1616      1956
 -1      4432    3    0    1
 -2       374       940      1987      2116
 -1      4433    3    0    1
 -2       919       918        72      1957
 -1      4434    3    0    1
 -2       541       540      1723      2497
 -1      4435    3    0    1
 -2       110       128      2115      2149
 -1      4436    3    0    1
 -2      1928      1107      2017      2117
 -1      4437    3    0    1
 -2       878       900      2478      1223
 -1      4438    3    0    1
 -2      1942       427      2035      2117
 -1      4439    3    0    1
 -2      2215      2578      1315      1316
 -1      4440    3    0    1
 -2        44      1562      1624      1959
 -1      4441    3    0    1
 -2      1562      1767      1819      1959
 -1      4442    3    0    1
 -2      1783      1562      1819      1959
 -1      4443    3    0    1
 -2        87       374      1785      2116
 -1      4444    3    0    1
 -2       983       530      1809      1961
 -1      4445    3    0    1
 -2       124       983      1809      1961
 -1      4446    3    0    1
 -2      1778      1740      1879      2020
 -1      4447    3    0    1
 -2       669       816       670      1962
 -1      4448    3    0    1
 -2      1182       669       670      1962
 -1      4449    3    0    1
 -2       814       669      1650      1962
 -1      4450    3    0    1
 -2       816       669       814      1962
 -1      4451    3    0    1
 -2       669       815      1650      1962
 -1      4452    3    0    1
 -2       669      1182       815      1962
 -1      4453    3    0    1
 -2      1581      1568      1814      1964
 -1      4454    3    0    1
 -2       837       307      1915      1979
 -1      4455    3    0    1
 -2      1568      1837      1907      1964
 -1      4456    3    0    1
 -2       520       531      1927      1965
 -1      4457    3    0    1
 -2      2031       270      2066      2118
 -1      4458    3    0    1
 -2      1038       362      1891      2499
 -1      4459    3    0    1
 -2      1108       245      1111      2174
 -1      4460    3    0    1
 -2      1306      2651      2420      2451
 -1      4461    3    0    1
 -2       117       122      1936      2019
 -1      4462    3    0    1
 -2       330      1554      1903      2024
 -1      4463    3    0    1
 -2      1003      1903      1971      2024
 -1      4464    3    0    1
 -2       124       983      1961      2019
 -1      4465    3    0    1
 -2      1175       662      1947      1996
 -1      4466    3    0    1
 -2      1003       330      1903      2024
 -1      4467    3    0    1
 -2      1847       117      1936      2019
 -1      4468    3    0    1
 -2       985      1927      1936      2019
 -1      4469    3    0    1
 -2       532       543       984      2024
 -1      4470    3    0    1
 -2      1936       532      1971      2024
 -1      4471    3    0    1
 -2        83       374      1987      2025
 -1      4472    3    0    1
 -2       374      1785      1987      2025
 -1      4473    3    0    1
 -2       427       249      1110      2035
 -1      4474    3    0    1
 -2      1110       249      1913      2035
 -1      4475    3    0    1
 -2       984       543      1003      2024
 -1      4476    3    0    1
 -2       374        83      1937      2025
 -1      4477    3    0    1
 -2       532       984      1971      2024
 -1      4478    3    0    1
 -2      1551      1545      1657      2023
 -1      4479    3    0    1
 -2      1613      1632      1730      2038
 -1      4480    3    0    1
 -2       983       122      1847      2019
 -1      4481    3    0    1
 -2      1879      1551      1946      2023
 -1      4482    3    0    1
 -2      2538      2516      2557      2604
 -1      4483    3    0    1
 -2      1272      2206      2227      2240
 -1      4484    3    0    1
 -2      1301      2389      2427      2454
 -1      4485    3    0    1
 -2      1398      2695      1466      2740
 -1      4486    3    0    1
 -2       326      1202      1972      2027
 -1      4487    3    0    1
 -2       615      1111      1914      2122
 -1      4488    3    0    1
 -2        87       374       948      2498
 -1      4489    3    0    1
 -2      1351      2254      2394      2395
 -1      4490    3    0    1
 -2       541       528       978      2068
 -1      4491    3    0    1
 -2      2475      1725      2091      2119
 -1      4492    3    0    1
 -2       637       791      1122      1969
 -1      4493    3    0    1
 -2      1202       312      1199      2027
 -1      4494    3    0    1
 -2       245       248      1914      2028
 -1      4495    3    0    1
 -2       769      2191      1286      2221
 -1      4496    3    0    1
 -2       624       637      1122      1969
 -1      4497    3    0    1
 -2       280      1739      2103      2139
 -1      4498    3    0    1
 -2      1574      1744      1745      1992
 -1      4499    3    0    1
 -2      1993       225      2169      2170
 -1      4500    3    0    1
 -2       964       957       518      2033
 -1      4501    3    0    1
 -2      1072      1091      2001      2008
 -1      4502    3    0    1
 -2       143       333       996      1975
 -1      4503    3    0    1
 -2      1810      1140      2103      2172
 -1      4504    3    0    1
 -2      1711      1197      1814      1978
 -1      4505    3    0    1
 -2       445       311      1907      1978
 -1      4506    3    0    1
 -2      1196      1197      1711      1978
 -1      4507    3    0    1
 -2      1197       311       445      1978
 -1      4508    3    0    1
 -2       311      1197      1196      1978
 -1      4509    3    0    1
 -2      1196      1711      1907      1978
 -1      4510    3    0    1
 -2       311      1196      1907      1978
 -1      4511    3    0    1
 -2      1770      1560      1771      1979
 -1      4512    3    0    1
 -2       828      1771      1915      1979
 -1      4513    3    0    1
 -2       307       828      1915      1979
 -1      4514    3    0    1
 -2      1560      1655      1771      1979
 -1      4515    3    0    1
 -2      1771      1655      1915      1979
 -1      4516    3    0    1
 -2      1560      1695      1915      1979
 -1      4517    3    0    1
 -2      1655      1560      1915      1979
 -1      4518    3    0    1
 -2       731       346      1934      1999
 -1      4519    3    0    1
 -2       404       963      1966      2037
 -1      4520    3    0    1
 -2      1640      1580      1963      2034
 -1      4521    3    0    1
 -2      1278      2641      2643      2401
 -1      4522    3    0    1
 -2       348       124      1779      1999
 -1      4523    3    0    1
 -2       366      1091      1997      2015
 -1      4524    3    0    1
 -2      1153       645      1577      1981
 -1      4525    3    0    1
 -2      1154       645      1153      1981
 -1      4526    3    0    1
 -2      1577      1625      1983      2030
 -1      4527    3    0    1
 -2      1567      1577      1843      2030
 -1      4528    3    0    1
 -2       981       121       119      2492
 -1      4529    3    0    1
 -2       504       517       939      1982
 -1      4530    3    0    1
 -2      1038      1891      1893      2499
 -1      4531    3    0    1
 -2       939       517       961      1982
 -1      4532    3    0    1
 -2       159       335      1021      2079
 -1      4533    3    0    1
 -2      2544      2593      2610      2622
 -1      4534    3    0    1
 -2      1301      2580      1382      2745
 -1      4535    3    0    1
 -2       457       456      1810      2102
 -1      4536    3    0    1
 -2      2089      1734      2133      2175
 -1      4537    3    0    1
 -2       335      1696      1991      2079
 -1      4538    3    0    1
 -2      1794       362      2101      2162
 -1      4539    3    0    1
 -2       226       225      1856      2169
 -1      4540    3    0    1
 -2      1323      2633      2638      2649
 -1      4541    3    0    1
 -2       427       249      2035      2117
 -1      4542    3    0    1
 -2       248       245       779      2028
 -1      4543    3    0    1
 -2       284       792      1731      2011
 -1      4544    3    0    1
 -2       177      1817      1891      2094
 -1      4545    3    0    1
 -2       792       459       865      2032
 -1      4546    3    0    1
 -2       528      1890      2054      2068
 -1      4547    3    0    1
 -2      1536      1765      1972      2027
 -1      4548    3    0    1
 -2      1784      1763      1972      2027
 -1      4549    3    0    1
 -2      1685      2022      2037      2042
 -1      4550    3    0    1
 -2      1538      1892      1944      2014
 -1      4551    3    0    1
 -2       228       250      1993      2121
 -1      4552    3    0    1
 -2       779      1087      2113      2121
 -1      4553    3    0    1
 -2      1087      1993      2113      2121
 -1      4554    3    0    1
 -2      1129       627      2041      2046
 -1      4555    3    0    1
 -2       187      1048      1678      1988
 -1      4556    3    0    1
 -2      1568      1678      1820      1988
 -1      4557    3    0    1
 -2      1678       343      1820      1988
 -1      4558    3    0    1
 -2       386      1125      1616      1989
 -1      4559    3    0    1
 -2       508      1589      1937      2012
 -1      4560    3    0    1
 -2       635       638      1143      1990
 -1      4561    3    0    1
 -2      1730       347      1995      2038
 -1      4562    3    0    1
 -2      1138       638       635      1990
 -1      4563    3    0    1
 -2      1142      1662      1840      1990
 -1      4564    3    0    1
 -2       638      1142      1840      1990
 -1      4565    3    0    1
 -2       616       627      1128      2013
 -1      4566    3    0    1
 -2       519      1960      1965      2012
 -1      4567    3    0    1
 -2      1763      1536      1972      2027
 -1      4568    3    0    1
 -2       964       406       346      2033
 -1      4569    3    0    1
 -2      1142      1138      1662      1990
 -1      4570    3    0    1
 -2      1142       638      1138      1990
 -1      4571    3    0    1
 -2       519       945       966      2012
 -1      4572    3    0    1
 -2       627       616      1108      2013
 -1      4573    3    0    1
 -2      1980      1844      2047      2178
 -1      4574    3    0    1
 -2       508       946      1589      2012
 -1      4575    3    0    1
 -2       323      1014      1912      2006
 -1      4576    3    0    1
 -2       552      2497      2106       553
 -1      4577    3    0    1
 -2      1566      1577      1981      2029
 -1      4578    3    0    1
 -2       376       270      2066      2481
 -1      4579    3    0    1
 -2      1083       226      1894      1993
 -1      4580    3    0    1
 -2      1083       225       226      1993
 -1      4581    3    0    1
 -2      1111       615      1994      2122
 -1      4582    3    0    1
 -2      1739       377      2066      2481
 -1      4583    3    0    1
 -2      1126      1145      2026      2481
 -1      4584    3    0    1
 -2      1111       245      1914      2122
 -1      4585    3    0    1
 -2       515      1779      1809      1995
 -1      4586    3    0    1
 -2       347       958      1636      1995
 -1      4587    3    0    1
 -2      1636       958      1809      1995
 -1      4588    3    0    1
 -2       958       515      1809      1995
 -1      4589    3    0    1
 -2       494      1783      1825      2016
 -1      4590    3    0    1
 -2      1717       491      2000      2016
 -1      4591    3    0    1
 -2       604      1856      1994      1997
 -1      4592    3    0    1
 -2       773       604      1994      1997
 -1      4593    3    0    1
 -2       604       773      1856      1997
 -1      4594    3    0    1
 -2      1925      1192      1953      2002
 -1      4595    3    0    1
 -2       304       302      1953      2002
 -1      4596    3    0    1
 -2      2107      2164      2527      2560
 -1      4597    3    0    1
 -2       430      1900      2001      2015
 -1      4598    3    0    1
 -2      1091       366      2001      2015
 -1      4599    3    0    1
 -2      1084      1897      1900      2015
 -1      4600    3    0    1
 -2      1834       507      1937      2147
 -1      4601    3    0    1
 -2       367        88      1935      2515
 -1      4602    3    0    1
 -2      1049       576      1051      2070
 -1      4603    3    0    1
 -2       577       576      1807      2070
 -1      4604    3    0    1
 -2      1090      1084      1900      2015
 -1      4605    3    0    1
 -2       366       230      1090      2015
 -1      4606    3    0    1
 -2        87        73      2099      2498
 -1      4607    3    0    1
 -2      1997      1091      2001      2015
 -1      4608    3    0    1
 -2       491       915      1889      2000
 -1      4609    3    0    1
 -2       916       491      1889      2000
 -1      4610    3    0    1
 -2      1611       916      1889      2000
 -1      4611    3    0    1
 -2       431       213      1660      2009
 -1      4612    3    0    1
 -2       430       431      1091      2001
 -1      4613    3    0    1
 -2       431      1072      1091      2001
 -1      4614    3    0    1
 -2      1202      1784      1972      2027
 -1      4615    3    0    1
 -2       430       431      2001      2009
 -1      4616    3    0    1
 -2       415      1578      1878      2003
 -1      4617    3    0    1
 -2      1675       415      1910      2003
 -1      4618    3    0    1
 -2      1553      1675      1910      2003
 -1      4619    3    0    1
 -2      1578       415      1675      2003
 -1      4620    3    0    1
 -2      1001       137      1621      2004
 -1      4621    3    0    1
 -2      1613      1548      1808      2005
 -1      4622    3    0    1
 -2      1752      1808      1853      2005
 -1      4623    3    0    1
 -2      1752      1613      1808      2005
 -1      4624    3    0    1
 -2      1636      1548      1730      2005
 -1      4625    3    0    1
 -2       347      1636      1730      2005
 -1      4626    3    0    1
 -2      1548      1636      1808      2005
 -1      4627    3    0    1
 -2       363      1623      1627      2006
 -1      4628    3    0    1
 -2       363       323      1604      2006
 -1      4629    3    0    1
 -2      1014      1627      1836      2006
 -1      4630    3    0    1
 -2       323       363      1627      2006
 -1      4631    3    0    1
 -2      1014       323      1627      2006
 -1      4632    3    0    1
 -2       920       917       493      2076
 -1      4633    3    0    1
 -2       529       528      1890      2054
 -1      4634    3    0    1
 -2      1986       263      2120      2177
 -1      4635    3    0    1
 -2      2482      1984      2555      2703
 -1      4636    3    0    1
 -2      1108      1111       615      2174
 -1      4637    3    0    1
 -2      1957       919      2076      2105
 -1      4638    3    0    1
 -2       377       376      1969      2066
 -1      4639    3    0    1
 -2      1129      2031      2041      2177
 -1      4640    3    0    1
 -2       431       430      1670      2009
 -1      4641    3    0    1
 -2       213       431      1065      2009
 -1      4642    3    0    1
 -2       587      1065      1670      2009
 -1      4643    3    0    1
 -2      1125      1119      1989      2010
 -1      4644    3    0    1
 -2       268      1125      1989      2010
 -1      4645    3    0    1
 -2      1125       268      1119      2010
 -1      4646    3    0    1
 -2      1972       841       326      2027
 -1      4647    3    0    1
 -2      1765       841      1972      2027
 -1      4648    3    0    1
 -2      1944      1892      1980      2014
 -1      4649    3    0    1
 -2      1839      2072      2490      2155
 -1      4650    3    0    1
 -2      1635      1580      1640      2034
 -1      4651    3    0    1
 -2       312      1202       326      2027
 -1      4652    3    0    1
 -2       261       270      2031      2118
 -1      4653    3    0    1
 -2      2022       964      2033      2045
 -1      4654    3    0    1
 -2       405       965      1934      2045
 -1      4655    3    0    1
 -2       961       939      1982      2114
 -1      4656    3    0    1
 -2       357       226      1092      2508
 -1      4657    3    0    1
 -2      1781      2132      2525      2552
 -1      4658    3    0    1
 -2      1856       226      1894      2508
 -1      4659    3    0    1
 -2      1092       226      1856      2508
 -1      4660    3    0    1
 -2       208       211       768      2508
 -1      4661    3    0    1
 -2      1092      1856      2008      2508
 -1      4662    3    0    1
 -2       763       215      1074      2507
 -1      4663    3    0    1
 -2       430       366      1090      2015
 -1      4664    3    0    1
 -2      1657      1966      2034      2037
 -1      4665    3    0    1
 -2       491       915      2000      2016
 -1      4666    3    0    1
 -2        67        71      1926      2016
 -1      4667    3    0    1
 -2        71        67       915      2016
 -1      4668    3    0    1
 -2       915        67      1926      2016
 -1      4669    3    0    1
 -2      1107       614      1608      2017
 -1      4670    3    0    1
 -2       791      1122      1969      2118
 -1      4671    3    0    1
 -2      1107       427       240      2017
 -1      4672    3    0    1
 -2       240       427      1942      2017
 -1      4673    3    0    1
 -2       240       380      1101      2017
 -1      4674    3    0    1
 -2       347       404      1966      2018
 -1      4675    3    0    1
 -2       404      1547      1657      2018
 -1      4676    3    0    1
 -2      1547      1551      1657      2018
 -1      4677    3    0    1
 -2      1547       347      1730      2018
 -1      4678    3    0    1
 -2       404       347      1547      2018
 -1      4679    3    0    1
 -2       985       124      1927      2019
 -1      4680    3    0    1
 -2       985       122       124      2019
 -1      4681    3    0    1
 -2       124      1779      1999      2019
 -1      4682    3    0    1
 -2      1927       124      1999      2019
 -1      4683    3    0    1
 -2      1779       124      1809      2019
 -1      4684    3    0    1
 -2      1809       124      1961      2019
 -1      4685    3    0    1
 -2      1779      1809      1961      2019
 -1      4686    3    0    1
 -2       124       122       983      2019
 -1      4687    3    0    1
 -2       403       290       814      2020
 -1      4688    3    0    1
 -2       403      2020      1161       290
 -1      4689    3    0    1
 -2       403       814      1778      2020
 -1      4690    3    0    1
 -2       814      1650      1778      2020
 -1      4691    3    0    1
 -2      1840       638      1990      2021
 -1      4692    3    0    1
 -2      1143       281      1137      2021
 -1      4693    3    0    1
 -2      1143      1137      1990      2021
 -1      4694    3    0    1
 -2       515      1779      1995      2040
 -1      4695    3    0    1
 -2       421       281      2011      2021
 -1      4696    3    0    1
 -2       281       421      1137      2021
 -1      4697    3    0    1
 -2       423       281      1143      2021
 -1      4698    3    0    1
 -2       423      1143      1804      2021
 -1      4699    3    0    1
 -2      1545      1657      2023      2034
 -1      4700    3    0    1
 -2      2031      1129      2041      2046
 -1      4701    3    0    1
 -2      1980      2047      2126      2178
 -1      4702    3    0    1
 -2       347      1730      2018      2038
 -1      4703    3    0    1
 -2      1657      1966      2023      2034
 -1      4704    3    0    1
 -2      1129       627      2013      2041
 -1      4705    3    0    1
 -2      2179      2491      1980      2516
 -1      4706    3    0    1
 -2      1730      1995      2005      2038
 -1      4707    3    0    1
 -2       964       518      1685      2022
 -1      4708    3    0    1
 -2      1730      1632      2018      2038
 -1      4709    3    0    1
 -2      1731       284      2011      2039
 -1      4710    3    0    1
 -2      1785       374      1937      2025
 -1      4711    3    0    1
 -2      1104       248      2028      2125
 -1      4712    3    0    1
 -2       248      1914      2028      2125
 -1      4713    3    0    1
 -2       640       459       792      2032
 -1      4714    3    0    1
 -2       627      2013      2041      2046
 -1      4715    3    0    1
 -2       541      1000      1839      2068
 -1      4716    3    0    1
 -2       865       459      1932      2032
 -1      4717    3    0    1
 -2       640       792      2011      2032
 -1      4718    3    0    1
 -2       405       964      1685      2045
 -1      4719    3    0    1
 -2       965      1589      2012      2045
 -1      4720    3    0    1
 -2       406      1934      2033      2045
 -1      4721    3    0    1
 -2      1934       965      2012      2045
 -1      4722    3    0    1
 -2      2496      2185      2320      2700
 -1      4723    3    0    1
 -2      1723       541      1839      2068
 -1      4724    3    0    1
 -2      1731       865      1932      2032
 -1      4725    3    0    1
 -2       405        95      1589      2045
 -1      4726    3    0    1
 -2       528       541      1723      2068
 -1      4727    3    0    1
 -2       541       978      1000      2068
 -1      4728    3    0    1
 -2       628      1126      1145      2026
 -1      4729    3    0    1
 -2       639       628      1145      2026
 -1      4730    3    0    1
 -2      1693       480      2091      2129
 -1      4731    3    0    1
 -2       308       830      1195      2029
 -1      4732    3    0    1
 -2       308      1195      1687      2029
 -1      4733    3    0    1
 -2      1154       308      1981      2029
 -1      4734    3    0    1
 -2      1153       308      1154      2029
 -1      4735    3    0    1
 -2      1820      1567      1977      2030
 -1      4736    3    0    1
 -2       343      1820      1977      2030
 -1      4737    3    0    1
 -2      1567       434      1625      2030
 -1      4738    3    0    1
 -2      1577      1567      1625      2030
 -1      4739    3    0    1
 -2       343       434      1567      2030
 -1      4740    3    0    1
 -2       343      1567      1820      2030
 -1      4741    3    0    1
 -2       503       937      1761      2042
 -1      4742    3    0    1
 -2      2034      1635      2037      2042
 -1      4743    3    0    1
 -2       937      1640      1761      2042
 -1      4744    3    0    1
 -2       261      1126      1129      2031
 -1      4745    3    0    1
 -2      1640      1635      2034      2042
 -1      4746    3    0    1
 -2      1635      1685      2037      2042
 -1      4747    3    0    1
 -2       281       423      1144      2044
 -1      4748    3    0    1
 -2       628      1527      2043      2044
 -1      4749    3    0    1
 -2       639       640      1144      2044
 -1      4750    3    0    1
 -2       346      1934      1999      2033
 -1      4751    3    0    1
 -2       957       346      1779      2033
 -1      4752    3    0    1
 -2      1779       346      1999      2033
 -1      4753    3    0    1
 -2       515       518       957      2033
 -1      4754    3    0    1
 -2      1545      1635      1657      2034
 -1      4755    3    0    1
 -2      1545      1580      1635      2034
 -1      4756    3    0    1
 -2       377       791      1969      2118
 -1      4757    3    0    1
 -2      1109       615       616      2035
 -1      4758    3    0    1
 -2      1109       616      1942      2035
 -1      4759    3    0    1
 -2       616       615      2013      2035
 -1      4760    3    0    1
 -2      1942       616      2013      2035
 -1      4761    3    0    1
 -2       429       230      1997      2036
 -1      4762    3    0    1
 -2      1997       230      2015      2036
 -1      4763    3    0    1
 -2      1084       429      1703      2036
 -1      4764    3    0    1
 -2       599      1084      1703      2036
 -1      4765    3    0    1
 -2       230       429      1084      2036
 -1      4766    3    0    1
 -2      2084       360       195      2153
 -1      4767    3    0    1
 -2      1126       628       627      2043
 -1      4768    3    0    1
 -2       518      1685      2022      2037
 -1      4769    3    0    1
 -2       963       518      2022      2037
 -1      4770    3    0    1
 -2      1635       404      1657      2037
 -1      4771    3    0    1
 -2       963      1635      1685      2037
 -1      4772    3    0    1
 -2       963       404      1635      2037
 -1      4773    3    0    1
 -2       518       963      1685      2037
 -1      4774    3    0    1
 -2       284      1731      1920      2039
 -1      4775    3    0    1
 -2       635      1534      1990      2039
 -1      4776    3    0    1
 -2      1534       635      1920      2039
 -1      4777    3    0    1
 -2       421      1137      2021      2039
 -1      4778    3    0    1
 -2      2011       421      2021      2039
 -1      4779    3    0    1
 -2       284       421      2011      2039
 -1      4780    3    0    1
 -2       421       284      1137      2039
 -1      4781    3    0    1
 -2       963       518       515      2040
 -1      4782    3    0    1
 -2       957       515      2033      2040
 -1      4783    3    0    1
 -2       515       957      1779      2040
 -1      4784    3    0    1
 -2      1779       957      2033      2040
 -1      4785    3    0    1
 -2       963       958      1995      2040
 -1      4786    3    0    1
 -2       958       963       515      2040
 -1      4787    3    0    1
 -2       963      1966      2037      2040
 -1      4788    3    0    1
 -2      1966       963      1995      2040
 -1      4789    3    0    1
 -2       281      2011      2021      2044
 -1      4790    3    0    1
 -2      1739       639      2026      2044
 -1      4791    3    0    1
 -2       248      1108      1914      1217
 -1      4792    3    0    1
 -2       439       248      2125      1217
 -1      4793    3    0    1
 -2      2041       439      2125      1217
 -1      4794    3    0    1
 -2      2478       878      1224      2562
 -1      4795    3    0    1
 -2      1032      1051      1732      2540
 -1      4796    3    0    1
 -2      1224      1250      2599      2750
 -1      4797    3    0    1
 -2       937       503      1685      2042
 -1      4798    3    0    1
 -2       503       936      1685      2042
 -1      4799    3    0    1
 -2       936        95      1685      2042
 -1      4800    3    0    1
 -2      2093      1870      2140      2509
 -1      4801    3    0    1
 -2      1126       627      1129      2043
 -1      4802    3    0    1
 -2       627      1127      1128      2043
 -1      4803    3    0    1
 -2      1128      1127      2010      2043
 -1      4804    3    0    1
 -2      1817       177      1891      2057
 -1      4805    3    0    1
 -2      1276      2227      2295      2301
 -1      4806    3    0    1
 -2       640      1739      2032      2044
 -1      4807    3    0    1
 -2      2011       640      2032      2044
 -1      4808    3    0    1
 -2       640       639      1739      2044
 -1      4809    3    0    1
 -2       639       628      2026      2044
 -1      4810    3    0    1
 -2      1127      1144      1527      2044
 -1      4811    3    0    1
 -2       792       640      2011      2044
 -1      4812    3    0    1
 -2       640       792      1144      2044
 -1      4813    3    0    1
 -2      1144       792      2011      2044
 -1      4814    3    0    1
 -2       628      1127      1527      2044
 -1      4815    3    0    1
 -2      1127       639      1144      2044
 -1      4816    3    0    1
 -2       628       639      1127      2044
 -1      4817    3    0    1
 -2       405       406       964      2045
 -1      4818    3    0    1
 -2      2043      1129      2031      2046
 -1      4819    3    0    1
 -2      1129      2043      2031      1126
 -1      4820    3    0    1
 -2       177       756      1891      2057
 -1      4821    3    0    1
 -2       121       981      1845      2492
 -1      4822    3    0    1
 -2       215       359      2084      2153
 -1      4823    3    0    1
 -2       939        83      1987      2114
 -1      4824    3    0    1
 -2       899      1693      1838      2048
 -1      4825    3    0    1
 -2      1693       899      1709      2048
 -1      4826    3    0    1
 -2        88      1935      1987      2114
 -1      4827    3    0    1
 -2        12        10      1749      2049
 -1      4828    3    0    1
 -2        10        12       857      2049
 -1      4829    3    0    1
 -2       373        73       923      2498
 -1      4830    3    0    1
 -2       207      1438      1485      2465
 -1      4831    3    0    1
 -2       746       552      1017      2161
 -1      4832    3    0    1
 -2      2067      1749      2139      2513
 -1      4833    3    0    1
 -2      1067      1069      2051      2483
 -1      4834    3    0    1
 -2       589       588      1801      2051
 -1      4835    3    0    1
 -2      1769      1538      1892      2143
 -1      4836    3    0    1
 -2      2290      2532      2704      2716
 -1      4837    3    0    1
 -2      1810      1140      2172      2194
 -1      4838    3    0    1
 -2       775      2235       609      1100
 -1      4839    3    0    1
 -2       504       938       962      2512
 -1      4840    3    0    1
 -2       962       959      1760      2520
 -1      4841    3    0    1
 -2      2195      2566      1294      1309
 -1      4842    3    0    1
 -2       382       381      1838      2156
 -1      4843    3    0    1
 -2       625      1986      2007      2053
 -1      4844    3    0    1
 -2       624       625      2007      2053
 -1      4845    3    0    1
 -2      1986       625      2007      2541
 -1      4846    3    0    1
 -2      1269      2189      2538      1294
 -1      4847    3    0    1
 -2       625       785      1986      2053
 -1      4848    3    0    1
 -2       625       624       785      2053
 -1      4849    3    0    1
 -2       637       624      1121      2053
 -1      4850    3    0    1
 -2       637      1121      1141      2053
 -1      4851    3    0    1
 -2       392       387      2139      2513
 -1      4852    3    0    1
 -2       158       157      1656      2055
 -1      4853    3    0    1
 -2      1022       748      1698      2055
 -1      4854    3    0    1
 -2      1698       748      1830      2055
 -1      4855    3    0    1
 -2       157       748      1022      2055
 -1      4856    3    0    1
 -2       157       158       748      2055
 -1      4857    3    0    1
 -2       748       158      1830      2055
 -1      4858    3    0    1
 -2      2547      2514      2599      2603
 -1      4859    3    0    1
 -2      1656      1787      2059      2130
 -1      4860    3    0    1
 -2      2056      1725      2486      2604
 -1      4861    3    0    1
 -2      1388      2568      2625      2626
 -1      4862    3    0    1
 -2       387       280      2103      2139
 -1      4863    3    0    1
 -2       280      1739      2139      2513
 -1      4864    3    0    1
 -2       378      2611      1424      2722
 -1      4865    3    0    1
 -2       157      1656      2059      2130
 -1      4866    3    0    1
 -2      2599      2603      1403      2734
 -1      4867    3    0    1
 -2       880      1908       468       469
 -1      4868    3    0    1
 -2      2632      2542      1398      2300
 -1      4869    3    0    1
 -2      2479      2083      2501      2520
 -1      4870    3    0    1
 -2      1243      1306      2651      2363
 -1      4871    3    0    1
 -2       350      1699      1787      2059
 -1      4872    3    0    1
 -2       142       350      1787      2059
 -1      4873    3    0    1
 -2       350       142      1699      2059
 -1      4874    3    0    1
 -2       979       121      1845      2131
 -1      4875    3    0    1
 -2       121       119      1845      2131
 -1      4876    3    0    1
 -2       139       740      2061      2131
 -1      4877    3    0    1
 -2      1296      1317      2606      2318
 -1      4878    3    0    1
 -2      1068       208      2111      2137
 -1      4879    3    0    1
 -2       354      1960      2115      2494
 -1      4880    3    0    1
 -2       110       354      2115      2494
 -1      4881    3    0    1
 -2      1024      1327      2250      2294
 -1      4882    3    0    1
 -2      1068       208      1801      2111
 -1      4883    3    0    1
 -2       624      1121      2053      2127
 -1      4884    3    0    1
 -2      1262      2179      2189      2538
 -1      4885    3    0    1
 -2       763      1074      1813      2507
 -1      4886    3    0    1
 -2      2491      2179      1980      2166
 -1      4887    3    0    1
 -2      1829       905      2134       718
 -1      4888    3    0    1
 -2      2627      2658      2701      2708
 -1      4889    3    0    1
 -2        88        83      1987      2515
 -1      4890    3    0    1
 -2      2561      1284      1346      2680
 -1      4891    3    0    1
 -2      1017       158      1656      2135
 -1      4892    3    0    1
 -2       438       382       905      2063
 -1      4893    3    0    1
 -2       382       438      1838      2063
 -1      4894    3    0    1
 -2       382       902       905      2063
 -1      4895    3    0    1
 -2       905       902      1772      2063
 -1      4896    3    0    1
 -2      2053      2127      2546      2224
 -1      4897    3    0    1
 -2      2051       589      2483      2525
 -1      4898    3    0    1
 -2       793       392       866      2513
 -1      4899    3    0    1
 -2       756      1877      2057      2086
 -1      4900    3    0    1
 -2       344       194      1055      2086
 -1      4901    3    0    1
 -2       601       588      1719      2111
 -1      4902    3    0    1
 -2      1968      2479      2549      2621
 -1      4903    3    0    1
 -2      1083      1068      2111      2137
 -1      4904    3    0    1
 -2       208       211      2111      2137
 -1      4905    3    0    1
 -2       211      1894      2111      2137
 -1      4906    3    0    1
 -2      1514       388      1516      2474
 -1      4907    3    0    1
 -2      2173      2136      2522      2541
 -1      4908    3    0    1
 -2       774      1111      1994      2545
 -1      4909    3    0    1
 -2      2478      1674      2119      2129
 -1      4910    3    0    1
 -2      1732      1051      2070      2104
 -1      4911    3    0    1
 -2       640       459      2032      2067
 -1      4912    3    0    1
 -2       576       589      1050      2142
 -1      4913    3    0    1
 -2       640       793       866      2067
 -1      4914    3    0    1
 -2      1078       594       595      2191
 -1      4915    3    0    1
 -2       459       640       866      2067
 -1      4916    3    0    1
 -2      1638      1141      2546      2224
 -1      4917    3    0    1
 -2       456      1690      2102      2505
 -1      4918    3    0    1
 -2      1786       208      1894      2111
 -1      4919    3    0    1
 -2      1231      2543      2645      2679
 -1      4920    3    0    1
 -2       860       456       862      2505
 -1      4921    3    0    1
 -2       225       774      2169      2545
 -1      4922    3    0    1
 -2       866      1749      2067      2513
 -1      4923    3    0    1
 -2       588      1068      1801      2111
 -1      4924    3    0    1
 -2      2220      1308      2262      2272
 -1      4925    3    0    1
 -2      1673       128      2115      2494
 -1      4926    3    0    1
 -2       986      1673      2081      2494
 -1      4927    3    0    1
 -2       505      1987      2116      2144
 -1      4928    3    0    1
 -2      1654       505      2116      2144
 -1      4929    3    0    1
 -2      1067       588       589      2483
 -1      4930    3    0    1
 -2       387       280      2139      2513
 -1      4931    3    0    1
 -2      2058       468       878      1908
 -1      4932    3    0    1
 -2       941       505      1654      2144
 -1      4933    3    0    1
 -2      2089      1734      2192      2542
 -1      4934    3    0    1
 -2      1018      1016      1768      2551
 -1      4935    3    0    1
 -2      1221      2606      2616      2284
 -1      4936    3    0    1
 -2      1337      1407      1431      2370
 -1      4937    3    0    1
 -2      1810       457      1924      2074
 -1      4938    3    0    1
 -2      1384      2282      2286      2311
 -1      4939    3    0    1
 -2       529      1890      2077      2128
 -1      4940    3    0    1
 -2        83       945      2025      2515
 -1      4941    3    0    1
 -2      1316      2578      2612      1426
 -1      4942    3    0    1
 -2      2168      2531      2682      2683
 -1      4943    3    0    1
 -2       457       636      1139      2074
 -1      4944    3    0    1
 -2       862       457      1139      2074
 -1      4945    3    0    1
 -2       746      1787       999      2106
 -1      4946    3    0    1
 -2      1787       142      2059      2130
 -1      4947    3    0    1
 -2      1596      1861      1918      2477
 -1      4948    3    0    1
 -2      1105      1103      1919      2173
 -1      4949    3    0    1
 -2      1769      1734      2089      2143
 -1      4950    3    0    1
 -2       359       767      1801      2084
 -1      4951    3    0    1
 -2       158       162       748      2499
 -1      4952    3    0    1
 -2       364       362      2090      2162
 -1      4953    3    0    1
 -2       948       507      1834      2147
 -1      4954    3    0    1
 -2      1421      1320      1429      2411
 -1      4955    3    0    1
 -2       716       861      1690      2092
 -1      4956    3    0    1
 -2       564      1032      1732      2078
 -1      4957    3    0    1
 -2       368      1337      2590      1407
 -1      4958    3    0    1
 -2      2088      2093      2140      2509
 -1      4959    3    0    1
 -2      1363      1241      2678      2391
 -1      4960    3    0    1
 -2      1301      2625      2745      2427
 -1      4961    3    0    1
 -2       588      1719      2111      2483
 -1      4962    3    0    1
 -2      1088      1067      2476      2483
 -1      4963    3    0    1
 -2       588      1801      2051      2483
 -1      4964    3    0    1
 -2       142       742      1699      2080
 -1      4965    3    0    1
 -2       742       334      1022      2080
 -1      4966    3    0    1
 -2       142       334       742      2080
 -1      4967    3    0    1
 -2       520       531      1965      2081
 -1      4968    3    0    1
 -2       732       520      1965      2081
 -1      4969    3    0    1
 -2      1550      1644      2496      2528
 -1      4970    3    0    1
 -2       362       364      2090      2499
 -1      4971    3    0    1
 -2       531       732       986      2081
 -1      4972    3    0    1
 -2      2577      1292      1446      2351
 -1      4973    3    0    1
 -2       531       520       732      2081
 -1      4974    3    0    1
 -2       158       748      1830      2499
 -1      4975    3    0    1
 -2      2639      2493      2712      2719
 -1      4976    3    0    1
 -2      1291      2584      2731      2765
 -1      4977    3    0    1
 -2        97       952      2327      2329
 -1      4978    3    0    1
 -2       373      1789      1957      2099
 -1      4979    3    0    1
 -2      1984      2072      2482      2157
 -1      4980    3    0    1
 -2      1050      2084       767      2153
 -1      4981    3    0    1
 -2      1786       359      1801      2084
 -1      4982    3    0    1
 -2        72       384      1789      2504
 -1      4983    3    0    1
 -2      1807      1050      1974      2084
 -1      4984    3    0    1
 -2      1348      1269      2604      2651
 -1      4985    3    0    1
 -2      1050       360      1974      2084
 -1      4986    3    0    1
 -2      2191      1286      2221      2606
 -1      4987    3    0    1
 -2      1000      1839      2068      2506
 -1      4988    3    0    1
 -2      1790      1789      2100      2504
 -1      4989    3    0    1
 -2      1838       382      2100      2504
 -1      4990    3    0    1
 -2       165       179      1025      1222
 -1      4991    3    0    1
 -2       179       165       178      1222
 -1      4992    3    0    1
 -2       344       178      1817      2086
 -1      4993    3    0    1
 -2       362       175      1038      2154
 -1      4994    3    0    1
 -2      1791       923      1834      2147
 -1      4995    3    0    1
 -2      1838       381      2148      2156
 -1      4996    3    0    1
 -2       507       948      1785      2147
 -1      4997    3    0    1
 -2      2104      1821      2485      2132
 -1      4998    3    0    1
 -2       280       387       793      2513
 -1      4999    3    0    1
 -2      1033       177      1794      2094
 -1      5000    3    0    1
 -2      2087      2496      2524      2526
 -1      5001    3    0    1
 -2      1313      1425      1426      2696
 -1      5002    3    0    1
 -2      1801       588      2111      2483
 -1      5003    3    0    1
 -2       589       588      2051      2483
 -1      5004    3    0    1
 -2      1033       565       564      2094
 -1      5005    3    0    1
 -2       208      1786      1801      2111
 -1      5006    3    0    1
 -2       165       177       178      1222
 -1      5007    3    0    1
 -2       344       178      2086      1222
 -1      5008    3    0    1
 -2      2127      1638      2546      2224
 -1      5009    3    0    1
 -2      2570      1285      1401      2659
 -1      5010    3    0    1
 -2      2057       756      2086      1222
 -1      5011    3    0    1
 -2        33        39       718      2134
 -1      5012    3    0    1
 -2        39        33      2480      2134
 -1      5013    3    0    1
 -2       248       245      1108      2174
 -1      5014    3    0    1
 -2       900      2478      2129      2519
 -1      5015    3    0    1
 -2      1223      2478      1224      2500
 -1      5016    3    0    1
 -2      2640      2586      2682      2683
 -1      5017    3    0    1
 -2       897       920      2475      1218
 -1      5018    3    0    1
 -2      2478       878      1223      1224
 -1      5019    3    0    1
 -2      2281      2595      1426      2676
 -1      5020    3    0    1
 -2       920      2475      2076      2091
 -1      5021    3    0    1
 -2       920       897      2475      2091
 -1      5022    3    0    1
 -2       493       920      2076      2091
 -1      5023    3    0    1
 -2       480       493      1693      2091
 -1      5024    3    0    1
 -2      1693       493      2076      2091
 -1      5025    3    0    1
 -2       493       897       920      2091
 -1      5026    3    0    1
 -2       493       480       897      2091
 -1      5027    3    0    1
 -2       898      1838      2105      2156
 -1      5028    3    0    1
 -2       354       732      1960      2494
 -1      5029    3    0    1
 -2      2100      1789      2148      2504
 -1      5030    3    0    1
 -2      1769      1734      1892      2093
 -1      5031    3    0    1
 -2      1769      1892      2069      2093
 -1      5032    3    0    1
 -2       625      1986      2123      2541
 -1      5033    3    0    1
 -2       754      1033      1794      2094
 -1      5034    3    0    1
 -2      1033       754       565      2094
 -1      5035    3    0    1
 -2      2568      2202      2231      1388
 -1      5036    3    0    1
 -2      1732       564      2078      2095
 -1      5037    3    0    1
 -2      1863      2087      2524      2526
 -1      5038    3    0    1
 -2      2389      1445      2427      2454
 -1      5039    3    0    1
 -2      1307      2535      2597      2702
 -1      5040    3    0    1
 -2       564      1732      2094      2095
 -1      5041    3    0    1
 -2       565       564      2094      2095
 -1      5042    3    0    1
 -2      1086      2191      2221      2606
 -1      5043    3    0    1
 -2       902       384       926      2504
 -1      5044    3    0    1
 -2       362       364      2101      2162
 -1      5045    3    0    1
 -2      2349      1366      2397      2426
 -1      5046    3    0    1
 -2       436        31      2477      2098
 -1      5047    3    0    1
 -2       861      1690      2092      2098
 -1      5048    3    0    1
 -2      1690       861      2049      2098
 -1      5049    3    0    1
 -2      2049       861      2092      2098
 -1      5050    3    0    1
 -2        10      2049      2092      2098
 -1      5051    3    0    1
 -2        31        30      2477      2098
 -1      5052    3    0    1
 -2      1690        30      2092      2098
 -1      5053    3    0    1
 -2        31       436      2092      2098
 -1      5054    3    0    1
 -2       436        10      2092      2098
 -1      5055    3    0    1
 -2        30        31      2092      2098
 -1      5056    3    0    1
 -2       350       142      1787      2130
 -1      5057    3    0    1
 -2      2133      2089      2175      2521
 -1      5058    3    0    1
 -2       279      2223      2226      2273
 -1      5059    3    0    1
 -2       364      2090      2499      2162
 -1      5060    3    0    1
 -2      1790      1772       902      2100
 -1      5061    3    0    1
 -2      2101       162      2135      2162
 -1      5062    3    0    1
 -2       356       736      2077      2149
 -1      5063    3    0    1
 -2      2090      2135      2499      2162
 -1      5064    3    0    1
 -2       364       162      2101      2162
 -1      5065    3    0    1
 -2       616      1108       615      2174
 -1      5066    3    0    1
 -2      1760      2489      2145      2574
 -1      5067    3    0    1
 -2      1810       861      2049      2102
 -1      5068    3    0    1
 -2       861      1690      2049      2102
 -1      5069    3    0    1
 -2      1863      2068      2109      2506
 -1      5070    3    0    1
 -2       178      1817      2086      1222
 -1      5071    3    0    1
 -2      2478      2475      2119      2563
 -1      5072    3    0    1
 -2      2127      1638      2487      2546
 -1      5073    3    0    1
 -2      2663      1262      2705      2764
 -1      5074    3    0    1
 -2      2281      1426      2339      2676
 -1      5075    3    0    1
 -2       576      1050      1807      2142
 -1      5076    3    0    1
 -2      1538      2069      1769      1892
 -1      5077    3    0    1
 -2       767       589      1801      2142
 -1      5078    3    0    1
 -2       791       377      1969      2103
 -1      5079    3    0    1
 -2       791      1140       377      2103
 -1      5080    3    0    1
 -2      2518      1257      1258      2571
 -1      5081    3    0    1
 -2      1769      2088      2093      2140
 -1      5082    3    0    1
 -2       228       225      1993      2545
 -1      5083    3    0    1
 -2      2212      2201      2222      2593
 -1      5084    3    0    1
 -2       493       919      1693      2105
 -1      5085    3    0    1
 -2       948       374      1785      2498
 -1      5086    3    0    1
 -2      1834       948      2147      2498
 -1      5087    3    0    1
 -2       373       923      1791      2498
 -1      5088    3    0    1
 -2      1787       540      2106      2497
 -1      5089    3    0    1
 -2       392        12       866      2513
 -1      5090    3    0    1
 -2       372      1480      1496      2429
 -1      5091    3    0    1
 -2      1018       998      2490      2497
 -1      5092    3    0    1
 -2      1261      2506      2565      2631
 -1      5093    3    0    1
 -2      2106       552      2161      2502
 -1      5094    3    0    1
 -2       740      1723      2061      2131
 -1      5095    3    0    1
 -2       540       999      1787      2106
 -1      5096    3    0    1
 -2        72       919      2105      2156
 -1      5097    3    0    1
 -2       540       553       746      2106
 -1      5098    3    0    1
 -2       384      2105      2148      2156
 -1      5099    3    0    1
 -2       540       746       999      2106
 -1      5100    3    0    1
 -2       208       768      1786      2508
 -1      5101    3    0    1
 -2       225       226      1993      2169
 -1      5102    3    0    1
 -2       384        72      2105      2156
 -1      5103    3    0    1
 -2      2216      1287      2247      2248
 -1      5104    3    0    1
 -2      1139      1141       637      2635
 -1      5105    3    0    1
 -2      1262      1293      2663      2705
 -1      5106    3    0    1
 -2      1074       359      1786      2507
 -1      5107    3    0    1
 -2      1108      1129      2041      1217
 -1      5108    3    0    1
 -2       263       785      1986      2120
 -1      5109    3    0    1
 -2       195      1974      2084      2507
 -1      5110    3    0    1
 -2       195       215       763      2507
 -1      5111    3    0    1
 -2      1759      1004      1921      2492
 -1      5112    3    0    1
 -2      1004       341       139      2492
 -1      5113    3    0    1
 -2       139       341      2073      2492
 -1      5114    3    0    1
 -2      1968      2071      2479      2512
 -1      5115    3    0    1
 -2       588       601      1083      2111
 -1      5116    3    0    1
 -2      2051      1859      2483      2165
 -1      5117    3    0    1
 -2       517      1760      2071      2512
 -1      5118    3    0    1
 -2      1719       600      2113      2165
 -1      5119    3    0    1
 -2      2007       624      2053      2127
 -1      5120    3    0    1
 -2      1141      1139       637      2224
 -1      5121    3    0    1
 -2       112       353      2658      2701
 -1      5122    3    0    1
 -2      1087      1083       600      2113
 -1      5123    3    0    1
 -2      1083      1087      1993      2113
 -1      5124    3    0    1
 -2      1083      1894      2111      2113
 -1      5125    3    0    1
 -2      1719      1083      2111      2113
 -1      5126    3    0    1
 -2       779       613      1919      2113
 -1      5127    3    0    1
 -2       601      1083      1719      2113
 -1      5128    3    0    1
 -2       600       601      1719      2113
 -1      5129    3    0    1
 -2       601       600      1083      2113
 -1      5130    3    0    1
 -2       600       613      1087      2113
 -1      5131    3    0    1
 -2       613       779      1087      2113
 -1      5132    3    0    1
 -2      2724      1471      2729      2735
 -1      5133    3    0    1
 -2      2094      1817      2159      2186
 -1      5134    3    0    1
 -2       517       962      2489      2512
 -1      5135    3    0    1
 -2       960       354      1949      2115
 -1      5136    3    0    1
 -2       505       492      1654      2116
 -1      5137    3    0    1
 -2      1654       492      1957      2116
 -1      5138    3    0    1
 -2       860       862      2317      2749
 -1      5139    3    0    1
 -2      2482      1984      2157      2555
 -1      5140    3    0    1
 -2       492       918      1957      2116
 -1      5141    3    0    1
 -2      2487      2533      2546      2713
 -1      5142    3    0    1
 -2      1103      2173      2522      2541
 -1      5143    3    0    1
 -2       492       505       940      2116
 -1      5144    3    0    1
 -2      2738      2449      2453      2469
 -1      5145    3    0    1
 -2       918       492       940      2116
 -1      5146    3    0    1
 -2      1969      2031      2066      2118
 -1      5147    3    0    1
 -2       119       121      1845      2492
 -1      5148    3    0    1
 -2       341      2061      2073      2492
 -1      5149    3    0    1
 -2       119      1845      2061      2492
 -1      5150    3    0    1
 -2       981       341      1004      2492
 -1      5151    3    0    1
 -2       748       556      1830      2499
 -1      5152    3    0    1
 -2      2588      1402      2335      2733
 -1      5153    3    0    1
 -2      1087       225      1993      2121
 -1      5154    3    0    1
 -2      2028       779      2113      2121
 -1      5155    3    0    1
 -2       250       245      1993      2121
 -1      5156    3    0    1
 -2      1993       245      2028      2121
 -1      5157    3    0    1
 -2      1993      2028      2113      2121
 -1      5158    3    0    1
 -2      2533      1297      1298      2573
 -1      5159    3    0    1
 -2      1421      2650      2374      2697
 -1      5160    3    0    1
 -2      1141      2053      2224       637
 -1      5161    3    0    1
 -2       245      1993      2028      2122
 -1      5162    3    0    1
 -2      1914       245      2028      2122
 -1      5163    3    0    1
 -2      1086      1238      2537      2606
 -1      5164    3    0    1
 -2       270       376      1126      2481
 -1      5165    3    0    1
 -2      2026      1739      2066      2481
 -1      5166    3    0    1
 -2      2031      2026      2066      2481
 -1      5167    3    0    1
 -2       612       613      1919      2123
 -1      5168    3    0    1
 -2      1919       613      2028      2123
 -1      5169    3    0    1
 -2       785       625      1986      2123
 -1      5170    3    0    1
 -2      1104       613       612      2123
 -1      5171    3    0    1
 -2      1104       785      1986      2123
 -1      5172    3    0    1
 -2       779      1104      2028      2123
 -1      5173    3    0    1
 -2      1104       779       613      2123
 -1      5174    3    0    1
 -2       613       779      2028      2123
 -1      5175    3    0    1
 -2       612       625       785      2123
 -1      5176    3    0    1
 -2       612       785      1104      2123
 -1      5177    3    0    1
 -2       966       369      1960      2124
 -1      5178    3    0    1
 -2       519      1960      2012      2124
 -1      5179    3    0    1
 -2       966       519      2012      2124
 -1      5180    3    0    1
 -2       519       966      1960      2124
 -1      5181    3    0    1
 -2      2675      1394      1490      2742
 -1      5182    3    0    1
 -2      2211      2576      2613      1401
 -1      5183    3    0    1
 -2      1104      2028      2123      2125
 -1      5184    3    0    1
 -2      1986      1104      2123      2125
 -1      5185    3    0    1
 -2      2279      2583      2304      2724
 -1      5186    3    0    1
 -2       439       248      2120      2125
 -1      5187    3    0    1
 -2       248      1104      2120      2125
 -1      5188    3    0    1
 -2      1129       265      2041      1217
 -1      5189    3    0    1
 -2       248      1914      2125      1217
 -1      5190    3    0    1
 -2       241       439       252      1217
 -1      5191    3    0    1
 -2       439       241       248      1217
 -1      5192    3    0    1
 -2       263      1986      2031      2177
 -1      5193    3    0    1
 -2      1914      2041      2125      1217
 -1      5194    3    0    1
 -2      1004       139      1921      2492
 -1      5195    3    0    1
 -2      1980      2014      2166      2179
 -1      5196    3    0    1
 -2      2212      1291      2593      1400
 -1      5197    3    0    1
 -2      1326      1231      2679      2396
 -1      5198    3    0    1
 -2      2475      1725      2119      2516
 -1      5199    3    0    1
 -2      2047      1980      2126      2516
 -1      5200    3    0    1
 -2       601       600      1088      2191
 -1      5201    3    0    1
 -2       369      1935      2124      2515
 -1      5202    3    0    1
 -2       945      2012      2025      2515
 -1      5203    3    0    1
 -2      1984      2072      2096      2482
 -1      5204    3    0    1
 -2      2475      1218      1219      2518
 -1      5205    3    0    1
 -2      2072      1768      2096      2482
 -1      5206    3    0    1
 -2      1830       556      1893      2499
 -1      5207    3    0    1
 -2      1294      1219      2550      2331
 -1      5208    3    0    1
 -2       178       344      1817      2186
 -1      5209    3    0    1
 -2      1059       209      2220      2230
 -1      5210    3    0    1
 -2       945       966      2012      2515
 -1      5211    3    0    1
 -2       367       369       966      2515
 -1      5212    3    0    1
 -2       637       630       629      2635
 -1      5213    3    0    1
 -2      1719      2051      2111      2483
 -1      5214    3    0    1
 -2       601       588      1067      2483
 -1      5215    3    0    1
 -2      2051      1801      2111      2483
 -1      5216    3    0    1
 -2      1924      2085      2495      2505
 -1      5217    3    0    1
 -2       926      1789      1790      2504
 -1      5218    3    0    1
 -2      1781      2062      2132      2552
 -1      5219    3    0    1
 -2      2523      2193      2586      2682
 -1      5220    3    0    1
 -2      2050      2060      2146      2202
 -1      5221    3    0    1
 -2      1980      2110      2491      2166
 -1      5222    3    0    1
 -2      2479       938      2144      2512
 -1      5223    3    0    1
 -2      1656      1017      2135      2161
 -1      5224    3    0    1
 -2      1980      2014      2164      2166
 -1      5225    3    0    1
 -2       962       959       516      2489
 -1      5226    3    0    1
 -2       352      1427      2662      1486
 -1      5227    3    0    1
 -2      1456      2401      2402      2433
 -1      5228    3    0    1
 -2       962      1760      2489      2512
 -1      5229    3    0    1
 -2      1418      2372      2438      2439
 -1      5230    3    0    1
 -2      2543      2587      2645      2679
 -1      5231    3    0    1
 -2       966       369      2124      2515
 -1      5232    3    0    1
 -2      2562       878      2750      2761
 -1      5233    3    0    1
 -2      1812        33      1829      2134
 -1      5234    3    0    1
 -2      1390      1462      1474      2445
 -1      5235    3    0    1
 -2       480       900       897      2129
 -1      5236    3    0    1
 -2       480       897      2091      2129
 -1      5237    3    0    1
 -2      2475      2478      2119      2129
 -1      5238    3    0    1
 -2      2091      2475      2119      2129
 -1      5239    3    0    1
 -2       897      2475      2091      2129
 -1      5240    3    0    1
 -2      2283      2637      2383      2404
 -1      5241    3    0    1
 -2      2627      2600      1462      2732
 -1      5242    3    0    1
 -2      2750      2347      2225      2368
 -1      5243    3    0    1
 -2      2083      1968      2479      2501
 -1      5244    3    0    1
 -2      1360      2602      1389      1390
 -1      5245    3    0    1
 -2       252       241      1217      2176
 -1      5246    3    0    1
 -2      1734      1769      2089      2192
 -1      5247    3    0    1
 -2       241       248      1217      2176
 -1      5248    3    0    1
 -2      1108       248      2174      2176
 -1      5249    3    0    1
 -2      2290      2532      2332      2704
 -1      5250    3    0    1
 -2      1319      1318      2620      1410
 -1      5251    3    0    1
 -2      2654      1400      2316      2338
 -1      5252    3    0    1
 -2      1281      2313      2712      2414
 -1      5253    3    0    1
 -2      2526      2565      2600      2637
 -1      5254    3    0    1
 -2      2069      1998      2141      2572
 -1      5255    3    0    1
 -2      2608      2577      2351      2353
 -1      5256    3    0    1
 -2      2591      2582      1407      2720
 -1      5257    3    0    1
 -2      1243      2651      2686      2363
 -1      5258    3    0    1
 -2      2559      1320      1321      2618
 -1      5259    3    0    1
 -2      2072      2482      2157      2556
 -1      5260    3    0    1
 -2      1654      1968      2056      2486
 -1      5261    3    0    1
 -2      1654      2056      2076      2486
 -1      5262    3    0    1
 -2      2056      1725      2076      2486
 -1      5263    3    0    1
 -2       880       860      2495      2505
 -1      5264    3    0    1
 -2      1347      2630      2688      2690
 -1      5265    3    0    1
 -2      2138      2093      2523      2683
 -1      5266    3    0    1
 -2      1363      2567      1364      2607
 -1      5267    3    0    1
 -2      1323      1248      1324      2633
 -1      5268    3    0    1
 -2      1271      2493      2552      2559
 -1      5269    3    0    1
 -2      2456      1497      2473      2474
 -1      5270    3    0    1
 -2      2568      2524      2625      2626
 -1      5271    3    0    1
 -2      1319      1412      2401      2433
 -1      5272    3    0    1
 -2      2566      2571      2575      2623
 -1      5273    3    0    1
 -2      2490      1230      2543      2642
 -1      5274    3    0    1
 -2      1644      1550      2157      2528
 -1      5275    3    0    1
 -2      2288      2308      2666      2379
 -1      5276    3    0    1
 -2       860      1924      2495      2505
 -1      5277    3    0    1
 -2       456       457       862      2505
 -1      5278    3    0    1
 -2       382       902      2100      2504
 -1      5279    3    0    1
 -2       381      1838      2148      2504
 -1      5280    3    0    1
 -2      1638      2065      2127      2487
 -1      5281    3    0    1
 -2      1739      2067      2139      2513
 -1      5282    3    0    1
 -2      2702      2418      1244      2621
 -1      5283    3    0    1
 -2      1749        12      2139      2513
 -1      5284    3    0    1
 -2      1322      2542      2276      2650
 -1      5285    3    0    1
 -2       962       516       517      2489
 -1      5286    3    0    1
 -2      2239      2293      2686      2361
 -1      5287    3    0    1
 -2       516       529      2128      2489
 -1      5288    3    0    1
 -2      2646      2597      2691      2741
 -1      5289    3    0    1
 -2      2082      1644      2157      2528
 -1      5290    3    0    1
 -2      2062      2133      2511      2542
 -1      5291    3    0    1
 -2      1233      1221      2616      2405
 -1      5292    3    0    1
 -2        83        88       945      2515
 -1      5293    3    0    1
 -2        56        39      2480      2134
 -1      5294    3    0    1
 -2       905      1564      2063      2134
 -1      5295    3    0    1
 -2       905        56      1564      2134
 -1      5296    3    0    1
 -2       905      1829      2134      2063
 -1      5297    3    0    1
 -2       718        39       905      2134
 -1      5298    3    0    1
 -2        39        56       905      2134
 -1      5299    3    0    1
 -2      1032      1034      2078      2502
 -1      5300    3    0    1
 -2       564       565      1034      2502
 -1      5301    3    0    1
 -2       564      1032      2078      2502
 -1      5302    3    0    1
 -2       162       158      2101      2135
 -1      5303    3    0    1
 -2       158      1017      2101      2135
 -1      5304    3    0    1
 -2      1366      1451      2397      2426
 -1      5305    3    0    1
 -2      2518      1219      2550      2684
 -1      5306    3    0    1
 -2      2652      2709      2724      2735
 -1      5307    3    0    1
 -2       215      2084      2108      2507
 -1      5308    3    0    1
 -2      2531      2609      2682      2683
 -1      5309    3    0    1
 -2       177       756      2057      1222
 -1      5310    3    0    1
 -2      2285      2325      2349      2744
 -1      5311    3    0    1
 -2       732       110       986      2494
 -1      5312    3    0    1
 -2      2081      1673      2115      2494
 -1      5313    3    0    1
 -2       178       177      2057      1222
 -1      5314    3    0    1
 -2      2189      2195      2566      1294
 -1      5315    3    0    1
 -2       998      1018      2490      1230
 -1      5316    3    0    1
 -2       390      2675      1489      1490
 -1      5317    3    0    1
 -2      2695      1398      1466      2755
 -1      5318    3    0    1
 -2      2632      1275      2712      2719
 -1      5319    3    0    1
 -2       516       959       980      2489
 -1      5320    3    0    1
 -2       529       516       980      2489
 -1      5321    3    0    1
 -2      2054      1760      2128      2489
 -1      5322    3    0    1
 -2      1844      1944      2060      2146
 -1      5323    3    0    1
 -2      1890      2054      2128      2489
 -1      5324    3    0    1
 -2       225       228       774      2545
 -1      5325    3    0    1
 -2      1919      2052      2484      2173
 -1      5326    3    0    1
 -2        12      1749      2139      2172
 -1      5327    3    0    1
 -2      1749        12      2049      2172
 -1      5328    3    0    1
 -2      2181      1734      2523      2542
 -1      5329    3    0    1
 -2      1994      1111      2122      2545
 -1      5330    3    0    1
 -2      2075      2087      2146      2524
 -1      5331    3    0    1
 -2      2069      1538      1769      2140
 -1      5332    3    0    1
 -2      2576      2531      2609      2682
 -1      5333    3    0    1
 -2      1870      2069      2093      2140
 -1      5334    3    0    1
 -2      1111       250       245      2545
 -1      5335    3    0    1
 -2      1111       245      2122      2545
 -1      5336    3    0    1
 -2       245      1993      2122      2545
 -1      5337    3    0    1
 -2       589       767      1050      2142
 -1      5338    3    0    1
 -2       507      1785      1937      2147
 -1      5339    3    0    1
 -2      1644      1550      2143      2157
 -1      5340    3    0    1
 -2      2025      2012      2124      2515
 -1      5341    3    0    1
 -2      1644      1538      1769      2143
 -1      5342    3    0    1
 -2       625       624      2007      2541
 -1      5343    3    0    1
 -2      2203       722        63       907
 -1      5344    3    0    1
 -2      1839      2072      2109      2490
 -1      5345    3    0    1
 -2      2591      2582      2629      1407
 -1      5346    3    0    1
 -2      1723       540      1787      2497
 -1      5347    3    0    1
 -2      2490      1839      2155      2497
 -1      5348    3    0    1
 -2       107      2671      1483      2390
 -1      5349    3    0    1
 -2      1654      1968      2486      2144
 -1      5350    3    0    1
 -2       941      1654      2486      2144
 -1      5351    3    0    1
 -2      2110      1674      2119      2491
 -1      5352    3    0    1
 -2      1980      2110      2119      2491
 -1      5353    3    0    1
 -2      2064      1674      2110      2491
 -1      5354    3    0    1
 -2      2506      1260      1261      2565
 -1      5355    3    0    1
 -2      1980      2047      2179      2516
 -1      5356    3    0    1
 -2      2158      2509      2208      2613
 -1      5357    3    0    1
 -2      2071       962      2479      2512
 -1      5358    3    0    1
 -2      1845      1759      2073      2492
 -1      5359    3    0    1
 -2      2061      1845      2073      2492
 -1      5360    3    0    1
 -2      2271      2614      2342      2698
 -1      5361    3    0    1
 -2      2537      2616      2640      2683
 -1      5362    3    0    1
 -2      2143      2089      2180      2521
 -1      5363    3    0    1
 -2       589      1069      2483      2525
 -1      5364    3    0    1
 -2      1069      2051      2483      2525
 -1      5365    3    0    1
 -2      1234      1235      2533      1297
 -1      5366    3    0    1
 -2      1644      1892      2143      2146
 -1      5367    3    0    1
 -2      1550      1644      2143      2146
 -1      5368    3    0    1
 -2      1644      1550      2087      2146
 -1      5369    3    0    1
 -2      1892      1644      1944      2146
 -1      5370    3    0    1
 -2      1844      1892      1944      2146
 -1      5371    3    0    1
 -2      1944      2050      2060      2146
 -1      5372    3    0    1
 -2      2620      2553      2636      2688
 -1      5373    3    0    1
 -2       636      1139      2074      2224
 -1      5374    3    0    1
 -2      1944      1644      2050      2146
 -1      5375    3    0    1
 -2      1673       356      2077      2149
 -1      5376    3    0    1
 -2       128      1673      2115      2149
 -1      5377    3    0    1
 -2      1949       960      2115      2149
 -1      5378    3    0    1
 -2       960      1949      2077      2149
 -1      5379    3    0    1
 -2       354       110      2115      2149
 -1      5380    3    0    1
 -2       960       354      2115      2149
 -1      5381    3    0    1
 -2      1673      2077      2115      2149
 -1      5382    3    0    1
 -2      2077      1949      2115      2149
 -1      5383    3    0    1
 -2      2485      2104      2132      2540
 -1      5384    3    0    1
 -2       505       504      2144      2512
 -1      5385    3    0    1
 -2      1221      2488      1232      1233
 -1      5386    3    0    1
 -2      2051      1067      2476      2493
 -1      5387    3    0    1
 -2      1067      2051      2476      2483
 -1      5388    3    0    1
 -2      1781      1859      2062      2493
 -1      5389    3    0    1
 -2       941       504       505      2512
 -1      5390    3    0    1
 -2      1859      2484      2165      2168
 -1      5391    3    0    1
 -2      2062      1859      2138      2493
 -1      5392    3    0    1
 -2      1859      1781      2051      2493
 -1      5393    3    0    1
 -2      2087      2050      2146      2524
 -1      5394    3    0    1
 -2      2052      2484      2165      2536
 -1      5395    3    0    1
 -2      1046       577      1807      2159
 -1      5396    3    0    1
 -2       577       564      1732      2159
 -1      5397    3    0    1
 -2      1732       564      2094      2159
 -1      5398    3    0    1
 -2      2638      1323      2649      2725
 -1      5399    3    0    1
 -2      1817       194      1974      2159
 -1      5400    3    0    1
 -2      2521      2690      2529      2321
 -1      5401    3    0    1
 -2      1734      2181      2192      2542
 -1      5402    3    0    1
 -2      2564      2065      2669      2739
 -1      5403    3    0    1
 -2      1789       384      2148      2504
 -1      5404    3    0    1
 -2      2245      2238      2249      2659
 -1      5405    3    0    1
 -2      2579      1285      2613      1387
 -1      5406    3    0    1
 -2      2495      1248      1247      2633
 -1      5407    3    0    1
 -2      2500      2514      2547      2563
 -1      5408    3    0    1
 -2      2491      2119      2516      2563
 -1      5409    3    0    1
 -2      2500      2491      2514      2563
 -1      5410    3    0    1
 -2       172      1428      1432      2388
 -1      5411    3    0    1
 -2      1908       880      2058      2495
 -1      5412    3    0    1
 -2      2592      1433      2636      2688
 -1      5413    3    0    1
 -2      2329      2680      2366      2370
 -1      5414    3    0    1
 -2       488       489       492      2203
 -1      5415    3    0    1
 -2      2064      1924      2085      2495
 -1      5416    3    0    1
 -2      1924      2064      2150      2495
 -1      5417    3    0    1
 -2      1674      2064      2085      2495
 -1      5418    3    0    1
 -2      1908      2058      2085      2495
 -1      5419    3    0    1
 -2      2058      1674      2085      2495
 -1      5420    3    0    1
 -2      1817      2057      2086      1222
 -1      5421    3    0    1
 -2       165       175       362      2154
 -1      5422    3    0    1
 -2       177       756      1222      2154
 -1      5423    3    0    1
 -2       165       177      1222      2154
 -1      5424    3    0    1
 -2       177       362       756      2154
 -1      5425    3    0    1
 -2       362       177       165      2154
 -1      5426    3    0    1
 -2       560      1038       751      2154
 -1      5427    3    0    1
 -2       756       559      1025      2154
 -1      5428    3    0    1
 -2      1038       560       567      2154
 -1      5429    3    0    1
 -2       568       559       756      2154
 -1      5430    3    0    1
 -2       756      1025      1222      2154
 -1      5431    3    0    1
 -2      1266      1346      2591      1407
 -1      5432    3    0    1
 -2      2387      2639      2414      2447
 -1      5433    3    0    1
 -2      1239      1034      2551      2554
 -1      5434    3    0    1
 -2       918       373      1957      2167
 -1      5435    3    0    1
 -2      1550      2087      2109      2496
 -1      5436    3    0    1
 -2      1277      2553      1318      2630
 -1      5437    3    0    1
 -2      2523      2193      2200      2586
 -1      5438    3    0    1
 -2       862      2503      1254      2584
 -1      5439    3    0    1
 -2      2064      2150      2495      2527
 -1      5440    3    0    1
 -2       541      1723      1839      2497
 -1      5441    3    0    1
 -2      1000       541      1839      2497
 -1      5442    3    0    1
 -2       998      1000      1839      2497
 -1      5443    3    0    1
 -2      1000       998       541      2497
 -1      5444    3    0    1
 -2      1018       552       553      2497
 -1      5445    3    0    1
 -2      1139       862      2074      2503
 -1      5446    3    0    1
 -2       552      1018      1016      2497
 -1      5447    3    0    1
 -2      1016      1018      1768      2497
 -1      5448    3    0    1
 -2      1839      2106      2155      2497
 -1      5449    3    0    1
 -2       553       540       998      2497
 -1      5450    3    0    1
 -2       553       998      1018      2497
 -1      5451    3    0    1
 -2      1839      1787      2106      2497
 -1      5452    3    0    1
 -2      2106      1768      2155      2497
 -1      5453    3    0    1
 -2      1723      1787      1839      2497
 -1      5454    3    0    1
 -2       373      1791      2099      2498
 -1      5455    3    0    1
 -2        73       373      2099      2498
 -1      5456    3    0    1
 -2       923        87       948      2498
 -1      5457    3    0    1
 -2        73        87       923      2498
 -1      5458    3    0    1
 -2      1785      2099      2147      2498
 -1      5459    3    0    1
 -2      2099      1785      2116      2498
 -1      5460    3    0    1
 -2      2099      1791      2147      2498
 -1      5461    3    0    1
 -2      1356      1282      2598      2721
 -1      5462    3    0    1
 -2      2082      1644      2143      2157
 -1      5463    3    0    1
 -2      1458      2614      2698      2748
 -1      5464    3    0    1
 -2       177      1817      2094      2186
 -1      5465    3    0    1
 -2      1033       177      2094      2186
 -1      5466    3    0    1
 -2       158      1830      2135      2499
 -1      5467    3    0    1
 -2       162       158      2135      2499
 -1      5468    3    0    1
 -2       748       162      1038      2499
 -1      5469    3    0    1
 -2       162       364      1038      2499
 -1      5470    3    0    1
 -2      1830      1893      2090      2499
 -1      5471    3    0    1
 -2      1830      2090      2135      2499
 -1      5472    3    0    1
 -2      1893      1891      2090      2499
 -1      5473    3    0    1
 -2       481       900      2129      2519
 -1      5474    3    0    1
 -2       860      1248      2584      2749
 -1      5475    3    0    1
 -2      2549      1265      1335      2704
 -1      5476    3    0    1
 -2      2514      2196      1342      2603
 -1      5477    3    0    1
 -2       613       600      1105      2536
 -1      5478    3    0    1
 -2      2014      1980      2047      2179
 -1      5479    3    0    1
 -2      2581      1296      2605      2609
 -1      5480    3    0    1
 -2      1269      2538      2604      2624
 -1      5481    3    0    1
 -2      2552      1270      2559      2678
 -1      5482    3    0    1
 -2      2171      2069      2530      2572
 -1      5483    3    0    1
 -2      2579      2668      1518      2449
 -1      5484    3    0    1
 -2      2052      1919      2484      2536
 -1      5485    3    0    1
 -2      1807       577      2070      2159
 -1      5486    3    0    1
 -2       577      1732      2070      2159
 -1      5487    3    0    1
 -2       360      1807      1974      2159
 -1      5488    3    0    1
 -2       194       360      1974      2159
 -1      5489    3    0    1
 -2       360      1050      1807      2159
 -1      5490    3    0    1
 -2       360       194      1050      2159
 -1      5491    3    0    1
 -2      1033       564      1046      2159
 -1      5492    3    0    1
 -2       564       577      1046      2159
 -1      5493    3    0    1
 -2      2566      1310      2623      2648
 -1      5494    3    0    1
 -2      1247      1248      1323      2633
 -1      5495    3    0    1
 -2      1225      2479      1226      2510
 -1      5496    3    0    1
 -2      2089      2143      2175      2521
 -1      5497    3    0    1
 -2      1410      2620      2660      2688
 -1      5498    3    0    1
 -2      1430      1321      2695      2434
 -1      5499    3    0    1
 -2      2493      1069      1271      2552
 -1      5500    3    0    1
 -2       746      1017      1656      2161
 -1      5501    3    0    1
 -2      1739       793      2032      2513
 -1      5502    3    0    1
 -2      1794       565      2095      2161
 -1      5503    3    0    1
 -2       553       746      2106      2161
 -1      5504    3    0    1
 -2       746       553       552      2161
 -1      5505    3    0    1
 -2       552       553      2106      2161
 -1      5506    3    0    1
 -2       754       565      1794      2161
 -1      5507    3    0    1
 -2      1017       754      1794      2161
 -1      5508    3    0    1
 -2       552       565      1017      2161
 -1      5509    3    0    1
 -2       565       754      1017      2161
 -1      5510    3    0    1
 -2      1032       564      1034      2502
 -1      5511    3    0    1
 -2      2095      1768      2161      2502
 -1      5512    3    0    1
 -2       552      1016      1034      2502
 -1      5513    3    0    1
 -2      1768      2106      2161      2502
 -1      5514    3    0    1
 -2      2078      1768      2095      2502
 -1      5515    3    0    1
 -2       565       552      1034      2502
 -1      5516    3    0    1
 -2      1768      2078      2096      2502
 -1      5517    3    0    1
 -2      1263      2205      1381      2284
 -1      5518    3    0    1
 -2      1309      2575      2684      1406
 -1      5519    3    0    1
 -2       248       245      2174      2176
 -1      5520    3    0    1
 -2       358      1464      2699      2715
 -1      5521    3    0    1
 -2      1380      2601      2643      2679
 -1      5522    3    0    1
 -2      1338        82      2590      1349
 -1      5523    3    0    1
 -2      2097      1924      2150      2503
 -1      5524    3    0    1
 -2      2074      1924      2097      2503
 -1      5525    3    0    1
 -2       793       866      2067      2513
 -1      5526    3    0    1
 -2      1638      2074      2097      2503
 -1      5527    3    0    1
 -2      2679      2587      2709      2737
 -1      5528    3    0    1
 -2      1638      1139      2503      2713
 -1      5529    3    0    1
 -2      2565      2600      2602      2631
 -1      5530    3    0    1
 -2      1781      2051      2493      2525
 -1      5531    3    0    1
 -2      1034      2078      2551      2554
 -1      5532    3    0    1
 -2      2503      2150      2183      2560
 -1      5533    3    0    1
 -2      1325      2543      2642      2645
 -1      5534    3    0    1
 -2      2567      1242      1364      2661
 -1      5535    3    0    1
 -2      2313      2387      2712      2414
 -1      5536    3    0    1
 -2      2533      2612      2710      2713
 -1      5537    3    0    1
 -2      2560      2163      1315      2614
 -1      5538    3    0    1
 -2       493       488       492      2203
 -1      5539    3    0    1
 -2       565       558       557      2233
 -1      5540    3    0    1
 -2       735      2218      2258      2232
 -1      5541    3    0    1
 -2       862       457      1924      2505
 -1      5542    3    0    1
 -2      1908      2085      2102      2505
 -1      5543    3    0    1
 -2      1690      1908      2102      2505
 -1      5544    3    0    1
 -2       469       456       880      2505
 -1      5545    3    0    1
 -2       456       860       880      2505
 -1      5546    3    0    1
 -2      2085      1924      2102      2505
 -1      5547    3    0    1
 -2      1277      2630      1433      2464
 -1      5548    3    0    1
 -2      2068      1839      2109      2506
 -1      5549    3    0    1
 -2      1950      2171      2560      2572
 -1      5550    3    0    1
 -2      1950      1892      1998      2164
 -1      5551    3    0    1
 -2      1950      1998      2107      2164
 -1      5552    3    0    1
 -2      2626      2671      2714      2745
 -1      5553    3    0    1
 -2      2693      2675      1490      2742
 -1      5554    3    0    1
 -2      1550      2072      2157      2528
 -1      5555    3    0    1
 -2      1364      1363      2607      1427
 -1      5556    3    0    1
 -2      2582      2629      1407      2356
 -1      5557    3    0    1
 -2      2072      1550      2109      2528
 -1      5558    3    0    1
 -2      1998      2014      2107      2164
 -1      5559    3    0    1
 -2      1644      2082      2151      2528
 -1      5560    3    0    1
 -2      1974      1813      2108      2507
 -1      5561    3    0    1
 -2      1579      1813      1974      2507
 -1      5562    3    0    1
 -2      2084      1974      2108      2507
 -1      5563    3    0    1
 -2      1786       768      2112      2508
 -1      5564    3    0    1
 -2      1856      1894      2112      2508
 -1      5565    3    0    1
 -2       768       357      1092      2508
 -1      5566    3    0    1
 -2       211       357       768      2508
 -1      5567    3    0    1
 -2      2008      1856      2112      2508
 -1      5568    3    0    1
 -2      1894      1786      2112      2508
 -1      5569    3    0    1
 -2      2486      2535      2549      2557
 -1      5570    3    0    1
 -2      2056      2486      2549      2557
 -1      5571    3    0    1
 -2      2556      1339      2641      2664
 -1      5572    3    0    1
 -2      1859      2476      2483      2165
 -1      5573    3    0    1
 -2       601      1719      2483      2165
 -1      5574    3    0    1
 -2       601       600      1719      2165
 -1      5575    3    0    1
 -2      1086       600      1088      2165
 -1      5576    3    0    1
 -2      2476      1088      2483      2165
 -1      5577    3    0    1
 -2       600       601      1088      2165
 -1      5578    3    0    1
 -2      1088       601      2483      2165
 -1      5579    3    0    1
 -2      1982       517      2071      2512
 -1      5580    3    0    1
 -2       504      1982      2144      2512
 -1      5581    3    0    1
 -2       962       938      2479      2512
 -1      5582    3    0    1
 -2      1870      2093      2160      2509
 -1      5583    3    0    1
 -2      1496      2723      2646      2746
 -1      5584    3    0    1
 -2       594      1078       769      2191
 -1      5585    3    0    1
 -2      1760       962      2071      2512
 -1      5586    3    0    1
 -2      2088      2140      2158      2509
 -1      5587    3    0    1
 -2       613       609       608      2245
 -1      5588    3    0    1
 -2       504       941       938      2512
 -1      5589    3    0    1
 -2      1760       517      2489      2512
 -1      5590    3    0    1
 -2      1284      1346      2680      2370
 -1      5591    3    0    1
 -2        87       374      2116      2167
 -1      5592    3    0    1
 -2        73        87      2099      2167
 -1      5593    3    0    1
 -2      2099        87      2116      2167
 -1      5594    3    0    1
 -2      1957       373      2099      2167
 -1      5595    3    0    1
 -2       373        73      2099      2167
 -1      5596    3    0    1
 -2      1957      2099      2116      2167
 -1      5597    3    0    1
 -2      2050      2087      2496      2524
 -1      5598    3    0    1
 -2      1016      1034      2502      2551
 -1      5599    3    0    1
 -2      1859      2476      2168      2683
 -1      5600    3    0    1
 -2      2088      1769      2093      2523
 -1      5601    3    0    1
 -2      1295      1237      2570      2659
 -1      5602    3    0    1
 -2       962      2327      2680      2366
 -1      5603    3    0    1
 -2      1734      1769      2181      2523
 -1      5604    3    0    1
 -2      2609      1317      1377      2647
 -1      5605    3    0    1
 -2      1443      2711      1507      2756
 -1      5606    3    0    1
 -2      2062      1821      2132      2511
 -1      5607    3    0    1
 -2      1821      2062      2133      2511
 -1      5608    3    0    1
 -2      1246      1302      2644      2760
 -1      5609    3    0    1
 -2      2588      2581      2605      2647
 -1      5610    3    0    1
 -2      2572      2215      2578      1315
 -1      5611    3    0    1
 -2      2145      2075      2520      2524
 -1      5612    3    0    1
 -2      2071      1968      2144      2512
 -1      5613    3    0    1
 -2      2614      2229      2342      2765
 -1      5614    3    0    1
 -2      2593      2222      2299      2312
 -1      5615    3    0    1
 -2      2227      2206      2295      2663
 -1      5616    3    0    1
 -2       938       941      2219      2621
 -1      5617    3    0    1
 -2      2221      1286      2241      2606
 -1      5618    3    0    1
 -2      2158      2509      2530      2208
 -1      5619    3    0    1
 -2      1105      1086      2484      2536
 -1      5620    3    0    1
 -2       613       608       612      2245
 -1      5621    3    0    1
 -2      2228      2592      2636      2664
 -1      5622    3    0    1
 -2       217      1078      2191      1286
 -1      5623    3    0    1
 -2      2501      2510      2539      2549
 -1      5624    3    0    1
 -2      1277      2517      1278      2553
 -1      5625    3    0    1
 -2      1326      2679      1463      2396
 -1      5626    3    0    1
 -2        27       715      2225      2237
 -1      5627    3    0    1
 -2      2136      2007      2522      2541
 -1      5628    3    0    1
 -2      2070      1049      2525      2552
 -1      5629    3    0    1
 -2       226      1894      1993      2169
 -1      5630    3    0    1
 -2       226      1856      1894      2169
 -1      5631    3    0    1
 -2      2109      2526      2634      2700
 -1      5632    3    0    1
 -2      1049       576      2070      2525
 -1      5633    3    0    1
 -2       576      1807      2070      2525
 -1      5634    3    0    1
 -2      1807       576      2142      2525
 -1      5635    3    0    1
 -2      1638      2065      2487      2171
 -1      5636    3    0    1
 -2      2281      2595      2676      1454
 -1      5637    3    0    1
 -2       857      1810      2172      2194
 -1      5638    3    0    1
 -2      2619      1357      1443      2711
 -1      5639    3    0    1
 -2        84       727      2216      2219
 -1      5640    3    0    1
 -2      1331      1403      1476      2734
 -1      5641    3    0    1
 -2      2208      2182      2213      2579
 -1      5642    3    0    1
 -2       860       880      2495      1247
 -1      5643    3    0    1
 -2      1465      1430      1469      2457
 -1      5644    3    0    1
 -2       959      1760      2520      2574
 -1      5645    3    0    1
 -2      2222      2593      1397      2312
 -1      5646    3    0    1
 -2      2422      2060      2743      2752
 -1      5647    3    0    1
 -2       778      1095      1109      2174
 -1      5648    3    0    1
 -2       615      1110      1109      2174
 -1      5649    3    0    1
 -2       615      1109       616      2174
 -1      5650    3    0    1
 -2       778      1109      1110      2174
 -1      5651    3    0    1
 -2       610      1111       777      2174
 -1      5652    3    0    1
 -2      1108       605      1094      2174
 -1      5653    3    0    1
 -2      1111       610       615      2174
 -1      5654    3    0    1
 -2       605      1109      1095      2174
 -1      5655    3    0    1
 -2       605      1108       616      2174
 -1      5656    3    0    1
 -2       610      1110       615      2174
 -1      5657    3    0    1
 -2      1110       610       778      2174
 -1      5658    3    0    1
 -2      1109       605       616      2174
 -1      5659    3    0    1
 -2      2283      2637      2362      2383
 -1      5660    3    0    1
 -2      2572      2163      2215      1315
 -1      5661    3    0    1
 -2      1069      1049      1270      2552
 -1      5662    3    0    1
 -2      1291      2527      2584      2765
 -1      5663    3    0    1
 -2      2179      1269      2538      2557
 -1      5664    3    0    1
 -2      2211      2509      2190      2158
 -1      5665    3    0    1
 -2      2583      2543      2587      2634
 -1      5666    3    0    1
 -2      2520      1246      2644      2680
 -1      5667    3    0    1
 -2      2538      2189      2566      1294
 -1      5668    3    0    1
 -2      2252      2603      2615      1403
 -1      5669    3    0    1
 -2      1252      1272      2206      2227
 -1      5670    3    0    1
 -2      2656      2572      2669      2360
 -1      5671    3    0    1
 -2      2140      2069      2141      2572
 -1      5672    3    0    1
 -2      2199      2521      2321      2690
 -1      5673    3    0    1
 -2      1235      2533      1297      1298
 -1      5674    3    0    1
 -2      2065      2171      2530      2572
 -1      5675    3    0    1
 -2      2053      1141      2224      2546
 -1      5676    3    0    1
 -2        82      2590      1349      2629
 -1      5677    3    0    1
 -2      2242      1361      2256      2318
 -1      5678    3    0    1
 -2      1121      2053      2127      2546
 -1      5679    3    0    1
 -2      1140      2103      2172      2194
 -1      5680    3    0    1
 -2       862      2503      1253      1254
 -1      5681    3    0    1
 -2       245       247      2174      2176
 -1      5682    3    0    1
 -2       247       245       241      2176
 -1      5683    3    0    1
 -2      1108      1094      1217      2176
 -1      5684    3    0    1
 -2      1094       252      1217      2176
 -1      5685    3    0    1
 -2       439      2041      2125      2177
 -1      5686    3    0    1
 -2       439       265      2041      2177
 -1      5687    3    0    1
 -2      1986      2120      2125      2177
 -1      5688    3    0    1
 -2      2120       439      2125      2177
 -1      5689    3    0    1
 -2       263       265      2120      2177
 -1      5690    3    0    1
 -2       265       439      2120      2177
 -1      5691    3    0    1
 -2      1376      1491      2396      2421
 -1      5692    3    0    1
 -2      2616      2488      2640      2683
 -1      5693    3    0    1
 -2      1233      2548      1332      1333
 -1      5694    3    0    1
 -2      1219      2475      2518      2550
 -1      5695    3    0    1
 -2      2171      2183      2560      2572
 -1      5696    3    0    1
 -2      2529      1292      2321      2690
 -1      5697    3    0    1
 -2      2646      1488      2723      2455
 -1      5698    3    0    1
 -2      2244      2251      2274      2707
 -1      5699    3    0    1
 -2      2166      2491      2196      2201
 -1      5700    3    0    1
 -2      2501      2539      2561      2720
 -1      5701    3    0    1
 -2       624      1121      1123      2286
 -1      5702    3    0    1
 -2      1443      1357      1444      2711
 -1      5703    3    0    1
 -2       878      1908       468       880
 -1      5704    3    0    1
 -2       468       481      1709      2519
 -1      5705    3    0    1
 -2       468      2058       878      2519
 -1      5706    3    0    1
 -2      1709       481      2129      2519
 -1      5707    3    0    1
 -2      2315      2278      2749      2460
 -1      5708    3    0    1
 -2       613      1919      2113      2536
 -1      5709    3    0    1
 -2      1980      2119      2126      2516
 -1      5710    3    0    1
 -2       600      2113      2165      2536
 -1      5711    3    0    1
 -2      2119      1725      2126      2516
 -1      5712    3    0    1
 -2      1086       600      2165      2536
 -1      5713    3    0    1
 -2      2196      2207      1342      2603
 -1      5714    3    0    1
 -2      1732      1051      2104      2540
 -1      5715    3    0    1
 -2      2107      2527      2201      2212
 -1      5716    3    0    1
 -2      2089      1769      2143      2180
 -1      5717    3    0    1
 -2      1769      1644      2143      2180
 -1      5718    3    0    1
 -2       600       601       594      2191
 -1      5719    3    0    1
 -2      2506      2526      2631      2634
 -1      5720    3    0    1
 -2      2514      1262      2491      2196
 -1      5721    3    0    1
 -2      2482      2555      2592      2690
 -1      5722    3    0    1
 -2      1230      1231      2543      2645
 -1      5723    3    0    1
 -2      2600      2210      2627      2334
 -1      5724    3    0    1
 -2       601       595       594      2191
 -1      5725    3    0    1
 -2      2305       737      2350      2706
 -1      5726    3    0    1
 -2      2554      2517      2630      2690
 -1      5727    3    0    1
 -2      2223      2226      2273      2635
 -1      5728    3    0    1
 -2       780       253      2246      2282
 -1      5729    3    0    1
 -2      2631      1360      2444      2445
 -1      5730    3    0    1
 -2       112      1436      1473      2423
 -1      5731    3    0    1
 -2      2478      2491      2500      2563
 -1      5732    3    0    1
 -2      1760       959      2489      2574
 -1      5733    3    0    1
 -2      2270      1311      1422      2354
 -1      5734    3    0    1
 -2      2251      2255      2269      2678
 -1      5735    3    0    1
 -2       378       375      2611      2676
 -1      5736    3    0    1
 -2       153       745       743      2234
 -1      5737    3    0    1
 -2      2305       737      2296      2350
 -1      5738    3    0    1
 -2      1337      1266      2591      1407
 -1      5739    3    0    1
 -2      1103      1919      2173      2541
 -1      5740    3    0    1
 -2      1924      2150      2503      2584
 -1      5741    3    0    1
 -2      2616      1334      1461      2406
 -1      5742    3    0    1
 -2      2544      2633      2638      2654
 -1      5743    3    0    1
 -2      2365      1471      2724      2412
 -1      5744    3    0    1
 -2      1267      1266      2558      1337
 -1      5745    3    0    1
 -2      1219       920      2550      2686
 -1      5746    3    0    1
 -2      1376      1460      2709      2727
 -1      5747    3    0    1
 -2      1368      2251      2269      2373
 -1      5748    3    0    1
 -2      1329      2341      1442      2385
 -1      5749    3    0    1
 -2      2526      2496      1259      1290
 -1      5750    3    0    1
 -2      1240      1239      2517      1277
 -1      5751    3    0    1
 -2      2479      1226      2549      2621
 -1      5752    3    0    1
 -2      1390      2658      1474      2732
 -1      5753    3    0    1
 -2       481       468       900      2519
 -1      5754    3    0    1
 -2       468       878       900      2519
 -1      5755    3    0    1
 -2      2058      1709      2129      2519
 -1      5756    3    0    1
 -2       600      1086      1088      2191
 -1      5757    3    0    1
 -2       468       880       469      2287
 -1      5758    3    0    1
 -2      1049      2070      2132      2552
 -1      5759    3    0    1
 -2      2107      1950      2164      2560
 -1      5760    3    0    1
 -2      2190      2576      1317      2682
 -1      5761    3    0    1
 -2      1291      2584      2593      1400
 -1      5762    3    0    1
 -2       600      1086      1105      2536
 -1      5763    3    0    1
 -2      2238      1358      2245      2249
 -1      5764    3    0    1
 -2      1078       769      2191      1286
 -1      5765    3    0    1
 -2       786      1131      2273      2635
 -1      5766    3    0    1
 -2      1329      1273      2263      2266
 -1      5767    3    0    1
 -2      1394      1393      2638      2675
 -1      5768    3    0    1
 -2      2052      2160      2509      2531
 -1      5769    3    0    1
 -2       962      1760      2071      2520
 -1      5770    3    0    1
 -2       962      2071      2479      2520
 -1      5771    3    0    1
 -2      1968      2083      2479      2520
 -1      5772    3    0    1
 -2      2071      1968      2479      2520
 -1      5773    3    0    1
 -2      2075      1760      2145      2520
 -1      5774    3    0    1
 -2      2071      1760      2075      2520
 -1      5775    3    0    1
 -2      1357      1356      2619      1443
 -1      5776    3    0    1
 -2      2071      2075      2083      2520
 -1      5777    3    0    1
 -2      1968      2071      2083      2520
 -1      5778    3    0    1
 -2      1394      1393      2675      1489
 -1      5779    3    0    1
 -2      2533      1234      1297      2585
 -1      5780    3    0    1
 -2      2622      1256      1397      2649
 -1      5781    3    0    1
 -2      1226      1267      2549      1335
 -1      5782    3    0    1
 -2      1396      1284      2644      2760
 -1      5783    3    0    1
 -2      2691      2646      2723      2746
 -1      5784    3    0    1
 -2      2181      2523      2193      2200
 -1      5785    3    0    1
 -2      1769      2088      2181      2523
 -1      5786    3    0    1
 -2      2093      1734      2138      2523
 -1      5787    3    0    1
 -2      1734      2062      2138      2523
 -1      5788    3    0    1
 -2      2254      1294      2331      2395
 -1      5789    3    0    1
 -2      2542      1322      2596      2650
 -1      5790    3    0    1
 -2      1863      2075      2145      2524
 -1      5791    3    0    1
 -2      2535      1243      1306      2651
 -1      5792    3    0    1
 -2      1801       589      2051      2525
 -1      5793    3    0    1
 -2       589       576      1049      2525
 -1      5794    3    0    1
 -2       589      1049      1069      2525
 -1      5795    3    0    1
 -2      1781      2070      2142      2525
 -1      5796    3    0    1
 -2      2051      1781      2142      2525
 -1      5797    3    0    1
 -2      2070      1781      2132      2525
 -1      5798    3    0    1
 -2      2070      1807      2142      2525
 -1      5799    3    0    1
 -2      1801      2051      2142      2525
 -1      5800    3    0    1
 -2      2282      2311      2358      2744
 -1      5801    3    0    1
 -2      2501      2479      2520      2561
 -1      5802    3    0    1
 -2      1141      1235      2635      2710
 -1      5803    3    0    1
 -2      2566      1294      1309      2624
 -1      5804    3    0    1
 -2      1381      2284      2405      2406
 -1      5805    3    0    1
 -2      2533      2487      2572      2713
 -1      5806    3    0    1
 -2      1113       254      2282      2286
 -1      5807    3    0    1
 -2      1389      1436      2708      2423
 -1      5808    3    0    1
 -2      2578      1316      2281      1426
 -1      5809    3    0    1
 -2       978      1000      2506      1260
 -1      5810    3    0    1
 -2      1246      1245      2534      1301
 -1      5811    3    0    1
 -2      2518      2538      2571      2624
 -1      5812    3    0    1
 -2      1103      1123      2522      1282
 -1      5813    3    0    1
 -2       900      2478      1223      2563
 -1      5814    3    0    1
 -2      2571      2566      2575      2624
 -1      5815    3    0    1
 -2      2109      2496      2526      2700
 -1      5816    3    0    1
 -2      1870      2069      2140      2530
 -1      5817    3    0    1
 -2      2490      2072      2543      2601
 -1      5818    3    0    1
 -2      2180      2521      2184      2321
 -1      5819    3    0    1
 -2       172       352      2662      2672
 -1      5820    3    0    1
 -2      1768      1016      2502      2551
 -1      5821    3    0    1
 -2      2243      1371      2322      2324
 -1      5822    3    0    1
 -2      2087      2109      2496      2526
 -1      5823    3    0    1
 -2       177       178      1817      2186
 -1      5824    3    0    1
 -2      1768      2096      2482      2551
 -1      5825    3    0    1
 -2      1299      2246      2282      2285
 -1      5826    3    0    1
 -2      2182      2140      2530      2208
 -1      5827    3    0    1
 -2      2087      1863      2109      2526
 -1      5828    3    0    1
 -2      2585      2721      2739      2744
 -1      5829    3    0    1
 -2        12       857      2172      2194
 -1      5830    3    0    1
 -2      2633      1324      2638      2654
 -1      5831    3    0    1
 -2      1218      1219      2518      1257
 -1      5832    3    0    1
 -2      2486      1243      1244      2535
 -1      5833    3    0    1
 -2      1286      2191      2241      2606
 -1      5834    3    0    1
 -2      1401      1295      2659      2324
 -1      5835    3    0    1
 -2       959       980      2489      2574
 -1      5836    3    0    1
 -2      2064      2110      2164      2527
 -1      5837    3    0    1
 -2      2150      2064      2164      2527
 -1      5838    3    0    1
 -2      2244      1049      2255      2678
 -1      5839    3    0    1
 -2      1950      2150      2164      2527
 -1      5840    3    0    1
 -2      2627      2320      2334      1462
 -1      5841    3    0    1
 -2      1254      2569      1378      1379
 -1      5842    3    0    1
 -2      1139       862      2503      1253
 -1      5843    3    0    1
 -2      2597      1415      2691      2741
 -1      5844    3    0    1
 -2      2078      2104      2485      2540
 -1      5845    3    0    1
 -2      1254       862      2584      2749
 -1      5846    3    0    1
 -2      1388      2231      2626      1495
 -1      5847    3    0    1
 -2      2589      1309      2575      2566
 -1      5848    3    0    1
 -2      2054       528      2068      2674
 -1      5849    3    0    1
 -2      2554      1280      2661      2690
 -1      5850    3    0    1
 -2      1433      2592      2636      2275
 -1      5851    3    0    1
 -2      2517      1240      1277      1278
 -1      5852    3    0    1
 -2      1436      1389      1473      2423
 -1      5853    3    0    1
 -2      2590      1337      2591      1407
 -1      5854    3    0    1
 -2       862      1924      2503      2584
 -1      5855    3    0    1
 -2      2014      2107      2164      2201
 -1      5856    3    0    1
 -2      1317      2576      2609      2682
 -1      5857    3    0    1
 -2      1298      2533      2612      2710
 -1      5858    3    0    1
 -2      2150      1924      2495      2584
 -1      5859    3    0    1
 -2      1346      1225      2680      2370
 -1      5860    3    0    1
 -2      2160      1870      2509      2530
 -1      5861    3    0    1
 -2      2140      2158      2509      2530
 -1      5862    3    0    1
 -2      1870      2140      2509      2530
 -1      5863    3    0    1
 -2      2479      1226      2510      2549
 -1      5864    3    0    1
 -2      1950      1998      2069      2572
 -1      5865    3    0    1
 -2      1299      2285      2325      2349
 -1      5866    3    0    1
 -2      2501      2479      2510      2549
 -1      5867    3    0    1
 -2      2651      1348      2686      2361
 -1      5868    3    0    1
 -2      1411      1319      1412      2664
 -1      5869    3    0    1
 -2      1870      2065      2171      2530
 -1      5870    3    0    1
 -2      2069      1870      2171      2530
 -1      5871    3    0    1
 -2      2563      1262      1350      2687
 -1      5872    3    0    1
 -2      1368      2251      2255      2269
 -1      5873    3    0    1
 -2       200       764      2220      2262
 -1      5874    3    0    1
 -2      2530      2160      2570      2613
 -1      5875    3    0    1
 -2       353       112      2337      2701
 -1      5876    3    0    1
 -2      2209      2528      2583      2279
 -1      5877    3    0    1
 -2      2327      1408      2329      2366
 -1      5878    3    0    1
 -2      2151      2528      2209      2279
 -1      5879    3    0    1
 -2      1374      2600      2320      2700
 -1      5880    3    0    1
 -2       180      1362      2244      2251
 -1      5881    3    0    1
 -2      2195      2566      1309      2589
 -1      5882    3    0    1
 -2      2052      2509      2168      2531
 -1      5883    3    0    1
 -2      2484      2052      2168      2531
 -1      5884    3    0    1
 -2       735       526      2218      2232
 -1      5885    3    0    1
 -2      2651      1348      2361      2420
 -1      5886    3    0    1
 -2      1968      2056      2486      2549
 -1      5887    3    0    1
 -2      1304       242      2235      2238
 -1      5888    3    0    1
 -2      2527      2107      2560      2212
 -1      5889    3    0    1
 -2      1427      1363      2673      1450
 -1      5890    3    0    1
 -2      2157      2482      2555      2556
 -1      5891    3    0    1
 -2      2566      2195      1310      2589
 -1      5892    3    0    1
 -2       253      1113       254      2282
 -1      5893    3    0    1
 -2      2667      2626      2714      2745
 -1      5894    3    0    1
 -2      2556      2555      2228      2592
 -1      5895    3    0    1
 -2       209       200      1059      2220
 -1      5896    3    0    1
 -2      1225      2510      1266      2561
 -1      5897    3    0    1
 -2      2329      2270      2680      2354
 -1      5898    3    0    1
 -2      2572      2065      2585      2669
 -1      5899    3    0    1
 -2      1256      2222      2622      1397
 -1      5900    3    0    1
 -2       372      1496      2723      2430
 -1      5901    3    0    1
 -2      2119      2475      2516      2563
 -1      5902    3    0    1
 -2       392        12      2172      2194
 -1      5903    3    0    1
 -2       280       387      2103      2194
 -1      5904    3    0    1
 -2      2179      2491      2516      2563
 -1      5905    3    0    1
 -2      1262      2179      2538      2563
 -1      5906    3    0    1
 -2      1140       280      2103      2194
 -1      5907    3    0    1
 -2      2179      2516      2538      2563
 -1      5908    3    0    1
 -2      2558      1338      2590      1349
 -1      5909    3    0    1
 -2       959      2520      1246      2574
 -1      5910    3    0    1
 -2      1760      2145      2520      2574
 -1      5911    3    0    1
 -2      1296      1317      2318      2319
 -1      5912    3    0    1
 -2      1000      2506      1260      1261
 -1      5913    3    0    1
 -2      2398      2389      2427      2754
 -1      5914    3    0    1
 -2      2140      2158      2530      2208
 -1      5915    3    0    1
 -2      2163      2141      2572      2215
 -1      5916    3    0    1
 -2       722       489      2203      2217
 -1      5917    3    0    1
 -2      1324      2654      1493      2742
 -1      5918    3    0    1
 -2       107       355      1482      2714
 -1      5919    3    0    1
 -2       253      1299      2246      2282
 -1      5920    3    0    1
 -2      1313      1298      1426      2417
 -1      5921    3    0    1
 -2      1863      2068      2506      2674
 -1      5922    3    0    1
 -2      2372      2257      2438      2750
 -1      5923    3    0    1
 -2      2150      2495      2527      2584
 -1      5924    3    0    1
 -2      1034      2078      2502      2551
 -1      5925    3    0    1
 -2      1870      2564      2065      2530
 -1      5926    3    0    1
 -2      2171      2487      2183      2572
 -1      5927    3    0    1
 -2      2493      2511      2559      2632
 -1      5928    3    0    1
 -2      2278      1291      2749      2460
 -1      5929    3    0    1
 -2      1998      1950      2163      2572
 -1      5930    3    0    1
 -2      2538      2566      2571      2624
 -1      5931    3    0    1
 -2      1362      2244      2251      2274
 -1      5932    3    0    1
 -2      1103      1283      2570      2659
 -1      5933    3    0    1
 -2      2158      2088      2509      2190
 -1      5934    3    0    1
 -2      1769      1734      2181      2192
 -1      5935    3    0    1
 -2      1734      2089      2133      2542
 -1      5936    3    0    1
 -2      1488      2646      2723      2741
 -1      5937    3    0    1
 -2      2265      2247      2621      2297
 -1      5938    3    0    1
 -2      2532      2187      2309      2720
 -1      5939    3    0    1
 -2      2249      2245      2659      2766
 -1      5940    3    0    1
 -2      2702      1244      2419      2428
 -1      5941    3    0    1
 -2      2220       764      2230      2262
 -1      5942    3    0    1
 -2       379      1507      1518      2471
 -1      5943    3    0    1
 -2      2244      1049      2678      2707
 -1      5944    3    0    1
 -2      1422      2270      2354      2425
 -1      5945    3    0    1
 -2      2533      2573      2656      2722
 -1      5946    3    0    1
 -2      2651      1306      2741      2451
 -1      5947    3    0    1
 -2      1088      2476      1221      2537
 -1      5948    3    0    1
 -2      2478      1224      2500      2562
 -1      5949    3    0    1
 -2      1221      2476      2488      2537
 -1      5950    3    0    1
 -2      2191      1263      1286      2241
 -1      5951    3    0    1
 -2      1293      2566      1310      2623
 -1      5952    3    0    1
 -2      2221      1238      2606      2256
 -1      5953    3    0    1
 -2      2516      2179      2538      2557
 -1      5954    3    0    1
 -2      2486      1243      2535      2651
 -1      5955    3    0    1
 -2      1360      2565      2602      2631
 -1      5956    3    0    1
 -2      2168      2484      2531      2537
 -1      5957    3    0    1
 -2      1266      2510      1267      2558
 -1      5958    3    0    1
 -2      2168      2476      2537      2683
 -1      5959    3    0    1
 -2       361      1412      2660      2664
 -1      5960    3    0    1
 -2      2531      2168      2537      2683
 -1      5961    3    0    1
 -2      1859      2484      2168      2537
 -1      5962    3    0    1
 -2      2476      1859      2168      2537
 -1      5963    3    0    1
 -2      1363      2607      1427      2673
 -1      5964    3    0    1
 -2      2476      2488      2537      2683
 -1      5965    3    0    1
 -2      2476      1088      2165      2537
 -1      5966    3    0    1
 -2      1088      1086      2165      2537
 -1      5967    3    0    1
 -2      1086      2484      2165      2537
 -1      5968    3    0    1
 -2      1271      2559      1321      2695
 -1      5969    3    0    1
 -2      2537      2488      2616      2683
 -1      5970    3    0    1
 -2      1363      2567      2607      2673
 -1      5971    3    0    1
 -2      2484      1859      2165      2537
 -1      5972    3    0    1
 -2      1859      2476      2165      2537
 -1      5973    3    0    1
 -2       173      1410      2660      2688
 -1      5974    3    0    1
 -2      1223      2500      1249      2687
 -1      5975    3    0    1
 -2      2132      2062      2511      2552
 -1      5976    3    0    1
 -2      2062      2493      2511      2552
 -1      5977    3    0    1
 -2      2096      2078      2482      2554
 -1      5978    3    0    1
 -2       737       131      2296      2350
 -1      5979    3    0    1
 -2      1105      1103      2570      2659
 -1      5980    3    0    1
 -2      2543      2587      2634      2642
 -1      5981    3    0    1
 -2      2069      2140      2530      2572
 -1      5982    3    0    1
 -2      1485      1438      2447      2465
 -1      5983    3    0    1
 -2      1283      2570      2659      2766
 -1      5984    3    0    1
 -2      2385      1426      2417      1509
 -1      5985    3    0    1
 -2      1270      1271      2552      2559
 -1      5986    3    0    1
 -2      2558      2539      2582      2591
 -1      5987    3    0    1
 -2       361      2636      1412      2326
 -1      5988    3    0    1
 -2      1271      2559      1320      1321
 -1      5989    3    0    1
 -2      2517      2592      2688      2690
 -1      5990    3    0    1
 -2      1237      2243      2659      2324
 -1      5991    3    0    1
 -2      2537      1264      2609      2682
 -1      5992    3    0    1
 -2      1270      1320      2699      2707
 -1      5993    3    0    1
 -2      2590      2591      2629      1407
 -1      5994    3    0    1
 -2      2559      1271      2632      2695
 -1      5995    3    0    1
 -2      1051      2104      2132      2070
 -1      5996    3    0    1
 -2      2104      1051      2132      2540
 -1      5997    3    0    1
 -2      1034      1032      2078      2540
 -1      5998    3    0    1
 -2      1032      1732      2078      2540
 -1      5999    3    0    1
 -2       108        97      2327      2329
 -1      6000    3    0    1
 -2       500       504       505      2219
 -1      6001    3    0    1
 -2      2322      1401      2659      2324
 -1      6002    3    0    1
 -2      2666      1447      2681      2380
 -1      6003    3    0    1
 -2      2600      2627      2320      2334
 -1      6004    3    0    1
 -2      1051      1032      1241      2540
 -1      6005    3    0    1
 -2      2078      1732      2104      2540
 -1      6006    3    0    1
 -2      1241      1032      1242      2540
 -1      6007    3    0    1
 -2      1103      1105      1919      2541
 -1      6008    3    0    1
 -2      1919      1105      2536      2541
 -1      6009    3    0    1
 -2       613      1919      2536      2541
 -1      6010    3    0    1
 -2       613       612      1919      2541
 -1      6011    3    0    1
 -2      1103       612      1105      2541
 -1      6012    3    0    1
 -2       612       613      1105      2541
 -1      6013    3    0    1
 -2      1105       613      2536      2541
 -1      6014    3    0    1
 -2       625       612      1123      2541
 -1      6015    3    0    1
 -2       612      1103      1123      2541
 -1      6016    3    0    1
 -2      2123      2007      2173      2541
 -1      6017    3    0    1
 -2      1919      2123      2173      2541
 -1      6018    3    0    1
 -2      2007      2136      2173      2541
 -1      6019    3    0    1
 -2      1986      2007      2123      2541
 -1      6020    3    0    1
 -2      1264      1334      2606      2264
 -1      6021    3    0    1
 -2      2182      2213      2669      1453
 -1      6022    3    0    1
 -2      2062      1734      2133      2542
 -1      6023    3    0    1
 -2      1444      1443      2711      1507
 -1      6024    3    0    1
 -2      1263       217      2191      1286
 -1      6025    3    0    1
 -2      2486      2535      2604      2651
 -1      6026    3    0    1
 -2      2227      1272      2240      2253
 -1      6027    3    0    1
 -2      1239      1240      2517      2551
 -1      6028    3    0    1
 -2      2078      2096      2502      2551
 -1      6029    3    0    1
 -2       351      1463      2709      2412
 -1      6030    3    0    1
 -2      2539      2532      2582      2720
 -1      6031    3    0    1
 -2      1018      1016      2551      2601
 -1      6032    3    0    1
 -2      2582      2558      2590      1349
 -1      6033    3    0    1
 -2      1261      2565      1359      1360
 -1      6034    3    0    1
 -2      2316      1248      2317      2749
 -1      6035    3    0    1
 -2      1225      2479      2510      2561
 -1      6036    3    0    1
 -2      2139       392      2172      2194
 -1      6037    3    0    1
 -2      2103      2139      2172      2194
 -1      6038    3    0    1
 -2       774      1994      2169      2545
 -1      6039    3    0    1
 -2       228       250      1111      2545
 -1      6040    3    0    1
 -2       774       228      1111      2545
 -1      6041    3    0    1
 -2      2122      1993      2170      2545
 -1      6042    3    0    1
 -2      2169      2122      2170      2545
 -1      6043    3    0    1
 -2      1994      2122      2169      2545
 -1      6044    3    0    1
 -2      1235      1234      2533      2546
 -1      6045    3    0    1
 -2      2569      1378      2655      2717
 -1      6046    3    0    1
 -2      2641      1339      2359      2402
 -1      6047    3    0    1
 -2       111      1305      2232      2258
 -1      6048    3    0    1
 -2      1141      1121      1234      2546
 -1      6049    3    0    1
 -2      1488      2646      2399      2455
 -1      6050    3    0    1
 -2      1141      1234      1235      2546
 -1      6051    3    0    1
 -2      2478      2119      2491      2563
 -1      6052    3    0    1
 -2      1445      2260      2389      2398
 -1      6053    3    0    1
 -2      1231      2259      2268      2396
 -1      6054    3    0    1
 -2      1409      2291      2307      2357
 -1      6055    3    0    1
 -2      1424      1312      1454      2722
 -1      6056    3    0    1
 -2      2488      2548      2616      2640
 -1      6057    3    0    1
 -2      2491      1674      2562      2622
 -1      6058    3    0    1
 -2      2336      1372      2673      2677
 -1      6059    3    0    1
 -2      2268      1380      2643      2679
 -1      6060    3    0    1
 -2      1290      2637      2362      2754
 -1      6061    3    0    1
 -2      2608      2577      1446      2351
 -1      6062    3    0    1
 -2      2531      2484      2570      2581
 -1      6063    3    0    1
 -2      2509      2211      2190      2576
 -1      6064    3    0    1
 -2      2572      1315      2612      2713
 -1      6065    3    0    1
 -2      2510      1226      1267      2549
 -1      6066    3    0    1
 -2      2239      1236      2293      2361
 -1      6067    3    0    1
 -2       234      1402      2653      2733
 -1      6068    3    0    1
 -2        70       383      2589      2685
 -1      6069    3    0    1
 -2      1121      1234      2546      2585
 -1      6070    3    0    1
 -2      2672      2608      2351      2392
 -1      6071    3    0    1
 -2      1393      1489      1494      2725
 -1      6072    3    0    1
 -2      1411       361      1412      2402
 -1      6073    3    0    1
 -2      2083      1968      2501      2549
 -1      6074    3    0    1
 -2      1280      2554      2661      2689
 -1      6075    3    0    1
 -2      2662      2608      2672      1486
 -1      6076    3    0    1
 -2      2261       549       745      2259
 -1      6077    3    0    1
 -2      1478      2283      2383      2404
 -1      6078    3    0    1
 -2      2056      1968      2083      2549
 -1      6079    3    0    1
 -2      2056      2083      2178      2549
 -1      6080    3    0    1
 -2      2072      2157      2528      2556
 -1      6081    3    0    1
 -2      2082      2528      2555      2556
 -1      6082    3    0    1
 -2      2605      1295      2653      1353
 -1      6083    3    0    1
 -2      2573      1312      2611      2722
 -1      6084    3    0    1
 -2       920       917      2076      2550
 -1      6085    3    0    1
 -2      2076       917      2486      2550
 -1      6086    3    0    1
 -2      2475       920      2076      2550
 -1      6087    3    0    1
 -2      2495      2527      2544      2622
 -1      6088    3    0    1
 -2      2187      2309      2720      2422
 -1      6089    3    0    1
 -2      1507       379      1520      2471
 -1      6090    3    0    1
 -2      2195      2214      1310      2589
 -1      6091    3    0    1
 -2      2132      2070      2525      2552
 -1      6092    3    0    1
 -2      2072      1768      2482      2551
 -1      6093    3    0    1
 -2      1100       775      2235      2238
 -1      6094    3    0    1
 -2      2509      2531      2576      2682
 -1      6095    3    0    1
 -2      1018      1768      2155      2551
 -1      6096    3    0    1
 -2      2695      1275      1398      2755
 -1      6097    3    0    1
 -2      2301      2333      2446      2764
 -1      6098    3    0    1
 -2      1049      1069      2525      2552
 -1      6099    3    0    1
 -2      1416      1480      1496      2746
 -1      6100    3    0    1
 -2      2313      2272      2387      2414
 -1      6101    3    0    1
 -2      2188      2082      2555      2556
 -1      6102    3    0    1
 -2      2493      1781      2525      2552
 -1      6103    3    0    1
 -2      1069      2493      2525      2552
 -1      6104    3    0    1
 -2      1034      1016      1239      2551
 -1      6105    3    0    1
 -2      1239      1016      1240      2551
 -1      6106    3    0    1
 -2       637       791      1969      2224
 -1      6107    3    0    1
 -2      2345      1506      2416      2425
 -1      6108    3    0    1
 -2      2573      2533      2595      2612
 -1      6109    3    0    1
 -2      2510      2539      2549      2704
 -1      6110    3    0    1
 -2      2641      1339      2643      2359
 -1      6111    3    0    1
 -2      2566      2538      1294      2624
 -1      6112    3    0    1
 -2      2238      2249      2659      2766
 -1      6113    3    0    1
 -2      2288      2640      1461      2379
 -1      6114    3    0    1
 -2      2640      2666      2681      2379
 -1      6115    3    0    1
 -2      2553      1278      1318      1319
 -1      6116    3    0    1
 -2      1139      1141      1638      2224
 -1      6117    3    0    1
 -2      2189      1262      2538      1293
 -1      6118    3    0    1
 -2      2636       361      2660      2326
 -1      6119    3    0    1
 -2      2665      1331      1476      2734
 -1      6120    3    0    1
 -2      2539      2582      2591      2720
 -1      6121    3    0    1
 -2      1412      2401      2641      1278
 -1      6122    3    0    1
 -2      2532      2539      2582      2704
 -1      6123    3    0    1
 -2       613       612      1105      2245
 -1      6124    3    0    1
 -2      2157      2082      2528      2555
 -1      6125    3    0    1
 -2      2267      1328      1440      2359
 -1      6126    3    0    1
 -2      1372      1363      2678      2415
 -1      6127    3    0    1
 -2      2188      2180      2199      2555
 -1      6128    3    0    1
 -2      2214       383      1310      2589
 -1      6129    3    0    1
 -2      2570      1285      2659      2766
 -1      6130    3    0    1
 -2      1297      1312      1454      2426
 -1      6131    3    0    1
 -2      2521      2184      2321      2336
 -1      6132    3    0    1
 -2      1040       757      2244      2251
 -1      6133    3    0    1
 -2      2234      1328      2261      2267
 -1      6134    3    0    1
 -2      2218       735      2258       733
 -1      6135    3    0    1
 -2      2060      2146      2202      2568
 -1      6136    3    0    1
 -2      2110      2164      2527      2201
 -1      6137    3    0    1
 -2      2491      2110      2527      2201
 -1      6138    3    0    1
 -2      2110      2491      2166      2201
 -1      6139    3    0    1
 -2      2164      2110      2166      2201
 -1      6140    3    0    1
 -2      2491      2514      2196      2201
 -1      6141    3    0    1
 -2      1303      2258      2260      2398
 -1      6142    3    0    1
 -2      2409      1470      2440      2458
 -1      6143    3    0    1
 -2      1331      1330      2665      1475
 -1      6144    3    0    1
 -2      2096      1984      2482      2703
 -1      6145    3    0    1
 -2      1034      1024      2233      2689
 -1      6146    3    0    1
 -2      2558      1267      1337      1338
 -1      6147    3    0    1
 -2      2527      2201      2212      2593
 -1      6148    3    0    1
 -2      1292      2577      2321      2351
 -1      6149    3    0    1
 -2      2514      2491      2562      2622
 -1      6150    3    0    1
 -2      1266      1346      1407      2370
 -1      6151    3    0    1
 -2      1372      1314      2673      2677
 -1      6152    3    0    1
 -2      2300      2302      2650      1466
 -1      6153    3    0    1
 -2      1461      1333      1233      2435
 -1      6154    3    0    1
 -2      2529      2521      2336      2677
 -1      6155    3    0    1
 -2      2535      1244      2621      2702
 -1      6156    3    0    1
 -2      1490      1394      1493      2742
 -1      6157    3    0    1
 -2      2662      1427      2673      1486
 -1      6158    3    0    1
 -2      2222      2212      2593      2299
 -1      6159    3    0    1
 -2      2597      1415      1416      2691
 -1      6160    3    0    1
 -2      2179      2047      1269      2557
 -1      6161    3    0    1
 -2      1389      1436      1473      2708
 -1      6162    3    0    1
 -2      1358       237      2238      2245
 -1      6163    3    0    1
 -2      2516      2518      2538      2623
 -1      6164    3    0    1
 -2      2191      2205      2241      2606
 -1      6165    3    0    1
 -2      2340      2408      2409      2758
 -1      6166    3    0    1
 -2      2204      1351      2254      2394
 -1      6167    3    0    1
 -2      1288      2221      2241      2256
 -1      6168    3    0    1
 -2       722       488       907      2203
 -1      6169    3    0    1
 -2      2569      2614      2698      2765
 -1      6170    3    0    1
 -2       489       488       722      2203
 -1      6171    3    0    1
 -2      1488        57      2723      2455
 -1      6172    3    0    1
 -2      1238      1086      2537      2609
 -1      6173    3    0    1
 -2      2150      1950      2183      2560
 -1      6174    3    0    1
 -2      1950      2171      2183      2560
 -1      6175    3    0    1
 -2      1330      1249      2665      2718
 -1      6176    3    0    1
 -2       764      1059      2220      2230
 -1      6177    3    0    1
 -2       962      2479      1225      2561
 -1      6178    3    0    1
 -2      2516      2475      2518      2623
 -1      6179    3    0    1
 -2      1315      1316      2612      2710
 -1      6180    3    0    1
 -2      1284      2329      2680      2354
 -1      6181    3    0    1
 -2      1337      2558      1338      2590
 -1      6182    3    0    1
 -2      2537      1264      1334      2606
 -1      6183    3    0    1
 -2      2072      1768      2551      2601
 -1      6184    3    0    1
 -2      1924       860      2495      2584
 -1      6185    3    0    1
 -2      2672      2608      1446      2351
 -1      6186    3    0    1
 -2      1283      2249      2393      2766
 -1      6187    3    0    1
 -2      1348      2594      2298      1488
 -1      6188    3    0    1
 -2      2484      1086      1238      2609
 -1      6189    3    0    1
 -2      2491      2500      2514      2562
 -1      6190    3    0    1
 -2      1514      1467      1521      2474
 -1      6191    3    0    1
 -2      1241      2567      2673      2678
 -1      6192    3    0    1
 -2      2542      2192      2276      2300
 -1      6193    3    0    1
 -2      2058       878      2478      2562
 -1      6194    3    0    1
 -2       880       878      2058      2562
 -1      6195    3    0    1
 -2       880      2058      2495      2562
 -1      6196    3    0    1
 -2      1260      1261      2565      1359
 -1      6197    3    0    1
 -2      2576      2588      2613      1402
 -1      6198    3    0    1
 -2      1674      2478      2491      2562
 -1      6199    3    0    1
 -2      2058      1674      2495      2562
 -1      6200    3    0    1
 -2      1674      2058      2478      2562
 -1      6201    3    0    1
 -2      2491      2196      1262      2166
 -1      6202    3    0    1
 -2      2645      1376      2679      2709
 -1      6203    3    0    1
 -2       528       978      2218      2232
 -1      6204    3    0    1
 -2      2301      2227      2663      2764
 -1      6205    3    0    1
 -2      1330      2665      1475      2718
 -1      6206    3    0    1
 -2      1462      1360      1390      2732
 -1      6207    3    0    1
 -2      1262      2514      2491      2563
 -1      6208    3    0    1
 -2      1262      2491      2166      2179
 -1      6209    3    0    1
 -2      2555      2228      2592      2275
 -1      6210    3    0    1
 -2      2228      2636      1412      2664
 -1      6211    3    0    1
 -2      1251      2278      2315      2460
 -1      6212    3    0    1
 -2      1399      1485      2447      2465
 -1      6213    3    0    1
 -2      2484      2531      2537      2609
 -1      6214    3    0    1
 -2      2686      2651      2361      2420
 -1      6215    3    0    1
 -2       720       885      1252      2206
 -1      6216    3    0    1
 -2        40      1252      1272      2206
 -1      6217    3    0    1
 -2        40       720      1252      2206
 -1      6218    3    0    1
 -2        57      1488      2723      2741
 -1      6219    3    0    1
 -2         1      1515      2757      2762
 -1      6220    3    0    1
 -2      1352      2408      2747      2758
 -1      6221    3    0    1
 -2      1293      1257      1310      2307
 -1      6222    3    0    1
 -2      1265      1226      1335      2248
 -1      6223    3    0    1
 -2      2495      1247      2562      2649
 -1      6224    3    0    1
 -2      2496      1259      1290      2210
 -1      6225    3    0    1
 -2      2496      2050      1259      2210
 -1      6226    3    0    1
 -2      2050      2496      2185      2210
 -1      6227    3    0    1
 -2      1242      1241      2567      1363
 -1      6228    3    0    1
 -2      2216      1287      2219      2247
 -1      6229    3    0    1
 -2      2576      2190      1317      2289
 -1      6230    3    0    1
 -2      2578      2572      2656      2360
 -1      6231    3    0    1
 -2      2372      2438      2439      2750
 -1      6232    3    0    1
 -2      1231      2268      2280      2396
 -1      6233    3    0    1
 -2      2557      2198      2298      2364
 -1      6234    3    0    1
 -2      1317      2242      2606      2319
 -1      6235    3    0    1
 -2      2495      2544      2584      2633
 -1      6236    3    0    1
 -2      2620      1319      1411      2664
 -1      6237    3    0    1
 -2       769       594      2191      2221
 -1      6238    3    0    1
 -2       625       618       617      2286
 -1      6239    3    0    1
 -2      2476      1859      2493      2683
 -1      6240    3    0    1
 -2      2560      2163      2572      1315
 -1      6241    3    0    1
 -2       372        57      2691      1480
 -1      6242    3    0    1
 -2      1317      2576      2289      2647
 -1      6243    3    0    1
 -2      2567      1242      1363      1364
 -1      6244    3    0    1
 -2      2671       355      2714      1495
 -1      6245    3    0    1
 -2      1344      1327      2294      2381
 -1      6246    3    0    1
 -2      2189      2538      2566      1293
 -1      6247    3    0    1
 -2      2589      2575      1406      2685
 -1      6248    3    0    1
 -2      2538      2516      2604      2624
 -1      6249    3    0    1
 -2      2518      2516      2538      2624
 -1      6250    3    0    1
 -2      2482      2517      2554      2690
 -1      6251    3    0    1
 -2      1296      1238      2606      2609
 -1      6252    3    0    1
 -2      2178      2056      2557      2604
 -1      6253    3    0    1
 -2      1286      1288      2221      2241
 -1      6254    3    0    1
 -2      2582      1349      2629      2332
 -1      6255    3    0    1
 -2      1414      1248      2316      2338
 -1      6256    3    0    1
 -2      2278      2314      2315      2749
 -1      6257    3    0    1
 -2      2709       351      2412      2735
 -1      6258    3    0    1
 -2      2146      2050      2202      2568
 -1      6259    3    0    1
 -2      2050      2146      2524      2568
 -1      6260    3    0    1
 -2      2580      2625      2626      2745
 -1      6261    3    0    1
 -2      1297      1298      2573      1312
 -1      6262    3    0    1
 -2      2163      2614      2229      2271
 -1      6263    3    0    1
 -2      2496      2524      1259      2568
 -1      6264    3    0    1
 -2      2050      2496      1259      2568
 -1      6265    3    0    1
 -2      2496      2050      2524      2568
 -1      6266    3    0    1
 -2      2323      1262      2663      2764
 -1      6267    3    0    1
 -2      2075      2520      2743      2752
 -1      6268    3    0    1
 -2      2558      2582      2590      2591
 -1      6269    3    0    1
 -2      2050      1259      2202      2568
 -1      6270    3    0    1
 -2       355      2671      2390      1495
 -1      6271    3    0    1
 -2      1278      1277      2553      1318
 -1      6272    3    0    1
 -2      2544      2527      2593      2622
 -1      6273    3    0    1
 -2       375      1425      1426      1509
 -1      6274    3    0    1
 -2      2593      2610      2670      2742
 -1      6275    3    0    1
 -2      2205      2241      2606      2264
 -1      6276    3    0    1
 -2      1246      2644      2680      2760
 -1      6277    3    0    1
 -2      2503      1253      1254      2569
 -1      6278    3    0    1
 -2      2270      1246      2680      2760
 -1      6279    3    0    1
 -2      2538      2518      2571      2623
 -1      6280    3    0    1
 -2      1018       552      1016      2261
 -1      6281    3    0    1
 -2      1262      2538      1293      2623
 -1      6282    3    0    1
 -2      2414      2447      1399      2387
 -1      6283    3    0    1
 -2      2246      1113       617       780
 -1      6284    3    0    1
 -2      1265      2290      2704      2716
 -1      6285    3    0    1
 -2      2068       978      2506      2674
 -1      6286    3    0    1
 -2      1379      2655      1467      1468
 -1      6287    3    0    1
 -2      1349        82      2629      2355
 -1      6288    3    0    1
 -2      1105      1103      2173      2570
 -1      6289    3    0    1
 -2      2173      1103      2522      2570
 -1      6290    3    0    1
 -2       355      1481      1482      2714
 -1      6291    3    0    1
 -2      2226      1385      2273      2277
 -1      6292    3    0    1
 -2      2052      2160      2531      2570
 -1      6293    3    0    1
 -2      2484      2052      2531      2570
 -1      6294    3    0    1
 -2      2136      2522      2564      2570
 -1      6295    3    0    1
 -2      1919      1105      2173      2570
 -1      6296    3    0    1
 -2      2484      1919      2173      2570
 -1      6297    3    0    1
 -2      2136      2173      2522      2570
 -1      6298    3    0    1
 -2      2160      1870      2530      2570
 -1      6299    3    0    1
 -2      2530      1870      2564      2570
 -1      6300    3    0    1
 -2      2152      2532      2290      2716
 -1      6301    3    0    1
 -2      1870      2136      2564      2570
 -1      6302    3    0    1
 -2      2484      1105      2536      2570
 -1      6303    3    0    1
 -2      1919      2484      2536      2570
 -1      6304    3    0    1
 -2      1105      1919      2536      2570
 -1      6305    3    0    1
 -2      2052      2484      2173      2570
 -1      6306    3    0    1
 -2      2052      2136      2160      2570
 -1      6307    3    0    1
 -2      2136      1870      2160      2570
 -1      6308    3    0    1
 -2      2136      2052      2173      2570
 -1      6309    3    0    1
 -2       173      2636      2660      2326
 -1      6310    3    0    1
 -2      2141      1998      2163      2572
 -1      6311    3    0    1
 -2      1950      2069      2171      2572
 -1      6312    3    0    1
 -2      2140      2141      2182      2572
 -1      6313    3    0    1
 -2      1229      2225      2287      2344
 -1      6314    3    0    1
 -2      1296      2319      1354      1377
 -1      6315    3    0    1
 -2      2241      2221      2606      2256
 -1      6316    3    0    1
 -2       624      2007      2541      2739
 -1      6317    3    0    1
 -2      2542      1322      2276      2677
 -1      6318    3    0    1
 -2      2206      2227      2240      2663
 -1      6319    3    0    1
 -2      2277      1253      2635      2717
 -1      6320    3    0    1
 -2      2613      2570      1401      2653
 -1      6321    3    0    1
 -2      1245      1246      2534      2574
 -1      6322    3    0    1
 -2      2386      2579      2449      2453
 -1      6323    3    0    1
 -2      2485      2529      2371      2703
 -1      6324    3    0    1
 -2      2489      2054      2145      2574
 -1      6325    3    0    1
 -2      1274      2220      2236      2424
 -1      6326    3    0    1
 -2      1506      1483      2416      2425
 -1      6327    3    0    1
 -2      2384      1457      2448      1520
 -1      6328    3    0    1
 -2      2222      2593      2622      1397
 -1      6329    3    0    1
 -2      1245       959      1246      2574
 -1      6330    3    0    1
 -2       980       959      1245      2574
 -1      6331    3    0    1
 -2      2485      1821      2529      2677
 -1      6332    3    0    1
 -2      1238      2537      2606      2609
 -1      6333    3    0    1
 -2      2529      2554      2690      2703
 -1      6334    3    0    1
 -2      1370      2605      1369      1354
 -1      6335    3    0    1
 -2      1269      2550      1294      2624
 -1      6336    3    0    1
 -2      1243      1244      2535      1306
 -1      6337    3    0    1
 -2      2549      1265      2704      2716
 -1      6338    3    0    1
 -2      2537      1264      2606      2609
 -1      6339    3    0    1
 -2      2620      1411      2660      2664
 -1      6340    3    0    1
 -2      1298      2341      2710      2417
 -1      6341    3    0    1
 -2      1283      2522      1282      1103
 -1      6342    3    0    1
 -2      2586      2683      2694      2719
 -1      6343    3    0    1
 -2      2065      2487      2585      2739
 -1      6344    3    0    1
 -2      1361      1288      2242      2256
 -1      6345    3    0    1
 -2      1356      1283      1357      2598
 -1      6346    3    0    1
 -2      2522      1283      1282      2598
 -1      6347    3    0    1
 -2      2564      2530      2579      2669
 -1      6348    3    0    1
 -2       980      2489      2574      2674
 -1      6349    3    0    1
 -2       504       941       505      2219
 -1      6350    3    0    1
 -2       371      2628      2647      2733
 -1      6351    3    0    1
 -2       612      1103      1105      2245
 -1      6352    3    0    1
 -2      2553      2620      2630      2688
 -1      6353    3    0    1
 -2      2309      1346      2720      2422
 -1      6354    3    0    1
 -2      2534      2580      2625      2626
 -1      6355    3    0    1
 -2      1391      2296      2350      2369
 -1      6356    3    0    1
 -2      2738      2668      1510      2453
 -1      6357    3    0    1
 -2      2662       172      2672      1446
 -1      6358    3    0    1
 -2      2250      2328      2689      2388
 -1      6359    3    0    1
 -2      2603      2252      2615      1413
 -1      6360    3    0    1
 -2      2231      2568      1388      2626
 -1      6361    3    0    1
 -2      1278      1319      1412      2401
 -1      6362    3    0    1
 -2      2603      2207      2252      1413
 -1      6363    3    0    1
 -2        85        84       725      2216
 -1      6364    3    0    1
 -2       725        84       727      2216
 -1      6365    3    0    1
 -2      1259      2202      2568      1388
 -1      6366    3    0    1
 -2      2341      2266      2710      2385
 -1      6367    3    0    1
 -2       218      2617      2728      1439
 -1      6368    3    0    1
 -2       200       764      1059      2220
 -1      6369    3    0    1
 -2        70      1405      1406      2413
 -1      6370    3    0    1
 -2      2592      1433      2688      2690
 -1      6371    3    0    1
 -2      1322      2542      2596      2677
 -1      6372    3    0    1
 -2      1270      1271      2559      1320
 -1      6373    3    0    1
 -2      1252      1276      2227      2295
 -1      6374    3    0    1
 -2       173      2660      1433      2688
 -1      6375    3    0    1
 -2       489       492      2203      2217
 -1      6376    3    0    1
 -2      2710      2341      2385      2417
 -1      6377    3    0    1
 -2      2217        63       722        64
 -1      6378    3    0    1
 -2       492       493      2203      2686
 -1      6379    3    0    1
 -2      1310      1340      1404      2357
 -1      6380    3    0    1
 -2      2641      1339      1412      2664
 -1      6381    3    0    1
 -2       722      2203        63      2217
 -1      6382    3    0    1
 -2       529       525       528      2218
 -1      6383    3    0    1
 -2       528       980       529      2218
 -1      6384    3    0    1
 -2       980       528       978      2218
 -1      6385    3    0    1
 -2       525       526       528      2218
 -1      6386    3    0    1
 -2       564      1032      1034      2233
 -1      6387    3    0    1
 -2       565       564      1034      2233
 -1      6388    3    0    1
 -2       900       480       897      2295
 -1      6389    3    0    1
 -2       565       557       564      2233
 -1      6390    3    0    1
 -2      2145      2534      2574      2674
 -1      6391    3    0    1
 -2      2542      2300      2302      2650
 -1      6392    3    0    1
 -2       735       525       733      2218
 -1      6393    3    0    1
 -2       525       735       526      2218
 -1      6394    3    0    1
 -2      2606      2242      2318      2319
 -1      6395    3    0    1
 -2      1040       191      2251      2255
 -1      6396    3    0    1
 -2      1287        84      2216      2219
 -1      6397    3    0    1
 -2       353       112      2658      1474
 -1      6398    3    0    1
 -2      2533      2572      2585      2656
 -1      6399    3    0    1
 -2      1298      2710      2385      2417
 -1      6400    3    0    1
 -2      1301      1246      1302      2580
 -1      6401    3    0    1
 -2      2706      2340      1230      2758
 -1      6402    3    0    1
 -2      2538      2566      1293      2623
 -1      6403    3    0    1
 -2      2216      2248      2265      2297
 -1      6404    3    0    1
 -2        11       706      2278      2317
 -1      6405    3    0    1
 -2      1309      1341      1406      2684
 -1      6406    3    0    1
 -2      2511      2552      2559      2678
 -1      6407    3    0    1
 -2      2206       897      2295      2663
 -1      6408    3    0    1
 -2      1261      2565      1360      2631
 -1      6409    3    0    1
 -2        82       368      1338      2590
 -1      6410    3    0    1
 -2      2540      2485      2567      2678
 -1      6411    3    0    1
 -2      1309      1258      2413      1341
 -1      6412    3    0    1
 -2      2132      2511      2677      2678
 -1      6413    3    0    1
 -2      2482      2555      2556      2592
 -1      6414    3    0    1
 -2       528       978      2068      2674
 -1      6415    3    0    1
 -2      2506      1260      2637      2674
 -1      6416    3    0    1
 -2       980       528       529      2674
 -1      6417    3    0    1
 -2      1332      2726      2447      2465
 -1      6418    3    0    1
 -2       529      2054      2489      2674
 -1      6419    3    0    1
 -2      1245       980      2574      2674
 -1      6420    3    0    1
 -2      1299      1366      2285      2349
 -1      6421    3    0    1
 -2      2565      1359      1360      2602
 -1      6422    3    0    1
 -2      2296      2706      2747      2758
 -1      6423    3    0    1
 -2      2246      2282      2285      2744
 -1      6424    3    0    1
 -2       549       550       552      2261
 -1      6425    3    0    1
 -2       368      2590      2629      1407
 -1      6426    3    0    1
 -2       477       480       481      2295
 -1      6427    3    0    1
 -2      1140       791       636      2224
 -1      6428    3    0    1
 -2      2500      2478      2563      2687
 -1      6429    3    0    1
 -2       173      2636      2326      1433
 -1      6430    3    0    1
 -2      2673      2608      1450      2353
 -1      6431    3    0    1
 -2      2528      1550      2634      2700
 -1      6432    3    0    1
 -2      2396      1463      1376      2421
 -1      6433    3    0    1
 -2      2240      2227      2253      2663
 -1      6434    3    0    1
 -2      2572      2585      2656      2669
 -1      6435    3    0    1
 -2      2611       378      2676      2722
 -1      6436    3    0    1
 -2      2638      2610      2654      2742
 -1      6437    3    0    1
 -2       715       713      2225      2237
 -1      6438    3    0    1
 -2      1237      1295      2570      2581
 -1      6439    3    0    1
 -2      2484      1237      2570      2581
 -1      6440    3    0    1
 -2      1237      2484      1238      2581
 -1      6441    3    0    1
 -2      1285      2211      2613      1401
 -1      6442    3    0    1
 -2      1354      1353      2605      1369
 -1      6443    3    0    1
 -2      2607      1364      1428      2661
 -1      6444    3    0    1
 -2      2588      2335      2346      2733
 -1      6445    3    0    1
 -2      2340      2296      2408      2758
 -1      6446    3    0    1
 -2      1413      1330      2764      2470
 -1      6447    3    0    1
 -2      1245      2534      1301      2625
 -1      6448    3    0    1
 -2      1295      1238      1296      2581
 -1      6449    3    0    1
 -2      1237      1238      1295      2581
 -1      6450    3    0    1
 -2      1370       371      1377      2330
 -1      6451    3    0    1
 -2      1265      1226      2248      2621
 -1      6452    3    0    1
 -2      2547      2500      2563      2687
 -1      6453    3    0    1
 -2      2531      2509      2576      2613
 -1      6454    3    0    1
 -2      1280      1292      2661      2690
 -1      6455    3    0    1
 -2      2509      2530      2208      2613
 -1      6456    3    0    1
 -2      1310      1293      2623      2648
 -1      6457    3    0    1
 -2      2475      2516      2563      2623
 -1      6458    3    0    1
 -2       107      2671      2390      2714
 -1      6459    3    0    1
 -2      2683      2488      2694      2719
 -1      6460    3    0    1
 -2      2062      2138      2523      2719
 -1      6461    3    0    1
 -2      2060      2568      2422      2743
 -1      6462    3    0    1
 -2      2548      1232      1332      2726
 -1      6463    3    0    1
 -2      2247      2248      2621      2297
 -1      6464    3    0    1
 -2      1258      2395      2413      2394
 -1      6465    3    0    1
 -2      1235      1141      2546      2710
 -1      6466    3    0    1
 -2      2276      2542      2302      2650
 -1      6467    3    0    1
 -2       600      1086      2191      2221
 -1      6468    3    0    1
 -2       594       600      2191      2221
 -1      6469    3    0    1
 -2      1231      2490      2543      2601
 -1      6470    3    0    1
 -2       220      1286      1288      2221
 -1      6471    3    0    1
 -2       220       769      1286      2221
 -1      6472    3    0    1
 -2      2669      1227      1453      2721
 -1      6473    3    0    1
 -2      1016      1240      2551      2643
 -1      6474    3    0    1
 -2      1342      2599      1403      2750
 -1      6475    3    0    1
 -2       636      1139       637      2635
 -1      6476    3    0    1
 -2      2673      1372      1450      2415
 -1      6477    3    0    1
 -2      1372      2678      2373      2415
 -1      6478    3    0    1
 -2      2319      1296      1354      2318
 -1      6479    3    0    1
 -2      2528      2072      2556      2583
 -1      6480    3    0    1
 -2      1339      2641      1412      2402
 -1      6481    3    0    1
 -2      2072      2490      2543      2583
 -1      6482    3    0    1
 -2      2490      2072      2528      2583
 -1      6483    3    0    1
 -2      1248      2495      1247       860
 -1      6484    3    0    1
 -2      2208      2530      2579      2613
 -1      6485    3    0    1
 -2      2535      2486      2549      2621
 -1      6486    3    0    1
 -2       862       860      1924      2584
 -1      6487    3    0    1
 -2      2205      1263      2241      2264
 -1      6488    3    0    1
 -2      2627      2334      1436      2701
 -1      6489    3    0    1
 -2      2666      2548      2681      2694
 -1      6490    3    0    1
 -2      1285      2570      2692      2766
 -1      6491    3    0    1
 -2      1510      2467      2472      2766
 -1      6492    3    0    1
 -2      1230      2490      2634      2642
 -1      6493    3    0    1
 -2      2533      2487      2546      2585
 -1      6494    3    0    1
 -2      1234      2533      2546      2585
 -1      6495    3    0    1
 -2      2596      2650      2657      2740
 -1      6496    3    0    1
 -2      2702      1437      1496      2429
 -1      6497    3    0    1
 -2      2657      1469      2650      2697
 -1      6498    3    0    1
 -2      2596      1398      1466      2740
 -1      6499    3    0    1
 -2      2418      2702      1244      2419
 -1      6500    3    0    1
 -2      2297      1477      2418      2419
 -1      6501    3    0    1
 -2      2650      2596      1466      2740
 -1      6502    3    0    1
 -2      2580      1301      2625      2745
 -1      6503    3    0    1
 -2      2533      2572      2612      2713
 -1      6504    3    0    1
 -2      1638      2487      2546      2713
 -1      6505    3    0    1
 -2      2487      2533      2572      2585
 -1      6506    3    0    1
 -2      2065      2487      2572      2585
 -1      6507    3    0    1
 -2      2097      1638      2503      2713
 -1      6508    3    0    1
 -2      1294      1309      2624      2684
 -1      6509    3    0    1
 -2      2506      2526      2565      2631
 -1      6510    3    0    1
 -2      1238      1296      2606      2318
 -1      6511    3    0    1
 -2      1238      2606      2256      2318
 -1      6512    3    0    1
 -2      1346      2561      2591      2720
 -1      6513    3    0    1
 -2      2695      1466      2434      2755
 -1      6514    3    0    1
 -2      2264      1334      2616      2284
 -1      6515    3    0    1
 -2      1969       791      2103      2224
 -1      6516    3    0    1
 -2       791      1140      2103      2224
 -1      6517    3    0    1
 -2      2516      2126      2557      2604
 -1      6518    3    0    1
 -2      2088      2509      2190      2682
 -1      6519    3    0    1
 -2      2514      2500      2547      2599
 -1      6520    3    0    1
 -2      2500      2514      2562      2599
 -1      6521    3    0    1
 -2      1348      1269      2686      2361
 -1      6522    3    0    1
 -2      1342      2562      2622      2599
 -1      6523    3    0    1
 -2      2419      2702      2428      2429
 -1      6524    3    0    1
 -2      2570      1283      2692      2766
 -1      6525    3    0    1
 -2      2632      1271      2712      2695
 -1      6526    3    0    1
 -2      1332      1333      2617      1438
 -1      6527    3    0    1
 -2        28        27       715      2225
 -1      6528    3    0    1
 -2      2601      1240      2641      2643
 -1      6529    3    0    1
 -2       713        28       715      2225
 -1      6530    3    0    1
 -2      1302      1301      2580      1382
 -1      6531    3    0    1
 -2      1455      2393      2466      2472
 -1      6532    3    0    1
 -2      1349      2629      2332      2355
 -1      6533    3    0    1
 -2      2537      2640      2682      2683
 -1      6534    3    0    1
 -2      2244      1040      2251      2255
 -1      6535    3    0    1
 -2      2595      2611      2676      2722
 -1      6536    3    0    1
 -2      2586      2640      2666      2694
 -1      6537    3    0    1
 -2      1510      2692      2753      2766
 -1      6538    3    0    1
 -2      2578      2533      2595      2656
 -1      6539    3    0    1
 -2      2567      2577      2607      2673
 -1      6540    3    0    1
 -2       349       351      2727      2735
 -1      6541    3    0    1
 -2      1121       624      1123      2739
 -1      6542    3    0    1
 -2      1273       279      2223      2226
 -1      6543    3    0    1
 -2      2533      2573      2595      2656
 -1      6544    3    0    1
 -2      1284      2561      2644      2680
 -1      6545    3    0    1
 -2      2557      1269      1348      2298
 -1      6546    3    0    1
 -2      1246      1302      2580      2644
 -1      6547    3    0    1
 -2      1281      2639      2726      2465
 -1      6548    3    0    1
 -2      2301      1276      2323      2446
 -1      6549    3    0    1
 -2      1267      2510      2549      1335
 -1      6550    3    0    1
 -2       371       234      2628      2733
 -1      6551    3    0    1
 -2      2160      2509      2531      2613
 -1      6552    3    0    1
 -2       112      2658      1473      2708
 -1      6553    3    0    1
 -2       941      2486      1244      2621
 -1      6554    3    0    1
 -2      2601      1279      1380      2643
 -1      6555    3    0    1
 -2      2595      2573      2611      2722
 -1      6556    3    0    1
 -2      2207      1342      2603      1403
 -1      6557    3    0    1
 -2      2467      2393      2472      2766
 -1      6558    3    0    1
 -2      1032      1034      2233      2689
 -1      6559    3    0    1
 -2         1      1513      1515      2762
 -1      6560    3    0    1
 -2      2393      2466      2472      2766
 -1      6561    3    0    1
 -2       358       198      1465      2715
 -1      6562    3    0    1
 -2      2548      1332      2617      2726
 -1      6563    3    0    1
 -2      2529      2521      2321      2336
 -1      6564    3    0    1
 -2      2506       978      1260      2674
 -1      6565    3    0    1
 -2      2107      2163      2560      2229
 -1      6566    3    0    1
 -2       132       739      2296      2305
 -1      6567    3    0    1
 -2      2675      1394      1489      1490
 -1      6568    3    0    1
 -2      1466      1430      2434      2457
 -1      6569    3    0    1
 -2      2518      2550      2624      2684
 -1      6570    3    0    1
 -2      2203      2204      2239      2686
 -1      6571    3    0    1
 -2      1279      2556      1339      2641
 -1      6572    3    0    1
 -2      2517      1278      2553      2641
 -1      6573    3    0    1
 -2      2207      2196      1350      2603
 -1      6574    3    0    1
 -2      2514      1342      2599      2603
 -1      6575    3    0    1
 -2      2527      1291      2584      2593
 -1      6576    3    0    1
 -2      2196      2514      1350      2603
 -1      6577    3    0    1
 -2      1242      1364      2661      2689
 -1      6578    3    0    1
 -2      2104      2078      2485      2371
 -1      6579    3    0    1
 -2       737       132       739      2296
 -1      6580    3    0    1
 -2      2446      1350      2764      2470
 -1      6581    3    0    1
 -2      2234      2259      2268      2643
 -1      6582    3    0    1
 -2      2555      2188      2556      2228
 -1      6583    3    0    1
 -2      1314      1372      2673      2678
 -1      6584    3    0    1
 -2      2475      2518      2623      2705
 -1      6585    3    0    1
 -2      1257      1293      1310      2648
 -1      6586    3    0    1
 -2      2293      1243      2686      2363
 -1      6587    3    0    1
 -2      2190      2509      2576      2682
 -1      6588    3    0    1
 -2      1259      2526      1290      2637
 -1      6589    3    0    1
 -2      2082      1279      2556      2228
 -1      6590    3    0    1
 -2      2188      2082      2556      2228
 -1      6591    3    0    1
 -2      2214      2195      1309      2589
 -1      6592    3    0    1
 -2      2528      2209      2583      2737
 -1      6593    3    0    1
 -2       885      1252      2206      2295
 -1      6594    3    0    1
 -2      2592      2555      2275      2690
 -1      6595    3    0    1
 -2      2686      2361      2363      2420
 -1      6596    3    0    1
 -2      1266      1225      2561      1346
 -1      6597    3    0    1
 -2      2597      1306      1415      2741
 -1      6598    3    0    1
 -2      1416      1480      1484      2429
 -1      6599    3    0    1
 -2      1405      1341      1406      2413
 -1      6600    3    0    1
 -2      2625      1495      2745      2427
 -1      6601    3    0    1
 -2      2296      2305      2350      2706
 -1      6602    3    0    1
 -2      1018      2259      2261      2643
 -1      6603    3    0    1
 -2      2259      2234      2261      2643
 -1      6604    3    0    1
 -2      1257      1310      1340      2648
 -1      6605    3    0    1
 -2      1309      2589      2575      1406
 -1      6606    3    0    1
 -2      2620      1319      1410      1411
 -1      6607    3    0    1
 -2      2607      2608      2661      2662
 -1      6608    3    0    1
 -2      2569      1253      1378      2717
 -1      6609    3    0    1
 -2      2668      2619      2711      2753
 -1      6610    3    0    1
 -2      2533      2572      2578      2612
 -1      6611    3    0    1
 -2      1425      1313      1426      2417
 -1      6612    3    0    1
 -2      2578      1315      1316      2612
 -1      6613    3    0    1
 -2       209      1274      2220      2230
 -1      6614    3    0    1
 -2      2533      2578      2595      2612
 -1      6615    3    0    1
 -2      1426      1425      2417      1509
 -1      6616    3    0    1
 -2      1298      2533      2573      2612
 -1      6617    3    0    1
 -2      2578      2572      1315      2612
 -1      6618    3    0    1
 -2      1266      2558      1337      2591
 -1      6619    3    0    1
 -2      2561      1266      1346      2591
 -1      6620    3    0    1
 -2      2539      2510      2561      2591
 -1      6621    3    0    1
 -2      2510      2539      2558      2591
 -1      6622    3    0    1
 -2      1343      2240      2253      2291
 -1      6623    3    0    1
 -2      2571      2575      2623      2648
 -1      6624    3    0    1
 -2      2233      2250      2328      2689
 -1      6625    3    0    1
 -2      2510      1266      2561      2591
 -1      6626    3    0    1
 -2      1266      2510      2558      2591
 -1      6627    3    0    1
 -2      2250      1024      2294      2689
 -1      6628    3    0    1
 -2      2590      2582      1349      2629
 -1      6629    3    0    1
 -2      2582      2590      2591      2629
 -1      6630    3    0    1
 -2      2490      2543      2634      2642
 -1      6631    3    0    1
 -2      2251      2244      2255      2707
 -1      6632    3    0    1
 -2      1387      2579      2386      1510
 -1      6633    3    0    1
 -2      2680      1284      2354      2760
 -1      6634    3    0    1
 -2      2506      2109      2526      2634
 -1      6635    3    0    1
 -2      1279      2601      2641      2643
 -1      6636    3    0    1
 -2       371      2647      2346      2733
 -1      6637    3    0    1
 -2      2294      1327      2306      2381
 -1      6638    3    0    1
 -2      2558      1267      1338      1349
 -1      6639    3    0    1
 -2      1267      2558      1335      1349
 -1      6640    3    0    1
 -2      2586      2288      2308      2666
 -1      6641    3    0    1
 -2      1394      1493      1324      2437
 -1      6642    3    0    1
 -2      2075      2520      2524      2743
 -1      6643    3    0    1
 -2      1416      2597      2691      2746
 -1      6644    3    0    1
 -2      2588      2609      2576      2531
 -1      6645    3    0    1
 -2      2510      2549      1335      2704
 -1      6646    3    0    1
 -2      2246      1113      2282      2286
 -1      6647    3    0    1
 -2      2521      2133      2542      2677
 -1      6648    3    0    1
 -2      1357      1356      2598      2619
 -1      6649    3    0    1
 -2      1477      2419      2428      2429
 -1      6650    3    0    1
 -2      1241      2540      2567      2678
 -1      6651    3    0    1
 -2      2503      2569      2713      2717
 -1      6652    3    0    1
 -2      2485      2132      2677      2678
 -1      6653    3    0    1
 -2       437      1490      1493      2742
 -1      6654    3    0    1
 -2      2581      2570      2613      2653
 -1      6655    3    0    1
 -2      1262      2514      2563      1350
 -1      6656    3    0    1
 -2      2475      1725      2516      2604
 -1      6657    3    0    1
 -2      2517      2553      2630      2688
 -1      6658    3    0    1
 -2      2271      1458      2698      2410
 -1      6659    3    0    1
 -2      2553      2517      2592      2688
 -1      6660    3    0    1
 -2      1376      2645      2652      2709
 -1      6661    3    0    1
 -2      2198      2047      2557      2298
 -1      6662    3    0    1
 -2      2047      1269      2557      2298
 -1      6663    3    0    1
 -2      2553      1319      2620      2664
 -1      6664    3    0    1
 -2      1238      1296      2581      2609
 -1      6665    3    0    1
 -2      2609      2537      2682      2683
 -1      6666    3    0    1
 -2      2530      2065      2572      2669
 -1      6667    3    0    1
 -2      2484      1238      2581      2609
 -1      6668    3    0    1
 -2      2531      2484      2581      2609
 -1      6669    3    0    1
 -2      1317      1296      2606      2609
 -1      6670    3    0    1
 -2      1086      2484      2537      2609
 -1      6671    3    0    1
 -2      2717      1458      2431      2456
 -1      6672    3    0    1
 -2      2650      2302      2374      2377
 -1      6673    3    0    1
 -2      1018      1016      2601      2643
 -1      6674    3    0    1
 -2      2223      1273      2226      2263
 -1      6675    3    0    1
 -2       749       557      1024      2233
 -1      6676    3    0    1
 -2       557       558      1024      2233
 -1      6677    3    0    1
 -2       558      1034      1024      2233
 -1      6678    3    0    1
 -2      1034       558       565      2233
 -1      6679    3    0    1
 -2      2614      2271      1458      2698
 -1      6680    3    0    1
 -2      1243      2486      2550      2651
 -1      6681    3    0    1
 -2      1491      2280      2396      2421
 -1      6682    3    0    1
 -2      1413      1330      1475      2718
 -1      6683    3    0    1
 -2      2337       112      1436      2701
 -1      6684    3    0    1
 -2      1468      1379      1513      2461
 -1      6685    3    0    1
 -2      1113       780      2246      2282
 -1      6686    3    0    1
 -2      2611       378      1424      1425
 -1      6687    3    0    1
 -2      2681      1461      2640      2379
 -1      6688    3    0    1
 -2      2225      1300      2237      2257
 -1      6689    3    0    1
 -2       745       153       156      2234
 -1      6690    3    0    1
 -2       237       775      2238      2245
 -1      6691    3    0    1
 -2      2672       352      1486      2392
 -1      6692    3    0    1
 -2      2675       390      2725      2693
 -1      6693    3    0    1
 -2      1274      2220      2230      2236
 -1      6694    3    0    1
 -2      1338        82      1349      1365
 -1      6695    3    0    1
 -2      2488      2586      2683      2694
 -1      6696    3    0    1
 -2      2416      2345      2425      2760
 -1      6697    3    0    1
 -2      2596      2618      2657      2699
 -1      6698    3    0    1
 -2       609      2245       775       608
 -1      6699    3    0    1
 -2      2243      2322      2659      2324
 -1      6700    3    0    1
 -2      2529      2521      2371      2703
 -1      6701    3    0    1
 -2      2643      2641      2359      2401
 -1      6702    3    0    1
 -2      2611      1312      1424      2722
 -1      6703    3    0    1
 -2      1105      2235      2245      2659
 -1      6704    3    0    1
 -2      2547      2615      2665      2718
 -1      6705    3    0    1
 -2      2580      1302      1382      2667
 -1      6706    3    0    1
 -2      2072      2109      2490      2634
 -1      6707    3    0    1
 -2      2187      2152      2532      2290
 -1      6708    3    0    1
 -2       351      2709      2727      2735
 -1      6709    3    0    1
 -2      1292      2661      1446      2388
 -1      6710    3    0    1
 -2      1321      2559      2618      2695
 -1      6711    3    0    1
 -2      1220      2476      2493      2639
 -1      6712    3    0    1
 -2      2488      1220      1232      2639
 -1      6713    3    0    1
 -2      2476      1220      2488      2639
 -1      6714    3    0    1
 -2      1300        27      2225      2237
 -1      6715    3    0    1
 -2      2488      1232      2548      2639
 -1      6716    3    0    1
 -2      2535      2594      2604      2651
 -1      6717    3    0    1
 -2      2588      2576      2647      2346
 -1      6718    3    0    1
 -2      2524      1259      2568      2625
 -1      6719    3    0    1
 -2      2576      2588      2335      2346
 -1      6720    3    0    1
 -2      2526      2496      1290      2600
 -1      6721    3    0    1
 -2      1290      2496      2210      2600
 -1      6722    3    0    1
 -2      2606      2264      2616      2284
 -1      6723    3    0    1
 -2      2638      2610      2675      2725
 -1      6724    3    0    1
 -2      2283      1260      2637      2404
 -1      6725    3    0    1
 -2      2605      1370      1369      2628
 -1      6726    3    0    1
 -2      1240      1278      2643      2401
 -1      6727    3    0    1
 -2      2579      2668      1510      2753
 -1      6728    3    0    1
 -2      2602      1389      2658      2708
 -1      6729    3    0    1
 -2      2490      1018      2155      2601
 -1      6730    3    0    1
 -2      2155      1018      2551      2601
 -1      6731    3    0    1
 -2      2347      2344      2450      2761
 -1      6732    3    0    1
 -2      2585      1227      2656      2669
 -1      6733    3    0    1
 -2      2511      2559      2677      2678
 -1      6734    3    0    1
 -2      2072      2556      2583      2601
 -1      6735    3    0    1
 -2      2543      2072      2583      2601
 -1      6736    3    0    1
 -2      1768      2155      2551      2601
 -1      6737    3    0    1
 -2      2072      2490      2155      2601
 -1      6738    3    0    1
 -2      2160      2531      2570      2613
 -1      6739    3    0    1
 -2      1324      2654      2338      2437
 -1      6740    3    0    1
 -2      1248      1414      2316      2317
 -1      6741    3    0    1
 -2      2531      2576      2588      2613
 -1      6742    3    0    1
 -2      2564      2530      2570      2613
 -1      6743    3    0    1
 -2       745       743      2234      2259
 -1      6744    3    0    1
 -2      1768      2072      2155      2601
 -1      6745    3    0    1
 -2       576      1049      1051      2255
 -1      6746    3    0    1
 -2       242       237       775      2238
 -1      6747    3    0    1
 -2       242      1100      2235      2238
 -1      6748    3    0    1
 -2       242       775      1100      2238
 -1      6749    3    0    1
 -2      2203        63      2217      2239
 -1      6750    3    0    1
 -2        63        64      2217      2239
 -1      6751    3    0    1
 -2      1430      1429      1464      2715
 -1      6752    3    0    1
 -2      1268      2203      2204      2239
 -1      6753    3    0    1
 -2      1268        63      2203      2239
 -1      6754    3    0    1
 -2        64      1236      2217      2239
 -1      6755    3    0    1
 -2      2582      2629      2292      2332
 -1      6756    3    0    1
 -2      2514      2547      2563      2687
 -1      6757    3    0    1
 -2      1269      2538      2557      2604
 -1      6758    3    0    1
 -2      1367      2585      2656      2722
 -1      6759    3    0    1
 -2      2557      2535      2594      2604
 -1      6760    3    0    1
 -2      2709      2587      2724      2737
 -1      6761    3    0    1
 -2       706       851      2278      2314
 -1      6762    3    0    1
 -2      2586      2193      2288      2682
 -1      6763    3    0    1
 -2      1725      2076      2486      2604
 -1      6764    3    0    1
 -2      2486      2076      2550      2604
 -1      6765    3    0    1
 -2      1725      2475      2076      2604
 -1      6766    3    0    1
 -2      2076      2475      2550      2604
 -1      6767    3    0    1
 -2      1269      2557      1348      2604
 -1      6768    3    0    1
 -2      1348      2557      2594      2604
 -1      6769    3    0    1
 -2       457       450       449      2314
 -1      6770    3    0    1
 -2      2126      2056      2178      2604
 -1      6771    3    0    1
 -2      1725      2056      2126      2604
 -1      6772    3    0    1
 -2      1296      1295      2581      2605
 -1      6773    3    0    1
 -2      1263      2191      2205      2241
 -1      6774    3    0    1
 -2      1295      1296      1353      2605
 -1      6775    3    0    1
 -2      2568      2231      1396      2736
 -1      6776    3    0    1
 -2      1325      1471      1375      2729
 -1      6777    3    0    1
 -2      2557      1348      2594      2298
 -1      6778    3    0    1
 -2      1086      1088      2191      2606
 -1      6779    3    0    1
 -2      1088      1086      2537      2606
 -1      6780    3    0    1
 -2      1221      1088      2537      2606
 -1      6781    3    0    1
 -2      1471       349      2729      2735
 -1      6782    3    0    1
 -2      2632      2542      2300      2719
 -1      6783    3    0    1
 -2      1238      1086      2221      2606
 -1      6784    3    0    1
 -2      2193      2200      2586      2288
 -1      6785    3    0    1
 -2      2191      1221      2205      2606
 -1      6786    3    0    1
 -2      2241      1264      2242      2606
 -1      6787    3    0    1
 -2      2529      1292      2577      2321
 -1      6788    3    0    1
 -2      1088      1221      2191      2606
 -1      6789    3    0    1
 -2      1264      1317      2242      2606
 -1      6790    3    0    1
 -2      1354      2605      2609      2647
 -1      6791    3    0    1
 -2      2602      1389      1390      2658
 -1      6792    3    0    1
 -2       379      2738      1518      2756
 -1      6793    3    0    1
 -2      2242      1361      2318      2319
 -1      6794    3    0    1
 -2      1821      2485      2529      2371
 -1      6795    3    0    1
 -2      2576      2588      1402      2335
 -1      6796    3    0    1
 -2      1320      1321      2618      1429
 -1      6797    3    0    1
 -2      2242      2241      2606      2256
 -1      6798    3    0    1
 -2       352      1427      1486      2436
 -1      6799    3    0    1
 -2      2691        57      1479      1480
 -1      6800    3    0    1
 -2       383      1310      1404      1409
 -1      6801    3    0    1
 -2       172      2672      2351      2392
 -1      6802    3    0    1
 -2      2576      2211      2289      2335
 -1      6803    3    0    1
 -2      1295      1237      2659      2324
 -1      6804    3    0    1
 -2       609       613      2235      2245
 -1      6805    3    0    1
 -2       613      1105      2235      2245
 -1      6806    3    0    1
 -2      1380      2601      2679      2737
 -1      6807    3    0    1
 -2      2228      2592      2275      2636
 -1      6808    3    0    1
 -2      2717      1458      2456      2474
 -1      6809    3    0    1
 -2       355      2714      1495      2745
 -1      6810    3    0    1
 -2      1339      1279      2643      2359
 -1      6811    3    0    1
 -2      2225      1300      2257      2368
 -1      6812    3    0    1
 -2      1314      2673      2677      2678
 -1      6813    3    0    1
 -2      2288      2586      2640      2666
 -1      6814    3    0    1
 -2      2583      2209      2279      2304
 -1      6815    3    0    1
 -2      1287      1365      2247      2248
 -1      6816    3    0    1
 -2      1225       962      2680      2366
 -1      6817    3    0    1
 -2      2485      2540      2567      2661
 -1      6818    3    0    1
 -2      2540      2485      2554      2661
 -1      6819    3    0    1
 -2      2608      2662      2673      1486
 -1      6820    3    0    1
 -2      2529      2485      2567      2661
 -1      6821    3    0    1
 -2      2529      2567      2577      2661
 -1      6822    3    0    1
 -2      2269      2251      2678      2373
 -1      6823    3    0    1
 -2      1024       749      2233      2250
 -1      6824    3    0    1
 -2      2308      2666      2379      2380
 -1      6825    3    0    1
 -2       163      1336      2233      2250
 -1      6826    3    0    1
 -2       440       379      2738      2469
 -1      6827    3    0    1
 -2      2217      2239      2293      2686
 -1      6828    3    0    1
 -2      1377       371      2319      2330
 -1      6829    3    0    1
 -2       749       163      2233      2250
 -1      6830    3    0    1
 -2       164       163       749      2250
 -1      6831    3    0    1
 -2       164      1024      1327      2250
 -1      6832    3    0    1
 -2      1354      1370      1377      2330
 -1      6833    3    0    1
 -2      2681       218      1461      2379
 -1      6834    3    0    1
 -2       164       749      1024      2250
 -1      6835    3    0    1
 -2       180      1040       191      2251
 -1      6836    3    0    1
 -2       757       180      2244      2251
 -1      6837    3    0    1
 -2      1508      1510      2467      2472
 -1      6838    3    0    1
 -2       980       529      2489      2674
 -1      6839    3    0    1
 -2      1040       180       757      2251
 -1      6840    3    0    1
 -2      1460       351      2709      2727
 -1      6841    3    0    1
 -2      1233      2488      2548      2616
 -1      6842    3    0    1
 -2      2636      2275      2326      1433
 -1      6843    3    0    1
 -2      2534      1246      2580      2644
 -1      6844    3    0    1
 -2      1513      1468      2461      2462
 -1      6845    3    0    1
 -2      2571      1257      1340      2648
 -1      6846    3    0    1
 -2      1272      1343      2240      2253
 -1      6847    3    0    1
 -2      1495      1301      2745      2427
 -1      6848    3    0    1
 -2       920       917      2550      2686
 -1      6849    3    0    1
 -2      2517      1240      1278      2641
 -1      6850    3    0    1
 -2      1268      2204      1351      2254
 -1      6851    3    0    1
 -2       917      1243      2550      2686
 -1      6852    3    0    1
 -2      2532      2582      2292      2332
 -1      6853    3    0    1
 -2      1231      2268      2643      2679
 -1      6854    3    0    1
 -2       577       576      1051      2255
 -1      6855    3    0    1
 -2      2244      1040       569       757
 -1      6856    3    0    1
 -2       577       570       569      2255
 -1      6857    3    0    1
 -2       576       577       569      2255
 -1      6858    3    0    1
 -2       191      1368      2251      2255
 -1      6859    3    0    1
 -2      1040       569       570      2255
 -1      6860    3    0    1
 -2      1049       576      2244      2255
 -1      6861    3    0    1
 -2      2345      2270      2425      2760
 -1      6862    3    0    1
 -2      1040      2244       569      2255
 -1      6863    3    0    1
 -2       576       569      2244      2255
 -1      6864    3    0    1
 -2      1245      2534      2625      2674
 -1      6865    3    0    1
 -2       529       528      2054      2674
 -1      6866    3    0    1
 -2      2227      2295      2301      2663
 -1      6867    3    0    1
 -2       897       900      2295      2663
 -1      6868    3    0    1
 -2      2199      1347      2275      2690
 -1      6869    3    0    1
 -2      2600      2496      2320      2700
 -1      6870    3    0    1
 -2      1288      2241      2242      2256
 -1      6871    3    0    1
 -2      1298      2573      1313      2696
 -1      6872    3    0    1
 -2      2528      2490      2583      2634
 -1      6873    3    0    1
 -2      2490      2543      2583      2634
 -1      6874    3    0    1
 -2      1123      2522      1282      2739
 -1      6875    3    0    1
 -2      2580      2667      2736      2751
 -1      6876    3    0    1
 -2      2568      1259      1388      2625
 -1      6877    3    0    1
 -2      2199      2188      2555      2275
 -1      6878    3    0    1
 -2      1480       372      1484      2429
 -1      6879    3    0    1
 -2      2532      2187      2197      2309
 -1      6880    3    0    1
 -2      2214        70      2589      1406
 -1      6881    3    0    1
 -2      1332      1438      1447      2465
 -1      6882    3    0    1
 -2      2595      2676      1454      2722
 -1      6883    3    0    1
 -2      2587      2645      2679      2709
 -1      6884    3    0    1
 -2      2187      2532      2197      2290
 -1      6885    3    0    1
 -2      1303       115      2218      2258
 -1      6886    3    0    1
 -2       115       111       733      2258
 -1      6887    3    0    1
 -2       735       111      2232      2258
 -1      6888    3    0    1
 -2      2614      1458      2713      2717
 -1      6889    3    0    1
 -2      2291      1343      1409      2307
 -1      6890    3    0    1
 -2       115       733      2218      2258
 -1      6891    3    0    1
 -2       733       111       735      2258
 -1      6892    3    0    1
 -2      1296      1354      2605      2609
 -1      6893    3    0    1
 -2      2488      2586      2640      2683
 -1      6894    3    0    1
 -2      1859      2138      2493      2683
 -1      6895    3    0    1
 -2      2234       745      2259      2261
 -1      6896    3    0    1
 -2       156       745      2234      2261
 -1      6897    3    0    1
 -2      2547      2500      2665      2734
 -1      6898    3    0    1
 -2      2509      2158      2211      2613
 -1      6899    3    0    1
 -2      2509      2211      2576      2613
 -1      6900    3    0    1
 -2      1493      1394      1324      2742
 -1      6901    3    0    1
 -2      1415      1488      2741      2451
 -1      6902    3    0    1
 -2      2693       437      1493      2742
 -1      6903    3    0    1
 -2      2581      2531      2588      2613
 -1      6904    3    0    1
 -2      2509      2160      2530      2613
 -1      6905    3    0    1
 -2      1265      2549      1335      2621
 -1      6906    3    0    1
 -2      1318      2553      1319      2620
 -1      6907    3    0    1
 -2      1253      1378      2717      2473
 -1      6908    3    0    1
 -2      1253      1254      2569      1378
 -1      6909    3    0    1
 -2      2585      1227      1367      2656
 -1      6910    3    0    1
 -2       153      1255      2234      2259
 -1      6911    3    0    1
 -2       745       549       743      2259
 -1      6912    3    0    1
 -2       549      2261       745       550
 -1      6913    3    0    1
 -2      1305      2232      2258      2283
 -1      6914    3    0    1
 -2      1296      1354      2609      1377
 -1      6915    3    0    1
 -2      1317      1296      2609      1377
 -1      6916    3    0    1
 -2      1315      2614      2271      1458
 -1      6917    3    0    1
 -2      1462      1390      1474      2732
 -1      6918    3    0    1
 -2      2267      2643      2359      2401
 -1      6919    3    0    1
 -2       552      1018       553      2261
 -1      6920    3    0    1
 -2       553       549       552      2261
 -1      6921    3    0    1
 -2      1328       156      2234      2261
 -1      6922    3    0    1
 -2       553      1018      2259      2261
 -1      6923    3    0    1
 -2       549       553      2259      2261
 -1      6924    3    0    1
 -2      2321      2577      2336      2353
 -1      6925    3    0    1
 -2      2294      2250      2689      2759
 -1      6926    3    0    1
 -2      2548      2488      2639      2694
 -1      6927    3    0    1
 -2      2516      2538      2563      2623
 -1      6928    3    0    1
 -2      2183      2560      2572      2713
 -1      6929    3    0    1
 -2      2546      2533      2710      2713
 -1      6930    3    0    1
 -2      1428      1364      1432      2388
 -1      6931    3    0    1
 -2      1067      1069       589      2262
 -1      6932    3    0    1
 -2      2230       764       583      2262
 -1      6933    3    0    1
 -2       589       583       582      2262
 -1      6934    3    0    1
 -2       588      1067       589      2262
 -1      6935    3    0    1
 -2       589       582       588      2262
 -1      6936    3    0    1
 -2       582       583       764      2262
 -1      6937    3    0    1
 -2      1308       200      2220      2262
 -1      6938    3    0    1
 -2       764      2230       583      1059
 -1      6939    3    0    1
 -2       589      1069      2230      2262
 -1      6940    3    0    1
 -2       583       589      2230      2262
 -1      6941    3    0    1
 -2      1248      1324      2654      2338
 -1      6942    3    0    1
 -2      1481      2667      2714      2745
 -1      6943    3    0    1
 -2      2258      2260      2398      2754
 -1      6944    3    0    1
 -2      2557      2594      1437      2364
 -1      6945    3    0    1
 -2      2342      2271      2698      2410
 -1      6946    3    0    1
 -2      2602      2627      2658      2732
 -1      6947    3    0    1
 -2      1265      2549      1437      2716
 -1      6948    3    0    1
 -2      2241      1264      2606      2264
 -1      6949    3    0    1
 -2      2578      2595      2612      1426
 -1      6950    3    0    1
 -2       198       358      2377      2697
 -1      6951    3    0    1
 -2      2549      2557      1437      2716
 -1      6952    3    0    1
 -2      2530      2564      2579      2613
 -1      6953    3    0    1
 -2       465       466       468      2287
 -1      6954    3    0    1
 -2      1323      1324      1393      2638
 -1      6955    3    0    1
 -2      2298      2594      2364      2399
 -1      6956    3    0    1
 -2      1324      1323      2633      2638
 -1      6957    3    0    1
 -2      1403      1331      1476      2439
 -1      6958    3    0    1
 -2       388      1516      2459      2763
 -1      6959    3    0    1
 -2      2577      2608      2673      2353
 -1      6960    3    0    1
 -2      2158      1285      2211      2613
 -1      6961    3    0    1
 -2       465       468       469      2287
 -1      6962    3    0    1
 -2      1285      2158      2208      2613
 -1      6963    3    0    1
 -2      2711       379      2756      2738
 -1      6964    3    0    1
 -2      2200      2586      2308      2666
 -1      6965    3    0    1
 -2      2548      1332      1333      2617
 -1      6966    3    0    1
 -2      2570      2564      2613      2692
 -1      6967    3    0    1
 -2        41       389      2252      2615
 -1      6968    3    0    1
 -2      2619      2668      2711      2756
 -1      6969    3    0    1
 -2      2200      2586      2288      2308
 -1      6970    3    0    1
 -2        41       389      2615      2665
 -1      6971    3    0    1
 -2      2488      1221      2537      2616
 -1      6972    3    0    1
 -2      1221      2488      1233      2616
 -1      6973    3    0    1
 -2      1334      2537      2606      2616
 -1      6974    3    0    1
 -2      2537      1221      2606      2616
 -1      6975    3    0    1
 -2      1334      2606      2264      2616
 -1      6976    3    0    1
 -2      2646      2723      2430      2455
 -1      6977    3    0    1
 -2       727      2216      2219      2265
 -1      6978    3    0    1
 -2      1466      1430      1469      2740
 -1      6979    3    0    1
 -2      2533      1235      2546      2710
 -1      6980    3    0    1
 -2      1495      1301      2427      2454
 -1      6981    3    0    1
 -2      2618      2657      2715      2740
 -1      6982    3    0    1
 -2      2373      2678      2391      2415
 -1      6983    3    0    1
 -2      2542      2511      2596      2677
 -1      6984    3    0    1
 -2      1350      2207      2603      1413
 -1      6985    3    0    1
 -2       505       500      2219      2265
 -1      6986    3    0    1
 -2       941       505      2219      2265
 -1      6987    3    0    1
 -2      2219      2216      2247      2265
 -1      6988    3    0    1
 -2      2247      2216      2248      2265
 -1      6989    3    0    1
 -2      1255      2234      2259      2268
 -1      6990    3    0    1
 -2      2219       500       727      2265
 -1      6991    3    0    1
 -2        85      1228      2216      2265
 -1      6992    3    0    1
 -2       727       500       725      2265
 -1      6993    3    0    1
 -2       500      2219       727       501
 -1      6994    3    0    1
 -2      2666      2308      1447      2380
 -1      6995    3    0    1
 -2       437      2693      1490      2742
 -1      6996    3    0    1
 -2      2610      2675      2693      2742
 -1      6997    3    0    1
 -2      1321      2618      1429      1430
 -1      6998    3    0    1
 -2      1298      1313      1426      2696
 -1      6999    3    0    1
 -2      2183      2503      2560      2713
 -1      7000    3    0    1
 -2      2289      1377      2647      2346
 -1      7001    3    0    1
 -2      1419      2322      2324      2367
 -1      7002    3    0    1
 -2      1385      2277      2431      2456
 -1      7003    3    0    1
 -2       480       900       481      2295
 -1      7004    3    0    1
 -2      2208      1285      2579      1387
 -1      7005    3    0    1
 -2      2295       478       885       477
 -1      7006    3    0    1
 -2      2553      2592      2636      2688
 -1      7007    3    0    1
 -2      2312      2299      2670      2403
 -1      7008    3    0    1
 -2      1321      1430      2695      2740
 -1      7009    3    0    1
 -2      1330      1250      1331      2665
 -1      7010    3    0    1
 -2      1226      1265      1335      2621
 -1      7011    3    0    1
 -2      1226      2247      2248      2621
 -1      7012    3    0    1
 -2       941       938      2144      2621
 -1      7013    3    0    1
 -2      2479      1968      2144      2621
 -1      7014    3    0    1
 -2       938      2479      2144      2621
 -1      7015    3    0    1
 -2      2219       941      2265      2621
 -1      7016    3    0    1
 -2      2247      2219      2265      2621
 -1      7017    3    0    1
 -2      2252        41      2615      1413
 -1      7018    3    0    1
 -2      2486       941      2144      2621
 -1      7019    3    0    1
 -2      1968      2486      2144      2621
 -1      7020    3    0    1
 -2      1103      1105      2245      2659
 -1      7021    3    0    1
 -2      1360      2602      1390      2732
 -1      7022    3    0    1
 -2      2549      2594      2535      2621
 -1      7023    3    0    1
 -2      2594      2549      2535      2557
 -1      7024    3    0    1
 -2      1458      2698      2410      1516
 -1      7025    3    0    1
 -2      1376      1326      2645      2679
 -1      7026    3    0    1
 -2      2358      1282      2384      2721
 -1      7027    3    0    1
 -2      2646      2364      2399      2430
 -1      7028    3    0    1
 -2      1226       938      2247      2621
 -1      7029    3    0    1
 -2       941      1244      2265      2621
 -1      7030    3    0    1
 -2       938      2219      2247      2621
 -1      7031    3    0    1
 -2      1295      1401      1402      2367
 -1      7032    3    0    1
 -2      1401      1295      2324      2367
 -1      7033    3    0    1
 -2      1357      1283      2393      2766
 -1      7034    3    0    1
 -2      1354      2319      2318      2330
 -1      7035    3    0    1
 -2      1280      2199      2321      2690
 -1      7036    3    0    1
 -2       952       959      2327      2680
 -1      7037    3    0    1
 -2      1297      2533      2585      2722
 -1      7038    3    0    1
 -2      2327      2329      2680      2366
 -1      7039    3    0    1
 -2      1235      2263      2635      2710
 -1      7040    3    0    1
 -2       378      1424      1454      2722
 -1      7041    3    0    1
 -2       198       358      2697      2715
 -1      7042    3    0    1
 -2      2527      2201      2593      2622
 -1      7043    3    0    1
 -2      2226      2223      2263      2635
 -1      7044    3    0    1
 -2      2548      2617      2681      2694
 -1      7045    3    0    1
 -2      1674      2064      2495      2622
 -1      7046    3    0    1
 -2      2495      2064      2527      2622
 -1      7047    3    0    1
 -2      2064      1674      2491      2622
 -1      7048    3    0    1
 -2      2491      2514      2201      2622
 -1      7049    3    0    1
 -2      2562      1342      2622      1256
 -1      7050    3    0    1
 -2      2514      2562      2599      2622
 -1      7051    3    0    1
 -2      2254      2331      2394      2395
 -1      7052    3    0    1
 -2      2201      2222      2593      2622
 -1      7053    3    0    1
 -2      2527      2491      2064      2110
 -1      7054    3    0    1
 -2      2491      2527      2064      2622
 -1      7055    3    0    1
 -2      2514      1256      2196      2622
 -1      7056    3    0    1
 -2      2514      2196      2201      2622
 -1      7057    3    0    1
 -2      1256      2514      1342      2622
 -1      7058    3    0    1
 -2      1342      2514      2599      2622
 -1      7059    3    0    1
 -2      2201      1256      2222      2622
 -1      7060    3    0    1
 -2      2196      1256      2201      2622
 -1      7061    3    0    1
 -2      1508       440      1510      2472
 -1      7062    3    0    1
 -2      2571      1340      1341      2685
 -1      7063    3    0    1
 -2      1406      2575      2684      2685
 -1      7064    3    0    1
 -2      1404      1340      2648      2685
 -1      7065    3    0    1
 -2        70      2589      1406      2685
 -1      7066    3    0    1
 -2      1340      2571      2648      2685
 -1      7067    3    0    1
 -2      2475      2550      2604      2624
 -1      7068    3    0    1
 -2      2516      2475      2604      2624
 -1      7069    3    0    1
 -2      2475      2518      2550      2624
 -1      7070    3    0    1
 -2      2475      2516      2518      2624
 -1      7071    3    0    1
 -2       271      2226      1385      2273
 -1      7072    3    0    1
 -2       271       786      1131      2273
 -1      7073    3    0    1
 -2       271       279      2226      2273
 -1      7074    3    0    1
 -2       279       271      1131      2273
 -1      7075    3    0    1
 -2       279      1131      2223      2273
 -1      7076    3    0    1
 -2      2524      2526      1259      2625
 -1      7077    3    0    1
 -2      2060      2146      2568      2752
 -1      7078    3    0    1
 -2      1301      2534      2580      2625
 -1      7079    3    0    1
 -2      2089      2521      2542      2677
 -1      7080    3    0    1
 -2      2389      1445      2398      2427
 -1      7081    3    0    1
 -2      1367      2656      1454      2722
 -1      7082    3    0    1
 -2      2616      1233      2405      2406
 -1      7083    3    0    1
 -2      1367      2578      2656      2360
 -1      7084    3    0    1
 -2      2606      2205      2264      2284
 -1      7085    3    0    1
 -2      1103      1283      2659      2766
 -1      7086    3    0    1
 -2      2133      2511      2542      2677
 -1      7087    3    0    1
 -2      1426      1298      2385      2417
 -1      7088    3    0    1
 -2      2667      1383      1481      1482
 -1      7089    3    0    1
 -2      1341      1309      1406      2413
 -1      7090    3    0    1
 -2      2594      2298      2646      2399
 -1      7091    3    0    1
 -2      2567      2529      2673      2677
 -1      7092    3    0    1
 -2      1376      1460      1463      2709
 -1      7093    3    0    1
 -2      2503      2569      2614      2713
 -1      7094    3    0    1
 -2      1426       375      2339      2676
 -1      7095    3    0    1
 -2      2089      2542      2276      2677
 -1      7096    3    0    1
 -2      1380      2268      2280      2679
 -1      7097    3    0    1
 -2      2329      1284      2680      2370
 -1      7098    3    0    1
 -2      1393      1324      1394      2638
 -1      7099    3    0    1
 -2       371       234      1370      2628
 -1      7100    3    0    1
 -2       234      1369      1370      2628
 -1      7101    3    0    1
 -2      2210      2600      2320      2334
 -1      7102    3    0    1
 -2      1275      1281      2639      2719
 -1      7103    3    0    1
 -2      2543      1231      2601      2679
 -1      7104    3    0    1
 -2      1244      2265      2621      2297
 -1      7105    3    0    1
 -2      2275      2228      2636      1412
 -1      7106    3    0    1
 -2      1459      1375      1471      2729
 -1      7107    3    0    1
 -2       172       352      1428      2662
 -1      7108    3    0    1
 -2      2555      2188      2228      2275
 -1      7109    3    0    1
 -2      2553      2620      2636      2664
 -1      7110    3    0    1
 -2      1049      1051      2255      2678
 -1      7111    3    0    1
 -2      2374      2650      2377      2697
 -1      7112    3    0    1
 -2      1375      1376      2652      2727
 -1      7113    3    0    1
 -2      1228      2216      2265      2297
 -1      7114    3    0    1
 -2      1318      2553      2620      2630
 -1      7115    3    0    1
 -2      2573      1298      2612      2696
 -1      7116    3    0    1
 -2      2511      2559      2596      2699
 -1      7117    3    0    1
 -2      2138      2062      2493      2719
 -1      7118    3    0    1
 -2      1284      2561      1346      2720
 -1      7119    3    0    1
 -2      2228      2556      2592      2664
 -1      7120    3    0    1
 -2      2220      1308      2272      2313
 -1      7121    3    0    1
 -2      1321      1271      2695      2755
 -1      7122    3    0    1
 -2      1277      2517      2553      2630
 -1      7123    3    0    1
 -2      1416      2691      1479      1480
 -1      7124    3    0    1
 -2      1121      1234      2585      2744
 -1      7125    3    0    1
 -2      2517      1239      2554      2630
 -1      7126    3    0    1
 -2      1239      2517      1277      2630
 -1      7127    3    0    1
 -2      2283      2258      2362      2754
 -1      7128    3    0    1
 -2      2567      2485      2677      2678
 -1      7129    3    0    1
 -2      2721      1518      2669      2756
 -1      7130    3    0    1
 -2      1449       218      2406      2435
 -1      7131    3    0    1
 -2      2072      2490      2528      2634
 -1      7132    3    0    1
 -2      1223      2478      2500      2687
 -1      7133    3    0    1
 -2      2709      1463      2724      2412
 -1      7134    3    0    1
 -2      1306      2597      2651      2741
 -1      7135    3    0    1
 -2      2442         1      2459      2763
 -1      7136    3    0    1
 -2      1463      2304      2724      2412
 -1      7137    3    0    1
 -2      1279      2556      2601      2737
 -1      7138    3    0    1
 -2      1442      2385      2417      1509
 -1      7139    3    0    1
 -2      2535      1306      2597      2651
 -1      7140    3    0    1
 -2      1131      2223      2273      2635
 -1      7141    3    0    1
 -2      2668      2579      2692      2753
 -1      7142    3    0    1
 -2      2550      2486      2604      2651
 -1      7143    3    0    1
 -2      2384      2358      2721      2448
 -1      7144    3    0    1
 -2      1483       107      1506      2416
 -1      7145    3    0    1
 -2      2612      1316      1426      2696
 -1      7146    3    0    1
 -2      1271      2493      2559      2632
 -1      7147    3    0    1
 -2      2610      2544      2638      2654
 -1      7148    3    0    1
 -2      2576      2613      1401      1402
 -1      7149    3    0    1
 -2      1276      2227      2301      2323
 -1      7150    3    0    1
 -2      1295      2605      2653      2581
 -1      7151    3    0    1
 -2      2270       952      2329      2680
 -1      7152    3    0    1
 -2      1225      2561      1346      2680
 -1      7153    3    0    1
 -2      2274      2251      2348      2707
 -1      7154    3    0    1
 -2      1302      1383      2667      2751
 -1      7155    3    0    1
 -2      2375      2378      2707      2411
 -1      7156    3    0    1
 -2      2514      2547      2687      2718
 -1      7157    3    0    1
 -2      2559      2677      2678      2699
 -1      7158    3    0    1
 -2      2731      1379      1513      2762
 -1      7159    3    0    1
 -2      1407      2582      2356      2720
 -1      7160    3    0    1
 -2      1034      2294      2689      2759
 -1      7161    3    0    1
 -2      2661      1428      2662      1446
 -1      7162    3    0    1
 -2       862       860      2584      2749
 -1      7163    3    0    1
 -2         2       706       851      2278
 -1      7164    3    0    1
 -2         2        11       706      2278
 -1      7165    3    0    1
 -2       198      2377      1469      2697
 -1      7166    3    0    1
 -2      2238      2235      2243      2659
 -1      7167    3    0    1
 -2      2542      2596      2632      1398
 -1      7168    3    0    1
 -2      1322      2596      2650      2699
 -1      7169    3    0    1
 -2      2496      2210      2600      2320
 -1      7170    3    0    1
 -2      2151      2528      2279      2700
 -1      7171    3    0    1
 -2      2636      2275      1412      2326
 -1      7172    3    0    1
 -2      2583      2528      2634      2700
 -1      7173    3    0    1
 -2      1550      2109      2528      2634
 -1      7174    3    0    1
 -2      2334      2627      1462      2701
 -1      7175    3    0    1
 -2      2337      2334      1462      2701
 -1      7176    3    0    1
 -2      2204      2254      2331      2394
 -1      7177    3    0    1
 -2      1410       173      1433      2688
 -1      7178    3    0    1
 -2      2304      2365      2724      2412
 -1      7179    3    0    1
 -2      2334      2337      1436      2701
 -1      7180    3    0    1
 -2      2490       998      1230      2634
 -1      7181    3    0    1
 -2      1839      2109      2506      2634
 -1      7182    3    0    1
 -2      2109      1839      2490      2634
 -1      7183    3    0    1
 -2      2506       998      1000      1839
 -1      7184    3    0    1
 -2      2340      2409      2440      2758
 -1      7185    3    0    1
 -2      2506      2706       998      2634
 -1      7186    3    0    1
 -2      1839       998      2490      2634
 -1      7187    3    0    1
 -2      1236      2217      2239      2293
 -1      7188    3    0    1
 -2      2691        57      2741      1479
 -1      7189    3    0    1
 -2      2522      1123      2541      2739
 -1      7190    3    0    1
 -2      2270      2354      2425      2760
 -1      7191    3    0    1
 -2      1253      1139      2273      2635
 -1      7192    3    0    1
 -2      1141      1235      2223      2635
 -1      7193    3    0    1
 -2       637      1141      2223      2635
 -1      7194    3    0    1
 -2      1253      2273      2277      2635
 -1      7195    3    0    1
 -2      1139       636      2273      2635
 -1      7196    3    0    1
 -2      2223      1235      2263      2635
 -1      7197    3    0    1
 -2       636       629      2273      2635
 -1      7198    3    0    1
 -2       630       637      2223      2635
 -1      7199    3    0    1
 -2       629       786      2273      2635
 -1      7200    3    0    1
 -2      1131       630      2223      2635
 -1      7201    3    0    1
 -2       629       630       786      2635
 -1      7202    3    0    1
 -2       786       630      1131      2635
 -1      7203    3    0    1
 -2      1265      2549      2621      1437
 -1      7204    3    0    1
 -2      2712      2695      1275      2632
 -1      7205    3    0    1
 -2      2565      1359      2602      2637
 -1      7206    3    0    1
 -2      2600      2565      2602      2637
 -1      7207    3    0    1
 -2      1362      2274      2348      2375
 -1      7208    3    0    1
 -2      1311      2270      2329      2354
 -1      7209    3    0    1
 -2      2559      2511      2677      2699
 -1      7210    3    0    1
 -2      2358      2311      1457      2384
 -1      7211    3    0    1
 -2      2646      2298      1488      2399
 -1      7212    3    0    1
 -2      1363      1241      2673      2678
 -1      7213    3    0    1
 -2      2602      1360      2631      2732
 -1      7214    3    0    1
 -2      2282      1299      2285      2325
 -1      7215    3    0    1
 -2      2652      1376      2709      2727
 -1      7216    3    0    1
 -2      2251      2678      2373      2707
 -1      7217    3    0    1
 -2      1410      2620      1411      2660
 -1      7218    3    0    1
 -2      2631      1360      1462      2732
 -1      7219    3    0    1
 -2      1318      1277      1433      2464
 -1      7220    3    0    1
 -2       625       624      1123      2286
 -1      7221    3    0    1
 -2       617       624       625      2286
 -1      7222    3    0    1
 -2       254      1384      2282      2286
 -1      7223    3    0    1
 -2      1113       617       618      2286
 -1      7224    3    0    1
 -2      1307      2597      1416      2746
 -1      7225    3    0    1
 -2      1113      2246       617      2286
 -1      7226    3    0    1
 -2      1121       624      2246      2286
 -1      7227    3    0    1
 -2      2671      2626      1495      2745
 -1      7228    3    0    1
 -2       624       617      2246      2286
 -1      7229    3    0    1
 -2      1248      1324      2633      2654
 -1      7230    3    0    1
 -2      2584      2593      1400      2654
 -1      7231    3    0    1
 -2       878      1224      2562      2750
 -1      7232    3    0    1
 -2      2207      2603      2252      1403
 -1      7233    3    0    1
 -2       389      2252      2615      1403
 -1      7234    3    0    1
 -2        28      1229      2225      2287
 -1      7235    3    0    1
 -2       466       465       713      2287
 -1      7236    3    0    1
 -2       713      2237       466      2287
 -1      7237    3    0    1
 -2       468       466      2237      2287
 -1      7238    3    0    1
 -2       878       468      2237      2287
 -1      7239    3    0    1
 -2      1333      2617      1438      1439
 -1      7240    3    0    1
 -2      2667      1482      2714      2751
 -1      7241    3    0    1
 -2      2544      2584      2633      2654
 -1      7242    3    0    1
 -2      2584      1248      2633      2654
 -1      7243    3    0    1
 -2      1508      1444      1510      2753
 -1      7244    3    0    1
 -2      2562      1224      2599      2750
 -1      7245    3    0    1
 -2      1383      1382      2667      1481
 -1      7246    3    0    1
 -2      2654      1493      2593      1400
 -1      7247    3    0    1
 -2      2285      2349      2397      2744
 -1      7248    3    0    1
 -2      2670      2693      1493      2742
 -1      7249    3    0    1
 -2      2531      2537      2609      2683
 -1      7250    3    0    1
 -2      2523      2088      2193      2682
 -1      7251    3    0    1
 -2      2227      2301      2323      2764
 -1      7252    3    0    1
 -2      1227      2656      2669      2360
 -1      7253    3    0    1
 -2      2093      2168      2682      2683
 -1      7254    3    0    1
 -2      1231      1018      2601      2643
 -1      7255    3    0    1
 -2       917       920       493      2686
 -1      7256    3    0    1
 -2      2556      1279      2601      2641
 -1      7257    3    0    1
 -2      1219      2684      1294      2550
 -1      7258    3    0    1
 -2      1405        70      1406      2685
 -1      7259    3    0    1
 -2       383      1404      2648      2685
 -1      7260    3    0    1
 -2      2550      1294      2624      2684
 -1      7261    3    0    1
 -2      1258      2518      2571      2684
 -1      7262    3    0    1
 -2      2571      2575      2648      2685
 -1      7263    3    0    1
 -2      2571      1341      2684      2685
 -1      7264    3    0    1
 -2      2571      2518      2624      2684
 -1      7265    3    0    1
 -2      1258      2571      1341      2684
 -1      7266    3    0    1
 -2      2575      2589      2648      2685
 -1      7267    3    0    1
 -2      2575      2571      2684      2685
 -1      7268    3    0    1
 -2      2589       383      2648      2685
 -1      7269    3    0    1
 -2      2575      2571      2624      2684
 -1      7270    3    0    1
 -2      2684      1219      1294      1258
 -1      7271    3    0    1
 -2      1249      2500      1250      2665
 -1      7272    3    0    1
 -2      2296      1289      2305      2340
 -1      7273    3    0    1
 -2      2551      2556      2601      2641
 -1      7274    3    0    1
 -2      2551      2517      2556      2641
 -1      7275    3    0    1
 -2      1240      2517      2551      2641
 -1      7276    3    0    1
 -2      1240      2551      2601      2641
 -1      7277    3    0    1
 -2      2660      2636      1433      2688
 -1      7278    3    0    1
 -2      2520      2561      2644      2743
 -1      7279    3    0    1
 -2      2647      2588      2346      2733
 -1      7280    3    0    1
 -2      1249      1223      2687      2764
 -1      7281    3    0    1
 -2      1395      1352      2634      2642
 -1      7282    3    0    1
 -2       900      2478      2563      2705
 -1      7283    3    0    1
 -2      1481       355      1495      2745
 -1      7284    3    0    1
 -2      1304      2238      2243      2310
 -1      7285    3    0    1
 -2      2274      2375      2378      2707
 -1      7286    3    0    1
 -2      2551      1240      2601      2643
 -1      7287    3    0    1
 -2      1016      2551      2601      2643
 -1      7288    3    0    1
 -2      2233      1024      2250      2689
 -1      7289    3    0    1
 -2      2518      1257      2571      2648
 -1      7290    3    0    1
 -2       368      2629      2355      2356
 -1      7291    3    0    1
 -2      2636       173      2660      1433
 -1      7292    3    0    1
 -2      2255      2244      2678      2707
 -1      7293    3    0    1
 -2      2583      1395      2634      2642
 -1      7294    3    0    1
 -2      2587      2583      2634      2642
 -1      7295    3    0    1
 -2       198      1465      1469      1500
 -1      7296    3    0    1
 -2      2596      2559      2618      2699
 -1      7297    3    0    1
 -2      1314      1322      2348      2707
 -1      7298    3    0    1
 -2      2200      2586      2666      2694
 -1      7299    3    0    1
 -2      2613      1401      1402      2653
 -1      7300    3    0    1
 -2      2588      2613      1402      2653
 -1      7301    3    0    1
 -2      1270      2559      2678      2707
 -1      7302    3    0    1
 -2      2559      1270      2699      2707
 -1      7303    3    0    1
 -2      1270      1049      2244      2707
 -1      7304    3    0    1
 -2      1413        41      1475      2470
 -1      7305    3    0    1
 -2      2247      1226      2248      2303
 -1      7306    3    0    1
 -2      1267      1338      1349      2303
 -1      7307    3    0    1
 -2      2514      2563      1350      2687
 -1      7308    3    0    1
 -2      2581      2588      2609      2647
 -1      7309    3    0    1
 -2      1354      2609      1377      2647
 -1      7310    3    0    1
 -2      1423      2407      2444      2445
 -1      7311    3    0    1
 -2      2576      1317      2609      2647
 -1      7312    3    0    1
 -2      2605      2581      2609      2647
 -1      7313    3    0    1
 -2      2609      2588      2576      2647
 -1      7314    3    0    1
 -2       371      1373      2319      2330
 -1      7315    3    0    1
 -2      2263      1329      2266      2341
 -1      7316    3    0    1
 -2      1339      1279      2641      2643
 -1      7317    3    0    1
 -2      1240      1278      2641      2643
 -1      7318    3    0    1
 -2      1240      2261      2267      2643
 -1      7319    3    0    1
 -2      1240      1016      2261      2643
 -1      7320    3    0    1
 -2      1018      1231      2259      2643
 -1      7321    3    0    1
 -2      1279      2234      2268      2643
 -1      7322    3    0    1
 -2      1380      1279      2268      2643
 -1      7323    3    0    1
 -2      2572      2530      2669      2360
 -1      7324    3    0    1
 -2       172      2672      1446      2351
 -1      7325    3    0    1
 -2      1252        47      1276      2295
 -1      7326    3    0    1
 -2       885        47      1252      2295
 -1      7327    3    0    1
 -2       885      2206       478      2295
 -1      7328    3    0    1
 -2       897       480      2206      2295
 -1      7329    3    0    1
 -2      2695      2712      1275      2755
 -1      7330    3    0    1
 -2       480       478      2206      2295
 -1      7331    3    0    1
 -2      2636      2620      2660      2664
 -1      7332    3    0    1
 -2      1356      2384      2448      2471
 -1      7333    3    0    1
 -2      2690      2521      2529      2703
 -1      7334    3    0    1
 -2      2487      1638      2183      2713
 -1      7335    3    0    1
 -2      1278      1319      2641      1412
 -1      7336    3    0    1
 -2      2631      1374      2407      2747
 -1      7337    3    0    1
 -2      2738      1518      2449      2469
 -1      7338    3    0    1
 -2      2141      2572      2215      2360
 -1      7339    3    0    1
 -2      2234      1328      2267      2359
 -1      7340    3    0    1
 -2      1279      2234      2643      2359
 -1      7341    3    0    1
 -2      1329      2266      2341      2385
 -1      7342    3    0    1
 -2        41      2665      1475      1476
 -1      7343    3    0    1
 -2      1406      1309      2395      2413
 -1      7344    3    0    1
 -2      1346      1284      2720      2422
 -1      7345    3    0    1
 -2      2542      2596      2300      2650
 -1      7346    3    0    1
 -2      2245      1103      2659      2766
 -1      7347    3    0    1
 -2      2542      2596      1398      2300
 -1      7348    3    0    1
 -2      1365      2247      2248      2303
 -1      7349    3    0    1
 -2      2235      2238      2245      2659
 -1      7350    3    0    1
 -2      1423      2352      2369      2407
 -1      7351    3    0    1
 -2      2226      1385      2277      2431
 -1      7352    3    0    1
 -2      1270      2274      2378      2707
 -1      7353    3    0    1
 -2      1324      1248      1414      2338
 -1      7354    3    0    1
 -2      2310      2243      2322      2659
 -1      7355    3    0    1
 -2      2238      2243      2310      2659
 -1      7356    3    0    1
 -2      2401      1412      2641      2402
 -1      7357    3    0    1
 -2      1237      1105      2570      2659
 -1      7358    3    0    1
 -2      2534      2520      2574      2644
 -1      7359    3    0    1
 -2      1246      2534      2574      2644
 -1      7360    3    0    1
 -2      2520      1246      2574      2644
 -1      7361    3    0    1
 -2      1326      1325      1375      2645
 -1      7362    3    0    1
 -2      1231      1325      1326      2645
 -1      7363    3    0    1
 -2      1326      1375      1376      2645
 -1      7364    3    0    1
 -2      1231      1230      1325      2645
 -1      7365    3    0    1
 -2      1295      2570      2581      2653
 -1      7366    3    0    1
 -2      2588      2581      2613      2653
 -1      7367    3    0    1
 -2      2276      2542      2300      2302
 -1      7368    3    0    1
 -2      1306      1307      2597      1415
 -1      7369    3    0    1
 -2       851         2      2278      2314
 -1      7370    3    0    1
 -2      2280      2679      2396      2421
 -1      7371    3    0    1
 -2      1307      2597      1415      1416
 -1      7372    3    0    1
 -2      2251      2255      2678      2707
 -1      7373    3    0    1
 -2      2584      1248      2654      2749
 -1      7374    3    0    1
 -2      2373      2391      1434      2415
 -1      7375    3    0    1
 -2      2670      2299      1493      2403
 -1      7376    3    0    1
 -2      2517      2556      2641      2664
 -1      7377    3    0    1
 -2      2517      2553      2592      2664
 -1      7378    3    0    1
 -2      2391      1434      2415      2436
 -1      7379    3    0    1
 -2      1322      2650      1421      2699
 -1      7380    3    0    1
 -2      1428       172      2662      1446
 -1      7381    3    0    1
 -2      1326      1231      2645      2679
 -1      7382    3    0    1
 -2      2678      2348      2373      2707
 -1      7383    3    0    1
 -2      2227      2323      2663      2764
 -1      7384    3    0    1
 -2      1319      2553      2641      2664
 -1      7385    3    0    1
 -2      1514      1467      1516      2748
 -1      7386    3    0    1
 -2      2556      2517      2592      2664
 -1      7387    3    0    1
 -2      1226      1267      1335      2303
 -1      7388    3    0    1
 -2      1226      1335      2248      2303
 -1      7389    3    0    1
 -2      1335      1267      1349      2303
 -1      7390    3    0    1
 -2      1349      1365      2248      2303
 -1      7391    3    0    1
 -2      1335      1349      2248      2303
 -1      7392    3    0    1
 -2      1401      1295      1402      2653
 -1      7393    3    0    1
 -2      2424      2400      2457      2755
 -1      7394    3    0    1
 -2      1821      2104      2485      2371
 -1      7395    3    0    1
 -2      1319      2641      1412      2664
 -1      7396    3    0    1
 -2      1394      1490      1493      2437
 -1      7397    3    0    1
 -2      2376      1420      2450      2452
 -1      7398    3    0    1
 -2      2658      2627      2701      2732
 -1      7399    3    0    1
 -2      2348      1322      2375      2707
 -1      7400    3    0    1
 -2      2348      2251      2373      2707
 -1      7401    3    0    1
 -2      1049      1270      2678      2707
 -1      7402    3    0    1
 -2      1289       132      2296      2305
 -1      7403    3    0    1
 -2      1412      2636      2660      2664
 -1      7404    3    0    1
 -2      1339      2556      2228      2664
 -1      7405    3    0    1
 -2      1322      1314      2678      2707
 -1      7406    3    0    1
 -2      2060      2187      2716      2752
 -1      7407    3    0    1
 -2      2200      2666      1447      2694
 -1      7408    3    0    1
 -2      2605      1354      1370      2647
 -1      7409    3    0    1
 -2      1370      1354      1377      2647
 -1      7410    3    0    1
 -2      2605      1370      2628      2647
 -1      7411    3    0    1
 -2      1370       371      2628      2647
 -1      7412    3    0    1
 -2       371      1370      1377      2647
 -1      7413    3    0    1
 -2      1377      1317      2289      2647
 -1      7414    3    0    1
 -2      2554      1242      2661      2689
 -1      7415    3    0    1
 -2      2575      2566      2623      2648
 -1      7416    3    0    1
 -2        82       368      2629      2355
 -1      7417    3    0    1
 -2      1310      1257      1340      2357
 -1      7418    3    0    1
 -2      1340      1310      1404      2648
 -1      7419    3    0    1
 -2      1310      2566      2589      2648
 -1      7420    3    0    1
 -2      2566      2575      2589      2648
 -1      7421    3    0    1
 -2      1310       383      1404      2648
 -1      7422    3    0    1
 -2       383      1310      2589      2648
 -1      7423    3    0    1
 -2      1314      2348      2678      2707
 -1      7424    3    0    1
 -2      1320      1421      2699      2707
 -1      7425    3    0    1
 -2      1322      2678      2699      2707
 -1      7426    3    0    1
 -2      2678      2559      2699      2707
 -1      7427    3    0    1
 -2      2274      2348      2375      2707
 -1      7428    3    0    1
 -2      1262      1350      2687      2764
 -1      7429    3    0    1
 -2      1496      1307      1416      2746
 -1      7430    3    0    1
 -2      1366      2285      2349      2397
 -1      7431    3    0    1
 -2      1310      1404      1409      2357
 -1      7432    3    0    1
 -2      2291      1257      2307      2357
 -1      7433    3    0    1
 -2      1303      2260      1445      2398
 -1      7434    3    0    1
 -2      1304      2243      1371      2310
 -1      7435    3    0    1
 -2      2395      1258      2413      1309
 -1      7436    3    0    1
 -2      2567      1364      2607      2661
 -1      7437    3    0    1
 -2      2636       361      1412      2660
 -1      7438    3    0    1
 -2      1247      2495      2633      2649
 -1      7439    3    0    1
 -2      1377       371      2647      2346
 -1      7440    3    0    1
 -2      2544      2610      2638      2649
 -1      7441    3    0    1
 -2      2610      2544      2622      2649
 -1      7442    3    0    1
 -2      2568      2524      2626      2736
 -1      7443    3    0    1
 -2      2633      2544      2638      2649
 -1      7444    3    0    1
 -2      2495      2544      2633      2649
 -1      7445    3    0    1
 -2      2544      2495      2622      2649
 -1      7446    3    0    1
 -2      2668      2738      1518      2449
 -1      7447    3    0    1
 -2      1505      1345      2463      2470
 -1      7448    3    0    1
 -2      2626      2534      2736      2524
 -1      7449    3    0    1
 -2      1383      1483      2760      2416
 -1      7450    3    0    1
 -2      2661      1292      2689      2388
 -1      7451    3    0    1
 -2      1364      2328      1432      2388
 -1      7452    3    0    1
 -2      1280      2306      2689      2388
 -1      7453    3    0    1
 -2      1292      1280      2689      2388
 -1      7454    3    0    1
 -2      1428       172      1446      2388
 -1      7455    3    0    1
 -2      2328      1336      1432      2388
 -1      7456    3    0    1
 -2      2572      2560      1315      2713
 -1      7457    3    0    1
 -2      1364      1428      1446      2388
 -1      7458    3    0    1
 -2      2532      2501      2716      2752
 -1      7459    3    0    1
 -2      2644      1396      1483      2736
 -1      7460    3    0    1
 -2       355      1481      1495      1512
 -1      7461    3    0    1
 -2      1458      1315      2713      2717
 -1      7462    3    0    1
 -2      2503      1253      2569      2717
 -1      7463    3    0    1
 -2         2      1251      2278      2314
 -1      7464    3    0    1
 -2       449       851       706      2314
 -1      7465    3    0    1
 -2       851       449       450      2314
 -1      7466    3    0    1
 -2      1389      1390      2658      1473
 -1      7467    3    0    1
 -2      2521      2175      2371      2703
 -1      7468    3    0    1
 -2      2583      1395      2279      2700
 -1      7469    3    0    1
 -2       375       378      2339      2676
 -1      7470    3    0    1
 -2      2358      1453      2721      2448
 -1      7471    3    0    1
 -2      2283      1305      1478      2383
 -1      7472    3    0    1
 -2      1439      1333      1461      2435
 -1      7473    3    0    1
 -2      2596      1322      2677      2699
 -1      7474    3    0    1
 -2      2640      2548      2666      2694
 -1      7475    3    0    1
 -2      2678      2269      2373      2391
 -1      7476    3    0    1
 -2      2586      2488      2640      2694
 -1      7477    3    0    1
 -2      2581      2588      2605      2653
 -1      7478    3    0    1
 -2      1353      2605      1369      2653
 -1      7479    3    0    1
 -2      1353      1402      2653      1369
 -1      7480    3    0    1
 -2      1475      1505      2463      2470
 -1      7481    3    0    1
 -2      1369      2605      2628      2653
 -1      7482    3    0    1
 -2      1369       234      1402      2653
 -1      7483    3    0    1
 -2       234      1369      2628      2653
 -1      7484    3    0    1
 -2       706       449      2314      2317
 -1      7485    3    0    1
 -2      2584      2544      2593      2654
 -1      7486    3    0    1
 -2      2593      2544      2610      2654
 -1      7487    3    0    1
 -2      1346      2591      1407      2720
 -1      7488    3    0    1
 -2      2614      2229      2271      2342
 -1      7489    3    0    1
 -2       624      1121      2007      2739
 -1      7490    3    0    1
 -2      2447      2414      1399      2465
 -1      7491    3    0    1
 -2      2554      1280      1347      2759
 -1      7492    3    0    1
 -2      2381      2294      2443      2759
 -1      7493    3    0    1
 -2      1312      1313      2611      1424
 -1      7494    3    0    1
 -2      1313      2611      1424      1425
 -1      7495    3    0    1
 -2      2393      2249      2466      2766
 -1      7496    3    0    1
 -2      1334      2288      2640      1461
 -1      7497    3    0    1
 -2      1462       353      1474      2445
 -1      7498    3    0    1
 -2      2572      2533      2578      2656
 -1      7499    3    0    1
 -2      1229      2225      2344      2347
 -1      7500    3    0    1
 -2       456       860       862      2317
 -1      7501    3    0    1
 -2       456       457       449      2317
 -1      7502    3    0    1
 -2       449       457      2314      2317
 -1      7503    3    0    1
 -2      1503      1423      2444      2445
 -1      7504    3    0    1
 -2       457       456       862      2317
 -1      7505    3    0    1
 -2      1355      2278      2316      2317
 -1      7506    3    0    1
 -2      1414      1355      2316      2317
 -1      7507    3    0    1
 -2      1355        11      2278      2317
 -1      7508    3    0    1
 -2       457       862      2314      2317
 -1      7509    3    0    1
 -2      2549      2178      2557      2716
 -1      7510    3    0    1
 -2       358      2374      2377      2697
 -1      7511    3    0    1
 -2      1392      2340      2409      2440
 -1      7512    3    0    1
 -2      2345      1422      1506      2425
 -1      7513    3    0    1
 -2      2238      1358      2249      2466
 -1      7514    3    0    1
 -2       537      2305       538      2706
 -1      7515    3    0    1
 -2      2266      1316      2710      2385
 -1      7516    3    0    1
 -2      2391      2373      1434      2269
 -1      7517    3    0    1
 -2      2065      2127      2487      2739
 -1      7518    3    0    1
 -2      2646      2594      2364      1496
 -1      7519    3    0    1
 -2      2293      2686      2361      2363
 -1      7520    3    0    1
 -2      1269      2239      2686      2361
 -1      7521    3    0    1
 -2      2702      1307      2428      2429
 -1      7522    3    0    1
 -2      1415      1416      2691      1479
 -1      7523    3    0    1
 -2      1342      2562      2599      2750
 -1      7524    3    0    1
 -2      1309      1258      1341      2684
 -1      7525    3    0    1
 -2      1361      1373      2318      2319
 -1      7526    3    0    1
 -2      1231      2280      2679      2396
 -1      7527    3    0    1
 -2      2631      1352      2634      2700
 -1      7528    3    0    1
 -2      1282      2311      2358      2384
 -1      7529    3    0    1
 -2      1427      2607      1428      2662
 -1      7530    3    0    1
 -2      2054      2145      2574      2674
 -1      7531    3    0    1
 -2      1227      2585      1367      2744
 -1      7532    3    0    1
 -2      2489      2054      2574      2674
 -1      7533    3    0    1
 -2      1482       107      2714      2751
 -1      7534    3    0    1
 -2       353      2337      1462      2701
 -1      7535    3    0    1
 -2      1519       440      2467      2472
 -1      7536    3    0    1
 -2      1347      2630      1433      2688
 -1      7537    3    0    1
 -2      2257      2225      2368      2750
 -1      7538    3    0    1
 -2      2521      2180      2199      2321
 -1      7539    3    0    1
 -2      1384      2282      2311      2358
 -1      7540    3    0    1
 -2      2282      2246      2286      2744
 -1      7541    3    0    1
 -2       368      1337      1407      1431
 -1      7542    3    0    1
 -2      2305      2296      2340      2706
 -1      7543    3    0    1
 -2      2637      2383      2404      2423
 -1      7544    3    0    1
 -2      2007      1121      2127      2739
 -1      7545    3    0    1
 -2      1282      2522      2598      2739
 -1      7546    3    0    1
 -2      1390      2658      1473      1474
 -1      7547    3    0    1
 -2      2658       112      1473      1474
 -1      7548    3    0    1
 -2      2243      1371      2310      2322
 -1      7549    3    0    1
 -2      2482      2555      2690      2703
 -1      7550    3    0    1
 -2      2523      2138      2683      2719
 -1      7551    3    0    1
 -2      2257      2368      2438      2750
 -1      7552    3    0    1
 -2      1256      2562      1342      2750
 -1      7553    3    0    1
 -2      2523      2181      2542      2719
 -1      7554    3    0    1
 -2      1401      1295      2653      2659
 -1      7555    3    0    1
 -2      2570      1401      2653      2659
 -1      7556    3    0    1
 -2      1295      2570      2653      2659
 -1      7557    3    0    1
 -2      1285      2238      2310      2659
 -1      7558    3    0    1
 -2      2235      1237      2243      2659
 -1      7559    3    0    1
 -2      1521      1467      2473      2474
 -1      7560    3    0    1
 -2      1401      1285      2310      2659
 -1      7561    3    0    1
 -2      1105      1237      2235      2659
 -1      7562    3    0    1
 -2      1467      1514      1516      2474
 -1      7563    3    0    1
 -2      1401      2310      2322      2659
 -1      7564    3    0    1
 -2      2711      1444      1507      1508
 -1      7565    3    0    1
 -2      1428      2607      2661      2662
 -1      7566    3    0    1
 -2      1398      2300      2650      1466
 -1      7567    3    0    1
 -2      1844      1944      2047      2716
 -1      7568    3    0    1
 -2      2501      2549      2704      2716
 -1      7569    3    0    1
 -2      2528      2583      2279      2700
 -1      7570    3    0    1
 -2      2152      2187      2532      2716
 -1      7571    3    0    1
 -2       361       173      2660      2326
 -1      7572    3    0    1
 -2      2596      2559      2632      2695
 -1      7573    3    0    1
 -2      1264      1317      2609      2682
 -1      7574    3    0    1
 -2      1294      1258      1309      2684
 -1      7575    3    0    1
 -2       516       962       517      2327
 -1      7576    3    0    1
 -2       516       517       510      2327
 -1      7577    3    0    1
 -2       510       511       516      2327
 -1      7578    3    0    1
 -2       959       962       516      2327
 -1      7579    3    0    1
 -2       949       108       952      2327
 -1      7580    3    0    1
 -2      2308      2200      2666      1447
 -1      7581    3    0    1
 -2      2540      1242      2567      2661
 -1      7582    3    0    1
 -2       511       949       952      2327
 -1      7583    3    0    1
 -2       108        97       952      2327
 -1      7584    3    0    1
 -2      2277      2635      2431      2456
 -1      7585    3    0    1
 -2       511       510       949      2327
 -1      7586    3    0    1
 -2      2612      1315      2710      2713
 -1      7587    3    0    1
 -2      1347      2554      2630      2690
 -1      7588    3    0    1
 -2       959       511       952      2327
 -1      7589    3    0    1
 -2       511       959       516      2327
 -1      7590    3    0    1
 -2      2594      2557      2298      2364
 -1      7591    3    0    1
 -2      2577      2567      2607      2661
 -1      7592    3    0    1
 -2      1266      1225      1346      2370
 -1      7593    3    0    1
 -2      2577      2607      2608      2661
 -1      7594    3    0    1
 -2      2548      1233      2616      2728
 -1      7595    3    0    1
 -2      1313      2573      2611      2696
 -1      7596    3    0    1
 -2      1233      2616      1461      2406
 -1      7597    3    0    1
 -2      2555      2199      2275      2690
 -1      7598    3    0    1
 -2      2548      2640      2666      2681
 -1      7599    3    0    1
 -2      2548      2617      2694      2726
 -1      7600    3    0    1
 -2      2521      1821      2529      2371
 -1      7601    3    0    1
 -2        97      1311      2270      2329
 -1      7602    3    0    1
 -2      1408       108      2327      2329
 -1      7603    3    0    1
 -2       952        97      2270      2329
 -1      7604    3    0    1
 -2      2579      2213      2386      2449
 -1      7605    3    0    1
 -2      2369      1423      2407      2444
 -1      7606    3    0    1
 -2      2605      2588      2647      2733
 -1      7607    3    0    1
 -2      2726      2639      2447      2465
 -1      7608    3    0    1
 -2      2197      2532      2292      2332
 -1      7609    3    0    1
 -2      2532      2197      2290      2332
 -1      7610    3    0    1
 -2      1223       900      2563      2705
 -1      7611    3    0    1
 -2       900      1223      2663      2705
 -1      7612    3    0    1
 -2        57       372      2723      2455
 -1      7613    3    0    1
 -2      2691       372      2746      2723
 -1      7614    3    0    1
 -2      2629      2582      2292      2356
 -1      7615    3    0    1
 -2      2369      2407      2747      2444
 -1      7616    3    0    1
 -2      1318      1277      2630      1433
 -1      7617    3    0    1
 -2      2475      1218      2518      2705
 -1      7618    3    0    1
 -2      2629      2292      2355      2356
 -1      7619    3    0    1
 -2      1262      2563      2623      2705
 -1      7620    3    0    1
 -2      1257      1218      2663      2705
 -1      7621    3    0    1
 -2      1218       897      2663      2705
 -1      7622    3    0    1
 -2       897       900      2663      2705
 -1      7623    3    0    1
 -2      1293      1262      2623      2705
 -1      7624    3    0    1
 -2       352      1427      1428      2662
 -1      7625    3    0    1
 -2      2608      2672      1486      2392
 -1      7626    3    0    1
 -2      1357      1444      2753      2766
 -1      7627    3    0    1
 -2      2211      2576      1401      2335
 -1      7628    3    0    1
 -2      1401      2576      1402      2335
 -1      7629    3    0    1
 -2      2496      1550      2528      2700
 -1      7630    3    0    1
 -2      2485      2529      2567      2677
 -1      7631    3    0    1
 -2      2616      1334      2640      1461
 -1      7632    3    0    1
 -2      1352      1395      2634      2700
 -1      7633    3    0    1
 -2      2577      2529      2321      2336
 -1      7634    3    0    1
 -2      1333      2548      2617      2728
 -1      7635    3    0    1
 -2       528       980       978      2674
 -1      7636    3    0    1
 -2      1364      1428      2661      1446
 -1      7637    3    0    1
 -2      1356      2598      2619      2721
 -1      7638    3    0    1
 -2      1360      1462      1390      2445
 -1      7639    3    0    1
 -2      1282      2598      2721      2739
 -1      7640    3    0    1
 -2      2500      2547      2599      2734
 -1      7641    3    0    1
 -2        41       389      2665      1476
 -1      7642    3    0    1
 -2      2240      2253      2291      2663
 -1      7643    3    0    1
 -2      2291      2253      2307      2663
 -1      7644    3    0    1
 -2      1293      1257      2307      2663
 -1      7645    3    0    1
 -2      1257      2291      2307      2663
 -1      7646    3    0    1
 -2       173      1410      1433      2464
 -1      7647    3    0    1
 -2      2393      1519      2467      2472
 -1      7648    3    0    1
 -2      2717      1378      1516      2474
 -1      7649    3    0    1
 -2      2253      2227      2323      2663
 -1      7650    3    0    1
 -2      1262      2253      2323      2663
 -1      7651    3    0    1
 -2      1218       897      2240      2663
 -1      7652    3    0    1
 -2      2384      1443      1520      2471
 -1      7653    3    0    1
 -2      1262      1293      2253      2663
 -1      7654    3    0    1
 -2       897      2206      2240      2663
 -1      7655    3    0    1
 -2      1330      2463      2764      2470
 -1      7656    3    0    1
 -2      2253      1293      2307      2663
 -1      7657    3    0    1
 -2      1218      2240      2291      2663
 -1      7658    3    0    1
 -2      1257      1218      2291      2663
 -1      7659    3    0    1
 -2      2210      2627      2334      1436
 -1      7660    3    0    1
 -2      2210      2600      2627      1436
 -1      7661    3    0    1
 -2      2210      1290      2600      1436
 -1      7662    3    0    1
 -2      2637      1290      2362      2383
 -1      7663    3    0    1
 -2      1305      2283      2362      2383
 -1      7664    3    0    1
 -2      1462      2631      2600      1374
 -1      7665    3    0    1
 -2      2007      2522      2541      2739
 -1      7666    3    0    1
 -2       541       537       540      2706
 -1      7667    3    0    1
 -2      2065      2585      2669      2739
 -1      7668    3    0    1
 -2      2669      2585      2721      2739
 -1      7669    3    0    1
 -2      2232      2218      2258      2754
 -1      7670    3    0    1
 -2       541       540       998      2706
 -1      7671    3    0    1
 -2       998      1000       541      2706
 -1      7672    3    0    1
 -2      2333      1345      2446      2463
 -1      7673    3    0    1
 -2      1390      2602      2658      2732
 -1      7674    3    0    1
 -2      1411       361      2660      2664
 -1      7675    3    0    1
 -2       361      1411      1412      2664
 -1      7676    3    0    1
 -2      1339      2228      1412      2664
 -1      7677    3    0    1
 -2      1249      1250      1330      2665
 -1      7678    3    0    1
 -2      1294      1219      2331      1258
 -1      7679    3    0    1
 -2      2673      2567      2677      2678
 -1      7680    3    0    1
 -2      2691      1415      1479      2741
 -1      7681    3    0    1
 -2      2567      2529      2577      2673
 -1      7682    3    0    1
 -2      2642      1325      2645      2729
 -1      7683    3    0    1
 -2       218       207      2617      1439
 -1      7684    3    0    1
 -2      2617       207      1438      1439
 -1      7685    3    0    1
 -2      2587      2642      2645      2729
 -1      7686    3    0    1
 -2        57      2691      2741      2723
 -1      7687    3    0    1
 -2      2530      2182      2669      2360
 -1      7688    3    0    1
 -2      2141      2182      2572      2360
 -1      7689    3    0    1
 -2      2215      2572      2578      2360
 -1      7690    3    0    1
 -2      2182      2530      2572      2360
 -1      7691    3    0    1
 -2      1227      1367      2656      2360
 -1      7692    3    0    1
 -2      1393      2675      1489      2725
 -1      7693    3    0    1
 -2      2556      2528      2583      2737
 -1      7694    3    0    1
 -2      1457      2358      2384      2448
 -1      7695    3    0    1
 -2      1235      2533      1298      2710
 -1      7696    3    0    1
 -2      1382      1302      1383      2667
 -1      7697    3    0    1
 -2      1283      1357      2692      2766
 -1      7698    3    0    1
 -2      1430      2695      1466      2434
 -1      7699    3    0    1
 -2      2675      2610      2693      2725
 -1      7700    3    0    1
 -2      2359      1440      2401      2402
 -1      7701    3    0    1
 -2      2234      2267      2643      2359
 -1      7702    3    0    1
 -2      2065      2530      2564      2669
 -1      7703    3    0    1
 -2      2278      2316      2317      2749
 -1      7704    3    0    1
 -2      2586      2523      2683      2719
 -1      7705    3    0    1
 -2      2593      1397      2312      2670
 -1      7706    3    0    1
 -2      1294      1258      2331      2394
 -1      7707    3    0    1
 -2      1437      2702      2419      2429
 -1      7708    3    0    1
 -2      2671      2343      2390      1495
 -1      7709    3    0    1
 -2      2299      2593      2312      2670
 -1      7710    3    0    1
 -2      2187      2532      2716      2752
 -1      7711    3    0    1
 -2      2564      2579      2668      2669
 -1      7712    3    0    1
 -2      2530      2182      2579      2669
 -1      7713    3    0    1
 -2      2626      2343      2671      1495
 -1      7714    3    0    1
 -2      2358      1282      2721      2744
 -1      7715    3    0    1
 -2      2339      2281      2676      1454
 -1      7716    3    0    1
 -2       378      2339      2676      1454
 -1      7717    3    0    1
 -2      2182      2213      2579      2669
 -1      7718    3    0    1
 -2      2702      1307      1496      2746
 -1      7719    3    0    1
 -2      1382      1481      1495      2745
 -1      7720    3    0    1
 -2      2573      2595      2656      2722
 -1      7721    3    0    1
 -2      1435      1291      2731      2765
 -1      7722    3    0    1
 -2      2757         1      2762      2763
 -1      7723    3    0    1
 -2        57       372      2691      2723
 -1      7724    3    0    1
 -2      1441      2400      1500      2457
 -1      7725    3    0    1
 -2      2697       358      2699      2715
 -1      7726    3    0    1
 -2      1489      1393      1494      2468
 -1      7727    3    0    1
 -2      2671       107      1483      2714
 -1      7728    3    0    1
 -2      2251      1362      2274      2348
 -1      7729    3    0    1
 -2      2639      1232      2726      2447
 -1      7730    3    0    1
 -2      2644      1302      2751      2760
 -1      7731    3    0    1
 -2      2577      2321      2351      2353
 -1      7732    3    0    1
 -2      2666      2681      2379      2380
 -1      7733    3    0    1
 -2       737      2305      2296       739
 -1      7734    3    0    1
 -2      2608      2661      2662      1446
 -1      7735    3    0    1
 -2      2608      2662      2672      1446
 -1      7736    3    0    1
 -2      2577      1292      2661      1446
 -1      7737    3    0    1
 -2      2608      2577      2661      1446
 -1      7738    3    0    1
 -2      1471      1325      1375      2458
 -1      7739    3    0    1
 -2      1280      2554      1347      2690
 -1      7740    3    0    1
 -2      2260      2389      2398      2754
 -1      7741    3    0    1
 -2      1312      1297      1454      2722
 -1      7742    3    0    1
 -2      2250      1336      2328      2388
 -1      7743    3    0    1
 -2      2361      2293      2363      2420
 -1      7744    3    0    1
 -2      2626      2580      2667      2736
 -1      7745    3    0    1
 -2      2626      2667      2714      2736
 -1      7746    3    0    1
 -2      2272      2313      2387      2712
 -1      7747    3    0    1
 -2      1244      2297      2419      2428
 -1      7748    3    0    1
 -2      2607      2577      2608      2673
 -1      7749    3    0    1
 -2      1427      2607      2662      2673
 -1      7750    3    0    1
 -2      2607      2608      2662      2673
 -1      7751    3    0    1
 -2      1465       198      1469      2715
 -1      7752    3    0    1
 -2      1408      2329      2366      2370
 -1      7753    3    0    1
 -2      2680      1225      2366      2370
 -1      7754    3    0    1
 -2      1863      2506      2526      2674
 -1      7755    3    0    1
 -2      2526      2506      2637      2674
 -1      7756    3    0    1
 -2      2145      1863      2524      2674
 -1      7757    3    0    1
 -2      2145      2524      2534      2674
 -1      7758    3    0    1
 -2      2625      2526      2637      2674
 -1      7759    3    0    1
 -2      2503      2569      2731      2765
 -1      7760    3    0    1
 -2      2524      1863      2526      2674
 -1      7761    3    0    1
 -2      2524      2526      2625      2674
 -1      7762    3    0    1
 -2      2534      2524      2625      2674
 -1      7763    3    0    1
 -2      1379      1468      1513      2762
 -1      7764    3    0    1
 -2      2399      2646      2430      2455
 -1      7765    3    0    1
 -2      1863      2054      2068      2674
 -1      7766    3    0    1
 -2      2054      1863      2145      2674
 -1      7767    3    0    1
 -2      1232      2639      2387      2447
 -1      7768    3    0    1
 -2      1232      1332      2726      2447
 -1      7769    3    0    1
 -2      2363      1306      2420      2451
 -1      7770    3    0    1
 -2      2306      2294      2381      2759
 -1      7771    3    0    1
 -2      1270      2244      2274      2707
 -1      7772    3    0    1
 -2      1444      1508      1510      2467
 -1      7773    3    0    1
 -2      2268      1231      2280      2679
 -1      7774    3    0    1
 -2      1447       207      2681      2380
 -1      7775    3    0    1
 -2      2617      2548      2640      2728
 -1      7776    3    0    1
 -2      1821      2133      2521      2677
 -1      7777    3    0    1
 -2      2133      1821      2511      2677
 -1      7778    3    0    1
 -2      2521      2089      2184      2677
 -1      7779    3    0    1
 -2      2521      2184      2336      2677
 -1      7780    3    0    1
 -2       952      2327      2329      2680
 -1      7781    3    0    1
 -2      1397      2312      2670      1494
 -1      7782    3    0    1
 -2      2529      2577      2673      2677
 -1      7783    3    0    1
 -2      2577      2529      2336      2677
 -1      7784    3    0    1
 -2      1821      2485      2132      2677
 -1      7785    3    0    1
 -2      1821      2132      2511      2677
 -1      7786    3    0    1
 -2      2594      2646      1488      2741
 -1      7787    3    0    1
 -2      1220      1232      2639      2387
 -1      7788    3    0    1
 -2      2488      2548      2640      2694
 -1      7789    3    0    1
 -2       959       962      2327      2680
 -1      7790    3    0    1
 -2      1513         1      2442      2763
 -1      7791    3    0    1
 -2      2277      1253      2717      2473
 -1      7792    3    0    1
 -2      1322      1314      2276      2677
 -1      7793    3    0    1
 -2      1314      2089      2276      2677
 -1      7794    3    0    1
 -2      2089      1314      2336      2677
 -1      7795    3    0    1
 -2      1314      1372      2336      2677
 -1      7796    3    0    1
 -2      2184      2089      2336      2677
 -1      7797    3    0    1
 -2      2511      2132      2552      2678
 -1      7798    3    0    1
 -2      2132      2485      2540      2678
 -1      7799    3    0    1
 -2      1241      1051      2540      2678
 -1      7800    3    0    1
 -2      1051      1049      2132      2678
 -1      7801    3    0    1
 -2      2132      1049      2552      2678
 -1      7802    3    0    1
 -2      1051      2132      2540      2678
 -1      7803    3    0    1
 -2      2298      2594      2646      1488
 -1      7804    3    0    1
 -2      2302      2276      2650      2374
 -1      7805    3    0    1
 -2      2650      1322      1421      2374
 -1      7806    3    0    1
 -2      2255      1241      2269      2678
 -1      7807    3    0    1
 -2      1051      1241      2255      2678
 -1      7808    3    0    1
 -2      1372      2336      2673      2353
 -1      7809    3    0    1
 -2      1372      2673      1450      2353
 -1      7810    3    0    1
 -2      2673      2336      2677      2353
 -1      7811    3    0    1
 -2      2577      2673      2677      2353
 -1      7812    3    0    1
 -2      2336      2577      2677      2353
 -1      7813    3    0    1
 -2      2561      2520      2644      2680
 -1      7814    3    0    1
 -2      2520       959      1246      2680
 -1      7815    3    0    1
 -2      1225       962      2561      2680
 -1      7816    3    0    1
 -2       962      2520      2561      2680
 -1      7817    3    0    1
 -2       962       959      2520      2680
 -1      7818    3    0    1
 -2      2627      2600      2320      1462
 -1      7819    3    0    1
 -2      1246       959      2270      2680
 -1      7820    3    0    1
 -2       959       952      2270      2680
 -1      7821    3    0    1
 -2      1438      1332      1447      2726
 -1      7822    3    0    1
 -2      2661      1364      1446      2388
 -1      7823    3    0    1
 -2       207       218      2617      2681
 -1      7824    3    0    1
 -2      2600      1374      2320      1462
 -1      7825    3    0    1
 -2      1378      2717      2473      2474
 -1      7826    3    0    1
 -2      1294      1258      2394      2395
 -1      7827    3    0    1
 -2      1471      2724      2412      2735
 -1      7828    3    0    1
 -2      1264      2537      1334      2682
 -1      7829    3    0    1
 -2      1219      2518      1258      2684
 -1      7830    3    0    1
 -2      2566      2575      2624      2684
 -1      7831    3    0    1
 -2      2509      2168      2531      2682
 -1      7832    3    0    1
 -2      2331      1294      2394      2395
 -1      7833    3    0    1
 -2      2586      2288      2640      2682
 -1      7834    3    0    1
 -2      1309      2575      2566      2684
 -1      7835    3    0    1
 -2      1334      2537      2616      2682
 -1      7836    3    0    1
 -2      2616      2537      2640      2682
 -1      7837    3    0    1
 -2      1334      2616      2640      2682
 -1      7838    3    0    1
 -2      2288      1334      2640      2682
 -1      7839    3    0    1
 -2      2190      1264      2193      2682
 -1      7840    3    0    1
 -2      2088      2190      2193      2682
 -1      7841    3    0    1
 -2      1264      2190      1317      2682
 -1      7842    3    0    1
 -2      2193      1264      2288      2682
 -1      7843    3    0    1
 -2      1264      1334      2288      2682
 -1      7844    3    0    1
 -2      2093      2138      2168      2683
 -1      7845    3    0    1
 -2      2138      1859      2168      2683
 -1      7846    3    0    1
 -2      1309      2566      2624      2684
 -1      7847    3    0    1
 -2      2629      2292      2332      2355
 -1      7848    3    0    1
 -2      1341      1405      1406      2684
 -1      7849    3    0    1
 -2      1404       383      1405      2685
 -1      7850    3    0    1
 -2      1341      1404      1405      2685
 -1      7851    3    0    1
 -2       383        70      1405      2685
 -1      7852    3    0    1
 -2      1341      1340      1404      2685
 -1      7853    3    0    1
 -2      2550      1243      2651      2686
 -1      7854    3    0    1
 -2      1269      2550      2651      2686
 -1      7855    3    0    1
 -2      1219      2550      2331      2686
 -1      7856    3    0    1
 -2      1348      1269      2651      2686
 -1      7857    3    0    1
 -2      2258      1305      2283      2362
 -1      7858    3    0    1
 -2      2239      2204      2254      2686
 -1      7859    3    0    1
 -2      2254      2204      2331      2686
 -1      7860    3    0    1
 -2      2550      1269      1294      2686
 -1      7861    3    0    1
 -2      1294      2254      2331      2686
 -1      7862    3    0    1
 -2      2550      1294      2331      2686
 -1      7863    3    0    1
 -2       917       492      2217      2686
 -1      7864    3    0    1
 -2      1243       917      2217      2686
 -1      7865    3    0    1
 -2      1243      2217      2293      2686
 -1      7866    3    0    1
 -2       920      1219      2203      2686
 -1      7867    3    0    1
 -2       493       920      2203      2686
 -1      7868    3    0    1
 -2      2203      1219      2204      2686
 -1      7869    3    0    1
 -2      2204      1219      2331      2686
 -1      7870    3    0    1
 -2      1269      2239      2254      2686
 -1      7871    3    0    1
 -2      1294      1269      2254      2686
 -1      7872    3    0    1
 -2      1318      2620      1410      2688
 -1      7873    3    0    1
 -2      2620      1318      2630      2688
 -1      7874    3    0    1
 -2      1318      1410      1433      2688
 -1      7875    3    0    1
 -2      2630      1318      1433      2688
 -1      7876    3    0    1
 -2      2629       368      1407      2356
 -1      7877    3    0    1
 -2      1310      1409      2307      2357
 -1      7878    3    0    1
 -2      1438       207      1447      2465
 -1      7879    3    0    1
 -2      2475       897      1218      2705
 -1      7880    3    0    1
 -2      2563      2475      2623      2705
 -1      7881    3    0    1
 -2      2478      2475      2563      2705
 -1      7882    3    0    1
 -2      1292      1280      2661      2689
 -1      7883    3    0    1
 -2      2714      2671      1495      2745
 -1      7884    3    0    1
 -2      2585      1227      2669      2721
 -1      7885    3    0    1
 -2      1032      1242      2540      2689
 -1      7886    3    0    1
 -2      2540      1242      2554      2689
 -1      7887    3    0    1
 -2      1032      2540      2554      2689
 -1      7888    3    0    1
 -2      1034      1032      2554      2689
 -1      7889    3    0    1
 -2      1332      1447      2726      2465
 -1      7890    3    0    1
 -2      1242      2233      2328      2689
 -1      7891    3    0    1
 -2      1364      1242      2328      2689
 -1      7892    3    0    1
 -2      1242      1032      2233      2689
 -1      7893    3    0    1
 -2      2639      1281      2414      2465
 -1      7894    3    0    1
 -2      1495      2625      2626      1388
 -1      7895    3    0    1
 -2      2656      2595      1454      2722
 -1      7896    3    0    1
 -2      1024      1034      2294      2689
 -1      7897    3    0    1
 -2      1447      1281      2726      2465
 -1      7898    3    0    1
 -2      2560      2503      2614      2713
 -1      7899    3    0    1
 -2      1307      1496      1416      2429
 -1      7900    3    0    1
 -2      1292      1280      2321      2690
 -1      7901    3    0    1
 -2      2275      1347      1433      2690
 -1      7902    3    0    1
 -2      2618      2657      2699      2715
 -1      7903    3    0    1
 -2      2578      1367      2281      2360
 -1      7904    3    0    1
 -2      2215      2578      2281      2360
 -1      7905    3    0    1
 -2      2487      2183      2572      2713
 -1      7906    3    0    1
 -2      2297      1477      2419      2428
 -1      7907    3    0    1
 -2      2060      1844      2146      2752
 -1      7908    3    0    1
 -2      2213      2579      2669      1453
 -1      7909    3    0    1
 -2      2146      2075      2524      2752
 -1      7910    3    0    1
 -2      2669      1227      2360      1453
 -1      7911    3    0    1
 -2      2182      2669      2360      1453
 -1      7912    3    0    1
 -2      1307      1244      2702      2428
 -1      7913    3    0    1
 -2      2626      2231      2343      1495
 -1      7914    3    0    1
 -2      2578      1367      2656      1454
 -1      7915    3    0    1
 -2      2595      2578      2656      1454
 -1      7916    3    0    1
 -2      2578      2595      2281      1454
 -1      7917    3    0    1
 -2      1367      2578      2281      1454
 -1      7918    3    0    1
 -2      2282      2286      2311      2744
 -1      7919    3    0    1
 -2      2585      1227      2721      2744
 -1      7920    3    0    1
 -2      2311      1282      2358      2744
 -1      7921    3    0    1
 -2      1253      2503      2713      2717
 -1      7922    3    0    1
 -2      1260      2283      2637      2362
 -1      7923    3    0    1
 -2      2277      1385      1497      2456
 -1      7924    3    0    1
 -2      1430      1465      2434      2457
 -1      7925    3    0    1
 -2      1468      2655      2757      2762
 -1      7926    3    0    1
 -2      1465      1500      2434      2457
 -1      7927    3    0    1
 -2      2695      1275      2632      1398
 -1      7928    3    0    1
 -2      2338      2654      1493      2437
 -1      7929    3    0    1
 -2      1513      1468      1515      2762
 -1      7930    3    0    1
 -2      2511      2596      2677      2699
 -1      7931    3    0    1
 -2      1320      1421      1429      2699
 -1      7932    3    0    1
 -2      2618      1320      1429      2699
 -1      7933    3    0    1
 -2      2539      2501      2549      2704
 -1      7934    3    0    1
 -2      2532      2582      2332      2704
 -1      7935    3    0    1
 -2      1402      1295      1353      2653
 -1      7936    3    0    1
 -2      1295      1402      1353      2367
 -1      7937    3    0    1
 -2      1353      1419      2324      2367
 -1      7938    3    0    1
 -2      1353      1369      1419      2367
 -1      7939    3    0    1
 -2      1369       234      1419      2367
 -1      7940    3    0    1
 -2      1295      1353      2324      2367
 -1      7941    3    0    1
 -2      1302      2580      2644      2751
 -1      7942    3    0    1
 -2      2213      2579      1453      1518
 -1      7943    3    0    1
 -2      2401      1412      2402      2433
 -1      7944    3    0    1
 -2      2257      1300      1418      2368
 -1      7945    3    0    1
 -2      2522      2564      2570      2692
 -1      7946    3    0    1
 -2      2522      2570      2598      2692
 -1      7947    3    0    1
 -2      1421      1322      2699      2707
 -1      7948    3    0    1
 -2      2705      2687      1262      2563
 -1      7949    3    0    1
 -2      2441      2315      2749      2460
 -1      7950    3    0    1
 -2      1391      1423      2352      2369
 -1      7951    3    0    1
 -2      2296      1391      2352      2369
 -1      7952    3    0    1
 -2      1337      1266      1407      2370
 -1      7953    3    0    1
 -2      1431      1408      2366      2370
 -1      7954    3    0    1
 -2      1266      1431      2366      2370
 -1      7955    3    0    1
 -2      1225      1266      2366      2370
 -1      7956    3    0    1
 -2      1266      1337      1431      2370
 -1      7957    3    0    1
 -2      2532      2501      2539      2704
 -1      7958    3    0    1
 -2      2133      1821      2521      2371
 -1      7959    3    0    1
 -2      2175      2133      2521      2371
 -1      7960    3    0    1
 -2      1460      1376      1463      2421
 -1      7961    3    0    1
 -2      2608      2673      1450      1486
 -1      7962    3    0    1
 -2      2582      1349      2332      2704
 -1      7963    3    0    1
 -2      2539      2510      2558      2704
 -1      7964    3    0    1
 -2      2558      1335      1349      2704
 -1      7965    3    0    1
 -2      2564      2619      2668      2692
 -1      7966    3    0    1
 -2      2564      2579      2613      2692
 -1      7967    3    0    1
 -2      2613      2579      1387      2692
 -1      7968    3    0    1
 -2      1285      2613      1387      2692
 -1      7969    3    0    1
 -2      1285      2570      2613      2692
 -1      7970    3    0    1
 -2      1480      1416      1496      2429
 -1      7971    3    0    1
 -2      2579      2564      2668      2692
 -1      7972    3    0    1
 -2      1415      1479      1488      2451
 -1      7973    3    0    1
 -2      1228      2216      2297      2418
 -1      7974    3    0    1
 -2      1314      1372      2678      2373
 -1      7975    3    0    1
 -2      2348      1314      2678      2373
 -1      7976    3    0    1
 -2      2351      2608      2353      2392
 -1      7977    3    0    1
 -2      1368      2269      1434      2373
 -1      7978    3    0    1
 -2      2693       390      1494      2432
 -1      7979    3    0    1
 -2      2585      2533      2656      2722
 -1      7980    3    0    1
 -2      1316      1426      2710      2385
 -1      7981    3    0    1
 -2      2547      2500      2687      2718
 -1      7982    3    0    1
 -2       437      2693      2403      2432
 -1      7983    3    0    1
 -2      2500      1249      2687      2718
 -1      7984    3    0    1
 -2      2267      1240      2643      2401
 -1      7985    3    0    1
 -2      1440      2267      2359      2401
 -1      7986    3    0    1
 -2      2665        41      1475      2718
 -1      7987    3    0    1
 -2      1396      2644      1483      2760
 -1      7988    3    0    1
 -2      1383      1482      1483      2416
 -1      7989    3    0    1
 -2      2138      2493      2683      2719
 -1      7990    3    0    1
 -2      2493      2511      2632      2719
 -1      7991    3    0    1
 -2      2493      2062      2511      2719
 -1      7992    3    0    1
 -2      1354      2319      2330      1377
 -1      7993    3    0    1
 -2      1452      1351      2394      2395
 -1      7994    3    0    1
 -2      1275      2632      2300      2719
 -1      7995    3    0    1
 -2      2646      2691      2723      2741
 -1      7996    3    0    1
 -2      1463      2396      1376      1326
 -1      7997    3    0    1
 -2      2151      2496      2528      2700
 -1      7998    3    0    1
 -2      2274      1362      1448      2375
 -1      7999    3    0    1
 -2      1374      1352      2631      2700
 -1      8000    3    0    1
 -2      1395      2583      2634      2700
 -1      8001    3    0    1
 -2      2554      2482      2690      2703
 -1      8002    3    0    1
 -2      1333      2617      1439      2728
 -1      8003    3    0    1
 -2      2681       218      2379      2380
 -1      8004    3    0    1
 -2       207       218      2681      2380
 -1      8005    3    0    1
 -2      1414      1324      2338      1499
 -1      8006    3    0    1
 -2      1223       900      2663      2764
 -1      8007    3    0    1
 -2      2284      2616      2405      2406
 -1      8008    3    0    1
 -2      2640      2616      1461      2728
 -1      8009    3    0    1
 -2      2548      2616      2640      2728
 -1      8010    3    0    1
 -2      2616      1233      1461      2728
 -1      8011    3    0    1
 -2      1244      2535      1307      2702
 -1      8012    3    0    1
 -2      1435      2731      1513      2762
 -1      8013    3    0    1
 -2      1356      2384      2721      2448
 -1      8014    3    0    1
 -2      2280      1380      2679      1463
 -1      8015    3    0    1
 -2      2501      2532      2539      2720
 -1      8016    3    0    1
 -2      1376      1326      2679      1463
 -1      8017    3    0    1
 -2      2561      2539      2591      2720
 -1      8018    3    0    1
 -2      1260      1359      2637      2404
 -1      8019    3    0    1
 -2      2693      2670      1493      2403
 -1      8020    3    0    1
 -2       437      2693      1493      2403
 -1      8021    3    0    1
 -2      2670      1397      2725      2593
 -1      8022    3    0    1
 -2      1479        57      1488      2451
 -1      8023    3    0    1
 -2      2353      2608      1486      2392
 -1      8024    3    0    1
 -2      2639      2548      2694      2726
 -1      8025    3    0    1
 -2      2617      2681      2694      2726
 -1      8026    3    0    1
 -2      1281      2200      1447      2694
 -1      8027    3    0    1
 -2      2047      2198      2557      2716
 -1      8028    3    0    1
 -2      2595      2612      1426      2696
 -1      8029    3    0    1
 -2      1306      2651      2363      2420
 -1      8030    3    0    1
 -2      2619      2668      2692      2753
 -1      8031    3    0    1
 -2      2596      1398      2650      1466
 -1      8032    3    0    1
 -2      2312      2670      1494      2432
 -1      8033    3    0    1
 -2       218      1439      2406      2435
 -1      8034    3    0    1
 -2      2693      2670      2403      2432
 -1      8035    3    0    1
 -2      2595      2573      2612      2696
 -1      8036    3    0    1
 -2      1313      2611      1425      2696
 -1      8037    3    0    1
 -2      1223      2663      2705      2764
 -1      8038    3    0    1
 -2      1254      2569      1379      2731
 -1      8039    3    0    1
 -2      1395      1352      2642      2758
 -1      8040    3    0    1
 -2      2440      2409      2458      2758
 -1      8041    3    0    1
 -2      2503      1254      2584      2731
 -1      8042    3    0    1
 -2      1283      2245      2249      2766
 -1      8043    3    0    1
 -2      2650      2302      2377      1469
 -1      8044    3    0    1
 -2      2302      2650      1466      1469
 -1      8045    3    0    1
 -2      2614      1458      2717      2748
 -1      8046    3    0    1
 -2      2717      2456      2473      2474
 -1      8047    3    0    1
 -2      2083      2178      2549      2716
 -1      8048    3    0    1
 -2      1844      2047      2178      2716
 -1      8049    3    0    1
 -2      1513         1      1515      2462
 -1      8050    3    0    1
 -2      2408      2296      2747      2758
 -1      8051    3    0    1
 -2      2573      2595      2611      2696
 -1      8052    3    0    1
 -2      2611       375      1425      2696
 -1      8053    3    0    1
 -2      1425       375      1426      2696
 -1      8054    3    0    1
 -2       375      2611      2676      2696
 -1      8055    3    0    1
 -2      1426       375      2676      2696
 -1      8056    3    0    1
 -2       358      1421      2374      2697
 -1      8057    3    0    1
 -2      1344      2381      2443      2464
 -1      8058    3    0    1
 -2      2500      2547      2665      2718
 -1      8059    3    0    1
 -2      2698      2342      2410      2442
 -1      8060    3    0    1
 -2      1392      2340      2408      2409
 -1      8061    3    0    1
 -2      2559      1320      2618      2699
 -1      8062    3    0    1
 -2      1285      1387      2466      2766
 -1      8063    3    0    1
 -2      1230      1325      2642      2758
 -1      8064    3    0    1
 -2       388      1514      1521      2474
 -1      8065    3    0    1
 -2      2405      1449      2406      2435
 -1      8066    3    0    1
 -2       388         1      2757      2763
 -1      8067    3    0    1
 -2       388      1514      2748      2757
 -1      8068    3    0    1
 -2      1513      2698      2762      2763
 -1      8069    3    0    1
 -2      2698      2730      2762      2763
 -1      8070    3    0    1
 -2      2652      1459      2727      2729
 -1      8071    3    0    1
 -2      2655      2730      2748      2757
 -1      8072    3    0    1
 -2      1314      1322      2678      2699
 -1      8073    3    0    1
 -2      1322      1314      2677      2699
 -1      8074    3    0    1
 -2      2677      1314      2678      2699
 -1      8075    3    0    1
 -2      2650      2596      2657      2699
 -1      8076    3    0    1
 -2      1844      2083      2501      2716
 -1      8077    3    0    1
 -2      2532      2501      2704      2716
 -1      8078    3    0    1
 -2      1429      1421      1464      2699
 -1      8079    3    0    1
 -2      2650      2657      2697      2699
 -1      8080    3    0    1
 -2      1421      2650      2697      2699
 -1      8081    3    0    1
 -2      2501      2083      2549      2716
 -1      8082    3    0    1
 -2      1421       358      1464      2699
 -1      8083    3    0    1
 -2       358      1421      2697      2699
 -1      8084    3    0    1
 -2      2178      2047      2557      2716
 -1      8085    3    0    1
 -2      2526      2496      2600      2700
 -1      8086    3    0    1
 -2      1550      2109      2634      2700
 -1      8087    3    0    1
 -2      2109      1550      2496      2700
 -1      8088    3    0    1
 -2      2600      1374      2631      2700
 -1      8089    3    0    1
 -2      2526      2600      2631      2700
 -1      8090    3    0    1
 -2      1352      2151      2279      2700
 -1      8091    3    0    1
 -2      2151      1352      2320      2700
 -1      8092    3    0    1
 -2      1395      1352      2279      2700
 -1      8093    3    0    1
 -2      1352      1374      2320      2700
 -1      8094    3    0    1
 -2      2185      2151      2320      2700
 -1      8095    3    0    1
 -2      2549      2621      1437      2702
 -1      8096    3    0    1
 -2      2549      2594      2621      2702
 -1      8097    3    0    1
 -2      2594      2535      2621      2702
 -1      8098    3    0    1
 -2      2535      2594      2597      2702
 -1      8099    3    0    1
 -2      2723      1496      2646      2430
 -1      8100    3    0    1
 -2      2557      2549      1437      2702
 -1      8101    3    0    1
 -2      2549      2557      2594      2702
 -1      8102    3    0    1
 -2      2594      2557      1437      2702
 -1      8103    3    0    1
 -2      2364      2646      1496      2430
 -1      8104    3    0    1
 -2      1436      2627      2701      2708
 -1      8105    3    0    1
 -2      1436       112      1473      2708
 -1      8106    3    0    1
 -2      2594      2646      2364      2399
 -1      8107    3    0    1
 -2      2587      2652      2709      2724
 -1      8108    3    0    1
 -2      1290      1259      2637      2754
 -1      8109    3    0    1
 -2      2078      2482      2554      2703
 -1      8110    3    0    1
 -2      2078      2096      2482      2703
 -1      8111    3    0    1
 -2      2180      2175      2521      2703
 -1      8112    3    0    1
 -2      2180      2521      2199      2703
 -1      8113    3    0    1
 -2      2199      2521      2690      2703
 -1      8114    3    0    1
 -2      2180      2199      2555      2703
 -1      8115    3    0    1
 -2      2555      2199      2690      2703
 -1      8116    3    0    1
 -2      2078      2485      2371      2703
 -1      8117    3    0    1
 -2      2485      2078      2554      2703
 -1      8118    3    0    1
 -2      2157      2082      2555      2703
 -1      8119    3    0    1
 -2      1984      2157      2555      2703
 -1      8120    3    0    1
 -2      2143      2082      2157      2703
 -1      8121    3    0    1
 -2      2188      2180      2555      2703
 -1      8122    3    0    1
 -2      2082      2188      2555      2703
 -1      8123    3    0    1
 -2      2143      2175      2180      2703
 -1      8124    3    0    1
 -2      2082      2143      2180      2703
 -1      8125    3    0    1
 -2      2175      1984      2371      2703
 -1      8126    3    0    1
 -2      1984      2096      2371      2703
 -1      8127    3    0    1
 -2      2096      2078      2371      2703
 -1      8128    3    0    1
 -2      2157      1984      2175      2703
 -1      8129    3    0    1
 -2      2143      2157      2175      2703
 -1      8130    3    0    1
 -2      2082      2180      2188      2703
 -1      8131    3    0    1
 -2      1267      2510      1335      2704
 -1      8132    3    0    1
 -2      2510      1267      2558      2704
 -1      8133    3    0    1
 -2      2558      1267      1335      2704
 -1      8134    3    0    1
 -2      2539      2558      2582      2704
 -1      8135    3    0    1
 -2      2582      2558      1349      2704
 -1      8136    3    0    1
 -2      1335      1265      2290      2704
 -1      8137    3    0    1
 -2       352      2662      2672      1486
 -1      8138    3    0    1
 -2      1335      2290      2332      2704
 -1      8139    3    0    1
 -2      1349      1335      2332      2704
 -1      8140    3    0    1
 -2      2628      2605      2647      2733
 -1      8141    3    0    1
 -2      2588      2605      2653      2733
 -1      8142    3    0    1
 -2      2605      2628      2653      2733
 -1      8143    3    0    1
 -2      1402      2588      2653      2733
 -1      8144    3    0    1
 -2      2475      2478      2129      2705
 -1      8145    3    0    1
 -2       897      2475      2129      2705
 -1      8146    3    0    1
 -2      2518      1218      1257      2705
 -1      8147    3    0    1
 -2      2518      1257      2648      2705
 -1      8148    3    0    1
 -2      2623      2518      2648      2705
 -1      8149    3    0    1
 -2      1293      1257      2663      2705
 -1      8150    3    0    1
 -2      1257      1293      2648      2705
 -1      8151    3    0    1
 -2      1350      1413      2764      2470
 -1      8152    3    0    1
 -2      1223      2563      2687      2705
 -1      8153    3    0    1
 -2      2478       900      2129      2705
 -1      8154    3    0    1
 -2       900       897      2129      2705
 -1      8155    3    0    1
 -2      2599      2547      2603      2734
 -1      8156    3    0    1
 -2      2231      2568      2626      2736
 -1      8157    3    0    1
 -2      2644      2580      2736      2751
 -1      8158    3    0    1
 -2      2687      1350      2718      2764
 -1      8159    3    0    1
 -2       537       538       540      2706
 -1      8160    3    0    1
 -2      2305       737       537       739
 -1      8161    3    0    1
 -2      2717      1458      1516      2748
 -1      8162    3    0    1
 -2      2655      2569      2717      2748
 -1      8163    3    0    1
 -2      2730      2698      2748      2763
 -1      8164    3    0    1
 -2      2698      2655      2730      2748
 -1      8165    3    0    1
 -2      2296      1289      2340      2408
 -1      8166    3    0    1
 -2         1      1513      2762      2763
 -1      8167    3    0    1
 -2      2652      1375      1459      2729
 -1      8168    3    0    1
 -2       541      1000      2350      2706
 -1      8169    3    0    1
 -2      1435      2731      2749      2460
 -1      8170    3    0    1
 -2      1000      1261      2350      2706
 -1      8171    3    0    1
 -2      1230       998      2305      2706
 -1      8172    3    0    1
 -2       537       541      2350      2706
 -1      8173    3    0    1
 -2      2350      1261      2369      2706
 -1      8174    3    0    1
 -2       998       540      2305      2706
 -1      8175    3    0    1
 -2       737       537      2350      2706
 -1      8176    3    0    1
 -2       540       538      2305      2706
 -1      8177    3    0    1
 -2       737      2305       537      2706
 -1      8178    3    0    1
 -2       537      2305       739       538
 -1      8179    3    0    1
 -2      2687      2705      1262      2764
 -1      8180    3    0    1
 -2      2600      2627      1436      2708
 -1      8181    3    0    1
 -2      2627      2602      2658      2708
 -1      8182    3    0    1
 -2      1359      2602      2637      2708
 -1      8183    3    0    1
 -2      2602      1359      1389      2708
 -1      8184    3    0    1
 -2       112      1436      2701      2708
 -1      8185    3    0    1
 -2      2658       112      2701      2708
 -1      8186    3    0    1
 -2      2602      2600      2637      2708
 -1      8187    3    0    1
 -2      2600      2602      2627      2708
 -1      8188    3    0    1
 -2      2637      1436      2600      1290
 -1      8189    3    0    1
 -2      1436      2637      2600      2708
 -1      8190    3    0    1
 -2      2645      2587      2652      2709
 -1      8191    3    0    1
 -2      2679      1376      1463      2709
 -1      8192    3    0    1
 -2      2676       378      1454      2722
 -1      8193    3    0    1
 -2      2580      2626      2667      2745
 -1      8194    3    0    1
 -2      1464      1429      2699      2715
 -1      8195    3    0    1
 -2      1380      2679      1463      2737
 -1      8196    3    0    1
 -2      2657      2697      2699      2715
 -1      8197    3    0    1
 -2       355       107      2390      2714
 -1      8198    3    0    1
 -2      2304      1463      2724      2737
 -1      8199    3    0    1
 -2      1324      2338      1499      2437
 -1      8200    3    0    1
 -2      1460       351      1463      2709
 -1      8201    3    0    1
 -2      2738      2668      1518      2756
 -1      8202    3    0    1
 -2      2654      1324      1493      2437
 -1      8203    3    0    1
 -2      2341      1442      2385      2417
 -1      8204    3    0    1
 -2      2583      2209      2304      2737
 -1      8205    3    0    1
 -2      2587      2583      2724      2737
 -1      8206    3    0    1
 -2      2560      2212      2229      2765
 -1      8207    3    0    1
 -2      1463      2709      2724      2737
 -1      8208    3    0    1
 -2      1463      2679      2709      2737
 -1      8209    3    0    1
 -2      1279      2601      1380      2737
 -1      8210    3    0    1
 -2      2583      2304      2724      2737
 -1      8211    3    0    1
 -2      2612      1316      2696      2710
 -1      8212    3    0    1
 -2      1298      2612      2696      2710
 -1      8213    3    0    1
 -2      2533      1297      2573      2722
 -1      8214    3    0    1
 -2      2263      2226      2635      2710
 -1      8215    3    0    1
 -2      2226      2263      2266      2710
 -1      8216    3    0    1
 -2      1426      1298      2696      2710
 -1      8217    3    0    1
 -2      1316      1426      2696      2710
 -1      8218    3    0    1
 -2      2266      2263      2341      2710
 -1      8219    3    0    1
 -2      2213      2208      2579      2386
 -1      8220    3    0    1
 -2      1316      1315      2266      2710
 -1      8221    3    0    1
 -2      1315      2226      2266      2710
 -1      8222    3    0    1
 -2      2579      2208      1387      2386
 -1      8223    3    0    1
 -2      1235      1298      2263      2710
 -1      8224    3    0    1
 -2      2263      1298      2341      2710
 -1      8225    3    0    1
 -2      1364      2661      2689      2388
 -1      8226    3    0    1
 -2      1069      1067      2493      2712
 -1      8227    3    0    1
 -2      2670      2693      1494      2432
 -1      8228    3    0    1
 -2      1319      1411      1412      2433
 -1      8229    3    0    1
 -2      1412      1411      2402      2433
 -1      8230    3    0    1
 -2      2493      1220      2639      2712
 -1      8231    3    0    1
 -2      1067      1069      2262      2712
 -1      8232    3    0    1
 -2      1067      1220      2493      2712
 -1      8233    3    0    1
 -2      1069      2230      2262      2712
 -1      8234    3    0    1
 -2      2262      2220      2272      2712
 -1      8235    3    0    1
 -2      2272      2220      2313      2712
 -1      8236    3    0    1
 -2      2230      2220      2262      2712
 -1      8237    3    0    1
 -2      1443      1507      1518      2756
 -1      8238    3    0    1
 -2      1241      2269      2678      2391
 -1      8239    3    0    1
 -2      2639      1220      2387      2712
 -1      8240    3    0    1
 -2      2597      1307      2702      2746
 -1      8241    3    0    1
 -2      2296      2340      2706      2758
 -1      8242    3    0    1
 -2       437       390      2693      2432
 -1      8243    3    0    1
 -2      2668      2669      1518      2756
 -1      8244    3    0    1
 -2      1424       378      1454      2426
 -1      8245    3    0    1
 -2      1281      1275      2639      2712
 -1      8246    3    0    1
 -2      1356      2619      1443      2756
 -1      8247    3    0    1
 -2      1220      2262      2272      2712
 -1      8248    3    0    1
 -2      1220      1067      2262      2712
 -1      8249    3    0    1
 -2      2670      2312      2403      2432
 -1      8250    3    0    1
 -2      1220      2272      2387      2712
 -1      8251    3    0    1
 -2      1497      1521      2473      2474
 -1      8252    3    0    1
 -2      1275      1281      2313      2712
 -1      8253    3    0    1
 -2      1315      2560      2614      2713
 -1      8254    3    0    1
 -2      2547      2603      2615      2718
 -1      8255    3    0    1
 -2      1315      2614      1458      2713
 -1      8256    3    0    1
 -2      1141      1638      2546      2713
 -1      8257    3    0    1
 -2      1141      1139      1638      2713
 -1      8258    3    0    1
 -2      1249      2500      2665      2718
 -1      8259    3    0    1
 -2        41      1413      1475      2718
 -1      8260    3    0    1
 -2      2503      1139      1253      2713
 -1      8261    3    0    1
 -2      1253      1139      2635      2713
 -1      8262    3    0    1
 -2      2547      2514      2603      2718
 -1      8263    3    0    1
 -2      2615      2603      1413      2718
 -1      8264    3    0    1
 -2      2603      1350      1413      2718
 -1      8265    3    0    1
 -2      1139      1141      2635      2713
 -1      8266    3    0    1
 -2      1141      2546      2710      2713
 -1      8267    3    0    1
 -2      2635      1141      2710      2713
 -1      8268    3    0    1
 -2      1638      2097      2183      2713
 -1      8269    3    0    1
 -2      1944      1844      2060      2716
 -1      8270    3    0    1
 -2      2557      2198      2364      2716
 -1      8271    3    0    1
 -2      1437      2557      2364      2716
 -1      8272    3    0    1
 -2      2083      1844      2178      2716
 -1      8273    3    0    1
 -2      2047      1944      2152      2716
 -1      8274    3    0    1
 -2      2047      2152      2198      2716
 -1      8275    3    0    1
 -2      2152      2060      2187      2716
 -1      8276    3    0    1
 -2      1265      2152      2290      2716
 -1      8277    3    0    1
 -2      2152      1265      2364      2716
 -1      8278    3    0    1
 -2      1944      2060      2152      2716
 -1      8279    3    0    1
 -2      2198      2152      2364      2716
 -1      8280    3    0    1
 -2      1265      1437      2364      2716
 -1      8281    3    0    1
 -2      1420      2450      2452      2468
 -1      8282    3    0    1
 -2      1315      2710      2713      2717
 -1      8283    3    0    1
 -2      1280      2554      2689      2759
 -1      8284    3    0    1
 -2      2466      1387      2472      2766
 -1      8285    3    0    1
 -2      1254      2503      2569      2731
 -1      8286    3    0    1
 -2      1315      2635      2710      2717
 -1      8287    3    0    1
 -2      2635      1253      2713      2717
 -1      8288    3    0    1
 -2      2710      2635      2713      2717
 -1      8289    3    0    1
 -2      2584      2503      2731      2765
 -1      8290    3    0    1
 -2      2615        41      2665      2718
 -1      8291    3    0    1
 -2        41      2615      1413      2718
 -1      8292    3    0    1
 -2      1350      2514      2687      2718
 -1      8293    3    0    1
 -2      2514      1350      2603      2718
 -1      8294    3    0    1
 -2       349      2727      2729      2735
 -1      8295    3    0    1
 -2      2668      2579      2386      2453
 -1      8296    3    0    1
 -2      2200      2523      2586      2719
 -1      8297    3    0    1
 -2      2675       390      2693      1490
 -1      8298    3    0    1
 -2       390       437      2693      1490
 -1      8299    3    0    1
 -2      1275      2639      2712      2719
 -1      8300    3    0    1
 -2      1470      1392      2409      2440
 -1      8301    3    0    1
 -2      2687      1223      2705      2764
 -1      8302    3    0    1
 -2      1352      2631      2634      2747
 -1      8303    3    0    1
 -2      1375      2652      1459      2727
 -1      8304    3    0    1
 -2       349       351      1460      2727
 -1      8305    3    0    1
 -2      1459       349      1460      2727
 -1      8306    3    0    1
 -2      2639      1281      2712      2414
 -1      8307    3    0    1
 -2      1290      2637      1436      2423
 -1      8308    3    0    1
 -2      2654      1400      2338      1493
 -1      8309    3    0    1
 -2      1436      2637      2708      2423
 -1      8310    3    0    1
 -2      2637      1359      2708      2423
 -1      8311    3    0    1
 -2      1400      2593      2299      1493
 -1      8312    3    0    1
 -2      2299      2593      2670      1493
 -1      8313    3    0    1
 -2      1359      2637      2404      2423
 -1      8314    3    0    1
 -2      2637      1290      2383      2423
 -1      8315    3    0    1
 -2      2631      2506      2634      2747
 -1      8316    3    0    1
 -2      1359      1389      2708      2423
 -1      8317    3    0    1
 -2      2639      1281      2694      2719
 -1      8318    3    0    1
 -2      2476      2493      2639      2719
 -1      8319    3    0    1
 -2      2488      2476      2639      2719
 -1      8320    3    0    1
 -2      2476      2488      2683      2719
 -1      8321    3    0    1
 -2      2493      2476      2683      2719
 -1      8322    3    0    1
 -2      2511      2062      2542      2719
 -1      8323    3    0    1
 -2      2181      2523      2200      2719
 -1      8324    3    0    1
 -2      2200      2586      2694      2719
 -1      8325    3    0    1
 -2      1281      2200      2694      2719
 -1      8326    3    0    1
 -2      2542      2181      2300      2719
 -1      8327    3    0    1
 -2      1734      2523      2542      2719
 -1      8328    3    0    1
 -2      2062      1734      2542      2719
 -1      8329    3    0    1
 -2      1734      2062      2523      2719
 -1      8330    3    0    1
 -2      1275      2181      2200      2719
 -1      8331    3    0    1
 -2      1281      1275      2200      2719
 -1      8332    3    0    1
 -2      2181      1275      2300      2719
 -1      8333    3    0    1
 -2       207      1438      1447      2726
 -1      8334    3    0    1
 -2       207      1447      2681      2726
 -1      8335    3    0    1
 -2      1232      2548      2639      2726
 -1      8336    3    0    1
 -2      2681      1447      2694      2726
 -1      8337    3    0    1
 -2      1312      1424      1454      2426
 -1      8338    3    0    1
 -2      2617      1332      1438      2726
 -1      8339    3    0    1
 -2      1281      2639      2694      2726
 -1      8340    3    0    1
 -2      1447      1281      2694      2726
 -1      8341    3    0    1
 -2      2344      1229      2347      2450
 -1      8342    3    0    1
 -2      2668      2386      1510      2453
 -1      8343    3    0    1
 -2      2561      1284      2644      2743
 -1      8344    3    0    1
 -2      1481      1495      1512      2454
 -1      8345    3    0    1
 -2      1417      2363      2420      2451
 -1      8346    3    0    1
 -2      2724      2709      2412      2735
 -1      8347    3    0    1
 -2      2709      2652      2727      2735
 -1      8348    3    0    1
 -2      2259      1255      2268      2396
 -1      8349    3    0    1
 -2      2280      1386      1491      2396
 -1      8350    3    0    1
 -2      2268      1386      2280      2396
 -1      8351    3    0    1
 -2      1255      1386      2268      2396
 -1      8352    3    0    1
 -2      1324      1394      2638      2742
 -1      8353    3    0    1
 -2      2638      1394      2675      2742
 -1      8354    3    0    1
 -2      1324      2638      2654      2742
 -1      8355    3    0    1
 -2      2610      2638      2675      2742
 -1      8356    3    0    1
 -2      2582      2292      2356      2720
 -1      8357    3    0    1
 -2      2582      2532      2292      2720
 -1      8358    3    0    1
 -2      2197      2532      2309      2720
 -1      8359    3    0    1
 -2      2532      2197      2292      2720
 -1      8360    3    0    1
 -2      1346      1407      2309      2720
 -1      8361    3    0    1
 -2      2593      2670      1493      2742
 -1      8362    3    0    1
 -2      2309      1407      2356      2720
 -1      8363    3    0    1
 -2      2292      2309      2356      2720
 -1      8364    3    0    1
 -2      2610      2593      2654      2742
 -1      8365    3    0    1
 -2      2292      2197      2309      2720
 -1      8366    3    0    1
 -2      2668      2619      2669      2721
 -1      8367    3    0    1
 -2      2597      2646      2691      2746
 -1      8368    3    0    1
 -2      2598      2564      2619      2721
 -1      8369    3    0    1
 -2      2619      2564      2669      2721
 -1      8370    3    0    1
 -2      1348      2651      1488      2451
 -1      8371    3    0    1
 -2      1420      1229      2344      2450
 -1      8372    3    0    1
 -2      1282      1356      2384      2721
 -1      8373    3    0    1
 -2      2258      2218      2260      2754
 -1      8374    3    0    1
 -2      2723       372      2430      2455
 -1      8375    3    0    1
 -2      2625      1388      1495      2427
 -1      8376    3    0    1
 -2      2625      1495      2626      2745
 -1      8377    3    0    1
 -2      1382      2580      2667      2745
 -1      8378    3    0    1
 -2      1382      2667      1481      2745
 -1      8379    3    0    1
 -2      2646      2594      1496      2746
 -1      8380    3    0    1
 -2      1416      2691      1480      2746
 -1      8381    3    0    1
 -2      1430      2618      2715      2740
 -1      8382    3    0    1
 -2       862      2314      2317      2749
 -1      8383    3    0    1
 -2      2249      2238      2466      2766
 -1      8384    3    0    1
 -2      1482       107      1483      2416
 -1      8385    3    0    1
 -2      1395      2583      2279      2724
 -1      8386    3    0    1
 -2      2631      1360      2747      2444
 -1      8387    3    0    1
 -2      1261      2369      2747      2444
 -1      8388    3    0    1
 -2      2279      2304      2365      2724
 -1      8389    3    0    1
 -2      2630      1347      1433      2759
 -1      8390    3    0    1
 -2      2250      2306      2689      2759
 -1      8391    3    0    1
 -2      2279      2365      1471      2724
 -1      8392    3    0    1
 -2      1395      2279      1471      2724
 -1      8393    3    0    1
 -2      2375      1448      2378      2411
 -1      8394    3    0    1
 -2      2270      1422      2345      2425
 -1      8395    3    0    1
 -2      2314      2278      2317      2749
 -1      8396    3    0    1
 -2      1393      1323      2638      2725
 -1      8397    3    0    1
 -2      2610      2593      2670      2725
 -1      8398    3    0    1
 -2      1507       379      1518      2756
 -1      8399    3    0    1
 -2      1440      1456      2401      2402
 -1      8400    3    0    1
 -2      2593      2610      2622      2725
 -1      8401    3    0    1
 -2      2622      2610      2649      2725
 -1      8402    3    0    1
 -2      2610      2670      2693      2725
 -1      8403    3    0    1
 -2      2693      2670      1494      2725
 -1      8404    3    0    1
 -2       390      2693      1494      2725
 -1      8405    3    0    1
 -2       390      2675      2725      1489
 -1      8406    3    0    1
 -2      1489       390      1494      2725
 -1      8407    3    0    1
 -2      2738       379      1518      2469
 -1      8408    3    0    1
 -2      1397      2622      2649      2725
 -1      8409    3    0    1
 -2      2593      2622      1397      2725
 -1      8410    3    0    1
 -2      1397      2670      2725      1494
 -1      8411    3    0    1
 -2      2617       207      2681      2726
 -1      8412    3    0    1
 -2       207      2617      1438      2726
 -1      8413    3    0    1
 -2      2714      1483      2736      2751
 -1      8414    3    0    1
 -2      1356      1518      2721      2756
 -1      8415    3    0    1
 -2      2712      2236      1069      2230
 -1      8416    3    0    1
 -2      2668      2619      2721      2756
 -1      8417    3    0    1
 -2      2434      1466      2457      2755
 -1      8418    3    0    1
 -2      2619      1356      2721      2756
 -1      8419    3    0    1
 -2      2711      2668      2738      2756
 -1      8420    3    0    1
 -2      1376      1459      1460      2727
 -1      8421    3    0    1
 -2      1376      1375      1459      2727
 -1      8422    3    0    1
 -2      1261      2506      2631      2747
 -1      8423    3    0    1
 -2      2617       218      2728      2681
 -1      8424    3    0    1
 -2      1333      1439      1461      2728
 -1      8425    3    0    1
 -2      2617      2640      2681      2728
 -1      8426    3    0    1
 -2      1233      2548      1333      2728
 -1      8427    3    0    1
 -2      1334      2616      2284      2406
 -1      8428    3    0    1
 -2       218      1439      1461      2406
 -1      8429    3    0    1
 -2      1427      1450      1486      2436
 -1      8430    3    0    1
 -2      1449      1381      2405      2406
 -1      8431    3    0    1
 -2      1363      2391      2415      2436
 -1      8432    3    0    1
 -2      1461      2681      2640      2728
 -1      8433    3    0    1
 -2       218      2681      1461      2728
 -1      8434    3    0    1
 -2      1439       218      1461      2728
 -1      8435    3    0    1
 -2      1233      1461      2435      2406
 -1      8436    3    0    1
 -2      1427      1363      1450      2436
 -1      8437    3    0    1
 -2      1233      2406      2435      2405
 -1      8438    3    0    1
 -2      2631      1374      1462      2407
 -1      8439    3    0    1
 -2      1360      2631      1462      2445
 -1      8440    3    0    1
 -2      2270      2680      2354      2760
 -1      8441    3    0    1
 -2      2352      2296      2369      2747
 -1      8442    3    0    1
 -2       389      1403      1476      2439
 -1      8443    3    0    1
 -2      1289      1392      2340      2408
 -1      8444    3    0    1
 -2      2645      1375      2652      2729
 -1      8445    3    0    1
 -2      2587      2645      2652      2729
 -1      8446    3    0    1
 -2      2587      2652      2724      2729
 -1      8447    3    0    1
 -2      2654      1248      2316      2749
 -1      8448    3    0    1
 -2      1325      1375      2645      2729
 -1      8449    3    0    1
 -2      2387      2639      2712      2414
 -1      8450    3    0    1
 -2      1459       349      2727      2729
 -1      8451    3    0    1
 -2       349      1459      1471      2729
 -1      8452    3    0    1
 -2      2583      2587      2724      2729
 -1      8453    3    0    1
 -2      2583      1395      2642      2729
 -1      8454    3    0    1
 -2      2587      2583      2642      2729
 -1      8455    3    0    1
 -2      1395      2583      2724      2729
 -1      8456    3    0    1
 -2      1471      1395      2724      2729
 -1      8457    3    0    1
 -2      1444      1510      2753      2766
 -1      8458    3    0    1
 -2      1510      1444      2467      2766
 -1      8459    3    0    1
 -2      1379      2569      2655      2731
 -1      8460    3    0    1
 -2      1291      1435      2749      2460
 -1      8461    3    0    1
 -2      2459      2698      2442      2763
 -1      8462    3    0    1
 -2      2226      2277      2635      2431
 -1      8463    3    0    1
 -2      2698      2459      2442      2410
 -1      8464    3    0    1
 -2      1458      2698      1516      2748
 -1      8465    3    0    1
 -2      1516      2698      2459      2763
 -1      8466    3    0    1
 -2      2698      1516      2748      2763
 -1      8467    3    0    1
 -2       388      1514      1516      2748
 -1      8468    3    0    1
 -2      1315      2635      2717      2431
 -1      8469    3    0    1
 -2      2448      2384      1520      2471
 -1      8470    3    0    1
 -2      2569      2655      2698      2748
 -1      8471    3    0    1
 -2      1421      1429      1464      2411
 -1      8472    3    0    1
 -2      1320      1421      2707      2411
 -1      8473    3    0    1
 -2      2378      1320      2707      2411
 -1      8474    3    0    1
 -2      1322      2375      2707      2411
 -1      8475    3    0    1
 -2      1421      1322      2707      2411
 -1      8476    3    0    1
 -2       358      1421      1464      2411
 -1      8477    3    0    1
 -2      1472      1429      2378      2411
 -1      8478    3    0    1
 -2      1448      1472      2378      2411
 -1      8479    3    0    1
 -2      1429      1320      2378      2411
 -1      8480    3    0    1
 -2      1464      1429      1472      2411
 -1      8481    3    0    1
 -2       358      1464      1472      2411
 -1      8482    3    0    1
 -2      2631      1462      2600      2732
 -1      8483    3    0    1
 -2      2600      2602      2631      2732
 -1      8484    3    0    1
 -2      2602      2600      2627      2732
 -1      8485    3    0    1
 -2       353      1462      1474      2732
 -1      8486    3    0    1
 -2      1462       353      2701      2732
 -1      8487    3    0    1
 -2      2658       353      1474      2732
 -1      8488    3    0    1
 -2       353      2658      2701      2732
 -1      8489    3    0    1
 -2      1356      1443      2384      2471
 -1      8490    3    0    1
 -2      2407      2631      2747      2444
 -1      8491    3    0    1
 -2      1360      1261      2747      2444
 -1      8492    3    0    1
 -2      1443      1518      1356      2756
 -1      8493    3    0    1
 -2      2628       234      2653      2733
 -1      8494    3    0    1
 -2      2346      2335      2382      2733
 -1      8495    3    0    1
 -2       371      2346      2382      2733
 -1      8496    3    0    1
 -2       234       371      2382      2733
 -1      8497    3    0    1
 -2      1402       234      2382      2733
 -1      8498    3    0    1
 -2      2335      1402      2382      2733
 -1      8499    3    0    1
 -2      2445      1390      1360      2444
 -1      8500    3    0    1
 -2      2615      2547      2665      2734
 -1      8501    3    0    1
 -2       389      2665      1476      2734
 -1      8502    3    0    1
 -2      1403       389      1476      2734
 -1      8503    3    0    1
 -2      2500      1250      2665      2734
 -1      8504    3    0    1
 -2      1250      2500      2599      2734
 -1      8505    3    0    1
 -2      2603      2547      2615      2734
 -1      8506    3    0    1
 -2      2603      2615      1403      2734
 -1      8507    3    0    1
 -2       389      2615      2665      2734
 -1      8508    3    0    1
 -2      2615       389      1403      2734
 -1      8509    3    0    1
 -2         1       388      2459      2763
 -1      8510    3    0    1
 -2      1452      1406      2395      2413
 -1      8511    3    0    1
 -2        70      1406      1452      2413
 -1      8512    3    0    1
 -2      2652      2724      2729      2735
 -1      8513    3    0    1
 -2      2727      2652      2729      2735
 -1      8514    3    0    1
 -2       351       349      2412      2735
 -1      8515    3    0    1
 -2       349      1471      2412      2735
 -1      8516    3    0    1
 -2       107      1483      2714      2751
 -1      8517    3    0    1
 -2      2667      1383      1482      2751
 -1      8518    3    0    1
 -2      1458      2717      1516      2474
 -1      8519    3    0    1
 -2      1467      1378      2473      2474
 -1      8520    3    0    1
 -2      1482      1383      1483      2751
 -1      8521    3    0    1
 -2      1483      2644      2736      2751
 -1      8522    3    0    1
 -2      1308      2272      2313      2414
 -1      8523    3    0    1
 -2       107      1482      1483      2751
 -1      8524    3    0    1
 -2      2272      1399      2387      2414
 -1      8525    3    0    1
 -2      2667      2714      2736      2751
 -1      8526    3    0    1
 -2      2272      1308      1399      2414
 -1      8527    3    0    1
 -2      2231      2626      2343      2736
 -1      8528    3    0    1
 -2      2532      2187      2422      2752
 -1      8529    3    0    1
 -2      2524      2075      2743      2752
 -1      8530    3    0    1
 -2      2671      2626      2714      2736
 -1      8531    3    0    1
 -2      1483      2671      2714      2736
 -1      8532    3    0    1
 -2      2501      1844      2716      2752
 -1      8533    3    0    1
 -2      2343      2626      2671      2736
 -1      8534    3    0    1
 -2      2343      2671      1483      2736
 -1      8535    3    0    1
 -2      1396      2231      1483      2736
 -1      8536    3    0    1
 -2      2231      2343      1483      2736
 -1      8537    3    0    1
 -2      2528      2082      2209      2737
 -1      8538    3    0    1
 -2      2082      2528      2556      2737
 -1      8539    3    0    1
 -2      2583      2543      2601      2737
 -1      8540    3    0    1
 -2      2543      2583      2587      2737
 -1      8541    3    0    1
 -2      2543      2587      2679      2737
 -1      8542    3    0    1
 -2      2601      2543      2679      2737
 -1      8543    3    0    1
 -2      1279      1380      2304      2737
 -1      8544    3    0    1
 -2      2209      1279      2304      2737
 -1      8545    3    0    1
 -2      2304      1380      1463      2737
 -1      8546    3    0    1
 -2      2082      1279      2209      2737
 -1      8547    3    0    1
 -2      2651      1348      2420      2451
 -1      8548    3    0    1
 -2      2060      2568      2743      2752
 -1      8549    3    0    1
 -2       440       379      2711      2738
 -1      8550    3    0    1
 -2      1379      2655      1468      2762
 -1      8551    3    0    1
 -2      2450      2376      2452      2761
 -1      8552    3    0    1
 -2      1483      2416      2425      2760
 -1      8553    3    0    1
 -2       379      2711      1507      1508
 -1      8554    3    0    1
 -2       379       440      2711      1508
 -1      8555    3    0    1
 -2      2711       440      2753      1508
 -1      8556    3    0    1
 -2      2501      2532      2720      2752
 -1      8557    3    0    1
 -2      2568      2524      2743      2752
 -1      8558    3    0    1
 -2      2146      2524      2568      2752
 -1      8559    3    0    1
 -2       379      2711      2756      1507
 -1      8560    3    0    1
 -2      1844      2060      2716      2752
 -1      8561    3    0    1
 -2      2720      2532      2422      2752
 -1      8562    3    0    1
 -2      1435      2731      2762      2765
 -1      8563    3    0    1
 -2      2579      2668      2449      2453
 -1      8564    3    0    1
 -2       440      2738      1510      2453
 -1      8565    3    0    1
 -2      2083      1844      2501      2752
 -1      8566    3    0    1
 -2      2216      2248      2297      2418
 -1      8567    3    0    1
 -2      1321      2618      1430      2740
 -1      8568    3    0    1
 -2      2618      2596      2657      2740
 -1      8569    3    0    1
 -2      1465      1430      2715      2740
 -1      8570    3    0    1
 -2      2248      1265      2621      2418
 -1      8571    3    0    1
 -2      2248      2621      2297      2418
 -1      8572    3    0    1
 -2      2621      1265      1437      2418
 -1      8573    3    0    1
 -2      2695      1430      1466      2740
 -1      8574    3    0    1
 -2      2621      1244      2297      2418
 -1      8575    3    0    1
 -2      2621      1437      2702      2418
 -1      8576    3    0    1
 -2      2657      1469      2715      2740
 -1      8577    3    0    1
 -2      1469      1465      2715      2740
 -1      8578    3    0    1
 -2      2618      1321      2695      2740
 -1      8579    3    0    1
 -2      1228      2297      1477      2418
 -1      8580    3    0    1
 -2      2650      1466      1469      2740
 -1      8581    3    0    1
 -2      1430      1465      1469      2740
 -1      8582    3    0    1
 -2      2522      2564      2598      2739
 -1      8583    3    0    1
 -2       625       624      2541      2739
 -1      8584    3    0    1
 -2       624       625      1123      2739
 -1      8585    3    0    1
 -2      1123       625      2541      2739
 -1      8586    3    0    1
 -2      2487      2127      2546      2739
 -1      8587    3    0    1
 -2      2127      1121      2546      2739
 -1      8588    3    0    1
 -2      2546      1121      2585      2739
 -1      8589    3    0    1
 -2      2487      2546      2585      2739
 -1      8590    3    0    1
 -2      2564      2669      2721      2739
 -1      8591    3    0    1
 -2      2598      2564      2721      2739
 -1      8592    3    0    1
 -2      2007      2065      2136      2739
 -1      8593    3    0    1
 -2      2065      2007      2127      2739
 -1      8594    3    0    1
 -2      1469      2657      2650      2740
 -1      8595    3    0    1
 -2      2559      2618      2695      2740
 -1      8596    3    0    1
 -2      2596      2559      2695      2740
 -1      8597    3    0    1
 -2      2559      2596      2618      2740
 -1      8598    3    0    1
 -2      2632      2596      2695      2740
 -1      8599    3    0    1
 -2      2596      2632      1398      2740
 -1      8600    3    0    1
 -2      1398      2632      2695      2740
 -1      8601    3    0    1
 -2      2293      1417      2363      2420
 -1      8602    3    0    1
 -2      2293      1236      1417      2420
 -1      8603    3    0    1
 -2        57      1479      1488      2741
 -1      8604    3    0    1
 -2      2597      2594      2651      2741
 -1      8605    3    0    1
 -2      2594      2597      2646      2741
 -1      8606    3    0    1
 -2      2651      1488      2594      1348
 -1      8607    3    0    1
 -2      1488      2651      2594      2741
 -1      8608    3    0    1
 -2      1376      1460      1491      2421
 -1      8609    3    0    1
 -2      1460       351      1491      2421
 -1      8610    3    0    1
 -2      2532      2187      2720      2422
 -1      8611    3    0    1
 -2      1424      1312      1451      2426
 -1      8612    3    0    1
 -2      2246      1121      2286      2744
 -1      8613    3    0    1
 -2      1451      1312      2397      2426
 -1      8614    3    0    1
 -2       378      1424      1451      2426
 -1      8615    3    0    1
 -2      2232      2258      2283      2754
 -1      8616    3    0    1
 -2      2721      1282      2739      2744
 -1      8617    3    0    1
 -2      1312      1297      2397      2426
 -1      8618    3    0    1
 -2      1123      1121      2739      2744
 -1      8619    3    0    1
 -2      1121      1123      2286      2744
 -1      8620    3    0    1
 -2      2202      2568      2231      2422
 -1      8621    3    0    1
 -2      2202      2060      2568      2422
 -1      8622    3    0    1
 -2      1121      2585      2739      2744
 -1      8623    3    0    1
 -2      1453      2358      2721      2744
 -1      8624    3    0    1
 -2      1493      2654      2593      2742
 -1      8625    3    0    1
 -2      1492      1389      2404      2423
 -1      8626    3    0    1
 -2      1478      1492      2404      2423
 -1      8627    3    0    1
 -2      1473      1389      1492      2423
 -1      8628    3    0    1
 -2       112      1473      1492      2423
 -1      8629    3    0    1
 -2      1389      1359      2404      2423
 -1      8630    3    0    1
 -2      1439      1461      2406      2435
 -1      8631    3    0    1
 -2      1333      1461      1233      2728
 -1      8632    3    0    1
 -2      1441      2236      2400      2424
 -1      8633    3    0    1
 -2      1321      2695      2434      2755
 -1      8634    3    0    1
 -2      2220      2313      2712      2755
 -1      8635    3    0    1
 -2      1274      2236      1441      2424
 -1      8636    3    0    1
 -2      1323      1247      2649      2761
 -1      8637    3    0    1
 -2      2449      2738      2453      2668
 -1      8638    3    0    1
 -2      1357      1444      2711      2753
 -1      8639    3    0    1
 -2      2668      2738      1510      2753
 -1      8640    3    0    1
 -2      2668      2711      2738      2753
 -1      8641    3    0    1
 -2      2711      1444      1508      2753
 -1      8642    3    0    1
 -2       390      1489      1494      2468
 -1      8643    3    0    1
 -2      2568      2524      2736      2743
 -1      8644    3    0    1
 -2      1396      2568      2736      2743
 -1      8645    3    0    1
 -2      2568      2231      2422      2743
 -1      8646    3    0    1
 -2      2231      2568      1396      2743
 -1      8647    3    0    1
 -2      2213      2579      1518      2449
 -1      8648    3    0    1
 -2      1420      2344      2376      2450
 -1      8649    3    0    1
 -2      1284      1396      2644      2743
 -1      8650    3    0    1
 -2      2644      1396      2736      2743
 -1      8651    3    0    1
 -2      2524      2520      2534      2743
 -1      8652    3    0    1
 -2      2534      2520      2644      2743
 -1      8653    3    0    1
 -2      2524      2534      2736      2743
 -1      8654    3    0    1
 -2      2736      2534      2644      2743
 -1      8655    3    0    1
 -2      2534      2736      2644      2580
 -1      8656    3    0    1
 -2      1396      1284      2422      2743
 -1      8657    3    0    1
 -2      2231      1396      2422      2743
 -1      8658    3    0    1
 -2      1282      1123      2739      2744
 -1      8659    3    0    1
 -2      2397      2349      2426      2744
 -1      8660    3    0    1
 -2      1297      2397      2426      2744
 -1      8661    3    0    1
 -2      1367      2585      2722      2744
 -1      8662    3    0    1
 -2      2585      1297      2722      2744
 -1      8663    3    0    1
 -2      1454      1297      2426      2744
 -1      8664    3    0    1
 -2      1454      1367      2722      2744
 -1      8665    3    0    1
 -2      1297      1454      2722      2744
 -1      8666    3    0    1
 -2      2286      1282      2311      2744
 -1      8667    3    0    1
 -2      1234      2285      2397      2744
 -1      8668    3    0    1
 -2      1227      2325      2358      2744
 -1      8669    3    0    1
 -2      2325      2282      2358      2744
 -1      8670    3    0    1
 -2      2325      1367      2349      2744
 -1      8671    3    0    1
 -2      1227      1367      2325      2744
 -1      8672    3    0    1
 -2      1234      1121      2285      2744
 -1      8673    3    0    1
 -2      1123      1282      2286      2744
 -1      8674    3    0    1
 -2      1297      1234      2397      2744
 -1      8675    3    0    1
 -2      1227      2358      1453      2744
 -1      8676    3    0    1
 -2      1121      2246      2285      2744
 -1      8677    3    0    1
 -2      2349      1367      2426      2744
 -1      8678    3    0    1
 -2      1367      1454      2426      2744
 -1      8679    3    0    1
 -2      1353      1402      1369      2367
 -1      8680    3    0    1
 -2      1307      2429      1416      2428
 -1      8681    3    0    1
 -2      1496      2702      2594      1437
 -1      8682    3    0    1
 -2      2702      1496      2594      2746
 -1      8683    3    0    1
 -2      2594      2597      2702      2746
 -1      8684    3    0    1
 -2      2597      2594      2646      2746
 -1      8685    3    0    1
 -2      1480       372      1496      2746
 -1      8686    3    0    1
 -2      1496       372      2723      2746
 -1      8687    3    0    1
 -2      2730      2757      2762      2763
 -1      8688    3    0    1
 -2      2698      1513      2442      2763
 -1      8689    3    0    1
 -2      2460      2461      1501      2462
 -1      8690    3    0    1
 -2      1458      1315      2717      2431
 -1      8691    3    0    1
 -2      2635      1315      2710      2431
 -1      8692    3    0    1
 -2      2226      2635      2710      2431
 -1      8693    3    0    1
 -2      1315      2226      2710      2431
 -1      8694    3    0    1
 -2      2669      2668      2721      2756
 -1      8695    3    0    1
 -2      1465      1469      1500      2457
 -1      8696    3    0    1
 -2      1467      2717      1516      2748
 -1      8697    3    0    1
 -2      1411       361      2402      2433
 -1      8698    3    0    1
 -2       361      1456      2402      2433
 -1      8699    3    0    1
 -2      2236      2220      2712      2755
 -1      8700    3    0    1
 -2      2695      1271      2712      2755
 -1      8701    3    0    1
 -2      2236      2400      2424      2755
 -1      8702    3    0    1
 -2      2400      2434      2457      2755
 -1      8703    3    0    1
 -2      2313      1275      2712      2755
 -1      8704    3    0    1
 -2      2220      2236      2424      2755
 -1      8705    3    0    1
 -2      1363      1450      2415      2673
 -1      8706    3    0    1
 -2      1450      1363      2415      2436
 -1      8707    3    0    1
 -2      2506      2706      2634      2747
 -1      8708    3    0    1
 -2      1498      1450      2415      2436
 -1      8709    3    0    1
 -2      1434      1498      2415      2436
 -1      8710    3    0    1
 -2      1486      1450      1498      2436
 -1      8711    3    0    1
 -2       352      1486      1498      2436
 -1      8712    3    0    1
 -2      1394      1324      1499      2437
 -1      8713    3    0    1
 -2      1490      1394      1499      2437
 -1      8714    3    0    1
 -2       437      1490      1499      2437
 -1      8715    3    0    1
 -2      1453      2721      2448      1518
 -1      8716    3    0    1
 -2      2352      2369      2407      2747
 -1      8717    3    0    1
 -2      1352      1374      2631      2747
 -1      8718    3    0    1
 -2      1418      2257      2368      2438
 -1      8719    3    0    1
 -2      1459       349      1471      2458
 -1      8720    3    0    1
 -2      1261      2369      2706      2747
 -1      8721    3    0    1
 -2      2446      2333      2463      2764
 -1      8722    3    0    1
 -2      1360      1261      2631      2747
 -1      8723    3    0    1
 -2      2257      1418      2372      2438
 -1      8724    3    0    1
 -2      1476      1331      1504      2439
 -1      8725    3    0    1
 -2      1331      2372      1504      2439
 -1      8726    3    0    1
 -2      2372      1418      1504      2439
 -1      8727    3    0    1
 -2       389      1476      1504      2439
 -1      8728    3    0    1
 -2      2706      1261      2506      1000
 -1      8729    3    0    1
 -2       900      2295      2663      2764
 -1      8730    3    0    1
 -2      2369      2706      2296      2350
 -1      8731    3    0    1
 -2      2706      2369      2296      2747
 -1      8732    3    0    1
 -2      2731      2441      2749      2460
 -1      8733    3    0    1
 -2      1435      2731      2460      2462
 -1      8734    3    0    1
 -2      2706      2506       998      1000
 -1      8735    3    0    1
 -2      1261      2706      2506      2747
 -1      8736    3    0    1
 -2      1251      2315      1501      2460
 -1      8737    3    0    1
 -2      2731      1435      1513      2462
 -1      8738    3    0    1
 -2      1374      2352      2407      2747
 -1      8739    3    0    1
 -2      1374      1352      2352      2747
 -1      8740    3    0    1
 -2      1462      2631      2407      2445
 -1      8741    3    0    1
 -2      2352      1352      2408      2747
 -1      8742    3    0    1
 -2      2296      2352      2408      2747
 -1      8743    3    0    1
 -2      2698      2410      1516      2459
 -1      8744    3    0    1
 -2      2460      2731      2461      2462
 -1      8745    3    0    1
 -2      1378      1467      2717      1516
 -1      8746    3    0    1
 -2      2400      1441      2424      2457
 -1      8747    3    0    1
 -2      1500      2400      2434      2457
 -1      8748    3    0    1
 -2      1518      2721      2669      1453
 -1      8749    3    0    1
 -2      1430      1466      1469      2457
 -1      8750    3    0    1
 -2      1518      1356      2721      2448
 -1      8751    3    0    1
 -2      1443      2619      2711      2756
 -1      8752    3    0    1
 -2      1378      2655      2717      2748
 -1      8753    3    0    1
 -2      2655      1378      1467      2748
 -1      8754    3    0    1
 -2      1467      1378      2717      2748
 -1      8755    3    0    1
 -2      2569      2614      2717      2748
 -1      8756    3    0    1
 -2      2614      2569      2698      2748
 -1      8757    3    0    1
 -2      2295      2301      2663      2764
 -1      8758    3    0    1
 -2      2731      1513      2461      2462
 -1      8759    3    0    1
 -2      1438      1332      2447      2465
 -1      8760    3    0    1
 -2      1239      1034      2554      2759
 -1      8761    3    0    1
 -2      2461      2460      1501      2441
 -1      8762    3    0    1
 -2      2294      1344      2381      2443
 -1      8763    3    0    1
 -2      2584      1291      2731      2749
 -1      8764    3    0    1
 -2      1254      2584      2731      2749
 -1      8765    3    0    1
 -2      1291      2584      1400      2749
 -1      8766    3    0    1
 -2      1400      2584      2654      2749
 -1      8767    3    0    1
 -2      1400      2654      2316      2749
 -1      8768    3    0    1
 -2      1291      1435      2731      2749
 -1      8769    3    0    1
 -2      1379      2731      1513      2461
 -1      8770    3    0    1
 -2      1379      1254      2731      2749
 -1      8771    3    0    1
 -2      1379      2731      2441      2749
 -1      8772    3    0    1
 -2      2731      1379      2441      2461
 -1      8773    3    0    1
 -2      2314      1254      2315      2749
 -1      8774    3    0    1
 -2       862      1254      2314      2749
 -1      8775    3    0    1
 -2      2278      1291      2316      2749
 -1      8776    3    0    1
 -2      1248       860      2317      2749
 -1      8777    3    0    1
 -2      2315      1254      2441      2749
 -1      8778    3    0    1
 -2      1291      1400      2316      2749
 -1      8779    3    0    1
 -2      2731      2441      2460      2461
 -1      8780    3    0    1
 -2      1330      1413      1475      2470
 -1      8781    3    0    1
 -2      1254      1379      2441      2749
 -1      8782    3    0    1
 -2      1517      1501      2461      2462
 -1      8783    3    0    1
 -2      1390      1503      2444      2445
 -1      8784    3    0    1
 -2      1474       353      1503      2445
 -1      8785    3    0    1
 -2      1390      1474      1503      2445
 -1      8786    3    0    1
 -2      1518      1443      1356      2471
 -1      8787    3    0    1
 -2      1345      2301      2333      2446
 -1      8788    3    0    1
 -2      1345      1276      2301      2446
 -1      8789    3    0    1
 -2      2639      2414      2447      2465
 -1      8790    3    0    1
 -2      1249      2687      2718      2764
 -1      8791    3    0    1
 -2      2748       388      2757      2763
 -1      8792    3    0    1
 -2      2237      2225      2257      2750
 -1      8793    3    0    1
 -2      1331      2372      2439      2750
 -1      8794    3    0    1
 -2      1403      2599      2734      2750
 -1      8795    3    0    1
 -2      2599      1250      2734      2750
 -1      8796    3    0    1
 -2      1285      2238      2659      2766
 -1      8797    3    0    1
 -2      2655      1379      2731      2762
 -1      8798    3    0    1
 -2      2614      2342      2698      2765
 -1      8799    3    0    1
 -2      1387      2692      1510      2766
 -1      8800    3    0    1
 -2      1250      1331      2734      2750
 -1      8801    3    0    1
 -2      1403      1331      2439      2750
 -1      8802    3    0    1
 -2      1331      1403      2734      2750
 -1      8803    3    0    1
 -2      1224      2257      2372      2750
 -1      8804    3    0    1
 -2      2368      1342      2438      2750
 -1      8805    3    0    1
 -2      1250      1224      2372      2750
 -1      8806    3    0    1
 -2      1224      2237      2257      2750
 -1      8807    3    0    1
 -2      1256      1342      2368      2750
 -1      8808    3    0    1
 -2      1224       878      2237      2750
 -1      8809    3    0    1
 -2      2347      1256      2368      2750
 -1      8810    3    0    1
 -2      2150      2503      2584      2765
 -1      8811    3    0    1
 -2      2438      1342      2439      2750
 -1      8812    3    0    1
 -2      1331      1250      2372      2750
 -1      8813    3    0    1
 -2      1342      1403      2439      2750
 -1      8814    3    0    1
 -2      2560      2229      2614      2765
 -1      8815    3    0    1
 -2      2655      2698      2730      2762
 -1      8816    3    0    1
 -2      2579      2669      1453      1518
 -1      8817    3    0    1
 -2      2561      2501      2720      2752
 -1      8818    3    0    1
 -2      2083      2501      2520      2752
 -1      8819    3    0    1
 -2      2075      2083      2520      2752
 -1      8820    3    0    1
 -2      2520      2501      2561      2752
 -1      8821    3    0    1
 -2      2520      2561      2743      2752
 -1      8822    3    0    1
 -2      1284      2422      2743      2752
 -1      8823    3    0    1
 -2      1284      2720      2422      2752
 -1      8824    3    0    1
 -2      2561      1284      2743      2752
 -1      8825    3    0    1
 -2      1284      2561      2720      2752
 -1      8826    3    0    1
 -2      2083      2075      2146      2752
 -1      8827    3    0    1
 -2      1844      2083      2146      2752
 -1      8828    3    0    1
 -2      2187      2060      2422      2752
 -1      8829    3    0    1
 -2      1306      1415      2741      2451
 -1      8830    3    0    1
 -2      2363      1417      1487      2451
 -1      8831    3    0    1
 -2      1415      2363      1487      2451
 -1      8832    3    0    1
 -2      1415      1306      2363      2451
 -1      8833    3    0    1
 -2      1479      1415      1487      2451
 -1      8834    3    0    1
 -2        57      1479      1487      2451
 -1      8835    3    0    1
 -2      2619      1357      2711      2753
 -1      8836    3    0    1
 -2      1357      2619      2692      2753
 -1      8837    3    0    1
 -2       440      1508      1510      2753
 -1      8838    3    0    1
 -2       440      2711      2753      2738
 -1      8839    3    0    1
 -2      2738       440      1510      2753
 -1      8840    3    0    1
 -2      2692      1510      2579      1387
 -1      8841    3    0    1
 -2      1510      2692      2579      2753
 -1      8842    3    0    1
 -2      1256      2562      2750      2761
 -1      8843    3    0    1
 -2      1247      2562      2649      2761
 -1      8844    3    0    1
 -2      2347      1256      2750      2761
 -1      8845    3    0    1
 -2      1247       880      2562      2761
 -1      8846    3    0    1
 -2      2237      2225      2750      2761
 -1      8847    3    0    1
 -2      2225      2344      2347      2761
 -1      8848    3    0    1
 -2       880       878      2562      2761
 -1      8849    3    0    1
 -2      1481      1382      1495      2454
 -1      8850    3    0    1
 -2      1495      1382      2745      2454
 -1      8851    3    0    1
 -2      1301      1495      2745      2454
 -1      8852    3    0    1
 -2      1382      1301      2745      2454
 -1      8853    3    0    1
 -2      1512      1495      2427      2454
 -1      8854    3    0    1
 -2      1445      1512      2427      2454
 -1      8855    3    0    1
 -2      1260      2637      2674      2754
 -1      8856    3    0    1
 -2       978      1260      2674      2754
 -1      8857    3    0    1
 -2      2625      1245      2674      2754
 -1      8858    3    0    1
 -2      1259      1388      2625      2754
 -1      8859    3    0    1
 -2       978      2218      2232      2754
 -1      8860    3    0    1
 -2       978       980      2218      2754
 -1      8861    3    0    1
 -2      1259      2625      2637      2754
 -1      8862    3    0    1
 -2      2637      2625      2674      2754
 -1      8863    3    0    1
 -2      1245       980      2674      2754
 -1      8864    3    0    1
 -2       980       978      2674      2754
 -1      8865    3    0    1
 -2      2625      1388      2427      2754
 -1      8866    3    0    1
 -2      1301      1245      2625      2754
 -1      8867    3    0    1
 -2      1301      2625      2427      2754
 -1      8868    3    0    1
 -2      2389      1301      2427      2754
 -1      8869    3    0    1
 -2      2218      1245      2260      2754
 -1      8870    3    0    1
 -2      1260      2232      2283      2754
 -1      8871    3    0    1
 -2      2362      2258      2398      2754
 -1      8872    3    0    1
 -2      1259      2362      2398      2754
 -1      8873    3    0    1
 -2      2260      1245      2389      2754
 -1      8874    3    0    1
 -2      1260       978      2232      2754
 -1      8875    3    0    1
 -2       980      1245      2218      2754
 -1      8876    3    0    1
 -2      1259      1290      2362      2754
 -1      8877    3    0    1
 -2      1388      1259      2398      2754
 -1      8878    3    0    1
 -2      1245      1301      2389      2754
 -1      8879    3    0    1
 -2      1388      2398      2427      2754
 -1      8880    3    0    1
 -2      1271      1069      2712      2755
 -1      8881    3    0    1
 -2      2400      1321      2434      2755
 -1      8882    3    0    1
 -2      2236      1271      2400      2755
 -1      8883    3    0    1
 -2      1398      1275      2424      2755
 -1      8884    3    0    1
 -2      1398      2424      2457      2755
 -1      8885    3    0    1
 -2      1271      1321      2400      2755
 -1      8886    3    0    1
 -2      2313      2220      2424      2755
 -1      8887    3    0    1
 -2      2755      1069      2236      1271
 -1      8888    3    0    1
 -2      1275      2313      2424      2755
 -1      8889    3    0    1
 -2      1466      1398      2457      2755
 -1      8890    3    0    1
 -2      2236      2712      1069      2755
 -1      8891    3    0    1
 -2      1470      1375      2440      2458
 -1      8892    3    0    1
 -2      1375      1325      2440      2458
 -1      8893    3    0    1
 -2      1459      1375      1470      2458
 -1      8894    3    0    1
 -2       349      1459      1470      2458
 -1      8895    3    0    1
 -2      2730      2748      2757      2763
 -1      8896    3    0    1
 -2      1516       388      2748      2763
 -1      8897    3    0    1
 -2      2655      1467      1468      2757
 -1      8898    3    0    1
 -2      1467      2655      2748      2757
 -1      8899    3    0    1
 -2      1514      1467      2748      2757
 -1      8900    3    0    1
 -2      1514       388      1515      2757
 -1      8901    3    0    1
 -2      1468      1514      1515      2757
 -1      8902    3    0    1
 -2       388         1      1515      2757
 -1      8903    3    0    1
 -2      1468      1467      1514      2757
 -1      8904    3    0    1
 -2      2634      1230      2642      2758
 -1      8905    3    0    1
 -2      2706      2634      2747      2758
 -1      8906    3    0    1
 -2      2642      1325      2729      2758
 -1      8907    3    0    1
 -2      1395      2642      2729      2758
 -1      8908    3    0    1
 -2      2634      1352      2747      2758
 -1      8909    3    0    1
 -2      1352      2634      2642      2758
 -1      8910    3    0    1
 -2      1325      2440      2458      2758
 -1      8911    3    0    1
 -2      2506       998      1839      2634
 -1      8912    3    0    1
 -2      2706      1230      2634      2758
 -1      8913    3    0    1
 -2      1230      2706      2634       998
 -1      8914    3    0    1
 -2      1471      1395      2729      2758
 -1      8915    3    0    1
 -2      1325      1471      2729      2758
 -1      8916    3    0    1
 -2      1471      1325      2458      2758
 -1      8917    3    0    1
 -2      1230      2340      2440      2758
 -1      8918    3    0    1
 -2      2408      1395      2409      2758
 -1      8919    3    0    1
 -2      2340      2706      1230      2305
 -1      8920    3    0    1
 -2      1352      1395      2408      2758
 -1      8921    3    0    1
 -2      2409      1395      2458      2758
 -1      8922    3    0    1
 -2      1325      1230      2440      2758
 -1      8923    3    0    1
 -2      1395      1471      2458      2758
 -1      8924    3    0    1
 -2      1501      2315      2441      2460
 -1      8925    3    0    1
 -2      1468      1513      1515      2462
 -1      8926    3    0    1
 -2      1515      1517      2461      2462
 -1      8927    3    0    1
 -2      1515         1      1517      2462
 -1      8928    3    0    1
 -2      1468      1515      2461      2462
 -1      8929    3    0    1
 -2      2463      2446      2764      2470
 -1      8930    3    0    1
 -2      1443      1507      1520      2471
 -1      8931    3    0    1
 -2      1356      2448      1518      2471
 -1      8932    3    0    1
 -2      1345      2446      2463      2470
 -1      8933    3    0    1
 -2      1502      1344      2443      2464
 -1      8934    3    0    1
 -2      1318      1502      2443      2464
 -1      8935    3    0    1
 -2      1277      1318      2443      2464
 -1      8936    3    0    1
 -2      1318      1410      1502      2464
 -1      8937    3    0    1
 -2      1410       173      1502      2464
 -1      8938    3    0    1
 -2      2630      1433      2464      2759
 -1      8939    3    0    1
 -2      1277      2630      2464      2759
 -1      8940    3    0    1
 -2      2443      1277      2464      2759
 -1      8941    3    0    1
 -2      2554      1347      2630      2759
 -1      8942    3    0    1
 -2      1239      2554      2630      2759
 -1      8943    3    0    1
 -2      1277      1239      2630      2759
 -1      8944    3    0    1
 -2      2294      1239      2443      2759
 -1      8945    3    0    1
 -2      1347      2381      2464      2759
 -1      8946    3    0    1
 -2      1239      1277      2443      2759
 -1      8947    3    0    1
 -2      1034      1239      2294      2759
 -1      8948    3    0    1
 -2      1347      2306      2381      2759
 -1      8949    3    0    1
 -2      1347      1280      2306      2759
 -1      8950    3    0    1
 -2      1433      1347      2464      2759
 -1      8951    3    0    1
 -2      1483      1383      2760      2751
 -1      8952    3    0    1
 -2      1302      1383      2751      2760
 -1      8953    3    0    1
 -2      1396      1483      2425      2760
 -1      8954    3    0    1
 -2      2354      1396      2425      2760
 -1      8955    3    0    1
 -2      1302      2345      2416      2760
 -1      8956    3    0    1
 -2      1302      1246      2345      2760
 -1      8957    3    0    1
 -2      1284      1396      2354      2760
 -1      8958    3    0    1
 -2      1246      2270      2345      2760
 -1      8959    3    0    1
 -2      1383      1302      2416      2760
 -1      8960    3    0    1
 -2      1497      2277      2456      2473
 -1      8961    3    0    1
 -2      2277      2717      2456      2473
 -1      8962    3    0    1
 -2      2249      1455      2393      2466
 -1      8963    3    0    1
 -2      2249      1358      1455      2466
 -1      8964    3    0    1
 -2      1387      1285      2692      2766
 -1      8965    3    0    1
 -2       440      2738      2453      2469
 -1      8966    3    0    1
 -2      1511      1420      2452      2468
 -1      8967    3    0    1
 -2      1489      1511      2452      2468
 -1      8968    3    0    1
 -2      1489       390      1511      2468
 -1      8969    3    0    1
 -2      1393      1489      2452      2468
 -1      8970    3    0    1
 -2       878       880      2287      2761
 -1      8971    3    0    1
 -2      2450      2452      2468      2761
 -1      8972    3    0    1
 -2      1323      2649      2725      2761
 -1      8973    3    0    1
 -2      2225      2237      2287      2761
 -1      8974    3    0    1
 -2      2225      2287      2344      2761
 -1      8975    3    0    1
 -2       878      2237      2750      2761
 -1      8976    3    0    1
 -2      2237       878      2287      2761
 -1      8977    3    0    1
 -2      1397      1494      2725      2761
 -1      8978    3    0    1
 -2      2649      1397      2725      2761
 -1      8979    3    0    1
 -2      1393      1323      2725      2761
 -1      8980    3    0    1
 -2      1494      1393      2725      2761
 -1      8981    3    0    1
 -2      1393      1494      2468      2761
 -1      8982    3    0    1
 -2      2452      1393      2468      2761
 -1      8983    3    0    1
 -2      1397      1256      2347      2761
 -1      8984    3    0    1
 -2      2344      1247      2376      2761
 -1      8985    3    0    1
 -2      1247      1323      2376      2761
 -1      8986    3    0    1
 -2      1397      2347      2450      2761
 -1      8987    3    0    1
 -2       880      1247      2344      2761
 -1      8988    3    0    1
 -2      1397      2450      2468      2761
 -1      8989    3    0    1
 -2      2376      1323      2452      2761
 -1      8990    3    0    1
 -2      2347      2750      2225      2761
 -1      8991    3    0    1
 -2      2287       880      2344      2761
 -1      8992    3    0    1
 -2      1494      1397      2468      2761
 -1      8993    3    0    1
 -2      1323      1393      2452      2761
 -1      8994    3    0    1
 -2      1350      1413      2718      2764
 -1      8995    3    0    1
 -2      1330      1249      2718      2764
 -1      8996    3    0    1
 -2      1413      1330      2718      2764
 -1      8997    3    0    1
 -2      2301      1223      2333      2764
 -1      8998    3    0    1
 -2      1223      1249      2333      2764
 -1      8999    3    0    1
 -2      1350      2323      2446      2764
 -1      9000    3    0    1
 -2       900      1223      2301      2764
 -1      9001    3    0    1
 -2      1350      1262      2323      2764
 -1      9002    3    0    1
 -2      2333      1249      2463      2764
 -1      9003    3    0    1
 -2      2295       900      2301      2764
 -1      9004    3    0    1
 -2      1507      1443      1518      2471
 -1      9005    3    0    1
 -2      1249      1330      2463      2764
 -1      9006    3    0    1
 -2      2393      1455      1519      2472
 -1      9007    3    0    1
 -2      1378      1467      1516      2474
 -1      9008    3    0    1
 -2       440      1508      2467      2472
 -1      9009    3    0    1
 -2      2527      2150      2584      2765
 -1      9010    3    0    1
 -2      2150      2527      2560      2765
 -1      9011    3    0    1
 -2      2560      2527      2212      2765
 -1      9012    3    0    1
 -2      2503      2560      2614      2765
 -1      9013    3    0    1
 -2      2503      2150      2560      2765
 -1      9014    3    0    1
 -2      1513      1435      2762      2765
 -1      9015    3    0    1
 -2      2698      1513      2762      2765
 -1      9016    3    0    1
 -2      2569      2655      2731      2765
 -1      9017    3    0    1
 -2      2731      2655      2762      2765
 -1      9018    3    0    1
 -2      2655      2698      2762      2765
 -1      9019    3    0    1
 -2      2655      2569      2698      2765
 -1      9020    3    0    1
 -2      2212      2527      2593      2765
 -1      9021    3    0    1
 -2      1291      2212      2593      2765
 -1      9022    3    0    1
 -2      2527      1291      2593      2765
 -1      9023    3    0    1
 -2      1513      2698      2442      2765
 -1      9024    3    0    1
 -2      2698      2342      2442      2765
 -1      9025    3    0    1
 -2      2229      1291      1435      2765
 -1      9026    3    0    1
 -2      2229      1435      2342      2765
 -1      9027    3    0    1
 -2      2212      1291      2229      2765
 -1      9028    3    0    1
 -2      2342      1435      1513      2765
 -1      9029    3    0    1
 -2      2342      1513      2442      2765
 -1      9030    3    0    1
 -2      1387      1510      2472      2766
 -1      9031    3    0    1
 -2      2238      1285      2466      2766
 -1      9032    3    0    1
 -2      1283      1103      2245      2766
 -1      9033    3    0    1
 -2      1357      2393      2467      2766
 -1      9034    3    0    1
 -2      1444      1357      2467      2766
 -3
    1PSTEP                         1           1           1          
  100CL  101 1.000000000        2766                     0    1           1
 -4  DISP        4    1
 -5  D1          1    2    1    0
 -5  D2          1    2    2    0
 -5  D3          1    2    3    0
 -5  ALL         1    2    0    0    1ALL
 -1         1 1.66099E-04 4.80256E-05-4.96000E-03
 -1         2 1.04366E-03-5.05505E-05-5.05765E-03
 -1         3-3.60999E-04-1.95500E-05-8.25952E-03
 -1         4 3.25490E-04-1.41292E-05-7.87276E-03
 -1         5 3.47946E-04-5.42442E-05-7.97236E-03
 -1         6-4.25038E-04 1.36328E-07-8.25969E-03
 -1         7-5.51266E-04 2.26953E-05-5.49454E-03
 -1         8-1.33149E-03-8.31115E-05-5.54371E-03
 -1         9-1.31213E-03-1.47620E-05-5.55429E-03
 -1        10-3.48040E-05-3.67017E-05-7.97306E-03
 -1        11 9.71681E-04-1.56269E-05-5.03115E-03
 -1        12-1.26842E-05 3.76113E-05-8.04536E-03
 -1        13-4.82569E-04-7.23229E-05-8.31365E-03
 -1        14-2.65078E-04 1.27431E-05-8.35954E-03
 -1        15-2.30696E-04-1.98708E-05-8.28366E-03
 -1        16 3.01732E-04-7.67191E-05-7.99732E-03
 -1        17-4.21416E-04-7.02388E-05-8.34736E-03
 -1        18 2.91630E-04-1.18648E-06-7.88597E-03
 -1        19-5.75460E-05-8.01918E-04-7.74029E-03
 -1        20-9.92754E-04-8.56201E-04-4.89503E-03
 -1        21-1.61346E-04-7.45316E-04-7.29494E-03
 -1        22 4.67614E-04-6.18690E-04-7.80393E-03
 -1        23-8.71595E-05-7.07313E-04-7.09209E-03
 -1        24-3.94934E-04-2.91731E-04-4.89424E-03
 -1        25-1.02540E-03-8.77027E-04-5.10045E-03
 -1        26 5.69569E-04-5.60977E-04-6.98258E-03
 -1        27 1.12479E-03-4.15977E-04-4.34669E-03
 -1        28 1.15149E-03-4.34117E-04-4.96639E-03
 -1        29 5.11145E-04-6.21785E-04-7.55403E-03
 -1        30-2.60637E-06-1.49045E-04-7.63063E-03
 -1        31 3.32207E-06-1.15266E-04-7.84340E-03
 -1        32 5.27372E-04-5.62256E-04-6.72478E-03
 -1        33 3.27327E-05-1.86042E-04-7.05668E-03
 -1        34-4.03264E-05-7.99901E-04-8.00682E-03
 -1        35-1.47192E-04-2.30244E-04-7.82537E-03
 -1        36-1.31652E-04-1.94063E-04-7.98872E-03
 -1        37-6.95904E-05-2.73398E-04-7.12610E-03
 -1        38-1.25246E-04-2.56509E-04-7.36705E-03
 -1        39 6.38964E-05-2.18858E-04-6.68440E-03
 -1        40 1.54845E-03-5.81558E-04-2.95748E-03
 -1        41 2.49153E-04-9.79172E-05-4.14338E-03
 -1        42 5.13095E-04-9.37278E-04-5.25945E-03
 -1        43 1.00032E-03-7.57169E-04-5.92279E-03
 -1        44-1.20707E-04-3.71371E-04-3.52231E-03
 -1        45-1.45945E-04-1.13310E-03-3.51031E-03
 -1        46 1.15680E-04-3.24837E-04-5.31290E-03
 -1        47 1.57312E-03-5.79270E-04-4.12660E-03
 -1        48-1.15060E-04-1.13199E-03-3.94923E-03
 -1        49 5.13047E-04-9.82254E-04-5.92582E-03
 -1        50 9.56004E-04-7.81534E-04-6.38744E-03
 -1        51 9.86165E-04-7.09789E-04-4.63149E-03
 -1        52 9.96508E-04-6.94288E-04-5.06725E-03
 -1        53 4.51772E-05-3.49874E-04-6.20478E-03
 -1        54 5.82238E-04-9.51641E-04-6.25748E-03
 -1        55 5.69290E-04-9.04107E-04-4.93497E-03
 -1        56 1.17576E-04-2.15114E-04-6.42571E-03
 -1        57 3.80606E-04-4.11098E-05-9.95584E-04
 -1        58 1.19426E-03-6.10683E-04-2.19155E-03
 -1        59 1.15861E-03-7.04731E-04-3.48531E-03
 -1        60 1.54617E-03-5.37000E-04-4.13641E-03
 -1        61 1.16397E-03-6.57207E-04-2.62447E-03
 -1        62 1.56361E-03-5.10770E-04-3.54821E-03
 -1        63 1.96440E-03-3.82790E-04-2.64784E-03
 -1        64 1.94856E-03-3.89098E-04-1.15764E-03
 -1        65 4.85542E-04-7.48908E-04-1.80509E-03
 -1        66 5.27379E-04-7.56128E-04-2.25063E-03
 -1        67 3.37551E-04-2.57815E-04-2.67673E-03
 -1        68 1.11548E-04-2.43662E-04-1.83210E-03
 -1        69 1.51335E-03-5.02375E-04-2.37962E-03
 -1        70 3.39496E-04-8.80856E-05-2.74783E-03
 -1        71 3.28911E-04-2.34058E-04-3.52506E-03
 -1        72 3.35267E-04-1.57586E-04-3.59150E-03
 -1        73 3.80412E-04-1.17506E-04-1.74732E-03
 -1        74 1.47981E-03-5.24114E-04-1.80746E-03
 -1        75 2.65183E-04-2.78491E-04-3.86470E-03
 -1        76 1.19545E-03-6.76842E-04-3.93106E-03
 -1        77 8.93888E-04 1.25352E-06-2.95757E-04
 -1        78 1.47122E-03 1.07287E-05 4.94072E-04
 -1        79 1.68449E-03-2.40841E-05-6.35840E-04
 -1        80 9.14073E-04-5.09260E-05 2.74500E-04
 -1        81 2.50912E-04-3.45366E-05 2.28245E-04
 -1        82 3.72801E-04 4.28558E-05 8.97762E-04
 -1        83 3.80526E-04 2.63706E-05 6.14199E-04
 -1        84 2.05980E-03-1.46933E-06 7.73068E-04
 -1        85 2.06535E-03 2.13441E-05-8.01421E-04
 -1        86 1.45888E-03-1.43003E-05-4.84313E-04
 -1        87 3.81252E-04-7.18821E-05-1.27080E-03
 -1        88 3.77254E-04 6.30119E-05 1.29368E-03
 -1        89 1.68915E-03 2.39136E-05 1.22153E-03
 -1        90 1.68866E-03 1.26189E-05 5.96668E-04
 -1        91 3.94083E-04-7.21745E-05-9.40626E-04
 -1        92 3.99022E-04-8.58695E-06 4.93094E-04
 -1        93 1.67225E-03-3.93627E-05-1.23540E-03
 -1        94 1.47515E-03-2.42160E-05-1.00340E-03
 -1        95 3.64233E-04 7.12914E-05 9.65134E-04
 -1        96 1.48820E-03 1.61597E-05 1.02857E-03
 -1        97 1.99629E-03 4.31732E-04 2.62706E-03
 -1        98 1.47980E-03 5.30974E-04 2.32698E-03
 -1        99 1.17056E-03 6.32308E-04 2.14481E-03
 -1       100 1.51172E-03 5.38801E-04 3.50733E-03
 -1       101 1.15166E-03 6.61984E-04 2.60432E-03
 -1       102 1.50057E-03 5.65252E-04 4.08440E-03
 -1       103 1.14718E-03 7.15702E-04 3.50017E-03
 -1       104 4.84814E-04 8.09673E-04 1.82373E-03
 -1       105 1.16443E-03 7.15727E-04 3.94657E-03
 -1       106 5.52445E-04 7.67624E-04 2.27046E-03
 -1       107 3.29015E-04 1.24755E-04 2.69030E-03
 -1       108 1.97817E-03 4.42222E-04 1.08571E-03
 -1       109 1.46181E-03 5.10768E-04 1.76798E-03
 -1       110 2.76173E-04 2.04096E-04 4.13181E-03
 -1       111 1.60777E-03 6.18614E-04 4.05067E-03
 -1       112 2.50687E-04 1.32722E-04 4.07145E-03
 -1       113 1.01262E-03 7.41308E-04 4.95280E-03
 -1       114 1.03942E-03 7.86743E-04 6.38027E-03
 -1       115 1.55968E-03 6.34829E-04 2.88886E-03
 -1       116-2.10888E-04 1.11156E-03 3.43117E-03
 -1       117 4.98770E-05 3.37734E-04 5.99930E-03
 -1       118-1.90670E-04 1.16747E-03 3.89083E-03
 -1       119 1.25415E-04 2.04085E-04 6.42773E-03
 -1       120 1.06458E-03 7.61692E-04 5.92111E-03
 -1       121 1.51059E-04 2.28954E-04 5.91798E-03
 -1       122 7.24667E-05 3.56959E-04 5.33169E-03
 -1       123 5.44858E-04 9.21200E-04 4.90340E-03
 -1       124 1.22808E-04 3.14320E-04 5.03624E-03
 -1       125 4.26749E-04 9.62589E-04 5.12656E-03
 -1       126 4.74829E-04 1.02980E-03 5.87442E-03
 -1       127 9.93317E-04 7.37822E-04 4.52459E-03
 -1       128 2.19560E-04 2.23984E-04 4.54825E-03
 -1       129 1.70772E-05 3.48190E-04 6.28807E-03
 -1       130 5.49064E-04 9.11561E-04 6.26720E-03
 -1       131 1.14144E-03 4.53209E-04 4.24736E-03
 -1       132 1.19919E-03 4.59788E-04 4.86678E-03
 -1       133-1.05700E-03 8.02966E-04 4.94005E-03
 -1       134 5.02725E-04 5.61773E-04 6.62377E-03
 -1       135 5.34957E-04 5.27538E-04 6.88852E-03
 -1       136-1.86634E-04 6.95329E-04 7.16385E-03
 -1       137-4.04924E-04 2.72795E-04 4.75278E-03
 -1       138-1.03237E-03 7.57505E-04 4.77934E-03
 -1       139 4.27172E-05 1.80225E-04 6.98764E-03
 -1       140 4.85599E-04 6.04305E-04 7.43208E-03
 -1       141 4.40292E-04 6.30247E-04 7.73052E-03
 -1       142-3.40270E-05 1.30311E-04 7.74300E-03
 -1       143-1.75985E-04 2.11168E-04 7.71108E-03
 -1       144-1.08907E-04 7.83422E-04 7.56989E-03
 -1       145-8.99060E-06 7.32342E-04 7.83906E-03
 -1       146-1.60706E-04 6.69423E-04 6.95118E-03
 -1       147-4.50148E-04 1.41374E-05 8.07201E-03
 -1       148 2.95967E-04 7.58679E-05 7.75568E-03
 -1       149 3.25322E-04 1.23505E-04 7.89192E-03
 -1       150 2.56595E-04 8.19346E-05 7.76699E-03
 -1       151-4.49819E-04 1.07105E-04 8.14859E-03
 -1       152 2.85920E-04 1.50005E-04 7.93710E-03
 -1       153 1.01081E-03 3.43824E-05 4.93472E-03
 -1       154-1.31015E-03 1.10589E-04 5.45317E-03
 -1       155-1.40246E-03 1.69340E-04 5.52681E-03
 -1       156 9.82055E-04 7.08758E-05 4.98918E-03
 -1       157-5.88070E-05 6.92224E-05 7.83794E-03
 -1       158-6.73337E-05-1.28555E-05 7.93518E-03
 -1       159-2.78326E-04 3.83503E-05 8.18138E-03
 -1       160-4.18780E-04 1.89719E-05 8.09711E-03
 -1       161-3.59994E-04 1.16690E-04 8.22885E-03
 -1       162-3.23341E-05-3.30560E-05 7.90338E-03
 -1       163 1.19546E-03-3.96561E-04 4.28380E-03
 -1       164 1.21372E-03-4.23583E-04 4.90403E-03
 -1       165 5.37381E-04-4.59491E-04 6.99092E-03
 -1       166-9.68385E-05-6.54201E-04 7.10835E-03
 -1       167-1.74477E-04-6.76631E-04 7.30548E-03
 -1       168-1.06317E-04-7.47562E-04 7.73652E-03
 -1       169-8.74493E-05-7.27038E-04 8.01411E-03
 -1       170-1.01363E-03-8.10516E-04 5.23224E-03
 -1       171-1.05118E-03-7.69813E-04 5.05104E-03
 -1       172 2.21185E-04-1.02504E-04 4.11272E-03
 -1       173 2.03190E-04-2.52576E-05 4.85769E-03
 -1       174-1.20661E-04-2.14212E-04 7.79626E-03
 -1       175 5.29150E-04-5.25407E-04 7.52082E-03
 -1       176 4.79037E-04-5.70027E-04 7.80511E-03
 -1       177 5.09177E-05-1.66704E-04 7.14337E-03
 -1       178 5.26969E-05-1.91196E-04 6.78309E-03
 -1       179 4.83859E-04-4.68092E-04 6.81527E-03
 -1       180 1.61237E-03-5.46954E-04 2.86428E-03
 -1       181 1.02111E-03-7.02440E-04 6.02248E-03
 -1       182 9.83635E-04-7.32560E-04 6.46866E-03
 -1       183 1.00607E-03-6.92432E-04 4.71248E-03
 -1       184 4.91278E-04-9.73924E-04 6.06547E-03
 -1       185 5.01093E-04-9.85199E-04 6.42984E-03
 -1       186 4.71356E-04-9.24869E-04 5.39459E-03
 -1       187-5.54123E-05-3.39820E-04 3.61477E-03
 -1       188-2.32353E-04-1.04054E-03 3.61550E-03
 -1       189 8.29707E-05-3.45616E-04 5.46413E-03
 -1       190 1.02056E-03-6.65880E-04 5.15566E-03
 -1       191 1.62615E-03-5.72659E-04 4.07371E-03
 -1       192-1.40045E-04-3.12329E-04 3.82551E-03
 -1       193-1.88052E-04-9.51959E-04 3.89478E-03
 -1       194 1.81028E-04-1.91708E-04 6.09682E-03
 -1       195 2.34529E-04-2.11373E-04 4.65579E-03
 -1       196 1.12178E-05-3.33077E-04 6.39752E-03
 -1       197 5.00405E-04-8.75988E-04 5.05516E-03
 -1       198 3.54941E-04-9.58261E-05 2.67543E-03
 -1       199 1.59819E-03-5.47488E-04 4.15636E-03
 -1       200 2.07143E-03-4.07422E-04 1.02960E-03
 -1       201 1.62018E-03-5.24818E-04 3.56614E-03
 -1       202 1.24287E-03-6.59143E-04 2.58844E-03
 -1       203 1.59803E-03-5.05986E-04 2.34708E-03
 -1       204 1.24920E-03-6.97760E-04 3.52217E-03
 -1       205 5.96297E-04-7.92887E-04 1.86147E-03
 -1       206 1.58274E-03-4.90420E-04 1.74580E-03
 -1       207 4.10465E-04-5.06525E-05 9.13519E-04
 -1       208 4.01884E-04-1.41339E-04 2.37820E-03
 -1       209 2.09391E-03-3.93718E-04 2.61973E-03
 -1       210 6.57028E-04-7.97963E-04 2.36251E-03
 -1       211 4.34510E-04-1.01323E-04 1.71223E-03
 -1       212 1.26745E-03-6.28387E-04 2.13289E-03
 -1       213 3.31521E-04-2.15024E-04 2.62048E-03
 -1       214 2.89280E-04-2.57203E-04 4.04339E-03
 -1       215 2.96422E-04-1.80063E-04 4.22128E-03
 -1       216 1.28147E-03-6.50593E-04 4.04834E-03
 -1       217 2.21755E-03 2.17924E-05 7.42599E-04
 -1       218 4.15843E-04-3.01767E-05 8.46284E-04
 -1       219 1.79416E-03-1.20334E-05 5.36903E-04
 -1       220 2.21940E-03-2.23281E-05-9.55701E-04
 -1       221 1.51476E-03 2.65031E-05-6.03377E-04
 -1       222 8.80487E-04 1.80942E-05-2.45558E-04
 -1       223 9.17611E-04 7.80430E-06 2.23242E-04
 -1       224 1.79239E-03 1.46710E-05-7.71915E-04
 -1       225 4.39767E-04 1.04817E-05-7.79876E-04
 -1       226 4.42851E-04-9.87132E-06 5.45081E-04
 -1       227 1.78275E-03-2.79318E-05 1.18587E-03
 -1       228 4.27995E-04 7.99840E-05-1.48344E-03
 -1       229 1.50144E-03 2.07572E-05 4.00570E-04
 -1       230 4.34598E-04-3.70555E-07-6.00116E-04
 -1       231 1.50428E-03 1.39139E-05 9.15865E-04
 -1       232 1.52813E-03 3.24583E-05-1.12075E-03
 -1       233 1.77368E-03 2.31197E-05-1.41674E-03
 -1       234 4.06986E-04 5.37490E-05-1.12623E-03
 -1       235 6.94708E-04 8.17269E-04-2.49229E-03
 -1       236 1.20492E-03 6.77666E-04-2.86183E-03
 -1       237 2.02101E-03 4.00693E-04-2.80290E-03
 -1       238 1.22973E-03 6.51205E-04-2.39421E-03
 -1       239 1.21957E-03 7.18869E-04-3.77988E-03
 -1       240 3.23328E-04 2.37801E-04-3.79246E-03
 -1       241 1.60412E-03 5.30123E-04-3.77435E-03
 -1       242 2.00127E-03 4.10502E-04-1.26994E-03
 -1       243 1.81172E-04 2.75819E-04-1.96856E-03
 -1       244 6.70663E-04 8.47011E-04-1.94750E-03
 -1       245 3.88346E-04 1.57938E-04-2.63164E-03
 -1       246 1.53443E-03 5.50654E-04-1.99113E-03
 -1       247 1.56304E-03 5.11565E-04-2.57347E-03
 -1       248 3.41779E-04 1.82081E-04-3.83180E-03
 -1       249 3.41039E-04 2.03788E-04-2.43895E-03
 -1       250 3.92437E-04 1.30016E-04-1.97878E-03
 -1       251 1.24309E-03 6.86368E-04-4.27494E-03
 -1       252 1.59993E-03 5.42219E-04-4.38265E-03
 -1       253 1.61589E-03 5.40465E-04-4.19430E-03
 -1       254 1.57276E-03 5.42061E-04-3.05543E-03
 -1       255 1.05589E-03 6.81352E-04-6.12236E-03
 -1       256 5.25250E-04 9.52483E-04-5.69595E-03
 -1       257 5.76029E-04 9.11023E-04-5.37443E-03
 -1       258 5.25848E-04 9.84338E-04-6.39553E-03
 -1       259-2.84436E-04 1.15321E-03-3.93068E-03
 -1       260-2.53342E-04 1.22945E-03-4.29983E-03
 -1       261 1.70571E-04 2.36617E-04-6.19135E-03
 -1       262 1.04945E-03 6.53239E-04-5.28512E-03
 -1       263 2.28498E-04 2.42925E-04-5.32643E-03
 -1       264-1.38771E-04 4.10845E-04-3.92903E-03
 -1       265 2.46662E-04 2.30545E-04-4.82887E-03
 -1       266 9.86865E-04 6.81078E-04-4.86848E-03
 -1       267 1.03432E-03 7.02342E-04-6.59832E-03
 -1       268 1.14643E-04 3.19977E-04-5.79061E-03
 -1       269 5.54739E-04 9.91289E-04-6.75760E-03
 -1       270 1.49645E-04 2.09250E-04-6.68094E-03
 -1       271 1.18860E-03 3.53219E-04-4.97800E-03
 -1       272 5.07816E-04 5.16040E-04-7.61833E-03
 -1       273 5.78481E-04 4.13258E-04-7.19928E-03
 -1       274 5.30679E-04 4.01276E-04-6.97914E-03
 -1       275-1.10996E-03 7.99319E-04-5.24496E-03
 -1       276-2.20658E-04 6.65443E-04-7.57609E-03
 -1       277-1.14268E-03 7.63882E-04-5.10404E-03
 -1       278-1.47132E-04 7.06665E-04-7.98563E-03
 -1       279 1.15946E-03 3.05619E-04-4.40222E-03
 -1       280 6.92491E-06 1.37185E-04-7.74240E-03
 -1       281-1.44466E-04 2.46096E-04-7.69921E-03
 -1       282-1.00110E-04 6.99706E-04-8.22943E-03
 -1       283-1.46100E-04 6.35431E-04-7.40816E-03
 -1       284-1.62661E-04 1.81703E-04-8.21171E-03
 -1       285 5.00633E-04 5.41166E-04-7.87607E-03
 -1       286 0.00000E+00 0.00000E+00 0.00000E+00
 -1       287 0.00000E+00 0.00000E+00 0.00000E+00
 -1       288 0.00000E+00 0.00000E+00 0.00000E+00
 -1       289 0.00000E+00 0.00000E+00 0.00000E+00
 -1       290 0.00000E+00 0.00000E+00 0.00000E+00
 -1       291 0.00000E+00 0.00000E+00 0.00000E+00
 -1       292 0.00000E+00 0.00000E+00 0.00000E+00
 -1       293 0.00000E+00 0.00000E+00 0.00000E+00
 -1       294 0.00000E+00 0.00000E+00 0.00000E+00
 -1       295 0.00000E+00 0.00000E+00 0.00000E+00
 -1       296 0.00000E+00 0.00000E+00 0.00000E+00
 -1       297 0.00000E+00 0.00000E+00 0.00000E+00
 -1       298 0.00000E+00 0.00000E+00 0.00000E+00
 -1       299 0.00000E+00 0.00000E+00 0.00000E+00
 -1       300 0.00000E+00 0.00000E+00 0.00000E+00
 -1       301 0.00000E+00 0.00000E+00 0.00000E+00
 -1       302 0.00000E+00 0.00000E+00 0.00000E+00
 -1       303 0.00000E+00 0.00000E+00 0.00000E+00
 -1       304 0.00000E+00 0.00000E+00 0.00000E+00
 -1       305 0.00000E+00 0.00000E+00 0.00000E+00
 -1       306 0.00000E+00 0.00000E+00 0.00000E+00
 -1       307 0.00000E+00 0.00000E+00 0.00000E+00
 -1       308 0.00000E+00 0.00000E+00 0.00000E+00
 -1       309 0.00000E+00 0.00000E+00 0.00000E+00
 -1       310 0.00000E+00 0.00000E+00 0.00000E+00
 -1       311 0.00000E+00 0.00000E+00 0.00000E+00
 -1       312 0.00000E+00 0.00000E+00 0.00000E+00
 -1       313 0.00000E+00 0.00000E+00 0.00000E+00
 -1       314 0.00000E+00 0.00000E+00 0.00000E+00
 -1       315 0.00000E+00 0.00000E+00 0.00000E+00
 -1       316 0.00000E+00 0.00000E+00 0.00000E+00
 -1       317 0.00000E+00 0.00000E+00 0.00000E+00
 -1       318 0.00000E+00 0.00000E+00 0.00000E+00
 -1       319 0.00000E+00 0.00000E+00 0.00000E+00
 -1       320 0.00000E+00 0.00000E+00 0.00000E+00
 -1       321-5.55757E-04 5.91051E-05 5.46933E-03
 -1       322-4.37198E-04 2.38520E-04 4.91979E-03
 -1       323-2.09550E-04-4.54461E-05 8.27746E-03
 -1       324-2.43568E-04-5.83621E-06 8.17492E-03
 -1       325-5.54383E-04 7.23809E-05 5.48272E-03
 -1       326 0.00000E+00 0.00000E+00 0.00000E+00
 -1       327 0.00000E+00 0.00000E+00 0.00000E+00
 -1       328 0.00000E+00 0.00000E+00 0.00000E+00
 -1       329-1.32524E-04 2.91810E-04 6.96807E-03
 -1       330-1.32135E-04 2.73802E-04 7.31068E-03
 -1       331 0.00000E+00 0.00000E+00 0.00000E+00
 -1       332-1.59081E-04 3.65186E-04 3.81362E-03
 -1       333-1.91386E-04 1.91669E-04 7.89980E-03
 -1       334-6.75313E-05 1.03837E-04 7.79881E-03
 -1       335-2.91413E-04 5.26957E-05 8.17503E-03
 -1       336 4.56699E-05-3.10641E-04 6.15185E-03
 -1       337-1.40561E-04-2.26685E-04 7.39563E-03
 -1       338 0.00000E+00 0.00000E+00 0.00000E+00
 -1       339-3.81752E-04-2.64808E-04 5.00522E-03
 -1       340-3.95864E-04-2.74432E-04 5.20246E-03
 -1       341 7.56623E-05 1.93636E-04 6.68901E-03
 -1       342 3.22147E-04-2.18731E-04 3.55219E-03
 -1       343 1.53795E-04-2.91251E-04 2.30880E-03
 -1       344 1.18621E-04-1.87964E-04 6.48904E-03
 -1       345-9.20205E-05-2.24287E-04 7.16857E-03
 -1       346 3.00038E-04 2.66457E-04 3.54439E-03
 -1       347 1.09636E-04 2.75991E-04 2.20647E-03
 -1       348 2.74179E-04 2.65045E-04 3.87839E-03
 -1       349 1.82944E-04 6.46219E-05 4.82972E-03
 -1       350-1.91594E-05 1.56276E-04 7.49466E-03
 -1       351 1.77918E-04 4.81984E-05 4.83960E-03
 -1       352 2.57244E-04-1.03850E-04 4.07166E-03
 -1       353 2.32073E-04 1.29815E-04 4.10639E-03
 -1       354 3.08064E-04 2.02120E-04 3.54733E-03
 -1       355 3.10130E-04 1.37124E-04 2.74996E-03
 -1       356 1.82093E-04 2.60407E-04 5.03261E-03
 -1       357 4.47847E-04-5.24596E-05 1.24028E-03
 -1       358 3.37022E-04-1.06885E-04 2.72980E-03
 -1       359 3.34588E-04-1.66976E-04 3.62441E-03
 -1       360 2.24360E-04-2.19699E-04 5.16548E-03
 -1       361 1.89204E-04-9.96189E-06 4.87138E-03
 -1       362-3.37135E-06-1.19861E-04 7.60935E-03
 -1       363-1.49524E-04-2.00198E-04 8.09948E-03
 -1       364-2.11111E-05-8.05311E-05 7.80843E-03
 -1       365 1.04199E-04-3.28843E-04 5.11501E-03
 -1       366 4.47203E-04-1.42909E-05 4.02310E-04
 -1       367 3.73952E-04 1.16397E-04 1.74988E-03
 -1       368 3.68898E-04 6.62520E-05 9.65734E-04
 -1       369 3.66440E-04 1.76478E-04 2.37621E-03
 -1       370 4.05664E-04-2.43582E-06-4.98729E-04
 -1       371 4.14741E-04 3.03898E-05-1.05770E-03
 -1       372 3.85684E-04-1.74309E-05-9.27429E-04
 -1       373 3.64012E-04-1.60655E-04-2.39449E-03
 -1       374 3.86547E-04-1.43189E-05-6.20590E-04
 -1       375 2.33711E-04 1.07376E-04-4.26586E-03
 -1       376 1.21806E-04 2.02676E-04-6.96046E-03
 -1       377 6.46014E-05 1.85270E-04-7.28967E-03
 -1       378 2.48191E-04 1.10974E-04-4.22426E-03
 -1       379 3.31086E-04 1.13204E-04-2.92584E-03
 -1       380 3.05169E-04 2.29604E-04-4.24752E-03
 -1       381 2.43911E-04-2.01572E-04-4.58210E-03
 -1       382 1.99722E-04-2.40541E-04-5.05657E-03
 -1       383 3.26816E-04-9.39588E-05-2.80426E-03
 -1       384 3.10436E-04-1.74456E-04-4.18927E-03
 -1       385 2.05677E-04 3.14081E-04-2.41151E-03
 -1       386 1.61850E-04 3.19612E-04-5.44632E-03
 -1       387 1.64381E-05 1.06876E-04-7.93612E-03
 -1       388 1.72788E-04 6.39273E-05-4.94605E-03
 -1       389 2.28805E-04-9.77894E-05-4.18511E-03
 -1       390 1.87456E-04-3.75846E-05-4.93405E-03
 -1       391 4.28078E-05 3.09501E-04-6.71661E-03
 -1       392 1.53400E-05 7.19325E-05-8.01266E-03
 -1       393 0.00000E+00 0.00000E+00 0.00000E+00
 -1       394-8.81545E-05-4.02074E-04-3.86596E-03
 -1       395 8.74954E-05-2.77222E-04-2.20947E-03
 -1       396 0.00000E+00 0.00000E+00 0.00000E+00
 -1       397 0.00000E+00 0.00000E+00 0.00000E+00
 -1       398 1.43061E-04-3.19799E-04-4.98297E-03
 -1       399 3.72925E-04-1.73965E-04-2.23069E-03
 -1       400 0.00000E+00 0.00000E+00 0.00000E+00
 -1       401 0.00000E+00 0.00000E+00 0.00000E+00
 -1       402 2.87376E-04-1.55570E-05-1.71644E-04
 -1       403 0.00000E+00 0.00000E+00 0.00000E+00
 -1       404 1.17533E-04 3.00242E-04 1.84355E-03
 -1       405 3.31703E-04 2.20619E-04 2.20528E-03
 -1       406 3.19653E-04 2.31577E-04 2.64460E-03
 -1       407 0.00000E+00 0.00000E+00 0.00000E+00
 -1       408 0.00000E+00 0.00000E+00 0.00000E+00
 -1       409-1.13738E-04 3.94102E-04 3.49188E-03
 -1       410 0.00000E+00 0.00000E+00 0.00000E+00
 -1       411 8.96260E-05-3.34510E-04-5.98272E-03
 -1       412 0.00000E+00 0.00000E+00 0.00000E+00
 -1       413 0.00000E+00 0.00000E+00 0.00000E+00
 -1       414 0.00000E+00 0.00000E+00 0.00000E+00
 -1       415-5.74340E-04 1.37901E-05-5.52897E-03
 -1       416-4.24967E-04-2.83536E-04-5.11328E-03
 -1       417-2.19205E-04-2.01948E-05-8.36055E-03
 -1       418 0.00000E+00 0.00000E+00 0.00000E+00
 -1       419-2.08673E-04 4.69588E-05-8.35900E-03
 -1       420-4.43183E-04 2.91375E-04-5.21892E-03
 -1       421-1.90292E-04 2.23596E-04-8.07587E-03
 -1       422 0.00000E+00 0.00000E+00 0.00000E+00
 -1       423-1.55686E-04 2.71295E-04-7.51279E-03
 -1       424-4.25535E-04 2.74985E-04-5.06834E-03
 -1       425-1.51436E-04 4.36464E-04-4.17652E-03
 -1       426 7.60112E-05 3.28120E-04-6.45830E-03
 -1       427 3.29007E-04 2.32769E-04-2.88769E-03
 -1       428 2.62248E-04 1.40051E-05-2.03987E-04
 -1       429 4.36970E-04 3.03286E-05-1.05142E-03
 -1       430 4.35345E-04 5.50511E-06 8.71577E-04
 -1       431 3.56175E-04-1.89755E-04 2.21976E-03
 -1       432 0.00000E+00 0.00000E+00 0.00000E+00
 -1       433 2.52790E-04-2.56469E-05 1.48552E-04
 -1       434 1.81364E-04-2.90050E-04 1.90398E-03
 -1       435 0.00000E+00 0.00000E+00 0.00000E+00
 -1       436-1.82235E-05-7.28537E-05-7.91797E-03
 -1       437 1.76163E-04-2.41589E-05-4.94522E-03
 -1       438 1.70830E-04-2.13947E-04-5.98530E-03
 -1       439 2.94729E-04 1.91154E-04-4.45153E-03
 -1       440 3.46661E-04 1.01724E-04-2.87119E-03
 -1       441 0.00000E+00 0.00000E+00 0.00000E+00
 -1       442 0.00000E+00 0.00000E+00 0.00000E+00
 -1       443 0.00000E+00 0.00000E+00 0.00000E+00
 -1       444 0.00000E+00 0.00000E+00 0.00000E+00
 -1       445 0.00000E+00 0.00000E+00 0.00000E+00
 -1       446 0.00000E+00 0.00000E+00 0.00000E+00
 -1       447 0.00000E+00 0.00000E+00 0.00000E+00
 -1       448 0.00000E+00 0.00000E+00 0.00000E+00
 -1       449 8.05990E-04 1.59502E-05-6.68131E-03
 -1       450 8.19063E-04-4.52546E-05-6.75551E-03
 -1       451-1.86311E-05 1.88532E-05-8.39058E-03
 -1       452-1.51129E-05-5.86777E-05-8.46966E-03
 -1       453-1.10611E-03-6.49289E-05-7.16155E-03
 -1       454-1.09513E-03-1.19100E-04-7.31340E-03
 -1       455-3.99474E-04 1.11614E-05-7.22980E-03
 -1       456 2.73144E-05-2.34183E-06-6.76231E-03
 -1       457 3.70263E-05 4.01193E-05-6.77643E-03
 -1       458-3.97619E-04 4.04042E-06-7.37402E-03
 -1       459-1.32676E-04 8.79245E-05-8.51319E-03
 -1       460-1.31831E-04-6.91728E-05-8.49171E-03
 -1       461-7.00846E-04-8.88351E-04-6.71646E-03
 -1       462-7.97832E-04-8.41906E-04-6.41304E-03
 -1       463 2.39360E-04-7.03047E-04-8.12166E-03
 -1       464 2.41437E-04-6.19148E-04-7.18019E-03
 -1       465 9.68266E-04-4.73178E-04-6.41861E-03
 -1       466 9.84503E-04-4.08350E-04-5.83838E-03
 -1       467-2.75001E-04-2.75994E-04-6.47520E-03
 -1       468 8.47679E-05-1.47560E-04-5.85891E-03
 -1       469 4.78516E-05-1.11592E-04-6.50699E-03
 -1       470-2.71313E-04-2.81345E-04-6.78494E-03
 -1       471-9.90492E-05-1.62543E-04-8.21230E-03
 -1       472 2.02919E-05-2.64652E-04-7.20537E-03
 -1       473 7.06334E-05-1.13190E-03-5.09245E-03
 -1       474 3.19524E-05-1.10409E-03-4.57696E-03
 -1       475 7.36074E-04-8.81035E-04-6.46980E-03
 -1       476 7.24348E-04-7.90905E-04-4.90766E-03
 -1       477 1.38626E-03-6.21012E-04-5.18692E-03
 -1       478 1.36773E-03-5.82936E-04-4.14295E-03
 -1       479 1.34245E-05-3.62215E-04-4.60274E-03
 -1       480 2.37000E-04-1.73342E-04-4.15760E-03
 -1       481 1.72235E-04-1.77424E-04-5.29114E-03
 -1       482-4.13665E-05-3.55337E-04-5.17739E-03
 -1       483 1.22879E-04-2.75809E-04-6.55353E-03
 -1       484 1.75339E-04-2.75104E-04-4.94024E-03
 -1       485 1.34830E-03-5.52518E-04-2.10301E-03
 -1       486 7.38788E-04-7.37133E-04-2.93955E-03
 -1       487 7.28026E-04-7.57821E-04-2.34081E-03
 -1       488 1.84803E-03-4.30920E-04-3.25833E-03
 -1       489 1.82871E-03-4.17130E-04-1.79610E-03
 -1       490 1.34903E-03-6.35697E-04-4.16677E-03
 -1       491 2.01441E-04-2.66920E-04-2.38802E-03
 -1       492 3.33442E-04-8.53566E-05-1.81165E-03
 -1       493 2.92129E-04-1.33990E-04-3.31249E-03
 -1       494 2.33457E-04-2.55101E-04-2.96144E-03
 -1       495 3.00097E-04-2.21910E-04-4.19326E-03
 -1       496 3.83873E-04-1.61902E-04-2.15267E-03
 -1       497 1.58829E-03 3.89111E-05 1.11578E-03
 -1       498 1.11605E-03 1.87037E-05-3.39780E-04
 -1       499 1.11776E-03-4.26754E-05 3.52072E-04
 -1       500 1.93149E-03 1.30994E-05-7.30040E-04
 -1       501 1.92327E-03-2.62659E-06 7.47779E-04
 -1       502 1.59182E-03-4.88859E-05-1.12367E-03
 -1       503 3.58254E-04-1.97097E-05 3.32630E-04
 -1       504 3.94374E-04 2.68579E-05 7.67885E-04
 -1       505 3.64167E-04-9.71959E-06-7.88394E-04
 -1       506 3.42813E-04-2.25031E-05-3.43026E-04
 -1       507 4.27308E-04-4.15381E-05-1.12066E-03
 -1       508 3.68528E-04 5.69017E-05 1.13560E-03
 -1       509 1.34317E-03 5.60512E-04 2.08438E-03
 -1       510 1.82425E-03 4.67035E-04 1.75487E-03
 -1       511 1.86226E-03 4.44996E-04 3.23786E-03
 -1       512 7.77524E-04 7.77849E-04 2.31960E-03
 -1       513 7.92828E-04 7.71405E-04 2.97335E-03
 -1       514 1.31679E-03 6.41319E-04 4.13058E-03
 -1       515 2.50820E-04 2.82331E-04 2.99552E-03
 -1       516 3.08938E-04 1.61415E-04 3.26511E-03
 -1       517 3.61975E-04 1.43146E-04 1.78623E-03
 -1       518 2.17954E-04 2.80448E-04 2.32792E-03
 -1       519 3.59307E-04 1.95683E-04 2.11457E-03
 -1       520 2.88400E-04 2.51792E-04 4.14205E-03
 -1       521-1.42659E-05 1.06910E-03 4.55983E-03
 -1       522 4.50356E-05 1.10901E-03 5.12171E-03
 -1       523 7.46953E-04 8.45181E-04 4.91900E-03
 -1       524 7.84775E-04 9.11891E-04 6.62928E-03
 -1       525 1.38899E-03 6.47197E-04 4.07110E-03
 -1       526 1.45508E-03 6.44234E-04 5.22183E-03
 -1       527-6.95787E-05 3.49328E-04 5.11361E-03
 -1       528 1.91648E-04 1.98598E-04 5.24265E-03
 -1       529 2.16460E-04 2.15909E-04 4.10914E-03
 -1       530-5.12666E-05 3.68840E-04 4.64477E-03
 -1       531 1.98056E-04 2.77570E-04 4.96886E-03
 -1       532 1.07449E-04 2.56975E-04 6.63693E-03
 -1       533-8.22101E-04 7.87056E-04 6.31602E-03
 -1       534-6.86116E-04 8.37299E-04 6.64358E-03
 -1       535 1.97781E-04 6.58382E-04 7.06644E-03
 -1       536 1.97432E-04 6.69073E-04 8.05769E-03
 -1       537 1.00313E-03 4.57584E-04 5.71627E-03
 -1       538 9.72802E-04 5.14962E-04 6.40400E-03
 -1       539-2.71512E-04 2.68272E-04 6.69337E-03
 -1       540 5.01122E-05 1.38673E-04 6.46053E-03
 -1       541 1.07792E-04 1.81228E-04 5.81832E-03
 -1       542-2.69051E-04 3.02940E-04 6.42548E-03
 -1       543-8.53553E-06 2.70616E-04 7.19650E-03
 -1       544-5.83487E-05 1.67566E-04 8.11628E-03
 -1       545-1.05657E-03 1.70252E-05 7.08375E-03
 -1       546-1.10762E-03 1.10873E-04 7.17737E-03
 -1       547-5.79397E-05 7.15450E-05 8.13682E-03
 -1       548-3.51760E-05 1.52014E-04 8.42765E-03
 -1       549 8.06122E-04 5.48571E-05 6.52995E-03
 -1       550 8.04612E-04 1.09156E-04 6.61710E-03
 -1       551-4.19502E-04-1.02855E-05 7.19038E-03
 -1       552 2.14659E-05-8.88257E-06 6.65488E-03
 -1       553-2.61648E-06 3.80041E-05 6.61776E-03
 -1       554-3.92698E-04 3.57287E-05 7.24898E-03
 -1       555-1.49526E-04 7.02712E-05 8.22655E-03
 -1       556-1.12909E-04-4.51528E-05 8.45095E-03
 -1       557 1.01808E-03-4.00017E-04 5.81098E-03
 -1       558 1.00780E-03-4.46494E-04 6.45600E-03
 -1       559 3.04408E-04-5.52315E-04 7.23195E-03
 -1       560 1.90851E-04-6.27512E-04 8.14247E-03
 -1       561-7.99937E-04-7.24768E-04 6.55725E-03
 -1       562-6.90305E-04-7.75524E-04 6.83672E-03
 -1       563-2.54724E-04-2.49620E-04 6.65935E-03
 -1       564 1.22791E-04-1.47476E-04 5.91233E-03
 -1       565 9.48693E-05-1.11520E-04 6.51291E-03
 -1       566-2.85305E-04-2.52609E-04 6.90115E-03
 -1       567-1.01977E-04-1.44335E-04 8.22659E-03
 -1       568 9.37376E-06-2.33366E-04 7.33503E-03
 -1       569 1.44066E-03-5.91504E-04 4.08537E-03
 -1       570 1.46377E-03-5.95672E-04 5.24464E-03
 -1       571 8.03538E-04-7.85102E-04 5.03947E-03
 -1       572 7.75034E-04-8.60110E-04 6.67422E-03
 -1       573-1.46207E-05-1.08372E-03 4.65892E-03
 -1       574 4.44645E-05-1.07821E-03 5.20200E-03
 -1       575 1.94387E-06-3.55774E-04 4.70571E-03
 -1       576 2.57826E-04-1.62909E-04 4.14564E-03
 -1       577 2.13273E-04-1.25115E-04 5.28680E-03
 -1       578-3.38977E-06-3.40744E-04 5.21127E-03
 -1       579 8.23720E-05-2.35009E-04 6.73892E-03
 -1       580 2.27096E-04-2.48327E-04 5.13497E-03
 -1       581 1.43673E-03-6.24655E-04 4.24402E-03
 -1       582 1.91424E-03-4.26238E-04 1.71350E-03
 -1       583 1.94932E-03-4.13207E-04 3.24844E-03
 -1       584 8.77105E-04-7.75166E-04 2.34650E-03
 -1       585 8.88866E-04-7.61549E-04 3.05875E-03
 -1       586 1.46166E-03-5.57939E-04 2.05953E-03
 -1       587 2.80555E-04-2.48319E-04 2.39177E-03
 -1       588 3.94116E-04-9.38525E-05 1.74676E-03
 -1       589 3.45439E-04-1.27180E-04 3.27770E-03
 -1       590 2.65586E-04-2.58161E-04 3.08873E-03
 -1       591 3.43064E-04-2.01423E-04 4.29048E-03
 -1       592 4.14646E-04-1.58589E-04 2.07128E-03
 -1       593 1.67800E-03-3.12498E-05 1.05010E-03
 -1       594 2.04412E-03-7.76125E-06-8.77638E-04
 -1       595 2.04521E-03 4.50713E-06 6.78618E-04
 -1       596 1.14442E-03 1.55744E-05-4.43074E-04
 -1       597 1.15910E-03 5.16802E-05 3.20679E-04
 -1       598 1.67719E-03 4.13405E-05-1.28376E-03
 -1       599 3.87073E-04 2.34829E-05-4.53172E-04
 -1       600 4.16736E-04-6.44361E-06-8.92338E-04
 -1       601 4.25609E-04 4.90083E-06 6.96984E-04
 -1       602 3.64662E-04-1.36168E-05 3.31489E-04
 -1       603 4.49624E-04-4.92946E-05 1.03909E-03
 -1       604 4.29545E-04 4.74588E-05-1.27237E-03
 -1       605 1.44793E-03 6.25985E-04-4.43288E-03
 -1       606 8.89998E-04 8.32199E-04-3.27400E-03
 -1       607 8.82128E-04 8.13609E-04-2.53086E-03
 -1       608 1.89282E-03 4.37510E-04-3.42462E-03
 -1       609 1.85723E-03 4.32499E-04-1.96378E-03
 -1       610 1.40949E-03 5.98539E-04-2.34433E-03
 -1       611 2.48414E-04 2.82547E-04-3.34869E-03
 -1       612 3.34125E-04 1.42540E-04-3.48015E-03
 -1       613 3.53861E-04 1.21726E-04-1.97493E-03
 -1       614 2.99331E-04 2.50497E-04-2.53847E-03
 -1       615 3.81905E-04 2.16826E-04-2.34830E-03
 -1       616 3.29301E-04 2.10196E-04-4.44823E-03
 -1       617 1.43669E-03 5.59821E-04-5.39565E-03
 -1       618 1.41585E-03 5.46598E-04-4.33559E-03
 -1       619 8.26431E-04 8.47492E-04-6.95746E-03
 -1       620 8.16070E-04 7.63102E-04-5.37668E-03
 -1       621-2.88440E-05 1.11910E-03-5.55648E-03
 -1       622-5.71034E-05 1.09243E-03-5.10864E-03
 -1       623-1.09633E-04 3.85927E-04-5.65310E-03
 -1       624 2.05668E-04 1.72767E-04-5.44556E-03
 -1       625 2.29667E-04 1.89583E-04-4.34919E-03
 -1       626-5.39672E-05 3.82480E-04-5.17267E-03
 -1       627 2.28048E-04 3.03273E-04-5.36959E-03
 -1       628 9.07693E-05 2.51884E-04-7.04888E-03
 -1       629 9.82655E-04 3.83092E-04-6.49436E-03
 -1       630 1.00059E-03 3.29529E-04-5.95674E-03
 -1       631 1.71606E-04 6.06698E-04-8.33563E-03
 -1       632 2.19045E-04 5.11961E-04-7.51207E-03
 -1       633-7.60365E-04 7.94340E-04-6.93850E-03
 -1       634-8.52743E-04 7.39493E-04-6.70116E-03
 -1       635-3.45904E-04 2.68858E-04-7.02473E-03
 -1       636 5.09780E-05 1.05513E-04-6.57926E-03
 -1       637 1.10990E-04 1.47620E-04-5.97655E-03
 -1       638-2.94861E-04 2.75322E-04-6.74290E-03
 -1       639-8.83571E-06 2.25490E-04-7.55917E-03
 -1       640-1.33099E-04 1.51866E-04-8.43544E-03
 -1       641 0.00000E+00 0.00000E+00 0.00000E+00
 -1       642 0.00000E+00 0.00000E+00 0.00000E+00
 -1       643 0.00000E+00 0.00000E+00 0.00000E+00
 -1       644 0.00000E+00 0.00000E+00 0.00000E+00
 -1       645 0.00000E+00 0.00000E+00 0.00000E+00
 -1       646 0.00000E+00 0.00000E+00 0.00000E+00
 -1       647 0.00000E+00 0.00000E+00 0.00000E+00
 -1       648 0.00000E+00 0.00000E+00 0.00000E+00
 -1       649 0.00000E+00 0.00000E+00 0.00000E+00
 -1       650 0.00000E+00 0.00000E+00 0.00000E+00
 -1       651 0.00000E+00 0.00000E+00 0.00000E+00
 -1       652 0.00000E+00 0.00000E+00 0.00000E+00
 -1       653 0.00000E+00 0.00000E+00 0.00000E+00
 -1       654 0.00000E+00 0.00000E+00 0.00000E+00
 -1       655 0.00000E+00 0.00000E+00 0.00000E+00
 -1       656 0.00000E+00 0.00000E+00 0.00000E+00
 -1       657 0.00000E+00 0.00000E+00 0.00000E+00
 -1       658 0.00000E+00 0.00000E+00 0.00000E+00
 -1       659 0.00000E+00 0.00000E+00 0.00000E+00
 -1       660 0.00000E+00 0.00000E+00 0.00000E+00
 -1       661 0.00000E+00 0.00000E+00 0.00000E+00
 -1       662 0.00000E+00 0.00000E+00 0.00000E+00
 -1       663 0.00000E+00 0.00000E+00 0.00000E+00
 -1       664 0.00000E+00 0.00000E+00 0.00000E+00
 -1       665 0.00000E+00 0.00000E+00 0.00000E+00
 -1       666 0.00000E+00 0.00000E+00 0.00000E+00
 -1       667 0.00000E+00 0.00000E+00 0.00000E+00
 -1       668 0.00000E+00 0.00000E+00 0.00000E+00
 -1       669 0.00000E+00 0.00000E+00 0.00000E+00
 -1       670 0.00000E+00 0.00000E+00 0.00000E+00
 -1       671 0.00000E+00 0.00000E+00 0.00000E+00
 -1       672 0.00000E+00 0.00000E+00 0.00000E+00
 -1       673 0.00000E+00 0.00000E+00 0.00000E+00
 -1       674 0.00000E+00 0.00000E+00 0.00000E+00
 -1       675 0.00000E+00 0.00000E+00 0.00000E+00
 -1       676 0.00000E+00 0.00000E+00 0.00000E+00
 -1       677 0.00000E+00 0.00000E+00 0.00000E+00
 -1       678 0.00000E+00 0.00000E+00 0.00000E+00
 -1       679 0.00000E+00 0.00000E+00 0.00000E+00
 -1       680 0.00000E+00 0.00000E+00 0.00000E+00
 -1       681 0.00000E+00 0.00000E+00 0.00000E+00
 -1       682 0.00000E+00 0.00000E+00 0.00000E+00
 -1       683 0.00000E+00 0.00000E+00 0.00000E+00
 -1       684 0.00000E+00 0.00000E+00 0.00000E+00
 -1       685 0.00000E+00 0.00000E+00 0.00000E+00
 -1       686 0.00000E+00 0.00000E+00 0.00000E+00
 -1       687 0.00000E+00 0.00000E+00 0.00000E+00
 -1       688 0.00000E+00 0.00000E+00 0.00000E+00
 -1       689 0.00000E+00 0.00000E+00 0.00000E+00
 -1       690 0.00000E+00 0.00000E+00 0.00000E+00
 -1       691 0.00000E+00 0.00000E+00 0.00000E+00
 -1       692 0.00000E+00 0.00000E+00 0.00000E+00
 -1       693 0.00000E+00 0.00000E+00 0.00000E+00
 -1       694 0.00000E+00 0.00000E+00 0.00000E+00
 -1       695 0.00000E+00 0.00000E+00 0.00000E+00
 -1       696 0.00000E+00 0.00000E+00 0.00000E+00
 -1       697 0.00000E+00 0.00000E+00 0.00000E+00
 -1       698 0.00000E+00 0.00000E+00 0.00000E+00
 -1       699 0.00000E+00 0.00000E+00 0.00000E+00
 -1       700 0.00000E+00 0.00000E+00 0.00000E+00
 -1       701 0.00000E+00 0.00000E+00 0.00000E+00
 -1       702 0.00000E+00 0.00000E+00 0.00000E+00
 -1       703 0.00000E+00 0.00000E+00 0.00000E+00
 -1       704 0.00000E+00 0.00000E+00 0.00000E+00
 -1       705 5.76393E-04 2.30753E-05-7.24480E-03
 -1       706 9.34339E-04 6.00077E-06-5.81574E-03
 -1       707 6.01241E-04-7.18795E-05-7.30542E-03
 -1       708 1.51667E-04 1.22208E-05-8.09743E-03
 -1       709-7.76249E-04-4.67096E-06-7.68615E-03
 -1       710-1.25755E-03-8.18320E-05-6.39372E-03
 -1       711-1.56216E-04-1.54096E-05-8.53887E-03
 -1       712-1.00111E-04-4.83140E-05-8.27564E-03
 -1       713 1.10079E-03-4.34437E-04-5.68651E-03
 -1       714 7.69386E-04-5.33298E-04-6.95348E-03
 -1       715 1.09961E-03-3.98043E-04-5.04289E-03
 -1       716 2.87709E-05-1.45809E-04-7.16346E-03
 -1       717-4.12027E-05-2.41178E-04-7.24563E-03
 -1       718 4.89140E-05-2.24051E-04-6.99719E-03
 -1       719 1.21466E-03-6.96266E-04-5.55117E-03
 -1       720 1.49146E-03-5.58014E-04-3.50341E-03
 -1       721-6.78323E-05-3.67874E-04-4.56884E-03
 -1       722 1.90685E-03-3.78867E-04-1.45924E-03
 -1       723 1.44817E-03-5.78102E-04-4.18103E-03
 -1       724 1.20513E-03-6.67115E-04-4.03251E-03
 -1       725 2.02704E-03 1.26201E-05-7.98162E-04
 -1       726 1.80515E-03-2.62448E-06-6.86368E-04
 -1       727 2.02564E-03 6.21105E-06 7.87219E-04
 -1       728 1.52598E-03-4.47361E-05-1.05894E-03
 -1       729 1.23530E-03 6.81892E-04 4.02441E-03
 -1       730 1.37146E-03 5.90146E-04 4.07303E-03
 -1       731 3.01462E-04 2.66989E-04 4.09129E-03
 -1       732 2.45181E-04 2.25830E-04 4.13662E-03
 -1       733 1.51629E-03 6.13234E-04 3.43051E-03
 -1       734 1.21026E-03 6.97601E-04 4.48690E-03
 -1       735 1.56003E-03 6.18259E-04 4.59870E-03
 -1       736 2.05174E-04 2.33205E-04 4.64140E-03
 -1       737 1.10809E-03 4.43131E-04 4.94253E-03
 -1       738 7.62314E-04 5.13877E-04 6.27823E-03
 -1       739 1.14253E-03 4.74189E-04 5.58955E-03
 -1       740 5.04200E-05 1.85658E-04 6.47207E-03
 -1       741-9.54289E-05 2.03389E-04 8.08929E-03
 -1       742-5.44514E-05 1.53807E-04 7.95605E-03
 -1       743 9.51526E-04 3.39284E-05 5.70723E-03
 -1       744 5.60871E-04 4.61731E-05 7.11978E-03
 -1       745 9.52647E-04 8.04486E-05 5.73220E-03
 -1       746-3.31512E-05 5.02541E-05 7.39265E-03
 -1       747-1.53257E-04-2.81793E-05 8.38604E-03
 -1       748-9.28514E-05-3.39584E-05 8.24803E-03
 -1       749 1.15929E-03-3.77730E-04 5.00134E-03
 -1       750 8.00065E-04-4.72231E-04 6.92308E-03
 -1       751 3.66824E-04-6.08363E-04 7.96895E-03
 -1       752 3.37863E-05-6.89232E-04 8.07642E-03
 -1       753-9.23574E-04-7.87902E-04 6.01965E-03
 -1       754 7.42801E-05-8.52601E-05 7.11975E-03
 -1       755-2.24268E-05-2.27688E-04 7.38443E-03
 -1       756 3.33605E-05-2.11648E-04 7.12094E-03
 -1       757 1.56656E-03-5.53981E-04 3.44635E-03
 -1       758 1.25976E-03-6.40258E-04 5.55910E-03
 -1       759 8.91973E-04-7.73229E-04 6.52042E-03
 -1       760 6.02733E-04-9.23962E-04 6.51621E-03
 -1       761-1.51210E-04-1.04752E-03 4.50529E-03
 -1       762 1.74912E-04-2.79131E-04 5.15451E-03
 -1       763 2.23675E-04-2.21914E-04 4.95850E-03
 -1       764 2.01689E-03-4.07606E-04 1.34934E-03
 -1       765 1.78432E-03-4.85112E-04 3.39052E-03
 -1       766 1.52908E-03-5.21325E-04 1.88266E-03
 -1       767 3.31971E-04-1.51617E-04 3.49145E-03
 -1       768 3.83858E-04-1.37272E-04 1.93788E-03
 -1       769 2.16067E-03 1.45780E-06-9.38851E-04
 -1       770 1.92619E-03-7.86130E-06 5.83725E-04
 -1       771 1.31710E-03 1.56680E-05-5.09101E-04
 -1       772 9.78882E-04 2.13002E-05 2.43866E-04
 -1       773 4.60651E-04 3.92912E-05-1.20184E-03
 -1       774 4.34347E-04 5.51999E-05-1.37710E-03
 -1       775 1.97126E-03 3.94535E-04-3.10984E-03
 -1       776 1.73853E-03 4.73250E-04-2.22498E-03
 -1       777 1.48738E-03 5.59508E-04-2.12728E-03
 -1       778 1.30367E-03 6.30787E-04-2.33382E-03
 -1       779 4.29592E-04 1.46277E-04-2.30943E-03
 -1       780 1.56208E-03 5.43721E-04-4.79001E-03
 -1       781 1.24812E-03 6.11321E-04-4.77689E-03
 -1       782 9.44796E-04 7.78439E-04-6.77302E-03
 -1       783 2.73122E-04 1.07455E-03-5.95569E-03
 -1       784-1.94662E-04 1.12267E-03-4.49680E-03
 -1       785 2.45441E-04 2.15089E-04-4.93543E-03
 -1       786 1.11372E-03 3.48993E-04-5.69791E-03
 -1       787 7.92205E-04 3.86996E-04-6.54034E-03
 -1       788 3.31902E-04 5.65082E-04-8.08209E-03
 -1       789-4.72948E-04 7.72094E-04-7.39017E-03
 -1       790-1.01221E-03 7.52506E-04-5.91220E-03
 -1       791 7.86694E-05 1.75697E-04-6.72229E-03
 -1       792-1.53365E-04 1.58424E-04-8.41301E-03
 -1       793-1.05858E-04 1.29404E-04-8.27063E-03
 -1       794 0.00000E+00 0.00000E+00 0.00000E+00
 -1       795 0.00000E+00 0.00000E+00 0.00000E+00
 -1       796 0.00000E+00 0.00000E+00 0.00000E+00
 -1       797 0.00000E+00 0.00000E+00 0.00000E+00
 -1       798 0.00000E+00 0.00000E+00 0.00000E+00
 -1       799 0.00000E+00 0.00000E+00 0.00000E+00
 -1       800 0.00000E+00 0.00000E+00 0.00000E+00
 -1       801 0.00000E+00 0.00000E+00 0.00000E+00
 -1       802 0.00000E+00 0.00000E+00 0.00000E+00
 -1       803 0.00000E+00 0.00000E+00 0.00000E+00
 -1       804 0.00000E+00 0.00000E+00 0.00000E+00
 -1       805 0.00000E+00 0.00000E+00 0.00000E+00
 -1       806 0.00000E+00 0.00000E+00 0.00000E+00
 -1       807 0.00000E+00 0.00000E+00 0.00000E+00
 -1       808 0.00000E+00 0.00000E+00 0.00000E+00
 -1       809 0.00000E+00 0.00000E+00 0.00000E+00
 -1       810 0.00000E+00 0.00000E+00 0.00000E+00
 -1       811 0.00000E+00 0.00000E+00 0.00000E+00
 -1       812 0.00000E+00 0.00000E+00 0.00000E+00
 -1       813 0.00000E+00 0.00000E+00 0.00000E+00
 -1       814 0.00000E+00 0.00000E+00 0.00000E+00
 -1       815 0.00000E+00 0.00000E+00 0.00000E+00
 -1       816 0.00000E+00 0.00000E+00 0.00000E+00
 -1       817 0.00000E+00 0.00000E+00 0.00000E+00
 -1       818 0.00000E+00 0.00000E+00 0.00000E+00
 -1       819 0.00000E+00 0.00000E+00 0.00000E+00
 -1       820 0.00000E+00 0.00000E+00 0.00000E+00
 -1       821 0.00000E+00 0.00000E+00 0.00000E+00
 -1       822 0.00000E+00 0.00000E+00 0.00000E+00
 -1       823 0.00000E+00 0.00000E+00 0.00000E+00
 -1       824 0.00000E+00 0.00000E+00 0.00000E+00
 -1       825 0.00000E+00 0.00000E+00 0.00000E+00
 -1       826 0.00000E+00 0.00000E+00 0.00000E+00
 -1       827 0.00000E+00 0.00000E+00 0.00000E+00
 -1       828 0.00000E+00 0.00000E+00 0.00000E+00
 -1       829 0.00000E+00 0.00000E+00 0.00000E+00
 -1       830 0.00000E+00 0.00000E+00 0.00000E+00
 -1       831 0.00000E+00 0.00000E+00 0.00000E+00
 -1       832 0.00000E+00 0.00000E+00 0.00000E+00
 -1       833 0.00000E+00 0.00000E+00 0.00000E+00
 -1       834 0.00000E+00 0.00000E+00 0.00000E+00
 -1       835 0.00000E+00 0.00000E+00 0.00000E+00
 -1       836 0.00000E+00 0.00000E+00 0.00000E+00
 -1       837 0.00000E+00 0.00000E+00 0.00000E+00
 -1       838 0.00000E+00 0.00000E+00 0.00000E+00
 -1       839 0.00000E+00 0.00000E+00 0.00000E+00
 -1       840 0.00000E+00 0.00000E+00 0.00000E+00
 -1       841 0.00000E+00 0.00000E+00 0.00000E+00
 -1       842 0.00000E+00 0.00000E+00 0.00000E+00
 -1       843 0.00000E+00 0.00000E+00 0.00000E+00
 -1       844 0.00000E+00 0.00000E+00 0.00000E+00
 -1       845 0.00000E+00 0.00000E+00 0.00000E+00
 -1       846 0.00000E+00 0.00000E+00 0.00000E+00
 -1       847 0.00000E+00 0.00000E+00 0.00000E+00
 -1       848 0.00000E+00 0.00000E+00 0.00000E+00
 -1       849 0.00000E+00 0.00000E+00 0.00000E+00
 -1       850 0.00000E+00 0.00000E+00 0.00000E+00
 -1       851 9.91044E-04-3.88178E-05-5.85880E-03
 -1       852-2.18721E-04 5.67453E-05-8.36782E-03
 -1       853-2.55648E-04-1.26148E-05-8.33536E-03
 -1       854 1.74205E-04-7.17739E-05-8.17489E-03
 -1       855-1.28241E-03-2.38208E-05-6.33437E-03
 -1       856-8.24697E-04-1.43405E-04-7.78340E-03
 -1       857-2.19580E-06 2.91347E-05-7.46226E-03
 -1       858-3.19378E-04-1.40118E-05-8.00478E-03
 -1       859-4.59675E-04 2.21310E-05-6.41860E-03
 -1       860 9.86859E-05-8.59832E-06-5.91641E-03
 -1       861 2.10352E-05-7.02594E-06-7.48755E-03
 -1       862 7.93248E-05 5.54279E-05-5.91204E-03
 -1       863-4.83213E-04 3.40790E-05-6.48848E-03
 -1       864-3.39815E-04-5.16779E-06-8.00164E-03
 -1       865-2.01265E-04 5.25136E-05-8.53809E-03
 -1       866-7.76804E-05 3.44461E-05-8.30205E-03
 -1       867-4.60662E-04-8.15465E-04-6.84721E-03
 -1       868-9.13392E-04-8.79845E-04-5.92058E-03
 -1       869-3.85690E-04-8.83617E-04-7.33451E-03
 -1       870-9.59055E-04-8.26345E-04-5.67174E-03
 -1       871 8.59762E-05-7.49372E-04-8.06303E-03
 -1       872 3.68271E-04-6.69014E-04-7.96228E-03
 -1       873 4.20644E-04-5.99642E-04-6.88545E-03
 -1       874 5.82095E-05-6.86944E-04-7.10757E-03
 -1       875 7.82648E-04-4.38864E-04-6.43804E-03
 -1       876-1.74959E-04-2.77354E-04-7.11180E-03
 -1       877-3.34741E-04-2.96572E-04-5.72682E-03
 -1       878 1.30517E-04-1.27473E-04-5.09814E-03
 -1       879 5.14607E-05-1.70611E-04-6.58648E-03
 -1       880 1.15222E-04-9.22982E-05-5.77669E-03
 -1       881-3.44537E-04-2.97381E-04-6.03126E-03
 -1       882-1.87745E-04-2.62218E-04-7.57097E-03
 -1       883-1.16428E-04-1.84029E-04-8.25203E-03
 -1       884-6.02252E-05-1.47925E-04-8.12937E-03
 -1       885 1.51174E-03-5.81375E-04-4.65453E-03
 -1       886 5.88939E-04-8.95739E-04-6.38855E-03
 -1       887-6.38791E-05-1.13983E-03-4.52998E-03
 -1       888 2.84811E-04-1.06872E-03-5.49901E-03
 -1       889 2.11243E-04-1.01222E-03-4.95463E-03
 -1       890-8.50919E-05-1.11521E-03-4.04989E-03
 -1       891 8.67085E-04-8.28419E-04-6.41192E-03
 -1       892 8.65230E-04-7.37899E-04-4.79510E-03
 -1       893 6.02947E-04-8.51895E-04-4.90235E-03
 -1       894 1.18356E-03-6.19441E-04-4.59432E-03
 -1       895 8.64019E-05-3.42551E-04-5.10324E-03
 -1       896-8.22938E-05-3.52392E-04-4.10255E-03
 -1       897 2.75242E-04-1.66125E-04-3.52303E-03
 -1       898 2.22363E-04-1.95196E-04-4.71060E-03
 -1       899 1.78870E-04-2.05561E-04-5.74408E-03
 -1       900 2.16680E-04-1.59090E-04-4.73659E-03
 -1       901 1.46554E-05-3.73492E-04-5.69148E-03
 -1       902 2.23567E-04-2.26933E-04-4.89796E-03
 -1       903 1.09958E-04-3.07247E-04-4.99933E-03
 -1       904 5.44617E-05-2.89187E-04-6.48539E-03
 -1       905 1.43036E-04-2.33971E-04-6.55936E-03
 -1       906 1.72625E-03-4.84583E-04-3.38689E-03
 -1       907 1.92207E-03-3.93423E-04-2.93830E-03
 -1       908 1.45550E-03-5.25154E-04-1.94344E-03
 -1       909 1.22554E-03-5.77722E-04-2.14701E-03
 -1       910 5.87530E-04-7.26431E-04-2.56474E-03
 -1       911 9.51297E-04-7.18352E-04-3.19721E-03
 -1       912 9.38884E-04-7.36811E-04-2.44334E-03
 -1       913 5.83951E-04-7.71685E-04-2.09575E-03
 -1       914 1.68099E-03-4.61784E-04-2.07392E-03
 -1       915 2.83426E-04-2.72194E-04-2.53999E-03
 -1       916 1.96809E-04-2.87230E-04-2.15165E-03
 -1       917 3.78811E-04-7.31501E-05-1.45403E-03
 -1       918 3.91973E-04-1.23606E-04-2.11587E-03
 -1       919 3.46651E-04-1.51721E-04-3.47834E-03
 -1       920 3.05890E-04-1.36212E-04-3.00405E-03
 -1       921 1.80529E-04-2.65918E-04-2.59894E-03
 -1       922 2.91486E-04-2.36301E-04-3.27166E-03
 -1       923 3.56601E-04-1.42080E-04-1.97731E-03
 -1       924 3.23179E-04-1.72493E-04-2.21300E-03
 -1       925 2.78916E-04-2.54068E-04-4.09155E-03
 -1       926 3.23226E-04-1.89737E-04-4.25033E-03
 -1       927 1.65038E-03 4.81420E-05 1.15778E-03
 -1       928 1.53234E-03 3.33024E-05 1.07811E-03
 -1       929 9.86522E-04 1.05494E-05-3.13403E-04
 -1       930 1.29439E-03 1.61094E-05-3.94603E-04
 -1       931 1.28210E-03-2.93393E-05 4.10752E-04
 -1       932 9.89274E-04-5.32286E-05 2.87648E-04
 -1       933 1.78637E-03-1.30031E-05 6.79804E-04
 -1       934 1.65667E-03-4.56650E-05-1.18636E-03
 -1       935 3.35082E-04-2.68223E-05-2.98538E-04
 -1       936 4.29101E-04-8.32177E-06 3.98681E-04
 -1       937 3.15116E-04-2.97371E-05 2.70657E-04
 -1       938 3.86432E-04 3.77288E-05 7.98079E-04
 -1       939 4.22156E-04 3.53369E-05 6.67643E-04
 -1       940 4.23588E-04-2.86859E-05-7.15368E-04
 -1       941 3.88450E-04-1.30598E-05-8.20574E-04
 -1       942 4.00006E-04-1.33644E-05-4.03859E-04
 -1       943 9.52219E-04 7.42494E-04 3.20954E-03
 -1       944 1.65811E-03 4.90622E-04 2.04843E-03
 -1       945 3.65066E-04 6.37135E-05 1.16936E-03
 -1       946 4.14663E-04 4.62105E-05 1.07234E-03
 -1       947 4.25612E-04-4.21902E-05-1.05195E-03
 -1       948 3.93274E-04-4.78349E-05-1.19215E-03
 -1       949 1.92319E-03 4.40014E-04 1.38829E-03
 -1       950 1.23655E-03 5.96746E-04 2.11522E-03
 -1       951 1.39128E-03 5.26607E-04 1.92793E-03
 -1       952 1.95640E-03 4.30992E-04 2.93150E-03
 -1       953 1.72542E-03 4.83086E-04 3.36824E-03
 -1       954 6.06840E-04 7.99860E-04 2.11453E-03
 -1       955 9.44853E-04 7.42016E-04 2.44447E-03
 -1       956 6.57027E-04 7.69562E-04 2.60508E-03
 -1       957 2.43719E-04 2.58607E-04 3.28156E-03
 -1       958 2.46538E-04 2.99130E-04 2.61379E-03
 -1       959 3.30154E-04 1.59652E-04 2.96473E-03
 -1       960 3.27320E-04 1.80976E-04 3.42428E-03
 -1       961 3.50623E-04 1.55123E-04 2.13448E-03
 -1       962 3.74876E-04 1.28298E-04 1.41675E-03
 -1       963 2.03703E-04 3.07391E-04 2.16272E-03
 -1       964 2.46828E-04 2.55601E-04 2.54504E-03
 -1       965 3.41230E-04 1.93638E-04 2.17509E-03
 -1       966 3.30141E-04 1.75290E-04 1.96504E-03
 -1       967 5.94301E-04 8.67166E-04 4.93103E-03
 -1       968-1.40980E-04 1.07990E-03 3.99730E-03
 -1       969 1.76769E-04 1.05734E-03 4.90212E-03
 -1       970 2.23860E-04 1.09167E-03 5.53745E-03
 -1       971-1.27659E-04 1.12960E-03 4.46745E-03
 -1       972 8.79922E-04 7.91156E-04 4.72289E-03
 -1       973 9.24526E-04 8.23620E-04 6.51398E-03
 -1       974 6.41335E-04 9.55998E-04 6.44438E-03
 -1       975 1.28842E-03 7.04559E-04 5.56359E-03
 -1       976-1.76607E-06 3.67813E-04 5.56940E-03
 -1       977-1.40906E-04 3.55537E-04 4.50580E-03
 -1       978 2.02108E-04 1.65642E-04 4.65518E-03
 -1       979 1.85332E-04 2.28345E-04 5.68402E-03
 -1       980 2.73965E-04 2.00229E-04 3.49557E-03
 -1       981 1.13392E-04 2.34475E-04 6.62549E-03
 -1       982-1.02857E-04 3.82806E-04 4.12113E-03
 -1       983 2.99425E-05 3.61377E-04 5.00894E-03
 -1       984 9.06210E-05 2.87630E-04 6.51669E-03
 -1       985 1.22155E-04 2.93793E-04 5.04055E-03
 -1       986 1.60718E-04 2.78229E-04 4.87379E-03
 -1       987 3.40118E-05 7.31070E-04 6.99095E-03
 -1       988-9.68533E-04 8.16468E-04 5.55827E-03
 -1       989-4.85770E-04 7.12708E-04 6.73003E-03
 -1       990-4.02524E-04 8.28863E-04 7.17648E-03
 -1       991-9.30812E-04 8.31056E-04 5.83846E-03
 -1       992 3.77697E-04 6.15138E-04 6.80119E-03
 -1       993 3.55624E-04 6.77203E-04 7.85413E-03
 -1       994 6.96126E-05 7.51599E-04 7.99133E-03
 -1       995 7.68385E-04 5.66145E-04 6.88597E-03
 -1       996-2.35054E-04 2.45449E-04 7.28533E-03
 -1       997-3.85947E-04 2.55623E-04 5.95139E-03
 -1       998 1.25693E-04 1.15658E-04 5.66556E-03
 -1       999 5.70569E-05 1.32497E-04 7.05650E-03
 -1      1000 1.49932E-04 1.66022E-04 5.00667E-03
 -1      1001-3.81411E-04 2.76100E-04 5.66549E-03
 -1      1002-2.28086E-04 2.59404E-04 6.97267E-03
 -1      1003-7.55738E-05 2.67478E-04 7.14440E-03
 -1      1004 1.28723E-05 2.10931E-04 6.95791E-03
 -1      1005-2.58480E-04 1.69126E-05 8.13297E-03
 -1      1006-1.19873E-03 6.33742E-05 6.26501E-03
 -1      1007-7.63406E-04 1.60069E-05 7.54967E-03
 -1      1008-8.00788E-04 1.22168E-04 7.68121E-03
 -1      1009-1.30280E-03 1.22822E-04 6.34565E-03
 -1      1010 1.17029E-04 6.07926E-05 7.93845E-03
 -1      1011 1.48875E-04 1.49660E-04 8.12265E-03
 -1      1012-2.24222E-04 1.43443E-04 8.25198E-03
 -1      1013 5.88301E-04 1.44771E-04 7.23692E-03
 -1      1014-3.26807E-04-2.03060E-06 7.90260E-03
 -1      1015-5.01367E-04 3.08510E-05 6.42025E-03
 -1      1016 1.25594E-04-1.28356E-05 5.83858E-03
 -1      1017-3.86273E-05-3.99005E-06 7.40651E-03
 -1      1018 1.13997E-04 4.64369E-05 5.80036E-03
 -1      1019-4.71025E-04 3.89242E-05 6.38893E-03
 -1      1020-3.32205E-04 3.01875E-05 7.84250E-03
 -1      1021-2.26211E-04 5.38986E-05 8.37779E-03
 -1      1022-9.22827E-05 7.96286E-05 8.15446E-03
 -1      1023 7.87010E-04-3.97798E-04 6.39647E-03
 -1      1024 1.15214E-03-4.39184E-04 5.64030E-03
 -1      1025 3.92282E-04-4.54018E-04 7.05740E-03
 -1      1026 9.02880E-05-6.31399E-04 7.20396E-03
 -1      1027-4.75642E-04-6.79137E-04 6.93438E-03
 -1      1028-9.64561E-04-7.38800E-04 5.82108E-03
 -1      1029-3.97650E-04-7.76265E-04 7.25963E-03
 -1      1030-2.27027E-04-2.42343E-04 7.17676E-03
 -1      1031-3.43626E-04-2.68494E-04 5.88397E-03
 -1      1032 1.61541E-04-1.38218E-04 5.06881E-03
 -1      1033 6.46197E-05-1.32795E-04 6.55269E-03
 -1      1034 1.68201E-04-9.54713E-05 5.71374E-03
 -1      1035-4.00763E-04-2.65912E-04 6.12858E-03
 -1      1036-2.30775E-04-2.38588E-04 7.42031E-03
 -1      1037-1.21649E-04-1.64030E-04 8.28270E-03
 -1      1038-7.20271E-05-1.12759E-04 8.05352E-03
 -1      1039 1.19130E-03-5.92170E-04 4.61784E-03
 -1      1040 1.58510E-03-5.79785E-04 4.64936E-03
 -1      1041 8.99578E-04-7.05955E-04 4.86151E-03
 -1      1042 6.30645E-04-8.24404E-04 5.03798E-03
 -1      1043 1.98364E-04-1.01186E-03 4.99319E-03
 -1      1044-1.76596E-04-1.05300E-03 4.16777E-03
 -1      1045 2.67021E-04-1.06337E-03 5.62665E-03
 -1      1046 1.97489E-04-1.63796E-04 5.72854E-03
 -1      1047-1.12871E-05-3.30010E-04 5.17563E-03
 -1      1048-2.28884E-05-3.59352E-04 4.21423E-03
 -1      1049 2.86729E-04-1.39879E-04 3.48976E-03
 -1      1050 2.00704E-04-1.83774E-04 4.74303E-03
 -1      1051 2.29809E-04-1.38282E-04 4.72347E-03
 -1      1052-6.92830E-05-3.38706E-04 4.57889E-03
 -1      1053-1.41081E-07-3.30268E-04 5.75253E-03
 -1      1054 3.08706E-05-2.97225E-04 6.66906E-03
 -1      1055 1.37503E-04-2.20845E-04 6.64562E-03
 -1      1056 1.74109E-03-4.63574E-04 2.03792E-03
 -1      1057 1.36699E-03-6.64918E-04 4.11187E-03
 -1      1058 1.51122E-03-5.72238E-04 4.18935E-03
 -1      1059 2.04679E-03-3.92722E-04 2.93362E-03
 -1      1060 7.24051E-04-7.55117E-04 2.70181E-03
 -1      1061 1.05785E-03-7.33581E-04 2.45881E-03
 -1      1062 7.16739E-04-8.03643E-04 2.13648E-03
 -1      1063 1.08280E-03-7.36609E-04 3.29975E-03
 -1      1064 1.33966E-03-5.99059E-04 2.09474E-03
 -1      1065 3.23213E-04-2.37858E-04 2.55663E-03
 -1      1066 2.22192E-04-2.94130E-04 2.20751E-03
 -1      1067 4.03075E-04-9.65563E-05 1.38362E-03
 -1      1068 3.82700E-04-1.11256E-04 2.09518E-03
 -1      1069 3.67254E-04-9.86331E-05 2.96839E-03
 -1      1070 2.34223E-04-2.60868E-04 2.73193E-03
 -1      1071 3.21203E-04-2.52631E-04 3.38187E-03
 -1      1072 3.87356E-04-1.80040E-04 2.15822E-03
 -1      1073 3.92538E-04-2.37240E-04 4.17672E-03
 -1      1074 3.19375E-04-1.97905E-04 4.24840E-03
 -1      1075 1.90944E-03-9.25458E-06-8.11448E-04
 -1      1076 1.58965E-03-1.91034E-05 9.68919E-04
 -1      1077 1.75242E-03-3.46052E-05 1.14460E-03
 -1      1078 2.13921E-03 1.10006E-05 7.37735E-04
 -1      1079 9.90189E-04 1.32084E-05-3.29094E-04
 -1      1080 1.33489E-03 5.81451E-05 3.31083E-04
 -1      1081 1.75849E-03 3.47540E-05-1.36773E-03
 -1      1082 1.61642E-03 3.32530E-05-1.20762E-03
 -1      1083 4.36448E-04-6.07343E-06 5.86523E-04
 -1      1084 3.91893E-04-1.33208E-05-5.14602E-04
 -1      1085 3.07138E-04 1.24597E-05-3.06902E-04
 -1      1086 4.14042E-04 6.54541E-06-9.68456E-04
 -1      1087 4.42221E-04 1.87256E-05-8.24678E-04
 -1      1088 4.32974E-04-1.59922E-05 7.53262E-04
 -1      1089 3.18129E-04-1.20825E-05 2.35684E-04
 -1      1090 4.19351E-04 1.23826E-05 3.13946E-04
 -1      1091 4.60324E-04-1.62683E-05 9.40597E-04
 -1      1092 4.28740E-04-5.26227E-05 1.15991E-03
 -1      1093 1.78903E-03 4.82015E-04-3.63472E-03
 -1      1094 1.50617E-03 5.74973E-04-4.44462E-03
 -1      1095 1.34312E-03 6.76044E-04-4.35012E-03
 -1      1096 1.04636E-03 7.74939E-04-3.50059E-03
 -1      1097 7.47683E-04 8.19708E-04-2.81487E-03
 -1      1098 7.40878E-04 8.59057E-04-2.21986E-03
 -1      1099 1.02480E-03 7.61797E-04-2.68317E-03
 -1      1100 1.94881E-03 4.07028E-04-1.59023E-03
 -1      1101 3.01337E-04 2.55036E-04-3.58302E-03
 -1      1102 2.12102E-04 2.98851E-04-2.83800E-03
 -1      1103 3.36259E-04 1.34664E-04-3.16386E-03
 -1      1104 3.60737E-04 1.74610E-04-3.69719E-03
 -1      1105 3.81397E-04 1.10292E-04-1.61256E-03
 -1      1106 2.46999E-04 2.53384E-04-2.28484E-03
 -1      1107 2.92672E-04 2.31481E-04-2.77671E-03
 -1      1108 3.09631E-04 2.02723E-04-4.48921E-03
 -1      1109 3.56557E-04 2.40863E-04-4.40419E-03
 -1      1110 3.46684E-04 2.17076E-04-2.39514E-03
 -1      1111 3.65660E-04 1.78511E-04-2.17007E-03
 -1      1112 1.29131E-03 6.48079E-04-5.79781E-03
 -1      1113 1.53586E-03 5.27303E-04-3.62665E-03
 -1      1114 6.76801E-04 9.15767E-04-6.87570E-03
 -1      1115 6.64438E-04 8.47850E-04-5.36470E-03
 -1      1116 9.50438E-04 6.96312E-04-5.13145E-03
 -1      1117-1.68286E-04 1.16708E-03-4.94567E-03
 -1      1118 1.59499E-04 1.01695E-03-5.41213E-03
 -1      1119 2.16923E-05 3.73732E-04-6.19529E-03
 -1      1120-1.44465E-04 4.18634E-04-4.99966E-03
 -1      1121 2.01620E-04 1.48095E-04-4.84261E-03
 -1      1122 2.25580E-04 1.98690E-04-5.92974E-03
 -1      1123 2.78622E-04 1.65488E-04-3.68783E-03
 -1      1124-1.23454E-04 4.11069E-04-4.59284E-03
 -1      1125 5.69319E-05 3.82829E-04-5.57168E-03
 -1      1126 9.23670E-05 2.48547E-04-6.93352E-03
 -1      1127 1.10444E-04 2.82147E-04-7.03941E-03
 -1      1128 1.81131E-04 2.99361E-04-5.49489E-03
 -1      1129 1.95843E-04 2.51216E-04-5.22570E-03
 -1      1130 7.85012E-04 4.39098E-04-7.05062E-03
 -1      1131 1.10209E-03 3.10525E-04-5.15878E-03
 -1      1132 2.81823E-05 6.94779E-04-8.28210E-03
 -1      1133 2.44450E-05 6.28386E-04-7.38016E-03
 -1      1134 4.06329E-04 4.60934E-04-7.19895E-03
 -1      1135-9.87089E-04 7.91952E-04-6.10398E-03
 -1      1136-5.89419E-04 6.69455E-04-7.09913E-03
 -1      1137-2.68431E-04 2.38773E-04-7.63407E-03
 -1      1138-3.81333E-04 2.87280E-04-6.20557E-03
 -1      1139 8.58145E-05 9.23256E-05-5.80079E-03
 -1      1140 6.77330E-05 1.32696E-04-7.22412E-03
 -1      1141 1.53730E-04 1.37028E-04-5.19646E-03
 -1      1142-3.82607E-04 2.78149E-04-6.02361E-03
 -1      1143-2.68133E-04 2.50139E-04-7.27143E-03
 -1      1144-9.03596E-05 2.27184E-04-7.56601E-03
 -1      1145 1.81514E-05 1.90675E-04-7.32994E-03
 -1      1146 0.00000E+00 0.00000E+00 0.00000E+00
 -1      1147 0.00000E+00 0.00000E+00 0.00000E+00
 -1      1148 0.00000E+00 0.00000E+00 0.00000E+00
 -1      1149 0.00000E+00 0.00000E+00 0.00000E+00
 -1      1150 0.00000E+00 0.00000E+00 0.00000E+00
 -1      1151 0.00000E+00 0.00000E+00 0.00000E+00
 -1      1152 0.00000E+00 0.00000E+00 0.00000E+00
 -1      1153 0.00000E+00 0.00000E+00 0.00000E+00
 -1      1154 0.00000E+00 0.00000E+00 0.00000E+00
 -1      1155 0.00000E+00 0.00000E+00 0.00000E+00
 -1      1156 0.00000E+00 0.00000E+00 0.00000E+00
 -1      1157 0.00000E+00 0.00000E+00 0.00000E+00
 -1      1158 0.00000E+00 0.00000E+00 0.00000E+00
 -1      1159 0.00000E+00 0.00000E+00 0.00000E+00
 -1      1160 0.00000E+00 0.00000E+00 0.00000E+00
 -1      1161 0.00000E+00 0.00000E+00 0.00000E+00
 -1      1162 0.00000E+00 0.00000E+00 0.00000E+00
 -1      1163 0.00000E+00 0.00000E+00 0.00000E+00
 -1      1164 0.00000E+00 0.00000E+00 0.00000E+00
 -1      1165 0.00000E+00 0.00000E+00 0.00000E+00
 -1      1166 0.00000E+00 0.00000E+00 0.00000E+00
 -1      1167 0.00000E+00 0.00000E+00 0.00000E+00
 -1      1168 0.00000E+00 0.00000E+00 0.00000E+00
 -1      1169 0.00000E+00 0.00000E+00 0.00000E+00
 -1      1170 0.00000E+00 0.00000E+00 0.00000E+00
 -1      1171 0.00000E+00 0.00000E+00 0.00000E+00
 -1      1172 0.00000E+00 0.00000E+00 0.00000E+00
 -1      1173 0.00000E+00 0.00000E+00 0.00000E+00
 -1      1174 0.00000E+00 0.00000E+00 0.00000E+00
 -1      1175 0.00000E+00 0.00000E+00 0.00000E+00
 -1      1176 0.00000E+00 0.00000E+00 0.00000E+00
 -1      1177 0.00000E+00 0.00000E+00 0.00000E+00
 -1      1178 0.00000E+00 0.00000E+00 0.00000E+00
 -1      1179 0.00000E+00 0.00000E+00 0.00000E+00
 -1      1180 0.00000E+00 0.00000E+00 0.00000E+00
 -1      1181 0.00000E+00 0.00000E+00 0.00000E+00
 -1      1182 0.00000E+00 0.00000E+00 0.00000E+00
 -1      1183 0.00000E+00 0.00000E+00 0.00000E+00
 -1      1184 0.00000E+00 0.00000E+00 0.00000E+00
 -1      1185 0.00000E+00 0.00000E+00 0.00000E+00
 -1      1186 0.00000E+00 0.00000E+00 0.00000E+00
 -1      1187 0.00000E+00 0.00000E+00 0.00000E+00
 -1      1188 0.00000E+00 0.00000E+00 0.00000E+00
 -1      1189 0.00000E+00 0.00000E+00 0.00000E+00
 -1      1190 0.00000E+00 0.00000E+00 0.00000E+00
 -1      1191 0.00000E+00 0.00000E+00 0.00000E+00
 -1      1192 0.00000E+00 0.00000E+00 0.00000E+00
 -1      1193 0.00000E+00 0.00000E+00 0.00000E+00
 -1      1194 0.00000E+00 0.00000E+00 0.00000E+00
 -1      1195 0.00000E+00 0.00000E+00 0.00000E+00
 -1      1196 0.00000E+00 0.00000E+00 0.00000E+00
 -1      1197 0.00000E+00 0.00000E+00 0.00000E+00
 -1      1198 0.00000E+00 0.00000E+00 0.00000E+00
 -1      1199 0.00000E+00 0.00000E+00 0.00000E+00
 -1      1200 0.00000E+00 0.00000E+00 0.00000E+00
 -1      1201 0.00000E+00 0.00000E+00 0.00000E+00
 -1      1202 0.00000E+00 0.00000E+00 0.00000E+00
 -1      1203 0.00000E+00 0.00000E+00 0.00000E+00
 -1      1204 0.00000E+00 0.00000E+00 0.00000E+00
 -1      1205 0.00000E+00 0.00000E+00 0.00000E+00
 -1      1206 0.00000E+00 0.00000E+00 0.00000E+00
 -1      1207 0.00000E+00 0.00000E+00 0.00000E+00
 -1      1208 0.00000E+00 0.00000E+00 0.00000E+00
 -1      1209 0.00000E+00 0.00000E+00 0.00000E+00
 -1      1210 0.00000E+00 0.00000E+00 0.00000E+00
 -1      1211 0.00000E+00 0.00000E+00 0.00000E+00
 -1      1212 0.00000E+00 0.00000E+00 0.00000E+00
 -1      1213 0.00000E+00 0.00000E+00 0.00000E+00
 -1      1214 0.00000E+00 0.00000E+00 0.00000E+00
 -1      1215 0.00000E+00 0.00000E+00 0.00000E+00
 -1      1216 0.00000E+00 0.00000E+00 0.00000E+00
 -1      1217 3.14773E-04 1.97663E-04-4.47019E-03
 -1      1218 3.06574E-04-1.38517E-04-3.19234E-03
 -1      1219 3.34529E-04-1.17140E-04-2.86101E-03
 -1      1220 4.08901E-04-7.72517E-05 1.15438E-03
 -1      1221 4.20847E-04-2.19331E-05 7.94247E-04
 -1      1222 6.04581E-05-1.99945E-04 6.99557E-03
 -1      1223 2.37961E-04-1.28157E-04-4.44349E-03
 -1      1224 1.87918E-04-1.11605E-04-4.63039E-03
 -1      1225 3.71616E-04 9.55492E-05 1.20331E-03
 -1      1226 3.77651E-04 3.57297E-05 8.32810E-04
 -1      1227 3.23510E-04 1.24869E-04-3.57605E-03
 -1      1228 1.23829E-03 1.79450E-05-8.17783E-04
 -1      1229 6.39172E-04-2.90798E-04-4.97642E-03
 -1      1230 1.60681E-04 9.35388E-05 5.26220E-03
 -1      1231 1.48402E-04 5.81461E-05 5.30124E-03
 -1      1232 4.07047E-04-6.00647E-05 1.04105E-03
 -1      1233 4.17697E-04-2.52501E-05 8.18384E-04
 -1      1234 2.31617E-04 1.31834E-04-4.54933E-03
 -1      1235 1.89437E-04 1.13866E-04-4.71550E-03
 -1      1236 1.15213E-03-2.57202E-04-1.12238E-03
 -1      1237 3.93180E-04 7.82903E-05-1.37615E-03
 -1      1238 4.11835E-04 2.00442E-05-1.02376E-03
 -1      1239 1.73861E-04-4.84713E-05 5.31700E-03
 -1      1240 1.54698E-04-1.39884E-05 5.34313E-03
 -1      1241 2.49604E-04-1.27217E-04 4.41006E-03
 -1      1242 2.01587E-04-1.10409E-04 4.57600E-03
 -1      1243 3.86440E-04-5.96497E-05-1.22629E-03
 -1      1244 3.86047E-04-7.55074E-06-8.56135E-04
 -1      1245 2.93882E-04 1.73859E-04 3.14773E-03
 -1      1246 3.31759E-04 1.46203E-04 2.82575E-03
 -1      1247 1.43011E-04-7.01432E-05-5.37791E-03
 -1      1248 1.37767E-04-2.87157E-05-5.40812E-03
 -1      1249 2.44082E-04-1.11303E-04-4.30191E-03
 -1      1250 2.13909E-04-1.01340E-04-4.41877E-03
 -1      1251 5.52015E-04-2.56328E-05-5.04638E-03
 -1      1252 1.56564E-03-5.77883E-04-3.53674E-03
 -1      1253 1.37565E-04 8.81925E-05-5.39048E-03
 -1      1254 1.26682E-04 5.40752E-05-5.42817E-03
 -1      1255 5.38159E-04 8.35740E-07 4.91379E-03
 -1      1256 2.42876E-04-8.14694E-05-4.58287E-03
 -1      1257 3.18378E-04-1.18237E-04-3.01235E-03
 -1      1258 3.39147E-04-1.01808E-04-2.80002E-03
 -1      1259 3.31190E-04 1.43690E-04 3.43773E-03
 -1      1260 2.43442E-04 1.50146E-04 4.37650E-03
 -1      1261 1.88961E-04 1.41530E-04 4.53734E-03
 -1      1262 3.38062E-04-1.02725E-04-3.47816E-03
 -1      1263 1.33980E-03 1.72852E-05 7.61257E-04
 -1      1264 4.53617E-04 3.93391E-06-1.01460E-04
 -1      1265 4.23177E-04 6.55319E-06-3.97475E-06
 -1      1266 3.72010E-04 7.54758E-05 1.08863E-03
 -1      1267 3.82382E-04 3.64904E-05 8.63242E-04
 -1      1268 1.18001E-03-2.43584E-04-2.66420E-03
 -1      1269 4.05403E-04-7.31988E-05-1.87317E-03
 -1      1270 3.06005E-04-1.24041E-04 3.13740E-03
 -1      1271 3.56846E-04-9.17197E-05 2.82440E-03
 -1      1272 8.85290E-04-3.79173E-04-2.93990E-03
 -1      1273 6.35644E-04 2.14554E-04-4.38215E-03
 -1      1274 1.24927E-03-2.46855E-04 2.63863E-03
 -1      1275 4.29323E-04-8.39871E-05 1.78723E-03
 -1      1276 9.19406E-04-3.88878E-04-4.13652E-03
 -1      1277 1.89936E-04-3.54260E-05 5.08740E-03
 -1      1278 1.69147E-04-1.72279E-05 5.12080E-03
 -1      1279 1.89467E-04 1.81324E-05 4.87976E-03
 -1      1280 2.39480E-04-7.75513E-05 4.51351E-03
 -1      1281 4.28475E-04-7.44416E-05 1.36560E-03
 -1      1282 3.05850E-04 1.46638E-04-3.31703E-03
 -1      1283 3.49091E-04 1.22255E-04-2.99941E-03
 -1      1284 3.86146E-04 1.09014E-04 1.84617E-03
 -1      1285 4.04981E-04 1.00586E-04-2.00293E-03
 -1      1286 2.22162E-03 4.94304E-07-1.02804E-04
 -1      1287 1.24222E-03 1.80544E-05 7.87480E-04
 -1      1288 1.34144E-03-1.49478E-05-9.68328E-04
 -1      1289 6.65251E-04 3.11811E-04 4.87384E-03
 -1      1290 3.02088E-04 1.46434E-04 3.76988E-03
 -1      1291 2.06601E-04 1.17000E-05-4.98157E-03
 -1      1292 2.54755E-04-8.41016E-05 4.32150E-03
 -1      1293 3.26401E-04-1.01749E-04-3.16052E-03
 -1      1294 3.86132E-04-9.08516E-05-2.30706E-03
 -1      1295 4.06398E-04 7.15363E-05-1.25882E-03
 -1      1296 4.18704E-04 1.96735E-05-1.03230E-03
 -1      1297 2.41979E-04 1.18660E-04-4.38884E-03
 -1      1298 2.03464E-04 1.06567E-04-4.50108E-03
 -1      1299 9.34459E-04 3.65177E-04-4.21018E-03
 -1      1300 6.15237E-04-2.65119E-04-4.33007E-03
 -1      1301 3.04800E-04 1.60164E-04 2.95979E-03
 -1      1302 3.32270E-04 1.35137E-04 2.75690E-03
 -1      1303 8.94898E-04 4.19261E-04 2.87013E-03
 -1      1304 1.18740E-03 2.80375E-04-1.24838E-03
 -1      1305 9.29023E-04 4.15005E-04 4.06788E-03
 -1      1306 3.74391E-04-5.19971E-05-1.13052E-03
 -1      1307 3.82638E-04-1.50507E-05-8.91619E-04
 -1      1308 1.22716E-03-2.66541E-04 1.00489E-03
 -1      1309 3.68269E-04-8.96506E-05-2.52489E-03
 -1      1310 3.27916E-04-1.01686E-04-2.98891E-03
 -1      1311 1.17859E-03 2.86447E-04 2.64361E-03
 -1      1312 2.46471E-04 1.15836E-04-4.30978E-03
 -1      1313 2.20015E-04 1.07077E-04-4.38723E-03
 -1      1314 3.15959E-04-1.23667E-04 3.41972E-03
 -1      1315 2.27501E-04 8.53637E-05-4.64696E-03
 -1      1316 2.14422E-04 9.60801E-05-4.46838E-03
 -1      1317 4.49472E-04 1.28784E-05-5.81232E-04
 -1      1318 2.02001E-04-3.28724E-05 4.97721E-03
 -1      1319 1.80737E-04-1.07104E-05 4.99668E-03
 -1      1320 3.24137E-04-1.15976E-04 2.94210E-03
 -1      1321 3.58082E-04-9.21482E-05 2.74554E-03
 -1      1322 3.29654E-04-1.16882E-04 3.09197E-03
 -1      1323 1.69102E-04-5.20045E-05-5.17417E-03
 -1      1324 1.59219E-04-1.84330E-05-5.19466E-03
 -1      1325 1.76740E-04 7.77302E-05 5.05422E-03
 -1      1326 1.64355E-04 4.04245E-05 5.08999E-03
 -1      1327 7.07073E-04-2.70758E-04 4.92226E-03
 -1      1328 5.50163E-04 5.43727E-05 4.97157E-03
 -1      1329 3.91616E-04 1.56868E-04-4.34557E-03
 -1      1330 2.54979E-04-1.07183E-04-4.22132E-03
 -1      1331 2.23319E-04-9.18540E-05-4.30048E-03
 -1      1332 4.04703E-04-5.63878E-05 9.85524E-04
 -1      1333 4.15390E-04-2.96058E-05 8.31069E-04
 -1      1334 4.51846E-04-5.64377E-06 3.64334E-04
 -1      1335 4.09485E-04 1.72423E-05 4.30032E-04
 -1      1336 6.68175E-04-2.40640E-04 4.24641E-03
 -1      1337 3.74614E-04 7.38929E-05 1.03410E-03
 -1      1338 3.81682E-04 4.13486E-05 8.78599E-04
 -1      1339 2.04147E-04 1.44163E-06 4.88997E-03
 -1      1340 3.24341E-04-1.01324E-04-2.91413E-03
 -1      1341 3.39334E-04-9.44782E-05-2.77450E-03
 -1      1342 2.43093E-04-8.85226E-05-4.39473E-03
 -1      1343 5.64447E-04-2.46567E-04-2.90150E-03
 -1      1344 4.53709E-04-1.86314E-04 4.89453E-03
 -1      1345 6.02651E-04-2.54689E-04-4.13972E-03
 -1      1346 3.83695E-04 9.64056E-05 1.41741E-03
 -1      1347 2.28709E-04-6.20238E-05 4.68778E-03
 -1      1348 4.04480E-04-6.36775E-05-1.45739E-03
 -1      1349 3.99733E-04 2.31700E-05 6.57099E-04
 -1      1350 3.04430E-04-1.03816E-04-3.81330E-03
 -1      1351 7.81677E-04-1.64631E-04-2.68683E-03
 -1      1352 2.22169E-04 1.09836E-04 4.49757E-03
 -1      1353 4.06104E-04 5.94722E-05-1.19393E-03
 -1      1354 4.18257E-04 2.31451E-05-1.04403E-03
 -1      1355 5.26480E-04 2.56414E-05-5.01094E-03
 -1      1356 3.10260E-04 1.22729E-04-3.13445E-03
 -1      1357 3.35546E-04 1.08320E-04-2.94302E-03
 -1      1358 1.20442E-03 2.54993E-04-2.82701E-03
 -1      1359 2.52724E-04 1.46670E-04 4.24006E-03
 -1      1360 2.08027E-04 1.42248E-04 4.34570E-03
 -1      1361 8.85060E-04-1.35134E-05-9.98765E-04
 -1      1362 9.30009E-04-3.50983E-04 2.85243E-03
 -1      1363 2.56015E-04-1.18358E-04 4.24766E-03
 -1      1364 2.21923E-04-1.06693E-04 4.35118E-03
 -1      1365 8.15616E-04 1.15894E-05 8.22398E-04
 -1      1366 6.05903E-04 2.62722E-04-4.21325E-03
 -1      1367 3.00340E-04 1.33202E-04-3.89695E-03
 -1      1368 9.46923E-04-3.67118E-04 4.07837E-03
 -1      1369 4.06670E-04 5.51941E-05-1.16389E-03
 -1      1370 4.15739E-04 2.79967E-05-1.05106E-03
 -1      1371 7.80524E-04 1.94884E-04-1.21653E-03
 -1      1372 3.00684E-04-1.18209E-04 3.75899E-03
 -1      1373 6.51199E-04-3.92969E-06-1.02249E-03
 -1      1374 2.33297E-04 1.23786E-04 4.31817E-03
 -1      1375 1.83485E-04 7.07698E-05 4.94880E-03
 -1      1376 1.73660E-04 4.31218E-05 4.97170E-03
 -1      1377 4.35625E-04 1.76440E-05-8.15774E-04
 -1      1378 1.57642E-04 7.98981E-05-5.17718E-03
 -1      1379 1.42691E-04 4.83321E-05-5.21046E-03
 -1      1380 1.72978E-04 2.54712E-05 4.87699E-03
 -1      1381 8.81250E-04 1.59565E-05 7.82630E-04
 -1      1382 3.05085E-04 1.43216E-04 2.85883E-03
 -1      1383 3.34708E-04 1.28960E-04 2.71873E-03
 -1      1384 9.06740E-04 3.49925E-04-3.02672E-03
 -1      1385 6.54578E-04 2.44314E-04-4.96986E-03
 -1      1386 3.63824E-04 5.37438E-06 4.91763E-03
 -1      1387 3.92628E-04 9.88373E-05-2.44273E-03
 -1      1388 3.17270E-04 1.52610E-04 3.09876E-03
 -1      1389 2.56573E-04 1.42948E-04 4.15907E-03
 -1      1390 2.22815E-04 1.30766E-04 4.22507E-03
 -1      1391 6.49214E-04 2.86116E-04 4.21950E-03
 -1      1392 4.19619E-04 2.24092E-04 4.86685E-03
 -1      1393 1.83858E-04-4.56470E-05-5.05467E-03
 -1      1394 1.70542E-04-2.15553E-05-5.07322E-03
 -1      1395 2.22033E-04 8.89314E-05 4.67996E-03
 -1      1396 3.76260E-04 1.16293E-04 2.26114E-03
 -1      1397 2.29857E-04-6.90616E-05-4.76542E-03
 -1      1398 4.14390E-04-8.21102E-05 2.22671E-03
 -1      1399 8.06066E-04-1.78190E-04 9.80980E-04
 -1      1400 1.79590E-04 8.19214E-06-4.97597E-03
 -1      1401 4.08720E-04 8.28605E-05-1.57828E-03
 -1      1402 4.12296E-04 7.09617E-05-1.36218E-03
 -1      1403 2.32826E-04-8.86732E-05-4.29515E-03
 -1      1404 3.26606E-04-9.32758E-05-2.86105E-03
 -1      1405 3.41899E-04-9.13786E-05-2.75962E-03
 -1      1406 3.55635E-04-8.97138E-05-2.63381E-03
 -1      1407 3.82508E-04 8.46960E-05 1.19766E-03
 -1      1408 1.16427E-03 3.03796E-04 1.07066E-03
 -1      1409 4.24516E-04-1.80702E-04-2.87589E-03
 -1      1410 2.03164E-04-2.98146E-05 4.91959E-03
 -1      1411 1.86821E-04-8.09601E-06 4.93123E-03
 -1      1412 1.72324E-04 1.59149E-05 4.88448E-03
 -1      1413 2.81272E-04-1.08965E-04-3.98197E-03
 -1      1414 3.58133E-04 4.42653E-05-5.00890E-03
 -1      1415 3.73558E-04-4.17412E-05-1.06557E-03
 -1      1416 3.82736E-04-1.86848E-05-9.08277E-04
 -1      1417 7.59843E-04-1.69965E-04-1.09310E-03
 -1      1418 3.86837E-04-1.75014E-04-4.29357E-03
 -1      1419 5.72153E-04 1.31076E-04-1.18539E-03
 -1      1420 4.16526E-04-1.98114E-04-4.96908E-03
 -1      1421 3.24020E-04-1.15903E-04 2.92110E-03
 -1      1422 7.74060E-04 2.11281E-04 2.65864E-03
 -1      1423 4.11697E-04 1.92192E-04 4.19116E-03
 -1      1424 2.48766E-04 1.14175E-04-4.26838E-03
 -1      1425 2.27711E-04 1.03997E-04-4.32464E-03
 -1      1426 2.17248E-04 1.02659E-04-4.38116E-03
 -1      1427 2.56490E-04-1.08075E-04 4.16406E-03
 -1      1428 2.23502E-04-9.44499E-05 4.23331E-03
 -1      1429 3.31429E-04-1.04846E-04 2.83906E-03
 -1      1430 3.60858E-04-9.47139E-05 2.71065E-03
 -1      1431 7.46048E-04 2.00124E-04 1.03855E-03
 -1      1432 4.34256E-04-1.39609E-04 4.19832E-03
 -1      1433 2.19149E-04-5.35202E-05 4.78580E-03
 -1      1434 6.13918E-04-2.57540E-04 4.07627E-03
 -1      1435 1.77379E-04 2.14821E-05-4.98635E-03
 -1      1436 2.82678E-04 1.43466E-04 3.92256E-03
 -1      1437 4.24310E-04 5.27620E-06-4.65761E-04
 -1      1438 4.06965E-04-5.18933E-05 9.50088E-04
 -1      1439 4.17254E-04-2.92137E-05 8.37861E-04
 -1      1440 3.63377E-04 5.09089E-05 4.94364E-03
 -1      1441 8.27076E-04-1.71273E-04 2.64431E-03
 -1      1442 2.81584E-04 1.22675E-04-4.32086E-03
 -1      1443 3.19971E-04 1.12587E-04-3.03196E-03
 -1      1444 3.46459E-04 1.05739E-04-2.90588E-03
 -1      1445 5.73758E-04 2.93337E-04 2.83858E-03
 -1      1446 2.20050E-04-7.99959E-05 4.23086E-03
 -1      1447 4.16059E-04-6.87822E-05 1.14324E-03
 -1      1448 5.96853E-04-2.37560E-04 2.81822E-03
 -1      1449 6.49746E-04 2.37451E-06 8.06409E-04
 -1      1450 2.87060E-04-1.18033E-04 3.90169E-03
 -1      1451 4.47655E-04 2.03438E-04-4.22034E-03
 -1      1452 5.70215E-04-1.31138E-04-2.71056E-03
 -1      1453 3.24769E-04 1.31588E-04-3.25420E-03
 -1      1454 2.80983E-04 1.26413E-04-4.06631E-03
 -1      1455 7.94694E-04 1.82869E-04-2.84044E-03
 -1      1456 2.66326E-04 3.77901E-05 4.91593E-03
 -1      1457 5.84122E-04 2.30995E-04-3.00010E-03
 -1      1458 1.95662E-04 8.80227E-05-4.79828E-03
 -1      1459 1.84649E-04 6.85706E-05 4.89198E-03
 -1      1460 1.76704E-04 4.24554E-05 4.90602E-03
 -1      1461 4.37606E-04-8.48363E-06 5.95969E-04
 -1      1462 2.16796E-04 1.19372E-04 4.22649E-03
 -1      1463 1.66883E-04 2.69012E-05 4.86874E-03
 -1      1464 3.34632E-04-1.05467E-04 2.78792E-03
 -1      1465 3.64219E-04-9.44428E-05 2.68965E-03
 -1      1466 3.93261E-04-9.13731E-05 2.44818E-03
 -1      1467 1.67614E-04 7.40563E-05-5.06540E-03
 -1      1468 1.59385E-04 4.54611E-05-5.08262E-03
 -1      1469 3.78125E-04-9.47088E-05 2.55779E-03
 -1      1470 3.10806E-04 1.73402E-04 4.85766E-03
 -1      1471 2.05018E-04 8.35385E-05 4.75762E-03
 -1      1472 4.41596E-04-1.60446E-04 2.78692E-03
 -1      1473 2.55124E-04 1.38474E-04 4.11686E-03
 -1      1474 2.28331E-04 1.29223E-04 4.16680E-03
 -1      1475 2.54246E-04-1.03721E-04-4.18485E-03
 -1      1476 2.27126E-04-9.35181E-05-4.24589E-03
 -1      1477 8.16977E-04 1.91612E-05-8.49089E-04
 -1      1478 6.17044E-04 2.91203E-04 4.07161E-03
 -1      1479 3.78078E-04-4.11067E-05-1.03394E-03
 -1      1480 3.86021E-04-1.82912E-05-9.16112E-04
 -1      1481 3.07725E-04 1.34718E-04 2.80374E-03
 -1      1482 3.28511E-04 1.25864E-04 2.70540E-03
 -1      1483 3.59931E-04 1.22589E-04 2.47206E-03
 -1      1484 6.00994E-04 8.52139E-06-8.80054E-04
 -1      1485 5.97489E-04-1.16067E-04 9.55813E-04
 -1      1486 2.75273E-04-1.10207E-04 3.98423E-03
 -1      1487 5.56726E-04-1.03780E-04-1.05402E-03
 -1      1488 3.88357E-04-6.20434E-05-1.23474E-03
 -1      1489 1.88982E-04-4.46186E-05-4.99767E-03
 -1      1490 1.74376E-04-2.31927E-05-5.00831E-03
 -1      1491 2.67711E-04-4.83347E-06 4.89223E-03
 -1      1492 4.54763E-04 2.20467E-04 4.07556E-03
 -1      1493 1.65259E-04 2.84544E-06-4.97649E-03
 -1      1494 2.06384E-04-6.28302E-05-4.85682E-03
 -1      1495 2.94394E-04 1.52136E-04 2.92976E-03
 -1      1496 4.06427E-04 3.35886E-06-6.84902E-04
 -1      1497 4.24165E-04 1.78592E-04-4.96063E-03
 -1      1498 4.37546E-04-1.87040E-04 4.07006E-03
 -1      1499 2.58571E-04 3.97527E-05-4.98680E-03
 -1      1500 6.09854E-04-1.35311E-04 2.65339E-03
 -1      1501 3.40127E-04-2.13666E-05-5.02074E-03
 -1      1502 3.47416E-04-1.23751E-04 4.88392E-03
 -1      1503 3.20156E-04 1.40686E-04 4.15804E-03
 -1      1504 2.92073E-04-1.09922E-04-4.25107E-03
 -1      1505 4.41771E-04-1.91437E-04-4.14368E-03
 -1      1506 5.60823E-04 1.71790E-04 2.66911E-03
 -1      1507 3.25642E-04 1.11748E-04-2.98291E-03
 -1      1508 3.47833E-04 1.03083E-04-2.88797E-03
 -1      1509 2.45119E-04 1.19480E-04-4.30460E-03
 -1      1510 3.76631E-04 9.93512E-05-2.65609E-03
 -1      1511 3.11337E-04-1.54261E-04-4.95951E-03
 -1      1512 4.39608E-04 2.20133E-04 2.81073E-03
 -1      1513 1.63711E-04 2.10450E-05-4.98576E-03
 -1      1514 1.71755E-04 7.11586E-05-5.00679E-03
 -1      1515 1.64927E-04 4.20420E-05-5.01946E-03
 -1      1516 1.80272E-04 9.16070E-05-4.87895E-03
 -1      1517 2.47967E-04-1.06425E-05-5.00087E-03
 -1      1518 3.20669E-04 1.23538E-04-3.10088E-03
 -1      1519 5.83592E-04 1.47929E-04-2.85180E-03
 -1      1520 4.47529E-04 1.66108E-04-2.97669E-03
 -1      1521 3.09484E-04 1.40327E-04-4.95633E-03
 -1      1522-4.78056E-05 3.10750E-04 2.06933E-03
 -1      1523 3.88342E-04 3.72397E-04-4.23423E-03
 -1      1524 2.49900E-04-3.80209E-04 3.52304E-03
 -1      1525 5.20831E-04 1.50194E-04-6.89188E-03
 -1      1526 5.50159E-04 3.15608E-04 4.86784E-03
 -1      1527-1.19866E-04-2.95164E-04-7.10660E-03
 -1      1528-2.18282E-04 2.07119E-04 1.96234E-03
 -1      1529-5.22834E-04-1.45206E-04 3.03927E-03
 -1      1530-6.71283E-04 1.82443E-04 2.77539E-03
 -1      1531-6.15884E-04 2.75365E-05 2.40240E-03
 -1      1532 6.18873E-04 3.09022E-04-3.75898E-03
 -1      1533-2.18326E-04 2.66152E-04 1.56124E-03
 -1      1534 5.62374E-04-1.85342E-04-5.91267E-03
 -1      1535-3.37457E-04 3.19971E-04 2.38023E-03
 -1      1536-2.98520E-04-2.84994E-04 2.40393E-03
 -1      1537-6.58743E-04-3.46028E-04 2.06049E-03
 -1      1538 4.85141E-04 7.53937E-06-4.04692E-05
 -1      1539-2.13292E-04-3.67343E-04-1.65379E-03
 -1      1540 6.23496E-04 1.27939E-04 5.24590E-03
 -1      1541-1.02787E-04-2.99552E-04-1.53206E-03
 -1      1542 7.35555E-06-2.17102E-04-8.78232E-04
 -1      1543 1.06460E-04-1.27586E-04-5.69124E-04
 -1      1544 1.35450E-04 2.06044E-05 3.31107E-06
 -1      1545 8.52579E-05 1.52149E-04 6.01035E-04
 -1      1546-2.21135E-04-2.61054E-04-2.44702E-03
 -1      1547-6.70072E-06 2.54814E-04 8.51257E-04
 -1      1548-4.87556E-05 3.09911E-04 1.56461E-03
 -1      1549-3.19384E-04-1.50015E-04-1.98443E-03
 -1      1550-1.41521E-03-2.89490E-05 3.69602E-03
 -1      1551 4.89636E-06 1.23474E-04 4.03979E-04
 -1      1552-7.86506E-04-8.46234E-05-2.28843E-03
 -1      1553-5.07169E-04 3.50520E-05-2.99700E-03
 -1      1554-1.38975E-04-1.96162E-04 7.80955E-03
 -1      1555-6.58416E-04-1.39342E-04-2.71521E-03
 -1      1556-5.83165E-04 2.95478E-04-2.19748E-03
 -1      1557-4.22529E-04-1.61146E-04-7.44684E-03
 -1      1558-4.25895E-04 3.37377E-04-2.48360E-03
 -1      1559-3.01475E-04 4.34905E-04-1.73877E-03
 -1      1560-6.53152E-05 2.66633E-04-1.76928E-03
 -1      1561-2.62889E-06 3.26939E-04-9.00485E-04
 -1      1562 3.38983E-05 3.64817E-04-3.21914E-03
 -1      1563 1.02234E-04 1.35279E-04-6.90404E-04
 -1      1564-6.68164E-04 2.32355E-04-6.30187E-03
 -1      1565 1.14052E-04-5.67976E-06-9.24903E-06
 -1      1566 1.15903E-04-1.25220E-04 5.66267E-04
 -1      1567-5.61051E-05-2.85929E-04 9.02521E-04
 -1      1568-3.54247E-05-2.85411E-04 1.69324E-03
 -1      1569-1.83368E-04-2.16958E-04 1.60492E-03
 -1      1570 4.85398E-04 1.73839E-05 2.18959E-03
 -1      1571-2.82178E-04-1.71850E-04 1.53688E-03
 -1      1572 4.50825E-04-4.36981E-04-4.15304E-03
 -1      1573 5.54610E-04 2.58163E-04 2.16259E-03
 -1      1574-4.89881E-04 2.94713E-04-3.11477E-03
 -1      1575-3.92329E-04 4.00602E-04-4.96782E-03
 -1      1576-2.30190E-04-3.83752E-04-5.41342E-03
 -1      1577 7.40744E-06-1.25208E-04 4.35532E-04
 -1      1578-5.57917E-04 1.68050E-04-6.81644E-03
 -1      1579-5.25797E-04 2.80552E-04 5.93587E-03
 -1      1580 1.26759E-04 9.31063E-05 3.65068E-04
 -1      1581-1.04159E-04-2.80288E-04 2.21086E-03
 -1      1582-5.95566E-04 2.76325E-04-3.45588E-03
 -1      1583 9.78315E-05-2.17478E-04-1.03166E-03
 -1      1584 4.21765E-04 3.04957E-04-1.90936E-03
 -1      1585 4.62550E-04-9.21312E-05-2.64546E-03
 -1      1586-1.70658E-05 4.17738E-04-3.43690E-03
 -1      1587 5.42293E-04-2.36165E-04 4.92496E-03
 -1      1588 8.86789E-05 2.01293E-04-1.31311E-03
 -1      1589-5.57610E-04-1.08178E-04 1.06429E-03
 -1      1590-3.37575E-04 2.01983E-04 1.44377E-03
 -1      1591 2.50846E-04 1.10162E-04 1.12785E-03
 -1      1592 4.94267E-04-7.32794E-05-1.84226E-03
 -1      1593 3.29955E-04 3.26904E-04-6.81264E-03
 -1      1594 4.22592E-04 7.14738E-05-2.02449E-03
 -1      1595 5.24381E-05 3.64142E-04-1.75761E-03
 -1      1596-2.64579E-04 1.17970E-04-8.40821E-03
 -1      1597 3.92983E-04-3.93452E-04-1.68834E-03
 -1      1598 2.33060E-04 1.36986E-04 1.12842E-03
 -1      1599 2.64070E-04-1.76934E-04 1.11682E-03
 -1      1600 3.45673E-04 4.25654E-04 3.24557E-03
 -1      1601-2.95212E-04-3.81264E-04 4.71503E-03
 -1      1602-6.16196E-04 1.83979E-04 5.56415E-03
 -1      1603-2.71413E-04 3.78777E-04-2.76577E-03
 -1      1604-6.01680E-05 9.05515E-05 8.33563E-03
 -1      1605 1.27508E-04-6.79136E-05-2.56864E-04
 -1      1606-3.43166E-04 7.97368E-05 1.62585E-03
 -1      1607 6.30491E-04 2.04169E-04-4.77948E-03
 -1      1608-2.14094E-04-3.12037E-04-2.85673E-03
 -1      1609-7.82683E-06 1.82026E-04-7.97547E-04
 -1      1610 2.01244E-04 2.18927E-04-1.17375E-03
 -1      1611 2.51385E-04-1.48080E-04-1.15227E-03
 -1      1612-3.53798E-04-3.28287E-04-4.15471E-03
 -1      1613 1.62197E-04-2.62275E-04 1.74819E-03
 -1      1614-1.28029E-04-1.90297E-04-9.74943E-04
 -1      1615-1.32510E-04-2.80276E-05-2.22514E-06
 -1      1616 1.17162E-04 3.62915E-04-4.40538E-03
 -1      1617-2.33773E-04-3.37976E-04 3.32253E-03
 -1      1618-1.38256E-04 2.81895E-04 1.21614E-03
 -1      1619-9.50812E-05 3.78027E-04-5.77767E-03
 -1      1620-7.00397E-05 5.90610E-06 1.71331E-04
 -1      1621-3.03338E-04 4.07615E-04 4.55968E-03
 -1      1622-5.98025E-04 1.87573E-04-3.06485E-03
 -1      1623 4.05132E-04 1.40610E-04 7.13801E-03
 -1      1624 4.93275E-05-3.82890E-04-3.52925E-03
 -1      1625 9.73810E-05-2.16542E-04 1.16633E-03
 -1      1626-2.12770E-04-7.94639E-05-1.37172E-03
 -1      1627-3.51137E-04-1.47717E-04 7.40986E-03
 -1      1628-4.54081E-04-2.42386E-04 3.02347E-03
 -1      1629-2.14027E-04 2.21593E-04-1.11047E-03
 -1      1630-6.45638E-04 2.40106E-04 4.02705E-03
 -1      1631 3.04040E-05 3.51247E-04 4.42115E-03
 -1      1632 3.51414E-05-1.67460E-04 8.90208E-04
 -1      1633 6.12368E-04-1.18646E-04 4.45235E-03
 -1      1634 1.29600E-04 1.96025E-04-1.52394E-03
 -1      1635 2.35148E-04 1.61445E-04 1.09318E-03
 -1      1636 4.27403E-06 3.73579E-04 3.04978E-03
 -1      1637 4.21160E-05 1.05059E-04-5.01381E-04
 -1      1638-1.05019E-03-6.55044E-05-5.23409E-03
 -1      1639 3.78061E-04-6.06271E-05 2.02181E-03
 -1      1640-1.62803E-04-3.99481E-05 3.83782E-04
 -1      1641 3.97647E-04-3.00163E-04 2.77348E-03
 -1      1642 2.41512E-05 1.33989E-04-4.98984E-04
 -1      1643 3.67306E-04 1.84552E-04-1.90095E-03
 -1      1644 4.34970E-04 2.71572E-05 2.51210E-03
 -1      1645 1.87175E-04 4.19986E-04-4.14346E-03
 -1      1646 4.79172E-04 2.85460E-04 3.04304E-03
 -1      1647 6.01653E-04-2.84783E-05-2.35856E-03
 -1      1648 1.82754E-04 3.30850E-05-4.10002E-04
 -1      1649-1.43800E-04-3.49173E-04 6.22953E-03
 -1      1650 6.49337E-05 6.37136E-05 1.99122E-04
 -1      1651 5.18807E-04-2.61390E-04 2.30854E-03
 -1      1652 9.75293E-06 3.47016E-04 6.95783E-03
 -1      1653-1.66033E-04-1.17217E-04 1.31903E-03
 -1      1654-1.22225E-03 6.54086E-05-1.15710E-03
 -1      1655-2.81643E-05 1.78506E-04-6.80118E-04
 -1      1656-6.86806E-04-4.85980E-05 7.49444E-03
 -1      1657 1.16252E-04 2.12986E-04 1.09887E-03
 -1      1658 2.35324E-04-1.52035E-04-1.29628E-03
 -1      1659 7.40823E-04 1.35133E-04 2.09073E-03
 -1      1660-4.79867E-04 2.01287E-04 2.70462E-03
 -1      1661 1.92011E-04-1.72897E-04 1.45695E-03
 -1      1662 5.32890E-04-3.63379E-04-4.75650E-03
 -1      1663 6.62442E-04 1.51134E-04 3.43499E-03
 -1      1664-2.70146E-04 8.14702E-05 1.33669E-03
 -1      1665-3.33806E-04-1.29912E-05 1.31928E-03
 -1      1666-4.43260E-04 1.33201E-04 1.54679E-03
 -1      1667-3.21822E-04 1.05188E-04-1.26769E-03
 -1      1668-4.91195E-05-2.47946E-05 2.11227E-05
 -1      1669 1.70561E-04-2.02141E-04-1.15917E-03
 -1      1670 3.51766E-04-1.13993E-04 1.36492E-03
 -1      1671 6.52074E-04-1.34496E-04-3.81638E-03
 -1      1672 3.01974E-04-3.80470E-04-2.79074E-03
 -1      1673-7.94939E-04-1.58459E-04 4.79751E-03
 -1      1674-1.17726E-03 1.43469E-04-4.64094E-03
 -1      1675-6.15126E-04 2.20690E-04-5.00580E-03
 -1      1676 3.39067E-04-1.54893E-05 1.33385E-03
 -1      1677-1.84650E-05-1.50716E-04 6.77404E-04
 -1      1678 9.19945E-05-3.53244E-04 3.19384E-03
 -1      1679 4.61883E-05-1.81194E-05 1.87256E-04
 -1      1680 1.91995E-04 3.19738E-04 1.73945E-03
 -1      1681 3.37325E-04 2.69227E-04-1.41531E-03
 -1      1682 2.67451E-04 3.73514E-04 3.67892E-03
 -1      1683 2.44197E-04 4.44773E-04 5.31052E-03
 -1      1684 2.83252E-04 1.28775E-04-1.47609E-03
 -1      1685 3.66427E-04 1.65793E-04 1.42557E-03
 -1      1686 6.10815E-04 1.67757E-04 4.78662E-03
 -1      1687-7.09288E-06 3.32554E-05 1.60848E-04
 -1      1688 2.64383E-04-1.83695E-04 1.27490E-03
 -1      1689 3.14695E-04-3.37846E-04 6.12334E-03
 -1      1690-7.66765E-04 9.06156E-05-7.37297E-03
 -1      1691 5.28900E-04-3.37847E-04 4.70708E-03
 -1      1692-2.12702E-04 2.82317E-04-7.47423E-03
 -1      1693-1.01778E-03 1.68171E-04-4.20121E-03
 -1      1694 2.01355E-04-6.43365E-05 1.01643E-03
 -1      1695-1.46588E-04 2.03550E-04-9.94948E-04
 -1      1696 2.61922E-04-1.02853E-04 7.74570E-03
 -1      1697 4.82890E-04-1.31368E-04 6.44610E-03
 -1      1698-2.25992E-04-7.19009E-05 8.34122E-03
 -1      1699-4.56518E-04-1.10176E-04 7.74419E-03
 -1      1700-6.65464E-04-1.57184E-04-5.44679E-03
 -1      1701-4.08597E-04-5.82380E-05-1.52873E-03
 -1      1702-3.31545E-04-6.59240E-05-1.53385E-03
 -1      1703 3.81508E-04 9.17832E-05-1.50443E-03
 -1      1704 6.58259E-04 1.54563E-04 2.75783E-03
 -1      1705 5.28906E-04-2.58326E-04 2.93854E-03
 -1      1706-3.91970E-04-5.39154E-05-1.64744E-03
 -1      1707-4.14896E-04 5.38712E-05-1.36681E-03
 -1      1708-5.20981E-04-1.60648E-04-3.30572E-03
 -1      1709-9.62684E-04 1.60062E-04-5.75444E-03
 -1      1710 5.57456E-04 3.57793E-04-4.08012E-03
 -1      1711-1.04798E-04-1.54146E-04 8.37090E-04
 -1      1712 3.09562E-04-2.16887E-04 1.52747E-03
 -1      1713 6.07951E-04 9.94775E-06 4.05328E-03
 -1      1714-9.62189E-05 2.32959E-04 9.90261E-04
 -1      1715-2.87053E-06 1.47751E-04 7.63620E-04
 -1      1716 3.82260E-05 2.16902E-04-1.10540E-03
 -1      1717-1.27492E-04 2.30088E-04-1.90720E-03
 -1      1718-1.98235E-04-1.87387E-04-1.25320E-03
 -1      1719-1.15297E-03 2.65380E-05 7.53494E-04
 -1      1720-5.70413E-04-3.82569E-05 3.51843E-03
 -1      1721 6.70086E-04 1.05985E-04-4.57997E-03
 -1      1722 1.87234E-04 3.84830E-04-6.09006E-03
 -1      1723-8.72753E-04-1.21531E-04 6.00318E-03
 -1      1724 1.30003E-04 2.61813E-04 7.58324E-03
 -1      1725-1.31004E-03 1.25673E-04-2.81360E-03
 -1      1726-2.96272E-05-1.65658E-04-9.98223E-04
 -1      1727 3.35597E-04-3.17926E-04 2.75851E-03
 -1      1728 5.43119E-05-4.42644E-04-4.57885E-03
 -1      1729-2.79429E-04 3.41509E-04 2.72993E-03
 -1      1730 3.31626E-05 2.98603E-04 1.67216E-03
 -1      1731 1.63259E-04-3.53034E-05-8.20546E-03
 -1      1732-1.04797E-03 1.54728E-04 5.33502E-03
 -1      1733 5.16897E-04 2.37791E-04-6.50223E-03
 -1      1734-1.51349E-03 6.45903E-05 1.44012E-03
 -1      1735-6.01624E-04 1.32557E-04-1.07956E-03
 -1      1736-1.89857E-05 2.72365E-04-1.81303E-03
 -1      1737-1.46279E-04 8.80486E-05-5.63100E-04
 -1      1738-3.93920E-04 1.85283E-04 7.19046E-03
 -1      1739-4.91834E-04-1.05489E-04-8.05761E-03
 -1      1740-2.15721E-05-1.00476E-04 4.79432E-04
 -1      1741 2.71639E-04-8.26945E-05-1.08061E-03
 -1      1742-3.76225E-04 3.20980E-04 3.11784E-03
 -1      1743-1.55288E-04-3.26106E-04-2.22083E-03
 -1      1744 3.54259E-04-3.64139E-04-2.87467E-03
 -1      1745 5.09952E-04-2.49203E-04-3.22688E-03
 -1      1746 1.97137E-05 2.14379E-04-1.07357E-03
 -1      1747-3.35043E-04 2.38209E-04 7.55112E-03
 -1      1748 1.49895E-04 1.86905E-04-8.09025E-03
 -1      1749-4.39320E-04 1.58165E-05-8.25196E-03
 -1      1750-4.05019E-04-2.76646E-04-2.98135E-03
 -1      1751 5.94908E-04 2.42617E-04-2.36926E-03
 -1      1752 1.96678E-04-3.32818E-04 2.30676E-03
 -1      1753 1.29507E-04-2.43829E-04 9.31670E-04
 -1      1754 3.79319E-04 3.70041E-04 5.81689E-03
 -1      1755 2.37095E-04-4.33089E-04-4.20292E-03
 -1      1756-1.47404E-04 1.07400E-04 6.78749E-04
 -1      1757-2.29862E-04 2.76635E-04 2.59593E-03
 -1      1758-2.13052E-04-1.57697E-04-9.19491E-04
 -1      1759-4.62401E-04-2.18327E-04 6.72073E-03
 -1      1760-1.18977E-03-9.85193E-05 2.78406E-03
 -1      1761-2.90694E-04 3.10316E-05 1.48336E-04
 -1      1762 4.39752E-05 2.03931E-04 8.13873E-04
 -1      1763 4.54739E-04 2.62750E-04 1.93773E-03
 -1      1764 4.49656E-04 4.55375E-04 3.88177E-03
 -1      1765 2.68187E-04 1.61087E-04 1.42436E-03
 -1      1766 4.96802E-05-4.00048E-04-5.91077E-03
 -1      1767 1.58938E-04 3.23748E-04-2.92324E-03
 -1      1768-1.05119E-03-5.64732E-06 5.95141E-03
 -1      1769 4.97105E-04-6.50081E-06 9.68478E-04
 -1      1770 1.52452E-04-4.10171E-04-1.98011E-03
 -1      1771 9.95738E-05-3.07753E-04-8.23556E-04
 -1      1772-4.55649E-04 2.49306E-04-5.16982E-03
 -1      1773-2.74656E-04-1.42265E-04-1.30062E-03
 -1      1774 9.45026E-05 2.88390E-05-8.36668E-03
 -1      1775-2.01108E-04 8.95911E-05-1.89675E-04
 -1      1776 1.83580E-04 2.26961E-04 1.00207E-03
 -1      1777-4.58656E-05 7.28145E-05 4.37739E-04
 -1      1778 3.62731E-05 9.78928E-05 2.62041E-04
 -1      1779-2.14377E-04-3.09936E-04 3.67358E-03
 -1      1780-3.49712E-04 2.92768E-04 4.75879E-03
 -1      1781-1.22462E-03 1.36088E-04 2.99618E-03
 -1      1782-6.14740E-04 4.32685E-05 4.11103E-03
 -1      1783-9.99182E-05 3.13592E-04-2.83950E-03
 -1      1784-2.29432E-04-1.82542E-04 1.24004E-03
 -1      1785-8.29143E-04 5.88542E-05-9.80550E-04
 -1      1786-8.07297E-04 1.71804E-04 3.35237E-03
 -1      1787-7.07510E-04-1.10059E-04 7.14543E-03
 -1      1788 2.36323E-04-4.82374E-04-3.25124E-03
 -1      1789-8.33913E-04 1.68374E-04-3.74034E-03
 -1      1790-5.70919E-04 2.46280E-04-4.13708E-03
 -1      1791-7.53966E-04 1.43683E-04-2.47124E-03
 -1      1792-3.81567E-06-3.34021E-04-1.89212E-03
 -1      1793-1.00320E-04-2.77398E-04-1.80090E-03
 -1      1794-7.41279E-04 1.05475E-04 7.24126E-03
 -1      1795-3.71820E-04 2.44137E-04-6.47397E-03
 -1      1796 3.75375E-04 3.68811E-04-3.26282E-03
 -1      1797-6.41134E-05 3.53528E-04-4.53581E-03
 -1      1798 3.27429E-04-5.07679E-05-1.19345E-03
 -1      1799-1.10182E-04 3.34391E-04-6.69812E-03
 -1      1800-1.17556E-04-3.64554E-04-2.62494E-03
 -1      1801-1.02749E-03 1.13075E-04 2.85673E-03
 -1      1802 5.89648E-04-5.95368E-06 6.00136E-03
 -1      1803-8.84286E-06-1.97564E-04-7.31198E-04
 -1      1804-1.40462E-04 3.46927E-04-6.45551E-03
 -1      1805-3.30718E-04 2.57655E-04-1.26410E-03
 -1      1806-4.87712E-04-2.84307E-04 3.61935E-03
 -1      1807-9.59047E-04 1.51447E-04 4.67914E-03
 -1      1808-6.72573E-05 3.53998E-04 2.52812E-03
 -1      1809 1.33010E-04 3.59890E-04 3.99215E-03
 -1      1810-8.22091E-04-2.32653E-05-7.05234E-03
 -1      1811-5.72524E-04-1.77371E-04 5.64490E-03
 -1      1812-7.23330E-04 1.63070E-04-6.91376E-03
 -1      1813-5.68665E-04 2.60274E-04 4.62317E-03
 -1      1814 1.68317E-04 2.96318E-04 1.09759E-03
 -1      1815 1.69115E-04-2.53744E-05 3.55959E-04
 -1      1816-1.51332E-05 6.43058E-05-2.42780E-04
 -1      1817-6.84220E-04 2.03660E-04 6.50801E-03
 -1      1818 7.35422E-05 1.28892E-04-6.34180E-04
 -1      1819 7.52382E-05 3.11822E-04-2.07405E-03
 -1      1820 5.15454E-05-2.33389E-04 1.77470E-03
 -1      1821-1.34745E-03 1.35292E-04 3.79848E-03
 -1      1822-5.91664E-05-3.23788E-04-6.38589E-03
 -1      1823 3.38863E-04-2.19032E-04 6.87354E-03
 -1      1824-6.76591E-06 3.47866E-04-7.23135E-03
 -1      1825-2.15175E-04 3.12169E-04-3.85613E-03
 -1      1826 6.95201E-05 4.14035E-04-5.05866E-03
 -1      1827-2.63265E-04 2.82691E-04-4.98628E-03
 -1      1828 1.72995E-04 2.46684E-04-1.46379E-03
 -1      1829-4.71958E-04 2.47558E-04-7.07529E-03
 -1      1830-4.37486E-04 3.52707E-05 8.10283E-03
 -1      1831 5.49395E-05-1.26799E-04-6.68228E-04
 -1      1832-1.60528E-05-4.04271E-04-3.30004E-03
 -1      1833 1.29869E-04-3.56857E-04-1.57291E-03
 -1      1834-6.92731E-04 1.12115E-04-1.83820E-03
 -1      1835 2.17025E-04-4.27627E-04-1.51018E-03
 -1      1836 4.32102E-04 5.86941E-05 7.27759E-03
 -1      1837 1.20719E-04 3.60638E-04 9.94903E-04
 -1      1838-7.81295E-04 2.14653E-04-5.01342E-03
 -1      1839-1.04962E-03-8.77300E-05 5.61660E-03
 -1      1840 2.53184E-04-3.47140E-04-6.14828E-03
 -1      1841-3.54316E-04-2.72509E-04-5.27185E-03
 -1      1842-4.44992E-05 2.47491E-05-1.16437E-04
 -1      1843 2.47972E-05 1.15213E-04 4.09473E-04
 -1      1844-1.51761E-03 1.20759E-05 5.02097E-04
 -1      1845-7.94140E-04-1.63250E-04 5.86103E-03
 -1      1846-2.19247E-04 3.42835E-04 3.86610E-03
 -1      1847-5.90957E-05-3.25211E-04 5.67761E-03
 -1      1848-1.26243E-04-2.00601E-04 7.70927E-04
 -1      1849-7.76061E-05 3.82389E-04 5.93575E-03
 -1      1850 3.22455E-04 3.96606E-04 4.61041E-03
 -1      1851 1.89540E-04-2.03477E-04-9.82291E-04
 -1      1852 1.71559E-04 3.92027E-04 2.44285E-03
 -1      1853 9.40586E-05-3.63547E-04 3.59618E-03
 -1      1854 2.55966E-04-3.79172E-04 4.63710E-03
 -1      1855-4.57872E-05 2.62349E-04 7.48892E-03
 -1      1856-7.43908E-04 6.10462E-06-2.75475E-05
 -1      1857 9.68411E-05 7.49551E-05-6.92530E-04
 -1      1858 3.61043E-04 3.68867E-04-5.48175E-03
 -1      1859-1.35008E-03 3.71055E-05 7.69014E-04
 -1      1860 6.51436E-04 2.23243E-04 4.00980E-03
 -1      1861-3.64166E-04 2.38403E-04-7.93266E-03
 -1      1862 1.67407E-05-1.02771E-04-3.18445E-04
 -1      1863-1.23548E-03-1.10235E-04 4.00180E-03
 -1      1864 3.90299E-05-4.83714E-05-1.66811E-04
 -1      1865 5.89064E-04-1.56195E-04 2.60521E-03
 -1      1866 2.60996E-04-1.06000E-04 9.30303E-04
 -1      1867 4.10814E-04-3.55072E-04-4.78692E-03
 -1      1868-1.41079E-04 3.58213E-04-2.79510E-03
 -1      1869 5.90710E-04-1.97465E-04 3.89962E-03
 -1      1870-1.47651E-03-2.11086E-05-2.28993E-03
 -1      1871 2.18385E-04-1.80674E-05-1.30600E-03
 -1      1872 1.00039E-04-3.48056E-04 5.87792E-03
 -1      1873-6.41972E-04 1.14629E-04 4.34175E-03
 -1      1874-2.22604E-04 1.15241E-04 5.32034E-04
 -1      1875 2.08281E-04 1.78032E-04-8.95663E-04
 -1      1876 5.79649E-04-2.48199E-04-4.56425E-03
 -1      1877-4.72002E-04 2.67758E-04 6.80791E-03
 -1      1878 6.00072E-04-4.52065E-05-6.48396E-03
 -1      1879 3.31308E-05-6.66054E-05 3.59903E-04
 -1      1880-1.42943E-04 1.57932E-04 1.37788E-03
 -1      1881-1.28505E-04 4.03223E-05-1.98480E-04
 -1      1882-6.05422E-05-8.40913E-05-3.54268E-04
 -1      1883 3.96816E-04 2.75808E-04 6.58493E-03
 -1      1884-3.63271E-04 8.55225E-05-6.27355E-04
 -1      1885-3.90066E-05 3.74898E-04 2.94483E-03
 -1      1886-1.46060E-04 1.54912E-04 9.01317E-04
 -1      1887-1.56387E-04 3.90499E-04 6.01821E-03
 -1      1888 4.60811E-05 5.11408E-05-2.05658E-04
 -1      1889 3.71136E-04-8.95710E-05-1.43421E-03
 -1      1890-9.86395E-04-1.27824E-04 4.60019E-03
 -1      1891-4.73467E-04 1.75876E-04 7.57436E-03
 -1      1892-1.56988E-03 2.66033E-05-9.31937E-04
 -1      1893-3.09520E-04 1.34561E-04 8.08312E-03
 -1      1894-9.45660E-04 6.35464E-05 1.25705E-03
 -1      1895-2.56302E-05-2.66791E-04-1.61316E-03
 -1      1896-6.59316E-05 2.47119E-04-7.85844E-03
 -1      1897-3.47429E-04-9.13780E-05-3.55832E-04
 -1      1898-7.54318E-05 2.34327E-04-1.15307E-03
 -1      1899-6.32909E-06-1.66115E-05-4.28060E-05
 -1      1900-3.70666E-04 6.66159E-05 6.00523E-04
 -1      1901 2.82864E-04 4.06263E-04-4.85887E-03
 -1      1902 1.22072E-04-3.64772E-04 4.82653E-03
 -1      1903-6.89120E-06-2.86325E-04 6.96549E-03
 -1      1904-1.40697E-04-1.09952E-04-6.84646E-04
 -1      1905-1.66842E-04-1.79650E-05-5.44524E-05
 -1      1906 4.51827E-04-2.48351E-04 2.89234E-03
 -1      1907-8.47381E-05-2.00767E-04 5.49037E-04
 -1      1908-9.61074E-04 1.24533E-04-6.21209E-03
 -1      1909-3.47026E-04 1.71813E-05-1.28256E-03
 -1      1910-6.32359E-04-3.61793E-05-3.78017E-03
 -1      1911-2.07366E-04-1.43975E-04 8.19463E-03
 -1      1912 2.08003E-05-1.64005E-05 8.32354E-03
 -1      1913-4.81848E-04-1.58070E-04-1.69113E-03
 -1      1914-7.54127E-04-1.74149E-04-3.33486E-03
 -1      1915-5.50464E-05 1.70058E-04-6.50580E-04
 -1      1916 4.05791E-04-1.35130E-04 1.36344E-03
 -1      1917-5.45505E-04 1.94938E-04 3.77972E-03
 -1      1918-5.15598E-04 6.01725E-05-8.04038E-03
 -1      1919-1.17885E-03-9.56753E-05-2.01395E-03
 -1      1920 3.28053E-04-1.00822E-04-7.41661E-03
 -1      1921-5.47533E-04-1.66621E-04 7.19770E-03
 -1      1922 1.61875E-04 3.95633E-04 4.71501E-03
 -1      1923 1.13405E-04-3.35241E-04 4.15812E-03
 -1      1924-1.02669E-03 1.07443E-05-5.88470E-03
 -1      1925 1.99185E-05-8.49878E-05-4.16181E-04
 -1      1926-3.92540E-04 1.67277E-04-2.27324E-03
 -1      1927-4.31653E-04-2.12330E-04 4.84075E-03
 -1      1928-3.35679E-04-1.91186E-04-2.12062E-03
 -1      1929-9.29983E-05-1.93017E-04-7.93150E-04
 -1      1930-2.12317E-04 1.08933E-04 9.97269E-04
 -1      1931-2.70150E-04-6.22072E-05 9.83014E-04
 -1      1932-1.42068E-04 6.08662E-06-8.58291E-03
 -1      1933-2.77171E-04 3.22548E-04 6.52458E-03
 -1      1934-5.02458E-04-1.97015E-04 2.97333E-03
 -1      1935-9.47151E-04-7.06338E-05 1.92598E-03
 -1      1936-3.40261E-04-2.79094E-04 6.09714E-03
 -1      1937-7.08730E-04 3.80356E-07 1.14038E-04
 -1      1938 4.65087E-04 4.21051E-05-7.48086E-03
 -1      1939-6.83980E-04 1.84553E-04 2.50882E-03
 -1      1940-3.89269E-04 2.47094E-04 3.54750E-03
 -1      1941 3.12994E-04-5.62734E-05-1.25420E-03
 -1      1942-4.98525E-04-2.38090E-04-3.54597E-03
 -1      1943 4.54936E-04 3.77972E-04-2.81107E-03
 -1      1944 4.79073E-04 1.04030E-06 4.90585E-04
 -1      1945 6.31780E-05-1.78801E-04 6.90406E-04
 -1      1946 4.96094E-05-1.29231E-04 4.76125E-04
 -1      1947 3.55288E-07 1.29799E-04-3.90939E-04
 -1      1948 4.64424E-04 3.39848E-04-5.51990E-03
 -1      1949-9.71463E-04-1.29498E-04 3.30432E-03
 -1      1950-1.45082E-03 1.87142E-05-3.83056E-03
 -1      1951-1.41053E-04 1.34465E-04-5.16057E-04
 -1      1952 5.41430E-04 1.20793E-04 6.11435E-03
 -1      1953 8.76268E-06 7.67911E-05-2.45825E-04
 -1      1954-5.90952E-04 6.99019E-06-3.50753E-03
 -1      1955-5.78242E-05 1.28780E-04 4.98227E-04
 -1      1956-1.94125E-04-3.53351E-04-4.23791E-03
 -1      1957-9.98623E-04 1.05677E-04-2.22211E-03
 -1      1958 6.17363E-04 7.97931E-05-3.36335E-03
 -1      1959-3.81006E-05-4.01510E-04-2.58541E-03
 -1      1960-7.53743E-04-1.59435E-04 3.43855E-03
 -1      1961-5.55702E-05-3.59476E-04 4.65934E-03
 -1      1962-2.06750E-05-3.61215E-05 1.44000E-04
 -1      1963-5.75524E-05-5.33919E-05 3.27624E-04
 -1      1964 1.97581E-04 3.74348E-04 1.79621E-03
 -1      1965-5.82564E-04-2.01367E-04 3.86827E-03
 -1      1966-1.15179E-04-2.38413E-04 1.46388E-03
 -1      1967-3.19045E-04 3.11341E-04 5.66169E-03
 -1      1968-1.31651E-03-3.27929E-05 6.57013E-04
 -1      1969-8.77531E-04-7.76402E-05-6.61979E-03
 -1      1970 1.40201E-04-3.64932E-04 4.10531E-03
 -1      1971-1.02849E-04-2.99818E-04 6.66178E-03
 -1      1972-2.51784E-04-2.00013E-04 9.90456E-04
 -1      1973 5.58997E-04 7.93428E-05-6.25908E-03
 -1      1974-7.62905E-04 2.20923E-04 4.91072E-03
 -1      1975 1.54542E-04-2.45492E-04 7.45997E-03
 -1      1976-2.12612E-04 3.44102E-04 5.08587E-03
 -1      1977 1.14155E-04 3.20622E-04 1.76708E-03
 -1      1978 1.22946E-04 1.45399E-04 5.52223E-04
 -1      1979 9.59513E-05-3.22351E-04-9.96709E-04
 -1      1980-1.51167E-03 4.40030E-05-2.18342E-03
 -1      1981 6.63356E-06 6.16363E-05 3.02188E-04
 -1      1982-1.10663E-03-3.10629E-05 1.41251E-03
 -1      1983-6.57918E-05 1.76889E-04 8.98744E-04
 -1      1984-1.36832E-03 4.41383E-05 4.30687E-03
 -1      1985 2.69606E-04-1.53147E-04 7.36631E-03
 -1      1986-9.31850E-04-1.41310E-04-4.70787E-03
 -1      1987-1.00226E-03 8.77725E-06 2.82460E-04
 -1      1988 1.30046E-04 3.68691E-04 3.08766E-03
 -1      1989-1.08014E-04-3.85172E-04-5.46702E-03
 -1      1990 3.10083E-04-2.73388E-04-6.79279E-03
 -1      1991 1.18050E-04-1.83253E-04 8.09506E-03
 -1      1992 1.62390E-04-1.11602E-04-9.63166E-04
 -1      1993-9.65136E-04-2.81835E-05-1.21862E-03
 -1      1994-7.07913E-04-7.77015E-05-1.81445E-03
 -1      1995-4.16348E-06-3.35622E-04 2.58358E-03
 -1      1996-2.66159E-06-9.36250E-05-3.92642E-04
 -1      1997-6.17489E-04-2.84530E-05-7.87915E-04
 -1      1998 4.64748E-04 1.82468E-05-2.57261E-03
 -1      1999-3.83650E-04-2.58858E-04 3.96776E-03
 -1      2000-2.36684E-04 1.88769E-04-2.04883E-03
 -1      2001-5.22529E-04 1.22762E-04 1.09584E-03
 -1      2002 5.59544E-06-4.02678E-05-1.90175E-04
 -1      2003 7.35698E-04-1.02708E-04-4.50332E-03
 -1      2004 4.27898E-04-3.59073E-04 4.47869E-03
 -1      2005 4.38739E-05-3.30174E-04 2.58812E-03
 -1      2006 2.51377E-04 7.36764E-05 8.00701E-03
 -1      2007-1.10478E-03-1.03019E-04-4.12963E-03
 -1      2008-7.19713E-04 1.04466E-04 1.27266E-03
 -1      2009-3.87497E-04 1.35779E-04 1.82421E-03
 -1      2010-2.22479E-04-3.02024E-04-6.24752E-03
 -1      2011-7.53842E-05-1.55778E-04-8.20917E-03
 -1      2012-7.07863E-04-7.01967E-05 1.77382E-03
 -1      2013-6.19220E-04-2.34822E-04-4.43256E-03
 -1      2014 4.67062E-04-1.34331E-05-2.02457E-03
 -1      2015-4.88820E-04 3.31222E-05-3.86606E-05
 -1      2016-2.53600E-04 2.65543E-04-2.91906E-03
 -1      2017-2.96127E-04-3.04047E-04-3.46782E-03
 -1      2018-2.27766E-05-2.33757E-04 1.10474E-03
 -1      2019-1.69625E-04-3.15850E-04 5.11720E-03
 -1      2020 4.19546E-06-6.10636E-05 2.04105E-04
 -1      2021 6.39879E-05-2.61875E-04-7.45938E-03
 -1      2022-2.74476E-04-1.40687E-04 2.08412E-03
 -1      2023-4.57722E-05-1.61711E-04 8.73216E-04
 -1      2024-2.05765E-04-2.46936E-04 7.17618E-03
 -1      2025-7.82485E-04 1.96669E-06 8.52520E-04
 -1      2026-4.38491E-04-2.03936E-04-7.18252E-03
 -1      2027 2.88148E-04 1.35840E-04 8.54091E-04
 -1      2028-9.96822E-04-9.57989E-05-2.97151E-03
 -1      2029 2.21480E-05-5.71897E-05 2.31399E-04
 -1      2030-2.82106E-05 2.34764E-04 1.27548E-03
 -1      2031-7.46388E-04-1.76689E-04-6.16062E-03
 -1      2032-2.66680E-04-6.37962E-05-8.38120E-03
 -1      2033-3.01660E-04-2.37745E-04 2.92097E-03
 -1      2034-1.32709E-04-1.32540E-04 8.87818E-04
 -1      2035-5.67864E-04-2.23904E-04-2.53240E-03
 -1      2036-4.18814E-04-1.05431E-04-8.51550E-04
 -1      2037-2.02944E-04-1.48818E-04 1.53642E-03
 -1      2038 3.35137E-05-3.08728E-04 1.83508E-03
 -1      2039 2.23732E-04-1.86949E-04-7.68271E-03
 -1      2040-1.76312E-04-2.91297E-04 2.69917E-03
 -1      2041-7.85814E-04-1.84607E-04-4.76549E-03
 -1      2042-2.62860E-04-8.45416E-05 1.11115E-03
 -1      2043-3.97384E-04-2.35366E-04-6.66622E-03
 -1      2044-1.85211E-04-2.15714E-04-7.64486E-03
 -1      2045-4.38679E-04-7.70457E-05 2.03279E-03
 -1      2046-5.52382E-04-2.36205E-04-5.49473E-03
 -1      2047 4.66923E-04-7.23315E-06-1.14658E-03
 -1      2048-7.99156E-04 1.83965E-04-6.23136E-03
 -1      2049-6.15369E-04 4.23072E-05-7.79425E-03
 -1      2050 4.19324E-04 7.23625E-05 2.61619E-03
 -1      2051-1.20553E-03 1.08822E-04 1.72959E-03
 -1      2052-1.35671E-03-3.46100E-05-1.15823E-03
 -1      2053-1.02515E-03-8.14945E-05-5.51020E-03
 -1      2054-1.10390E-03-1.29950E-04 3.96609E-03
 -1      2055-4.43514E-04-5.61160E-05 8.06184E-03
 -1      2056-1.38690E-03 5.91387E-05-1.01954E-03
 -1      2057-5.03899E-04 2.17249E-04 7.12537E-03
 -1      2058-9.98634E-04 1.40516E-04-5.48935E-03
 -1      2059-5.81186E-04-6.99723E-05 7.66271E-03
 -1      2060 4.52451E-04 3.39067E-05 1.47113E-03
 -1      2061-7.36240E-04-1.26723E-04 6.51096E-03
 -1      2062-1.39093E-03 9.25487E-05 2.47812E-03
 -1      2063-5.67680E-04 2.49275E-04-6.46400E-03
 -1      2064-1.31331E-03 6.98522E-05-4.73676E-03
 -1      2065-1.27571E-03-7.83484E-05-3.92748E-03
 -1      2066-7.32868E-04-1.33109E-04-6.89224E-03
 -1      2067-3.55120E-04-2.02373E-05-8.29755E-03
 -1      2068-1.02430E-03-1.25243E-04 5.21409E-03
 -1      2069-1.53311E-03 2.07107E-05-2.17418E-03
 -1      2070-1.10850E-03 1.51845E-04 4.34505E-03
 -1      2071-1.20684E-03-8.85565E-05 1.64114E-03
 -1      2072-1.21047E-03-8.34049E-06 5.05219E-03
 -1      2073-6.20659E-04-1.57554E-04 6.72571E-03
 -1      2074-9.54853E-04-3.67189E-05-6.20492E-03
 -1      2075-1.39471E-03-7.51878E-05 2.25479E-03
 -1      2076-1.14685E-03 1.38552E-04-2.75488E-03
 -1      2077-9.41593E-04-1.39522E-04 4.38319E-03
 -1      2078-1.09138E-03 1.02271E-04 5.26834E-03
 -1      2079 5.52123E-05-8.02734E-05 8.17612E-03
 -1      2080-4.63508E-04-8.36855E-05 7.91860E-03
 -1      2081-6.76304E-04-1.86695E-04 4.36282E-03
 -1      2082 3.82553E-04 1.98580E-05 3.77317E-03
 -1      2083-1.42649E-03-2.76158E-05 1.04669E-03
 -1      2084-9.04591E-04 1.97177E-04 4.03016E-03
 -1      2085-1.09581E-03 7.35151E-05-5.67854E-03
 -1      2086-5.65521E-04 2.34960E-04 6.69984E-03
 -1      2087-1.45356E-03-3.91057E-05 3.04297E-03
 -1      2088 4.86413E-04 7.86196E-06-8.36573E-05
 -1      2089 4.37902E-04-5.21186E-05 2.63653E-03
 -1      2090-5.91239E-04 1.19925E-04 7.75466E-03
 -1      2091-1.13272E-03 1.74070E-04-3.60336E-03
 -1      2092-4.43826E-06-5.74638E-05-7.55236E-03
 -1      2093-1.52402E-03 1.24494E-05-4.09998E-04
 -1      2094-8.18972E-04 1.37141E-04 6.47728E-03
 -1      2095-9.07655E-04 1.13249E-04 6.30782E-03
 -1      2096-1.15831E-03 4.94917E-05 5.22928E-03
 -1      2097-1.13168E-03-2.65519E-05-5.42407E-03
 -1      2098-6.47178E-04 7.33341E-05-7.74984E-03
 -1      2099-9.12931E-04 1.10799E-04-1.88697E-03
 -1      2100-6.71661E-04 2.16412E-04-4.69542E-03
 -1      2101-1.00674E-05-4.97550E-05 7.48525E-03
 -1      2102-8.93931E-04 2.89076E-05-6.56573E-03
 -1      2103-7.26870E-04-5.80462E-05-7.39811E-03
 -1      2104-1.14912E-03 1.52752E-04 4.69372E-03
 -1      2105-9.32350E-04 1.86546E-04-4.01869E-03
 -1      2106-8.91426E-04-2.86538E-05 6.65931E-03
 -1      2107 3.89942E-04 6.99920E-06-3.79613E-03
 -1      2108-8.30339E-04 1.90785E-04 4.15459E-03
 -1      2109-1.24679E-03-8.05399E-05 4.53884E-03
 -1      2110-1.44331E-03 5.89238E-05-3.71394E-03
 -1      2111-1.07289E-03 5.21340E-05 1.63744E-03
 -1      2112-7.76269E-04 1.06486E-04 1.80670E-03
 -1      2113-1.13264E-03-3.28591E-05-8.82480E-04
 -1      2114 4.05576E-04 7.31092E-05 1.44539E-03
 -1      2115-8.97018E-04-1.31490E-04 3.94245E-03
 -1      2116-9.85433E-04 7.74929E-05-1.02058E-03
 -1      2117-3.81001E-04-2.09980E-04-2.65406E-03
 -1      2118 1.46158E-04 1.95897E-04-6.54581E-03
 -1      2119-1.33085E-03 1.51001E-04-3.49868E-03
 -1      2120 3.12803E-04 1.89461E-04-4.41349E-03
 -1      2121 4.31298E-04 1.41005E-04-1.64301E-03
 -1      2122-7.93395E-04-7.62567E-05-2.12795E-03
 -1      2123-1.07484E-03-9.74488E-05-3.55151E-03
 -1      2124-7.72963E-04-6.19728E-05 1.88228E-03
 -1      2125-8.92318E-04-1.52327E-04-4.00955E-03
 -1      2126-1.48252E-03 6.21626E-05-1.87850E-03
 -1      2127-1.09379E-03-8.04531E-05-4.83998E-03
 -1      2128-1.04285E-03-1.29467E-04 3.62422E-03
 -1      2129-1.09571E-03 1.77342E-04-4.76271E-03
 -1      2130-1.51688E-05 9.62021E-05 7.46630E-03
 -1      2131 1.51724E-04 2.10308E-04 6.25078E-03
 -1      2132-1.22043E-03 1.57558E-04 3.52589E-03
 -1      2133-1.47370E-03 7.13427E-05 2.71928E-03
 -1      2134-5.56890E-04 2.56790E-04-6.76404E-03
 -1      2135-6.86120E-04 3.52422E-05 7.56758E-03
 -1      2136-1.27422E-03-6.39847E-05-3.08349E-03
 -1      2137 4.16909E-04-6.05098E-05 1.36093E-03
 -1      2138-1.46572E-03 5.61257E-05 7.79151E-04
 -1      2139-6.24496E-04-5.01419E-05-7.92754E-03
 -1      2140 4.73333E-04 3.96857E-05-1.80202E-03
 -1      2141 4.43055E-04 4.29081E-05-3.27801E-03
 -1      2142-1.03329E-03 1.49150E-04 3.75539E-03
 -1      2143-1.54621E-03 3.01662E-05 2.06485E-03
 -1      2144-1.22893E-03-1.79731E-05 4.59819E-04
 -1      2145-1.22184E-03-1.11430E-04 3.10420E-03
 -1      2146-1.50351E-03-2.24983E-05 1.79830E-03
 -1      2147-7.76680E-04 9.13048E-05-1.63206E-03
 -1      2148-8.42242E-04 1.89290E-04-4.39975E-03
 -1      2149 2.83046E-04 1.95472E-04 4.17889E-03
 -1      2150-1.22924E-03 2.37391E-05-4.89816E-03
 -1      2151 3.64507E-04 5.45905E-05 3.68255E-03
 -1      2152 4.74193E-04 3.93778E-06 1.48327E-04
 -1      2153 2.87263E-04-1.85675E-04 4.17793E-03
 -1      2154 3.56410E-04-5.24817E-04 7.51334E-03
 -1      2155-1.05908E-03-6.98977E-06 5.90926E-03
 -1      2156 2.73318E-04-1.91557E-04-4.25042E-03
 -1      2157-1.41384E-03 6.61585E-06 4.21021E-03
 -1      2158 4.63189E-04 5.40516E-05-1.29048E-03
 -1      2159-8.83141E-04 1.44801E-04 5.76054E-03
 -1      2160-1.45804E-03-2.37357E-05-1.35381E-03
 -1      2161-8.56944E-04 7.38590E-06 6.90812E-03
 -1      2162-6.92406E-04 8.94781E-05 7.56958E-03
 -1      2163 3.82234E-04 3.53632E-05-3.92035E-03
 -1      2164-1.49022E-03 3.53749E-05-3.62344E-03
 -1      2165-1.26029E-03 2.64418E-07-4.48494E-04
 -1      2166 4.19720E-04-2.33612E-05-3.25300E-03
 -1      2167 3.69193E-04-9.55829E-05-1.47187E-03
 -1      2168-1.41236E-03 3.15384E-05-1.52408E-04
 -1      2169-7.84445E-04-1.62209E-05-9.79094E-04
 -1      2170-8.69015E-04-2.18678E-05-1.48637E-03
 -1      2171-1.41599E-03-2.85376E-05-3.61432E-03
 -1      2172-7.18525E-04-2.03741E-05-7.52726E-03
 -1      2173-1.21715E-03-7.74278E-05-3.19561E-03
 -1      2174 1.45896E-03 5.85309E-04-3.35103E-03
 -1      2175-1.50559E-03 4.65395E-05 3.17276E-03
 -1      2176 1.51378E-03 5.57466E-04-3.69097E-03
 -1      2177-8.38780E-04-1.47669E-04-4.84117E-03
 -1      2178-1.48835E-03 3.27489E-05-6.03261E-04
 -1      2179 4.41271E-04-3.23156E-05-2.25735E-03
 -1      2180 4.02869E-04-3.31411E-05 3.60049E-03
 -1      2181 4.68126E-04-3.34502E-05 1.28098E-03
 -1      2182 4.24840E-04 8.27737E-05-2.66884E-03
 -1      2183-1.30249E-03-6.12939E-06-4.53813E-03
 -1      2184 3.62057E-04-6.14437E-05 3.43284E-03
 -1      2185 3.66042E-04 9.17986E-05 3.43317E-03
 -1      2186 8.17552E-05-1.66141E-04 6.39390E-03
 -1      2187 4.49104E-04 2.99623E-05 8.85550E-04
 -1      2188 3.50264E-04-5.77233E-06 4.13492E-03
 -1      2189 4.02331E-04-6.99959E-05-2.50320E-03
 -1      2190 4.74139E-04 2.47417E-05-6.21961E-04
 -1      2191 1.33155E-03 1.13603E-05 7.47827E-04
 -1      2192 4.54110E-04-4.62854E-05 2.21061E-03
 -1      2193 4.72880E-04-1.81126E-05 5.82469E-04
 -1      2194 3.87293E-05 9.16442E-05-7.59563E-03
 -1      2195 3.79770E-04-8.45394E-05-2.63391E-03
 -1      2196 3.46522E-04-6.59171E-05-3.70671E-03
 -1      2197 4.27360E-04 4.02790E-05 8.68170E-04
 -1      2198 4.55531E-04-7.08123E-06-7.47648E-04
 -1      2199 3.42357E-04-3.86499E-05 4.15796E-03
 -1      2200 4.55871E-04-4.06392E-05 9.87559E-04
 -1      2201 3.78503E-04-2.46501E-05-3.97573E-03
 -1      2202 4.27822E-04 7.07456E-05 2.34200E-03
 -1      2203 1.17232E-03-2.53395E-04-2.86017E-03
 -1      2204 8.72628E-04-1.90727E-04-2.77794E-03
 -1      2205 9.94270E-04 7.21646E-06 7.67150E-04
 -1      2206 8.95649E-04-3.71986E-04-3.33939E-03
 -1      2207 3.07411E-04-8.48931E-05-3.93355E-03
 -1      2208 4.41145E-04 7.27286E-05-2.24672E-03
 -1      2209 3.20335E-04 4.68325E-05 4.16482E-03
 -1      2210 3.30419E-04 1.09947E-04 3.63107E-03
 -1      2211 4.53812E-04 5.49130E-05-1.21034E-03
 -1      2212 3.04189E-04-1.50769E-05-4.39679E-03
 -1      2213 3.85314E-04 9.65278E-05-2.72932E-03
 -1      2214 3.65509E-04-8.98666E-05-2.70409E-03
 -1      2215 3.56977E-04 7.44749E-05-3.74088E-03
 -1      2216 1.20569E-03 1.49070E-05-1.48981E-05
 -1      2217 1.16823E-03-2.43195E-04-1.36147E-03
 -1      2218 9.01541E-04 4.20036E-04 3.26537E-03
 -1      2219 1.23292E-03 2.60949E-05 7.83326E-04
 -1      2220 1.21177E-03-2.43006E-04 1.82265E-03
 -1      2221 1.31662E-03-7.42446E-06-9.62770E-04
 -1      2222 2.89722E-04-4.00052E-05-4.43886E-03
 -1      2223 6.40270E-04 2.03839E-04-4.94285E-03
 -1      2224-9.52159E-04-6.32101E-05-6.02268E-03
 -1      2225 6.09702E-04-2.71036E-04-4.64869E-03
 -1      2226 5.06838E-04 1.90420E-04-4.59116E-03
 -1      2227 8.75453E-04-3.71966E-04-3.52391E-03
 -1      2228 2.76728E-04-3.86109E-06 4.51481E-03
 -1      2229 3.07425E-04 2.08453E-05-4.34079E-03
 -1      2230 1.22055E-03-2.52119E-04 2.85967E-03
 -1      2231 3.92209E-04 1.01448E-04 2.50882E-03
 -1      2232 9.27852E-04 4.19959E-04 4.44454E-03
 -1      2233 6.79023E-04-2.39999E-04 4.79121E-03
 -1      2234 5.47228E-04 3.12343E-05 4.95502E-03
 -1      2235 1.19540E-03 2.75158E-04-1.49237E-03
 -1      2236 9.40108E-04-1.93629E-04 2.75905E-03
 -1      2237 6.04892E-04-2.63628E-04-4.85657E-03
 -1      2238 1.17105E-03 2.61899E-04-2.03138E-03
 -1      2239 9.45920E-04-2.04679E-04-2.08277E-03
 -1      2240 6.12920E-04-2.50206E-04-3.12934E-03
 -1      2241 1.07884E-03 1.08203E-05-3.19900E-04
 -1      2242 8.16971E-04-1.44911E-06-6.22144E-04
 -1      2243 8.73497E-04 2.00854E-04-1.36214E-03
 -1      2244 9.44480E-04-3.54192E-04 3.27705E-03
 -1      2245 1.18455E-03 2.58133E-04-3.03198E-03
 -1      2246 9.26432E-04 3.70800E-04-4.62463E-03
 -1      2247 9.32617E-04 2.89157E-05 7.94397E-04
 -1      2248 8.18201E-04 1.92339E-05 1.86246E-04
 -1      2249 9.01430E-04 2.06481E-04-2.94201E-03
 -1      2250 6.81558E-04-2.48638E-04 4.58834E-03
 -1      2251 9.20417E-04-3.40030E-04 3.46670E-03
 -1      2252 2.79898E-04-9.34985E-05-4.03911E-03
 -1      2253 6.14766E-04-2.73984E-04-3.24856E-03
 -1      2254 7.19323E-04-1.57274E-04-2.34454E-03
 -1      2255 9.20365E-04-3.63343E-04 4.53033E-03
 -1      2256 8.63308E-04 4.50969E-07-9.91218E-04
 -1      2257 4.66122E-04-1.97786E-04-4.57943E-03
 -1      2258 8.94530E-04 4.03909E-04 3.46479E-03
 -1      2259 5.24099E-04 1.93294E-05 5.51893E-03
 -1      2260 6.66519E-04 3.14487E-04 3.05625E-03
 -1      2261 5.39624E-04 4.24281E-05 5.54405E-03
 -1      2262 1.20931E-03-2.55580E-04 1.27839E-03
 -1      2263 4.05399E-04 1.49211E-04-4.62990E-03
 -1      2264 8.70670E-04 1.41816E-05 1.23847E-04
 -1      2265 1.21782E-03 1.30758E-05-8.10737E-04
 -1      2266 3.61940E-04 1.59016E-04-4.46806E-03
 -1      2267 4.27884E-04 4.01820E-05 5.24511E-03
 -1      2268 3.82616E-04 4.38451E-06 4.91266E-03
 -1      2269 7.09191E-04-2.86317E-04 4.30312E-03
 -1      2270 8.63124E-04 2.32888E-04 2.75212E-03
 -1      2271 2.83386E-04 4.03837E-05-4.41853E-03
 -1      2272 9.29495E-04-1.94382E-04 1.12575E-03
 -1      2273 6.66271E-04 2.48518E-04-5.49977E-03
 -1      2274 6.82456E-04-2.51198E-04 3.06969E-03
 -1      2275 2.58483E-04-2.43740E-05 4.62459E-03
 -1      2276 3.97387E-04-9.30186E-05 2.61115E-03
 -1      2277 4.74857E-04 1.82162E-04-5.25087E-03
 -1      2278 5.33422E-04-2.97029E-06-5.04031E-03
 -1      2279 2.77748E-04 6.02913E-05 4.40341E-03
 -1      2280 2.83796E-04 9.53390E-06 4.89427E-03
 -1      2281 3.04773E-04 9.36722E-05-3.98643E-03
 -1      2282 9.01656E-04 3.49021E-04-3.61710E-03
 -1      2283 6.71419E-04 3.11555E-04 4.27848E-03
 -1      2284 7.58534E-04 9.82624E-06 4.64301E-04
 -1      2285 6.70730E-04 2.85663E-04-4.45234E-03
 -1      2286 9.06433E-04 3.52252E-04-3.49410E-03
 -1      2287 6.10440E-04-2.83551E-04-5.52713E-03
 -1      2288 4.60231E-04-1.85867E-05 6.23979E-04
 -1      2289 4.56897E-04 3.31058E-05-8.74560E-04
 -1      2290 4.33345E-04 1.98413E-05 5.75329E-04
 -1      2291 4.84262E-04-1.91857E-04-2.99810E-03
 -1      2292 4.08300E-04 4.78713E-05 9.05933E-04
 -1      2293 8.40867E-04-1.72494E-04-1.22609E-03
 -1      2294 4.86817E-04-1.83081E-04 5.19001E-03
 -1      2295 8.92909E-04-3.81475E-04-4.53900E-03
 -1      2296 6.52880E-04 2.87021E-04 4.55037E-03
 -1      2297 9.42516E-04 6.05550E-06-8.22255E-04
 -1      2298 4.36813E-04-3.51802E-05-1.04457E-03
 -1      2299 2.47260E-04-2.08976E-05-4.64936E-03
 -1      2300 4.29616E-04-6.85843E-05 2.19681E-03
 -1      2301 6.78186E-04-2.85454E-04-4.35666E-03
 -1      2302 4.00490E-04-8.68181E-05 2.48125E-03
 -1      2303 7.05785E-04 2.77200E-05 8.25844E-04
 -1      2304 2.44924E-04 5.31583E-05 4.56138E-03
 -1      2305 6.44723E-04 3.20251E-04 5.43187E-03
 -1      2306 4.30804E-04-1.69363E-04 4.63896E-03
 -1      2307 4.67787E-04-1.95615E-04-3.09710E-03
 -1      2308 4.47578E-04-3.35368E-05 8.74759E-04
 -1      2309 4.13067E-04 5.94821E-05 1.11366E-03
 -1      2310 8.45936E-04 2.02918E-04-1.68460E-03
 -1      2311 6.90677E-04 2.61640E-04-3.24220E-03
 -1      2312 2.43910E-04-3.49756E-05-4.66863E-03
 -1      2313 8.03204E-04-1.73634E-04 1.59096E-03
 -1      2314 5.38352E-04-1.01234E-05-5.66071E-03
 -1      2315 4.11704E-04-6.81127E-06-5.34194E-03
 -1      2316 3.70143E-04 3.95749E-05-4.99995E-03
 -1      2317 5.12458E-04 1.98275E-05-5.61742E-03
 -1      2318 6.43078E-04 4.47706E-06-1.01589E-03
 -1      2319 6.55877E-04 1.61805E-06-7.91429E-04
 -1      2320 3.00297E-04 1.09372E-04 3.94718E-03
 -1      2321 3.06827E-04-7.11347E-05 3.87887E-03
 -1      2322 6.50704E-04 1.57020E-04-1.47056E-03
 -1      2323 5.81202E-04-2.53760E-04-3.66271E-03
 -1      2324 6.03685E-04 1.32300E-04-1.25598E-03
 -1      2325 5.80165E-04 2.58640E-04-3.75552E-03
 -1      2326 2.27525E-04-1.86097E-05 4.73263E-03
 -1      2327 1.17256E-03 3.02778E-04 1.29585E-03
 -1      2328 5.06039E-04-1.72750E-04 4.49894E-03
 -1      2329 9.36886E-04 2.51784E-04 1.65944E-03
 -1      2330 5.57399E-04 1.40202E-05-1.03152E-03
 -1      2331 5.90449E-04-1.51328E-04-2.79761E-03
 -1      2332 4.16785E-04 2.72252E-05 7.13363E-04
 -1      2333 5.18110E-04-2.21677E-04-4.26256E-03
 -1      2334 2.87720E-04 1.17588E-04 3.90110E-03
 -1      2335 4.40039E-04 4.99726E-05-1.12887E-03
 -1      2336 3.42889E-04-7.85667E-05 3.59579E-03
 -1      2337 2.67758E-04 1.25508E-04 3.98898E-03
 -1      2338 2.66247E-04 1.92343E-05-4.98696E-03
 -1      2339 2.79574E-04 1.04631E-04-4.11199E-03
 -1      2340 4.47001E-04 2.33207E-04 5.14930E-03
 -1      2341 3.23095E-04 1.29923E-04-4.46444E-03
 -1      2342 2.42072E-04 2.82455E-05-4.62588E-03
 -1      2343 3.61617E-04 1.16381E-04 2.60696E-03
 -1      2344 4.75941E-04-2.17895E-04-5.27202E-03
 -1      2345 6.39785E-04 1.87406E-04 2.72235E-03
 -1      2346 4.42646E-04 3.40779E-05-9.43838E-04
 -1      2347 4.02963E-04-1.86913E-04-4.70844E-03
 -1      2348 6.00222E-04-2.39480E-04 3.27700E-03
 -1      2349 5.11344E-04 2.33275E-04-3.98204E-03
 -1      2350 6.60982E-04 2.73406E-04 4.72992E-03
 -1      2351 2.72564E-04-1.00033E-04 3.97076E-03
 -1      2352 4.47683E-04 2.18414E-04 4.37955E-03
 -1      2353 3.15303E-04-8.59372E-05 3.81038E-03
 -1      2354 8.50396E-04 2.37538E-04 2.14998E-03
 -1      2355 3.91619E-04 5.13645E-05 9.18273E-04
 -1      2356 3.98928E-04 6.51734E-05 1.05990E-03
 -1      2357 4.08754E-04-1.54873E-04-2.92959E-03
 -1      2358 5.79217E-04 2.34340E-04-3.35280E-03
 -1      2359 3.18248E-04 3.78479E-05 4.91779E-03
 -1      2360 3.86220E-04 9.15686E-05-3.40066E-03
 -1      2361 7.60091E-04-1.64021E-04-1.67995E-03
 -1      2362 6.04693E-04 2.91760E-04 3.60612E-03
 -1      2363 6.53275E-04-1.25544E-04-1.15326E-03
 -1      2364 4.38968E-04-2.92345E-06-7.18949E-04
 -1      2365 2.36662E-04 5.85329E-05 4.60443E-03
 -1      2366 7.89209E-04 1.99684E-04 1.16990E-03
 -1      2367 5.41634E-04 1.25019E-04-1.32878E-03
 -1      2368 4.13642E-04-1.97232E-04-4.52539E-03
 -1      2369 4.20531E-04 1.90429E-04 4.44166E-03
 -1      2370 6.90691E-04 1.88901E-04 1.37958E-03
 -1      2371-1.33884E-03 9.85400E-05 4.12775E-03
 -1      2372 3.49306E-04-1.38213E-04-4.43181E-03
 -1      2373 6.16780E-04-2.55344E-04 3.64133E-03
 -1      2374 3.76931E-04-1.08367E-04 2.68417E-03
 -1      2375 5.16333E-04-2.09116E-04 3.03511E-03
 -1      2376 3.66057E-04-1.72028E-04-5.13170E-03
 -1      2377 3.73533E-04-1.02951E-04 2.62842E-03
 -1      2378 4.65095E-04-1.68510E-04 2.91362E-03
 -1      2379 4.40726E-04-2.41440E-05 7.33614E-04
 -1      2380 4.33278E-04-3.73748E-05 8.65699E-04
 -1      2381 3.81274E-04-1.47843E-04 4.75357E-03
 -1      2382 4.30869E-04 4.31321E-05-1.08451E-03
 -1      2383 5.27166E-04 2.53008E-04 3.84088E-03
 -1      2384 5.29287E-04 1.97011E-04-3.12562E-03
 -1      2385 2.83556E-04 1.28057E-04-4.38824E-03
 -1      2386 4.02614E-04 8.93601E-05-2.56505E-03
 -1      2387 7.00637E-04-1.42442E-04 1.05249E-03
 -1      2388 3.74378E-04-1.42445E-04 4.31216E-03
 -1      2389 4.97276E-04 2.36388E-04 2.94455E-03
 -1      2390 3.40547E-04 1.22720E-04 2.66078E-03
 -1      2391 5.25603E-04-2.17651E-04 4.20824E-03
 -1      2392 2.74926E-04-9.75229E-05 3.94185E-03
 -1      2393 6.24234E-04 1.55912E-04-2.89973E-03
 -1      2394 5.59989E-04-1.39296E-04-2.75542E-03
 -1      2395 5.74183E-04-1.31643E-04-2.49944E-03
 -1      2396 2.72690E-04 1.94057E-05 5.04197E-03
 -1      2397 4.52211E-04 2.07105E-04-4.33113E-03
 -1      2398 6.28510E-04 3.17394E-04 3.18894E-03
 -1      2399 4.20141E-04-2.59274E-05-9.51380E-04
 -1      2400 6.97955E-04-1.49655E-04 2.71990E-03
 -1      2401 2.76726E-04 9.61989E-06 5.06467E-03
 -1      2402 2.44770E-04 2.41424E-05 4.89637E-03
 -1      2403 2.18012E-04-2.08454E-05-4.78933E-03
 -1      2404 4.60295E-04 2.24354E-04 4.17956E-03
 -1      2405 6.43418E-04-9.54026E-06 7.98817E-04
 -1      2406 6.20241E-04 1.23975E-06 6.11716E-04
 -1      2407 3.53657E-04 1.68689E-04 4.28970E-03
 -1      2408 4.44625E-04 2.24978E-04 4.66443E-03
 -1      2409 3.37907E-04 1.76094E-04 4.73794E-03
 -1      2410 2.29576E-04 4.49084E-05-4.67305E-03
 -1      2411 4.25832E-04-1.68310E-04 2.91627E-03
 -1      2412 2.06461E-04 5.82822E-05 4.71351E-03
 -1      2413 4.84065E-04-1.19571E-04-2.74358E-03
 -1      2414 6.93861E-04-1.44045E-04 1.27407E-03
 -1      2415 5.07850E-04-1.97363E-04 3.83213E-03
 -1      2416 4.77021E-04 1.53549E-04 2.69539E-03
 -1      2417 2.64474E-04 1.18286E-04-4.39005E-03
 -1      2418 8.42011E-04 1.74609E-05-2.79661E-04
 -1      2419 6.91772E-04 1.34901E-05-5.63849E-04
 -1      2420 6.57486E-04-1.36761E-04-1.37786E-03
 -1      2421 2.34928E-04 1.80947E-05 4.87237E-03
 -1      2422 4.36626E-04 6.70562E-05 1.46022E-03
 -1      2423 4.23435E-04 2.11453E-04 3.93188E-03
 -1      2424 6.99140E-04-1.52883E-04 2.33711E-03
 -1      2425 6.39458E-04 1.87080E-04 2.35935E-03
 -1      2426 4.16649E-04 1.96525E-04-4.07648E-03
 -1      2427 4.84287E-04 2.32944E-04 3.03835E-03
 -1      2428 5.96817E-04-1.00252E-06-8.69550E-04
 -1      2429 5.71430E-04 9.39535E-06-7.06274E-04
 -1      2430 4.17988E-04-1.31596E-05-8.22308E-04
 -1      2431 4.24638E-04 1.69667E-04-4.73004E-03
 -1      2432 2.17329E-04-3.15582E-05-4.79671E-03
 -1      2433 2.45653E-04 1.51923E-05 4.97371E-03
 -1      2434 5.30044E-04-1.23529E-04 2.71167E-03
 -1      2435 5.58519E-04-1.67989E-05 8.15347E-04
 -1      2436 4.19423E-04-1.72272E-04 4.15233E-03
 -1      2437 2.21521E-04 8.61340E-06-4.96884E-03
 -1      2438 3.39356E-04-1.56306E-04-4.39543E-03
 -1      2439 2.72674E-04-1.20787E-04-4.30985E-03
 -1      2440 3.18791E-04 1.72660E-04 4.99797E-03
 -1      2441 2.97846E-04 1.53168E-05-5.20595E-03
 -1      2442 2.06800E-04 2.79433E-05-4.78346E-03
 -1      2443 3.53789E-04-1.25864E-04 5.02751E-03
 -1      2444 3.27240E-04 1.64977E-04 4.29678E-03
 -1      2445 2.99378E-04 1.51361E-04 4.20788E-03
 -1      2446 5.08177E-04-2.14170E-04-3.90253E-03
 -1      2447 5.71686E-04-1.04118E-04 1.00548E-03
 -1      2448 4.77767E-04 1.90702E-04-3.14582E-03
 -1      2449 3.71396E-04 1.00156E-04-2.79951E-03
 -1      2450 3.51539E-04-1.64691E-04-4.83440E-03
 -1      2451 5.40475E-04-1.02569E-04-1.22572E-03
 -1      2452 2.91375E-04-1.33299E-04-5.06000E-03
 -1      2453 3.80302E-04 9.62764E-05-2.71991E-03
 -1      2454 4.24546E-04 1.99930E-04 2.87833E-03
 -1      2455 4.08387E-04-2.72998E-05-9.44190E-04
 -1      2456 3.60070E-04 1.52971E-04-4.84255E-03
 -1      2457 5.76068E-04-1.30817E-04 2.46856E-03
 -1      2458 2.79371E-04 1.44198E-04 4.77785E-03
 -1      2459 2.05636E-04 4.97514E-05-4.80024E-03
 -1      2460 2.84903E-04-7.82164E-06-5.00335E-03
 -1      2461 2.34676E-04 1.45691E-05-5.10440E-03
 -1      2462 2.25505E-04 4.73880E-06-4.98412E-03
 -1      2463 4.10976E-04-1.78055E-04-4.21555E-03
 -1      2464 3.26411E-04-1.03573E-04 4.79360E-03
 -1      2465 5.75149E-04-1.12865E-04 1.12762E-03
 -1      2466 6.71777E-04 1.69830E-04-2.54507E-03
 -1      2467 5.06693E-04 1.37021E-04-2.88667E-03
 -1      2468 2.83160E-04-1.39736E-04-4.87513E-03
 -1      2469 3.60955E-04 1.06192E-04-2.83755E-03
 -1      2470 4.13088E-04-1.80754E-04-4.00030E-03
 -1      2471 4.05311E-04 1.61560E-04-3.06015E-03
 -1      2472 5.50868E-04 1.45060E-04-2.67692E-03
 -1      2473 3.11795E-04 1.35592E-04-5.10113E-03
 -1      2474 2.77247E-04 1.33130E-04-4.87670E-03
 -1      2475-3.45832E-04 8.43976E-06-3.08331E-03
 -1      2476-3.48922E-04 5.86374E-06 9.92907E-04
 -1      2477-2.39115E-04 1.98319E-06-8.13360E-03
 -1      2478-3.73913E-04 6.37115E-06-4.63119E-03
 -1      2479-3.82432E-04 1.27704E-05 1.02297E-03
 -1      2480-2.95099E-04 1.81409E-05-6.45401E-03
 -1      2481-2.40907E-04 3.51803E-05-7.07343E-03
 -1      2482-5.78602E-04 1.84373E-05 4.90469E-03
 -1      2483-3.49350E-04-5.15384E-07 1.17640E-03
 -1      2484-3.77913E-04 1.53709E-05-1.22240E-03
 -1      2485-5.26030E-04 1.80600E-06 4.47180E-03
 -1      2486-3.76156E-04 2.17378E-05-1.05249E-03
 -1      2487-4.92912E-04 2.05641E-05-4.68391E-03
 -1      2488 1.31096E-06-9.63905E-06 9.36358E-04
 -1      2489-3.70948E-04 5.23120E-05 3.51760E-03
 -1      2490-4.30182E-04 1.22606E-06 5.39235E-03
 -1      2491-5.81456E-04 2.00001E-05-3.99981E-03
 -1      2492-2.21288E-04 4.47336E-05 6.75011E-03
 -1      2493-2.10810E-04-5.95088E-06 2.18204E-03
 -1      2494-2.69155E-04 4.49038E-05 4.46944E-03
 -1      2495-4.11350E-04 1.57893E-05-5.49510E-03
 -1      2496-4.43530E-04 3.32944E-06 3.48571E-03
 -1      2497-4.56418E-04 2.77848E-05 6.26980E-03
 -1      2498-1.28603E-04-2.65066E-05-1.54596E-03
 -1      2499-2.71106E-04 3.52725E-05 8.06806E-03
 -1      2500-9.30738E-05-3.99495E-05-4.40251E-03
 -1      2501-5.10370E-04 1.51440E-05 9.04063E-04
 -1      2502-4.38136E-04-1.87047E-05 6.32575E-03
 -1      2503-3.83404E-04 2.32364E-05-5.51041E-03
 -1      2504-1.99170E-04-1.73541E-05-4.50851E-03
 -1      2505-4.18568E-04 1.47733E-05-6.38096E-03
 -1      2506-4.33008E-04 9.61107E-06 4.56220E-03
 -1      2507-2.19863E-04-5.50490E-06 4.55226E-03
 -1      2508-1.89217E-04-1.62070E-05 1.53393E-03
 -1      2509-4.91425E-04 1.80769E-05-9.90050E-04
 -1      2510-3.96850E-05 2.68228E-05 9.81443E-04
 -1      2511-4.80826E-04 1.53470E-05 2.80086E-03
 -1      2512-3.38283E-04 2.44430E-05 1.20714E-03
 -1      2513-2.52520E-04 4.77203E-05-8.24238E-03
 -1      2514-1.28985E-04-2.23891E-05-4.06075E-03
 -1      2515-1.50313E-04 2.48236E-05 1.57415E-03
 -1      2516-5.89201E-04 2.15616E-05-2.62908E-03
 -1      2517-1.64973E-04-4.35688E-06 5.12854E-03
 -1      2518-2.60559E-05-3.42108E-05-2.92539E-03
 -1      2519-3.85448E-04-4.52020E-06-5.35075E-03
 -1      2520-4.01230E-04 9.44243E-06 2.17698E-03
 -1      2521-4.69244E-04-9.02588E-06 3.54463E-03
 -1      2522-3.74113E-04 3.45997E-05-3.20679E-03
 -1      2523-4.27566E-04 5.86460E-06 7.78782E-04
 -1      2524-5.67062E-04 2.20898E-05 2.64313E-03
 -1      2525-3.46720E-04-4.68194E-06 3.53859E-03
 -1      2526-3.42259E-04 9.41968E-06 4.07834E-03
 -1      2527-5.36681E-04 8.28689E-06-4.77944E-03
 -1      2528-5.11504E-04 9.38691E-06 4.28086E-03
 -1      2529-2.98793E-04-2.13226E-05 4.05412E-03
 -1      2530-4.87202E-04 3.28229E-05-2.66583E-03
 -1      2531-2.28981E-04 2.20230E-05-1.09738E-03
 -1      2532 5.83366E-06 2.85508E-05 8.85176E-04
 -1      2533-1.29431E-04 6.51649E-05-4.48132E-03
 -1      2534-2.12651E-04 6.87460E-05 2.94622E-03
 -1      2535-2.10465E-05 6.97812E-06-1.00301E-03
 -1      2536-3.59491E-04 1.14978E-05-1.38821E-03
 -1      2537 1.08620E-04 5.87804E-06 2.26602E-04
 -1      2538-8.25965E-05-1.93328E-05-2.67396E-03
 -1      2539 5.61184E-05 2.79506E-05 9.32519E-04
 -1      2540-1.83725E-04-5.56180E-05 4.78805E-03
 -1      2541-3.69938E-04 4.78122E-05-3.74345E-03
 -1      2542-1.37199E-04-1.72361E-05 2.50981E-03
 -1      2543-1.39509E-04 1.86111E-05 5.10511E-03
 -1      2544-2.16351E-04 1.60471E-06-5.13760E-03
 -1      2545-1.39500E-04 4.81249E-05-1.77706E-03
 -1      2546-1.51130E-04 7.95443E-05-4.91116E-03
 -1      2547 1.58383E-05-5.31522E-05-4.21543E-03
 -1      2548 2.05716E-04-2.19558E-05 9.09026E-04
 -1      2549-2.77110E-04-2.99350E-06 2.36443E-04
 -1      2550 6.85085E-05-6.07477E-05-2.32071E-03
 -1      2551-2.13494E-04-1.12791E-05 5.62466E-03
 -1      2552-3.35463E-04-2.05270E-06 3.09069E-03
 -1      2553 1.83399E-05-7.97740E-06 5.00180E-03
 -1      2554-5.62634E-05-2.74609E-05 4.97072E-03
 -1      2555-9.22868E-05 4.55261E-06 4.50391E-03
 -1      2556-2.58650E-04 1.81345E-05 4.92473E-03
 -1      2557-2.26371E-04 1.16968E-05-8.96623E-04
 -1      2558 2.08377E-04 3.90627E-05 9.52770E-04
 -1      2559-4.50804E-05-4.39129E-05 2.86047E-03
 -1      2560-5.61609E-04 3.33400E-05-4.51987E-03
 -1      2561 4.94906E-05 6.28698E-05 1.55154E-03
 -1      2562-4.06605E-05-5.51591E-05-4.80945E-03
 -1      2563-1.95105E-04-3.00759E-05-3.86249E-03
 -1      2564-2.29518E-04 4.64624E-05-2.97154E-03
 -1      2565-5.10402E-05 7.82257E-05 4.31718E-03
 -1      2566 1.36164E-04-5.37732E-05-2.72679E-03
 -1      2567-5.74253E-05-6.03245E-05 4.32915E-03
 -1      2568-2.05160E-05 6.28669E-05 2.54711E-03
 -1      2569-1.25859E-04 3.72201E-05-5.22078E-03
 -1      2570-7.73288E-05 4.36034E-05-1.89568E-03
 -1      2571 1.51227E-04-6.15318E-05-2.85436E-03
 -1      2572-3.54340E-04 4.27267E-05-3.84661E-03
 -1      2573 4.99781E-05 8.46042E-05-4.36927E-03
 -1      2574-1.69089E-04 8.13110E-05 3.07424E-03
 -1      2575 2.04402E-04-6.87590E-05-2.78559E-03
 -1      2576 6.26030E-05 3.31311E-05-1.03371E-03
 -1      2577-1.35345E-05-5.26702E-05 4.09587E-03
 -1      2578-3.25470E-05 7.31688E-05-4.05157E-03
 -1      2579 4.21083E-05 5.93555E-05-2.79335E-03
 -1      2580 4.82900E-05 9.54366E-05 2.79952E-03
 -1      2581 9.79036E-05 3.21015E-05-1.16028E-03
 -1      2582 2.18685E-04 3.77955E-05 9.34294E-04
 -1      2583-1.90293E-04 1.71625E-05 4.64616E-03
 -1      2584-1.09028E-04 1.80991E-05-5.37092E-03
 -1      2585 1.63955E-05 8.83865E-05-4.07031E-03
 -1      2586 8.14419E-05-1.89945E-05 8.43482E-04
 -1      2587-4.88824E-05 3.12059E-05 4.87078E-03
 -1      2588 1.76009E-04 3.45640E-05-1.07539E-03
 -1      2589 2.74459E-04-7.86615E-05-2.75016E-03
 -1      2590 2.87694E-04 4.89858E-05 9.43065E-04
 -1      2591 2.12353E-04 6.40375E-05 1.25039E-03
 -1      2592 1.94939E-05-4.04129E-06 4.73848E-03
 -1      2593-8.87734E-05-8.47955E-06-4.73961E-03
 -1      2594 1.62132E-05 5.22748E-07-9.48245E-04
 -1      2595 6.71253E-05 8.59778E-05-4.20068E-03
 -1      2596 6.98973E-06-4.92197E-05 2.68612E-03
 -1      2597 1.69869E-04-1.08390E-05-9.83165E-04
 -1      2598-2.18942E-05 7.31984E-05-3.08441E-03
 -1      2599 5.59107E-05-6.57490E-05-4.49935E-03
 -1      2600-4.57514E-05 7.76618E-05 4.06990E-03
 -1      2601-8.27781E-05 1.57818E-05 5.25123E-03
 -1      2602 8.06270E-05 1.00042E-04 4.20265E-03
 -1      2603 1.28877E-04-6.64020E-05-4.07551E-03
 -1      2604-5.01191E-04 2.81365E-05-1.70079E-03
 -1      2605 2.64639E-04 3.03424E-05-1.10348E-03
 -1      2606 7.32073E-04 1.31920E-05-2.64499E-04
 -1      2607 1.06121E-04-7.61698E-05 4.21457E-03
 -1      2608 1.27532E-04-7.48364E-05 4.09598E-03
 -1      2609 1.63809E-04 1.21541E-05-7.31026E-04
 -1      2610-2.38330E-05-1.04021E-05-4.98181E-03
 -1      2611 1.30743E-04 9.27283E-05-4.28794E-03
 -1      2612 2.46159E-05 7.91207E-05-4.46995E-03
 -1      2613-6.03015E-05 5.07297E-05-1.60063E-03
 -1      2614-1.91835E-04 3.46450E-05-4.79483E-03
 -1      2615 1.89140E-04-8.39353E-05-4.12043E-03
 -1      2616 2.61002E-04-9.38223E-06 5.35238E-04
 -1      2617 3.10260E-04-3.15580E-05 8.95557E-04
 -1      2618 1.54819E-04-6.68314E-05 2.78136E-03
 -1      2619 7.66676E-05 7.58662E-05-2.98563E-03
 -1      2620 1.11341E-04-8.84620E-06 4.93508E-03
 -1      2621 9.19797E-05 4.76884E-06-3.17024E-04
 -1      2622-2.04597E-04-1.46213E-05-4.82121E-03
 -1      2623 3.87973E-05-5.14094E-05-3.09607E-03
 -1      2624 6.52599E-05-4.11483E-05-2.51559E-03
 -1      2625 1.23803E-04 1.18969E-04 3.14194E-03
 -1      2626 1.01665E-04 8.82246E-05 2.67325E-03
 -1      2627 1.11445E-04 9.97388E-05 4.06150E-03
 -1      2628 3.36078E-04 3.67003E-05-1.09891E-03
 -1      2629 3.00771E-04 4.83568E-05 9.33341E-04
 -1      2630 8.30820E-05-2.19615E-05 4.90085E-03
 -1      2631 9.04182E-05 1.06386E-04 4.42228E-03
 -1      2632 2.09782E-05-3.66798E-05 2.24694E-03
 -1      2633-5.37155E-05-1.88663E-05-5.32601E-03
 -1      2634-2.44838E-04 2.72346E-05 4.77178E-03
 -1      2635 3.61608E-04 1.66883E-04-5.24854E-03
 -1      2636 1.20578E-04-1.16426E-05 4.80361E-03
 -1      2637 1.36111E-04 1.02326E-04 4.00611E-03
 -1      2638 3.39278E-05-1.67151E-05-5.14610E-03
 -1      2639 2.35672E-04-4.71290E-05 1.30171E-03
 -1      2640 1.52977E-04-1.11794E-05 6.65569E-04
 -1      2641 5.93381E-05-5.14769E-06 5.07919E-03
 -1      2642 1.71716E-05 6.60811E-05 4.92439E-03
 -1      2643 2.95192E-04 1.76397E-05 5.30708E-03
 -1      2644 1.63437E-04 1.03933E-04 2.49390E-03
 -1      2645 3.51180E-05 4.45306E-05 5.03636E-03
 -1      2646 2.11786E-04-1.14895E-05-9.51597E-04
 -1      2647 2.71883E-04 2.32396E-05-9.19523E-04
 -1      2648 2.03275E-04-8.40479E-05-3.00872E-03
 -1      2649 3.07456E-05-3.63545E-05-5.04315E-03
 -1      2650 2.12140E-04-7.55730E-05 2.63043E-03
 -1      2651 2.11038E-04-3.46639E-05-1.38279E-03
 -1      2652 8.04993E-05 4.55346E-05 4.90412E-03
 -1      2653 2.99301E-04 5.80310E-05-1.33364E-03
 -1      2654 7.47462E-05-1.63220E-06-5.15551E-03
 -1      2655 2.32103E-05 4.99930E-05-5.09481E-03
 -1      2656 6.13535E-05 8.36411E-05-4.09399E-03
 -1      2657 2.14710E-04-7.70861E-05 2.71580E-03
 -1      2658 1.59872E-04 1.10168E-04 4.13923E-03
 -1      2659 6.32327E-04 1.45769E-04-1.84882E-03
 -1      2660 1.42627E-04-1.26388E-05 4.86821E-03
 -1      2661 1.04835E-04-6.76508E-05 4.42980E-03
 -1      2662 1.75844E-04-8.25443E-05 4.15453E-03
 -1      2663 4.53816E-04-2.03424E-04-3.57182E-03
 -1      2664 7.68519E-05-6.43695E-06 4.92493E-03
 -1      2665 1.45026E-04-7.62659E-05-4.22832E-03
 -1      2666 2.61797E-04-2.50472E-05 8.63484E-04
 -1      2667 1.83774E-04 1.12623E-04 2.76272E-03
 -1      2668 1.57247E-04 7.72591E-05-2.88253E-03
 -1      2669-6.73299E-05 7.11363E-05-3.36641E-03
 -1      2670 8.46930E-05-1.82721E-05-4.83474E-03
 -1      2671 2.36706E-04 1.08167E-04 2.68038E-03
 -1      2672 1.88489E-04-8.66086E-05 4.09510E-03
 -1      2673 1.48081E-04-8.19000E-05 3.98531E-03
 -1      2674-3.18791E-04 4.81962E-05 3.95929E-03
 -1      2675 8.62274E-05-1.79126E-05-5.01694E-03
 -1      2676 1.77606E-04 9.68257E-05-4.19897E-03
 -1      2677-2.09413E-04-2.67210E-05 3.56033E-03
 -1      2678 2.92895E-04-1.41921E-04 3.88976E-03
 -1      2679 7.27462E-05 3.47819E-05 5.04525E-03
 -1      2680 6.15868E-04 1.90154E-04 2.22143E-03
 -1      2681 3.19316E-04-3.17431E-05 8.77472E-04
 -1      2682-9.69689E-05 1.12975E-05 1.12864E-04
 -1      2683-5.00611E-04 1.36433E-05 6.34522E-04
 -1      2684 2.20557E-04-6.83247E-05-2.62760E-03
 -1      2685 2.72852E-04-7.70132E-05-2.79661E-03
 -1      2686 7.35186E-04-1.62884E-04-2.15785E-03
 -1      2687 7.80392E-05-8.01379E-05-4.10879E-03
 -1      2688 8.83904E-05-1.40321E-05 4.83389E-03
 -1      2689 3.77262E-04-1.42137E-04 4.82747E-03
 -1      2690-6.60037E-05-1.60794E-05 4.62770E-03
 -1      2691 2.83238E-04-1.97840E-05-9.73745E-04
 -1      2692 1.73462E-04 8.02077E-05-2.68504E-03
 -1      2693 1.16901E-04-2.31216E-05-4.92372E-03
 -1      2694 1.74888E-04-2.61591E-05 1.11092E-03
 -1      2695 2.30742E-04-6.78042E-05 2.46525E-03
 -1      2696 1.35676E-04 9.52783E-05-4.42452E-03
 -1      2697 2.82079E-04-8.98670E-05 2.67753E-03
 -1      2698 3.60834E-06 4.43152E-05-4.87722E-03
 -1      2699 2.04793E-04-9.10591E-05 2.93964E-03
 -1      2700-1.75225E-04 3.66569E-05 4.11108E-03
 -1      2701 1.86826E-04 1.12599E-04 4.06718E-03
 -1      2702 2.33875E-04 3.63087E-06-6.24826E-04
 -1      2703-7.31441E-04 2.01307E-05 4.24165E-03
 -1      2704 9.94350E-05 1.45420E-05 5.72533E-04
 -1      2705 1.21996E-04-1.13536E-04-3.44445E-03
 -1      2706 3.80853E-04 1.95395E-04 5.08254E-03
 -1      2707 4.38634E-04-1.75755E-04 3.42970E-03
 -1      2708 1.82277E-04 1.12600E-04 4.04686E-03
 -1      2709 1.14419E-04 4.00660E-05 4.89004E-03
 -1      2710 1.55630E-04 9.40303E-05-4.75678E-03
 -1      2711 2.19111E-04 9.05479E-05-2.94274E-03
 -1      2712 4.61814E-04-1.02108E-04 2.08811E-03
 -1      2713-3.96225E-04 3.15399E-05-5.00637E-03
 -1      2714 2.41657E-04 1.14474E-04 2.72496E-03
 -1      2715 2.84668E-04-8.64657E-05 2.72489E-03
 -1      2716-3.57492E-04 2.01210E-06 1.38387E-04
 -1      2717 4.49526E-05 7.58105E-05-5.03554E-03
 -1      2718 1.77477E-04-8.93904E-05-4.11250E-03
 -1      2719-4.33358E-05-2.03850E-05 1.57268E-03
 -1      2720 1.27213E-04 4.83278E-05 1.14779E-03
 -1      2721 1.48656E-04 9.69992E-05-3.30605E-03
 -1      2722 1.68516E-04 1.03456E-04-4.19993E-03
 -1      2723 3.01641E-04-1.99484E-05-9.57864E-04
 -1      2724 1.01462E-04 4.72087E-05 4.74307E-03
 -1      2725 1.15112E-04-3.77150E-05-4.99026E-03
 -1      2726 3.23758E-04-5.23622E-05 1.11776E-03
 -1      2727 1.35087E-04 5.32394E-05 4.87501E-03
 -1      2728 3.28843E-04-1.39883E-05 6.89269E-04
 -1      2729 1.18056E-04 6.50055E-05 4.87738E-03
 -1      2730 6.71945E-05 4.97729E-05-4.97670E-03
 -1      2731 4.65304E-05 3.60014E-05-5.16747E-03
 -1      2732 1.47785E-04 1.12912E-04 4.27241E-03
 -1      2733 3.40467E-04 3.63666E-05-1.07917E-03
 -1      2734 1.54081E-04-7.64316E-05-4.34043E-03
 -1      2735 1.41485E-04 5.59351E-05 4.79219E-03
 -1      2736 1.50230E-04 9.37126E-05 2.54612E-03
 -1      2737 1.63427E-05 2.15382E-05 4.75281E-03
 -1      2738 2.56050E-04 9.21574E-05-2.88894E-03
 -1      2739-2.42265E-04 5.23080E-05-3.85556E-03
 -1      2740 2.45419E-04-7.30314E-05 2.58955E-03
 -1      2741 2.83959E-04-3.97269E-05-1.19710E-03
 -1      2742 1.07997E-04-7.64697E-06-5.05893E-03
 -1      2743-1.23227E-04 5.57531E-05 2.05871E-03
 -1      2744 4.17019E-04 2.04389E-04-4.09169E-03
 -1      2745 2.11111E-04 1.26722E-04 2.94424E-03
 -1      2746 3.02211E-04-1.84355E-07-7.72891E-04
 -1      2747 3.14472E-04 1.60946E-04 4.69925E-03
 -1      2748 8.00619E-05 6.77621E-05-5.00194E-03
 -1      2749 2.71723E-04 2.40565E-05-5.40039E-03
 -1      2750 2.77463E-04-1.20098E-04-4.58484E-03
 -1      2751 2.62706E-04 1.14484E-04 2.58955E-03
 -1      2752-3.03166E-04 3.07106E-05 1.43908E-03
 -1      2753 2.59965E-04 8.79757E-05-2.77988E-03
 -1      2754 4.55548E-04 2.39083E-04 3.49967E-03
 -1      2755 5.54862E-04-1.18416E-04 2.43815E-03
 -1      2756 2.31555E-04 1.02533E-04-3.11810E-03
 -1      2757 1.23293E-04 5.11252E-05-4.99452E-03
 -1      2758 2.98145E-04 1.57128E-04 4.95525E-03
 -1      2759 3.23769E-04-1.12477E-04 5.00432E-03
 -1      2760 4.77295E-04 1.54022E-04 2.43370E-03
 -1      2761 2.83771E-04-1.31383E-04-5.02831E-03
 -1      2762 7.47253E-05 3.91128E-05-5.07052E-03
 -1      2763 1.27654E-04 4.73950E-05-4.89812E-03
 -1      2764 4.07594E-04-1.73058E-04-4.03425E-03
 -1      2765-8.90608E-05 2.13027E-05-4.92225E-03
 -1      2766 5.16851E-04 1.34468E-04-2.59905E-03
 -3
    1PSTEP                         2           1           1          
  100CL  101 1.000000000        2766                     0    1           1
 -4  STRESS      6    1
 -5  SXX         1    4    1    1
 -5  SYY         1    4    2    2
 -5  SZZ         1    4    3    3
 -5  SXY         1    4    1    2
 -5  SYZ         1    4    2    3
 -5  SZX         1    4    3    1
 -1         1-2.35922E+00-2.59302E+00-1.60024E+00-1.42082E-01-2.71478E-01-6.56105E-01
 -1         2-1.50803E-01 4.03492E-02-3.36317E-02-2.02225E-02-1.38777E-02-1.06822E-01
 -1         3-3.37081E-01-1.94344E-01 6.92038E-02 3.68755E-02 8.90759E-02 1.12642E-01
 -1         4-5.75247E-01-2.38088E-01 2.30274E-02-1.49072E-02 3.13753E-02-1.41887E-01
 -1         5-5.41853E-01-1.55060E-01-1.96679E-02 1.07756E-03-4.19036E-02-9.18308E-02
 -1         6-7.07321E-01-2.23050E-01 5.36342E-02 1.79338E-02-2.99510E-03 1.29693E-01
 -1         7-2.05749E-01-7.81133E-02-5.93283E-02-5.55863E-03 3.32731E-02 3.23465E-01
 -1         8-4.33648E-01-1.84585E-01-2.37678E-01 1.84293E-03-1.52323E-02 3.43624E-01
 -1         9-2.22950E-01 7.42850E-03-2.68102E-01 3.34760E-02-5.07945E-02 2.50734E-01
 -1        10-1.60421E-01-2.36306E-01-1.18981E-01-2.34078E-02 1.19321E-04-6.87442E-02
 -1        11-1.20554E-01 4.60720E-02-4.91184E-02-4.42720E-02-3.52643E-02-1.48192E-01
 -1        12 5.16206E-02-7.07861E-02 3.36218E-02-2.46082E-02 3.11716E-02-9.02271E-02
 -1        13-5.62057E-01-1.25028E-01 3.85372E-02-8.49374E-02-4.05700E-02 5.02766E-02
 -1        14-3.01203E-01-2.65226E-01-1.93481E-01-2.55932E-02 3.68184E-03 9.98848E-02
 -1        15-6.73036E-01-4.62229E-01-3.06526E-01 6.62131E-03 4.47309E-02 1.02442E-01
 -1        16-4.64127E-01-5.80692E-02-8.34932E-03 7.92588E-02-7.80690E-02-4.38354E-02
 -1        17-3.11079E-01-7.92550E-02 1.53846E-01-1.78808E-01-2.09059E-02-2.32280E-02
 -1        18-3.94340E-01-2.85065E-02 1.33973E-01-4.82559E-02 3.99258E-02-1.02731E-01
 -1        19-4.87524E-01-2.11210E-01 4.15163E-02-1.37528E-01-3.85349E-03 8.91956E-02
 -1        20-3.63298E-01-1.85711E-01-1.64714E-01 5.42016E-03 4.13569E-02 2.79052E-01
 -1        21-7.24025E-01-2.41673E-01-9.95129E-03-1.49841E-01 4.07306E-02 1.65278E-02
 -1        22-4.22822E-01-3.09923E-01-2.82990E-02-1.49385E-03-1.60467E-01-7.81667E-03
 -1        23-4.60669E-01 1.47778E-02 6.76754E-02 3.89822E-02-1.01981E-02-4.16298E-02
 -1        24-3.49698E-02-9.09823E-02-1.56764E-01 1.72743E-02 1.54806E-01 2.68802E-01
 -1        25-3.50161E-01-1.03305E-01-4.45612E-02-3.49480E-02 9.35265E-02 2.91077E-01
 -1        26-4.32411E-01-2.01498E-01 3.02342E-02-8.87470E-02-1.31852E-02-1.46306E-01
 -1        27-5.60995E-02 1.71065E-02-5.80053E-02-3.35099E-02-3.55041E-02-8.01356E-02
 -1        28-1.13506E-01 2.78265E-02 4.20090E-03-3.74775E-02-8.44151E-03-1.01079E-01
 -1        29-4.86455E-01-1.98552E-01 6.58568E-02-6.96195E-02-4.93946E-02-5.46939E-02
 -1        30-9.58193E-02-1.69092E-01-1.28196E-01 2.70368E-02 9.50690E-03-6.36139E-02
 -1        31-5.66912E-01-7.43144E-01-4.73837E-01 2.43979E-02-4.07356E-02-6.20621E-02
 -1        32-1.88257E-01-1.30865E-01-2.84479E-02-1.44666E-01 2.36137E-02-8.57465E-02
 -1        33 2.85298E-02-7.71286E-02-6.22553E-02 5.07007E-02 4.12857E-02-8.69470E-02
 -1        34-1.92556E-01-8.01160E-02 1.38865E-01-1.10000E-01 1.64026E-02 1.33916E-01
 -1        35-1.57302E-01-2.53708E-01-1.79605E-01-3.80057E-02 3.24474E-02 4.53787E-02
 -1        36-3.14063E-01-4.39690E-01-1.49193E-01-3.30396E-02 3.53819E-03 5.65433E-02
 -1        37-2.74156E-01-2.58546E-01-2.04162E-01 6.55481E-02 3.93918E-02-2.14814E-03
 -1        38-1.26597E-01-9.83447E-02-3.13796E-02 1.89346E-02 1.88143E-02 3.44473E-03
 -1        39-4.01499E-01-3.82765E-01-2.74394E-01 8.89689E-02 6.82763E-02-1.16804E-01
 -1        40-5.81713E-02-8.77860E-03-6.61011E-02-3.62002E-02-4.97649E-02-7.82027E-02
 -1        41-1.98087E+00-1.50140E+00-9.28306E-01 3.23709E-01 1.03945E-01-4.37470E-01
 -1        42-3.00335E-01-1.73516E-01 6.77122E-02-1.16598E-01 2.19391E-02 5.58412E-02
 -1        43-2.95051E-01-1.42685E-01 6.55021E-02-1.07151E-01-4.92443E-02-6.34191E-02
 -1        44-1.65825E-02-3.16734E-02-1.76625E-02-6.13614E-02 1.80300E-01 1.20125E-01
 -1        45-1.49991E-01-7.56371E-02-5.93687E-02-8.73206E-02 9.34590E-02 1.46261E-01
 -1        46-3.53186E-02-5.38926E-02-3.84285E-02 2.05073E-02 3.65540E-02-2.75697E-02
 -1        47-7.24148E-02 7.58975E-03 5.09936E-02-5.59700E-02 8.17769E-03-7.89576E-02
 -1        48-2.26014E-01-1.84571E-01-2.04920E-01-6.62810E-02 1.25235E-01 2.47749E-01
 -1        49-1.16795E-01-1.68534E-01 9.36771E-02-1.48308E-01 3.28429E-02 2.45300E-01
 -1        50-1.88361E-01 2.35670E-02 2.06256E-01-3.24651E-02 4.04035E-02 1.37141E-02
 -1        51-2.88115E-01-2.01129E-01-1.63632E-01-3.50464E-02-6.14683E-02-1.88516E-01
 -1        52-1.98895E-01-1.03784E-01 1.60279E-02-1.30378E-01-8.88918E-02-1.35597E-01
 -1        53-4.74976E-01-4.67280E-01-3.33473E-01-3.27595E-02-2.06338E-02 1.16757E-01
 -1        54-9.85075E-02-5.06567E-01-4.11151E-01-1.21756E-01 1.75654E-02 1.72825E-01
 -1        55-1.34886E-01 8.06015E-02 1.92316E-01 3.75699E-03-9.16756E-02-3.38645E-02
 -1        56-1.70356E-01-1.45762E-01-6.71567E-02 6.78133E-02 5.69294E-02-5.79596E-02
 -1        57-1.05291E+00-7.99486E-01-1.19732E+00-5.92475E-01-2.01298E-01-9.22631E-01
 -1        58-5.51322E-03 1.39138E-01 2.12000E-01-7.90737E-02-1.03064E-01-1.94946E-02
 -1        59-1.29196E-01-1.22468E-01 3.82701E-02-9.81698E-02 1.06612E-01 1.30764E-01
 -1        60-1.32370E-01-3.73589E-02 9.22489E-02-7.55581E-02 3.90649E-02 1.35014E-02
 -1        61-2.09466E-01-2.10077E-01 6.67840E-03-1.26914E-01 1.27679E-02 6.95052E-03
 -1        62-1.94145E-01-1.73761E-01-1.54116E-02-1.40115E-01-3.68014E-02-4.84533E-02
 -1        63-3.69619E-02-1.89138E-02-1.25047E-02-5.91498E-02-2.57004E-02-5.54088E-02
 -1        64 1.35256E-02 2.67050E-02-7.17853E-02-3.39935E-02-4.20409E-02-6.22622E-02
 -1        65-1.78814E-01-9.58034E-02-4.77564E-02-1.07403E-01 9.70901E-02 1.41337E-01
 -1        66-1.13957E-01-1.65300E-01-1.27897E-01-1.30354E-01 1.32952E-01 1.68860E-01
 -1        67-3.12593E-02-2.37437E-02-1.38220E-02-6.58079E-03 4.38182E-02-4.81886E-02
 -1        68-1.85829E-01-3.87487E-02-7.68196E-02-5.13197E-02 1.11550E-01 3.07088E-02
 -1        69-6.32857E-02-1.07597E-01 1.57047E-03-1.22865E-01-9.84347E-02-1.01043E-01
 -1        70-1.73427E+00-8.95599E-01-5.04350E-01-9.65219E-03 1.54744E-01-5.69203E-01
 -1        71-3.82266E-02-3.50428E-02-9.13885E-02 5.12985E-02 5.50966E-02-1.71081E-02
 -1        72-1.24292E-01-1.01645E-01-5.09451E-02 3.08713E-02 4.76792E-02-7.88564E-02
 -1        73-1.05966E-01-1.26219E-01-1.30370E-01-8.82282E-02-3.61399E-02-2.58759E-01
 -1        74-3.37424E-02-1.83860E-01-2.70117E-01-1.58259E-02-1.16737E-01-8.97129E-02
 -1        75-4.72013E-01-3.12845E-01-2.37811E-01-5.83397E-02 4.81153E-02 4.27667E-02
 -1        76-4.91886E-02-2.61059E-01-3.27609E-01 8.11063E-03 9.05077E-02 1.17590E-01
 -1        77 1.48386E-02-3.92302E-03-2.10800E-03-6.20623E-02 1.84659E-02 7.49213E-02
 -1        78 4.10693E-02 5.99712E-02 6.73343E-02-1.11649E-01-1.50076E-02 2.77365E-02
 -1        79-8.91151E-03 1.41792E-02 1.40962E-02-1.00738E-01 7.81142E-03-2.12900E-02
 -1        80 4.00114E-03 4.51624E-02 1.14568E-01-3.58854E-02-5.80584E-02 6.96901E-02
 -1        81 3.31340E-02-1.52758E-02-7.81219E-02-6.03867E-02-8.87931E-03-1.78759E-02
 -1        82 3.19662E-01-2.84535E-01-4.56235E-01-6.41309E-01-2.48560E-01-8.21530E-01
 -1        83-4.48976E-03-1.78827E-02-5.96026E-02-5.06626E-02-4.93126E-02-1.12150E-01
 -1        84-2.77224E-02-1.34990E-02-4.43338E-02-3.79428E-02-2.20207E-02-5.18515E-02
 -1        85 6.93445E-04-7.64235E-03 5.39424E-02-3.30445E-02 7.64564E-03-4.22840E-02
 -1        86 4.26214E-02 4.25327E-02 2.55614E-02-1.34871E-01 1.25847E-01 2.95495E-02
 -1        87 1.35821E-02 7.39121E-02 7.21725E-02-3.94930E-02 4.71366E-02-1.72581E-01
 -1        88-5.86154E-02-6.95899E-02-9.76887E-02-8.26774E-02-6.14163E-02-2.11654E-01
 -1        89-4.74498E-02 1.38580E-02-1.47260E-01-1.06804E-01-1.16313E-01-6.97620E-02
 -1        90 4.06521E-02 1.08810E-01 1.08839E-02-1.15636E-01-1.06653E-01 1.14698E-03
 -1        91-1.90603E-02-5.80836E-02-5.83533E-02-3.20062E-02 3.57252E-02-2.85454E-02
 -1        92 9.88569E-02 8.13004E-02 6.16893E-02-1.21355E-02 2.89375E-03-6.83370E-02
 -1        93-4.74496E-02-1.10215E-02 8.04805E-02-5.53723E-02 1.02211E-01 2.63899E-02
 -1        94 6.57632E-02 5.11127E-02-1.37142E-01-9.26037E-02 1.27391E-01-1.54429E-02
 -1        95 1.31017E-01 8.03950E-02 1.25986E-01-7.30837E-02-3.48225E-02-3.13088E-02
 -1        96-4.85131E-02-2.13371E-02 1.58887E-01-7.34069E-02-1.26539E-01-4.60481E-03
 -1        97 3.96132E-02 3.07792E-02 2.73113E-03-3.86265E-02 2.10711E-02-5.01342E-02
 -1        98 1.73241E-01 1.43079E-01-1.95959E-03-1.36934E-01 6.50585E-02-5.91811E-02
 -1        99 1.08113E-01 3.38013E-02-9.91823E-02-7.98125E-02 8.13892E-02-4.13152E-02
 -1       100 2.21310E-01 1.85105E-01 4.06624E-03-1.67119E-01-4.11163E-02 6.02775E-03
 -1       101 1.98920E-01 1.49095E-01-1.63796E-02-1.43031E-01-2.54816E-03-1.67065E-02
 -1       102 2.10752E-01 9.53814E-02-3.58820E-02-1.59828E-01-1.12277E-01 5.38055E-02
 -1       103 2.07693E-01 1.64892E-01 3.79587E-03-1.53389E-01-9.99628E-02 1.11865E-01
 -1       104 9.69888E-02 7.22976E-02 5.08658E-02-1.35342E-01-9.68607E-02 1.43556E-01
 -1       105 4.68274E-02 1.05780E-01 6.61690E-02-8.62044E-02-1.11547E-01 1.20649E-01
 -1       106 1.14617E-01 1.32984E-01 1.86295E-01-1.28772E-01-1.45371E-01 1.80843E-01
 -1       107 1.54544E+00 7.19879E-01 3.15778E-01-8.51910E-02-9.64422E-02-4.00688E-01
 -1       108-2.21923E-03 1.83250E-02 3.27977E-02-4.76702E-02 2.63462E-02-5.70780E-02
 -1       109 6.68055E-02 1.41196E-01 5.93469E-02-1.49754E-01 1.58890E-01-1.16349E-01
 -1       110 4.66009E-01 2.57554E-01 1.35801E-01-4.69662E-03-1.46882E-01-8.39195E-02
 -1       111 5.96819E-02 1.10908E-02-9.50627E-03-5.38510E-02 2.28726E-02-5.09949E-02
 -1       112 2.29008E+00 1.89116E+00 1.33581E+00 3.00684E-01 1.54643E-01-4.40417E-01
 -1       113 3.56899E-01 2.36878E-01 1.47152E-02-1.41207E-01 7.49260E-02-1.03841E-01
 -1       114 3.48976E-01 1.83636E-01 7.00366E-02-3.50285E-02 4.14543E-02-1.37342E-02
 -1       115 2.26788E-02 2.54936E-02 6.22310E-02-4.54911E-02 5.50235E-02-5.90785E-02
 -1       116 2.42120E-01 1.66880E-01 8.22489E-02-6.16581E-02-1.29651E-01 2.25556E-01
 -1       117 1.83236E-01 1.63361E-01-3.74751E-02-8.61815E-02-9.67824E-02 4.32350E-02
 -1       118 1.62290E-01 7.47282E-02 1.57477E-01-1.20335E-01-1.36303E-01 2.33260E-01
 -1       119 4.43648E-01 4.24071E-01 3.81515E-01 6.48858E-02-1.21022E-01-1.29664E-01
 -1       120 2.95118E-01 1.16448E-01 8.00534E-03-1.56560E-01 3.48867E-02-9.40018E-04
 -1       121 3.22156E-01 2.80256E-01 2.06448E-01-6.77310E-03-3.31744E-02-6.10406E-02
 -1       122 2.16853E-01 1.34748E-01-3.38892E-02-3.24161E-02-1.88756E-02-2.43914E-02
 -1       123 1.52705E-02-2.36996E-01-5.36122E-01-3.51491E-02 1.67026E-01 1.90017E-02
 -1       124 1.17738E-01 8.04711E-02 1.45183E-01 2.89733E-02-1.59351E-02-7.92865E-03
 -1       125 6.96165E-01 4.25222E-01-4.46612E-02-2.73513E-01-2.71380E-02 7.13554E-02
 -1       126 3.39968E-01 2.87995E-01-1.06299E-01-2.33530E-01-9.88462E-02 7.99018E-02
 -1       127 1.67898E-01 1.53589E-01-1.23718E-01-1.73215E-01 1.26320E-01-1.45721E-01
 -1       128 3.96314E-01 2.69172E-01 1.78684E-01-7.57376E-02-5.91058E-02-1.64318E-01
 -1       129 4.87980E-01 3.32095E-01 2.51359E-01 2.74999E-02-8.32602E-02 8.93236E-02
 -1       130 2.37849E-01 2.01432E-01-3.13852E-02 4.64795E-03-5.00594E-02 1.42798E-01
 -1       131 5.15460E-02-2.58500E-02 8.32629E-02-4.26409E-02 7.06173E-02-1.31649E-01
 -1       132 1.32202E-01-3.00457E-03 9.20279E-03-6.22668E-02 2.70907E-02-1.00580E-01
 -1       133 3.45218E-01 1.69358E-01 8.78599E-02 7.21013E-03-1.45913E-01 3.94348E-01
 -1       134 2.81590E-01 2.75409E-01-8.32059E-02-6.00647E-02-5.15636E-02-7.78534E-02
 -1       135 5.31976E-01 2.54092E-01-3.87735E-02-1.02881E-01 4.99650E-02-1.60291E-01
 -1       136 6.46121E-01 1.84252E-01-5.95215E-02-1.01537E-01-5.39810E-02 8.44255E-02
 -1       137 9.96094E-02 1.37480E-01 6.16839E-02 2.26496E-02-1.35213E-01 3.19296E-01
 -1       138 3.95367E-01 6.34126E-02 2.71979E-01 4.61706E-02-5.68947E-02 2.41280E-01
 -1       139 1.33114E-02 6.58370E-02-2.18209E-02 4.89996E-02-3.60390E-02-1.03609E-01
 -1       140 5.17878E-01 2.04578E-01 2.19677E-02-8.00956E-02 5.99520E-02-4.56664E-02
 -1       141 2.75344E-01-4.42414E-03-5.57351E-02-2.86996E-03 1.61039E-02-6.40419E-03
 -1       142 1.35701E-01 3.10600E-01 3.28531E-01 2.79918E-02-3.22534E-02-3.44924E-02
 -1       143 4.24734E-01 2.65515E-01 4.43386E-02-3.76406E-02-3.49413E-02 6.76555E-02
 -1       144 6.60598E-01 1.83302E-01-6.38272E-02-2.03252E-01 2.89156E-02 1.10350E-01
 -1       145 3.66288E-01 3.12656E-01-1.08998E-02-5.46740E-02 2.62813E-02 1.63719E-01
 -1       146 5.37883E-01 4.51079E-02-7.38653E-03-1.20705E-02-5.14754E-02 1.99044E-03
 -1       147 6.66250E-01 1.99023E-01-6.53082E-02-1.04388E-02 1.40680E-03 1.21802E-01
 -1       148 5.14982E-01 2.26810E-01-4.87575E-02-1.24962E-02-1.79105E-02-1.30257E-01
 -1       149 4.96804E-01 1.09824E-01 3.64040E-02 9.96798E-03 6.10697E-02-9.26061E-02
 -1       150 2.19558E-01 1.76272E-02-2.67994E-01-5.52589E-02 3.64945E-03-8.82150E-02
 -1       151 6.62499E-01 1.67731E-01 8.78304E-02-7.46424E-02 1.33821E-02 3.00193E-02
 -1       152 4.41081E-01 4.92616E-02 7.03873E-02 8.77519E-02 9.18757E-02-7.65014E-02
 -1       153 1.53424E-01-5.34356E-02 3.95088E-02-2.36423E-02 5.21601E-03-1.12891E-01
 -1       154 4.27317E-01 1.34051E-01 1.07026E-01 9.40224E-03 1.52335E-02 3.53801E-01
 -1       155 3.19718E-01-1.44489E-02 8.32172E-02 4.27739E-02 1.74862E-02 3.15483E-01
 -1       156 1.09759E-01-1.88613E-02 5.85437E-02 2.91665E-02-1.71047E-02-1.23712E-01
 -1       157 2.08145E-01 3.66445E-01 2.18655E-01 1.10995E-02 9.37855E-03-8.59771E-02
 -1       158 6.37945E-02 1.39928E-01 2.05439E-01-6.73209E-03-1.51140E-02-7.71907E-02
 -1       159 3.51858E-01 2.85152E-01 2.02769E-01 1.06593E-02 1.21403E-04 6.78543E-02
 -1       160 3.08677E-01 1.61595E-02-3.42255E-01 6.85715E-02 1.84113E-02 8.26799E-02
 -1       161 3.58520E-01 4.89470E-02-9.95827E-02-1.67435E-01-2.68653E-03-2.39850E-02
 -1       162 4.43753E-01 5.07792E-01 4.48396E-01-5.23426E-02 5.77046E-03-6.89274E-02
 -1       163 5.34465E-02-3.36486E-02 7.88573E-02 4.70223E-02-5.02702E-02-1.19039E-01
 -1       164 2.09551E-01 5.64890E-03 5.78748E-02 5.22732E-02-2.83656E-02-1.21073E-01
 -1       165 4.92022E-01 2.07171E-01-6.97252E-02 9.88219E-02-3.47148E-02-1.91289E-01
 -1       166 5.65136E-01 1.30093E-01-3.46590E-02-7.40752E-02 6.33168E-02 6.41774E-02
 -1       167 7.72537E-01 2.25771E-01 4.12047E-02 1.19581E-01 3.14278E-02 1.39953E-01
 -1       168 5.55491E-01 2.00798E-01-5.51850E-02 1.23121E-01 7.00789E-02 1.19299E-01
 -1       169 1.01978E-01 6.51157E-02-3.62537E-01 1.08383E-01 8.14555E-02 3.72020E-02
 -1       170 3.10820E-01 1.36961E-01 1.24526E-01 5.22728E-02 1.12412E-01 3.11158E-01
 -1       171 2.18764E-01 2.70905E-02 7.81587E-02 1.04335E-01 9.80118E-02 2.70409E-01
 -1       172 3.25567E+00 2.51972E+00 2.30779E+00-4.98806E-01 7.78057E-02-9.68259E-01
 -1       173 2.72484E+00 2.94590E+00 1.96198E+00-2.26441E-01-2.58295E-01-3.99711E-01
 -1       174 4.31314E-01 3.17818E-01 2.22304E-01 5.14960E-02 1.06828E-01 5.34444E-02
 -1       175 5.57728E-01 1.59979E-01 3.37939E-02 1.04107E-01-9.37522E-02-4.03905E-02
 -1       176 4.49704E-01 1.11627E-02 6.35847E-02 2.43656E-02-4.42037E-02-1.24104E-02
 -1       177 7.07630E-02 1.43156E-01 6.86392E-02-1.42463E-02 5.18794E-02-1.43134E-01
 -1       178 2.59633E-01 3.28690E-01 4.10668E-01-5.50957E-02 7.07020E-02-1.86914E-01
 -1       179 5.02672E-02 7.96697E-02 1.45360E-02 1.24231E-01-1.00782E-01-1.54718E-01
 -1       180 8.84526E-02 3.38989E-02 5.48438E-02 6.84344E-02-4.51533E-02-1.01333E-01
 -1       181 3.25509E-01 2.02995E-01-3.00021E-02 1.01679E-01-7.24362E-02-7.08410E-02
 -1       182 2.28205E-01 1.81645E-02-1.12339E-01 6.05275E-02 2.02781E-02 4.75686E-02
 -1       183 2.07858E-01 2.05838E-01 1.24569E-01 2.03784E-02 8.54357E-03-1.70075E-01
 -1       184 4.20674E-01 2.34499E-01-2.63355E-02 1.66700E-01 7.51669E-02 1.24653E-01
 -1       185 1.50730E-01 1.22360E-01-6.39128E-02 1.40338E-01 7.63536E-02 1.62480E-01
 -1       186 4.44825E-01 1.75380E-01-2.89349E-02 2.12068E-01 2.51864E-02-2.48378E-02
 -1       187 1.20606E-01-7.99474E-03-1.69290E-02-3.79130E-02 1.66658E-01 1.77383E-01
 -1       188 4.92207E-02-1.32262E-02 1.73219E-02-1.68106E-02 5.94838E-02 1.25716E-01
 -1       189 1.02666E-01 3.80465E-02-6.54295E-02 2.92163E-02 7.19235E-02 1.48417E-02
 -1       190 1.70588E-01 1.16171E-01-5.17553E-02 9.97920E-02-6.66179E-02-1.32103E-01
 -1       191 1.05399E-01-6.30941E-03-1.24329E-02 5.61884E-02-3.08115E-02-1.09558E-01
 -1       192 1.10763E-01-4.69954E-02-3.99893E-02-2.66802E-02 2.18436E-01 2.13103E-01
 -1       193 3.24481E-01 1.32595E-01 2.96329E-01-1.16608E-01 6.95658E-02 2.70059E-01
 -1       194 1.24492E-03 5.45272E-02 6.60916E-02-9.30690E-02 1.60203E-02-7.41038E-02
 -1       195 2.72370E-01 1.55030E-01 2.64836E-01-3.39587E-02 3.24266E-02-2.09934E-01
 -1       196 2.98529E-01 2.70410E-01 2.43090E-01 1.40843E-02 4.98398E-02 7.07156E-02
 -1       197 4.25213E-01 8.41246E-02-4.73649E-02 1.79642E-01-3.02839E-02-7.33365E-02
 -1       198 1.98586E+00 6.11861E-01 5.74272E-01-7.76917E-02 1.06327E-01-5.68540E-01
 -1       199 1.73711E-01 5.25544E-02-8.50644E-02 5.01370E-02 7.68283E-02 9.22210E-02
 -1       200 1.50188E-02 3.30706E-02 4.51698E-02 4.79859E-02-4.42703E-02-5.66255E-02
 -1       201 1.91062E-01 1.33899E-01-3.29000E-02 1.20325E-01-1.00360E-02-1.64629E-02
 -1       202 1.72955E-01 1.18652E-01-3.29689E-02 1.37969E-01-8.40036E-03 2.85287E-02
 -1       203 1.99464E-01 1.80606E-01 4.81795E-02 1.38183E-01-8.13566E-02-6.43637E-02
 -1       204 2.31166E-01 2.11907E-01 3.14027E-02 1.62656E-01 8.27259E-02 6.77789E-02
 -1       205 1.51024E-01 1.60332E-01 5.06387E-02 1.03364E-01 1.17626E-01 1.53608E-01
 -1       206 7.40602E-02 1.40505E-01 5.82031E-02 1.29477E-01-1.29453E-01-1.23696E-01
 -1       207 8.43131E-01 5.82716E-01 8.22754E-01 5.14370E-01-1.82237E-01-7.39618E-01
 -1       208 1.52459E-02-4.38128E-03-4.07970E-02-1.94839E-02 8.70523E-03-1.11646E-01
 -1       209 5.78908E-02 2.84631E-02-1.98997E-02 5.22605E-02-8.13543E-03-5.40495E-02
 -1       210 1.19546E-01 2.54032E-01 1.92275E-01 1.40856E-01 1.60662E-01 2.03764E-01
 -1       211 2.06054E-01 1.00189E-01 1.99875E-02 7.08910E-02 8.32020E-03-1.94740E-01
 -1       212 1.45770E-01-1.11415E-02-1.66475E-01 1.18782E-01-1.27596E-01 1.86750E-02
 -1       213 1.49354E-01 1.15609E-01 5.56458E-02 2.31590E-02 3.96739E-02-2.85598E-02
 -1       214 1.56957E-01 9.64562E-02 9.74809E-02 2.59225E-02 1.04183E-01-2.85841E-02
 -1       215 3.85480E-01 1.66364E-01 1.42094E-01-6.61838E-02 6.85230E-02-1.40177E-01
 -1       216-6.47090E-03 7.66743E-02 4.42518E-02 3.34729E-02 1.14799E-01-1.75721E-03
 -1       217-1.76311E-02-9.58021E-03-9.29547E-02 3.04356E-02 2.36038E-02-6.11515E-02
 -1       218 2.81383E-01-1.82889E-01-4.40608E-01 4.23011E-01 1.76962E-01-5.67554E-01
 -1       219-2.76213E-02-3.34438E-02-4.49863E-02 8.91155E-02 1.36987E-02-3.17165E-02
 -1       220 1.69906E-02-1.98028E-02 9.33215E-02 2.98514E-02-2.22961E-02-4.49996E-02
 -1       221-1.20610E-02-2.55215E-02-1.66612E-02 1.10149E-01-1.88678E-02 2.70434E-02
 -1       222-4.11522E-02 1.42534E-02-1.83897E-02 1.15528E-01 9.00996E-03 1.38184E-01
 -1       223 2.72929E-02 1.45418E-01 1.95711E-01 9.61852E-02 1.07110E-01 1.75413E-01
 -1       224-9.02199E-02-4.94939E-02-6.85632E-03 8.63548E-02-1.08080E-01-5.01339E-02
 -1       225-4.97301E-02 2.38747E-03 2.65691E-02 2.29938E-02-9.32627E-03-1.48150E-01
 -1       226 2.66796E-02 3.15650E-02-1.21281E-02-2.36489E-02 1.61018E-02-1.50499E-01
 -1       227 1.56925E-02-2.51157E-02-1.07464E-01 6.94557E-02 1.06865E-01-4.25532E-02
 -1       228-5.01658E-02 1.81131E-01 1.63921E-01 1.14443E-01-1.01545E-01-1.99239E-01
 -1       229-1.92100E-02-1.09215E-01-6.21131E-03 8.86155E-02 1.11556E-01 8.92645E-05
 -1       230-4.00961E-02-2.23202E-02-6.93756E-02 9.42322E-03-2.88526E-02-2.43214E-02
 -1       231-4.69358E-02-1.10683E-01 4.14111E-02 9.18787E-02 8.78572E-02 1.17891E-02
 -1       232 4.31865E-02-2.18335E-03-9.42072E-02 9.10462E-02-1.67163E-01 3.26166E-02
 -1       233-1.73848E-02 3.27353E-02 2.04446E-01 3.97811E-02-1.27601E-01-1.63055E-02
 -1       234-1.10972E+00-7.97542E-01-1.16437E+00 5.72329E-01 2.16917E-01-7.69138E-01
 -1       235-1.43687E-01-1.23622E-01-1.48745E-01 6.17624E-02-1.02711E-01 1.89296E-01
 -1       236-1.15587E-01-7.56488E-02 4.25924E-02 1.20062E-01 1.02026E-02 1.10215E-02
 -1       237-3.68151E-02-1.49900E-02 2.75885E-02 3.63910E-02 3.95417E-03-6.03277E-02
 -1       238-1.35982E-01 4.29724E-02 1.18272E-01 8.60348E-02 1.22114E-01-1.64884E-02
 -1       239-2.01290E-01-2.10833E-01-5.46019E-02 1.45213E-01-8.79252E-02 8.15867E-02
 -1       240-1.06427E-01-7.27029E-02-9.73336E-02 7.71936E-03-7.98976E-02-1.28672E-02
 -1       241-2.26740E-01-1.55400E-01 2.19192E-02 1.20095E-01 2.82620E-02-3.46610E-02
 -1       242-1.81369E-02-2.12614E-02-5.17051E-02 5.19473E-02 3.65402E-02-5.32380E-02
 -1       243-9.19941E-02-4.13005E-02-1.10118E-01 8.04347E-02-1.01368E-01 4.30969E-02
 -1       244-2.90398E-02-8.50280E-03 4.67029E-02 4.38716E-02-1.21619E-02 8.33228E-02
 -1       245-1.27910E-01-1.13887E-01-4.11209E-02 3.34161E-02 4.29415E-02-1.12611E-01
 -1       246-1.77655E-01-2.04561E-01-7.32405E-02 4.80653E-02 8.53549E-02-1.29837E-01
 -1       247-5.90246E-02-1.20417E-01 9.71158E-02 1.46072E-01 8.51457E-02-6.41867E-02
 -1       248-2.02113E-01-1.31124E-01-6.25604E-02 1.36757E-02-2.15405E-02-6.44455E-02
 -1       249-8.75646E-02 5.66312E-03-5.73369E-02 3.81782E-03 1.67167E-02-8.80996E-02
 -1       250-1.44561E-01 1.55165E-02 2.58451E-03 8.43054E-02-5.12500E-02-2.47764E-01
 -1       251-1.31565E-02-8.19777E-02-4.91462E-04 5.07310E-02-1.00985E-01 5.82625E-02
 -1       252-6.24217E-02-5.59176E-02 1.09051E-01 1.08636E-01-4.37216E-02 5.63064E-02
 -1       253-9.10047E-02-9.22555E-03 5.48296E-03 6.43052E-02 1.79423E-02-7.14277E-02
 -1       254-2.09850E-02-7.19946E-03-6.29942E-02 4.31166E-02 5.34356E-02-8.03302E-02
 -1       255-3.93573E-01-2.58960E-01 1.59326E-02 1.22109E-01 6.33908E-02-7.62761E-02
 -1       256-4.74996E-01-2.82391E-01 5.66052E-02 1.68231E-01-4.27585E-02 6.45412E-02
 -1       257-2.80493E-01 3.10197E-02 1.94902E-01 7.95056E-02 7.48933E-02-1.34845E-02
 -1       258-3.85295E-01-2.77605E-01 2.38521E-02 1.79882E-01-9.47143E-02 2.07166E-01
 -1       259-2.05283E-01-1.09692E-01-9.43141E-02 1.06784E-01-1.56855E-01 2.64422E-01
 -1       260-2.20612E-01-1.39010E-01-2.54289E-01 1.65282E-01-1.78824E-01 3.42602E-01
 -1       261-4.28639E-01-3.81603E-01-1.67609E-01 1.62278E-02-1.01592E-02-1.06425E-01
 -1       262-1.00452E-01-6.40018E-02 1.13681E-01 1.22364E-01 9.58478E-02-1.98716E-01
 -1       263-2.16054E-01-1.60410E-01-9.77330E-02 2.09262E-02 5.47435E-02-1.15988E-01
 -1       264-8.95973E-02-4.07092E-02-1.22942E-01 1.89729E-02-1.59239E-01 1.27293E-01
 -1       265-5.75273E-01-3.32470E-01-3.26018E-01 5.53511E-02-7.66600E-04-2.03056E-01
 -1       266-7.93023E-02-3.19549E-01-2.85500E-01 1.05007E-01 7.97501E-02-1.35283E-01
 -1       267-2.27476E-01-6.38395E-02 2.38205E-01 1.28107E-01 2.37882E-03-4.51605E-02
 -1       268-3.50950E-01-2.61101E-01-1.50786E-01 2.44239E-02-7.05367E-02-1.18685E-02
 -1       269-2.24421E-01-2.07397E-01 3.43233E-04 1.99846E-01-9.45222E-02 2.15544E-01
 -1       270-3.51926E-01-3.51598E-01-2.57126E-01-2.21663E-02-5.18815E-02-1.41348E-01
 -1       271-1.68092E-01 2.48100E-02-6.74360E-02 5.17380E-02 2.82145E-02-1.17234E-01
 -1       272-6.20441E-01-2.34753E-01 2.33048E-02 8.97208E-02 7.41887E-02-9.25312E-02
 -1       273-6.68793E-01-2.64120E-01-5.61896E-02 1.27332E-01 2.99764E-03-1.82683E-01
 -1       274-4.03700E-01-1.67769E-01-7.39080E-02 1.98847E-01-4.66638E-02-1.48346E-01
 -1       275-3.91432E-01-1.55693E-01-1.13256E-01 7.69309E-02-1.15510E-01 3.66034E-01
 -1       276-6.71486E-01-2.24696E-01 7.02859E-02 1.33178E-01-5.32436E-02 1.10709E-01
 -1       277-2.93723E-01-3.86545E-02-2.75435E-02 9.78264E-02-9.26755E-02 3.28935E-01
 -1       278-5.44830E-01-2.57219E-01 2.46734E-02 1.59557E-01-1.41158E-02 1.19237E-01
 -1       279-1.40419E-01 1.15593E-02-1.08184E-01 6.62526E-02 3.41981E-02-1.48852E-01
 -1       280-2.30282E-01-2.52417E-01-1.20287E-01-2.94903E-02 1.93903E-02-1.05703E-01
 -1       281-1.93456E-01-1.45058E-01-2.36072E-02 6.73886E-03-4.35913E-02 1.99765E-02
 -1       282-1.58068E-01-1.03886E-01 5.77042E-02 1.44693E-01-1.36610E-02 8.50314E-02
 -1       283-5.10862E-01 1.32830E-02 2.21640E-01-3.08628E-02 5.08751E-02-6.05267E-02
 -1       284-1.09439E-01-2.49126E-01-1.83194E-01 2.66472E-02-2.21217E-02 7.33923E-02
 -1       285-5.17020E-01-5.30604E-02 1.28943E-01 1.13923E-01 7.31972E-02-8.35142E-02
 -1       286 1.96756E+00 1.43966E+00 1.43444E+00-6.59074E-02-1.94809E-01 9.85173E-01
 -1       287 5.64778E-01 7.41329E-01 5.49871E-01 5.52531E-02 3.69119E-01 1.24787E-01
 -1       288 2.90024E-01 3.32290E-01 3.17825E-01 1.73327E-02 3.64631E-01 4.27405E-01
 -1       289 7.41344E-01 6.99048E-01 8.12976E-01 4.81454E-02 3.49390E-01 5.51081E-01
 -1       290 3.16311E-01 4.31871E-01 3.14985E-01-1.36661E-02-1.95346E-01 3.22574E-02
 -1       291-1.22184E-01 1.63389E-01 1.76304E-02-6.63499E-02-3.98355E-01 6.40431E-01
 -1       292-5.37909E-01-5.19705E-01-6.17927E-01 3.69595E-02-2.92692E-01 7.11845E-01
 -1       293-2.84099E-01-2.57216E-01-7.52789E-02-1.09371E-01 2.50328E-01 6.42461E-01
 -1       294-1.40464E+00-9.97020E-01-1.01110E+00-4.40727E-02 1.85262E-01 1.02014E+00
 -1       295-2.10221E-01-2.98417E-01-2.14137E-01 1.59853E-03 1.59095E-01 3.14050E-02
 -1       296 2.05488E-01 2.64168E-01 4.02345E-01-1.87164E-02-1.61859E-01 6.59726E-01
 -1       297 1.88880E+00 1.35910E+00 1.36737E+00-8.63625E-04-3.30959E-02 1.11023E+00
 -1       298 4.90346E-01 9.07395E-01 6.29506E-01-2.03573E-01-3.97904E-01 5.93264E-01
 -1       299-6.10783E-03-4.73637E-03-4.56541E-03 3.49600E-02 2.99877E-02-1.74036E-02
 -1       300-1.73369E+00-1.26034E+00-1.26049E+00 4.21197E-02 1.68100E-03 9.48094E-01
 -1       301-6.64059E-02-9.13674E-02-6.64225E-02-4.73020E-03-3.21401E-02 5.63935E-05
 -1       302 1.48585E-01 2.16234E-01 1.38035E-01 4.42788E-02-1.81007E-01 2.05287E-02
 -1       303-1.05439E-01 3.66070E-02 2.14527E-01 2.68425E-02-1.24293E-01 6.27476E-01
 -1       304 3.32579E-02 7.02368E-02 7.33639E-03 7.08082E-02-1.61696E-01 1.81249E-02
 -1       305-1.81599E-01-1.58584E-01-2.16811E-01 1.86813E-02-2.56724E-01 1.41597E-01
 -1       306 8.44500E-01 1.03567E+00 7.91552E-01-1.21297E-01-4.66955E-01 3.12887E-01
 -1       307 1.90245E-01 1.36909E-01 3.51050E-01 2.94672E-02-3.08124E-01 2.83840E-01
 -1       308-4.68348E-02-6.75765E-02-4.98406E-02 6.77132E-03 1.47597E-01 3.75312E-02
 -1       309 5.60388E-02 4.07089E-02 9.23717E-02 2.62407E-02-1.20316E-02 4.09842E-02
 -1       310-5.82229E-01-6.29306E-01-6.22938E-01-6.24846E-02 3.90260E-01 4.32631E-01
 -1       311-3.46510E-01 1.53174E-01-1.08697E-01-1.40766E-01 3.77095E-01 2.16766E-01
 -1       312 2.03294E+00 1.70983E+00 1.57570E+00 2.50030E-01 4.21651E-01 6.77635E-01
 -1       313-1.10316E+00-1.13257E+00-9.41242E-01 1.76666E-01-5.48590E-01 5.50199E-01
 -1       314-4.70977E-01-5.87466E-01-4.45605E-01 6.00122E-02-3.73804E-01 1.54301E-01
 -1       315-6.38725E-01-6.98968E-01-5.63168E-01-1.09422E-01 4.66446E-01 2.99238E-01
 -1       316-1.48072E-01-2.03305E-01-1.40472E-01 4.52536E-04 3.22488E-01 1.24214E-01
 -1       317 5.94646E-01 7.48941E-01 5.65650E-01-7.29481E-02-3.37647E-01 1.39145E-01
 -1       318-3.17710E-01-3.56003E-01-3.21323E-01 3.76016E-02-3.09447E-01 2.29009E-01
 -1       319 8.68259E-01 8.63135E-01 7.28917E-01-1.37264E-01-5.65508E-01 5.28655E-01
 -1       320 1.37049E+00 9.92049E-01 9.94628E-01-8.87014E-02-2.71756E-01 9.84485E-01
 -1       321 2.99411E-01 1.55240E-01 2.08182E-01-3.47071E-02-4.64795E-03 2.84739E-01
 -1       322 2.42072E-01 1.78993E-01 1.46154E-01 4.84487E-02-1.63047E-01 3.31330E-01
 -1       323 3.03083E-01 3.33702E-01 1.89076E-01-6.34484E-02-3.80747E-02 2.42301E-02
 -1       324 4.62542E-01 3.11545E-01 8.85355E-02-4.97624E-02-4.75087E-02 6.48253E-02
 -1       325 1.93539E-01 1.07510E-01 1.02463E-01 9.36817E-03 9.24622E-03 2.69998E-01
 -1       326-2.09257E-01 1.32653E-02-1.67623E-02 2.10381E-02 3.44053E-01 4.98689E-01
 -1       327 5.37829E-01 5.07605E-01 6.74291E-01 3.56062E-03 2.35908E-01 6.10959E-01
 -1       328 1.61516E-01 1.96419E-01 3.54728E-01-3.92308E-02-4.34026E-02 6.90849E-01
 -1       329 4.26783E-01 3.63324E-01 1.64959E-01-3.42648E-02-1.20413E-01-9.10916E-03
 -1       330 4.09946E-02 3.05349E-02-7.52556E-02 1.76020E-02-1.18849E-01-2.43955E-02
 -1       331-1.53850E-01-4.26840E-01-2.23031E-01 4.47253E-02-3.93736E-01 4.13112E-01
 -1       332 2.64187E-01 1.45908E-01 1.85427E-01-1.13366E-02-1.76061E-01 1.51772E-01
 -1       333 2.98668E-01 3.47897E-01 2.63908E-01 5.53421E-02-3.61652E-02 2.95090E-02
 -1       334 2.68636E-01 4.13844E-01 3.50706E-01 2.88660E-02 3.04532E-02-8.37583E-02
 -1       335 2.53809E-01 2.59403E-01 2.43652E-01-2.58912E-02 4.34444E-02 1.99716E-02
 -1       336-2.36795E-02-9.36062E-03-2.29553E-02-5.43003E-02 6.90415E-02 7.13340E-02
 -1       337 4.09414E-01 2.07864E-01 1.21662E-01 1.67315E-02 2.73087E-02 3.43164E-02
 -1       338-1.29269E+00-1.38715E+00-1.12821E+00-2.12157E-01 4.97555E-01 5.02212E-01
 -1       339 1.80238E-01 4.82608E-02 1.01081E-01 3.71321E-02 1.74747E-01 2.61285E-01
 -1       340 1.70853E-01 1.01240E-01 1.61593E-01 1.50852E-02 1.13994E-01 2.64955E-01
 -1       341 4.39100E-01 4.27093E-01 3.34052E-01 8.98582E-02-2.93577E-02-6.47070E-02
 -1       342 1.69544E-01 1.15801E-01 1.49932E-01 2.32038E-02 1.06120E-01-1.99182E-02
 -1       343 1.36762E-01 1.51954E-01 9.60158E-02 3.03317E-02 1.31727E-01 5.99675E-02
 -1       344 4.89147E-01 4.06155E-01 4.20176E-01-1.49662E-01 5.99357E-02-9.84532E-02
 -1       345 5.46892E-01 3.17555E-01 1.35521E-01-6.17303E-02 4.92280E-02-2.49135E-02
 -1       346 4.16565E-02 3.13279E-02 5.11821E-02-4.56541E-03-6.16524E-02-1.52513E-02
 -1       347 1.93883E-01 1.45880E-01 1.22048E-01-4.37853E-02-1.43619E-01 7.19507E-02
 -1       348 4.05393E-01 2.35832E-01 2.48996E-01-5.92107E-03-7.56607E-02 5.81321E-02
 -1       349 2.31332E+00 2.73819E+00 1.84751E+00 2.00420E-01 1.45050E-01-5.32568E-01
 -1       350 1.48541E-01 1.82781E-01 1.45712E-01 1.16125E-02-2.11785E-02-4.09149E-02
 -1       351 2.70926E+00 2.96976E+00 2.24159E+00 2.28850E-01-2.10944E-01-7.96947E-01
 -1       352 2.86675E+00 2.10110E+00 1.51327E+00-6.60910E-01 7.50255E-02-4.84221E-01
 -1       353 2.84040E+00 2.25358E+00 2.06428E+00 1.78700E-01-2.37089E-02-8.28214E-01
 -1       354 9.11554E-02 4.18491E-02-5.80354E-02-1.23334E-03-5.59254E-02-9.95075E-02
 -1       355 2.72056E+00 1.47416E+00 1.78826E+00-1.63222E-01-9.27026E-02-9.09246E-01
 -1       356 3.30555E-01 1.78319E-01 1.25940E-01-1.09054E-02 2.15713E-02-9.50296E-02
 -1       357-8.82964E-02-1.42092E-01-1.98839E-01 9.35280E-02 5.27835E-02-1.71674E-01
 -1       358 2.19256E+00 1.07038E+00 1.40949E+00 8.96024E-02-6.04763E-02-8.05459E-01
 -1       359 9.05092E-02 6.21573E-02-3.17452E-03-4.53492E-02 4.21399E-02-8.26450E-02
 -1       360 1.03735E-01 1.20814E-01 2.08794E-01-3.65108E-02 2.23359E-03-1.42540E-01
 -1       361 2.50437E+00 2.66068E+00 1.92216E+00-3.49094E-01 3.33544E-01-7.45185E-01
 -1       362 1.90506E-01 2.09885E-01 7.35150E-02-3.16135E-02-1.84327E-02-4.82085E-02
 -1       363 3.38594E-01 3.56398E-01 3.76141E-01-6.74874E-03 9.48704E-02 1.57698E-02
 -1       364 3.67428E-01 5.50434E-01 3.98044E-01-7.59051E-02 4.81413E-03-4.06490E-02
 -1       365 2.80301E-01 1.32347E-01 1.98775E-02 4.25986E-02 3.39898E-02-3.45635E-03
 -1       366 4.14764E-02-1.12379E-02 9.73226E-02-1.14627E-02 6.81910E-02-7.46665E-02
 -1       367 1.66842E-01 1.88298E-01 1.28846E-01-1.62766E-01 5.54121E-02-2.18055E-01
 -1       368 9.21116E-01 7.57835E-01 9.74830E-01-6.64340E-01 1.21164E-01-8.87452E-01
 -1       369 1.52049E-02 1.70796E-02-1.93147E-02-1.57187E-02 1.64643E-02-1.41568E-01
 -1       370-7.05084E-02-5.37936E-02-1.03338E-01 2.30377E-02 4.24269E-02-8.32176E-02
 -1       371-4.78462E-01 1.29528E-01 2.43386E-01 4.44060E-01-1.71526E-01-4.82533E-01
 -1       372-2.86761E-01 1.89031E-01 4.35893E-01-5.42464E-01 1.79928E-01-6.79185E-01
 -1       373-1.49840E-02-3.92231E-02-3.14750E-02 6.68485E-03-3.53121E-02-1.28545E-01
 -1       374 5.49588E-02 8.70462E-02 9.37298E-02 5.98674E-03 3.55547E-02-1.41718E-01
 -1       375-2.96146E+00-2.29878E+00-2.15756E+00-1.91878E-01-2.49647E-01-7.66366E-01
 -1       376-7.25170E-01-5.53607E-01-5.37597E-01-1.16116E-01-9.77712E-02-1.33869E-01
 -1       377-9.92427E-02-1.00450E-01-5.97832E-02-4.45893E-02-2.74903E-02-8.99580E-02
 -1       378-2.13464E+00-1.71326E+00-1.05304E+00-2.70622E-01-1.06344E-01-4.33563E-01
 -1       379-2.18175E+00-1.25934E+00-1.57173E+00 1.90639E-01 4.24106E-02-7.56593E-01
 -1       380-1.34204E-01-9.60226E-02-1.57527E-01-2.29040E-02-7.62805E-02-3.83832E-02
 -1       381-5.18849E-01-3.22928E-01-4.05062E-01-5.32802E-04 2.09688E-02-1.31414E-01
 -1       382-1.36882E-01-1.37241E-01-1.72741E-01 9.73107E-03-2.26557E-02-8.30103E-02
 -1       383-2.02175E+00-1.24748E+00-1.51010E+00-1.21749E-01 5.18283E-02-8.29244E-01
 -1       384-1.85031E-01-6.38494E-02-9.00076E-02 4.90420E-02 8.81020E-02-8.28852E-02
 -1       385-1.53966E-01-1.07307E-01-1.30633E-01 2.84676E-02-1.23377E-01 5.17470E-02
 -1       386-3.19877E-01-1.95855E-01-2.01571E-01-2.54937E-02-1.21566E-02-6.68934E-02
 -1       387-5.25777E-01-6.23252E-01-4.45195E-01 5.93189E-02 3.28637E-02-1.14075E-01
 -1       388-2.25141E+00-2.77456E+00-1.48113E+00-4.47349E-02 8.85940E-02-4.60487E-01
 -1       389-2.58304E+00-1.93439E+00-1.98867E+00 1.83001E-01 1.38660E-01-8.50806E-01
 -1       390-2.25136E+00-2.58987E+00-1.71790E+00 1.85294E-01-2.24624E-01-4.89361E-01
 -1       391-6.11994E-01-4.82215E-01-1.67104E-01 3.23988E-03-7.65672E-02 1.83747E-01
 -1       392-5.55481E-01-6.21210E-01-4.16844E-01-7.13543E-02-2.85028E-03-6.13023E-02
 -1       393 1.09100E+00 1.21692E+00 9.71635E-01 1.82962E-01 5.03969E-01 5.09010E-01
 -1       394-4.40009E-02-8.28279E-02-1.39337E-01-5.12708E-03 1.97404E-01 1.61467E-01
 -1       395-1.56638E-01-6.13556E-02-1.14821E-01-3.87492E-02 1.43904E-01 7.45376E-02
 -1       396 3.22347E-02 1.32379E-01-1.38659E-02 2.72366E-02 3.52502E-01 2.05932E-01
 -1       397 9.66803E-02 6.79288E-02 1.31354E-01 3.36373E-02 2.85275E-01 1.22478E-01
 -1       398-2.33642E-01-1.07081E-01-8.90428E-02 3.27695E-02 4.76067E-02-5.96985E-02
 -1       399-3.32190E-02 1.11094E-01-1.74004E-02-4.89941E-02 1.78571E-02-3.66586E-02
 -1       400 5.28371E-03 4.55322E-02-9.26838E-03-9.17109E-03 8.41708E-02 4.80025E-02
 -1       401 9.29485E-02 7.70543E-02 1.19746E-01-7.28820E-03 2.30999E-02 4.60555E-02
 -1       402-4.15788E-02-7.38706E-02-4.64126E-02-3.64690E-02 4.46502E-02-2.48836E-02
 -1       403-1.11180E-01-1.64273E-01-8.55367E-02-4.87535E-02-1.56494E-01 4.93810E-02
 -1       404 5.09371E-02 8.06695E-03 5.72112E-02-7.11941E-02-9.86423E-02 2.48689E-02
 -1       405 1.14508E-01 9.27870E-02 8.24608E-03-4.03384E-02-2.14027E-02-5.39736E-02
 -1       406 1.21995E-01 1.61388E-01 7.75831E-02-2.53067E-02-2.24312E-02-9.56039E-02
 -1       407 1.91544E-01 1.51887E-01 2.58495E-01-1.04631E-02-2.19254E-01 1.24492E-01
 -1       408-7.53074E-01-8.93647E-01-6.93270E-01 1.11581E-01-3.87614E-01 2.57645E-01
 -1       409-2.70102E-02-1.67557E-02-5.52479E-02 9.77345E-03-1.86920E-01 1.03695E-01
 -1       410 1.51937E+00 1.36452E+00 1.21412E+00 2.14569E-01 4.38481E-01 6.58703E-01
 -1       411-1.79184E-01-2.29210E-01-1.58417E-01-3.37347E-03 3.26750E-02 7.31000E-02
 -1       412 2.71915E-01 1.93021E-01 6.68076E-02 6.77740E-02 1.11410E-01 5.60169E-01
 -1       413 6.22951E-01 3.02646E-01 3.84561E-01-3.81855E-02 2.73844E-01 8.08474E-01
 -1       414-1.21317E-01-2.79170E-01-5.42049E-01 4.22845E-02 8.90433E-04 6.33710E-01
 -1       415-2.64330E-01-1.67080E-01-2.00081E-01-2.84213E-02-3.19815E-02 2.71310E-01
 -1       416-1.60527E-01-9.06027E-02-9.67592E-02 6.25233E-02 9.70132E-02 3.01185E-01
 -1       417-3.72405E-01-3.13218E-01-2.32836E-01 4.95150E-02 3.42872E-02 9.56449E-02
 -1       418-5.70049E-01-5.60158E-01-6.99160E-01 2.76340E-02-2.60789E-01 7.00535E-01
 -1       419-2.84199E-01-3.45067E-01-1.70212E-01-1.96762E-01-3.78000E-02 2.77787E-02
 -1       420-3.01498E-01-1.52515E-01-7.40524E-02 1.12627E-03-1.01634E-01 2.48973E-01
 -1       421-2.05172E-01-2.08572E-01-1.25996E-01 2.00675E-02-6.02354E-02 6.29496E-02
 -1       422-3.74861E-01-3.81502E-01-4.87267E-01 7.32067E-03-2.74000E-01 4.76727E-01
 -1       423-1.92955E-01-1.67320E-01-3.68827E-02-1.97207E-03-2.83905E-02 1.93982E-03
 -1       424-1.12020E-01-6.59291E-02-1.91607E-02 5.99638E-02-1.46731E-01 2.55294E-01
 -1       425-1.53732E-01-1.31817E-01-9.51246E-02 2.89851E-02-1.63256E-01 1.91516E-01
 -1       426-2.98223E-01-2.61841E-01-3.31968E-02 7.82212E-02-1.17327E-01 1.12482E-01
 -1       427 3.15228E-02 1.95897E-02-2.78696E-02-1.54821E-02-1.53204E-02-8.97059E-02
 -1       428-1.31480E-01-1.03362E-01-1.23517E-01 9.23381E-02 1.17781E-02-4.58750E-02
 -1       429-3.29574E-02-1.44817E-02-1.08787E-01 3.05255E-02-9.07856E-02-2.88820E-02
 -1       430 6.19309E-02 3.19944E-02 4.98612E-02-1.01789E-03 5.40459E-02-7.43883E-02
 -1       431 5.24981E-02-4.22689E-02-9.69821E-02 5.82498E-02-2.29093E-02-5.03837E-02
 -1       432-2.22685E-01-3.23282E-01-2.29852E-01 8.83803E-03 1.89016E-01 3.74408E-02
 -1       433 1.20188E-01 9.75059E-02 5.63595E-02 6.14274E-02 4.90061E-02 1.35524E-02
 -1       434 1.07815E-01 8.34984E-02 5.03153E-02 5.16659E-02 1.12144E-01-3.60474E-03
 -1       435 1.31267E-01 1.27769E-01 2.28244E-01-3.42957E-02 2.07444E-01 7.86996E-02
 -1       436-5.73229E-01-6.66763E-01-3.48158E-01 6.12496E-02-1.65009E-02-7.97069E-02
 -1       437-2.59460E+00-2.67625E+00-2.00500E+00 2.00302E-01 1.98410E-01-7.86179E-01
 -1       438-1.90377E-01-1.80609E-01-1.51922E-01 7.03136E-02 8.18257E-02-4.75602E-02
 -1       439-1.05097E-01-1.18049E-02-2.80178E-02-1.01063E-02-7.42551E-02-1.23004E-01
 -1       440-1.42415E+00-6.04817E-01-3.36246E-01 1.08202E-01-3.50677E-02-3.85997E-01
 -1       441-1.52230E+00-1.23745E+00-1.16186E+00 1.66137E-01-3.46039E-01 8.46517E-01
 -1       442-1.25162E-01-9.25428E-02-2.92437E-01-4.22653E-02-3.20866E-01 3.86892E-01
 -1       443-1.36841E+00-1.14004E+00-1.05606E+00 1.65894E-01-3.58014E-01 8.60307E-01
 -1       444-1.36788E+00-1.29773E+00-1.12222E+00 2.13604E-01-4.23634E-01 6.36562E-01
 -1       445 1.68794E-02 8.86878E-01 3.50680E-01-1.35494E-01 3.73818E-01 1.67302E-01
 -1       446-6.40920E-01-6.48065E-01-8.82684E-01 3.30515E-02 1.31754E-01 6.64537E-01
 -1       447-1.73690E+00-1.29946E+00-1.27831E+00-9.87252E-02 1.67111E-01 8.34358E-01
 -1       448 1.44386E+00 1.15966E+00 1.09608E+00 1.48752E-01 3.25466E-01 7.81838E-01
 -1       449-5.07325E-01-1.34210E-01 1.03793E-02-1.58711E-02-9.69698E-05-1.91245E-01
 -1       450-5.02786E-01-2.22346E-02-5.55053E-03-2.71810E-02-3.23121E-03-1.78757E-01
 -1       451-5.79070E-01-2.53046E-01 2.51716E-02 1.14444E-02-6.45762E-03-5.40224E-02
 -1       452-6.03322E-01-1.32724E-01-4.53904E-04 2.49303E-02-7.77116E-02-2.49889E-02
 -1       453-6.43749E-01-1.65416E-01 1.13764E-02 1.34587E-02 1.36012E-02 2.75419E-01
 -1       454-4.92491E-01 1.30995E-02 1.20430E-01 2.16688E-02 3.67467E-02 2.79507E-01
 -1       455-3.42095E-01-1.71868E-01-9.28720E-02 6.97376E-02 1.07152E-03 1.86053E-01
 -1       456-2.67198E-01-3.46120E-01-1.26244E-01 9.01760E-03 1.89193E-02-1.39544E-01
 -1       457-1.11782E-01-1.46310E-01-8.95783E-02-3.16137E-02 3.67683E-04-1.52580E-01
 -1       458-2.33339E-01-1.28209E-01-2.15588E-01 4.84480E-02 5.87214E-02 1.95992E-01
 -1       459-1.63143E-01-1.84626E-01-8.30919E-02 6.25465E-03 2.99687E-02-3.09056E-02
 -1       460-2.12254E-01-3.23156E-01-2.22208E-01 3.01348E-02 3.12929E-02-5.52884E-02
 -1       461-6.24889E-01-1.82444E-01 5.78949E-02-1.69630E-01 1.01063E-01 2.47174E-01
 -1       462-5.46750E-01-1.27129E-01 2.47951E-02-1.64461E-01 7.39743E-02 2.02392E-01
 -1       463-4.83792E-01-2.40498E-01 8.89196E-03-5.85156E-02-2.06601E-02-3.10473E-02
 -1       464-4.98094E-01-1.48625E-01-4.95194E-02-1.10465E-01 1.72216E-02-1.11351E-01
 -1       465-4.75601E-01-1.73669E-01 1.04228E-02-8.86207E-02-6.90755E-02-1.64474E-01
 -1       466-4.36655E-01-1.01157E-01-5.63423E-02-9.32878E-02-4.03320E-02-1.90792E-01
 -1       467-3.63566E-01-2.11711E-01-1.23801E-01-5.11071E-02 8.10479E-02 1.81246E-01
 -1       468-2.76470E-01-1.79171E-01-2.10550E-02 1.02084E-02-1.00456E-02-1.58844E-01
 -1       469-2.36243E-01-3.42661E-01-4.99388E-02-2.78280E-02 6.03041E-03-1.44327E-01
 -1       470-5.08773E-01-3.37816E-01-2.11314E-01-6.88600E-02 1.19178E-01 1.59395E-01
 -1       471-3.29224E-01-3.08781E-01-1.40904E-01 3.02375E-02 3.39690E-03-3.61160E-02
 -1       472-1.50382E-01-1.32208E-01-5.51740E-02 3.19789E-02 1.29121E-02-4.93647E-02
 -1       473-3.89741E-01-1.72943E-01-6.73974E-03-1.51201E-01 1.13142E-01 1.42869E-01
 -1       474-2.61556E-01-1.11633E-01 3.05159E-02-1.88738E-01 9.18026E-02 9.10858E-02
 -1       475-3.99912E-01-2.36996E-01-9.87802E-03-1.35407E-01 8.73149E-03-1.24519E-02
 -1       476-3.43065E-01-1.92594E-01-2.88533E-02-1.79987E-01 1.25784E-02-7.72468E-02
 -1       477-3.44025E-01-1.78219E-01 1.18376E-02-1.35327E-01-8.68643E-02-1.01755E-01
 -1       478-2.77194E-01-1.27362E-01-1.85061E-02-1.54877E-01-1.02155E-01-1.55900E-01
 -1       479-3.24778E-01-1.82967E-01-9.12127E-02-6.52443E-02 1.38219E-01 1.10489E-01
 -1       480-1.48642E-01-7.13528E-02-4.09141E-03-9.46231E-03-4.45340E-02-1.51343E-01
 -1       481-9.03619E-02-9.28938E-02 6.36065E-02 2.88922E-02 1.91295E-02-8.90146E-02
 -1       482-2.35523E-01-1.49420E-01-1.16749E-01-9.69110E-03 1.63251E-01 4.27921E-02
 -1       483-3.78586E-01-3.00638E-01-1.25832E-01-2.08123E-02 4.76094E-02-3.20387E-02
 -1       484-3.74027E-01-2.40038E-01-5.16918E-02-8.10512E-02 1.64094E-02-6.04188E-02
 -1       485-2.18284E-01-1.61574E-01-9.47043E-03-1.34536E-01-4.31815E-03-1.10393E-02
 -1       486-1.73993E-01-1.37184E-01-5.48953E-03-1.05005E-01 9.54276E-02 1.09522E-01
 -1       487-2.13712E-01-1.45486E-01 3.66778E-02-1.52944E-01 2.09794E-02 1.98675E-02
 -1       488-5.86194E-02-7.56067E-02 9.26866E-02-1.01547E-01-9.98072E-03-4.61391E-02
 -1       489-1.26740E-01-1.57282E-01 6.72858E-03-1.11254E-01-6.61075E-02-6.64981E-02
 -1       490-1.94560E-01-1.82268E-01-2.40795E-02-1.55303E-01 1.08778E-01 7.32481E-02
 -1       491 5.91898E-02-6.63571E-03 5.24561E-02-1.17519E-02 4.71760E-02-4.82298E-02
 -1       492-1.20204E-01-1.15500E-01-7.22393E-02-1.21836E-02-2.44152E-02-1.29609E-01
 -1       493-1.34826E-01-6.77772E-02-8.68864E-02-3.06486E-03 1.40088E-02-1.52284E-01
 -1       494-5.20829E-02-4.05889E-02 3.46067E-02-2.71960E-02 7.04524E-02 5.14127E-02
 -1       495-2.07381E-01-1.68587E-01-2.53500E-02-4.03172E-02 7.36388E-02-2.59486E-02
 -1       496-3.32933E-02-1.01843E-02 5.35687E-02-3.67170E-02 1.94380E-02-9.10283E-02
 -1       497 2.44955E-02-4.96310E-04-6.41339E-03-8.27332E-02 5.72993E-03 4.41851E-03
 -1       498-2.77092E-02-3.95709E-02 2.54777E-03-1.02493E-01-4.32708E-03 4.02467E-02
 -1       499-1.42957E-04-2.67354E-02 3.91067E-02-6.86281E-02-1.07755E-01 3.26446E-02
 -1       500-2.24749E-02-2.56340E-02-6.25527E-03-9.26259E-02-5.29460E-03-5.04968E-02
 -1       501 2.93338E-02-3.36124E-03 1.18187E-02-7.30387E-02-1.13439E-01-4.60970E-02
 -1       502 1.63784E-02 1.70658E-02 8.71804E-03-8.26178E-02 8.91777E-02-9.12745E-03
 -1       503-1.20186E-02-1.96831E-02 5.18535E-02-6.46636E-02-2.18752E-02-4.60930E-02
 -1       504-4.11524E-02-4.26085E-02-7.35557E-03-2.41685E-02-1.40136E-02-1.22005E-01
 -1       505-1.91746E-02 1.81263E-02 6.53246E-02 5.02124E-03 2.51853E-02-1.57773E-01
 -1       506-5.82901E-03-1.36694E-02 2.10212E-02-8.66447E-03-6.24637E-03-7.01935E-02
 -1       507 4.39943E-02 4.37539E-02 2.69003E-02 1.23831E-02-2.01629E-03-6.92794E-02
 -1       508 1.03369E-01 2.16676E-02 8.99792E-02 1.11604E-02 3.12845E-03-8.01434E-02
 -1       509 1.53139E-01 1.20028E-01-9.08086E-03-7.82664E-02 1.57764E-02-8.66245E-03
 -1       510 1.19836E-01 1.13127E-01-3.05134E-02-1.03611E-01 5.94315E-02-5.44414E-02
 -1       511 6.03677E-02 1.00216E-01-2.51558E-02-9.48977E-02-3.64297E-03-5.32888E-02
 -1       512 1.59176E-01 1.72606E-01 2.02528E-02-1.19341E-01-3.24177E-02 1.80813E-02
 -1       513 8.30548E-02 1.01097E-01-2.57872E-02-1.23577E-01-9.83722E-02 9.79521E-02
 -1       514 9.97284E-02 1.02942E-01-2.85304E-02-7.89614E-02-5.49580E-02 4.54057E-02
 -1       515-1.02357E-01 5.39498E-02 6.65715E-02 7.45371E-03-6.61974E-02-1.14757E-02
 -1       516 1.91276E-01 1.07268E-01 1.40526E-01 1.94215E-02-1.73608E-02-1.52272E-01
 -1       517 2.08407E-01 1.87262E-01 1.62645E-01-9.34852E-03 2.36738E-02-1.65563E-01
 -1       518 1.86348E-01 1.97932E-01 1.33704E-01-3.45462E-03-6.39127E-02-2.42008E-02
 -1       519-1.63530E-02-1.03839E-02 9.62174E-03 1.65119E-02-1.91754E-02-1.14526E-01
 -1       520 6.70208E-02 7.84434E-02 6.26384E-02 5.13139E-02-1.54194E-02-6.96620E-02
 -1       521 4.09741E-01 1.96156E-01 8.50519E-02-1.35201E-01-1.07413E-01 1.44951E-01
 -1       522 3.04438E-01 1.14346E-01 1.36162E-01-1.99663E-01-1.55639E-01 1.89672E-01
 -1       523 3.30828E-01 2.21236E-01 2.39452E-02-1.15194E-01 1.71941E-03-2.21088E-02
 -1       524 2.71251E-01 1.89472E-01 4.62044E-02-1.61666E-01-4.01682E-02 8.65627E-02
 -1       525 2.52468E-01 1.89915E-01-3.06023E-02-1.38603E-01 6.95584E-02-1.12581E-01
 -1       526 2.00654E-01 1.66198E-01 1.44435E-02-1.49716E-01 6.35448E-02-1.01021E-01
 -1       527 1.38182E-01 6.42950E-02 4.78440E-02-2.09743E-02-1.13905E-01 6.03377E-02
 -1       528 5.56246E-02 1.03613E-01-4.19483E-04-2.54432E-03 2.86303E-02-1.40294E-01
 -1       529 1.89693E-01 1.18972E-01 1.02842E-01 2.94115E-02-3.00777E-03-1.69225E-01
 -1       530 3.71544E-02-3.88890E-03-9.74536E-02 1.76180E-02-8.00184E-02 1.73253E-02
 -1       531 6.96760E-02 7.93119E-02 5.30116E-02 4.06684E-02-6.43829E-02-9.27308E-02
 -1       532 1.32417E-01 1.44292E-01 1.82707E-01 2.19250E-02-3.31382E-02-2.72854E-02
 -1       533 5.91509E-01 2.34700E-01 1.67960E-02-1.61568E-01-1.05310E-01 2.03920E-01
 -1       534 6.95404E-01 2.20976E-01 2.26281E-02-2.40908E-01-8.35104E-02 2.11439E-01
 -1       535 3.88126E-01 2.26291E-01-8.14447E-02-8.09711E-02 1.79294E-02-8.12106E-02
 -1       536 5.79445E-01 3.56321E-01 8.09133E-02-9.76036E-02 4.00244E-02-4.36074E-02
 -1       537 4.93146E-01 1.72355E-01 2.32972E-02-8.20154E-02 4.12787E-02-2.31898E-01
 -1       538 5.34153E-01 1.63394E-01-2.52688E-02-9.51087E-02 5.02200E-02-1.87192E-01
 -1       539 2.99044E-01 2.26908E-01 8.15381E-02-7.62688E-02-1.06387E-01 1.48053E-01
 -1       540 2.32947E-01 2.01582E-01 5.72571E-02 2.44555E-02 2.55550E-02-1.68877E-01
 -1       541 2.91846E-01 2.48052E-01 1.02575E-01 4.55998E-02-1.59938E-02-1.89934E-01
 -1       542 3.02413E-01 1.74876E-01 5.96040E-02 8.41407E-04-9.08495E-02 1.06905E-01
 -1       543 7.85365E-02 1.15121E-01 1.19451E-01 4.38587E-02-2.17254E-02-6.64861E-02
 -1       544 9.56376E-02 1.87793E-01 7.52371E-02-1.60551E-02-1.14531E-02-6.07684E-02
 -1       545 6.52813E-01 1.69531E-01-2.16470E-02 2.22943E-02-2.32283E-03 2.58225E-01
 -1       546 6.61884E-01 1.58490E-03 4.03503E-02 4.50541E-02 1.65031E-02 2.51730E-01
 -1       547 5.50288E-01 2.38257E-01-1.06878E-02-4.69133E-03-5.59380E-03-2.74780E-02
 -1       548 4.43186E-01 5.28087E-02-1.83012E-02-1.23961E-02 3.54052E-02-7.83078E-03
 -1       549 5.74250E-01 1.86314E-01-3.78067E-03-1.73947E-02 5.79413E-03-2.05697E-01
 -1       550 4.80131E-01 9.30433E-03-5.39049E-02-2.35554E-02 2.01801E-02-2.34165E-01
 -1       551 4.73828E-01 3.23867E-01 1.39961E-01-2.83989E-02-6.59519E-03 2.03187E-01
 -1       552 3.24847E-01 3.14192E-01-2.38222E-02-5.32605E-02 5.94735E-03-1.61620E-01
 -1       553 3.65627E-01 3.63219E-01 1.08231E-02-2.85465E-02-6.41433E-03-1.78883E-01
 -1       554 3.86915E-03-2.07649E-03-2.68231E-02 1.40461E-02 2.26395E-02 1.63433E-01
 -1       555 4.58165E-01 4.08914E-01 1.56587E-01 1.97404E-02 2.77590E-02-3.65036E-02
 -1       556 1.40598E-02 4.54826E-02 1.45329E-01-4.50112E-02-2.88984E-02-2.42817E-02
 -1       557 4.53929E-01 1.31608E-01-2.09930E-02 7.07953E-02-3.55633E-02-2.12168E-01
 -1       558 5.12425E-01 1.60262E-01-1.27446E-02 9.23912E-02-5.60353E-02-1.76345E-01
 -1       559 5.04247E-01 2.77848E-01 2.32914E-02 8.65979E-02 1.31145E-02-5.80089E-02
 -1       560 5.71109E-01 2.38908E-01-2.56910E-02 9.75383E-02-6.03690E-02-1.32688E-02
 -1       561 5.10799E-01 1.40327E-01-4.19401E-02 1.41225E-01 9.37769E-02 2.26565E-01
 -1       562 6.64652E-01 1.67057E-01-5.17207E-02 2.19722E-01 3.71104E-02 1.98319E-01
 -1       563 3.37764E-01 2.69251E-01 2.50241E-01 1.14320E-02 9.34576E-02 1.10223E-01
 -1       564 1.62448E-01 1.52555E-01 1.64051E-01-3.47169E-02 3.29253E-02-1.48825E-01
 -1       565 1.14058E-01 1.06459E-01 1.27713E-02-3.24267E-02-1.63268E-03-1.48905E-01
 -1       566 2.88419E-01 1.28817E-01 1.20969E-01 4.54281E-02 4.88678E-02 9.72676E-02
 -1       567 2.30930E-01 2.67831E-01 1.48974E-01 2.46881E-02-8.50978E-03-5.87938E-02
 -1       568 1.05875E-01 1.11482E-01 9.19083E-02-1.01785E-02 8.63867E-04-4.49759E-02
 -1       569 3.78860E-01 2.28710E-01 9.89878E-03 1.33675E-01-9.64935E-02-1.26039E-01
 -1       570 2.42850E-01 1.25588E-01-7.74119E-02 1.40525E-01-3.69153E-02-6.98907E-02
 -1       571 4.33903E-01 2.72355E-01-2.10841E-02 1.22513E-01-1.56982E-02-1.85518E-02
 -1       572 3.70245E-01 2.06510E-01-5.95431E-02 1.71397E-01-1.85815E-03 6.61168E-02
 -1       573 3.19105E-01 1.80928E-01 2.19614E-02 1.21658E-01 1.20708E-01 1.31233E-01
 -1       574 2.18817E-01 8.50957E-02-3.38483E-02 1.55470E-01 2.05453E-01 1.93689E-01
 -1       575 1.06919E-01 1.15703E-01 6.46591E-03 1.18054E-02 1.10591E-01 4.61459E-02
 -1       576 1.98544E-01 1.69880E-01 5.14877E-02 6.60057E-03-3.98045E-02-1.68720E-01
 -1       577 2.36802E-02 4.40384E-02-1.44435E-02-3.05362E-02 1.63503E-02-1.17246E-01
 -1       578 9.87309E-02 1.49558E-01 1.44266E-01 1.69365E-02 1.75246E-01 3.47504E-02
 -1       579 2.02004E-01 1.61844E-01 6.07377E-02-6.77204E-03 2.68377E-03-7.15957E-02
 -1       580 3.31204E-02 8.50369E-04-8.22441E-02-5.06898E-02 1.14286E-02-1.16540E-01
 -1       581 5.64376E-02 6.42299E-02-6.80816E-02 3.61445E-02 8.45904E-02 2.35771E-02
 -1       582 1.59230E-01 1.32905E-01-2.79385E-02 1.19644E-01-6.77919E-02-6.95164E-02
 -1       583 9.73688E-02 1.38774E-01-1.33165E-02 1.18492E-01-7.55040E-03-4.97901E-02
 -1       584 2.08624E-01 1.70325E-01-1.48913E-02 1.46455E-01 3.13210E-02 1.10468E-02
 -1       585 1.95094E-01 1.45922E-01-2.40854E-03 1.27227E-01 9.65635E-02 1.09204E-01
 -1       586 1.76017E-01 1.70576E-01 2.31781E-02 9.97369E-02-2.35841E-02-2.34343E-02
 -1       587 1.01124E-01 1.36232E-01 1.17193E-02 4.93019E-02 6.40317E-02-6.05003E-02
 -1       588 1.16924E-01 6.91144E-02 4.80976E-02-9.96479E-03 2.67126E-03-1.78646E-01
 -1       589 1.79363E-01 1.19525E-01 5.41953E-02 6.03812E-03 1.45148E-02-1.61100E-01
 -1       590 1.56112E-01 1.48112E-01 1.12316E-01 2.42236E-02 7.82230E-02-1.63463E-03
 -1       591-7.92587E-02 1.76768E-02 1.02496E-02-8.46700E-02 5.58200E-02-6.52975E-02
 -1       592-1.87221E-02 1.89704E-02-1.32713E-02-1.47125E-02 3.98368E-02-4.96631E-02
 -1       593-1.37779E-03-9.39164E-03 5.72002E-03 8.72982E-02 8.89298E-03 3.53384E-03
 -1       594-1.22139E-02-9.15005E-04-5.96174E-03 8.49658E-02 9.36290E-03-2.97461E-02
 -1       595 2.07500E-02 4.65637E-02 1.08052E-02 7.47514E-02 1.04281E-01-3.53433E-02
 -1       596-2.18441E-02 3.24244E-03 5.20937E-03 1.36033E-01-1.45947E-02 9.71370E-03
 -1       597-4.00576E-03 6.94477E-02 3.02961E-02 1.13386E-01 1.10210E-01-1.55533E-02
 -1       598 2.30885E-03 1.53190E-02-6.81288E-03 8.02939E-02-1.26797E-01 1.25742E-02
 -1       599-4.77280E-02-2.64716E-02-4.99085E-02 6.42369E-02-9.88575E-03-3.85386E-02
 -1       600-4.09782E-02 2.53093E-02 3.42878E-02 1.60842E-02-2.71040E-02-1.44622E-01
 -1       601 1.91388E-03-1.05312E-02 7.76565E-03 4.44513E-03 7.55326E-02-1.42333E-01
 -1       602 2.55035E-02 4.16156E-02 4.46655E-02 1.41888E-02 4.63094E-02-7.09069E-02
 -1       603 6.11522E-03-3.12918E-02 1.19429E-02 2.88140E-02 2.19846E-02-4.71524E-02
 -1       604-1.67953E-02 3.00704E-02-1.55292E-02 4.56201E-03-6.89376E-02-7.89421E-02
 -1       605-9.34339E-02-1.39473E-01-2.06191E-03 8.10413E-02-9.56364E-02 5.33338E-02
 -1       606-1.94812E-01-9.79210E-02 3.33645E-02 1.29284E-01-1.25674E-01 8.10230E-02
 -1       607-1.85936E-01-1.86440E-01-9.95009E-03 1.54782E-01-4.01616E-02 6.37069E-04
 -1       608-5.71169E-02-1.23698E-01 2.84505E-02 9.23835E-02 2.50922E-02-4.77724E-02
 -1       609-1.52266E-01-1.84820E-01-3.61623E-02 1.05139E-01 7.27227E-02-7.36903E-02
 -1       610-4.87575E-02-1.14141E-01 1.45740E-02 9.04697E-02 9.80974E-02-5.83969E-02
 -1       611-1.10963E-01-7.84271E-02-4.88213E-02 2.84830E-02-1.11497E-01-2.60746E-02
 -1       612-2.46356E-01-1.39471E-01-1.21350E-01-1.96452E-02-5.18716E-02-1.31084E-01
 -1       613-5.90719E-02-9.10807E-02-4.38755E-02 7.57248E-03 5.06345E-03-1.53242E-01
 -1       614-1.67760E-01-1.20304E-01-7.39277E-02 4.63184E-02-9.83854E-02-8.18129E-02
 -1       615-1.29766E-02-4.50369E-02-3.19517E-02-1.75565E-02-3.94835E-03-8.95126E-02
 -1       616-1.31831E-01-1.09757E-01-9.37620E-02-3.26998E-02-5.32260E-02-1.96133E-02
 -1       617-2.82150E-01-1.81269E-01 1.42572E-02 1.13649E-01 8.64282E-02-1.20681E-01
 -1       618-1.85865E-01-9.50659E-02 8.58921E-02 1.35800E-01 1.24562E-01-1.72921E-01
 -1       619-3.48652E-01-2.43424E-01 2.63520E-03 1.06484E-01 1.50534E-02-2.82549E-02
 -1       620-3.06567E-01-1.99143E-01-5.68796E-02 1.60044E-01 7.01720E-03-1.09463E-01
 -1       621-4.98470E-01-2.44696E-01 1.34741E-02 1.86803E-01-1.22054E-01 1.59842E-01
 -1       622-2.91200E-01-1.03878E-01 1.18371E-01 2.01199E-01-7.57236E-02 1.06175E-01
 -1       623-3.95855E-01-3.07643E-01-1.62748E-01 6.06008E-02-1.26360E-01 1.08183E-01
 -1       624-5.97536E-02-1.56632E-01-5.45774E-02-1.37885E-02 1.99044E-02-1.13475E-01
 -1       625-1.33305E-01-1.88430E-01-1.32814E-01-5.07579E-03 2.97176E-02-1.60935E-01
 -1       626-2.40670E-01-8.93266E-02 6.52806E-03 5.44152E-02-8.46311E-02 3.44910E-02
 -1       627-1.68378E-01-1.84912E-01-1.69583E-01 8.87209E-03-3.54295E-02-4.69436E-02
 -1       628-5.95771E-02-1.76228E-01-2.05225E-01-5.91568E-02 1.64733E-02-9.66137E-02
 -1       629-4.44515E-01-1.73660E-01 3.05124E-02 7.16508E-02 4.59140E-02-1.87095E-01
 -1       630-4.06755E-01-9.36165E-02-3.35031E-02 1.02583E-01 3.16454E-02-2.10556E-01
 -1       631-5.40842E-01-2.49677E-01 2.50173E-02 6.58231E-02 1.86536E-02-1.79729E-02
 -1       632-5.44307E-01-1.66835E-01 5.64047E-03 1.26682E-01-3.89387E-02-5.75198E-02
 -1       633-5.30027E-01-1.32321E-01 6.16127E-02 1.60288E-01-8.52719E-02 1.81391E-01
 -1       634-5.82726E-01-1.71555E-01-5.79867E-02 1.69194E-01-8.13482E-02 1.91750E-01
 -1       635-2.73181E-01-1.99691E-01-2.37992E-01 1.87505E-03-1.01381E-01 1.17665E-01
 -1       636-1.15330E-01-1.97877E-01-6.85285E-02 1.69197E-03 1.96458E-02-1.37027E-01
 -1       637-3.10895E-01-2.36962E-01-1.18460E-01-3.79844E-02-1.61404E-02-1.77987E-01
 -1       638-2.65574E-01-1.46956E-01-1.11646E-01 4.16933E-02-5.94680E-02 1.64442E-01
 -1       639-2.22642E-01-1.91862E-01-1.40796E-01-6.43124E-02-3.48146E-04-8.65093E-02
 -1       640-2.27964E-01-2.07373E-01-2.19663E-01-3.53972E-02 8.09151E-03-4.73010E-02
 -1       641-2.02028E-01-1.67873E-01-1.81791E-01-2.53194E-02 4.28050E-01 3.46474E-01
 -1       642-6.98674E-01-6.92244E-01-5.85577E-01-1.12675E-01 4.92765E-01 4.04392E-01
 -1       643 4.66084E-01 3.22245E-01 2.99620E-01-2.22366E-01-1.34005E-01 9.89925E-01
 -1       644-2.91072E-01-2.37976E-01-2.85905E-01-3.38731E-01-1.45392E-01 8.79904E-01
 -1       645 3.55740E-02 5.13698E-02 4.82617E-02-2.53840E-02 2.37135E-01 6.00830E-02
 -1       646 1.16305E-01 1.96198E-01 1.30783E-01-4.56170E-02 2.51054E-01 2.96465E-02
 -1       647 1.67419E-01 3.88616E-01 2.28668E-01 8.40341E-02 4.23706E-01 5.07975E-01
 -1       648-5.64717E-01-1.72181E-01-3.84709E-01-1.37669E-02 4.26689E-01 4.80303E-01
 -1       649-2.54923E-01-4.38547E-01-2.94109E-01-8.86263E-02-2.34101E-01 7.78246E-02
 -1       650-1.89301E-01-2.96543E-01-3.04753E-01-1.21934E-01-1.94934E-01 5.68712E-02
 -1       651-2.50155E-01-4.81326E-01-3.72529E-01 9.25773E-02-3.29628E-01 6.90350E-01
 -1       652-1.82881E+00-1.55342E+00-1.42392E+00 2.29346E-01-4.62822E-01 8.65846E-01
 -1       653 3.12362E-01 4.51246E-01 2.88247E-01 2.19888E-01 2.91060E-01 8.71339E-01
 -1       654-3.55971E-01 5.50887E-02-1.76102E-01 2.75658E-01 2.85602E-01 8.09224E-01
 -1       655 1.11064E+00 8.98818E-01 8.45983E-01 1.20156E-01 4.56022E-01 8.53125E-01
 -1       656-3.21850E-01-2.10430E-01-1.13618E-01-8.60118E-02 3.07017E-01 5.69153E-01
 -1       657 1.38832E-01 2.16223E-02 6.65901E-02 1.52471E-01 3.87802E-01 2.21791E-01
 -1       658-1.18244E-01-4.09706E-01-2.23924E-01 1.94389E-01 3.51311E-01 2.12480E-01
 -1       659 1.97555E-01 1.81279E-01 1.35362E-01-2.31772E-02 9.75254E-02 1.05283E-02
 -1       660 2.10785E-01 1.47284E-01 1.14763E-01-2.19406E-02 8.39580E-02 9.52469E-03
 -1       661 9.54197E-02 1.65909E-01 1.13950E-01-2.96147E-02 2.64721E-01 3.12865E-02
 -1       662-2.03589E-01-2.75662E-01-1.69373E-01-5.31191E-02 2.27970E-01 4.84826E-02
 -1       663 2.82282E-01 3.16841E-01 2.76578E-01-2.13230E-01-7.41739E-02 9.60369E-01
 -1       664-5.82558E-01-2.61158E-01-3.24256E-01-3.00327E-01-6.25174E-02 9.36081E-01
 -1       665-4.04896E-02 6.01540E-01 2.12681E-01 1.41904E-02-4.81014E-01 5.65231E-01
 -1       666-7.76707E-01 2.45663E-01-2.59095E-01 1.25873E-01-4.47618E-01 5.14367E-01
 -1       667-2.69209E-03 2.73618E-02 7.74797E-03 5.32461E-02-4.08227E-01 2.33469E-01
 -1       668 3.12533E-01 4.61461E-01 3.70198E-01 4.52190E-02-3.37343E-01 2.15898E-01
 -1       669 7.70890E-02 8.65989E-02 9.37530E-02-4.65588E-03-1.03663E-01 3.83825E-02
 -1       670 1.55305E-01 2.22050E-01 1.58867E-01 1.49711E-02-1.25943E-01 1.24034E-02
 -1       671-9.56810E-01-1.11871E+00-8.73794E-01 1.51075E-01-5.20545E-01 4.27190E-01
 -1       672 1.38549E-01-7.23103E-02 4.11628E-02-8.21472E-02-3.40990E-01 3.37556E-01
 -1       673 9.62064E-01 7.73480E-01 7.31390E-01 3.69975E-01 9.58057E-02 9.41215E-01
 -1       674 4.19805E-01 4.09561E-01 3.50440E-01 5.21640E-01 9.14161E-02 8.70363E-01
 -1       675-5.14332E-03 2.70566E-02-6.53361E-02 2.59954E-02-9.93438E-02 1.30085E-03
 -1       676 1.20353E-01 8.00840E-02 1.45965E-01 4.61772E-03-8.93311E-02 8.18708E-03
 -1       677-5.82879E-01-4.92191E-01-5.15793E-01 5.13122E-02-2.45021E-01 7.42118E-01
 -1       678-1.82445E+00-1.40100E+00-1.35791E+00 1.41776E-01-2.81499E-01 9.27964E-01
 -1       679 3.70738E-01 5.39016E-01 3.65064E-01 1.18150E-01-2.89270E-01 7.50607E-02
 -1       680 3.36295E-01 4.96753E-01 3.21156E-01 1.82592E-01-2.66509E-01 6.33915E-02
 -1       681 7.04250E-01 9.21110E-01 6.84277E-01-8.19809E-02-4.51174E-01 2.41167E-01
 -1       682 2.81196E-03-5.14113E-02 1.39186E-01 4.33874E-02-2.53084E-01 1.99679E-01
 -1       683 4.95999E-02 8.13210E-02 3.24793E-02 7.65829E-03 1.26224E-01 2.74491E-02
 -1       684 1.59467E-01 2.22389E-01 1.60761E-01-3.53744E-03 1.49039E-01 1.46780E-02
 -1       685-8.44161E-01-9.23406E-01-7.44146E-01-1.34492E-01 4.86736E-01 3.99445E-01
 -1       686-8.00292E-02-3.95465E-02-2.17855E-01 3.69435E-02 3.16766E-01 3.03071E-01
 -1       687 1.93301E-01 1.71625E-01 5.19332E-02 6.35968E-02 3.11641E-01 6.81501E-01
 -1       688-4.83588E-01-2.81394E-01-2.59295E-01-4.00336E-02 3.45419E-01 6.94400E-01
 -1       689-5.34318E-01-5.62650E-01-7.44125E-01-8.98501E-03 6.65166E-02 7.19550E-01
 -1       690-1.83994E+00-1.34117E+00-1.33925E+00-3.43986E-02 9.74441E-02 9.89436E-01
 -1       691-1.17989E+00-1.01913E+00-9.25787E-01 1.55227E-01-4.02800E-01 7.53557E-01
 -1       692 3.79586E-01 3.34951E-01 4.22833E-01-1.58077E-02-3.59649E-01 4.50363E-01
 -1       693 3.04703E-01 2.49316E-01 3.66903E-01 4.80362E-03-3.29923E-01 3.18685E-01
 -1       694-1.08066E-01-7.12609E-02-1.87019E-01 7.90648E-03 2.70018E-01 1.69100E-01
 -1       695 1.72359E-01-3.69016E-02 1.73845E-02 5.33177E-02 4.92780E-01 5.42058E-01
 -1       696 1.71935E+00 1.37807E+00 1.30401E+00 1.85058E-01 3.05013E-01 1.00548E+00
 -1       697 3.64011E-01 2.45866E-01 1.04472E-01-6.34693E-02-1.98028E-01 7.93489E-01
 -1       698-1.40527E-01-7.09724E-02-1.85786E-01-4.31298E-02 4.63397E-01 5.29422E-01
 -1       699-5.06374E-01-2.37943E-01-1.78134E-01 3.82139E-02-2.43512E-01 7.31723E-01
 -1       700 8.04264E-02 5.94846E-02 5.03902E-02 8.76340E-03 1.73970E-01 7.84922E-01
 -1       701 1.70176E-01 1.22526E-01-2.99851E-02-6.64834E-02-2.61765E-01 5.76375E-01
 -1       702 1.47560E+00 1.43818E+00 1.22670E+00-2.30978E-01-5.29899E-01 6.45698E-01
 -1       703 1.03368E+00 1.12121E+00 9.07208E-01-1.64866E-01-5.23009E-01 4.29212E-01
 -1       704-5.25061E-01-6.93995E-01-5.13223E-01-5.93879E-02 4.06247E-01 2.17152E-01
 -1       705-1.07501E+00-3.66237E-01-1.36985E-02-2.10476E-02-1.75520E-02-1.93212E-01
 -1       706-2.57127E-01 8.10803E-03 1.54616E-02-3.01923E-02-1.54025E-02-1.49067E-01
 -1       707-1.03601E+00-2.37802E-01-7.07133E-02-3.65806E-02-2.41873E-02-1.76611E-01
 -1       708-7.56485E-01-2.89728E-01 2.79269E-02-2.84095E-03 1.06396E-02-9.13291E-02
 -1       709-1.46914E+00-4.13170E-01 4.38205E-03-5.62679E-03-1.54363E-02 2.44033E-01
 -1       710-5.12838E-01-1.46229E-01-4.09828E-02 4.07213E-03 6.61376E-03 3.46325E-01
 -1       711-3.46765E-01-2.68892E-01-1.19584E-01 3.30170E-02 2.98684E-02 4.37432E-02
 -1       712-4.36118E-01-3.96403E-01-2.05541E-01 4.30996E-02 7.28741E-03-6.16603E-02
 -1       713-2.76981E-01-3.18002E-02 2.92535E-03-6.41801E-02-2.76313E-02-1.26025E-01
 -1       714-9.95178E-01-4.19504E-01-4.53286E-02-1.84940E-01-8.27633E-02-1.61510E-01
 -1       715-1.89192E-01-1.36817E-02-3.61998E-02-4.36407E-02-1.91924E-02-1.00337E-01
 -1       716-3.79738E-01-3.36970E-01-1.75680E-01-2.53646E-02-2.63019E-02-1.40010E-01
 -1       717-4.61681E-01-2.82421E-01-1.23973E-01-2.29068E-02 2.73334E-02 9.55116E-03
 -1       718-3.53065E-01-2.82630E-01-9.90736E-02-2.32733E-02 2.46438E-02-6.71164E-02
 -1       719-6.77825E-01-3.63492E-01 2.05093E-02-2.76542E-01-5.06681E-02-8.15962E-02
 -1       720-1.97457E-01-5.70128E-02-2.15542E-02-1.04871E-01-5.09726E-02-9.96476E-02
 -1       721-1.66978E-01-1.23782E-01-1.16006E-01-6.69916E-02 1.24773E-01 1.06377E-01
 -1       722-8.25464E-02-9.75871E-02-7.06256E-03-1.01132E-01-4.73558E-02-3.37997E-02
 -1       723-2.91260E-01-2.61890E-01-5.72170E-02-1.74432E-01-4.86608E-02-3.02145E-02
 -1       724-1.63081E-01-1.80640E-01-1.08042E-02-1.37318E-01 2.84172E-02 7.81734E-02
 -1       725 2.15362E-02 1.02473E-02 3.23123E-02-5.53572E-02 1.63295E-02-3.36651E-02
 -1       726 6.34546E-02-8.66745E-03 8.41573E-02-1.95086E-01 5.14874E-02-8.15424E-02
 -1       727-9.90591E-03 1.32887E-02 5.45161E-03-8.04923E-02-4.52143E-03-2.92200E-02
 -1       728 3.67227E-02 9.04494E-03-1.27156E-02-1.31284E-01 2.54016E-02 4.12133E-03
 -1       729 2.18838E-01 1.97304E-01-1.73820E-02-1.71066E-01-2.67979E-03 1.15530E-02
 -1       730 2.97782E-01 2.20546E-01 5.18952E-02-1.58307E-01 2.71807E-02-6.59692E-03
 -1       731 1.43740E-01 1.09895E-01 7.77770E-02-3.11331E-02-2.48956E-02-9.41604E-03
 -1       732 1.28121E-01 7.64815E-02-2.18241E-02-2.45900E-02-5.79107E-02-7.47196E-02
 -1       733 1.01369E-01 6.06507E-02 2.40736E-02-8.56314E-02 5.19683E-02-6.66953E-02
 -1       734 6.08566E-01 3.84910E-01 1.02026E-02-2.46476E-01 8.28949E-02-1.42905E-01
 -1       735 1.60646E-01 9.76232E-02 7.83740E-04-1.13520E-01 5.89429E-02-7.83076E-02
 -1       736 2.91010E-01 2.14920E-01 1.50974E-01-9.57934E-03 3.81356E-03-1.30191E-01
 -1       737 1.81976E-01-3.43480E-02-2.60230E-02-7.44376E-02 6.49080E-02-1.69030E-01
 -1       738 9.62949E-01 4.09325E-01 2.99921E-02-1.36860E-01 4.03604E-02-1.90255E-01
 -1       739 3.19825E-01 5.51539E-02-8.67574E-03-1.04347E-01 2.44832E-02-1.31255E-01
 -1       740 2.75992E-01 2.57565E-01 9.65369E-02 2.78078E-02-1.84402E-02-1.47356E-01
 -1       741 4.54714E-01 3.99650E-01 2.21379E-01-7.30429E-03-4.90090E-03 4.11324E-02
 -1       742 3.40372E-01 3.31834E-01 2.48747E-01-2.65711E-02-8.08034E-03-4.40646E-02
 -1       743 3.02769E-01-6.37360E-03-1.23562E-02-1.41032E-02 1.17949E-02-1.21068E-01
 -1       744 1.14371E+00 4.11111E-01-2.14702E-03-2.61810E-02 3.34465E-03-1.83724E-01
 -1       745 3.28822E-01 3.14841E-02 7.72811E-03-1.14071E-02 4.12232E-03-1.46446E-01
 -1       746 2.61255E-01 3.06783E-01 1.46699E-01 2.23577E-02-3.22559E-03-1.27504E-01
 -1       747 5.16786E-01 3.06468E-01 1.14985E-01-4.43991E-02-9.01790E-03 1.30360E-02
 -1       748 4.06896E-01 2.98026E-01 2.01281E-01-3.48923E-03 2.65443E-03-3.98040E-02
 -1       749 2.33609E-01-1.61743E-02 2.25233E-02 6.24593E-02-3.97626E-02-1.22471E-01
 -1       750 1.05836E+00 4.48734E-01 9.87038E-02 1.65910E-01-8.29140E-02-1.56409E-01
 -1       751 6.69354E-01 1.10265E-01 7.71892E-02 1.19760E-01-9.96962E-02 1.03622E-02
 -1       752 6.12107E-01 2.82134E-01-2.05201E-01 1.23468E-01 2.19847E-02 5.92038E-02
 -1       753 5.37075E-01 2.00516E-01 4.18548E-02 1.28008E-01 1.14959E-01 2.82877E-01
 -1       754 4.34541E-01 3.45276E-01 1.17635E-01-5.51453E-03-3.09025E-02-1.56047E-01
 -1       755 4.11249E-01 2.33777E-01 9.88019E-02 5.36384E-03 3.21723E-02 3.89652E-02
 -1       756 2.52402E-01 2.14533E-01 1.38895E-01 1.54806E-02 3.51990E-02-5.01034E-02
 -1       757 1.78673E-01 7.63824E-02 2.28135E-02 1.05061E-01-5.92217E-02-1.08955E-01
 -1       758 7.10029E-01 4.09312E-01 2.08175E-02 2.88608E-01-1.16319E-01-1.30715E-01
 -1       759 5.73990E-01 3.61950E-01 5.03029E-02 1.70829E-01-1.91128E-02-1.90907E-02
 -1       760 5.39489E-01 3.33570E-01-5.02262E-02 1.95641E-01 3.51616E-02 3.87893E-02
 -1       761 3.08201E-01 1.06710E-01 7.02439E-02 1.35912E-02 1.03645E-01 1.92958E-01
 -1       762 4.23497E-01 2.39892E-01-6.44301E-02 1.08500E-01 1.22610E-02-5.39468E-02
 -1       763 2.56284E-01 1.78474E-01 1.03626E-01 5.20166E-03 1.96707E-02-1.14147E-01
 -1       764 7.04283E-02 7.23922E-02-6.81847E-03 9.29015E-02-4.69935E-02-3.36110E-02
 -1       765 2.89564E-01 2.28695E-01-2.95642E-02 2.30153E-01-3.47897E-02-6.76544E-02
 -1       766 1.91116E-01 1.55704E-01-2.24402E-02 1.31259E-01-9.01358E-02-4.62164E-02
 -1       767 1.60505E-01 1.13569E-01 4.25019E-02 8.09672E-03 4.49384E-02-1.38246E-01
 -1       768 1.49511E-01 1.05765E-01 4.21424E-02 4.63515E-02-4.99815E-03-1.29376E-01
 -1       769-1.00412E-02-2.53251E-02-1.13225E-02 8.92142E-02-3.48037E-02-4.77231E-02
 -1       770-2.06754E-02-1.18533E-02-2.96893E-03 1.76454E-01 6.53777E-03-3.41770E-02
 -1       771-8.08021E-02-1.62643E-02-7.26675E-03 2.10577E-01-6.83796E-02 4.14148E-02
 -1       772-3.35049E-02 2.65106E-03-1.87569E-02 1.73149E-01-4.29661E-02 6.14580E-02
 -1       773 1.40489E-02 3.97280E-02-1.05512E-02 3.85211E-02-4.17441E-02-3.22239E-02
 -1       774-5.91495E-02 1.89230E-03 1.38755E-02 7.53770E-02-3.58065E-02-9.91632E-02
 -1       775-5.61797E-02-6.43962E-02-2.25803E-03 8.30721E-02 4.79719E-02-3.93604E-02
 -1       776-3.24185E-01-2.40070E-01-2.16146E-02 1.80368E-01 8.35516E-02-1.04404E-01
 -1       777-1.39622E-01-1.68357E-01 1.56077E-02 6.88850E-02 8.82373E-02-6.61413E-02
 -1       778-2.50492E-01-2.19870E-01-2.31700E-02 1.64162E-01 3.85723E-02-9.84189E-03
 -1       779-1.16872E-01-1.23835E-01-2.96839E-02-7.78809E-04 3.66882E-02-1.27789E-01
 -1       780-1.64698E-01-4.16108E-02 2.17512E-02 1.03855E-01 2.86920E-02-6.29911E-02
 -1       781-6.39727E-01-3.91767E-01 1.00433E-02 2.53659E-01 4.16769E-02-8.05039E-02
 -1       782-4.86530E-01-3.48960E-01 4.60252E-02 1.74238E-01 4.56896E-02-1.94876E-02
 -1       783-9.35661E-01-5.41090E-01-5.52049E-03 3.88480E-01-1.26366E-01 8.48175E-02
 -1       784-4.51642E-01-2.36218E-01-5.44416E-02 1.76895E-01-1.48070E-01 1.78818E-01
 -1       785-2.20636E-01-1.99636E-01-1.10151E-01 1.76979E-02 5.38188E-03-1.05201E-01
 -1       786-4.20858E-01-9.43735E-02-4.51183E-02 9.44298E-02 3.32061E-02-1.29145E-01
 -1       787-9.09199E-01-3.84317E-01-1.44899E-02 1.32590E-01 4.68305E-02-2.13605E-01
 -1       788-7.11493E-01-2.71970E-01 7.72796E-02 9.88404E-02 3.55769E-02-6.55286E-02
 -1       789-1.25778E+00-5.12316E-01-1.06242E-01 2.94684E-01-9.92769E-02 2.17831E-01
 -1       790-4.68339E-01-1.13188E-01 7.42327E-02 1.17880E-01-9.28102E-02 2.91281E-01
 -1       791-3.35860E-01-2.63766E-01-1.29961E-01-2.15401E-03 3.89163E-03-1.49026E-01
 -1       792-3.39350E-01-3.63508E-01-2.40261E-01 3.87000E-02 2.27405E-02 4.70695E-02
 -1       793-4.33352E-01-2.93552E-01-1.28727E-01 4.60661E-02 4.27634E-02-6.50926E-02
 -1       794 5.01777E-01 7.08383E-01 4.46194E-01 8.60119E-02 4.19752E-01 3.52857E-01
 -1       795 8.69504E-02 4.17584E-02 1.15901E-01 8.70650E-03 2.25990E-01 5.56023E-02
 -1       796 1.30902E+00 1.24266E+00 1.07425E+00 2.09974E-01 5.00107E-01 6.28482E-01
 -1       797-6.65841E-02-1.51895E-01-1.02920E-01 3.20139E-02-1.85016E-01 4.21073E-02
 -1       798 8.00300E-02-2.39934E-02 2.91584E-02-1.30632E-01 2.73767E-01 8.30017E-01
 -1       799 1.32736E+00 1.07190E+00 1.01009E+00 1.80323E-01 4.47439E-01 7.41951E-01
 -1       800 3.76517E-01 2.70318E-01 3.02668E-01-1.05425E-02 4.44230E-01 7.62806E-01
 -1       801 1.52622E-01 1.09094E-01 3.05723E-01-2.25009E-02 3.33868E-01 6.00766E-01
 -1       802 1.85284E-01 3.22042E-01 1.98238E-01-2.92083E-02 2.99402E-01 1.41001E-01
 -1       803-1.46654E-01-1.28228E-01-1.18033E-01-3.14502E-02 3.18275E-01 2.01701E-01
 -1       804-5.29439E-02 9.90659E-03-3.89187E-02-5.37716E-02 3.04370E-01 1.53703E-01
 -1       805 6.08490E-02 1.08891E-01 4.09078E-03-2.52349E-02 1.63406E-01 4.72017E-02
 -1       806 4.46752E-01 6.11023E-01 4.45323E-01 2.74878E-02 3.47453E-01 1.05400E-01
 -1       807 1.54325E-01 1.46071E-01 1.87855E-01-2.12239E-02 1.57869E-01 4.06113E-02
 -1       808 1.99106E+00 1.45194E+00 1.44950E+00-3.90373E-02-1.04907E-01 1.06522E+00
 -1       809 4.88725E-01 1.79543E-01 3.28375E-01-3.50717E-02-4.50090E-01 5.40190E-01
 -1       810-1.22968E+00-1.30696E+00-1.06792E+00 1.78973E-01-5.23179E-01 6.18798E-01
 -1       811-6.67800E-02-3.81973E-01-2.10532E-01-9.75848E-02-3.23096E-01 2.40344E-01
 -1       812 4.68533E-02-3.96827E-02 3.17047E-02-5.22040E-02-2.85819E-01 1.32238E-01
 -1       813 5.47363E-01 3.78380E-01 3.63713E-01-2.08306E-01-3.87405E-01 2.51191E-01
 -1       814 2.19024E-02 1.67195E-02 5.13530E-02-1.85249E-02-1.17077E-01 1.40701E-02
 -1       815-2.92257E-03-1.16635E-02 1.26631E-02-1.67592E-02-2.32446E-02 2.53955E-02
 -1       816 1.71384E-01 2.68017E-01 1.84988E-01 1.32435E-02-1.51782E-01-3.86531E-03
 -1       817-1.14755E-01-5.23387E-02-7.14168E-02 5.23392E-02-4.72326E-01 3.13186E-01
 -1       818-1.83126E-01-3.12351E-01-2.06816E-01-9.91280E-04-3.64176E-01 2.74543E-01
 -1       819 1.50716E-01 2.35752E-01 1.63267E-01-3.23241E-02-4.24641E-01 3.42674E-01
 -1       820 6.50567E-02 5.64835E-02 5.29118E-02 2.50207E-02 8.94069E-02 8.10227E-01
 -1       821 2.48591E-01 8.50125E-02-8.37529E-02-2.78513E-02 1.11206E-01 7.61051E-01
 -1       822-1.26188E+00-9.12656E-01-9.15478E-01-2.72834E-03 1.02008E-01 1.03578E+00
 -1       823-1.06701E-01-9.28442E-02-1.23251E-01 2.72383E-02-3.67375E-02 1.78321E-02
 -1       824 8.72481E-02 1.92587E-01 4.58412E-02-2.49270E-02-2.42968E-01 5.11379E-02
 -1       825 7.06900E-02 1.13796E-01 5.22693E-02-2.71297E-02-2.06225E-01 2.89092E-02
 -1       826-2.02135E-01-2.56145E-01-2.11981E-01 3.90322E-04-2.96951E-01 8.18142E-02
 -1       827 1.68388E-01 3.52007E-01 1.29944E-01-1.47748E-02-2.53318E-01 1.69001E-01
 -1       828 1.19175E-01 9.79173E-02 2.56352E-01 1.64334E-02-3.19411E-01 1.94540E-01
 -1       829 2.12646E-02-2.53939E-02-1.09185E-02 1.43236E-02 5.18637E-02-9.35619E-03
 -1       830-1.57174E-01-1.95998E-01-1.67661E-01 3.71067E-02 1.51714E-01 7.24273E-03
 -1       831 3.85662E-02 1.80240E-02 2.08970E-02-2.14293E-02 7.39987E-02-2.06360E-02
 -1       832-1.00352E+00-1.12105E+00-8.94442E-01-1.49349E-01 5.55335E-01 4.60077E-01
 -1       833-7.03760E-02-2.19904E-01-5.54811E-01 8.42696E-03 8.61623E-02 6.30339E-01
 -1       834-8.38555E-02-1.80011E-01-1.89167E-01 6.18302E-02-3.48736E-01 6.55993E-01
 -1       835-4.08531E-01-2.27000E-01-3.07830E-01 4.89435E-02-4.18158E-01 5.24906E-01
 -1       836-1.27410E-01-2.86982E-01-6.04004E-03 9.07776E-02-3.69240E-01 3.37333E-01
 -1       837 1.77535E-01 1.91555E-01 2.92868E-01-7.23151E-03-3.24821E-01 3.17346E-01
 -1       838 1.91776E-01 1.69781E-01 1.76672E-01 8.63068E-02 3.18279E-01 1.89559E-01
 -1       839-1.55392E-01-1.63551E-01-2.94734E-01 3.96677E-02 2.55043E-01 1.62020E-01
 -1       840 2.22503E-01 4.32741E-01 1.46683E-01 5.20437E-02 3.90079E-01 5.04546E-01
 -1       841 2.98305E-01 6.33594E-01 4.13610E-01 1.79681E-01 4.40812E-01 5.25332E-01
 -1       842 1.92852E-01-7.20674E-02-9.64593E-02-5.22794E-02 1.76265E-01 8.30919E-01
 -1       843 1.87848E-03-1.22694E-01-3.00350E-01-2.26476E-02-1.92368E-01 7.23915E-01
 -1       844-4.74769E-01-2.24468E-01-3.23959E-01 3.14809E-02 5.31190E-01 6.14827E-01
 -1       845 1.70740E-01 1.84550E-01 2.67649E-01 2.10954E-03-2.24380E-01 7.42733E-01
 -1       846-4.55253E-01-1.26407E-01-5.53886E-02-2.63579E-02 1.92880E-01 7.17641E-01
 -1       847-1.01339E-01-1.92703E-01-3.55869E-01-4.31891E-02-3.24049E-01 5.67958E-01
 -1       848 6.48552E-01 4.39249E-01 3.98129E-01-1.08760E-01-4.19625E-01 5.61064E-01
 -1       849 1.29475E-01 1.21060E-01-6.34527E-02-7.04899E-02-4.58172E-01 3.28392E-01
 -1       850-1.49935E-01-2.37574E-01-1.35946E-01 1.08920E-02 2.66510E-01 1.80402E-01
 -1       851-3.65390E-01-1.42884E-02-1.65130E-03-3.53948E-02-6.59272E-04-1.27247E-01
 -1       852-8.23318E-01-3.00761E-01 3.45259E-02 2.46065E-02 6.35588E-02 4.19091E-02
 -1       853-9.50032E-01-3.37568E-01 3.28551E-02-2.63118E-02-6.94907E-03 1.44367E-02
 -1       854-7.62256E-01-2.02815E-01-2.88428E-02 1.91325E-02-5.21783E-02-6.04227E-02
 -1       855-3.90900E-01-8.31596E-03-7.98424E-02 1.34518E-03-1.02010E-04 2.94331E-01
 -1       856-1.36829E+00-2.78673E-01-4.55268E-02 2.06429E-03-3.40500E-02 1.96607E-01
 -1       857-4.12681E-01-3.15564E-01-1.58317E-01-1.23292E-02 4.13899E-03-1.57948E-01
 -1       858-4.19883E-01-2.85257E-01-2.20420E-01 8.91805E-03-1.06094E-02 1.64081E-01
 -1       859-3.96065E-01-1.91921E-01-3.53434E-02 3.51227E-02-8.93887E-04 2.21067E-01
 -1       860-5.20988E-01-6.19301E-01-1.75027E-01 5.36701E-02 2.66587E-02-1.33833E-01
 -1       861-1.11492E-01-1.64542E-01-9.05004E-02-2.06175E-02-1.15865E-02-9.89010E-02
 -1       862-4.18274E-01-3.72145E-01-1.31676E-01-7.18696E-03-1.70499E-02-1.33591E-01
 -1       863-4.78869E-01-2.56520E-01-2.11509E-01 1.12922E-02 3.56240E-02 2.82209E-01
 -1       864-5.78833E-01-2.33710E-01-1.16492E-01-2.75118E-03-2.47086E-03 1.61431E-01
 -1       865-3.50159E-01-2.57724E-01-1.78911E-01-8.06648E-02-9.69241E-03 3.35538E-02
 -1       866-5.25498E-01-3.55441E-01-1.16190E-01-2.90248E-03 2.35928E-03-1.33913E-02
 -1       867-1.11243E+00-4.08714E-01 1.11603E-01-2.73857E-01 1.10879E-01 1.81312E-01
 -1       868-5.16016E-01-1.34386E-01-1.12939E-02-1.21459E-01 1.08535E-01 2.47879E-01
 -1       869-1.06721E+00-2.83046E-01 1.33449E-01-3.39050E-01 8.46411E-02 2.00896E-01
 -1       870-3.40540E-01-2.08099E-02 1.13725E-02-9.51071E-02 8.50920E-02 2.14038E-01
 -1       871-5.89371E-01-2.63370E-01 1.41547E-01-1.39606E-01 2.71015E-03 4.23236E-02
 -1       872-6.18374E-01-3.17506E-01 3.62684E-02-6.76196E-02-1.06192E-02 4.61950E-03
 -1       873-6.80947E-01-2.75949E-01-7.11733E-02-1.34536E-01 4.40291E-02-7.64013E-02
 -1       874-7.94825E-01-2.87085E-01-4.56594E-02-1.71009E-01 2.66438E-02-1.99444E-02
 -1       875-8.09289E-01-1.91061E-01 1.95127E-02-2.13901E-01-2.02170E-02-1.55854E-01
 -1       876-4.41935E-01-2.83853E-01-1.50354E-01-4.82894E-02 8.23734E-02 1.10381E-01
 -1       877-3.65064E-01-1.97132E-01-1.45135E-01-2.44285E-02 8.93269E-02 2.05685E-01
 -1       878-4.49371E-01-3.52261E-01-1.02651E-01-9.00003E-04 2.67452E-02-1.94969E-01
 -1       879-2.39266E-01-1.62629E-01-8.88401E-02 9.25841E-03 2.67711E-03-1.41595E-01
 -1       880-3.58722E-01-4.17544E-01-3.90069E-02 1.07565E-02 3.68406E-03-1.46097E-01
 -1       881-3.85599E-01-1.90392E-01-9.23363E-02-4.13672E-02 9.92061E-02 2.00927E-01
 -1       882-3.07654E-01-1.65968E-01-8.09312E-02-7.92928E-02 8.62121E-02 1.01288E-01
 -1       883-1.09598E-01-1.70834E-01-1.00263E-01-1.97535E-02 2.28062E-02 5.17803E-02
 -1       884-3.98790E-01-3.88216E-01-1.18170E-01 8.80947E-03-3.73612E-02-3.26411E-02
 -1       885-2.47787E-01-9.54315E-02-8.99503E-03-1.31011E-01-5.65741E-02-8.61099E-02
 -1       886-3.15414E-01-3.04407E-01-3.67716E-02-1.51002E-01 8.34255E-03 1.29594E-01
 -1       887-1.78721E-01-7.92197E-02-2.51334E-02-9.42579E-02 9.99762E-02 1.62685E-01
 -1       888-7.80514E-01-4.37602E-01 6.41852E-03-3.19751E-01 1.00483E-01 1.23225E-01
 -1       889-6.20826E-01-3.50239E-01 3.23258E-02-3.77171E-01 6.14520E-02 5.75146E-02
 -1       890-2.29390E-01-8.97494E-02-1.18127E-02-1.30086E-01 1.04980E-01 1.49671E-01
 -1       891-4.93906E-01-2.67190E-01 6.43119E-02-1.67557E-01 1.11803E-02 6.96975E-03
 -1       892-4.67620E-01-2.68581E-01-4.60467E-03-2.10890E-01-3.62918E-03-8.60462E-02
 -1       893-4.37033E-01-2.37906E-01 3.70504E-03-1.52136E-01 1.63172E-02-3.66184E-02
 -1       894-5.94713E-01-2.86946E-01-2.60095E-02-3.04123E-01-9.32363E-02-1.32564E-01
 -1       895-2.91807E-01-1.74846E-01-4.83100E-02-7.90446E-02 8.88515E-02 5.74924E-02
 -1       896-2.85083E-02-1.71621E-02 3.38616E-02-5.26280E-02 1.33436E-01 6.05634E-02
 -1       897-3.27529E-01-2.27063E-01-1.63209E-01-5.25772E-02-1.55794E-02-2.24874E-01
 -1       898-2.87011E-01-1.81006E-01-9.02901E-02-6.38896E-02-4.28830E-02-1.23081E-01
 -1       899-1.73209E-01-1.79193E-01-1.54870E-01 5.32318E-02 2.16982E-02-1.06135E-01
 -1       900-3.18191E-01-2.43829E-01 8.80344E-02 2.35905E-02 2.37999E-03-1.23110E-01
 -1       901-4.12261E-01-2.85163E-01-1.98802E-01-4.16878E-02 7.66582E-02 5.21683E-02
 -1       902-2.01515E-01-1.19427E-01-5.56614E-02-2.98330E-02-2.46345E-03-6.65696E-02
 -1       903-2.13819E-01-9.12502E-02 5.49294E-02-3.11299E-02 1.01199E-02-5.16622E-02
 -1       904-1.54558E-01-1.98004E-01-6.80217E-02-3.18578E-03 2.90465E-02 6.87952E-02
 -1       905-3.80734E-02-5.96547E-02 2.28329E-02 3.22062E-02 3.77914E-02-2.60129E-02
 -1       906-2.61385E-01-2.10069E-01 1.42112E-02-2.06107E-01-1.20475E-02-8.30235E-02
 -1       907-6.97812E-02-8.84040E-02 1.94830E-02-1.05630E-01-3.69211E-02-2.71869E-02
 -1       908-5.86271E-02-1.20936E-01-4.48149E-02-9.77677E-02-1.17551E-01-1.38934E-01
 -1       909-2.34740E-01-1.52510E-01 3.28779E-02-1.61245E-01-7.68676E-02-8.45495E-03
 -1       910-2.11345E-01-1.13847E-01-9.61612E-03-1.17836E-01 1.13976E-01 1.23675E-01
 -1       911-4.02083E-01-2.63900E-01-3.30149E-02-2.46058E-01 6.77880E-02 6.89475E-02
 -1       912-4.62792E-01-3.47394E-01-5.41666E-02-2.91357E-01 8.38045E-02-2.18471E-02
 -1       913-1.77788E-01-7.04205E-02 6.14359E-02-1.23919E-01 8.59120E-02 3.82573E-02
 -1       914-2.19684E-01-2.28643E-01-6.42095E-02-2.54469E-01-1.26978E-01-6.93355E-02
 -1       915-2.44013E-01-1.77194E-01-1.00487E-01-1.11533E-01 4.65318E-02-4.05587E-02
 -1       916-8.83484E-02-6.08092E-02 1.24762E-02-6.56001E-02 6.53652E-02 1.87452E-02
 -1       917-1.88300E-01-1.29050E-01-1.30624E-01-7.88586E-02-4.23795E-02-2.15429E-01
 -1       918-1.43917E-01-1.14284E-01 1.34917E-02-7.34743E-02-4.40939E-02-1.04985E-01
 -1       919-2.08352E-01-1.78353E-01-1.01115E-01-6.77206E-03 4.15097E-02-1.25331E-01
 -1       920-2.24087E-01-6.95611E-02 6.47903E-02-4.95803E-02 5.74790E-02-1.91591E-01
 -1       921-3.44471E-01-2.25710E-01-1.44033E-01-1.04679E-01 1.20036E-01 1.18060E-01
 -1       922-2.57444E-01-1.66635E-01-5.05878E-02-9.73050E-02 6.68679E-02 4.65427E-02
 -1       923-1.33204E-01-9.28980E-02-6.13542E-02-5.91755E-02-4.39298E-02-1.94224E-01
 -1       924-9.63800E-02-5.85396E-02 1.09270E-02-6.32939E-02-8.50276E-03-4.44514E-02
 -1       925-9.20323E-02-9.54928E-02-3.70850E-02-1.99111E-02 4.17483E-02-2.61798E-03
 -1       926-1.23766E-01-1.06885E-01-2.74505E-02-1.77970E-02 1.27107E-02-7.31705E-02
 -1       927 1.50041E-02 1.80421E-02-3.29089E-02-1.01462E-01-7.58467E-02-1.94025E-02
 -1       928-1.36343E-02 1.98713E-02 6.25598E-02-1.23858E-01-1.09471E-01 2.25046E-02
 -1       929 1.31504E-02-2.92153E-02-3.60896E-03-1.12106E-01 3.67482E-02 4.71782E-02
 -1       930-7.95133E-03 1.55002E-02 3.39962E-02-2.17681E-01 1.77043E-02-7.94751E-03
 -1       931 7.85463E-03-5.43587E-02 1.62533E-02-1.81605E-01-6.08971E-02 4.47396E-02
 -1       932-6.65970E-03-8.77884E-03 4.39365E-02-7.62227E-02-3.57770E-02 2.49427E-02
 -1       933-3.96034E-02-4.79575E-02-1.83916E-02-1.40762E-01-7.28438E-02-6.52567E-02
 -1       934-7.94938E-02-3.31224E-02-1.26428E-02-1.01729E-01 5.97913E-02 1.96961E-02
 -1       935 4.43251E-02 2.65565E-02 8.49214E-03-4.58435E-02 1.26632E-02-1.16506E-02
 -1       936 6.87802E-03-8.43248E-03 3.63108E-02-4.82419E-02-7.30018E-02-3.78922E-02
 -1       937 2.03783E-02 3.04930E-03 1.30085E-02-5.13471E-02-5.36790E-02-1.93866E-02
 -1       938 1.75689E-02-3.94007E-02-5.53918E-02-9.99557E-02-1.23864E-02-2.18425E-01
 -1       939 7.45303E-02 1.15602E-02 1.82773E-02-9.49468E-02-4.64492E-02-1.06509E-01
 -1       940-6.24343E-02-5.31639E-02-9.68690E-03-7.53624E-02 2.22287E-02-1.19638E-01
 -1       941-3.35904E-02-1.56822E-02 4.34886E-02-5.83807E-02 2.84433E-02-1.90520E-01
 -1       942-6.97896E-02-1.85422E-02 5.01995E-03-7.13878E-02 9.73939E-04-5.75743E-02
 -1       943 3.78940E-01 2.82671E-01 3.08505E-02-2.39683E-01-7.34534E-02 1.03042E-01
 -1       944 2.44333E-01 1.93854E-01-3.53192E-02-2.45999E-01 8.71513E-02-2.06101E-02
 -1       945 3.06230E-02-2.20054E-02-6.42665E-02-5.87036E-02-3.30420E-02-1.32215E-01
 -1       946 1.42708E-01 9.47613E-02 1.24467E-01-7.79208E-02-2.50331E-02-2.53939E-02
 -1       947-8.06659E-02-6.28426E-02-6.65848E-02-7.61921E-02 2.34485E-02-3.45915E-03
 -1       948 4.06675E-02 8.03075E-02 3.67929E-02-4.77445E-02 1.08453E-02-9.23030E-02
 -1       949 7.38238E-02 1.03227E-01 2.51698E-02-1.10092E-01 4.86499E-02-3.66081E-02
 -1       950 2.54588E-01 1.95340E-01 1.16977E-02-1.74347E-01 5.42455E-02-3.79298E-02
 -1       951 9.12255E-02 5.01510E-02-5.06568E-02-1.39359E-01 1.02454E-01-8.00929E-02
 -1       952 4.69764E-02 4.40860E-02-1.34408E-02-6.61558E-02 2.01156E-02-5.56266E-02
 -1       953 1.91895E-01 2.39799E-01 1.53990E-02-2.44993E-01-3.18700E-02-3.57100E-02
 -1       954 1.57273E-01 1.40817E-01 2.93313E-02-1.77901E-01-9.58834E-02 6.75955E-02
 -1       955 4.00534E-01 3.15292E-01 2.82242E-03-2.79273E-01-7.05927E-02 3.72850E-03
 -1       956 7.77514E-02 1.01780E-01 4.97525E-02-1.39382E-01-1.19566E-01 1.13824E-01
 -1       957 1.00374E-01 1.45807E-01 8.09457E-02-5.63556E-02-8.44550E-02-2.55349E-03
 -1       958 6.79405E-02 5.48676E-02 4.30217E-02-9.35832E-02-8.96276E-02 8.65852E-02
 -1       959 2.80185E-01 1.37541E-01 4.80123E-02-2.12457E-02-4.65731E-02-1.71565E-01
 -1       960 1.63811E-01 1.53198E-01 6.87976E-02-5.57576E-02-1.88213E-02-1.06265E-01
 -1       961 1.22237E-01 6.57571E-02 2.45600E-02-5.70482E-02 5.96036E-02-1.20367E-01
 -1       962 1.56996E-01 1.38069E-01 1.15290E-01-5.90386E-02 5.48930E-02-2.23837E-01
 -1       963 1.65061E-02 6.43364E-02 5.00922E-02-4.58706E-02-3.17509E-02 1.17827E-02
 -1       964 2.54236E-01 2.12573E-01 9.54741E-02-9.83670E-02-7.53772E-02-2.30567E-02
 -1       965 4.48853E-02 4.59104E-02-2.92104E-02-5.82580E-02 2.15758E-02-5.59115E-02
 -1       966 1.81638E-01 1.03054E-01 2.08926E-02-1.04582E-01 2.74246E-02-1.68640E-01
 -1       967 3.71863E-01 2.24362E-01-1.14769E-01-1.46255E-01 3.08899E-02 1.62678E-02
 -1       968 3.62731E-01 1.79869E-01-1.22565E-02-1.12386E-01-9.96907E-02 1.88590E-01
 -1       969 4.89973E-01 2.76876E-01-2.78066E-02-1.88991E-01-8.30707E-02 7.69042E-02
 -1       970 5.30594E-01 2.74752E-01 6.70646E-02-2.87266E-01-9.70407E-02 1.48893E-01
 -1       971 3.10255E-01 1.18507E-01 6.66929E-02-1.85072E-01-1.32864E-01 1.90479E-01
 -1       972 4.12255E-01 2.72393E-01-1.12918E-01-1.82781E-01 8.17135E-02-9.63615E-02
 -1       973 4.68567E-01 2.94310E-01-9.83784E-03-2.21158E-01 6.04783E-02-1.14269E-02
 -1       974 4.05260E-01 2.76682E-01 3.63048E-02-1.65982E-01-3.25296E-02 1.10448E-01
 -1       975 5.03875E-01 3.35489E-01-4.12417E-03-2.91388E-01 3.92617E-02-5.50931E-02
 -1       976 4.16932E-01 2.65506E-01 2.43937E-01-1.00275E-01-1.09640E-01 6.12241E-02
 -1       977 2.89753E-01 1.75593E-01 1.43243E-01-3.00615E-02-1.54468E-01 1.45677E-01
 -1       978 3.61228E-01 2.76845E-01 5.17323E-02 5.86381E-03-3.88576E-03-1.39944E-01
 -1       979 2.43813E-01 2.05685E-01 1.21468E-01-4.76672E-02-2.65856E-02-8.32265E-02
 -1       980 4.11600E-01 2.61760E-01 1.18782E-01-2.21672E-02 2.83909E-02-1.98052E-01
 -1       981 2.59295E-01 2.39222E-01 1.73830E-01-1.01750E-02-1.99462E-02-6.41037E-02
 -1       982 2.36738E-01 1.72618E-01 2.88040E-02-1.08312E-02-1.36638E-01 7.53106E-02
 -1       983 4.14754E-01 2.35971E-01 1.85845E-01-3.09683E-02-7.47517E-02 1.63418E-02
 -1       984 3.79358E-01 2.87437E-01 1.38489E-01-6.75065E-02-3.38947E-02-1.73066E-02
 -1       985 2.02781E-01 1.80837E-01 2.83375E-02-4.36631E-02 1.46470E-03-6.86612E-02
 -1       986 2.48727E-01 1.83316E-01 1.18424E-01-1.19942E-02-4.22438E-02-1.21548E-01
 -1       987 7.30650E-01 2.91022E-01 1.93070E-02-1.19510E-01 1.02712E-02 3.63095E-02
 -1       988 3.89062E-01 1.29985E-01-3.92254E-02-4.31010E-02-1.30754E-01 3.16632E-01
 -1       989 1.19434E+00 4.92709E-01 1.48864E-01-2.88471E-01-7.52515E-02 1.60966E-01
 -1       990 9.06329E-01 1.59000E-01 1.01396E-01-2.19122E-01-6.49289E-02 2.55877E-01
 -1       991 5.70111E-01 1.46954E-01-3.33437E-02-1.69358E-01-1.21212E-01 3.21849E-01
 -1       992 7.76848E-01 4.33475E-01 9.08146E-02-1.33932E-01 3.49343E-02-7.44483E-02
 -1       993 5.87539E-01 1.97760E-01 2.80778E-02-8.42085E-02 7.27922E-02-1.20029E-02
 -1       994 3.80868E-01 2.24687E-01-8.71782E-02-1.22001E-01 3.82110E-03 9.36643E-02
 -1       995 1.01636E+00 3.28169E-01 5.98144E-02-1.77533E-01 1.35788E-01-1.80610E-01
 -1       996 4.67918E-01 2.60221E-01 9.96512E-02-8.00859E-02-8.16735E-02 1.12120E-01
 -1       997 3.72401E-01 1.93154E-01 1.20894E-01-1.06108E-02-1.31231E-01 2.67072E-01
 -1       998 3.92919E-01 4.25232E-01 4.67929E-02-1.57751E-02-1.95765E-02-1.35206E-01
 -1       999 4.95818E-01 3.61430E-01 1.96781E-01 2.54365E-03 2.92338E-02-1.53578E-01
 -1      1000 3.77160E-01 3.10804E-01 1.04947E-01 1.49908E-02-4.89079E-02-1.54573E-01
 -1      1001 3.08730E-01 2.53069E-01 1.22896E-01 1.47687E-02-1.43848E-01 2.36684E-01
 -1      1002 5.03585E-01 3.46966E-01 2.03029E-01-7.03999E-02-7.88365E-02 6.62606E-02
 -1      1003 4.21963E-01 2.56586E-01 7.25991E-02-1.59758E-02-4.95192E-02-1.44409E-02
 -1      1004 4.14895E-01 3.03556E-01 9.94489E-02-9.09207E-03-5.27183E-03-1.54932E-02
 -1      1005 8.24965E-01 2.68787E-01-1.34740E-01 2.46715E-02 3.15309E-02 5.04430E-03
 -1      1006 5.41956E-01 1.45464E-01-5.25580E-03 1.13965E-02-9.15509E-04 2.94058E-01
 -1      1007 1.32990E+00 4.35666E-01-1.99007E-02 1.56962E-02-4.81857E-02 1.89499E-01
 -1      1008 1.28586E+00 2.18690E-01-2.37524E-02 3.23589E-02 1.02992E-02 1.61448E-01
 -1      1009 5.32662E-01 1.55047E-02 9.31912E-03 4.59459E-02 5.51086E-03 2.62252E-01
 -1      1010 7.55440E-01 3.04315E-01-8.74584E-02-1.42486E-02 8.64696E-03-4.70616E-02
 -1      1011 7.82815E-01 2.03765E-01 4.31574E-02-4.81811E-03 6.91404E-02-4.82283E-02
 -1      1012 8.66161E-01 2.13736E-01 5.66775E-02-1.79577E-02 6.86672E-02 2.56513E-02
 -1      1013 1.04627E+00 2.18359E-01 2.89726E-02-3.46425E-02 2.92320E-02-1.82985E-01
 -1      1014 4.20355E-01 1.82829E-01 4.16687E-02-2.19773E-02-2.18938E-02 1.56702E-01
 -1      1015 3.59407E-01 1.46170E-01 9.56549E-02-1.43585E-02-2.07931E-03 2.22858E-01
 -1      1016 4.17508E-01 5.05525E-01 9.87814E-02-4.10055E-02 1.11942E-02-1.05867E-01
 -1      1017 4.29058E-01 2.84125E-01 1.47691E-01-3.11804E-02 1.06286E-02-1.27102E-01
 -1      1018 4.37813E-01 4.25589E-01 9.39578E-02-1.06984E-04-6.26877E-03-1.19041E-01
 -1      1019 4.49211E-01 2.61906E-01 9.62487E-02-8.99970E-03-6.20249E-03 2.29433E-01
 -1      1020 4.96684E-01 3.89105E-01 2.30695E-01-6.75379E-03-2.13143E-02 1.13808E-01
 -1      1021 2.25340E-01 1.79428E-01 7.12956E-02 3.29712E-02 2.38761E-02-3.11236E-02
 -1      1022 2.27739E-01 2.65796E-01 1.09563E-01 3.45768E-02-1.15828E-03-6.86172E-02
 -1      1023 9.20722E-01 2.53396E-01 3.05594E-02 1.85706E-01 1.82421E-02-1.64071E-01
 -1      1024 2.93293E-01 3.11498E-02 1.05864E-02 6.84120E-02-7.10776E-02-1.88341E-01
 -1      1025 3.77736E-01 7.79022E-02-4.73694E-03 1.21866E-01 3.66043E-02-8.58633E-02
 -1      1026 9.36059E-01 3.48451E-01 5.08744E-03 1.48032E-01 6.22518E-02 4.54555E-02
 -1      1027 1.09301E+00 3.62252E-01-9.82594E-03 2.56477E-01-1.65067E-02 1.21303E-01
 -1      1028 3.69413E-01 5.01170E-02-1.00713E-02 1.46389E-01 9.72363E-02 2.16741E-01
 -1      1029 1.10002E+00 2.62762E-01 9.67742E-02 2.77292E-01 2.28853E-02 1.98125E-01
 -1      1030 3.36240E-01 1.59391E-01 7.87421E-02 6.83637E-02-9.98082E-03 4.41823E-02
 -1      1031 3.56218E-01 2.09786E-01 1.71020E-01 2.94099E-02 1.28949E-01 2.18864E-01
 -1      1032 4.69557E-01 3.99078E-01 2.27533E-01-4.41806E-03 5.54284E-02-1.38924E-01
 -1      1033 3.90670E-01 2.82941E-01 8.43925E-02 6.39030E-02 3.05706E-03-1.63577E-01
 -1      1034 4.01312E-01 4.56040E-01 9.70072E-02 2.85072E-02-8.27619E-03-1.18393E-01
 -1      1035 4.86953E-01 3.14349E-01 2.51782E-01 2.36688E-02 1.20765E-01 2.47734E-01
 -1      1036 6.96283E-01 3.81504E-01 2.30787E-01 1.39219E-01 4.50848E-02 9.47985E-02
 -1      1037 1.42847E-01 1.84366E-01 1.61529E-01 2.58821E-02 5.20806E-02-9.83407E-03
 -1      1038 3.94004E-01 3.28726E-01 1.40055E-01 2.36051E-02-1.66791E-02-3.14959E-02
 -1      1039 6.12490E-01 2.85053E-01 6.25248E-03 3.21446E-01-1.96562E-01-1.64264E-01
 -1      1040 1.98930E-01 7.59292E-02-1.43611E-02 1.08873E-01-6.44294E-02-9.92084E-02
 -1      1041 4.57184E-01 3.25162E-01 4.14586E-02 1.75424E-01 2.42561E-02-9.42250E-02
 -1      1042 5.72062E-01 2.78470E-01 1.21581E-02 2.39952E-01-7.45514E-03-6.42581E-02
 -1      1043 8.14273E-01 5.01746E-01 7.96495E-02 3.48086E-01 1.28295E-01 1.40816E-01
 -1      1044 1.80500E-01 3.09185E-02-2.22068E-03 7.47554E-02 5.51146E-02 8.72022E-02
 -1      1045 6.14262E-01 3.60101E-01 3.65338E-02 3.40441E-01 8.29890E-02 1.87044E-01
 -1      1046 3.96386E-01 3.57626E-01 1.20005E-01 3.46895E-02-1.39382E-02-1.24950E-01
 -1      1047 2.12907E-01 1.75985E-01 1.24720E-01 5.00353E-02 1.16191E-01 5.91862E-02
 -1      1048 1.10876E-01 6.40693E-02 2.56345E-02-8.47070E-03 9.95988E-02 7.14104E-02
 -1      1049 3.88418E-01 2.43881E-01 2.07540E-01-7.49385E-03-2.82912E-02-2.05272E-01
 -1      1050 2.02745E-01 1.43693E-01 2.86585E-02 4.41938E-02-3.80495E-02-1.80711E-01
 -1      1051 1.89716E-01 1.54952E-01 1.20411E-01-5.57059E-02 5.27507E-02-1.25234E-01
 -1      1052 3.20096E-01 1.78165E-01 6.77756E-02 2.91540E-04 1.62357E-01 1.13382E-01
 -1      1053 4.18019E-01 3.20180E-01 2.28862E-01 1.00397E-01 1.31594E-01 1.14298E-01
 -1      1054 3.71893E-01 3.49692E-01 1.55276E-01 5.98404E-02 3.40390E-02 5.21269E-02
 -1      1055 4.08092E-01 2.80519E-01 1.65010E-01 4.43322E-03 8.64857E-03-3.27203E-02
 -1      1056 2.29213E-01 2.19917E-01 1.91188E-02 2.54968E-01-1.50072E-01-5.19231E-02
 -1      1057 1.87009E-01 1.87322E-01-7.99676E-03 1.65434E-01 4.81225E-02 1.91666E-02
 -1      1058 2.58615E-01 2.14842E-01 2.40370E-02 1.53603E-01-2.10981E-03 2.20282E-02
 -1      1059 4.52757E-02 5.12897E-02-6.82038E-03 7.97243E-02-2.19594E-02-3.24826E-02
 -1      1060 1.71116E-01 1.20310E-01-1.53059E-02 1.35241E-01 1.10721E-01 1.36146E-01
 -1      1061 3.86468E-01 3.31657E-01 3.06048E-02 2.69288E-01 4.88834E-02-6.92620E-03
 -1      1062 2.05057E-01 1.11062E-01-7.77722E-02 1.51985E-01 7.45121E-02 3.47538E-02
 -1      1063 3.04868E-01 2.50846E-01-9.79554E-03 2.47435E-01 6.88130E-02 8.10123E-02
 -1      1064 2.53508E-01 1.94890E-01 3.12225E-04 1.88079E-01-5.27448E-02-1.06974E-02
 -1      1065 1.09376E-01 1.38869E-01 6.01442E-02 4.73533E-02 4.36139E-02-4.07104E-02
 -1      1066 6.46470E-02 8.93616E-02 2.42360E-02 2.57848E-02 6.07691E-02 1.00127E-03
 -1      1067 2.10150E-01 1.46942E-01 1.06915E-01 6.18432E-02-3.72205E-02-2.02792E-01
 -1      1068 1.70266E-01 1.23800E-01-2.76569E-03 8.62899E-02-3.84725E-02-1.14621E-01
 -1      1069 2.62719E-01 1.27444E-01-9.69061E-03-2.93423E-04 4.07781E-02-1.42098E-01
 -1      1070 2.28542E-01 2.18219E-01 1.70835E-01 4.77408E-02 8.98496E-02 6.19629E-02
 -1      1071 1.98164E-01 1.59218E-01 7.78535E-02 7.61912E-02 7.12828E-02-1.87055E-02
 -1      1072 5.82306E-02 3.86774E-02-3.23420E-02 6.30873E-02-2.69595E-02-4.33581E-02
 -1      1073 1.16765E-01 1.39410E-01 2.68935E-02 7.16533E-02 7.34226E-02 1.32995E-02
 -1      1074 1.92672E-01 1.41524E-01 6.25407E-02 1.46763E-02 3.07190E-02-5.28242E-02
 -1      1075-6.48220E-02-5.52157E-02-1.12651E-02 1.80225E-01-5.55373E-02 2.60315E-02
 -1      1076 1.19092E-02-4.93703E-02 3.45667E-02 1.45650E-01 3.93356E-02 2.13002E-02
 -1      1077 2.66458E-02 1.18868E-02 6.56833E-05 1.18375E-01 7.99083E-02-1.68301E-02
 -1      1078 2.38220E-02 1.01952E-02-4.65806E-02 1.00425E-01 2.75596E-03-3.92184E-02
 -1      1079-4.11657E-02-6.94737E-02-1.12456E-01 1.67940E-01-1.31572E-01 8.17404E-02
 -1      1080-1.49586E-02-7.98716E-03 4.12090E-02 2.06998E-01 2.08565E-02 5.88273E-03
 -1      1081-4.61650E-02-3.45992E-03 3.52707E-02 9.90755E-02-7.01505E-02-2.47969E-02
 -1      1082 5.73228E-02 2.13722E-02 1.59988E-02 1.43361E-01-5.56881E-02 4.21567E-04
 -1      1083 3.85972E-02 2.20955E-02 1.63847E-02-1.72538E-03 4.19589E-02-1.12262E-01
 -1      1084-8.45053E-02-1.97110E-02-4.56582E-02 6.44726E-03-6.45433E-02-3.66529E-02
 -1      1085-4.99559E-02-4.85624E-02 1.82961E-03 8.28492E-02-7.21623E-02-8.52019E-03
 -1      1086-7.01549E-02 7.19101E-02 6.50039E-02 7.05321E-02-7.21041E-02-2.17426E-01
 -1      1087-1.33062E-01-1.25658E-01-9.18055E-02 9.94259E-02-4.67349E-02-7.11919E-02
 -1      1088 3.39900E-02-1.91724E-02-4.39679E-02 6.33721E-02 3.56825E-02-1.88275E-01
 -1      1089 2.87384E-02 4.64006E-02 3.87191E-02 7.87928E-02 2.13496E-02 9.88076E-04
 -1      1090-9.27028E-03 2.55672E-02 1.98141E-02 6.89911E-02-5.12228E-03-4.46989E-02
 -1      1091 2.53520E-02-2.65138E-02 4.76491E-02 4.14619E-03 3.01962E-02-4.37882E-02
 -1      1092-1.07106E-02-6.43812E-02-7.23232E-02 3.61324E-02 6.50692E-02-1.21653E-01
 -1      1093-9.92896E-02-1.56483E-01 7.77619E-02 2.17799E-01-2.87501E-02-6.59046E-02
 -1      1094-1.01738E-01-1.32761E-01 4.25039E-02 1.16468E-01-3.24561E-02 7.12624E-02
 -1      1095-1.56186E-01-2.02523E-01 9.48447E-03 1.75132E-01-3.60131E-02 2.89058E-02
 -1      1096-3.49283E-01-3.37649E-01-3.13172E-02 2.51938E-01-6.19791E-02 7.27399E-02
 -1      1097-1.91085E-01-9.59068E-02-1.84276E-02 9.68775E-02-9.23124E-02 1.34469E-01
 -1      1098-1.68336E-01-1.22959E-01 3.76628E-02 1.13100E-01-6.36542E-02 4.51233E-02
 -1      1099-3.28737E-01-3.37903E-01-2.98098E-03 2.68575E-01-5.69989E-02 2.23645E-03
 -1      1100-5.46534E-02-5.14264E-02-1.23081E-02 7.49654E-02 5.41602E-02-4.45882E-02
 -1      1101-2.27405E-01-2.23431E-01-1.02492E-01 9.19695E-02-5.61551E-02-3.12569E-02
 -1      1102-2.90213E-01-2.17427E-01-1.71242E-01 6.57991E-02-1.51693E-01 8.51144E-02
 -1      1103-3.07970E-01-1.57402E-01-5.37537E-02 1.25811E-02-4.71363E-02-1.51229E-01
 -1      1104-1.45533E-01-1.21746E-01-6.36118E-02 7.35598E-03-3.05714E-02-1.09640E-01
 -1      1105-1.66285E-01-1.19675E-01-8.89390E-02 7.68246E-02 3.71019E-02-1.96345E-01
 -1      1106-1.30882E-01-9.09543E-02-3.02117E-02 6.59492E-02-1.21143E-01 2.35470E-02
 -1      1107-1.75898E-01-1.69872E-01-9.10164E-02 7.38503E-02-6.28037E-02-5.20576E-02
 -1      1108-1.54299E-01-1.03445E-01-1.67283E-02 8.83411E-03-5.20234E-02-5.52325E-02
 -1      1109-1.52580E-01-1.41151E-01-1.10878E-01 3.08529E-02-3.85253E-02-1.17072E-02
 -1      1110-4.60231E-02-2.81540E-03-5.55811E-03 4.43200E-02 3.85253E-02-5.76490E-02
 -1      1111-2.46270E-01-2.01714E-01-9.83935E-02 5.65513E-02 1.41946E-02-1.68057E-01
 -1      1112-4.95463E-01-2.59786E-01 7.36729E-02 3.00338E-01 1.78011E-02-2.71094E-02
 -1      1113-1.85928E-01-6.64309E-02-1.73600E-03 9.09932E-02 5.71802E-02-8.55567E-02
 -1      1114-5.45262E-01-3.52652E-01 7.47735E-02 2.30166E-01-2.85408E-02 5.93454E-02
 -1      1115-5.52394E-01-3.32166E-01 1.40726E-02 2.26874E-01-3.30853E-02-3.69471E-02
 -1      1116-2.69605E-01-2.36495E-01 4.67982E-04 1.75872E-01 5.13027E-02-1.52001E-01
 -1      1117-2.76004E-01-1.24259E-01-8.26733E-03 2.08456E-01-1.23264E-01 2.21684E-01
 -1      1118-7.86738E-01-4.03672E-01-2.75595E-02 4.40884E-01-4.81770E-02 1.98741E-02
 -1      1119-2.08850E-01-1.29367E-01 7.46025E-02 4.97178E-02-1.01084E-01 8.16621E-02
 -1      1120-2.13071E-01-1.64109E-01-1.62137E-01 5.20814E-02-1.44332E-01 1.61192E-01
 -1      1121-2.88917E-01-2.35967E-01-5.29232E-02-7.72158E-03-4.77822E-02-1.28117E-01
 -1      1122-2.46236E-01-2.13905E-01-1.25766E-01 6.74193E-03-3.98219E-02-6.57431E-02
 -1      1123-4.57838E-01-2.84599E-01-1.57495E-01 9.09852E-03 1.61084E-02-1.76718E-01
 -1      1124-2.89115E-01-1.91205E-01-1.15311E-01 5.69309E-02-1.42939E-01 1.10814E-01
 -1      1125-5.24988E-01-3.07827E-01-1.02487E-01 1.34269E-01-6.48379E-02 1.97037E-02
 -1      1126-2.73821E-01-2.76572E-01-1.24053E-01-1.13318E-02-9.70832E-03-1.08489E-01
 -1      1127-3.23214E-01-2.64130E-01-1.04706E-01 3.26248E-02-3.43563E-02 1.03466E-02
 -1      1128-2.40059E-01-1.49639E-01-1.11944E-01 3.31563E-02-2.74763E-02-5.41595E-02
 -1      1129-2.24348E-01-1.77773E-01-1.07637E-01 3.38004E-02 9.08296E-04-8.89619E-02
 -1      1130-9.75241E-01-2.96830E-01-2.04959E-02 1.83657E-01 1.36045E-01-1.89120E-01
 -1      1131-2.08046E-01 3.20581E-02 3.11334E-02 9.01304E-02 4.09475E-02-1.38277E-01
 -1      1132-5.91848E-01-2.44464E-01 3.64985E-02 1.71847E-01 5.69694E-02 7.01403E-02
 -1      1133-8.96300E-01-4.08924E-01-4.44260E-02 1.46913E-01 7.93245E-03 3.36416E-02
 -1      1134-7.46865E-01-2.49249E-01-3.05518E-02 1.68251E-01-2.46344E-02-9.48623E-02
 -1      1135-6.01795E-01-1.37042E-01-9.49006E-03 1.61682E-01-1.08075E-01 3.04564E-01
 -1      1136-1.10411E+00-2.92901E-01-7.67029E-02 3.43973E-01-6.70339E-02 9.67005E-02
 -1      1137-5.40501E-01-3.36611E-01-1.84039E-01 9.34575E-02-1.01778E-01 1.45296E-01
 -1      1138-3.47414E-01-1.58425E-01-1.44482E-01 4.77315E-02-1.11179E-01 2.34058E-01
 -1      1139-2.14521E-01-2.24396E-01-1.46027E-02-1.90703E-02-6.35166E-03-1.11255E-01
 -1      1140-3.68039E-01-2.93384E-01-1.47783E-01 2.35445E-02 4.82319E-02-1.57842E-01
 -1      1141-3.61077E-01-2.87983E-01-1.20618E-01-4.22276E-02-6.65310E-02-1.63363E-01
 -1      1142-2.76949E-01-1.86502E-01-1.61781E-01 3.15047E-02-8.67671E-02 2.41443E-01
 -1      1143-6.01530E-01-3.70593E-01-2.15319E-01 9.06095E-02-6.67624E-02 1.16823E-01
 -1      1144-5.33067E-01-3.10165E-01-7.16914E-02 3.02434E-02-1.30466E-02-7.82736E-03
 -1      1145-5.19590E-01-3.13300E-01-1.21539E-01 8.91365E-03-1.84485E-02-8.00981E-02
 -1      1146-1.02699E-01-6.29991E-02-1.01033E-01-7.84825E-03 4.15107E-01 3.34891E-01
 -1      1147-6.98674E-01-6.92244E-01-5.85577E-01-1.12675E-01 4.92765E-01 4.04392E-01
 -1      1148-1.26671E-01 8.22865E-03 7.90808E-03-3.48885E-02 4.90914E-01 3.79243E-01
 -1      1149 4.96157E-01 2.12800E-01 2.37610E-01 1.98695E-01-1.34695E-01 8.03775E-01
 -1      1150 1.73933E-01-3.89728E-02-2.26797E-01 7.40002E-02-8.51925E-02 7.58592E-01
 -1      1151-3.21580E-01-1.73869E-01-6.65969E-02 8.96051E-02-7.00176E-02 7.36781E-01
 -1      1152-4.23099E-01-3.59485E-01-3.06613E-01 1.83441E-01-1.00829E-01 9.20133E-01
 -1      1153 7.67234E-02 3.48701E-02 8.34551E-02-2.59864E-02 1.84038E-01 3.86748E-02
 -1      1154 2.40442E-01 3.16331E-01 2.03995E-01-2.45974E-02 2.03355E-01 5.14761E-02
 -1      1155 5.17031E-01 6.83459E-01 5.05406E-01 4.61672E-02 3.16403E-01 9.59811E-02
 -1      1156 3.39719E-01-3.02865E-01 2.09608E-02 9.60075E-02 4.08337E-01 5.19674E-01
 -1      1157-7.19360E-01-1.36769E+00-8.73772E-01-7.54675E-02 4.18615E-01 5.28714E-01
 -1      1158-2.52676E-02-8.72445E-03 2.03906E-01-5.96231E-02 3.57172E-01 4.04491E-01
 -1      1159 9.51164E-02 8.45165E-02 1.43662E-01 1.19755E-02-2.63512E-01 3.95662E-02
 -1      1160-2.28312E-02 3.33379E-02-7.76900E-02 1.32935E-02-2.65900E-01 6.25980E-02
 -1      1161 9.47369E-02 1.17906E-01 1.07062E-01-2.50042E-02-2.01814E-01 5.21047E-02
 -1      1162 2.61761E-02-3.99078E-02-2.07582E-01-5.86300E-02-2.59696E-01 5.38514E-01
 -1      1163 1.82190E+00 1.55793E+00 1.42291E+00-1.92697E-01-4.80116E-01 7.69405E-01
 -1      1164-2.91082E-02-1.81306E-01-1.27705E-01 9.08639E-02-3.30683E-01 5.25211E-01
 -1      1165-1.41530E+00-1.19015E+00-1.09690E+00 1.83060E-01-4.29102E-01 8.53999E-01
 -1      1166-1.93785E-01-2.03783E-01-2.26630E-01 1.85783E-03 1.93380E-01 6.76477E-01
 -1      1167-1.47395E+00-1.15880E+00-1.10839E+00-1.38544E-01 2.88944E-01 9.52507E-01
 -1      1168-2.28960E-01-2.51656E-01-2.56707E-01-1.40738E-01 2.50820E-01 7.83117E-01
 -1      1169-2.81484E-01-2.77664E-01-1.95742E-01-8.28601E-02 4.06697E-01 7.06733E-01
 -1      1170-6.71999E-01-7.95484E-01-6.17810E-01-9.81739E-02 4.37098E-01 2.33642E-01
 -1      1171-9.07071E-02-7.35001E-02-3.61036E-02 2.16441E-02 1.23038E-01 1.09805E-02
 -1      1172 5.31879E-03 1.08128E-02 4.73950E-02-1.62495E-02 4.89099E-02 4.14536E-02
 -1      1173-7.42574E-02-1.17621E-01-8.07809E-02 3.13056E-02 8.66611E-02 8.53477E-03
 -1      1174-1.55025E-01-1.54521E-01-1.55886E-01 2.82054E-02 1.07734E-01 1.26847E-02
 -1      1175-3.48523E-02-4.68040E-02-5.91999E-02-1.30692E-02 2.45221E-01 8.55532E-02
 -1      1176 7.07001E-01 3.95798E-01 3.29940E-01 1.73849E-02-6.78479E-02 7.75874E-01
 -1      1177-6.62047E-01-5.28885E-01-4.33944E-01 1.40847E-01-8.87881E-02 9.15106E-01
 -1      1178 5.42898E-01 4.78953E-01 5.53139E-01 1.64911E-02-1.00711E-01 8.17714E-01
 -1      1179-5.94347E-02-2.45582E-01-1.35173E-01-1.45797E-02-3.15816E-01 4.10479E-01
 -1      1180 1.08611E-02-2.80482E-01-1.54290E-01 6.02089E-02-3.97753E-01 5.18213E-01
 -1      1181 1.85470E-01 1.43736E-01 1.61081E-01-1.09710E-01-3.85129E-01 1.80738E-01
 -1      1182 9.70821E-02 1.52218E-01 1.04955E-01 2.33213E-02-7.59345E-02-1.70893E-02
 -1      1183 4.90311E-01 6.92683E-01 4.64126E-01-6.27839E-02-3.72211E-01 2.64480E-01
 -1      1184-8.38789E-02-3.78840E-02-6.28337E-02-7.77049E-02 6.52428E-02 7.84863E-01
 -1      1185-5.75187E-02 1.91186E-02-4.22557E-02-3.11740E-03-1.35674E-01 6.67849E-04
 -1      1186-7.98362E-02-7.57245E-02-5.00615E-02-2.60395E-03-1.51895E-01 1.65282E-02
 -1      1187-6.41600E-02-9.05019E-02-6.51127E-02-3.58652E-03-3.27127E-02 3.22169E-03
 -1      1188 1.63078E-01 1.63636E-02-1.81134E-01-5.15421E-02-1.67180E-01 6.23314E-01
 -1      1189 1.61406E+00 1.40804E+00 1.23439E+00-4.26309E-01-3.00666E-01 8.44154E-01
 -1      1190 2.90655E-01 4.06008E-01 4.52025E-01-1.55028E-01-3.15170E-01 7.46696E-01
 -1      1191-1.52645E+00-1.18488E+00-1.14147E+00 1.59387E-01-2.81263E-01 9.01899E-01
 -1      1192-1.54671E-01-1.97741E-01-1.66700E-01-1.43114E-02-2.18397E-01 3.75325E-02
 -1      1193 7.17483E-01 9.52285E-01 7.02973E-01-9.49688E-02-4.76187E-01 2.36352E-01
 -1      1194-5.47066E-02-8.43877E-02 3.48861E-02 4.08042E-02-3.01212E-01 1.59498E-01
 -1      1195 4.35193E-02 6.85191E-02 7.75429E-02 2.21095E-02 1.44536E-01 1.04284E-02
 -1      1196-3.66190E-01-5.68276E-01-4.47279E-01-5.13319E-02 3.42361E-01 2.31208E-01
 -1      1197 3.11938E-01 2.49021E-01 1.35287E-01 7.05157E-02 3.89065E-01 2.76411E-01
 -1      1198-1.33644E-01-8.72954E-02-2.48189E-01 3.95601E-02 3.51045E-01 3.19379E-01
 -1      1199 5.00337E-01 1.55075E-01 5.11173E-02 2.21551E-02 3.84822E-01 5.63595E-01
 -1      1200 1.45767E+00 1.19765E+00 1.11789E+00 1.65420E-01 4.08306E-01 7.63858E-01
 -1      1201 2.01449E-01 1.98710E-01 4.21954E-01-6.85399E-02 2.93043E-01 5.08483E-01
 -1      1202-2.39727E-01-3.53624E-01-2.04837E-01-1.04658E-01 3.51615E-01 6.08297E-01
 -1      1203 4.22629E-01 2.47236E-01 1.31459E-01 1.35649E-01 1.41051E-01 9.31064E-01
 -1      1204-3.31058E-01-1.82446E-01-1.42825E-01 5.94021E-02 1.61019E-01 7.99540E-01
 -1      1205-1.73284E+00-1.23859E+00-1.25097E+00-5.84294E-02 1.22161E-01 9.17569E-01
 -1      1206-1.31618E+00-1.14260E+00-1.03514E+00 1.77190E-01-4.57187E-01 7.99216E-01
 -1      1207-4.25486E-01-5.24210E-01-2.26988E-01 1.19758E-01-3.16344E-01 5.12196E-01
 -1      1208 3.24224E-01 3.73113E-01 1.48862E-01 9.87336E-02 2.38603E-01 7.20726E-01
 -1      1209 1.41835E+00 1.09183E+00 1.05678E+00-1.12603E-01-2.76831E-01 9.12574E-01
 -1      1210-1.34466E+00-1.40192E+00-1.15631E+00-2.26927E-01 4.71952E-01 5.75089E-01
 -1      1211-1.59961E+00-1.26851E+00-1.20748E+00 1.60072E-01-2.79367E-01 9.20937E-01
 -1      1212-3.91371E-01-3.72140E-01-3.34829E-01-1.02152E-01 1.46908E-01 8.23049E-01
 -1      1213 5.88024E-01 4.03346E-01 2.88639E-01-6.92936E-02-3.18029E-01 6.55193E-01
 -1      1214 2.55395E-01 3.54264E-01 1.58000E-01-8.49521E-02-3.77908E-01 5.28891E-01
 -1      1215 8.65013E-01 1.00269E+00 7.86304E-01-1.64577E-01-5.11835E-01 3.80604E-01
 -1      1216-6.75180E-01-9.23814E-01-6.73176E-01-8.27251E-02 4.16751E-01 2.15384E-01
 -1      1217-2.24157E-01-1.39049E-01-7.55447E-02 9.79264E-03-6.02256E-02-6.65858E-02
 -1      1218-7.07099E-01-5.13623E-01-4.18171E-01-1.06884E-01 4.42421E-02-3.56925E-01
 -1      1219-4.21573E-01-2.57855E-01 1.31811E-01-6.60027E-02 1.00599E-01-2.44932E-01
 -1      1220 2.37808E-01 2.19036E-01 2.16516E-01 1.26334E-01-7.31985E-02-3.00474E-01
 -1      1221 4.79166E-02-7.96573E-02-2.17952E-01 1.32116E-01 9.53986E-02-2.43144E-01
 -1      1222 3.26051E-01 2.56522E-01 2.35765E-01 1.03621E-02 4.27000E-02-1.25713E-01
 -1      1223-6.29009E-01-5.44873E-01-8.17190E-02 3.45332E-02 8.41820E-02-8.09601E-02
 -1      1224-1.04252E+00-8.41147E-01-6.06299E-01 5.64644E-03 1.36353E-01-3.01588E-01
 -1      1225 2.89653E-01 3.27591E-01 3.70059E-01-1.89091E-01 7.49064E-02-3.54660E-01
 -1      1226-5.70143E-02-1.53198E-01-3.54775E-01-1.24419E-01-9.46998E-02-2.56478E-01
 -1      1227-6.27879E-01-5.34420E-01-2.76822E-01 1.03202E-01 9.59096E-02-2.80854E-01
 -1      1228-2.64634E-02-1.76470E-02 1.75395E-01-2.57174E-02 4.04775E-02-6.37108E-02
 -1      1229-1.65223E-01-7.74817E-02-1.97604E-01-1.38732E-02-7.01727E-02-2.69874E-01
 -1      1230 7.76101E-01 7.94351E-01 3.46728E-01 3.97761E-03 2.31400E-02-1.19805E-01
 -1      1231 7.81911E-01 7.72294E-01 4.47587E-01 1.03636E-02-8.96049E-02-1.83323E-01
 -1      1232 3.25121E-01 2.47474E-01 4.38498E-01 2.33748E-01-7.44843E-02-4.35645E-01
 -1      1233 2.20814E-01-1.49814E-01-3.57914E-01 1.97760E-01 1.49734E-01-3.75800E-01
 -1      1234-7.50971E-01-6.30389E-01-1.96272E-01-7.15074E-02-6.66358E-02-1.50268E-01
 -1      1235-9.99132E-01-9.02047E-01-6.72204E-01-6.75152E-02-1.17911E-01-2.87345E-01
 -1      1236-7.06981E-02-6.99599E-02-3.82536E-01-3.65393E-02-1.20888E-01-1.30127E-01
 -1      1237-3.45169E-01-2.87249E-01-3.61264E-01 1.87904E-01 9.38779E-02-2.69145E-01
 -1      1238-1.23882E-01 6.01480E-02 1.53686E-01 1.45367E-01-8.24898E-02-2.27751E-01
 -1      1239 6.93584E-01 7.94576E-01 2.98632E-01-9.77180E-03-5.75650E-02-9.27342E-02
 -1      1240 7.03927E-01 7.06093E-01 3.65991E-01-3.90035E-02 9.05486E-02-1.79102E-01
 -1      1241 6.50598E-01 4.97439E-01 1.36387E-01-6.92194E-02 4.37946E-02-1.58556E-01
 -1      1242 1.01770E+00 8.83291E-01 5.79995E-01-2.71247E-02 9.16785E-02-2.75426E-01
 -1      1243-9.98373E-02-1.10461E-01-2.09503E-01-1.34902E-01-4.19962E-02-3.33085E-01
 -1      1244 5.46430E-02 1.86409E-01 3.63015E-01-1.31285E-01 1.41968E-01-3.07693E-01
 -1      1245 5.04249E-01 3.94700E-01 3.19588E-01-6.06337E-02 2.00607E-02-2.70582E-01
 -1      1246 4.43668E-01 2.33186E-01 8.87113E-03-4.54704E-02-1.02116E-01-1.82959E-01
 -1      1247-8.64727E-01-9.37948E-01-3.34238E-01 1.39807E-02-5.25812E-02-6.26600E-02
 -1      1248-8.05264E-01-8.29076E-01-3.93896E-01 1.24929E-02 7.92490E-02-2.07917E-01
 -1      1249-9.71709E-01-7.75017E-01-1.67653E-01 1.02792E-01 6.62508E-02-1.39847E-01
 -1      1250-1.46797E+00-1.21855E+00-9.14027E-01 3.34192E-02 1.69677E-01-4.07697E-01
 -1      1251-1.76752E-01-6.55029E-02-3.39892E-01 5.96654E-02-2.05702E-02-2.54077E-01
 -1      1252-6.54596E-02 1.14979E-02-2.36463E-02-5.62807E-02-1.97505E-02-8.24890E-02
 -1      1253-7.70186E-01-7.47719E-01-2.81395E-01 5.77314E-03 2.22984E-02-1.21861E-01
 -1      1254-8.49377E-01-8.14255E-01-4.68860E-01-1.16823E-03-9.21188E-02-1.90644E-01
 -1      1255 2.57135E-01 1.49266E-01 3.01854E-01-8.39677E-02-2.77201E-02-2.69563E-01
 -1      1256-1.47946E+00-1.15780E+00-8.73446E-01-1.06740E-01-1.09921E-01-3.87530E-01
 -1      1257-8.58853E-01-7.41756E-01-7.18207E-01-1.46774E-01-5.49408E-03-4.99560E-01
 -1      1258-5.31736E-01-3.01647E-01 2.26291E-01-8.87451E-03 1.57781E-01-2.80840E-01
 -1      1259 8.76907E-01 7.50135E-01 5.70674E-01-1.09823E-01 9.21943E-02-2.66314E-01
 -1      1260 6.52860E-01 4.30519E-01 9.83496E-02 2.95702E-02-2.21241E-02-1.18498E-01
 -1      1261 9.35118E-01 7.09895E-01 4.72037E-01 5.31234E-02-8.51945E-02-2.07783E-01
 -1      1262-8.89949E-01-7.68316E-01-4.40483E-01-1.30154E-01-8.86541E-02-3.00930E-01
 -1      1263-1.03837E-02-2.09407E-02-1.82730E-01 4.11538E-02 3.91213E-02-3.53202E-02
 -1      1264 3.79360E-02 3.70701E-02 1.03540E-01 7.47169E-02 8.99121E-03-1.39940E-01
 -1      1265-1.56237E-02-3.33635E-02-1.78763E-01-9.33191E-02-9.08693E-03-1.36607E-01
 -1      1266 3.86023E-01 3.59675E-01 5.56529E-01-2.18542E-01 9.90172E-02-4.13201E-01
 -1      1267 1.13659E-01-1.63272E-01-3.18527E-01-2.05185E-01-1.35328E-01-3.88004E-01
 -1      1268-6.65676E-02-1.76676E-02 1.63972E-01-3.49108E-02 2.16940E-03-9.42247E-02
 -1      1269-2.90118E-01-2.58940E-01-7.44519E-02-1.05695E-01-4.82568E-02-2.01947E-01
 -1      1270 7.62711E-01 4.77383E-01 5.16402E-01 3.35351E-02-7.64615E-03-2.83488E-01
 -1      1271 4.65642E-01 1.34747E-01-1.72190E-02-3.64114E-03 7.17059E-02-1.38768E-01
 -1      1272-6.50349E-02-6.13149E-02-3.45260E-01-1.55736E-02-1.33220E-01-1.33387E-01
 -1      1273-1.15670E-01-1.10984E-01-4.30736E-01 2.45683E-02 3.38497E-02-2.53162E-01
 -1      1274 5.75574E-02 1.72659E-02-6.59436E-02 3.30069E-02-1.22096E-02-6.19109E-02
 -1      1275 5.16570E-01 4.42389E-01 3.30200E-01 8.99548E-02-8.85475E-02-1.98276E-01
 -1      1276-7.02576E-02-1.64273E-02-4.99421E-02-3.14151E-02-5.73404E-02-1.46556E-01
 -1      1277 1.28981E+00 1.32761E+00 8.71666E-01-4.16469E-02-1.28513E-01-1.41891E-01
 -1      1278 1.40515E+00 1.45715E+00 1.07970E+00-7.97889E-02 1.93136E-01-2.79883E-01
 -1      1279 1.19346E+00 8.81390E-01 6.41978E-01-1.45773E-02-6.38921E-03-3.48243E-01
 -1      1280 1.16177E+00 9.69240E-01 7.67843E-01 5.06065E-02-8.41105E-02-3.53879E-01
 -1      1281 4.49689E-01 6.01889E-01 6.22238E-01 1.76857E-01-2.22418E-01-2.72482E-01
 -1      1282-6.26781E-01-4.73942E-01-4.06656E-01 7.74409E-02-4.79237E-03-2.76708E-01
 -1      1283-4.23153E-01-2.57939E-01 3.55058E-03 9.47205E-03-1.39398E-01-1.06395E-01
 -1      1284 4.39499E-01 4.63503E-01 2.79348E-01-1.46014E-01 7.18929E-02-1.77047E-01
 -1      1285-4.95850E-01-3.94450E-01-2.89097E-01 9.32216E-02 7.29890E-02-1.90155E-01
 -1      1286-9.20175E-03-5.70117E-03 3.84727E-03 4.16966E-02-1.04137E-02-5.97594E-02
 -1      1287 3.60176E-02 3.73632E-02-1.32479E-01-8.07379E-03-3.06986E-02-7.19391E-02
 -1      1288 4.01140E-02 2.73886E-02 2.50074E-01 2.56463E-02-3.66796E-02-5.92126E-02
 -1      1289 1.37613E-01 4.53870E-02 1.69304E-01-2.00008E-03 7.51937E-02-1.69953E-01
 -1      1290 1.13994E+00 9.36907E-01 7.42156E-01-1.66678E-02 1.89299E-01-2.97892E-01
 -1      1291-1.38876E+00-9.99909E-01-8.54782E-01 7.56666E-02 8.71867E-03-3.54274E-01
 -1      1292 1.54718E+00 1.26368E+00 1.16773E+00 1.80224E-01-4.95228E-02-4.98913E-01
 -1      1293-8.68477E-01-8.07581E-01-6.21821E-01-1.70158E-01-1.34104E-01-3.77815E-01
 -1      1294-3.96414E-01-2.02924E-01 2.46309E-01-5.47315E-02 1.81823E-02-1.87567E-01
 -1      1295-5.79197E-01-5.34802E-01-7.08191E-01 2.52962E-01 1.28377E-01-4.13615E-01
 -1      1296-9.80641E-02 1.77849E-01 3.63124E-01 1.85051E-01-1.36026E-01-2.57984E-01
 -1      1297-9.91730E-01-8.14609E-01-2.92718E-01-1.54579E-01-3.55310E-02-1.84785E-01
 -1      1298-1.44626E+00-1.19382E+00-1.07210E+00-1.19374E-01-1.73450E-01-4.57021E-01
 -1      1299-9.17414E-02-4.46574E-02-5.52252E-02 3.29354E-02 5.16067E-02-1.41746E-01
 -1      1300-1.21134E-01-7.13775E-02-3.48782E-01-4.47397E-02-6.91419E-02-2.38484E-01
 -1      1301 7.59130E-01 5.93721E-01 6.47071E-01-1.16042E-01 2.82246E-02-4.10327E-01
 -1      1302 7.99411E-01 4.60614E-01 1.17348E-01-3.21253E-02-1.20632E-01-2.20105E-01
 -1      1303 3.35131E-02 5.24636E-02 3.26587E-01-3.21603E-02 1.28183E-01-1.46930E-01
 -1      1304-2.15041E-02-5.41135E-02-3.08140E-01 2.05967E-02 1.18544E-01-1.09390E-01
 -1      1305 2.07071E-01 1.00535E-01 9.28584E-02-2.25734E-02 8.22076E-02-1.48844E-01
 -1      1306-4.28491E-01-4.59600E-01-7.88501E-01-2.40567E-01-1.01673E-01-5.55316E-01
 -1      1307-2.20883E-01 1.58412E-01 3.61352E-01-2.30956E-01 1.76562E-01-4.75501E-01
 -1      1308 7.58221E-02 1.28627E-01 3.65830E-01 1.26900E-02-1.27770E-01-1.03192E-01
 -1      1309-6.12681E-01-2.79191E-01 2.14086E-01-2.77450E-02 3.37234E-02-2.23916E-01
 -1      1310-1.16635E+00-9.98817E-01-1.11016E+00-1.75808E-01-1.34070E-01-5.58088E-01
 -1      1311 2.90892E-02-1.54248E-02-8.64562E-02-2.07371E-02-7.56003E-03-8.89402E-02
 -1      1312-1.32516E+00-1.07136E+00-5.31971E-01-2.19520E-01-6.28270E-02-2.13418E-01
 -1      1313-2.25748E+00-1.86199E+00-1.63574E+00-1.72724E-01-2.90745E-01-5.38888E-01
 -1      1314 9.27454E-01 7.30356E-01 5.71088E-01 8.63504E-02-6.58781E-02-2.61113E-01
 -1      1315-1.10448E+00-8.56264E-01-6.26927E-01 7.48513E-02 3.99355E-02-2.92483E-01
 -1      1316-1.40657E+00-1.14786E+00-9.43453E-01 9.93350E-02-6.38876E-03-4.37814E-01
 -1      1317-1.85375E-02 1.61515E-01 2.85083E-01 9.79973E-02-7.37475E-02-1.46411E-01
 -1      1318 1.42717E+00 1.55309E+00 1.06940E+00-1.15064E-01-1.18046E-01-1.46995E-01
 -1      1319 1.86074E+00 1.94594E+00 1.45104E+00-1.08401E-01 2.12161E-01-3.77391E-01
 -1      1320 1.14010E+00 6.91378E-01 8.33492E-01 1.01851E-01 2.00417E-02-4.83462E-01
 -1      1321 8.84138E-01 3.41294E-01 2.06604E-01 9.95734E-04 7.14079E-02-2.04000E-01
 -1      1322 1.07080E+00 8.18824E-01 7.48196E-01 1.53162E-01-1.25362E-01-3.89275E-01
 -1      1323-1.21122E+00-1.26704E+00-4.85867E-01 1.01373E-02-1.47322E-01-1.46569E-01
 -1      1324-1.41133E+00-1.44497E+00-1.10641E+00 6.24791E-02 1.50309E-01-4.11099E-01
 -1      1325 1.04106E+00 1.15585E+00 5.71711E-01 3.41950E-02 7.91522E-02-1.81377E-01
 -1      1326 1.79312E+00 2.02422E+00 1.53823E+00 8.56068E-02-2.53654E-01-2.93643E-01
 -1      1327 2.18662E-01 1.29756E-01 3.57288E-01 8.80244E-03-7.00432E-02-1.84819E-01
 -1      1328 1.90078E-01 9.15113E-02 3.95688E-01 6.75029E-02-1.92187E-02-2.82792E-01
 -1      1329-1.71253E-01-2.22358E-01-8.14864E-01 2.42798E-02 9.15991E-02-3.60297E-01
 -1      1330-1.05318E+00-8.78966E-01-2.67324E-01 1.75887E-01-1.38845E-02-1.61407E-01
 -1      1331-1.53811E+00-1.38930E+00-1.43523E+00 9.11527E-02 1.68154E-01-5.99582E-01
 -1      1332 7.71729E-01 6.95600E-01 8.84696E-01 3.46002E-01-1.89382E-01-6.15357E-01
 -1      1333 4.73015E-01 1.20407E-02-1.75192E-01 2.99922E-01 1.29112E-01-5.66779E-01
 -1      1334 3.35898E-02-1.22327E-01-1.55539E-01 8.80196E-02 7.37490E-02-1.55380E-01
 -1      1335 8.46132E-03-1.24360E-01-3.87981E-01-1.22249E-01-1.36611E-01-1.82244E-01
 -1      1336 1.28310E-01 7.80316E-02 5.28186E-01 7.84024E-02-7.62250E-02-2.70212E-01
 -1      1337 5.29966E-01 4.49478E-01 8.29020E-01-2.54034E-01 1.40527E-01-5.33446E-01
 -1      1338 2.67177E-01-1.98369E-01-3.22441E-01-3.18869E-01-1.61885E-01-5.79814E-01
 -1      1339 1.78131E+00 1.24393E+00 1.21225E+00 9.14470E-02 9.04168E-02-5.62442E-01
 -1      1340-1.37659E+00-1.18105E+00-1.17239E+00-1.56537E-01 1.09540E-01-6.32821E-01
 -1      1341-8.62909E-01-5.49676E-01 8.74587E-03 1.37653E-02 1.87916E-01-3.83870E-01
 -1      1342-1.31682E+00-1.05101E+00-9.60956E-01-1.39110E-01-3.79370E-02-4.36696E-01
 -1      1343-9.73090E-02-1.62888E-01-7.31834E-01-2.67955E-03-2.32382E-01-2.51009E-01
 -1      1344 3.98586E-01 2.96669E-01 6.62866E-01 2.94745E-02-1.54421E-01-3.34779E-01
 -1      1345-1.17682E-01 9.91797E-03-1.88370E-02-4.00528E-03-5.33551E-02-1.58313E-01
 -1      1346 5.43749E-01 5.83907E-01 6.22333E-01-1.92584E-01 1.26559E-01-2.83667E-01
 -1      1347 9.72810E-01 8.99391E-01 5.78345E-01-1.65060E-02-1.37946E-01-2.97478E-01
 -1      1348-3.63000E-01-4.83608E-01-5.49672E-01-1.49287E-01-1.60289E-01-3.02418E-01
 -1      1349 1.55025E-01-1.89448E-01-4.84008E-01-2.25404E-01-1.81957E-01-3.29323E-01
 -1      1350-1.05486E+00-7.91480E-01-4.05077E-01-5.63097E-02-7.45532E-02-2.65190E-01
 -1      1351-1.37603E-01-7.37157E-02 3.36877E-01-4.53067E-02 5.05655E-02-9.02106E-02
 -1      1352 1.11497E+00 9.59997E-01 6.06012E-01-8.58652E-02 6.04177E-02-3.13048E-01
 -1      1353-6.56806E-01-6.33056E-01-9.74927E-01 3.26522E-01 1.72128E-01-5.58729E-01
 -1      1354-1.99116E-01 2.76904E-01 3.81527E-01 1.90011E-01-1.76792E-01-3.27106E-01
 -1      1355-2.64031E-01-1.12722E-01-3.40173E-01-4.53145E-02-7.08213E-02-3.04937E-01
 -1      1356-1.04121E+00-7.12775E-01-7.92539E-01 1.20519E-01 1.02591E-03-4.54867E-01
 -1      1357-8.05434E-01-4.33359E-01-8.27356E-02 3.77740E-02-1.30226E-01-1.78540E-01
 -1      1358-2.24748E-02 6.50822E-03 1.60688E-01 6.36397E-03-1.98183E-02-4.85048E-02
 -1      1359 1.13817E+00 8.36181E-01 4.07394E-01 2.13553E-01-7.31271E-03-1.28269E-01
 -1      1360 1.60091E+00 1.31033E+00 1.09306E+00 8.67548E-02-1.16309E-01-4.17001E-01
 -1      1361-3.10339E-02 2.09692E-03 4.42259E-01 1.95574E-02-9.45202E-02-6.23213E-02
 -1      1362 9.33368E-02 1.17829E-01 4.03170E-01 1.94970E-02-1.10721E-01-1.85792E-01
 -1      1363 7.41013E-01 5.81400E-01 1.69370E-01-9.60901E-02-3.65891E-02-1.72555E-01
 -1      1364 1.23888E+00 1.19338E+00 1.04447E+00-3.61446E-02 9.90990E-02-4.24803E-01
 -1      1365-2.55199E-02-1.74075E-01-7.21114E-01-1.63626E-02-1.58122E-01-1.40364E-01
 -1      1366-1.01113E-01-5.94332E-02-4.97463E-04 2.41028E-02 6.41564E-02-2.14325E-01
 -1      1367-9.64307E-01-6.92955E-01-3.09707E-01 2.68394E-02 1.13909E-01-3.19118E-01
 -1      1368 1.62436E-01 3.59657E-02 1.42755E-01 2.16934E-02-6.29308E-02-1.47018E-01
 -1      1369-7.96855E-01-6.42723E-01-1.08681E+00 3.32603E-01 1.95856E-01-6.51400E-01
 -1      1370-4.82342E-01 2.12311E-01 1.08501E-01 2.95379E-01-1.92507E-01-5.44881E-01
 -1      1371-3.14898E-02-1.13685E-01-6.41168E-01 1.98826E-02 2.18819E-01-1.28724E-01
 -1      1372 1.07451E+00 9.03325E-01 6.29247E-01 4.16000E-02-1.65356E-01-2.43897E-01
 -1      1373 9.80404E-02 2.06737E-01 8.49463E-01-1.34399E-02-2.88728E-01-5.28998E-02
 -1      1374 1.52785E+00 1.20667E+00 1.11811E+00-1.57576E-01 7.97954E-02-4.40277E-01
 -1      1375 1.56231E+00 1.88238E+00 1.21434E+00 1.35634E-01 7.65164E-02-2.67796E-01
 -1      1376 1.64775E+00 1.91784E+00 1.49760E+00 1.11351E-01-2.36744E-01-4.23850E-01
 -1      1377-4.37402E-02 3.93545E-01 5.33836E-01 1.13685E-01-1.83437E-01-1.87475E-01
 -1      1378-1.26841E+00-1.51008E+00-7.52034E-01-2.58637E-02 4.88170E-02-1.82879E-01
 -1      1379-1.60274E+00-1.72223E+00-1.19920E+00-3.61492E-02-2.21521E-01-3.25229E-01
 -1      1380 1.57868E+00 1.26559E+00 1.19563E+00-1.22844E-02-3.00545E-02-4.73416E-01
 -1      1381 3.59737E-02 6.25593E-02-3.79642E-01 4.53040E-02 1.27260E-01-6.57947E-02
 -1      1382 1.73934E+00 1.31866E+00 1.41123E+00-1.75873E-01-3.35041E-02-5.77376E-01
 -1      1383 9.57080E-01 5.32702E-01 5.85732E-02 4.14787E-02-1.55317E-01-2.19652E-01
 -1      1384-8.62981E-02-1.43092E-01-4.22278E-01 3.88699E-02 1.63349E-01-1.61250E-01
 -1      1385-2.38126E-01-1.26033E-01-2.70078E-01-1.31513E-02 5.82446E-02-2.34680E-01
 -1      1386 1.90333E-01 2.33736E-01 5.50700E-01-1.02895E-01 3.43491E-02-3.28786E-01
 -1      1387-5.79795E-01-3.88260E-01-1.06420E-01 1.04386E-01 4.80513E-02-1.70113E-01
 -1      1388 1.08820E+00 1.03255E+00 8.91482E-01-2.85154E-01 1.73795E-01-3.97907E-01
 -1      1389 1.52330E+00 1.38842E+00 8.02352E-01 1.98360E-01 1.18824E-01-1.77013E-01
 -1      1390 1.98704E+00 1.65809E+00 1.45589E+00 1.15923E-01-1.15159E-01-5.26980E-01
 -1      1391 5.30041E-02 6.39033E-02 3.73582E-01-2.64636E-02 7.19398E-02-1.97620E-01
 -1      1392 1.33706E-01 3.18612E-02 2.84647E-01-3.98685E-03 9.77464E-02-2.62148E-01
 -1      1393-1.34951E+00-1.48853E+00-7.71295E-01 1.00754E-01-2.40128E-01-2.71622E-01
 -1      1394-1.85594E+00-2.04765E+00-1.52021E+00 1.74619E-01 2.12407E-01-4.70145E-01
 -1      1395 1.12536E+00 1.00274E+00 6.70428E-01-2.11572E-02 1.60251E-01-2.96352E-01
 -1      1396 5.70906E-01 4.53672E-01 7.10799E-02-1.37012E-01 5.89184E-02-1.63321E-01
 -1      1397-1.53990E+00-1.22328E+00-8.12073E-01 4.54960E-03-1.86251E-01-4.19913E-01
 -1      1398 7.59402E-01 4.46637E-01 2.07661E-01 1.04425E-01-4.13042E-02-2.05238E-01
 -1      1399 8.75519E-02 1.52193E-01 5.79115E-01 8.22910E-03-2.47518E-01-1.42253E-01
 -1      1400-1.74636E+00-1.36354E+00-1.12664E+00-3.62681E-02 5.85125E-02-5.29994E-01
 -1      1401-4.56215E-01-4.03047E-01-5.36826E-01 1.28265E-01 1.67780E-01-2.65830E-01
 -1      1402-5.77692E-01-4.98914E-01-6.42718E-01 2.50031E-01 2.03771E-01-4.29024E-01
 -1      1403-1.81150E+00-1.48246E+00-1.41263E+00-8.50621E-02 2.99926E-02-6.42133E-01
 -1      1404-1.48075E+00-1.21451E+00-1.52686E+00-4.00765E-02 4.11960E-02-7.41329E-01
 -1      1405-1.05837E+00-5.99000E-01-3.96932E-02 7.27017E-02 1.83987E-01-4.65096E-01
 -1      1406-7.11672E-01-2.88622E-01 2.55826E-01 2.25433E-02 8.88906E-02-2.59259E-01
 -1      1407 5.80967E-01 6.15327E-01 7.71765E-01-2.76590E-01 1.69931E-01-4.23579E-01
 -1      1408 1.23520E-03 3.32073E-02 3.08714E-01-5.75179E-02 1.39389E-01-8.95520E-02
 -1      1409-7.91851E-01-8.73798E-01-1.74580E+00 3.24376E-02-2.64765E-01-6.05267E-01
 -1      1410 1.89329E+00 2.23432E+00 1.61725E+00-1.83547E-01-1.50802E-01-2.37579E-01
 -1      1411 2.03160E+00 2.40865E+00 1.76671E+00-2.96867E-01 2.41607E-01-5.21077E-01
 -1      1412 2.00248E+00 1.84197E+00 1.43225E+00-8.84427E-02 2.41848E-01-7.27716E-01
 -1      1413-1.26950E+00-9.43418E-01-3.67081E-01 5.03800E-02-1.31980E-01-2.53735E-01
 -1      1414-4.61024E-01-2.69689E-01-5.36301E-01-3.96492E-02 6.00963E-02-4.25194E-01
 -1      1415-7.47141E-01-7.03779E-01-1.08383E+00-3.44912E-01-1.40790E-01-7.03378E-01
 -1      1416-2.74613E-01 1.20432E-01 3.76946E-01-2.89303E-01 1.90732E-01-5.59140E-01
 -1      1417-1.25161E-01-1.91844E-01-7.82171E-01-2.60687E-02-2.30553E-01-2.05254E-01
 -1      1418-1.60433E-01-1.23724E-01-9.60225E-01-6.02715E-02-1.18888E-01-3.75481E-01
 -1      1419-5.63255E-01-7.95496E-01-1.62027E+00 1.27794E-01 4.15620E-01-3.75384E-01
 -1      1420-8.58661E-02-1.69911E-02-2.82543E-01 3.35597E-02-7.74452E-02-3.10126E-01
 -1      1421 1.44305E+00 1.00509E+00 1.14463E+00 1.49645E-01-1.34030E-01-6.20583E-01
 -1      1422 5.52748E-02-8.88950E-03-1.73765E-01-4.47147E-03 7.53670E-03-7.46929E-02
 -1      1423 2.70723E-01 3.37655E-01 8.84357E-01-1.10505E-01 1.01663E-01-4.31565E-01
 -1      1424-1.49583E+00-1.32411E+00-7.37613E-01-2.48778E-01-1.64346E-02-2.54871E-01
 -1      1425-2.35880E+00-2.02773E+00-2.04520E+00-2.25089E-01-3.00148E-01-7.27728E-01
 -1      1426-1.73012E+00-1.38454E+00-1.31029E+00-5.02962E-02-1.10032E-01-6.14821E-01
 -1      1427 1.46128E+00 1.32933E+00 5.86273E-01-2.61897E-01-6.58037E-03-2.37516E-01
 -1      1428 1.76694E+00 1.66150E+00 1.48394E+00-2.27876E-01 1.17180E-01-5.71046E-01
 -1      1429 1.53976E+00 9.38574E-01 1.28739E+00 7.01356E-02 3.19696E-02-6.17264E-01
 -1      1430 1.15466E+00 4.81599E-01 2.83412E-01-4.64975E-02 7.00899E-02-2.40721E-01
 -1      1431 3.86326E-01 4.54990E-01 9.29676E-01-8.85050E-02 2.89824E-01-3.05049E-01
 -1      1432 7.24070E-01 5.77780E-01 1.27024E+00 7.11502E-02-2.42479E-02-5.43561E-01
 -1      1433 1.76088E+00 1.65543E+00 1.09642E+00-9.82548E-02-2.25419E-01-3.04696E-01
 -1      1434 1.94834E-01 8.79274E-02 2.26363E-01-1.63330E-02-1.61871E-01-1.91621E-01
 -1      1435-1.56379E+00-1.16481E+00-1.06881E+00 1.59764E-01-1.08718E-01-4.95917E-01
 -1      1436 1.51042E+00 1.37623E+00 7.79138E-01 1.19472E-01 2.76726E-01-2.55582E-01
 -1      1437 2.63907E-03 1.41476E-01 2.00613E-01-7.22979E-02 1.14194E-01-1.91265E-01
 -1      1438 6.74788E-01 5.53145E-01 8.57166E-01 3.08282E-01-2.27652E-01-6.02203E-01
 -1      1439 3.67896E-01-1.02946E-01-3.63601E-01 3.09302E-01 2.07707E-01-5.47182E-01
 -1      1440 1.19366E-01 2.18917E-01 6.97534E-01 1.51558E-01 3.85698E-02-3.45109E-01
 -1      1441 9.48047E-02 1.22839E-02-7.52047E-02 3.31440E-02-1.35033E-02-7.29099E-02
 -1      1442-2.52873E-01-3.80068E-01-1.00602E+00 1.77123E-02 2.13503E-02-4.42666E-01
 -1      1443-1.27524E+00-8.07947E-01-9.96630E-01 1.35757E-01 3.94477E-03-4.96478E-01
 -1      1444-1.10337E+00-5.68250E-01-1.53392E-01 3.69679E-02-7.77332E-02-1.86333E-01
 -1      1445 1.80747E-01 2.22209E-01 7.58623E-01 8.49624E-04 2.35453E-01-3.07170E-01
 -1      1446 1.95634E+00 1.72652E+00 1.62118E+00-1.80456E-02 3.93487E-03-7.70451E-01
 -1      1447 6.59652E-01 6.92011E-01 7.23762E-01 3.25426E-01-2.55253E-01-4.49381E-01
 -1      1448 1.46264E-01 1.00984E-01 7.47899E-01 5.28512E-02-2.06662E-01-2.74995E-01
 -1      1449-9.92875E-02-1.31899E-01-8.71116E-01 5.38460E-02 3.06170E-01-8.95962E-02
 -1      1450 1.41376E+00 1.21463E+00 7.28161E-01-1.26263E-02-2.87144E-01-2.68692E-01
 -1      1451-3.20127E-01-3.40430E-01-8.69814E-02-7.61763E-03 2.43344E-01-9.73093E-02
 -1      1452-1.89683E-01-4.45272E-02 6.03980E-01 2.93594E-02 6.80885E-02-3.58115E-02
 -1      1453-1.22515E+00-1.07839E+00-9.66022E-01 2.41267E-01 2.20335E-01-3.96107E-01
 -1      1454-1.16060E+00-9.01711E-01-2.78639E-01-1.18032E-01 1.05267E-01-2.59189E-01
 -1      1455-7.47695E-02-1.65815E-02 1.83751E-01 2.08394E-02-4.22562E-03-5.23295E-02
 -1      1456 3.76094E-01 4.18112E-01 1.23647E+00 8.63407E-02 9.96593E-02-5.25876E-01
 -1      1457-1.66942E-01-2.42864E-01-7.11199E-01-1.33319E-02 2.13220E-01-2.84772E-01
 -1      1458-1.64847E+00-1.31847E+00-9.65362E-01 1.22559E-01 1.78268E-01-3.45445E-01
 -1      1459 1.57139E+00 1.99029E+00 1.37367E+00 1.44247E-01 1.56853E-01-3.47546E-01
 -1      1460 2.01072E+00 2.43306E+00 2.00398E+00 1.91748E-01-3.17771E-01-6.59942E-01
 -1      1461 1.25394E-01-2.58629E-01-5.08695E-01 1.96036E-01 2.00773E-01-3.09691E-01
 -1      1462 2.11424E+00 1.67974E+00 1.43239E+00-3.56945E-02-5.35711E-02-6.58116E-01
 -1      1463 1.81513E+00 1.79181E+00 1.50277E+00 1.46373E-01-2.45691E-01-6.38742E-01
 -1      1464 1.79829E+00 1.04312E+00 1.54005E+00-1.41082E-02-2.09437E-02-7.37629E-01
 -1      1465 1.12187E+00 3.67790E-01 1.06785E-01-8.57610E-02 8.06072E-02-2.61429E-01
 -1      1466 8.25208E-01 3.28092E-01 7.62816E-02 4.38726E-02-3.02641E-02-1.68559E-01
 -1      1467-1.28673E+00-1.54847E+00-7.59339E-01-3.55414E-02 8.03453E-02-2.19829E-01
 -1      1468-1.83694E+00-2.21073E+00-1.40841E+00-8.19909E-02-3.03069E-01-4.13366E-01
 -1      1469 1.18769E+00 4.65679E-01 2.34352E-01-8.66668E-03-1.22876E-02-3.06232E-01
 -1      1470 6.33326E-01 4.96095E-01 9.09459E-01-1.86995E-02 3.74812E-01-3.43505E-01
 -1      1471 1.56794E+00 1.45776E+00 9.21763E-01 7.52080E-02 2.80152E-01-3.98926E-01
 -1      1472 9.09863E-01 7.06859E-01 1.68238E+00 1.55638E-01-2.51856E-01-7.00677E-01
 -1      1473 1.47731E+00 1.40314E+00 8.78282E-01 2.68708E-01 1.64079E-01-2.08967E-01
 -1      1474 2.02168E+00 1.70417E+00 1.65640E+00 2.16321E-01-1.09546E-01-6.58555E-01
 -1      1475-1.16233E+00-1.12914E+00-5.23099E-01 2.77536E-01 2.50412E-02-1.94553E-01
 -1      1476-1.88433E+00-1.61621E+00-1.83683E+00 2.48879E-01 1.89742E-01-7.36239E-01
 -1      1477-3.23361E-02 1.28281E-02 5.43148E-01-2.06503E-02 1.16379E-01-8.87908E-02
 -1      1478 2.70545E-01 1.27080E-01 1.52305E-01-1.05298E-02 1.26319E-01-1.56692E-01
 -1      1479-8.36300E-01-6.48614E-01-1.22616E+00-3.37920E-01-1.82053E-01-7.71820E-01
 -1      1480-2.06816E-01 1.56789E-01 5.31934E-01-3.47678E-01 2.18256E-01-6.04811E-01
 -1      1481 1.74651E+00 1.19164E+00 1.51375E+00-6.72878E-02-3.69313E-02-6.43458E-01
 -1      1482 1.40932E+00 6.95025E-01 3.49895E-01 5.72824E-02-2.42752E-01-3.82136E-01
 -1      1483 8.66242E-01 5.09179E-01 6.97858E-03-5.57903E-02 7.23839E-04-1.58869E-01
 -1      1484 2.69342E-01 5.18562E-01 1.26387E+00-7.20740E-02 3.39794E-01-1.51462E-01
 -1      1485 3.85597E-01 5.58456E-01 1.18066E+00 1.07163E-01-4.13494E-01-2.82325E-01
 -1      1486 1.60509E+00 1.25277E+00 6.35076E-01-1.96501E-01-1.19451E-01-3.52195E-01
 -1      1487-6.55932E-01-8.67657E-01-1.74853E+00-1.53960E-01-4.07890E-01-3.90338E-01
 -1      1488-7.84538E-01-7.40558E-01-9.73308E-01-3.48781E-01-2.06431E-01-5.71738E-01
 -1      1489-1.45179E+00-1.78273E+00-1.14751E+00 1.19479E-01-3.26462E-01-3.13288E-01
 -1      1490-1.89235E+00-2.20225E+00-1.69909E+00 2.07910E-01 2.08892E-01-6.05221E-01
 -1      1491 9.66189E-01 7.57812E-01 1.62769E+00-3.72255E-02-1.83269E-01-5.88988E-01
 -1      1492 3.03107E-01 3.94218E-01 2.21362E-01-3.80103E-03 2.30248E-01-5.32762E-02
 -1      1493-1.96589E+00-1.94682E+00-1.38532E+00 1.37175E-01 2.07170E-01-6.46791E-01
 -1      1494-1.70706E+00-1.64423E+00-9.89041E-01 8.11913E-02-3.24523E-01-4.78044E-01
 -1      1495 1.43053E+00 1.07188E+00 1.23647E+00-1.98868E-01 1.53169E-01-5.58987E-01
 -1      1496-2.61838E-01 6.29848E-02 2.92970E-01-2.56398E-01 1.59462E-01-3.45498E-01
 -1      1497-2.51058E-01-1.35641E-01-3.51596E-01-4.03425E-02 6.71813E-02-2.29568E-01
 -1      1498 6.79055E-01 5.57215E-01 6.15561E-01-2.45151E-01-1.93220E-01-1.68907E-01
 -1      1499-1.10380E+00-6.69539E-01-1.55515E+00 7.35231E-02 3.31431E-01-7.54443E-01
 -1      1500 4.40427E-01 1.38513E-01-1.15299E-01-1.64010E-02 2.14168E-03 2.43286E-03
 -1      1501-3.17998E-01-3.50814E-01-7.90888E-01 1.44292E-01-9.01093E-02-3.58381E-01
 -1      1502 6.89398E-01 5.30020E-01 8.75910E-01 3.79288E-02-3.36790E-01-2.90591E-01
 -1      1503 1.12307E+00 8.35787E-01 1.72915E+00-1.82017E-01 1.05974E-01-6.64884E-01
 -1      1504-1.22739E+00-8.83832E-01-2.05368E+00-1.22521E-02-2.66209E-02-7.79669E-01
 -1      1505-2.35246E-01-2.66307E-01-1.11843E-01 2.68286E-02-1.72509E-01-8.12925E-02
 -1      1506 2.31809E-01 2.19253E-02-1.82520E-01 4.52295E-02 7.51951E-03-2.69184E-02
 -1      1507-1.66862E+00-1.05375E+00-1.45078E+00 6.86114E-02 2.83691E-02-6.18798E-01
 -1      1508-1.09241E+00-4.59384E-01-1.60061E-01-5.12418E-02-9.91302E-02-2.55719E-01
 -1      1509-1.52100E+00-1.53449E+00-2.20984E+00-1.04611E-01-1.09864E-01-9.51640E-01
 -1      1510-8.37184E-01-4.50487E-01-6.66518E-02 6.05412E-02 4.47674E-02-1.80249E-01
 -1      1511-5.59846E-01-5.97234E-01-8.30011E-01-5.70770E-02-3.98381E-01-3.80268E-01
 -1      1512 9.34596E-01 8.69609E-01 1.72257E+00 5.96260E-02 2.65186E-01-4.57282E-01
 -1      1513-1.91958E+00-1.86467E+00-1.33876E+00-3.40124E-02-2.81118E-01-5.82979E-01
 -1      1514-1.57421E+00-2.09107E+00-1.13736E+00-3.52016E-02 1.56085E-01-2.97121E-01
 -1      1515-1.66343E+00-2.04193E+00-1.41548E+00-1.44118E-01-3.38744E-01-5.00886E-01
 -1      1516-1.64871E+00-1.71760E+00-8.72004E-01 1.07204E-01 2.59790E-01-3.92565E-01
 -1      1517-7.65255E-01-5.93665E-01-1.24039E+00 1.11023E-02-2.00302E-01-5.23863E-01
 -1      1518-1.18222E+00-7.35649E-01-8.24498E-01 1.43929E-01 1.30314E-01-5.03506E-01
 -1      1519-1.64042E-01-3.38585E-02 2.71785E-01 1.21797E-02-2.20085E-03 3.60954E-02
 -1      1520-8.51519E-01-6.97361E-01-1.43998E+00 1.11610E-01 2.57906E-01-4.72603E-01
 -1      1521-4.89220E-01-5.19675E-01-4.90214E-01 1.25731E-01 2.12916E-01-2.94772E-01
 -1      1522 3.94181E-02 1.91259E-01 1.15293E-01-3.42272E-02 6.39658E-02 3.52432E-03
 -1      1523 1.96384E-01 1.55050E-01 1.48119E-01 5.58055E-02 1.88070E-01 1.78938E-01
 -1      1524-6.39672E-02-5.40144E-02-5.34419E-02-1.73482E-02-2.23818E-01 1.13365E-01
 -1      1525 1.75573E-01 1.46433E-01 1.24162E-01-2.18274E-02 6.25258E-03 1.46739E-01
 -1      1526-2.29018E-01-2.56788E-01-1.97058E-02 5.27394E-02 1.21259E-01 2.24751E-01
 -1      1527 2.04497E-01 1.61761E-01 1.79262E-01-1.90296E-02-3.32576E-02 9.15401E-03
 -1      1528-2.50804E-02-5.35191E-02-2.23918E-01 1.05566E-03-1.73914E-01 4.19822E-01
 -1      1529-4.18780E-01-9.54566E-02-1.74669E-01-7.71783E-02 7.65894E-02 4.27148E-01
 -1      1530-1.45421E-01-2.22462E-02-1.03084E-02-3.47685E-02-7.95634E-02 4.11234E-01
 -1      1531-3.09693E-01-1.86871E-01-7.56159E-03 6.84096E-03 7.45635E-03 4.50025E-01
 -1      1532-4.69767E-02 4.43813E-02 5.44236E-02 5.23419E-03 1.28907E-01 4.15186E-01
 -1      1533-2.41895E-01-3.41865E-01-2.82562E-01 3.16601E-02-2.94142E-01 2.29327E-01
 -1      1534 2.09072E-01 1.92759E-01 6.30338E-02-1.28227E-02-8.15043E-02 1.96250E-01
 -1      1535 6.36721E-02 4.16963E-02-1.30522E-03-1.04179E-05-2.56587E-01 3.16058E-01
 -1      1536-1.68286E-01-1.26544E-01-1.82660E-01-5.69834E-03 2.35860E-01 3.00057E-01
 -1      1537-2.22982E-01-1.08188E-01-5.42152E-02-1.30362E-02 1.14426E-01 3.42821E-01
 -1      1538-2.76484E-02-2.16572E-02-3.17372E-02-2.41085E-02 1.26858E-02-2.29735E-01
 -1      1539 3.54208E-01 4.96748E-01 2.90944E-01 5.67154E-03 2.48502E-01 2.43392E-01
 -1      1540-2.11075E-01-2.49968E-01-1.82839E-01 1.62910E-03-7.19515E-03 2.86467E-01
 -1      1541-9.78814E-02-7.43967E-02-1.94130E-02 2.10338E-02 2.89426E-01 1.22619E-01
 -1      1542 4.29476E-02 9.93798E-02 9.07836E-02-1.39541E-02 2.00355E-01 6.76876E-02
 -1      1543 7.69974E-02 4.87708E-02-1.40941E-02-3.69682E-02 1.06857E-01 8.44325E-03
 -1      1544 4.20265E-02 4.31212E-02 3.78637E-02-4.74041E-02-3.03183E-03 2.77745E-02
 -1      1545-1.30375E-03-4.94097E-02-3.40429E-02-1.88215E-02-9.71442E-02 8.93341E-03
 -1      1546 2.07110E-01 2.88430E-01 3.35112E-01 8.86986E-02 2.29381E-01 3.46067E-01
 -1      1547-4.83877E-02-1.53973E-01-6.22954E-03-8.90560E-03-1.51059E-01 6.32727E-02
 -1      1548-2.22363E-02-8.72764E-02-9.05456E-02 4.03172E-02-2.76962E-01 1.62339E-01
 -1      1549 1.70176E-01 2.03984E-01 2.97220E-01 5.77724E-02 2.31830E-01 5.09000E-01
 -1      1550-4.35445E-01-2.38727E-01 3.85963E-02 4.44751E-02-5.09464E-02-1.45377E-01
 -1      1551-9.12310E-02-1.69437E-01-1.54911E-01-2.35595E-02-1.82523E-01 2.90810E-02
 -1      1552 1.70379E-01 1.01990E-01 1.52158E-02-4.98995E-02 2.16314E-02 3.90782E-01
 -1      1553 1.72829E-01 9.95554E-02 2.66856E-01-5.17257E-02-1.88333E-01 4.64002E-01
 -1      1554-4.56238E-01-3.14525E-01-2.21221E-01 1.63554E-02-5.98698E-02-6.68185E-02
 -1      1555 2.20632E-01 4.55861E-02 1.13218E-01-8.66547E-03 1.28405E-01 3.50947E-01
 -1      1556 9.27306E-02 4.35984E-02-3.61896E-03-4.13995E-02-1.98627E-01 4.27238E-01
 -1      1557-4.02866E-01-3.92083E-01-4.87111E-02 2.67822E-02-1.21880E-02 9.28583E-02
 -1      1558 1.51127E-02 1.01555E-01 1.69998E-01-5.43382E-02-1.90991E-01 3.69755E-01
 -1      1559 7.78470E-02 2.01836E-01 4.47447E-02-2.55040E-02-2.08718E-01 2.06697E-01
 -1      1560 1.71052E-02 1.58595E-01 1.87328E-01-1.35436E-02-2.40855E-01 1.79796E-01
 -1      1561 9.75616E-02 1.25207E-01 9.02352E-02 1.07964E-02-1.55578E-01 6.22898E-02
 -1      1562 2.10631E-01 8.88014E-02 1.28155E-01 1.16452E-02 1.07196E-01-1.92534E-02
 -1      1563-2.99195E-02 2.62149E-02-1.27067E-03 3.29290E-02-1.31020E-01 4.19361E-03
 -1      1564 3.31269E-01 1.98859E-01 9.02816E-02 7.70239E-02 8.49864E-02-5.47911E-02
 -1      1565 1.77836E-02 3.75275E-03 7.91084E-03 2.70556E-02 3.17003E-03-3.32123E-03
 -1      1566 1.50551E-02-4.76765E-02-2.93845E-02 3.66589E-02 1.24623E-01-5.96014E-03
 -1      1567-8.77944E-02-1.20898E-01-4.55134E-02 1.25375E-02 1.42533E-01 4.55121E-02
 -1      1568 3.95619E-03-1.53102E-01-1.49065E-01 2.15147E-02 2.25337E-01 1.47607E-01
 -1      1569-2.53089E-01-3.34358E-01-4.02451E-01-1.73616E-02 2.97180E-01 2.76662E-01
 -1      1570 4.67416E-01 2.31112E-01 3.73169E-01 1.90286E-02 6.09190E-02 6.08510E-01
 -1      1571-5.46158E-01-2.92274E-01-3.96847E-01-1.42022E-02 1.11742E-01 5.32454E-01
 -1      1572 1.49715E-01 1.64320E-01 1.81826E-01-1.96831E-02-1.45901E-01 1.85643E-01
 -1      1573 3.09349E-01 2.09016E-01 1.02256E-01 1.58754E-01 1.00590E-01 4.34881E-01
 -1      1574-1.04667E-02 5.24310E-02 1.60553E-01 4.35158E-02-2.33009E-01 3.76032E-01
 -1      1575-1.78959E-01-8.36488E-02 4.75279E-02-5.47692E-02-1.45590E-01 1.97320E-01
 -1      1576-2.38328E-01-1.98801E-01-9.35814E-02 3.15014E-02 1.26306E-01 9.45401E-02
 -1      1577-4.52930E-02-1.20113E-01-9.70692E-02-4.74845E-03 1.92109E-01 1.39009E-02
 -1      1578-2.68267E-01-3.05175E-01-8.50272E-02 6.42549E-03-3.04878E-02 8.62472E-02
 -1      1579-4.42665E-01-2.97757E-01-1.89721E-01-9.19561E-02 1.65666E-02-9.81961E-02
 -1      1580 1.10839E-02 1.20856E-03-3.84967E-04-2.10448E-02-6.14006E-02-2.11974E-02
 -1      1581 1.35766E-02-7.10680E-02-1.58675E-01-6.10402E-03 2.69860E-01 2.23412E-01
 -1      1582 8.12866E-03-5.53379E-02 7.93807E-02 2.05563E-02-1.48477E-01 3.85048E-01
 -1      1583 4.55586E-02 9.33197E-02 9.76543E-02-2.30029E-02 1.39618E-01-1.28330E-02
 -1      1584-2.21471E-01-2.15228E-01 6.38614E-02-8.85929E-02 2.71926E-01 2.62833E-01
 -1      1585-4.57608E-01-3.17385E-01-1.98128E-01 1.47004E-01-2.47023E-01 5.19641E-01
 -1      1586-1.35563E-01-2.57420E-02 1.84373E-02-1.51763E-02-1.19358E-01 2.45388E-02
 -1      1587-8.90781E-02-1.36962E-01-6.84022E-02 3.77605E-02-1.13244E-01 2.42296E-01
 -1      1588 1.99758E-02-7.34024E-02 8.53991E-02-2.14628E-02 2.39243E-01 7.51327E-02
 -1      1589 2.64098E-03-5.43652E-03 2.71736E-02 7.82769E-02-2.87384E-03-8.72488E-02
 -1      1590-2.15875E-01-2.82651E-01-3.07509E-01 2.81578E-02-2.04241E-01 4.22982E-01
 -1      1591 2.63996E-01 2.36192E-01 2.55122E-01 2.12500E-02 2.12664E-01 5.05435E-01
 -1      1592-5.07637E-01-1.87620E-01 4.26635E-02 6.74112E-02-2.31975E-01 4.58668E-01
 -1      1593 3.46672E-01 2.70341E-01 7.91511E-02-4.26219E-02 9.85645E-02 9.82636E-02
 -1      1594-1.75536E-01-9.86241E-02-1.31464E-01-5.94518E-02 1.68259E-01 5.54235E-01
 -1      1595-1.23856E-01-2.53417E-02-7.62065E-02-8.86536E-03-1.92154E-01 1.11112E-01
 -1      1596 3.88006E-01 1.97859E-01-1.39104E-03 3.64903E-02-3.53540E-03-1.15062E-02
 -1      1597-2.41294E-01-2.09646E-01 6.51566E-02 8.48670E-02-1.40192E-01 3.14191E-01
 -1      1598 4.05455E-01 2.84107E-01 1.18461E-01 7.13070E-02 1.34856E-01 7.43148E-01
 -1      1599 6.46288E-02-2.82462E-02 2.23066E-02 7.59630E-02 7.15426E-02-1.81104E-02
 -1      1600-2.23409E-02-2.12453E-02-2.47814E-02 2.61671E-02 2.44946E-01 2.67461E-01
 -1      1601 1.26424E-01 4.63910E-02-3.75951E-03-2.13210E-02 1.82820E-01 1.83703E-01
 -1      1602 1.96199E-01 1.89262E-01 1.04366E-01 2.37531E-02-6.65154E-02 2.26604E-01
 -1      1603 3.10872E-03-9.22693E-03 2.20210E-01-1.93238E-02-1.97904E-01 3.07721E-01
 -1      1604-3.42939E-01-1.69069E-01 7.08361E-02 1.35931E-02 9.35892E-03-3.05099E-02
 -1      1605-6.75585E-02 2.94356E-02 6.08803E-02-4.76659E-02 5.65110E-02 6.37927E-03
 -1      1606-4.37622E-01-2.22214E-01-2.36705E-01-4.89736E-02-4.19439E-02 6.19514E-01
 -1      1607 9.21082E-02 7.74390E-02 1.38996E-01-8.85490E-03 1.13916E-01 3.59822E-01
 -1      1608 1.11247E-01 1.67467E-02 4.32432E-02-4.99945E-02-1.29729E-01-3.62310E-02
 -1      1609 6.90248E-02-5.24913E-02-2.57039E-02 7.46765E-03 1.47675E-01-3.22505E-02
 -1      1610-8.43459E-02-4.14532E-02-2.00627E-02 5.77234E-02-4.37813E-02-4.43062E-02
 -1      1611-5.77071E-02-1.83376E-02-1.87032E-02-2.03599E-02 7.13008E-02-2.27533E-02
 -1      1612 3.12248E-02 6.21935E-02 9.26758E-02 6.99165E-02 1.63662E-01 1.93892E-01
 -1      1613 5.87411E-02 2.32378E-01 6.00153E-02 7.41631E-03-2.64519E-01 1.52540E-01
 -1      1614 3.08167E-01 3.78091E-01 2.76871E-01 9.49101E-02 3.60054E-01 1.96584E-01
 -1      1615 7.04201E-02 6.96029E-02 8.80561E-02-3.88855E-02 7.92382E-03-3.51883E-02
 -1      1616-2.97273E-01-1.77906E-01-9.87439E-02 2.00660E-02-6.12609E-02-6.47423E-02
 -1      1617 9.02456E-02-9.84174E-02 1.39313E-02-8.36902E-02 1.77246E-01 2.20016E-01
 -1      1618-4.64159E-01-2.62329E-01-3.34953E-01 7.97667E-02-3.21601E-01 3.54977E-01
 -1      1619 3.04356E-01 1.45055E-01 6.72281E-02 7.49988E-02 8.50878E-03-2.22473E-02
 -1      1620-8.63616E-02-4.12407E-02-5.57725E-02-4.77299E-02 7.15737E-02-1.26240E-02
 -1      1621 5.76144E-02 4.36799E-02-4.12005E-02 2.02544E-02-1.58265E-01 1.80220E-01
 -1      1622 1.36390E-01 1.07373E-02-1.33696E-02 6.62404E-02 3.95662E-02-9.61106E-02
 -1      1623-2.23423E-01-2.27619E-01-1.83431E-01 3.07885E-02 6.38376E-02 1.18059E-01
 -1      1624-2.20500E-01-1.17929E-01-2.40634E-02-2.94384E-02 8.81391E-02 4.70656E-02
 -1      1625-3.92573E-02-1.75294E-01-4.17665E-02 5.95780E-02 1.01985E-01 2.12084E-02
 -1      1626 1.98703E-01 9.65130E-02 2.18477E-01-2.11463E-02 3.35803E-01 5.77418E-01
 -1      1627 3.30888E-01 3.23380E-01 7.45379E-02-1.50416E-02 3.94946E-02 8.83008E-02
 -1      1628 5.61362E-02-8.04643E-02-2.01022E-01-1.47318E-02 2.07570E-01 3.26594E-01
 -1      1629 3.92599E-01 3.75731E-01 3.70457E-01-7.33185E-02-2.77124E-01 4.32934E-01
 -1      1630 7.07736E-02 3.33315E-02-5.40632E-02 8.45937E-02-8.97993E-02 3.25330E-01
 -1      1631-1.71371E-01-3.38112E-02 2.92771E-02-5.04100E-02 9.51972E-02 4.85971E-02
 -1      1632 5.65845E-02 1.16536E-01 9.74720E-02-5.40829E-02-2.42013E-01 1.28505E-01
 -1      1633-1.75478E-01-2.22164E-01-1.11325E-01 1.51927E-02-5.14822E-02 3.04957E-01
 -1      1634-8.86100E-02-2.57250E-01-4.46447E-02-2.40736E-02 3.25019E-01 1.38673E-01
 -1      1635 5.12098E-02-1.80238E-02-2.88259E-02-8.23073E-02-7.01288E-02-1.99888E-03
 -1      1636 1.28891E-01-3.51405E-02-8.17014E-02-1.80733E-02-1.39244E-01 6.61306E-02
 -1      1637-8.63640E-02-1.26946E-01-9.82195E-02-3.72691E-02 2.47555E-01 1.04171E-01
 -1      1638 6.68696E-01 3.97630E-01 1.20863E-01-8.33495E-02-5.68888E-02-1.16457E-01
 -1      1639 2.35781E-01 1.73042E-01 2.09160E-01-4.40310E-02-1.26082E-01 5.86195E-01
 -1      1640-2.22751E-02-3.53540E-02-3.53899E-02 2.82229E-02-2.45474E-02-5.06600E-02
 -1      1641 3.94639E-02 4.19180E-02-1.68882E-02-8.08691E-02-2.02235E-01 2.80055E-01
 -1      1642 2.33784E-01 3.57845E-01 2.21085E-01 7.49239E-02-2.04620E-01 1.44574E-02
 -1      1643-3.00629E-01-1.98980E-01-1.05644E-01-1.00197E-01 2.41622E-01 4.45454E-01
 -1      1644 2.05307E-01 1.73936E-01 1.34227E-01-1.79378E-02-4.07431E-03-2.33081E-01
 -1      1645 2.22691E-01 1.23543E-02-5.26368E-02-1.67651E-02 1.70662E-01 5.49793E-02
 -1      1646 2.76682E-01 1.05659E-01 2.37381E-02 1.40964E-01 1.61061E-01 3.43931E-01
 -1      1647-3.81757E-01-1.63506E-01-2.02755E-02-6.00478E-02-1.01753E-01 4.20677E-01
 -1      1648-1.21907E-01-6.95677E-02-1.08834E-01 5.18519E-02-5.18171E-02-2.61691E-02
 -1      1649 2.77696E-01 2.39930E-01 2.22775E-01-2.02034E-02 1.32956E-01 4.10102E-02
 -1      1650-1.26804E-03-4.45669E-02 2.36079E-02-2.82607E-02-7.67583E-02-1.57134E-03
 -1      1651 9.22531E-02 9.70618E-02 1.73798E-02-6.09838E-02-1.18907E-01 4.17606E-01
 -1      1652-1.56363E-01-9.55021E-02-2.98922E-02-3.16175E-02 4.43926E-02 4.87895E-03
 -1      1653-1.24272E-01-4.18444E-02-1.61632E-01 6.12029E-02 3.73873E-01 3.83392E-01
 -1      1654 8.20263E-02 2.21939E-02 1.18423E-02 9.51983E-02-2.42072E-03-1.88593E-01
 -1      1655 1.42168E-01 2.01877E-01 2.78874E-01-4.65046E-05-2.86338E-01 1.56722E-01
 -1      1656-5.47971E-01-3.15851E-01-1.54136E-01 2.24865E-02 1.52346E-02-5.17277E-02
 -1      1657-7.98810E-02-1.55573E-01-6.49909E-02-5.57554E-03-9.58738E-02 5.19001E-02
 -1      1658-2.99291E-01-2.67794E-01-3.47867E-01 2.18210E-02-2.59700E-01 5.96443E-01
 -1      1659 2.08359E-01 3.35193E-02-1.86978E-01 2.75690E-02 5.21613E-02 4.63668E-01
 -1      1660-1.53618E-01-7.86540E-02-8.93601E-02-1.02317E-01 1.43530E-02-9.69606E-02
 -1      1661 2.37614E-01 2.47537E-01 1.78610E-01-7.98543E-02-3.62007E-01 2.75566E-01
 -1      1662 2.00618E-01 1.55916E-01 3.67317E-02 6.96738E-02-1.25709E-01 1.97147E-01
 -1      1663-8.55393E-02-2.49243E-02 8.24034E-02-3.83776E-02 2.49131E-02 4.87484E-01
 -1      1664-1.21789E-01-9.19803E-02-1.56912E-01-3.74972E-02 4.64694E-02-4.53486E-02
 -1      1665-4.65198E-01-3.72169E-01-4.96027E-01-5.08847E-03 9.26144E-02 6.51713E-01
 -1      1666-5.03420E-01-4.05812E-01-3.70853E-01 1.04101E-01-1.13405E-01 4.57213E-01
 -1      1667 1.18432E-01 7.92698E-02 1.02722E-01 3.65975E-02 2.86941E-02-5.59892E-02
 -1      1668-1.70139E-02-1.43996E-02 1.07460E-02 1.73761E-02-1.91587E-02-7.69173E-03
 -1      1669-2.55784E-01-2.68927E-01-2.51389E-01 4.90856E-02-3.00184E-01 3.32991E-01
 -1      1670 1.17917E-01 9.15752E-02-1.99341E-02 8.03119E-02 7.73466E-02-4.20214E-02
 -1      1671 8.19550E-02 1.74168E-02 6.43155E-02 3.35042E-02-1.55202E-01 3.88681E-01
 -1      1672-1.13324E-01-1.54439E-01-4.03975E-02 1.05128E-01-1.97231E-01 2.21270E-01
 -1      1673-2.22485E-01-1.58280E-01-7.46794E-02 5.56582E-02-5.29318E-02-1.10236E-01
 -1      1674 7.64213E-01 4.06614E-01-4.80339E-02 9.00927E-02 7.42624E-02-4.97263E-02
 -1      1675-1.18784E-03-5.88641E-02 8.95570E-02-3.65836E-02-8.39688E-02 2.67961E-01
 -1      1676 6.52944E-01 5.33409E-01 6.03749E-01-1.16841E-01-6.00898E-02 7.07559E-01
 -1      1677-1.33511E-01-1.74524E-01-2.09366E-01 1.67933E-02 2.77280E-01 1.51278E-01
 -1      1678 1.32319E-01 3.47615E-03 3.42702E-02-1.09497E-02 1.38936E-01 9.11574E-02
 -1      1679 9.88891E-03-3.59228E-02-3.96367E-02 2.48056E-02 8.81742E-02-1.82118E-02
 -1      1680-9.75479E-02-9.41587E-02-2.45088E-01 7.18684E-02 2.89242E-01 2.61812E-01
 -1      1681-4.78934E-01-2.88443E-01 1.68303E-02-1.28990E-01 1.96179E-01 3.80575E-01
 -1      1682-1.23863E-01-1.31942E-01-1.67922E-01-5.52303E-03 2.20502E-01 1.35089E-01
 -1      1683-2.01785E-01-1.37191E-01-8.67178E-02-1.73386E-02 1.73690E-01 6.11490E-02
 -1      1684-3.59992E-01-1.83622E-01-1.85299E-01 3.32759E-02 1.81338E-01 6.20038E-01
 -1      1685 1.17153E-01 2.17829E-02 2.37051E-02-5.50096E-02-4.59752E-02-4.97772E-02
 -1      1686-1.80351E-01-7.42321E-02-2.93259E-02-3.07171E-02 7.31633E-02 2.98619E-01
 -1      1687 4.67172E-02 6.88962E-02 4.40800E-02-2.66640E-03 1.18460E-01-6.65443E-04
 -1      1688 1.48355E-01 2.19216E-01 1.34409E-01 4.99713E-03-3.14993E-01 3.55830E-01
 -1      1689-2.49866E-01-1.83074E-01-1.24245E-01 2.69057E-02-9.38642E-02 1.05076E-01
 -1      1690 3.51111E-01 1.09901E-01 9.44617E-02-1.83255E-02 2.87274E-02-6.09919E-02
 -1      1691-1.40351E-01-8.72473E-02-2.92682E-02-2.72182E-02-1.35832E-01 2.79165E-01
 -1      1692 3.97067E-01 2.65592E-01 2.38164E-01 5.26804E-02 5.27525E-02-2.41029E-02
 -1      1693 1.23395E-01 5.91647E-02-2.70988E-02 7.09595E-02 4.01759E-02-1.47089E-01
 -1      1694 3.14727E-01 2.31055E-01 2.32078E-01-3.80681E-02-1.82626E-01 7.09733E-01
 -1      1695 1.77452E-01 2.18247E-01 2.41908E-01-8.36858E-03-2.96377E-01 2.63098E-01
 -1      1696-4.18259E-01-2.93382E-01-9.74092E-02-1.03513E-03 2.90955E-02 6.83203E-02
 -1      1697-2.68754E-01-2.13796E-01-1.99303E-01-4.11474E-02-3.35235E-02 1.83008E-01
 -1      1698-5.18447E-01-3.92378E-01-2.52406E-01-8.36322E-03-6.69203E-03-4.19570E-02
 -1      1699-6.13115E-01-4.02251E-01-1.61532E-01-3.04079E-02-8.76807E-02-6.99741E-02
 -1      1700-1.60871E-01-2.02395E-01 7.16672E-02 5.30173E-02 4.09876E-02 2.34698E-01
 -1      1701 6.35392E-01 4.93851E-01 4.57381E-01 1.23885E-01 9.73741E-02 5.84114E-01
 -1      1702 6.02935E-01 4.94988E-01 3.46822E-01 1.19835E-01 2.30809E-01 5.67101E-01
 -1      1703-2.39190E-02 1.16456E-02 3.88090E-02 3.85964E-02-8.53210E-02-7.42070E-03
 -1      1704 6.36697E-02 4.90333E-02 8.51780E-02 1.22568E-02 1.06284E-01 5.21859E-01
 -1      1705 1.37004E-01-2.05048E-02-5.15049E-02 2.23212E-02-1.00834E-01 3.96556E-01
 -1      1706 5.23929E-01 3.31099E-01 3.87023E-01-1.07266E-01-1.27592E-01 6.34924E-01
 -1      1707 5.56809E-01 4.29056E-01 5.33192E-01-1.24542E-01-2.82164E-01 5.36791E-01
 -1      1708-1.95498E-01-9.57395E-03 8.95734E-02 7.39467E-02 1.51280E-01 4.79637E-01
 -1      1709 3.67998E-01 2.06530E-01 1.19049E-01 6.28396E-02 6.10719E-02-1.01782E-01
 -1      1710 1.98113E-01 1.06635E-01 7.16159E-02-5.80520E-02 1.46882E-01 2.84131E-01
 -1      1711-5.95644E-02-1.36352E-01-2.45082E-01 6.51508E-03 3.70653E-01 2.43384E-01
 -1      1712 6.63980E-01 4.62699E-01 2.92853E-01-1.12844E-01-1.82597E-01 3.59452E-01
 -1      1713-8.27543E-03-2.98986E-01 3.11931E-02 4.37897E-02-2.55422E-02 3.95940E-01
 -1      1714-3.85865E-02-1.02189E-01-9.47274E-02 8.67155E-03-3.01855E-01 2.22898E-01
 -1      1715-1.75259E-01-3.05594E-01-1.66544E-01 2.65056E-02-2.77689E-01 1.57826E-01
 -1      1716-7.01379E-02-2.13316E-01-2.11070E-02-9.35141E-03 1.79265E-01 2.29574E-02
 -1      1717 1.02336E-01 5.16430E-02 6.67570E-02 1.98271E-02 9.14244E-02-3.66612E-02
 -1      1718 2.06629E-01 3.29454E-01 3.63381E-01 6.67462E-02 3.76934E-01 3.81880E-01
 -1      1719-1.86227E-02 9.40093E-02 4.98513E-02-1.37576E-01 4.77558E-02-1.92431E-01
 -1      1720-2.67306E-01-7.29447E-02-1.91798E-01-3.68032E-02-2.60897E-03 4.08612E-01
 -1      1721-1.00441E-01 9.62128E-02 2.26139E-02-5.04143E-02 5.85339E-02 3.63049E-01
 -1      1722 3.33021E-01 2.08520E-01 1.68436E-01 4.56858E-02 9.90465E-02 5.25412E-02
 -1      1723-3.50618E-01-1.50669E-01-9.75570E-02 7.20229E-02-3.61524E-02-1.31332E-01
 -1      1724-2.82157E-01-2.20071E-01-1.86456E-02 4.76928E-02 5.58204E-02 1.75560E-02
 -1      1725 5.42312E-01 3.00373E-01 4.46041E-02 1.98083E-01 1.33381E-01-1.37962E-01
 -1      1726 9.83692E-02 9.79541E-03 1.07793E-01-1.76824E-02-1.23117E-01-9.03917E-03
 -1      1727 7.19066E-02-4.36732E-02 3.33931E-02-7.10602E-02-2.81961E-01 2.31779E-01
 -1      1728 2.42228E-01 1.88925E-01 1.46490E-01-3.54242E-02-9.10545E-02 2.14657E-03
 -1      1729 3.80648E-02-2.53405E-01-3.99391E-02-1.29076E-02-2.71409E-01 2.33327E-01
 -1      1730 5.69539E-02 6.07638E-02 2.46434E-02-2.06756E-02-2.31988E-01 1.08456E-01
 -1      1731 4.14621E-01 2.39008E-01 4.19914E-02-6.33011E-02-5.30001E-04 9.38058E-02
 -1      1732-2.95198E-01-2.01327E-01-1.98201E-02-5.67018E-02 6.97542E-02-1.23763E-01
 -1      1733 1.33294E-01 1.44419E-01 1.23425E-01 1.39591E-02 6.68231E-02 1.52204E-01
 -1      1734-4.11698E-02-3.80968E-02 6.36085E-03-4.00266E-02 2.32389E-02-2.21736E-01
 -1      1735-1.79500E-02-1.40364E-02-7.82787E-02 8.51923E-02-1.21657E-02-6.15782E-02
 -1      1736 1.71010E-01 1.03398E-01 1.40830E-01 2.68374E-02 1.53790E-01 2.23526E-02
 -1      1737 1.48562E-01 1.69427E-01 1.72206E-01-6.23579E-03 7.05386E-02-2.79379E-02
 -1      1738 2.96806E-01 3.06292E-01 1.03660E-01 4.88535E-02-7.95834E-03 1.04016E-01
 -1      1739 6.58392E-01 4.94443E-01 3.09413E-01-2.41224E-02-2.11741E-02-5.94063E-02
 -1      1740-1.03674E-02 3.73280E-02 2.21004E-02 1.42621E-02-1.06105E-01-9.45317E-03
 -1      1741-2.55252E-01-1.41592E-01-2.05232E-01-7.85315E-02-2.75457E-01 6.68624E-01
 -1      1742-2.53373E-01-1.37579E-01-1.88354E-01-1.05056E-02-1.48555E-01 3.51763E-01
 -1      1743 1.16927E-02 9.37775E-02 7.66722E-02 9.03176E-03 3.12822E-01 1.43065E-01
 -1      1744-1.93381E-01-7.63617E-02-2.85386E-02 6.33341E-02-2.15172E-01 3.61386E-01
 -1      1745-2.96314E-01-8.64308E-02 4.01613E-02 1.28355E-01-2.10028E-01 3.37846E-01
 -1      1746 1.06365E-01 1.07077E-01 1.33756E-01 6.68072E-02-1.49764E-01-4.31166E-02
 -1      1747-5.79100E-01-4.11651E-01-2.38537E-01-7.30651E-03 3.07652E-02-5.61147E-02
 -1      1748 2.72966E-01 9.93889E-02 6.51577E-02 2.57950E-04 2.54043E-02 4.13984E-02
 -1      1749 6.43734E-01 4.47202E-01 3.72428E-01-5.74493E-03 2.58063E-02-5.46227E-02
 -1      1750 9.99313E-02 6.24440E-02 1.34149E-01-3.20180E-03 2.04271E-01 4.12473E-01
 -1      1751-5.30930E-01-2.83753E-01 2.26531E-02-9.34089E-02 1.67683E-01 3.85103E-01
 -1      1752-9.15216E-02-4.74531E-02-8.21990E-02 4.32854E-03-2.64386E-01 1.57182E-01
 -1      1753 3.40886E-01 3.54565E-01 2.61273E-01-7.60212E-02-2.79575E-01 2.10772E-01
 -1      1754-1.81061E-01-1.35503E-01-5.73888E-02-3.85395E-03 1.50432E-01 1.48418E-01
 -1      1755 2.52290E-01 1.13320E-01-2.21014E-02 2.02447E-02-1.17198E-01 1.14446E-01
 -1      1756-2.54557E-02-1.78418E-02-4.07967E-02-3.95106E-02 8.33183E-02-3.11459E-02
 -1      1757-2.39568E-01-8.86353E-02-7.51620E-02-8.68080E-02 2.93597E-02-8.26546E-02
 -1      1758 4.31253E-01 4.27304E-01 6.38277E-01 1.82284E-02 3.48842E-01 4.91352E-01
 -1      1759-4.31706E-01-2.56643E-01 1.39063E-02 1.27510E-01-5.97812E-02-5.05217E-02
 -1      1760-2.34302E-01-1.05219E-01-7.05697E-02 8.66669E-02-5.71471E-02-1.99952E-01
 -1      1761-1.36727E-03 4.71948E-04 2.64054E-02 6.42320E-02-7.65093E-02-9.68301E-02
 -1      1762 1.36188E-01 2.57914E-01 1.96125E-01 1.02420E-02 2.21833E-01 1.09438E-01
 -1      1763 3.10856E-01 3.35849E-01 9.30018E-02 9.83626E-02 2.25331E-01 3.17059E-01
 -1      1764-1.62061E-01-1.43316E-01-1.44181E-01 2.53414E-02 2.01978E-01 2.68044E-01
 -1      1765 3.46432E-01 3.84051E-01 2.69527E-01 1.88943E-01 3.60232E-01 3.49516E-01
 -1      1766 3.13644E-01 2.19744E-01 1.44527E-01-1.78143E-02-9.22924E-02 5.50190E-02
 -1      1767 1.42118E-01 3.23612E-02 6.84209E-02-4.21453E-02 2.29454E-01 8.24983E-02
 -1      1768-6.72309E-01-4.49974E-01-2.08676E-01 1.19701E-02-2.03276E-02-4.59681E-02
 -1      1769 1.27729E-01 1.07647E-01 4.33876E-02 2.17534E-02 7.54184E-03-2.24967E-01
 -1      1770-4.59861E-02-5.65602E-02-1.07301E-02 1.64144E-03-1.92824E-01 1.43544E-01
 -1      1771-2.09819E-01-3.70214E-01 3.43360E-02 6.61208E-02-2.08353E-01 1.02325E-01
 -1      1772 2.57616E-01 1.75765E-01 1.78249E-01 4.19786E-02 4.39328E-02-5.11277E-02
 -1      1773 1.13296E-01 7.53542E-02 8.61217E-02-2.63107E-02-5.21892E-02-4.58181E-03
 -1      1774 3.44088E-01 2.64872E-01 2.83356E-02 2.42722E-02 2.62861E-02 5.03860E-02
 -1      1775 8.20170E-02 5.36324E-02 1.01494E-01 5.24402E-02-3.45988E-03-6.10444E-02
 -1      1776 1.52339E-01 1.80812E-01-6.21514E-02 8.70193E-02 3.12111E-01 3.40739E-01
 -1      1777-9.13157E-02-4.53259E-02-9.81675E-02-5.78929E-03 1.19595E-01-5.02274E-03
 -1      1778-9.98363E-02-1.73235E-01-8.54886E-02-2.90721E-02-1.14005E-01 2.22020E-02
 -1      1779-1.06140E-01-4.95663E-02 2.44636E-02 5.60896E-02-7.32659E-02-1.95386E-02
 -1      1780-2.43349E-01-1.57154E-01-2.24060E-01-4.28210E-02 4.76933E-02-3.71360E-02
 -1      1781-4.61536E-01-2.46784E-01-1.25289E-01-1.74655E-01 7.53062E-02-1.83032E-01
 -1      1782 1.01390E-01-6.23066E-02 8.35588E-02 1.14573E-02-9.69833E-03 4.13868E-01
 -1      1783 5.57506E-02 1.61567E-02 7.05858E-02 7.87058E-03 8.69388E-02 3.15021E-03
 -1      1784-3.12834E-01-3.50335E-01-3.28298E-01-8.41363E-02 2.68745E-01 4.71865E-01
 -1      1785 5.68856E-02 9.17979E-02 1.14797E-01 1.38240E-01 5.36726E-03-1.50598E-01
 -1      1786-2.61285E-01-1.49839E-01-8.23065E-02-1.30944E-01 4.92049E-02-1.23493E-01
 -1      1787-4.67569E-01-2.74761E-01-1.54256E-01 2.38287E-02-2.79203E-02-9.14387E-02
 -1      1788 1.53402E-01 1.35204E-01 1.31277E-01 3.77462E-03-1.73079E-01 9.64781E-02
 -1      1789 3.38714E-01 2.03464E-01 1.21622E-01 1.55629E-01 3.73685E-02-1.05534E-01
 -1      1790 3.28039E-01 1.73119E-01 3.81653E-02 1.12182E-01 2.89073E-02-7.92075E-02
 -1      1791 1.13681E-01-3.70289E-03-3.46459E-02 1.15830E-01-6.53024E-03-1.61656E-01
 -1      1792 1.73578E-01 5.71631E-02 9.62550E-02-3.86307E-03-1.69657E-01 1.42282E-03
 -1      1793 2.45963E-02 2.01996E-03-3.49214E-02-3.91188E-02-1.19435E-01-2.45592E-02
 -1      1794-4.26732E-01-2.77697E-01-2.07794E-01-3.35448E-02-5.67266E-03-8.02681E-02
 -1      1795 3.15534E-01 1.63432E-01 1.31597E-01 6.75993E-02 7.47807E-02-3.97637E-02
 -1      1796-2.06495E-03-1.30432E-01-1.45510E-01-7.32171E-02 2.18824E-01 2.39221E-01
 -1      1797 2.01588E-01 1.19352E-01 1.15673E-01 3.53175E-02 1.31282E-01 3.14958E-02
 -1      1798-5.89641E-01-4.40503E-01-3.74978E-01-1.74835E-02-1.34442E-01 6.40161E-01
 -1      1799 3.34435E-01 2.21780E-01 1.84231E-01 5.86995E-02 5.74536E-02-1.68094E-02
 -1      1800-1.27181E-01-1.38337E-01-4.42462E-02-2.55908E-02 2.47389E-01 2.44293E-01
 -1      1801-3.04754E-01-1.50546E-01-1.66157E-01-1.00749E-01 4.25852E-02-1.89673E-01
 -1      1802-1.86359E-01-3.17710E-01-7.35460E-02-2.06787E-02-1.17735E-02 1.80713E-01
 -1      1803 1.71847E-01 2.22306E-01 1.55670E-01 5.54415E-02 2.81788E-01 1.39661E-01
 -1      1804-2.48464E-01-2.49145E-01-1.24738E-01-3.87705E-02-6.94937E-02 1.16735E-01
 -1      1805 6.87882E-01 5.13039E-01 3.08356E-01-1.30952E-01-2.42626E-01 4.83641E-01
 -1      1806-1.09448E-01-6.65123E-02-1.05163E-01 1.36785E-02 1.26408E-01 4.10651E-01
 -1      1807-3.67337E-01-2.70993E-01-2.38836E-01-5.71227E-02 3.14462E-02-1.91847E-01
 -1      1808-1.75570E-01-2.06902E-01-1.89177E-01 3.71136E-02-2.08461E-01 1.59213E-01
 -1      1809 1.21787E-01 7.72262E-02 2.69320E-02 9.25796E-03-7.28548E-02-3.09949E-03
 -1      1810 3.57892E-01 1.16258E-01 5.88397E-02-3.22371E-02 1.02815E-02-1.04601E-01
 -1      1811 7.94063E-02 1.66786E-01-8.46605E-02-7.32332E-03 5.03116E-02 2.39240E-01
 -1      1812 5.92770E-01 4.17717E-01 1.06896E-01 8.24313E-02 5.39266E-02-6.41214E-02
 -1      1813-4.39463E-01-1.92541E-01-7.45007E-02-1.37351E-01 5.19667E-02-9.01093E-02
 -1      1814 3.11163E-01 3.53288E-01 7.06895E-02 8.82576E-02 2.70216E-01 2.01862E-01
 -1      1815 4.05439E-02 2.90121E-02 5.31220E-02 3.42281E-02 6.61005E-02-1.36288E-03
 -1      1816-7.64362E-03-7.44081E-02-4.79595E-02 7.88508E-03 1.23796E-01 1.95155E-02
 -1      1817-3.88182E-01-2.10337E-01 3.46165E-02-1.13298E-01 5.67386E-02-1.14306E-01
 -1      1818-1.48607E-01-2.13375E-01-1.46441E-01 1.29482E-02 2.95567E-01 1.51496E-01
 -1      1819 4.12266E-02 1.98506E-03 7.72656E-02-1.89981E-02 2.22030E-01 5.35689E-02
 -1      1820 4.24688E-02 1.47677E-02 3.90806E-02 3.18533E-02 2.34419E-01 7.14418E-02
 -1      1821-5.81481E-01-3.41495E-01 6.18548E-02-1.48159E-01 4.14467E-02-7.27125E-02
 -1      1822-1.98919E-01-2.18626E-01-1.81344E-01 6.00486E-02 5.92625E-02 2.47946E-02
 -1      1823-3.02892E-01-2.94443E-01-2.67677E-01 1.34492E-02-8.98955E-02 1.26409E-01
 -1      1824 3.48957E-01 1.87650E-01 1.90010E-02 7.07402E-02 1.37265E-02-6.18375E-03
 -1      1825 4.82389E-02 3.32581E-02 7.81025E-03 2.84241E-02 4.43265E-02-4.56332E-02
 -1      1826 3.00327E-01 2.00319E-01 1.63997E-01-1.41288E-02 1.35391E-01 4.42948E-02
 -1      1827-1.16910E-03 1.91126E-02-4.84166E-02 7.52275E-02 3.35514E-02-4.91715E-02
 -1      1828-7.68205E-02-7.54110E-02-1.17471E-01-7.98161E-02 2.80038E-01 2.49880E-01
 -1      1829 4.23188E-01 2.41086E-01 1.85481E-01 4.27043E-02 2.44287E-02-7.63105E-03
 -1      1830-6.49172E-01-5.30013E-01-3.74854E-02 4.11345E-02-4.06047E-02-2.08046E-02
 -1      1831-8.18427E-02-1.31235E-01-7.84361E-02 2.37124E-03-2.21634E-01 6.21339E-02
 -1      1832 1.36255E-01 5.71932E-02 7.43332E-02-1.92449E-02-1.31630E-01 2.65954E-02
 -1      1833 4.46980E-02-9.17726E-03 7.24999E-02-1.91755E-02-2.35121E-01 8.88069E-02
 -1      1834-3.14607E-02 4.43521E-03-5.30063E-02 1.70830E-02-5.21383E-03-1.15545E-01
 -1      1835-7.26727E-02-5.90925E-02 6.53516E-02 8.24276E-02-1.85820E-01 1.92916E-01
 -1      1836-2.94106E-01-2.27657E-01-1.58463E-01-3.72393E-02-1.47429E-02 1.53536E-01
 -1      1837 3.60567E-02 1.20251E-01-9.95500E-02 9.87275E-02 2.33582E-01 9.81344E-02
 -1      1838 4.10262E-01 2.06665E-01 7.84404E-02 6.69420E-02 3.20795E-02-4.37907E-02
 -1      1839-6.47681E-01-4.62350E-01-2.86081E-01 2.70878E-02-5.03809E-02-5.77075E-02
 -1      1840 1.78235E-01 1.08322E-01 6.83258E-02-3.87641E-02-8.71026E-02 1.15277E-01
 -1      1841 3.31004E-01 2.55466E-01 7.52299E-02-1.03942E-01-5.79766E-02-5.19692E-02
 -1      1842 3.14257E-02 4.39240E-03 4.95769E-02 1.37528E-02 6.16429E-02 2.35524E-02
 -1      1843 1.73854E-01 2.62609E-01 2.16362E-01-3.65587E-02 2.27578E-01 3.01837E-02
 -1      1844 3.40194E-03-3.34127E-02-1.05768E-02 4.52373E-02 3.54358E-03-2.25842E-01
 -1      1845-3.77507E-01-2.53550E-01-1.44170E-01 3.00084E-02-8.85518E-02-8.69607E-02
 -1      1846-2.53343E-01-1.93757E-01-9.08615E-02-8.93035E-02 8.52971E-02 2.18396E-03
 -1      1847-2.47376E-01-1.76638E-01-1.28613E-01 1.26798E-02-1.26410E-01 2.27605E-02
 -1      1848-5.71751E-01-4.86567E-01-6.03323E-01-4.78792E-02 3.43924E-01 4.01262E-01
 -1      1849-3.37728E-01-2.15492E-01-1.17705E-01-5.29649E-02 1.08625E-01 2.81403E-03
 -1      1850-1.41698E-01-1.53975E-01-6.51425E-02 1.25088E-02 2.07440E-01 1.98739E-01
 -1      1851-3.60571E-01-2.57620E-01-3.28663E-01 2.47801E-02-2.70091E-01 4.79111E-01
 -1      1852-2.78117E-02-5.52776E-02-1.01926E-01 1.67486E-02 2.18669E-01 1.83217E-01
 -1      1853-7.80841E-02-4.83536E-02-7.06603E-02 9.16508E-03-1.30833E-01 4.03295E-02
 -1      1854-2.69897E-01-1.80074E-01-1.36844E-01-1.88787E-02-1.41249E-01 1.69572E-01
 -1      1855-4.40087E-01-3.60997E-01-1.93896E-01-1.99167E-02 4.76713E-02-1.74327E-02
 -1      1856-3.35904E-02-4.22283E-02-3.75199E-02-9.01021E-02-2.72588E-03-1.43738E-01
 -1      1857-1.46040E-01-9.29441E-02-1.07381E-01-1.93073E-03 3.98712E-01 2.74425E-01
 -1      1858 2.21382E-01 1.33860E-01 1.15543E-01 7.70970E-03 1.14662E-01 1.42569E-01
 -1      1859-2.42212E-01-1.49374E-01-1.19301E-01-1.85610E-01 4.17117E-03-2.41360E-01
 -1      1860-1.12395E-01-2.55586E-01-1.03034E-01 7.54896E-02 1.08402E-01 3.72691E-01
 -1      1861 5.12291E-01 3.88679E-01 2.07309E-01 3.30984E-02 4.37396E-02-4.18534E-02
 -1      1862 7.28234E-02 1.28591E-01 9.04353E-02-1.32211E-02 1.67224E-01 1.29780E-02
 -1      1863-7.09911E-01-3.69937E-01-4.39135E-02 1.32346E-01-8.06125E-02-9.90912E-02
 -1      1864 8.10704E-02 9.32036E-02 7.19714E-02-2.19267E-02 7.51410E-02 1.40201E-02
 -1      1865 2.74203E-01 1.68314E-01 1.58031E-01-5.39646E-02-5.50339E-02 4.78443E-01
 -1      1866 2.47538E-01 3.94989E-01 2.68749E-01-5.89110E-02-3.08194E-01 4.15967E-01
 -1      1867 2.04994E-01 1.23609E-01 1.85761E-01 1.50955E-02-1.55365E-01 2.17016E-01
 -1      1868-2.58674E-02 1.76423E-01 1.37148E-01-2.56549E-02-2.35739E-01 1.54890E-01
 -1      1869 3.12929E-02-4.60290E-02-6.24382E-02-4.57308E-02-7.75389E-02 3.68198E-01
 -1      1870 2.84546E-01 1.73644E-01-2.67253E-02-8.04399E-02-3.29995E-02-1.95654E-01
 -1      1871-3.70309E-01-1.57267E-01-1.72261E-01 1.56372E-01 1.03339E-01 7.54688E-01
 -1      1872-2.07408E-01-1.79430E-01-5.57972E-02 3.54603E-02-1.15214E-01 4.84919E-02
 -1      1873 7.82131E-03 1.39880E-01 2.07435E-02 5.96686E-03-4.21184E-02 3.65264E-01
 -1      1874 6.57773E-02 7.25044E-02 4.62270E-02-3.22922E-02 3.12645E-02-6.05342E-02
 -1      1875-2.09827E-01-3.02699E-01-2.00259E-01-2.61105E-02 3.06044E-01 3.49135E-01
 -1      1876 1.24900E-02 9.61692E-02 4.37976E-02 5.79901E-02-1.13048E-01 2.62464E-01
 -1      1877-4.34831E-01-3.65834E-01-2.23305E-01-8.22674E-02 1.55868E-02-7.63503E-02
 -1      1878 3.72548E-01 3.20275E-01 1.16045E-01 7.98356E-03 3.47180E-02 1.75516E-01
 -1      1879 6.52178E-03-1.05141E-02-3.86754E-02-2.03225E-02-1.68156E-01 3.22134E-02
 -1      1880-9.53735E-02-7.09557E-02 1.74997E-02-3.34088E-02 7.45218E-02-3.32999E-02
 -1      1881 1.61301E-02 3.99318E-03 5.95774E-02 2.87420E-02 2.45651E-02 1.78681E-03
 -1      1882 4.52111E-02-1.72020E-02 1.64741E-02-1.01927E-02-9.33344E-02-8.48101E-03
 -1      1883-1.60496E-01-1.70159E-01 5.33275E-02 1.19410E-02 6.45726E-02 1.23536E-01
 -1      1884 4.84600E-02 4.87762E-02 3.71186E-02 6.96958E-02-2.58094E-03-1.09245E-01
 -1      1885-1.92851E-01-9.84938E-02-6.15043E-02-5.41123E-02 8.23484E-02-1.99953E-03
 -1      1886-3.48760E-01-2.97572E-01-2.15152E-01 6.82340E-02-3.47125E-01 4.48127E-01
 -1      1887 2.23532E-01 1.89932E-01 1.67221E-01 3.97262E-02-9.65702E-02 3.32183E-02
 -1      1888 1.25146E-03 2.65668E-02 2.69905E-02 3.96125E-02-1.21422E-01-1.18361E-02
 -1      1889-2.84646E-02 3.42205E-02 2.70301E-02-5.93116E-02 3.48673E-02-3.98345E-02
 -1      1890-3.64754E-01-1.98936E-01-1.14878E-01 5.21098E-02-5.08993E-02-1.51517E-01
 -1      1891-5.11086E-01-3.81283E-01-2.48480E-01-5.40592E-02 2.58975E-02-8.58998E-02
 -1      1892 6.18676E-02 3.55546E-02 1.92664E-02-5.56165E-03 2.18397E-03-2.31639E-01
 -1      1893-5.18721E-01-2.83700E-01-3.20596E-02-1.02558E-03 4.27508E-02-5.69506E-02
 -1      1894-4.08656E-02-5.87902E-02-5.06505E-02-1.05359E-01-3.55928E-03-1.39469E-01
 -1      1895-4.92440E-02 4.58512E-02 2.35322E-02-2.88641E-02 2.33452E-01 7.91627E-02
 -1      1896 6.91186E-01 4.34874E-01 1.62664E-01-2.90089E-02 5.43132E-02-4.48979E-02
 -1      1897 1.65569E-02 7.21094E-02 3.56162E-02-7.70020E-02-2.26601E-02-4.94107E-02
 -1      1898-7.69661E-02-1.03692E-01-1.08836E-01 3.36918E-02 8.42373E-02-3.39669E-02
 -1      1899-2.67063E-02-4.47812E-02-3.26563E-02-4.59282E-03-1.88027E-02-1.06583E-02
 -1      1900-4.28104E-02 4.36997E-02-1.98801E-02-8.47677E-02 6.92728E-03-6.98422E-02
 -1      1901 2.87011E-01 1.56124E-01 8.83634E-02-9.35606E-03 1.40431E-01 1.01913E-01
 -1      1902-5.08048E-02-1.81224E-02 3.11509E-02 4.89852E-02-1.34262E-01 4.72559E-02
 -1      1903-4.17775E-01-2.75649E-01-1.94320E-01 2.65774E-02-7.16835E-02-3.89649E-02
 -1      1904-1.26456E-02-1.66519E-02 1.30777E-02-9.27897E-03-2.76889E-02-5.04650E-02
 -1      1905-2.76389E-02-2.76233E-02-2.24982E-02-5.70178E-03-6.74381E-03 6.34769E-03
 -1      1906-1.51870E-01-7.75717E-02-1.30186E-01-7.34615E-02-1.56178E-01 3.65819E-01
 -1      1907-1.84122E-01 8.22641E-03-2.04581E-01-9.71978E-03 2.90486E-01 1.50774E-01
 -1      1908 4.23347E-01 3.04354E-01 2.33237E-01-1.31749E-02 5.37018E-02-1.12040E-01
 -1      1909 6.98356E-01 5.28242E-01 7.01368E-01 5.39783E-02-1.76846E-01 7.17861E-01
 -1      1910 2.25360E-02 1.88656E-02 7.49714E-02-1.06914E-01-1.17510E-01 3.46141E-01
 -1      1911-4.16152E-01-1.87907E-01-1.36078E-01 4.18323E-02 1.22547E-02-7.20152E-02
 -1      1912-2.90907E-01-2.44039E-01-1.44506E-01-2.23608E-02-3.85741E-02 7.66480E-03
 -1      1913 8.13622E-02 9.29170E-02 1.45148E-02-8.70303E-02-2.47947E-02-7.60845E-02
 -1      1914 2.09716E-01 1.66397E-01 1.52187E-01-1.13058E-01-2.92641E-02-1.19340E-01
 -1      1915 1.89907E-01 2.22346E-01 3.69062E-01-1.16647E-03-3.21418E-01 2.45852E-01
 -1      1916 5.84239E-01 3.02828E-01-3.02651E-02-1.10839E-01-9.76261E-02 3.81644E-01
 -1      1917-2.19507E-01-1.07830E-01-6.14718E-02-4.41488E-02 8.18371E-02-8.50491E-02
 -1      1918 8.05437E-01 5.87552E-01 2.20447E-01 1.96445E-02-3.81062E-02 2.75134E-02
 -1      1919 2.55381E-01 1.13019E-01 3.97397E-02-1.12878E-01-1.23653E-02-1.97947E-01
 -1      1920 4.80065E-02 2.27299E-03 3.61311E-02-1.09175E-02-3.58237E-02 1.24354E-01
 -1      1921-5.72334E-01-3.89827E-01-2.61938E-01 4.01073E-02-3.22890E-02-4.47036E-02
 -1      1922-2.91722E-01-1.03934E-01-1.23671E-01-3.24812E-02 1.29906E-01 2.64756E-03
 -1      1923 1.35159E-01 8.44915E-02 1.22142E-01-3.12036E-02 7.75199E-02 2.55419E-02
 -1      1924 6.20490E-01 4.24162E-01 1.92959E-01-1.83218E-02 3.18589E-03-5.42680E-02
 -1      1925 9.32792E-02 1.02110E-01 8.11253E-02 6.24822E-02-2.09218E-01 2.29593E-02
 -1      1926 2.27282E-01 1.73683E-01 7.85621E-02 8.28044E-02 3.49358E-02-6.49667E-02
 -1      1927-1.97201E-01-1.04497E-01-4.15199E-02 5.77631E-02-2.52166E-02-4.28130E-02
 -1      1928 1.73714E-01 1.04850E-01 1.17160E-01-5.29161E-02-8.98813E-02-6.71245E-02
 -1      1929 4.70729E-01 3.41435E-01 3.25565E-01 7.64312E-02 3.16061E-01 4.09458E-01
 -1      1930-4.89290E-01-4.47218E-01-5.86956E-01 5.08636E-02-2.27308E-01 6.87993E-01
 -1      1931-3.78543E-01-3.94651E-01-5.67087E-01-3.24340E-02 1.00679E-01 6.48486E-01
 -1      1932 4.29791E-01 2.83844E-01 1.85322E-01-4.51803E-02-9.53263E-03-2.07652E-02
 -1      1933-4.07231E-01-2.37214E-01-1.05424E-01-5.78765E-02 2.06045E-02-2.27916E-02
 -1      1934-8.52754E-02 3.08350E-02 2.89892E-02 7.23723E-02-1.22870E-02-1.22049E-01
 -1      1935-1.05185E-01-1.81066E-02 4.10075E-02 7.91748E-02 5.03100E-03-1.72036E-01
 -1      1936-3.54907E-01-1.74729E-01-1.00991E-01 3.90457E-02-7.74020E-02-8.19992E-02
 -1      1937 1.59216E-02-1.14000E-02 2.88994E-03 6.89550E-02-1.45031E-03-1.36603E-01
 -1      1938 2.37541E-01 2.58395E-01 6.51210E-02 8.57955E-02 2.60217E-02 1.24471E-01
 -1      1939-1.77663E-01-6.80217E-02-2.04224E-02-1.11082E-01 4.23938E-02-8.56693E-02
 -1      1940-2.95266E-01-2.00464E-01-6.84002E-02-1.02151E-01 1.02411E-01-1.14883E-01
 -1      1941-2.72006E-01-2.04806E-01-2.57417E-01-8.79670E-03 3.52866E-02 5.79030E-01
 -1      1942 1.87226E-01 1.04736E-01-4.08818E-03-8.99894E-02-5.43014E-02-5.78306E-02
 -1      1943-4.44927E-02-1.49669E-02 4.14357E-02-1.56944E-02 1.55041E-01 3.03402E-01
 -1      1944 6.57038E-02 5.84264E-02 1.90193E-02-1.70647E-02-6.52012E-03-2.08918E-01
 -1      1945 2.34001E-01 1.73763E-01 1.58605E-01-6.04738E-02-2.88298E-01 1.92985E-01
 -1      1946 1.07625E-01 1.65405E-01 1.12857E-01 1.25107E-02-2.10900E-01 6.01722E-02
 -1      1947-1.03753E-01-1.55038E-01-9.37556E-02-4.87793E-02 1.84577E-01 1.53264E-02
 -1      1948 2.00720E-01 1.73892E-01 4.39213E-03-1.84112E-02 1.05764E-01 1.80119E-01
 -1      1949-1.50886E-01-6.82531E-02-6.87223E-02 7.58733E-02-2.28551E-02-1.49129E-01
 -1      1950 4.52754E-01 2.81372E-01 1.37029E-01-3.29700E-02 2.86402E-02-2.34533E-01
 -1      1951 1.04651E-01 3.30674E-04 1.85990E-02 3.57426E-02 8.33771E-02 8.34398E-03
 -1      1952-1.86800E-01-1.48467E-01-2.93821E-01-4.77372E-03-1.30337E-03 2.07417E-01
 -1      1953 8.07986E-02 1.62495E-01 8.40991E-02 3.09627E-02-1.78548E-01-8.80133E-03
 -1      1954 5.60448E-02 5.42603E-02 1.83431E-01-1.63978E-02 1.20005E-01 4.16981E-01
 -1      1955-1.37369E-01-2.77164E-01-2.00852E-01-2.31676E-02-3.06247E-01 2.13826E-01
 -1      1956 2.64888E-01 1.74401E-01 1.00062E-01-5.41586E-02-6.39434E-02-2.91286E-02
 -1      1957 1.50790E-01 1.08491E-01 1.13815E-01 9.06619E-02 2.11381E-02-1.36368E-01
 -1      1958-2.90936E-01-1.17357E-01 1.92040E-02-8.66360E-02 1.70326E-01 4.82920E-01
 -1      1959-2.36188E-02 8.05719E-02 6.71516E-02-1.40211E-02 1.70424E-01 6.10269E-02
 -1      1960-2.43662E-01-1.67732E-01-1.48877E-01 1.22404E-01-3.85827E-02-1.52485E-01
 -1      1961-2.92311E-01-2.30397E-01-1.79921E-01 7.88579E-02-5.69628E-02 1.51461E-02
 -1      1962 2.92757E-02 6.91800E-02 7.49838E-02 9.18079E-03-1.00438E-01-4.31287E-03
 -1      1963-1.77060E-02 4.36625E-02 3.88199E-02 6.48531E-02-8.42746E-02-4.31221E-02
 -1      1964 1.37050E-01 1.46962E-01 5.97469E-02 5.11056E-02 2.56286E-01 1.37800E-01
 -1      1965-3.82973E-01-2.43832E-01-1.48948E-01 1.29957E-01-6.11220E-03-9.46436E-02
 -1      1966-1.44949E-01 1.14820E-02 5.34267E-02 4.16654E-02-8.14862E-02 2.71660E-02
 -1      1967-3.30809E-01-2.17975E-01-2.65981E-01-4.33538E-02 3.66414E-02-7.34683E-02
 -1      1968-3.96081E-02-3.77833E-02 1.61997E-02 1.74550E-01-4.76585E-02-1.78432E-01
 -1      1969 5.82753E-02 4.86074E-02-5.26722E-02-9.24549E-02-6.66471E-02-6.78906E-02
 -1      1970-3.22847E-01-1.85919E-01-1.81586E-01 1.27355E-02-1.35537E-01 2.31691E-02
 -1      1971-1.52916E-01-1.24420E-01-1.42016E-01 2.66673E-02-3.43717E-02-9.38706E-03
 -1      1972-4.94954E-01-4.28381E-01-3.52621E-01-5.75575E-02 2.95341E-01 3.83393E-01
 -1      1973 1.77839E-01 2.92141E-01 1.45060E-01 4.11355E-02 3.57242E-02 1.83731E-01
 -1      1974-4.77992E-01-3.13221E-01-2.85198E-02-1.20749E-01 3.15483E-02-1.07712E-01
 -1      1975-3.96705E-01-2.59361E-01-1.84564E-01-2.14698E-02-8.00216E-02 2.20801E-02
 -1      1976-4.13272E-01-2.46761E-01-1.33345E-01-6.19582E-02 6.92941E-02 1.88193E-02
 -1      1977-1.77305E-01 2.95882E-03-4.26403E-02 6.93008E-03 2.29662E-01 8.62848E-02
 -1      1978 3.27340E-01 6.59793E-01 2.89015E-01 4.79938E-02 3.25375E-01 1.59983E-01
 -1      1979-1.74399E-01-2.67150E-01 9.30089E-02 9.81280E-02-1.78667E-01 2.16338E-01
 -1      1980 1.21594E-01 1.03378E-01 2.18366E-03 4.43490E-02 1.76052E-02-2.17007E-01
 -1      1981 4.01554E-02 7.36910E-02 1.99482E-02-1.73296E-03 1.72973E-01 1.87771E-02
 -1      1982-4.29741E-02 9.46174E-03 1.88612E-02 7.41030E-02-2.04979E-02-1.76164E-01
 -1      1983 2.88924E-02 8.74781E-02 3.45367E-02-5.66682E-02 1.72580E-01-2.36172E-02
 -1      1984-1.05427E+00-6.28456E-01-7.36107E-02-8.48841E-02 1.37580E-02-7.13101E-02
 -1      1985-5.25253E-01-3.77267E-01-3.78898E-01 5.53047E-02 5.29323E-03 7.29301E-02
 -1      1986 3.36221E-01 2.05865E-01 1.05741E-01-7.85846E-02-2.34301E-02-1.20661E-01
 -1      1987-1.95981E-02-3.10930E-02-5.11033E-02 9.88474E-02-2.68006E-02-1.43005E-01
 -1      1988-9.70067E-02-8.46421E-02 9.21058E-03-3.12894E-02 1.57757E-01 6.94315E-02
 -1      1989 3.79052E-01 3.47881E-01 2.53391E-01-7.61316E-02-5.08513E-02-4.45135E-02
 -1      1990 1.89978E-01 1.45685E-01-4.22431E-02 3.31194E-02-8.13987E-02 1.37469E-01
 -1      1991-4.15420E-01-2.27240E-01-1.85478E-01 5.84252E-02 7.93439E-03-2.15240E-02
 -1      1992-8.75356E-02-2.09572E-01-2.03612E-01 5.35241E-02-2.86685E-01 5.96969E-01
 -1      1993 7.90742E-02 1.31116E-01 1.02624E-01-6.14442E-02-5.92799E-04-1.62381E-01
 -1      1994 3.13345E-02 8.18527E-02 1.13257E-02-6.35047E-02-3.23887E-02-1.26582E-01
 -1      1995-8.16753E-02-4.34812E-02-5.08812E-02-7.57647E-03-9.66775E-02 1.25390E-02
 -1      1996 1.22196E-01 1.84864E-01 1.12567E-01-3.48402E-02 2.47985E-01 6.08141E-02
 -1      1997 2.03918E-02 2.32712E-02-4.32272E-02-1.20705E-01-4.17199E-02-1.01006E-01
 -1      1998-2.00807E-01-1.70609E-01-8.62592E-02 3.09414E-04 1.62587E-02-1.92301E-01
 -1      1999-2.85219E-01-2.42978E-01-8.14682E-02 1.10295E-01-2.78828E-02-4.00411E-02
 -1      2000 2.39781E-01 1.82172E-01 1.72739E-01 3.77111E-02 3.98891E-02-7.14334E-02
 -1      2001 3.24625E-02-2.46101E-03 6.34310E-02-9.36698E-02-1.36479E-02-1.00910E-01
 -1      2002 1.80533E-02-2.22430E-03 1.23385E-02 2.28955E-02-1.53835E-01 1.38192E-02
 -1      2003 1.02331E-01 1.24828E-01 1.28665E-01-1.06908E-02-6.51231E-02 3.00827E-01
 -1      2004-2.11805E-01-7.10511E-02-1.17806E-01-3.09383E-02-1.46611E-01 2.30203E-01
 -1      2005-1.79190E-01-1.25597E-01-1.67089E-01 1.05885E-03-1.95880E-01 9.86138E-02
 -1      2006-4.76733E-01-2.94890E-01-1.71039E-01-6.74110E-02 6.12974E-03 7.91387E-02
 -1      2007 5.89506E-01 3.32131E-01 2.36379E-01-6.52312E-02-4.86364E-02-1.62002E-01
 -1      2008-5.23733E-02-8.66512E-02-3.66425E-02-8.47007E-02 3.75214E-02-8.45011E-02
 -1      2009-1.32769E-02 3.12771E-02-5.69008E-02-3.01478E-02 3.82916E-02-5.02632E-02
 -1      2010 3.29850E-01 2.52147E-01 1.87393E-01-1.21752E-02-8.84627E-02-7.00204E-02
 -1      2011 4.89578E-01 2.76667E-01 1.15071E-01-2.80320E-02-1.45927E-02 2.39210E-02
 -1      2012-2.07257E-02-2.86996E-02 5.72031E-02 4.20748E-02-3.94581E-02-1.20699E-01
 -1      2013 6.81817E-02 9.80001E-02-1.88928E-02-9.10240E-02-5.65446E-02-3.48279E-02
 -1      2014-2.38194E-01-1.97885E-01-1.44603E-01-1.61091E-02-6.72992E-03-2.14148E-01
 -1      2015 1.43073E-02 2.72490E-02 7.75400E-02-1.09207E-01-1.33827E-02-1.13509E-01
 -1      2016 1.64454E-01 6.82686E-02 6.88899E-02 5.27333E-02 6.43767E-02-6.65158E-02
 -1      2017 8.31086E-02 2.79151E-02-2.47253E-02-6.84846E-02-6.24846E-02-1.08067E-01
 -1      2018 5.81236E-02 1.18768E-01 1.08928E-01-1.74215E-02-1.56434E-01 8.18215E-02
 -1      2019-4.53517E-01-2.83275E-01-1.52341E-01 7.36141E-02-4.65386E-02-3.15010E-02
 -1      2020 4.34962E-02 7.66069E-02 8.31603E-02-2.75276E-02-1.31603E-01 1.32626E-02
 -1      2021 3.14536E-01 2.01527E-01 8.89193E-02-2.72423E-02-6.24251E-02 4.74563E-02
 -1      2022-7.60849E-02-6.48821E-02-1.25961E-01 8.77713E-02-5.01658E-02-1.81604E-02
 -1      2023 6.82091E-02 1.50710E-01 7.87414E-02 6.51655E-02-1.68443E-01 2.13260E-02
 -1      2024-3.01261E-01-2.78120E-01-8.62534E-02 9.19238E-02-3.00803E-03-4.11151E-02
 -1      2025 2.42649E-03-1.21667E-02-3.19718E-02 1.39737E-01-4.31275E-02-1.61609E-01
 -1      2026 4.71082E-01 2.45816E-01 1.80945E-02-1.16495E-01-2.83193E-02-8.64064E-02
 -1      2027 4.12005E-01 4.49067E-01 3.74456E-01 7.38311E-02 3.17891E-01 4.16783E-01
 -1      2028 2.72349E-01 1.54178E-01 1.37240E-01-1.05472E-01 1.22198E-02-1.33341E-01
 -1      2029-6.17852E-02-8.06576E-02-5.88240E-02 2.27375E-02 1.48783E-01 1.35668E-02
 -1      2030-2.85196E-02 4.74152E-02 2.58409E-02 1.87801E-02 1.46052E-01 1.82614E-02
 -1      2031 3.87086E-01 2.43851E-01 1.51260E-01-6.01558E-02-3.60051E-02-7.20410E-02
 -1      2032 4.27489E-01 3.89282E-01 7.61328E-02-2.26282E-02 1.65441E-02-4.94689E-03
 -1      2033-2.63767E-01-8.02873E-02-6.79410E-02 7.83013E-02-6.79058E-02-9.06922E-02
 -1      2034-1.91853E-02-1.96530E-02 1.83325E-03 5.79354E-02-5.54515E-02-2.21052E-02
 -1      2035 1.67046E-01 5.65046E-02 1.39523E-02-9.85113E-02 3.59000E-02-1.09329E-01
 -1      2036-9.75525E-03-2.50094E-02-4.61367E-02-6.52650E-02-3.90358E-02-4.25988E-02
 -1      2037-5.85313E-02-9.15847E-02-8.36986E-02 2.92408E-03-6.80822E-02-1.67484E-02
 -1      2038-5.60828E-02 1.26341E-01-3.92120E-02-2.37227E-04-1.78005E-01 9.11724E-02
 -1      2039 3.66201E-01 2.72669E-01-4.91578E-03 3.39996E-02-5.49236E-02 1.40682E-01
 -1      2040-3.91921E-01-1.29237E-01-7.66976E-02 8.77673E-02-4.25231E-02-2.36270E-02
 -1      2041-1.60752E-02 2.08913E-02-9.47587E-02-5.42580E-02-6.46863E-02-1.03828E-01
 -1      2042-7.83775E-02-6.32349E-02-4.99702E-02 1.51923E-02-6.24567E-02-5.23476E-02
 -1      2043 4.76819E-01 2.51508E-01 1.06550E-01-4.42003E-02-2.53558E-02-1.09151E-01
 -1      2044 3.53627E-01 2.53521E-01 1.53579E-01-5.61204E-02-3.78610E-03-7.41218E-02
 -1      2045-1.41325E-01-6.13927E-02-8.49345E-02 7.37922E-02-2.82322E-02-8.14635E-02
 -1      2046 5.91027E-01 2.33770E-01 2.83543E-02-3.21060E-02-3.45242E-02-4.67446E-02
 -1      2047-1.37550E-01-1.22970E-01-1.03698E-01-3.63322E-02 3.20813E-02-2.04722E-01
 -1      2048 6.75245E-01 4.11666E-01 7.01808E-02 1.61082E-01 5.17892E-02-8.50744E-02
 -1      2049 6.82693E-01 4.48051E-01 2.86515E-01-4.80540E-02-1.97466E-02-5.71692E-02
 -1      2050 2.62681E-01 2.48530E-01 4.47700E-02-4.60439E-02 2.01623E-02-2.15918E-01
 -1      2051-2.28594E-01-9.26711E-02-6.48299E-02-1.26212E-01 2.80732E-02-2.16332E-01
 -1      2052 1.80383E-01 9.50653E-02-4.17219E-02-1.80368E-01-2.41764E-02-2.38089E-01
 -1      2053 3.31625E-01 1.66778E-01 1.29394E-01-3.01777E-02-7.06342E-02-1.27453E-01
 -1      2054-6.09310E-01-3.63313E-01-3.03974E-01 7.45861E-02-4.72817E-02-1.92344E-01
 -1      2055-6.19753E-01-3.68767E-01-2.23164E-01 1.42714E-02 4.64319E-03-4.73345E-02
 -1      2056 1.17308E-01 6.51781E-02-1.99051E-03 2.17916E-01 5.67051E-02-1.86809E-01
 -1      2057-4.90964E-01-2.27434E-01-7.83762E-02 9.44967E-02 3.89646E-02-8.44921E-02
 -1      2058 5.30394E-01 3.60358E-01 2.56875E-01-1.08440E-02 3.95828E-02-9.26721E-02
 -1      2059-5.92405E-01-2.66428E-01-1.54132E-01 2.71701E-02-7.63858E-03-4.81936E-02
 -1      2060 2.55958E-01 2.79680E-01 6.33328E-02-1.00283E-01 1.19950E-02-1.63960E-01
 -1      2061-3.67832E-01-2.30243E-01-1.52391E-01 7.36300E-02-5.58077E-02-9.48340E-02
 -1      2062-3.61425E-01-1.61889E-01 1.59566E-02-1.33573E-01 8.33275E-02-2.06555E-01
 -1      2063 5.85426E-01 3.60251E-01 2.63233E-01 9.86470E-02 6.07401E-02-2.66100E-02
 -1      2064 8.87134E-01 4.99179E-01-8.40308E-02 6.49511E-02 5.22817E-02-4.35459E-02
 -1      2065 3.91142E-01 1.42506E-01-1.51268E-01-6.89018E-02-6.01385E-02-1.42272E-01
 -1      2066 3.95322E-01 2.64777E-01-6.00454E-02-1.28041E-01-4.58211E-02-7.35691E-02
 -1      2067 5.20814E-01 3.76055E-01 1.66752E-01-2.00572E-02 5.57655E-02-2.39596E-02
 -1      2068-4.61370E-01-2.87653E-01-2.05316E-01 6.30110E-02-6.73551E-02-1.09449E-01
 -1      2069 7.06849E-02 5.59985E-02 1.48377E-02-1.95326E-02 1.62409E-02-2.25704E-01
 -1      2070-4.66108E-01-2.86989E-01-2.58985E-01-9.10387E-02 9.54325E-03-1.25339E-01
 -1      2071-2.60553E-01-7.86353E-02-7.03590E-02 1.40578E-01-3.27311E-03-2.20951E-01
 -1      2072-6.63853E-01-3.88768E-01-3.42573E-03 7.07036E-02-3.49044E-02-3.78300E-02
 -1      2073-1.07328E+00-6.28419E-01-3.78325E-01 8.40058E-02-4.71300E-02-1.11772E-01
 -1      2074 3.96411E-01 2.20054E-01 1.43033E-01-2.91924E-02-2.31196E-02-9.67113E-02
 -1      2075-3.81494E-01-2.29616E-01 9.96134E-02 1.74616E-01-7.30069E-02-2.14408E-01
 -1      2076 2.28644E-01 8.51419E-02 7.61870E-02 9.26778E-02 4.45983E-02-1.88127E-01
 -1      2077-1.25344E-01-1.20006E-01-7.89664E-02 4.98280E-02-1.70975E-02-1.39315E-01
 -1      2078-5.33889E-01-3.44958E-01-8.42782E-02-9.84422E-04 6.69710E-02-7.07682E-02
 -1      2079-5.34153E-01-3.96058E-01-3.32131E-02 4.71630E-02 3.61711E-02-2.39935E-02
 -1      2080-5.17156E-01-2.70655E-01-1.30182E-01 6.68573E-02-2.45472E-02-3.89603E-02
 -1      2081-1.98474E-01-1.29682E-01 2.06288E-02 1.10797E-01-9.73019E-02-1.21227E-01
 -1      2082 7.92035E-01 5.79508E-01 3.08122E-01-3.71851E-03-1.42734E-02-2.22069E-01
 -1      2083-1.14270E-01-1.25586E-01-9.53613E-03 1.67192E-01-3.40821E-02-2.26546E-01
 -1      2084-3.69995E-02 4.15393E-03 6.01817E-02-7.27103E-02 3.57961E-02-1.56237E-01
 -1      2085 8.78093E-01 6.63858E-01 8.78038E-02 3.20875E-02 6.37256E-02-3.03215E-02
 -1      2086-1.39183E-01-1.34040E-01 3.02255E-02-1.36322E-01 4.51541E-02-9.63984E-02
 -1      2087-5.13520E-01-2.75643E-01-9.38912E-02 6.89915E-02-5.36488E-02-1.48582E-01
 -1      2088-3.47021E-02-3.08474E-02-2.71488E-02 8.71176E-02 1.99842E-02-1.97140E-01
 -1      2089 4.67960E-01 3.34510E-01 1.85673E-01 4.35341E-02-6.66827E-03-2.28758E-01
 -1      2090-8.56793E-01-5.70866E-01-1.53589E-01-1.20147E-01-6.06544E-03-2.64657E-02
 -1      2091 3.19727E-01 1.96865E-01 1.52984E-01 6.66614E-02 3.30126E-02-1.65522E-01
 -1      2092-4.61030E-01-6.35813E-01-4.97089E-01-6.50109E-02 9.32793E-03-1.11015E-02
 -1      2093 2.38016E-02 1.19044E-02 1.42526E-02-7.16516E-02 1.33117E-02-2.52655E-01
 -1      2094-5.23897E-01-2.90461E-01-1.75296E-01-3.61782E-03 3.19392E-02-1.58601E-01
 -1      2095-7.71501E-01-5.60156E-01-1.40027E-01-3.89974E-02 3.20898E-02-8.17225E-02
 -1      2096-9.39258E-01-7.09192E-01-2.18889E-01-1.78598E-02 3.45591E-02-1.81185E-02
 -1      2097 1.12244E+00 6.90308E-01 1.00643E-01-1.25320E-01-3.66138E-02-4.24099E-02
 -1      2098 4.33580E-01 2.09091E-01 7.91416E-02-2.78853E-02 1.94867E-02-3.46318E-02
 -1      2099 6.47229E-02-2.00994E-02-5.96971E-02 1.20717E-01 8.63440E-03-1.75819E-01
 -1      2100 6.83162E-01 3.97341E-01 1.49714E-01 1.27701E-01 5.42977E-03-3.19004E-02
 -1      2101 4.69566E-01 5.35405E-01 4.98466E-01-1.56440E-02-2.55982E-02-4.43233E-02
 -1      2102 6.89474E-01 5.19297E-01 1.89401E-01-8.21384E-03-1.04874E-02-8.48870E-02
 -1      2103 4.33626E-01 2.42264E-01 1.49604E-01 3.55077E-03 1.59560E-02-8.23252E-02
 -1      2104-8.07104E-01-4.92843E-01-9.96792E-02-4.83500E-02 1.19901E-01-7.78044E-02
 -1      2105 3.04088E-01 1.73110E-01 8.99767E-02 8.20394E-02 5.99602E-02-1.18773E-01
 -1      2106-5.93477E-01-3.97894E-01-3.32283E-01 3.16080E-02-6.61841E-03-1.12364E-01
 -1      2107-5.99560E-01-3.93843E-01-1.02766E-01-1.23226E-02-1.60643E-02-2.08734E-01
 -1      2108-1.54099E-01-3.55580E-02 5.13494E-02-1.34678E-01 3.22299E-02-1.06342E-01
 -1      2109-7.09497E-01-3.67129E-01 5.96692E-02 6.98360E-02-5.70325E-02-6.94291E-02
 -1      2110 6.08786E-01 4.17937E-01 8.78811E-02 1.03311E-01 2.73500E-02-1.67762E-01
 -1      2111-6.79445E-02-1.10801E-02-5.43705E-02-6.77254E-02 4.67001E-02-1.78113E-01
 -1      2112-2.14240E-01-1.77394E-01-1.23998E-01-1.48448E-01 3.42230E-02-9.45376E-02
 -1      2113 4.79358E-02 3.16116E-02 4.92437E-02-7.57480E-02-1.37237E-03-1.68557E-01
 -1      2114 9.83373E-02 1.77469E-02 7.83357E-02-5.93990E-02-3.53391E-02-1.60445E-01
 -1      2115-1.74445E-01-1.32598E-01-1.21184E-01 7.77527E-02-1.00183E-01-1.58084E-01
 -1      2116 1.75039E-02 2.78247E-02 5.25455E-02 8.40292E-02 1.42715E-02-1.64003E-01
 -1      2117 1.29705E-01 3.41601E-02 8.59076E-03-1.13858E-01-1.17232E-02-1.29736E-01
 -1      2118-5.18401E-01-3.72820E-01-4.21593E-01-1.06794E-01-1.13144E-01-4.02170E-02
 -1      2119 5.57803E-01 3.14525E-01-4.86004E-02 1.45309E-01 8.24140E-02-1.33320E-01
 -1      2120-4.47017E-01-2.80183E-01-3.08720E-01 6.84315E-04-3.81315E-02-1.39173E-01
 -1      2121-1.37453E-01-6.13158E-02-8.58708E-02 6.97542E-02 1.17701E-02-1.84973E-01
 -1      2122 1.96480E-01 1.07244E-01 8.75824E-02-1.55442E-01-8.48265E-05-1.61033E-01
 -1      2123 2.77389E-01 1.46290E-01 8.09246E-02-9.79882E-02-3.86555E-02-1.76138E-01
 -1      2124-3.97453E-02 7.16061E-03 3.39401E-02 8.93818E-02-4.12283E-02-1.84093E-01
 -1      2125 2.60512E-01 1.87653E-01 1.34886E-01-7.19179E-02-4.80653E-02-1.28631E-01
 -1      2126 2.84148E-01 1.73598E-01-2.62733E-03 1.24343E-01 8.05923E-02-1.97579E-01
 -1      2127 6.00909E-01 3.50835E-01 2.20784E-01 8.68111E-03-1.29870E-01-1.20346E-01
 -1      2128-4.45597E-01-2.97179E-01-1.68908E-01 9.37966E-02-6.23570E-02-1.63661E-01
 -1      2129 3.85625E-01 2.36292E-01 2.25056E-01 1.60640E-02 5.83120E-02-1.35501E-01
 -1      2130 5.52992E-01 6.25263E-01 6.17390E-01-1.20262E-02 1.88135E-02-5.00554E-02
 -1      2131 4.71709E-01 3.88971E-01 3.65413E-01 1.00965E-01-7.90870E-02-1.01819E-01
 -1      2132-4.33627E-01-2.39809E-01-1.14273E-01-8.16390E-02 8.54060E-02-9.34062E-02
 -1      2133-3.48253E-01-2.36156E-01 1.14159E-02-1.03194E-01 4.15495E-02-1.88510E-01
 -1      2134 4.60071E-01 2.57017E-01 1.66233E-01 8.54502E-02 4.50428E-02-3.76132E-02
 -1      2135-5.76650E-01-4.32996E-01-6.27049E-02-1.63031E-03-4.46771E-02-3.92885E-02
 -1      2136 4.37898E-01 2.32140E-01 3.49975E-02-1.20098E-01-8.90245E-02-1.96485E-01
 -1      2137 2.60940E-01 1.46238E-01 6.85802E-02 5.45998E-02 2.16022E-02-1.89616E-01
 -1      2138-1.35191E-01-2.23199E-02-1.08230E-02-1.39864E-01 1.92540E-02-2.41229E-01
 -1      2139 6.14311E-01 2.87346E-01 1.40568E-01-1.34666E-02 3.26484E-02-9.36978E-02
 -1      2140-2.32108E-01-2.00384E-01-1.14577E-01 4.65363E-02 1.91126E-02-2.12940E-01
 -1      2141-6.43333E-01-5.13582E-01-1.32092E-01 7.66198E-02 1.65152E-03-1.20923E-01
 -1      2142-4.40527E-01-2.83565E-01-2.72828E-01-8.64273E-02 2.08834E-02-2.03801E-01
 -1      2143-9.02198E-02-5.19377E-02-4.56079E-02-7.57512E-03-2.48881E-03-2.25098E-01
 -1      2144 1.24228E-02 4.17504E-02 6.08554E-02 1.15666E-01-2.93973E-03-1.65929E-01
 -1      2145-5.50451E-01-3.01552E-01-1.35633E-01 1.01611E-01-5.02526E-02-2.20910E-01
 -1      2146-1.17883E-01-5.39191E-02-4.22074E-02 3.04152E-02-9.86522E-03-2.27053E-01
 -1      2147 1.24331E-01 6.62560E-02-1.56836E-02 1.23311E-01 9.74906E-03-1.53556E-01
 -1      2148 3.19539E-01 1.52213E-01 3.24654E-02 7.69592E-02 6.59984E-02-8.42506E-02
 -1      2149 3.24130E-01 2.05339E-01 1.89563E-01 1.68761E-02-6.33107E-02-1.28702E-01
 -1      2150 8.02589E-01 4.05317E-01 4.16511E-03-2.41298E-02-1.90838E-02-9.95502E-02
 -1      2151 8.18445E-01 5.89934E-01 1.60272E-01-7.28054E-02 4.04326E-02-2.84728E-01
 -1      2152 6.36691E-02 5.70813E-02 4.07800E-03-1.11556E-01 2.75625E-02-1.27215E-01
 -1      2153 5.69276E-01 3.68087E-01 2.96792E-01-7.32786E-03 3.69644E-02-1.42748E-01
 -1      2154 4.68972E-01 2.13600E-01-3.40830E-03 5.69253E-02-1.12818E-02-5.96341E-02
 -1      2155-4.71110E-01-3.54101E-01-1.59589E-01 1.53881E-02 3.37669E-02-1.24579E-02
 -1      2156-2.44868E-01-1.78478E-01-2.74919E-01 2.83763E-02 4.46765E-02-1.08408E-01
 -1      2157-4.28021E-01-2.71472E-01-5.25292E-04 1.38594E-02-1.11018E-02-1.29212E-01
 -1      2158-2.79769E-01-2.59487E-01-1.05722E-01 1.16467E-01 3.76339E-02-1.98650E-01
 -1      2159-2.88661E-01-1.21991E-01-9.02534E-02-6.46920E-02 5.50032E-02-1.21895E-01
 -1      2160-7.48322E-02-5.73178E-02-2.08672E-01-1.41110E-01-3.45495E-02-2.58407E-01
 -1      2161-4.39592E-01-3.04070E-01-2.32744E-01-7.60538E-02 7.03971E-03-1.01272E-01
 -1      2162-3.25445E-01-1.29145E-01 2.72316E-02-5.84177E-02-3.51413E-02-3.97927E-02
 -1      2163-9.49091E-01-6.20073E-01-1.21763E-01 6.87795E-02 3.64116E-02-2.15762E-01
 -1      2164 2.33191E-01 1.47548E-01 6.92416E-02-9.84616E-03 1.43173E-02-2.06431E-01
 -1      2165 5.26805E-02 7.93191E-02 5.18223E-02-1.30955E-01-1.66649E-02-2.33395E-01
 -1      2166-4.32593E-01-3.34179E-01-2.06396E-01-4.52346E-02-6.88630E-03-2.03285E-01
 -1      2167-2.29297E-04 8.54332E-02 3.08168E-02-6.48257E-02 1.91682E-02-1.78645E-01
 -1      2168-6.08799E-03-3.62683E-02-3.55258E-02-1.61667E-01-1.66827E-03-2.83410E-01
 -1      2169 8.67689E-02 8.08201E-02 1.16734E-01-1.34077E-01-3.91389E-02-1.38876E-01
 -1      2170 4.44001E-02 3.55075E-02 1.06883E-01-2.17136E-01 5.33602E-02-1.23065E-01
 -1      2171 8.54040E-01 5.52821E-01 8.55898E-02-1.27403E-01-3.33918E-02-1.79410E-01
 -1      2172 4.17701E-01 2.16376E-01 1.28965E-01-7.40993E-02 2.68550E-02-8.75742E-02
 -1      2173 1.89959E-01 1.26662E-01-1.05383E-02-9.32838E-02-5.77446E-02-1.98057E-01
 -1      2174-1.32795E-01-1.60284E-01-2.43198E-03 8.19398E-02 1.10861E-02-1.52915E-03
 -1      2175-4.93030E-01-3.32369E-01-6.39520E-02-9.11871E-02 6.69502E-03-2.08877E-01
 -1      2176-2.09893E-01-2.06023E-01-2.37358E-02 1.34077E-01-8.12106E-03 1.62155E-02
 -1      2177 4.88052E-02 1.34585E-01 7.41564E-02-1.92862E-02-1.38747E-03-1.47468E-01
 -1      2178-2.12760E-03 6.27662E-03-4.60802E-02 1.24828E-01 4.15171E-02-2.18308E-01
 -1      2179-4.81356E-01-4.15531E-01-2.12987E-01-1.02135E-01-1.28543E-02-2.36386E-01
 -1      2180 5.94243E-01 5.23549E-01 2.14115E-01 2.69926E-02 9.89085E-03-1.71836E-01
 -1      2181 2.77105E-01 2.79703E-01 1.29853E-01 8.82420E-02-2.21265E-02-1.79563E-01
 -1      2182-8.17672E-01-6.16918E-01-3.57385E-01 1.46175E-01 7.06493E-02-2.42685E-01
 -1      2183 8.51195E-01 4.56580E-01-9.33073E-03-8.83268E-02-5.83175E-02-1.07738E-01
 -1      2184 1.10885E+00 7.49310E-01 3.79769E-01 1.03712E-01-3.12108E-03-2.14383E-01
 -1      2185 7.40437E-01 5.74913E-01 1.28384E-01-1.08314E-01 4.48429E-02-2.74006E-01
 -1      2186 3.77007E-01 4.32289E-01 4.71846E-01-7.37646E-02 8.26216E-02-1.22694E-01
 -1      2187 2.61924E-01 2.81098E-01 3.49791E-02-1.96307E-01 1.01667E-02-1.30565E-01
 -1      2188 1.07619E+00 7.93077E-01 2.20371E-01 2.86109E-03-1.00554E-02-1.75546E-01
 -1      2189-9.00805E-01-7.01254E-01-2.33936E-01-1.90339E-01-1.24995E-01-2.71830E-01
 -1      2190-8.67037E-02-1.28123E-02 7.50190E-04 1.38326E-01 2.90019E-03-1.50925E-01
 -1      2191-2.36036E-02-1.17903E-02-5.32284E-02 5.53648E-02 1.44629E-02-4.84252E-02
 -1      2192 6.28026E-01 4.96877E-01 2.91019E-01 1.20919E-01 2.51938E-04-2.03977E-01
 -1      2193 1.11551E-01 8.41852E-02 2.22533E-02 1.33833E-01 6.74168E-03-1.61185E-01
 -1      2194-3.56770E-01-4.94907E-01-4.47224E-01-7.87802E-02 1.92299E-02-7.10643E-02
 -1      2195-1.11442E+00-7.16406E-01-2.38680E-01-1.96501E-01-1.51419E-01-3.51021E-01
 -1      2196-1.36326E+00-1.00095E+00-4.88022E-01-1.38847E-01-7.78295E-02-3.09047E-01
 -1      2197 2.75799E-01 1.33497E-01-6.10315E-02-3.01433E-01 2.88761E-02-1.25539E-01
 -1      2198-1.23988E-01-7.16839E-02-3.97271E-02-1.05534E-01 5.61428E-02-1.35922E-01
 -1      2199 1.49482E+00 1.12322E+00 5.62587E-01 1.24744E-01-2.47207E-02-2.28853E-01
 -1      2200 3.93634E-01 3.78737E-01 3.07794E-01 1.98099E-01-7.20449E-02-2.27165E-01
 -1      2201-8.69851E-01-5.96292E-01-2.83604E-01-4.18985E-02-5.66129E-02-2.45603E-01
 -1      2202 7.41565E-01 6.23457E-01 2.77351E-01-1.80135E-01 2.31788E-02-2.20676E-01
 -1      2203-7.51121E-02-2.19813E-02 1.00354E-01-7.69970E-02-3.88233E-02-5.54777E-02
 -1      2204-6.06558E-02 5.96812E-02 3.39600E-01-4.86177E-02 1.54104E-02-8.78123E-02
 -1      2205-5.81723E-02-9.01660E-02-3.16643E-01 6.31992E-02 7.59661E-02-5.67778E-02
 -1      2206-1.51028E-01-8.49804E-02-1.26280E-01-8.29760E-02-8.95922E-02-1.77034E-01
 -1      2207-1.63126E+00-1.07955E+00-2.94659E-01-1.59464E-01-7.16152E-02-3.53694E-01
 -1      2208-5.73605E-01-4.38295E-01-1.83132E-01 1.33939E-01 6.60059E-02-2.34110E-01
 -1      2209 1.15652E+00 7.99854E-01 1.79815E-01-1.79855E-02-1.25577E-02-2.39709E-01
 -1      2210 1.25626E+00 1.00263E+00 4.25774E-01-1.00560E-01 1.75284E-01-3.01779E-01
 -1      2211-4.01116E-01-2.90110E-01-2.24826E-01 2.05938E-01 5.20349E-02-1.95325E-01
 -1      2212-1.50829E+00-9.94752E-01-4.34617E-01 2.20630E-02-3.09576E-02-3.62095E-01
 -1      2213-1.25420E+00-8.47893E-01-5.63639E-01 2.24403E-01 1.83901E-01-3.45853E-01
 -1      2214-1.62356E+00-7.99553E-01-3.49293E-01-2.72814E-01-6.61938E-02-4.81952E-01
 -1      2215-1.39317E+00-9.33863E-01-1.94330E-01 1.44025E-01 3.90254E-02-2.18553E-01
 -1      2216-1.97501E-02-5.44869E-03 3.44611E-03-4.56640E-02 1.67910E-03-6.07382E-02
 -1      2217-1.28948E-01-1.32941E-01-2.32194E-01-6.25364E-02-9.69591E-02-1.12613E-01
 -1      2218 2.46070E-01 1.96187E-01 1.13795E-01-7.82755E-02 1.22703E-01-1.65083E-01
 -1      2219-4.88722E-02-3.03167E-02-1.80099E-02-6.74193E-02-7.82336E-03-4.29005E-02
 -1      2220 4.44536E-02 2.84593E-02 4.92831E-02 3.31845E-02-5.96254E-02-8.08823E-02
 -1      2221 1.70126E-02 7.02595E-02 1.57044E-01 3.62408E-02-5.57953E-02-7.67368E-02
 -1      2222-1.63104E+00-1.11379E+00-3.97810E-01-4.63711E-02-1.28958E-01-3.55137E-01
 -1      2223-2.07356E-01-6.87853E-02-1.41170E-01 5.58149E-02 2.11208E-02-2.47508E-01
 -1      2224 4.01226E-01 2.65650E-01 2.34925E-01 7.37803E-03-3.00335E-02-1.46413E-01
 -1      2225-9.48267E-02-2.01038E-02-1.51407E-01-1.46411E-02-7.37065E-02-2.44281E-01
 -1      2226-2.80313E-01-1.89050E-01-3.40006E-01 5.83717E-02 5.26588E-02-2.95204E-01
 -1      2227-3.78002E-02-1.51675E-02-1.57637E-01-2.04687E-02-1.23803E-01-1.96609E-01
 -1      2228 1.98244E+00 1.48243E+00 8.93018E-01-1.18222E-02 3.33443E-02-5.05010E-01
 -1      2229-1.48750E+00-9.58462E-01-3.46079E-01 2.13734E-02-6.45805E-03-3.48344E-01
 -1      2230 6.62003E-02 4.71017E-02-5.74249E-02 6.92935E-02-3.22330E-02-5.25063E-02
 -1      2231 1.08565E+00 7.89216E-01 2.81304E-01-2.69104E-01 4.28372E-02-2.75274E-01
 -1      2232 1.95068E-01 1.15785E-01 8.46333E-03-6.87720E-02 1.00355E-01-9.39220E-02
 -1      2233 3.40373E-01 1.66055E-01 1.23948E-01 7.38570E-02-4.75786E-02-2.60761E-01
 -1      2234 2.58260E-01 8.22427E-02 2.66167E-01-2.48499E-03 6.28550E-03-2.52579E-01
 -1      2235-8.77669E-02-1.16931E-01-1.44253E-01 6.70297E-02 1.19728E-01-1.15457E-01
 -1      2236 8.97139E-02-3.07817E-02-1.65541E-01 1.63962E-02-2.79965E-02-4.80643E-02
 -1      2237-3.50884E-01-2.07625E-01-2.22770E-01-6.29893E-02-4.41661E-02-2.55862E-01
 -1      2238-7.99843E-02-3.55067E-02-8.77406E-02 2.84750E-02 5.57790E-02-9.30918E-02
 -1      2239-6.99731E-02-4.68807E-02-9.20421E-02-4.49188E-02-6.36073E-02-1.17982E-01
 -1      2240-2.10162E-01-2.27257E-01-5.31482E-01-5.56429E-02-1.68024E-01-2.93814E-01
 -1      2241-6.82144E-03-1.40849E-04 4.63299E-02 3.52767E-02-2.08146E-03-7.69531E-02
 -1      2242 2.38676E-02 5.15781E-02 3.81413E-01 3.90800E-02-5.92395E-02-1.15364E-01
 -1      2243-9.29172E-02-1.31033E-01-4.88815E-01 3.48284E-02 1.82104E-01-1.64823E-01
 -1      2244 2.28928E-01 1.55404E-01 1.06892E-01 8.50270E-02-1.01858E-01-2.10525E-01
 -1      2245-9.30639E-02-5.03410E-02 5.54245E-02 4.90630E-02 4.59372E-02-5.97072E-02
 -1      2246-1.78577E-01-4.45754E-02 1.78792E-02 7.47036E-02 6.02186E-02-1.14250E-01
 -1      2247-6.08127E-02-8.04054E-02-2.06588E-01-4.26570E-02-4.12480E-02-5.38966E-02
 -1      2248-3.13292E-02-5.86528E-02-2.26049E-01-5.19534E-02-4.20820E-02-9.53869E-02
 -1      2249-5.69148E-03 1.08450E-01 2.52641E-01 1.25015E-02-1.78093E-02-5.52869E-02
 -1      2250 1.34836E-01 8.15618E-02 2.61057E-01 3.02962E-02-6.81609E-02-2.09326E-01
 -1      2251 1.38584E-01 5.90017E-02 1.68870E-01 3.68465E-02-7.58445E-02-1.69059E-01
 -1      2252-2.48227E+00-1.63706E+00-6.74271E-01-4.62763E-02-1.95657E-02-5.35354E-01
 -1      2253-2.51016E-01-3.03148E-01-6.68400E-01-6.03126E-02-2.20138E-01-3.49427E-01
 -1      2254-1.68808E-01-5.72560E-02 1.89433E-01-6.47835E-02 1.13375E-02-1.27505E-01
 -1      2255 2.29063E-01 1.02609E-01-8.96833E-03 5.25065E-02-1.01323E-01-1.60018E-01
 -1      2256 6.81831E-02 1.18803E-01 4.46230E-01 3.50374E-02-6.35126E-02-9.31865E-02
 -1      2257-7.89662E-02-8.55486E-02-4.78204E-01-7.57517E-02-7.01001E-02-3.85167E-01
 -1      2258 1.09291E-01 6.99438E-02 1.37961E-01-4.47308E-02 8.12979E-02-1.33024E-01
 -1      2259 3.42698E-01 1.11565E-01 1.03012E-01-4.40935E-02-4.12278E-02-2.64311E-01
 -1      2260 1.50403E-01 1.54152E-01 4.13842E-01-4.06227E-02 1.70495E-01-2.53949E-01
 -1      2261 3.92810E-01 1.65786E-01 4.53814E-02 8.42918E-04 2.58167E-02-2.80717E-01
 -1      2262 1.37229E-01 1.28765E-01 8.65586E-02 6.20049E-02-9.53198E-02-1.00733E-01
 -1      2263-3.89651E-01-3.64222E-01-6.17330E-01-5.53915E-03-1.44295E-03-4.03390E-01
 -1      2264-3.84231E-02-1.27836E-01-2.61084E-01 6.74698E-02 5.59372E-02-9.87176E-02
 -1      2265 1.03392E-02 3.91555E-02 1.01246E-01-6.93025E-02 3.41771E-02-6.20356E-02
 -1      2266-5.27947E-01-4.96221E-01-8.87047E-01 5.51552E-02 3.77207E-02-4.81782E-01
 -1      2267 3.38276E-01 2.60782E-01 3.99817E-01 7.06717E-02 7.76169E-02-3.52987E-01
 -1      2268 6.50296E-01 5.27283E-01 7.19390E-01-7.68391E-02-7.93928E-02-3.93879E-01
 -1      2269 2.10702E-01 8.35468E-02 1.12662E-01 7.73313E-03-1.12233E-01-1.71047E-01
 -1      2270 2.11615E-02-3.53131E-02-1.82541E-01-3.16087E-02 1.38430E-02-7.88937E-02
 -1      2271-1.69932E+00-1.17642E+00-2.91335E-01 1.06555E-01 1.01821E-01-3.99102E-01
 -1      2272 1.57063E-01 1.88076E-01 4.05003E-01 2.50640E-02-1.54431E-01-1.62287E-01
 -1      2273-2.00906E-01-2.30645E-02 1.53984E-02 5.16151E-02 6.47945E-02-1.63142E-01
 -1      2274 1.36176E-01 1.43011E-01 4.44490E-01 2.82426E-02-1.32278E-01-2.74471E-01
 -1      2275 1.96955E+00 1.59302E+00 5.76711E-01-1.21676E-02-5.23545E-02-4.33349E-01
 -1      2276 1.05545E+00 7.17654E-01 2.89182E-01 2.13681E-01-1.02711E-01-2.67786E-01
 -1      2277-3.10892E-01-2.02228E-01-1.32921E-01 5.79116E-03 1.13659E-01-2.35432E-01
 -1      2278-3.07660E-01-8.60016E-02-2.82595E-01 1.18127E-03-3.01673E-02-2.54671E-01
 -1      2279 1.40392E+00 1.00713E+00 4.32065E-01-5.25303E-02 1.51889E-01-3.24621E-01
 -1      2280 1.01582E+00 8.34196E-01 1.20341E+00-3.41946E-02-1.41120E-01-4.79614E-01
 -1      2281-1.77954E+00-1.28049E+00-3.69406E-01 5.95070E-02 3.11890E-02-3.70940E-01
 -1      2282-1.14124E-01-5.42063E-02-1.45155E-01 5.01479E-02 8.05545E-02-1.35544E-01
 -1      2283 2.66317E-01 1.37608E-01 3.62937E-02-3.49772E-02 1.26919E-01-1.37748E-01
 -1      2284-4.71341E-02-1.27271E-01-3.91081E-01 7.98124E-02 1.10281E-01-9.96397E-02
 -1      2285-1.30181E-01-6.73308E-02 2.61289E-03 1.73078E-02 9.70596E-02-1.42378E-01
 -1      2286-2.62235E-01-1.73334E-01-1.18440E-01 5.61866E-02 1.16418E-01-1.79273E-01
 -1      2287-2.81222E-01-9.68819E-02 2.88517E-04-5.36090E-02-6.89178E-02-2.28949E-01
 -1      2288 1.48261E-01-3.72258E-02-5.35594E-02 1.94805E-01 7.72111E-02-1.84406E-01
 -1      2289-1.83526E-01 7.67204E-02 6.10449E-02 2.34245E-01-8.88092E-03-1.61984E-01
 -1      2290 1.68416E-01 5.51743E-02-4.77265E-02-2.00868E-01-6.22263E-02-1.00716E-01
 -1      2291-2.94513E-01-3.46462E-01-8.02588E-01-5.57409E-02-2.02263E-01-4.39860E-01
 -1      2292 5.55703E-01 4.39389E-01 2.20916E-01-4.22978E-01 3.10590E-02-2.65973E-01
 -1      2293-1.62973E-01-1.75627E-01-5.27524E-01-4.17400E-02-1.38673E-01-1.91326E-01
 -1      2294 1.64456E-01 1.23832E-01 1.91396E-01 3.80537E-03-1.66920E-01-2.26803E-01
 -1      2295-2.06401E-01-1.04414E-01-1.60486E-02-6.85666E-02-8.41605E-02-1.44812E-01
 -1      2296 1.59589E-01 6.70887E-02 2.23435E-01-1.96933E-02 6.52043E-02-2.01693E-01
 -1      2297 1.02099E-01 1.45195E-01 3.70051E-01-6.20315E-02 9.37189E-02-9.38349E-02
 -1      2298-5.39837E-01-4.09424E-01-3.14794E-01-2.99671E-01-9.61845E-02-2.76722E-01
 -1      2299-2.08432E+00-1.42491E+00-4.29285E-01 1.36639E-01 5.58954E-03-5.46435E-01
 -1      2300 7.92708E-01 5.75540E-01 2.85363E-01 1.37831E-01-4.85310E-02-2.14133E-01
 -1      2301-9.58784E-02-1.67310E-02 7.93672E-02-1.11498E-02-1.23215E-01-1.73279E-01
 -1      2302 9.20268E-01 4.78119E-01 1.20248E-01 2.27203E-01-7.66991E-02-1.98992E-01
 -1      2303-1.28245E-01-2.67338E-01-6.81011E-01-6.38806E-02-1.61572E-01-1.62173E-01
 -1      2304 1.93614E+00 1.28173E+00 5.63453E-01 5.30199E-02 6.19556E-02-5.09828E-01
 -1      2305 2.92706E-01 4.50390E-02 6.70617E-03-5.32710E-02 8.77885E-02-1.99416E-01
 -1      2306 4.48385E-01 4.96801E-01 7.90257E-01-2.66863E-02-1.54412E-01-3.64118E-01
 -1      2307-3.96313E-01-4.84475E-01-9.01219E-01-7.83061E-02-2.33567E-01-5.37625E-01
 -1      2308 4.11690E-01 2.29383E-01 5.53384E-02 3.32510E-01 2.16455E-02-2.75021E-01
 -1      2309 6.01026E-01 6.01742E-01 2.41251E-01-3.33606E-01 1.07643E-01-2.07662E-01
 -1      2310-1.03583E-01-1.39259E-01-4.49759E-01 1.82521E-02 1.70564E-01-1.68241E-01
 -1      2311-3.03718E-01-2.98910E-01-5.29435E-01 4.81401E-02 1.51606E-01-2.72143E-01
 -1      2312-1.87734E+00-1.39372E+00-3.68416E-01 3.66754E-02-1.38584E-01-4.98066E-01
 -1      2313 3.01256E-01 2.89035E-01 4.85441E-01 4.71532E-02-1.61614E-01-2.06868E-01
 -1      2314-3.72910E-01-1.04265E-01-1.18791E-01 4.17496E-04-4.20184E-02-2.29628E-01
 -1      2315-3.18300E-01-2.40336E-01-4.09084E-01 6.95152E-02-1.11234E-01-3.36825E-01
 -1      2316-8.94246E-01-6.96185E-01-8.22414E-01-8.45654E-02 6.85458E-02-4.63424E-01
 -1      2317-3.33657E-01-1.66609E-01-1.05096E-01-1.78923E-02 7.89880E-03-2.93393E-01
 -1      2318 6.57356E-02 2.05275E-01 5.90935E-01 4.11845E-02-1.69013E-01-1.07898E-01
 -1      2319 4.43543E-02 2.85261E-01 6.55499E-01 4.27578E-02-2.19172E-01-1.27180E-01
 -1      2320 1.70693E+00 1.19932E+00 7.10086E-01-1.44969E-01 6.74710E-03-4.88401E-01
 -1      2321 1.34553E+00 1.03765E+00 5.84058E-01 9.19753E-02-1.88719E-02-2.87716E-01
 -1      2322-1.17255E-01-2.09785E-01-7.36633E-01 4.19802E-02 2.44709E-01-2.15838E-01
 -1      2323-4.05658E-01-3.87947E-01-4.62189E-01-9.05657E-03-1.99921E-01-3.33600E-01
 -1      2324-2.63125E-01-3.37397E-01-8.82615E-01 7.77221E-02 2.82062E-01-3.31325E-01
 -1      2325-2.99218E-01-2.17425E-01-3.53530E-01 4.05542E-02 1.31337E-01-2.53071E-01
 -1      2326 3.76741E+00 3.56616E+00 1.84538E+00-3.94055E-01 1.24457E-03-7.38239E-01
 -1      2327 1.21319E-01 1.12175E-01 8.44176E-02-7.03183E-02 8.33445E-02-8.57140E-02
 -1      2328 3.05017E-01 2.67967E-01 5.89795E-01 8.13006E-02-7.89194E-03-3.76964E-01
 -1      2329 1.07583E-01 9.62288E-02 1.87104E-01-6.80573E-02 6.93211E-02-8.96024E-02
 -1      2330 1.71819E-01 5.69529E-01 9.50020E-01 4.53175E-02-3.10846E-01-1.45085E-01
 -1      2331-2.88921E-01-1.01878E-01 2.49835E-01-6.81582E-02 4.22704E-02-9.97496E-02
 -1      2332 4.41379E-01 2.11133E-01 5.35521E-02-3.70018E-01-7.95003E-02-2.53343E-01
 -1      2333-2.12772E-01-5.71805E-02 1.22329E-01 2.04334E-02-1.29932E-01-1.04905E-01
 -1      2334 1.99235E+00 1.43927E+00 7.12105E-01-7.59979E-02 1.55981E-01-5.76099E-01
 -1      2335-5.33716E-01-2.23144E-01-2.03123E-01 3.38176E-01 8.19496E-02-2.53987E-01
 -1      2336 1.14144E+00 9.21004E-01 5.16887E-01 8.36994E-02-7.08268E-02-2.16751E-01
 -1      2337 3.05766E+00 2.23379E+00 1.22146E+00 1.92784E-02 2.43937E-01-7.83947E-01
 -1      2338-1.32677E+00-1.14037E+00-1.30490E+00-3.61773E-02 1.78192E-01-6.07609E-01
 -1      2339-2.59267E+00-1.79546E+00-7.39709E-01-1.62190E-02-3.31356E-03-5.86386E-01
 -1      2340 2.39611E-01 1.24130E-01 2.36123E-01 1.67588E-02 1.60241E-01-2.41665E-01
 -1      2341-4.28040E-01-4.68733E-01-9.11381E-01-3.75284E-02 2.44342E-02-5.05351E-01
 -1      2342-2.01831E+00-1.39042E+00-6.82015E-01 1.17667E-02-4.10712E-02-5.50603E-01
 -1      2343 1.71797E+00 1.07296E+00 5.16225E-01-2.93907E-01 7.67075E-02-4.09874E-01
 -1      2344-1.94252E-01-8.46486E-02-1.03459E-01 4.21171E-03-1.39222E-01-3.13458E-01
 -1      2345 1.01294E-01-2.79858E-02-2.80244E-01-2.20972E-02 2.32564E-02-4.61169E-02
 -1      2346-2.62052E-01 1.63901E-01 9.39695E-02 3.17802E-01-4.49348E-03-2.20838E-01
 -1      2347-6.25028E-01-5.65963E-01-7.81766E-01 1.67841E-03-1.68592E-01-4.57171E-01
 -1      2348 4.44182E-01 3.72766E-01 6.58138E-01 2.72616E-02-1.51410E-01-3.44368E-01
 -1      2349-2.19850E-01-1.79522E-01-1.55044E-01 2.86868E-02 1.31558E-01-2.25913E-01
 -1      2350 1.82293E-01 6.09366E-02 7.24724E-02-5.05879E-02 4.48798E-02-2.41288E-01
 -1      2351 2.80754E+00 1.95929E+00 1.58324E+00 6.22793E-02-1.56615E-01-8.47873E-01
 -1      2352 3.54664E-01 3.17382E-01 6.51941E-01 1.86044E-03 7.08128E-02-3.75795E-01
 -1      2353 1.94289E+00 1.45634E+00 8.86516E-01 1.31859E-01-1.82757E-01-3.45856E-01
 -1      2354 1.80911E-01 1.19389E-01 4.34468E-02-4.87480E-02 7.36752E-02-1.22580E-01
 -1      2355 7.60987E-01 3.81982E-01 2.15186E-01-7.25634E-01-6.31370E-02-6.33111E-01
 -1      2356 1.16941E+00 1.15021E+00 8.87528E-01-5.23720E-01 1.72286E-01-4.24749E-01
 -1      2357-7.68259E-01-8.32508E-01-1.40621E+00-1.11877E-01-2.33575E-01-7.08522E-01
 -1      2358-6.15342E-01-5.63807E-01-7.76978E-01 9.26047E-02 1.62325E-01-3.72117E-01
 -1      2359 6.74405E-01 6.38587E-01 8.87311E-01 1.16945E-01 1.11956E-01-4.58787E-01
 -1      2360-1.12289E+00-8.28229E-01-4.04962E-01 1.23297E-01 6.04381E-02-2.31905E-01
 -1      2361-2.26160E-01-3.25403E-01-5.43870E-01-8.01518E-02-1.48707E-01-2.10657E-01
 -1      2362 5.91820E-01 4.49075E-01 3.78996E-01-8.62964E-02 1.69318E-01-2.40809E-01
 -1      2363-3.12601E-01-3.95736E-01-8.71375E-01-1.00689E-01-2.09144E-01-2.91062E-01
 -1      2364-1.45299E-01 1.19123E-02-1.00022E-02-2.37411E-01 4.44103E-02-1.50946E-01
 -1      2365 1.84582E+00 1.21719E+00 2.72099E-01-5.97871E-03 2.22225E-01-4.12801E-01
 -1      2366 1.76532E-01 2.04648E-01 4.39198E-01-9.73365E-02 1.92289E-01-1.94083E-01
 -1      2367-7.95735E-01-8.88269E-01-1.50286E+00 1.64597E-01 4.36951E-01-5.44943E-01
 -1      2368-4.71015E-01-4.77668E-01-8.94285E-01-2.05793E-02-1.11990E-01-4.57622E-01
 -1      2369 3.56800E-01 3.09519E-01 5.13076E-01-4.21601E-02 1.15529E-02-3.44923E-01
 -1      2370 3.27684E-01 3.43661E-01 6.42098E-01-1.19843E-01 2.12065E-01-2.86738E-01
 -1      2371-7.90054E-01-4.66193E-01 7.65693E-02-7.67076E-02 5.83940E-02-1.03876E-01
 -1      2372-4.28705E-01-3.61933E-01-1.01011E+00-9.94047E-02-1.28070E-02-5.66095E-01
 -1      2373 4.26556E-01 3.63615E-01 4.76174E-01 1.54929E-02-1.54221E-01-2.56728E-01
 -1      2374 1.65683E+00 8.85024E-01 4.61695E-01 3.40905E-01-2.48048E-01-4.87354E-01
 -1      2375 2.81438E-01 2.46878E-01 7.04951E-01 4.76423E-02-1.63006E-01-3.60745E-01
 -1      2376-3.49151E-01-2.56900E-01-1.56431E-01 4.61694E-02-2.40454E-01-2.83838E-01
 -1      2377 1.82810E+00 6.97939E-01 4.16292E-01 2.87792E-01-1.55180E-01-5.04517E-01
 -1      2378 4.50491E-01 3.17095E-01 8.68232E-01 8.47594E-02-1.54330E-01-5.02173E-01
 -1      2379 2.43866E-01-6.27029E-02-2.23658E-01 3.74804E-01 8.37234E-02-3.30981E-01
 -1      2380 6.72288E-01 4.34538E-01 2.24738E-01 5.83404E-01-5.45924E-02-4.79354E-01
 -1      2381 4.20633E-01 4.35121E-01 6.92365E-01 1.97515E-02-2.45131E-01-3.71472E-01
 -1      2382-5.98864E-01-1.74627E-01-5.12749E-02 6.09497E-01 1.25027E-01-4.75393E-01
 -1      2383 5.55508E-01 4.46265E-01 3.24696E-01-3.55095E-02 2.18079E-01-1.68903E-01
 -1      2384-5.30402E-01-3.71253E-01-7.16144E-01 6.67094E-02 1.47340E-01-4.19846E-01
 -1      2385-7.52824E-01-6.51976E-01-9.99263E-01 8.11248E-03-1.52018E-02-6.46675E-01
 -1      2386-8.88883E-01-4.73681E-01-6.10476E-02 1.34037E-01 1.06922E-01-2.53508E-01
 -1      2387 2.61064E-01 2.82422E-01 5.05714E-01 8.63402E-02-2.08825E-01-2.46018E-01
 -1      2388 9.51415E-01 9.45989E-01 1.29180E+00 8.04251E-02-4.00071E-02-5.73312E-01
 -1      2389 5.50587E-01 4.80860E-01 8.16507E-01-7.93276E-02 2.18760E-01-4.28543E-01
 -1      2390 2.69338E+00 1.33138E+00 9.06529E-01-3.38214E-01-8.75913E-02-7.66098E-01
 -1      2391 3.04406E-01 2.44325E-01 1.28612E-01 2.92788E-02-2.12091E-01-1.74236E-01
 -1      2392 3.19509E+00 2.24433E+00 1.65996E+00-1.72550E-01-1.26202E-01-8.48434E-01
 -1      2393-1.28495E-01 4.13350E-02 2.67360E-01 1.44177E-02-4.87175E-03-1.54686E-02
 -1      2394-1.13817E-01 2.51919E-02 5.00366E-01-2.79251E-02 8.44954E-02-7.14922E-02
 -1      2395-2.05153E-01-6.82260E-02 4.22501E-01-6.90729E-03 6.62686E-02-7.24789E-02
 -1      2396 8.65851E-01 8.27752E-01 1.02338E+00 2.79331E-02-1.67094E-01-4.33828E-01
 -1      2397-2.50707E-01-1.90014E-01 3.44021E-02-1.62508E-02 1.80858E-01-1.33490E-01
 -1      2398 2.73351E-01 2.31183E-01 5.89375E-01-5.82982E-02 2.01075E-01-3.24970E-01
 -1      2399-6.85329E-01-4.19952E-01-3.11683E-01-4.06969E-01-9.43798E-02-3.08679E-01
 -1      2400 1.96440E-01-4.69040E-02-1.76063E-01 1.83577E-02-4.94184E-02-2.32687E-02
 -1      2401 7.86746E-01 8.46104E-01 9.69663E-01 2.86219E-02 2.06792E-01-4.91072E-01
 -1      2402 1.28967E+00 1.31465E+00 1.64559E+00-4.02752E-02 2.22075E-01-6.88664E-01
 -1      2403-2.31455E+00-1.76304E+00-5.73228E-01 1.84641E-01 7.42838E-02-6.66638E-01
 -1      2404 5.04909E-01 3.80293E-01 1.27870E-01 8.23282E-02 1.82760E-01-6.83613E-02
 -1      2405 2.72095E-02-1.38216E-01-5.57874E-01 1.01044E-01 2.13390E-01-1.40531E-01
 -1      2406-4.03667E-02-3.18068E-01-7.09112E-01 1.10918E-01 2.70199E-01-1.91168E-01
 -1      2407 8.87120E-01 7.94744E-01 1.00208E+00-1.26443E-01 3.11924E-02-5.13730E-01
 -1      2408 3.63552E-01 3.26338E-01 5.35086E-01 2.20444E-02 1.42403E-01-3.14639E-01
 -1      2409 4.00390E-01 2.57684E-01 5.36180E-01-3.80735E-03 2.09561E-01-3.27490E-01
 -1      2410-2.12168E+00-1.72145E+00-5.51443E-01 1.52701E-01 9.61170E-02-5.21234E-01
 -1      2411 9.55259E-01 7.44590E-01 1.38423E+00 9.58936E-02-1.76197E-01-7.14715E-01
 -1      2412 2.43629E+00 2.13490E+00 1.00002E+00 7.77630E-02 4.48498E-02-6.52970E-01
 -1      2413-2.40419E-01-3.66996E-02 6.56198E-01 4.71339E-02 6.77591E-02-2.63057E-02
 -1      2414 2.78748E-01 3.56372E-01 5.73875E-01 8.39702E-02-2.19770E-01-2.28421E-01
 -1      2415 4.69736E-01 3.10461E-01 2.73019E-01 2.69495E-03-2.44927E-01-2.07920E-01
 -1      2416 3.48090E-01 1.16532E-01-2.30205E-01 2.28176E-02 2.94408E-02 8.45719E-03
 -1      2417-1.03748E+00-9.36607E-01-1.26157E+00-6.78292E-02-1.09023E-01-7.91033E-01
 -1      2418 8.42723E-02 1.43815E-01 3.48226E-01-7.21770E-02 1.20569E-01-1.53855E-01
 -1      2419 5.10036E-02 1.44965E-01 5.19425E-01-6.99437E-02 1.29057E-01-1.30514E-01
 -1      2420-4.01132E-01-4.86606E-01-8.37746E-01-1.06886E-01-1.97518E-01-2.76940E-01
 -1      2421 1.48873E+00 1.44464E+00 1.83222E+00 1.04315E-01-3.08458E-01-6.87109E-01
 -1      2422 5.21686E-01 5.89346E-01 1.74292E-01-2.40502E-01 9.42804E-02-1.75839E-01
 -1      2423 1.02497E+00 1.06582E+00 6.59401E-01 9.20843E-02 3.09698E-01-1.05697E-01
 -1      2424 1.92662E-01 6.85819E-02 8.90943E-02 2.69300E-02-8.31738E-02-1.20906E-01
 -1      2425 1.79558E-01 6.24268E-02-9.33316E-02-1.83475E-02 6.28998E-02-8.35418E-02
 -1      2426-7.51862E-01-6.37284E-01-3.66552E-01-6.78848E-02 2.69759E-01-1.83153E-01
 -1      2427 7.38759E-01 6.93478E-01 9.79357E-01-1.12007E-01 2.09682E-01-4.50397E-01
 -1      2428 4.79921E-03 2.44857E-01 7.27517E-01-1.06651E-01 2.16998E-01-1.70224E-01
 -1      2429 9.01429E-02 3.99860E-01 8.92380E-01-1.35524E-01 2.77423E-01-2.13571E-01
 -1      2430-2.62151E-01 7.64208E-02 1.62939E-01-4.72285E-01 9.82660E-03-2.80613E-01
 -1      2431-9.67514E-01-7.40378E-01-7.58168E-01 7.92198E-02 1.35745E-01-3.68043E-01
 -1      2432-2.61490E+00-2.33757E+00-1.07949E+00 7.50034E-02-1.29995E-01-6.52560E-01
 -1      2433 1.09222E+00 1.29640E+00 1.50932E+00-1.21623E-01 2.63364E-01-6.46543E-01
 -1      2434 5.08383E-01 6.66126E-02-1.71992E-01-1.87756E-02-3.18173E-02 1.87117E-03
 -1      2435-1.18194E-01-4.39889E-01-9.22342E-01 1.40232E-01 3.42873E-01-2.11665E-01
 -1      2436 7.73374E-01 6.38260E-01 4.64006E-01-1.29203E-01-2.43780E-01-1.58087E-01
 -1      2437-1.73371E+00-1.61443E+00-1.76765E+00 1.40315E-01 3.71693E-01-8.09429E-01
 -1      2438-3.37868E-01-3.36249E-01-1.07313E+00-1.07761E-01-7.91440E-02-5.29288E-01
 -1      2439-1.18121E+00-1.10713E+00-1.97836E+00-4.86254E-02-1.35758E-02-8.33612E-01
 -1      2440 4.05847E-01 2.98992E-01 4.23685E-01-3.47417E-03 2.91724E-01-2.83569E-01
 -1      2441-5.14499E-01-5.74033E-01-5.79167E-01 1.07346E-01-2.18965E-01-4.16616E-01
 -1      2442-2.58930E+00-2.12533E+00-1.03845E+00-6.67896E-06-1.44940E-01-7.64650E-01
 -1      2443 5.00019E-01 3.87461E-01 4.96195E-01 2.53619E-02-3.30814E-01-2.91913E-01
 -1      2444 7.05016E-01 6.49836E-01 8.48792E-01-4.99263E-02-3.73214E-02-4.70095E-01
 -1      2445 1.71094E+00 1.45184E+00 1.80518E+00-6.14287E-02-1.69422E-02-7.24575E-01
 -1      2446-1.61858E-01-7.25303E-02-6.05432E-02 2.62406E-04-1.17514E-01-2.05023E-01
 -1      2447 3.66371E-01 4.06258E-01 7.74676E-01 1.72885E-01-2.91180E-01-3.43322E-01
 -1      2448-1.10244E+00-9.05520E-01-1.18810E+00 1.23339E-01 2.00072E-01-5.11276E-01
 -1      2449-1.32142E+00-6.52382E-01-2.74101E-01 1.52381E-01 1.19850E-01-3.92484E-01
 -1      2450-2.62905E-01-1.96638E-01-3.96841E-01 1.98699E-02-1.55841E-01-3.57199E-01
 -1      2451-8.08211E-01-9.43147E-01-1.49115E+00-2.30233E-01-3.18720E-01-4.88068E-01
 -1      2452-3.58199E-01-3.35061E-01-3.57590E-01 3.57767E-02-3.49801E-01-3.12939E-01
 -1      2453-1.20337E+00-5.91433E-01-1.87794E-01 1.68847E-01 1.50475E-01-3.49506E-01
 -1      2454 8.57787E-01 7.60197E-01 1.23382E+00-1.01636E-01 2.21454E-01-4.94123E-01
 -1      2455-8.35425E-01-5.10027E-01-3.91649E-01-6.48128E-01-1.60197E-01-5.64407E-01
 -1      2456-6.72720E-01-4.82510E-01-4.91131E-01 5.15576E-03 1.74616E-01-2.50328E-01
 -1      2457 4.64509E-01 1.25877E-01-1.60685E-02 2.08207E-02-6.25050E-02-5.13004E-02
 -1      2458 1.02087E+00 9.92246E-01 1.05012E+00 4.47054E-02 4.57910E-01-3.90878E-01
 -1      2459-2.79978E+00-2.74031E+00-1.04229E+00 1.51042E-01-9.91899E-03-7.42020E-01
 -1      2460-7.77086E-01-6.84854E-01-9.08480E-01 1.33977E-01-1.51720E-01-4.69037E-01
 -1      2461-1.16915E+00-1.28741E+00-1.22902E+00-3.29877E-02-3.21598E-01-5.68106E-01
 -1      2462-1.45892E+00-1.43157E+00-1.49331E+00-3.35804E-02-3.12288E-01-6.83063E-01
 -1      2463-2.77852E-01-1.37814E-01 1.91109E-02 4.27683E-02-1.59966E-01-9.96817E-02
 -1      2464 1.23248E+00 1.19560E+00 1.13450E+00 1.02556E-02-3.55635E-01-3.28273E-01
 -1      2465 7.74124E-01 9.03643E-01 1.19409E+00 2.36352E-01-3.76897E-01-4.25499E-01
 -1      2466-1.68226E-01-4.39301E-02 3.60063E-02 2.27729E-02 2.85888E-02-1.05881E-01
 -1      2467-4.01379E-01-8.08700E-02 2.29425E-01-1.57951E-02 4.46777E-02 2.75605E-02
 -1      2468-9.47680E-01-9.67830E-01-1.04694E+00 5.79544E-02-4.51078E-01-4.49702E-01
 -1      2469-1.98545E+00-9.73488E-01-6.20841E-01 3.16313E-01 1.79496E-01-6.50143E-01
 -1      2470-6.36360E-01-5.18068E-01-3.83518E-01 7.72236E-02-2.20163E-01-1.66134E-01
 -1      2471-1.17611E+00-8.60907E-01-1.41065E+00 1.12485E-01 2.27051E-01-6.22392E-01
 -1      2472-3.74743E-01-1.23839E-01 6.63398E-02-2.99890E-02 5.09121E-02-3.83984E-02
 -1      2473-4.91284E-01-5.73216E-01-2.91132E-01 3.73398E-03 1.94955E-01-2.03062E-01
 -1      2474-1.05156E+00-1.14373E+00-8.00388E-01 6.31854E-02 2.83790E-01-3.24533E-01
 -1      2475-4.56067E-03-5.97977E-02-4.68131E-02 3.38391E-02 9.67933E-02-2.14496E-01
 -1      2476-2.57616E-02-4.49557E-03-1.57431E-02-9.55785E-03 1.67540E-02-2.68291E-01
 -1      2477 3.37011E-01 1.50439E-01 5.79005E-02 6.32321E-02-2.56160E-02-1.93236E-02
 -1      2478 3.27476E-03-9.13607E-02-3.93599E-03 6.45705E-02 1.12622E-01-1.24233E-01
 -1      2479 1.24865E-01 1.16231E-01 1.33798E-01 6.82752E-03-3.83490E-02-2.75289E-01
 -1      2480-2.07169E-02-6.21351E-02-1.55106E-01 1.11922E-01 5.70857E-02-9.88353E-02
 -1      2481 1.30472E-01 6.21321E-03-3.93317E-02-8.04435E-02-4.79888E-02-1.16263E-01
 -1      2482-2.55973E-01-6.76214E-02 1.32709E-01 5.81454E-03 2.62305E-02-4.91285E-02
 -1      2483 1.41246E-02 6.73089E-02 4.16099E-02-5.05789E-02 2.63237E-02-2.04247E-01
 -1      2484-1.03499E-03 3.06987E-02-3.50972E-02-1.96838E-02-3.65250E-02-2.61796E-01
 -1      2485-1.97401E-01-1.08012E-02 1.24438E-01-4.45840E-02 9.66665E-02-1.04622E-01
 -1      2486-1.92891E-02-7.14558E-02-7.27897E-02 5.10080E-02 3.33714E-02-2.50552E-01
 -1      2487 3.16647E-01 1.29917E-01-1.08508E-01-5.63206E-02-1.08665E-01-1.56661E-01
 -1      2488 7.02782E-02 1.68377E-02-2.19702E-02 9.82838E-02 2.88307E-02-3.39543E-01
 -1      2489 1.79208E-02 1.60295E-02 4.40240E-02 2.51778E-02-4.44526E-02-2.10068E-01
 -1      2490 6.05435E-02 1.91899E-01 1.26099E-01 6.35329E-02-2.42130E-02-6.64700E-02
 -1      2491-8.41481E-02-1.14019E-01-1.76990E-01 4.32485E-02 4.66428E-02-1.60971E-01
 -1      2492-2.57941E-01-6.99767E-02 2.62400E-03 7.26550E-02-8.64096E-02-6.37540E-02
 -1      2493 4.54655E-02 4.30338E-02 2.30396E-02-5.73533E-02 5.73874E-02-2.21280E-01
 -1      2494 1.39914E-01 3.32372E-02 3.77307E-02 4.79939E-02-1.27056E-01-1.60995E-01
 -1      2495 1.09097E-01-9.58531E-02-1.02720E-01 3.95443E-02 6.13274E-02-3.30857E-02
 -1      2496 3.47854E-01 3.47190E-01 1.96526E-01-3.74554E-02 3.03570E-02-2.42346E-01
 -1      2497-2.05081E-01-7.59140E-02-1.78885E-01 2.33216E-02-1.20814E-02-1.02208E-01
 -1      2498-3.93821E-02-1.55621E-02-6.01274E-02 3.29571E-02 1.07863E-02-2.10396E-01
 -1      2499-2.15304E-01-5.13727E-02 1.37782E-01-6.88518E-02-2.99941E-03-1.31502E-02
 -1      2500-5.52759E-01-4.79635E-01-1.36399E-01 7.37217E-02 1.26476E-01-1.86081E-01
 -1      2501 1.55552E-01 6.52280E-02 1.30807E-01 1.28720E-02-5.93715E-02-2.40560E-01
 -1      2502-2.60409E-01-9.39592E-02-1.12013E-01-1.82385E-02 2.10903E-02-6.97996E-02
 -1      2503 6.62802E-02-9.89089E-02-1.00728E-01-2.01046E-02-3.36365E-02-7.83193E-02
 -1      2504 7.51387E-02 5.16281E-02-5.48439E-02 7.56347E-02 3.81195E-02-8.27357E-02
 -1      2505 1.02630E-01-3.26169E-02 1.39171E-02 2.87415E-02 2.89331E-02-8.37558E-02
 -1      2506 1.80940E-01 1.92918E-01 9.46434E-02 3.06696E-02-8.23752E-02-1.13821E-01
 -1      2507-6.53328E-02-3.70077E-02 7.27970E-02-1.13569E-01 5.56533E-02-1.37122E-01
 -1      2508-1.58838E-01-2.06145E-01-1.88915E-01-6.11224E-02 4.17740E-02-1.50875E-01
 -1      2509-9.09746E-02-8.14931E-02-5.52981E-02-2.97599E-03 6.25673E-03-2.25859E-01
 -1      2510 1.07267E-01 3.34690E-02-2.97099E-02-1.43800E-01-7.44043E-02-3.51778E-01
 -1      2511-2.06674E-02 5.49624E-03 8.97868E-02-4.66771E-02 8.44277E-02-2.49806E-01
 -1      2512 2.09791E-02 4.75429E-02 6.86113E-02-2.21020E-03 2.03235E-02-1.96565E-01
 -1      2513 3.46550E-01 1.74789E-01 1.68504E-01 2.14712E-02 3.28725E-02-3.38063E-02
 -1      2514-7.78214E-01-5.96527E-01-2.42001E-01-3.14341E-02 4.24378E-03-2.07167E-01
 -1      2515-5.70225E-02-5.73935E-02-8.87132E-02 1.60489E-02-5.14056E-02-2.38842E-01
 -1      2516-2.40857E-02-7.84437E-02-1.61907E-01 3.66336E-02 7.35075E-02-2.20881E-01
 -1      2517 7.59799E-01 7.64931E-01 5.37635E-01-9.79253E-03 8.04664E-02-8.93448E-02
 -1      2518-5.12462E-01-4.00822E-01-2.26475E-01-3.32311E-02 1.29271E-01-3.48740E-01
 -1      2519 1.12746E-02 3.75952E-03 1.40452E-01 3.76747E-02 3.83226E-02-1.11534E-01
 -1      2520-8.99532E-02-6.24461E-02-2.03526E-02 7.46797E-02-6.17545E-02-2.24941E-01
 -1      2521 3.28188E-01 2.43165E-01 2.01058E-01-3.80533E-03 1.51160E-02-1.89116E-01
 -1      2522-2.29801E-01-2.07958E-01-1.74244E-01 2.43878E-03-1.17892E-01-1.96396E-01
 -1      2523 6.42174E-03 3.13428E-02 1.41604E-02 3.45021E-03 2.49995E-02-2.05574E-01
 -1      2524 2.95362E-02 7.30986E-02 1.66997E-01 3.12118E-02-4.11442E-02-1.88542E-01
 -1      2525-1.92624E-01-8.37429E-02-1.13857E-01-6.43913E-02 4.26732E-02-1.93658E-01
 -1      2526 1.66561E-01 2.48351E-01 3.65331E-01 5.27247E-02-2.04197E-02-2.01017E-01
 -1      2527-1.46605E-01-2.04003E-01-2.43889E-01 3.16066E-02 4.63340E-03-1.47389E-01
 -1      2528 2.54230E-01 2.48749E-01 2.27175E-01 1.63247E-02-2.50002E-02-1.76672E-01
 -1      2529 5.01261E-01 4.54034E-01 3.94415E-01-1.95728E-02 5.93881E-02-1.66497E-01
 -1      2530-1.40402E-01-1.20693E-01-1.44134E-01 1.51556E-02-8.39514E-03-1.98172E-01
 -1      2531-1.90890E-01-9.15760E-02-1.66793E-01-1.06032E-02-1.01685E-02-2.87620E-01
 -1      2532 2.47750E-01 1.35968E-01 3.83340E-02-1.90802E-01-1.67756E-02-1.86327E-01
 -1      2533-7.24184E-01-6.26663E-01-4.24866E-01-9.97342E-02-1.43991E-01-2.31096E-01
 -1      2534 3.65955E-01 2.76402E-01 2.27242E-01-2.60638E-02-9.29087E-02-2.17751E-01
 -1      2535-1.02300E-01-4.63552E-02-1.01701E-01-8.15381E-02 6.86462E-02-3.81430E-01
 -1      2536 6.25195E-02 2.42974E-02-1.01564E-02-1.32585E-02-2.44279E-02-2.58333E-01
 -1      2537-6.31170E-02-4.75071E-02-5.84650E-02 1.29276E-03-8.07932E-03-2.18202E-01
 -1      2538-5.35801E-01-4.54029E-01-2.59774E-01-9.34636E-02-3.40953E-02-2.77973E-01
 -1      2539 1.56071E-01 5.70711E-02 8.71839E-02-1.23257E-01-7.51969E-02-2.93919E-01
 -1      2540 3.43265E-01 3.30926E-01 2.05940E-01-1.83012E-02 1.30268E-01-1.19956E-01
 -1      2541-1.11554E-02-4.92533E-02-7.03677E-02-2.39312E-02-3.77370E-02-1.89592E-01
 -1      2542 4.89839E-01 3.49195E-01 2.26195E-01 6.63561E-02-6.95276E-03-2.47914E-01
 -1      2543 4.32355E-01 5.79222E-01 3.19625E-01 5.79023E-02 2.64720E-02-1.43461E-01
 -1      2544-4.28234E-01-5.04080E-01-2.60901E-01 1.80896E-02-1.44934E-02-9.46413E-02
 -1      2545 3.97393E-02 1.27689E-01 1.31930E-01-3.29361E-02-4.22458E-02-1.92428E-01
 -1      2546-2.56966E-01-2.15349E-01-7.49112E-02-2.25317E-02-1.49891E-01-1.41592E-01
 -1      2547-7.11122E-01-5.89042E-01-2.79103E-01 4.93187E-02 2.66943E-02-2.46171E-01
 -1      2548 3.06323E-01 1.49720E-01 1.53062E-01 1.70915E-01-5.29891E-04-4.45302E-01
 -1      2549-5.02276E-02-8.46124E-02-1.22907E-01 3.05180E-02-1.38848E-02-2.14498E-01
 -1      2550-2.01270E-01-1.77057E-01 6.72334E-02-5.74241E-02 5.00652E-02-2.17320E-01
 -1      2551 1.67498E-01 2.75830E-01 1.65057E-01-1.75423E-02 2.03908E-02-9.38572E-03
 -1      2552-3.43605E-02-7.67521E-02-7.13780E-02-4.16281E-02 8.96347E-02-1.82052E-01
 -1      2553 1.43685E+00 1.32166E+00 1.03897E+00-3.83054E-02 1.25671E-01-1.90492E-01
 -1      2554 3.59594E-01 3.97830E-01 1.72471E-01 2.81563E-02 2.34518E-02-8.43036E-02
 -1      2555 7.18667E-01 5.69527E-01 2.41181E-01 2.03891E-02 1.50902E-03-1.55594E-01
 -1      2556 6.15316E-01 4.95924E-01 3.50578E-01-1.29974E-02-1.96800E-02-1.27030E-01
 -1      2557-1.27830E-01-1.17304E-01-9.56476E-02-3.10384E-02 1.79958E-02-2.25509E-01
 -1      2558 3.02502E-01 7.49481E-02 8.28880E-02-2.34163E-01-6.91102E-02-4.48412E-01
 -1      2559 6.23578E-01 2.95722E-01 2.48773E-01 3.50003E-02 9.78608E-02-2.62786E-01
 -1      2560-1.04283E-01-1.33848E-01-7.34639E-02-2.78286E-02-4.12264E-03-1.81445E-01
 -1      2561 1.97785E-01 2.26153E-01 2.36647E-01-7.45770E-02-1.09012E-02-2.55101E-01
 -1      2562-4.01850E-01-3.40546E-01-1.39300E-01-1.81191E-02 4.73228E-02-1.24147E-01
 -1      2563-2.46933E-01-2.47940E-01 6.33739E-04-8.60879E-03 6.09850E-02-1.67870E-01
 -1      2564-1.08629E-01-9.37181E-02-1.09156E-01 9.59930E-03-7.45815E-02-1.63904E-01
 -1      2565 8.65009E-01 6.46114E-01 4.81883E-01 1.34312E-01-1.01544E-01-2.15828E-01
 -1      2566-8.03784E-01-5.00738E-01-2.56402E-01-9.07155E-02-4.27438E-02-3.54649E-01
 -1      2567 7.99267E-01 7.67992E-01 4.28856E-01-5.12168E-02 1.37513E-01-1.90771E-01
 -1      2568 6.11382E-01 4.98804E-01 2.29387E-01-1.56984E-01 3.03364E-02-2.16716E-01
 -1      2569-7.49231E-01-9.19253E-01-5.51295E-01-2.91368E-02-4.30375E-02-1.59046E-01
 -1      2570-9.34539E-02-8.00582E-02-1.12348E-01 2.62372E-03-3.78307E-02-2.04506E-01
 -1      2571-6.63936E-01-4.57456E-01-2.88282E-01-3.56174E-02 1.30729E-01-4.32562E-01
 -1      2572-2.92326E-01-2.63092E-01-1.94429E-01-1.35556E-02-3.20197E-02-1.80330E-01
 -1      2573-1.26949E+00-1.02032E+00-7.34812E-01-1.74714E-01-2.02856E-01-3.01812E-01
 -1      2574 9.05731E-02 5.03972E-02 6.43627E-03-4.56154E-03-9.36578E-02-2.29296E-01
 -1      2575-6.92578E-01-2.88322E-01-1.67363E-01-3.89318E-02 6.03480E-02-4.09188E-01
 -1      2576-2.81759E-01-9.59161E-02-1.07999E-01 1.81093E-01 2.03299E-02-2.16333E-01
 -1      2577 1.34143E+00 1.05500E+00 7.69318E-01 3.99697E-02 2.02294E-02-3.33208E-01
 -1      2578-1.17144E+00-8.50305E-01-4.52385E-01 1.82195E-03 6.57185E-03-3.20186E-01
 -1      2579-8.34358E-01-5.06054E-01-2.81757E-01 1.40639E-01 7.98740E-02-2.63202E-01
 -1      2580 9.03518E-01 6.93450E-01 5.16249E-01-9.87889E-02-1.10438E-01-3.05038E-01
 -1      2581-2.64697E-01-9.58494E-02-1.72512E-01 1.84290E-01-3.18447E-02-3.09319E-01
 -1      2582 4.19490E-01 2.45391E-01 2.09696E-01-3.06125E-01-2.61164E-02-3.59042E-01
 -1      2583 5.52595E-01 5.43412E-01 3.33274E-01 6.11999E-02 3.73298E-02-2.07531E-01
 -1      2584-3.98096E-01-3.97115E-01-1.67509E-01 3.39961E-02 7.82843E-03-9.61586E-02
 -1      2585-3.48545E-01-3.07588E-01-3.61957E-02-6.93276E-03-7.15098E-02-1.78711E-01
 -1      2586 6.93121E-02-3.30804E-02-2.65212E-02 1.03533E-01 2.74386E-02-2.33735E-01
 -1      2587 5.85089E-01 7.97648E-01 5.12999E-01 4.10524E-02 5.30979E-02-2.25972E-01
 -1      2588-3.56339E-01-6.45118E-02-2.26076E-01 2.15980E-01-4.64926E-03-3.14172E-01
 -1      2589-1.41665E+00-7.48443E-01-5.73699E-01-1.63890E-01 2.25116E-02-5.12325E-01
 -1      2590 4.92626E-01 2.27925E-01 3.39894E-01-3.85679E-01-2.25019E-02-6.35190E-01
 -1      2591 2.54948E-01 2.57842E-01 4.24115E-01-2.02775E-01 2.74522E-02-3.53247E-01
 -1      2592 1.18504E+00 1.04340E+00 6.66675E-01 8.78172E-03-1.06900E-02-2.85517E-01
 -1      2593-1.34302E+00-1.06990E+00-6.00339E-01 5.43015E-02-2.70277E-02-3.42737E-01
 -1      2594-2.15741E-01-9.38626E-02-1.28822E-01-1.57331E-01 1.81818E-02-3.03194E-01
 -1      2595-1.11419E+00-8.43856E-01-5.78548E-01-1.25837E-01-8.79518E-02-3.27199E-01
 -1      2596 6.75125E-01 3.15892E-01 2.10667E-01 5.62177E-02 2.91286E-02-3.05312E-01
 -1      2597-3.59539E-01-2.01075E-01-2.53092E-01-2.29546E-01 3.34983E-02-5.40015E-01
 -1      2598-4.19402E-01-3.20649E-01-1.41373E-01 4.73294E-02-1.69341E-01-1.87869E-01
 -1      2599-9.68774E-01-7.11015E-01-5.76147E-01-5.16067E-02 5.68791E-02-2.76027E-01
 -1      2600 1.00389E+00 7.61738E-01 5.59335E-01 4.28885E-02 2.05477E-02-3.35561E-01
 -1      2601 3.55725E-01 3.55891E-01 2.14981E-01 3.46906E-02-9.45148E-03-6.02276E-02
 -1      2602 1.20325E+00 9.17630E-01 6.14141E-01 1.22098E-01-9.00479E-02-3.03123E-01
 -1      2603-1.52095E+00-1.12217E+00-6.52766E-01-6.69459E-02-2.22039E-02-3.35456E-01
 -1      2604 7.63131E-02 1.84193E-02-4.76270E-02 5.39272E-02 6.38573E-02-2.37160E-01
 -1      2605-3.55818E-01-5.39612E-02-2.09188E-01 2.96971E-01-6.73791E-02-4.89196E-01
 -1      2606 5.15514E-03 3.02981E-02 9.87123E-02 6.11567E-02-1.34105E-02-1.17323E-01
 -1      2607 1.41581E+00 1.30577E+00 8.76796E-01-7.98872E-02 1.30506E-01-3.14376E-01
 -1      2608 2.00035E+00 1.50934E+00 1.12207E+00-7.87421E-02-2.43898E-02-5.08795E-01
 -1      2609-6.48002E-02 1.14501E-01 1.73205E-01 7.13196E-02-5.38846E-02-2.10728E-01
 -1      2610-1.10883E+00-1.11751E+00-7.76371E-01 1.95406E-02-3.40386E-02-2.56037E-01
 -1      2611-1.82178E+00-1.42959E+00-1.02002E+00-2.35602E-01-2.47536E-01-4.09233E-01
 -1      2612-7.85214E-01-6.94020E-01-6.46706E-01-2.63868E-02-7.58817E-02-2.64791E-01
 -1      2613-2.91121E-01-1.90537E-01-2.29449E-01 8.17361E-02 2.20404E-02-2.37317E-01
 -1      2614-8.80136E-01-7.67542E-01-3.46796E-01 1.71249E-02 1.85567E-02-2.23587E-01
 -1      2615-2.27748E+00-1.67774E+00-1.18851E+00 6.28283E-02 3.85829E-02-5.25881E-01
 -1      2616 1.99356E-02-1.58948E-01-3.27660E-01 8.79240E-02 9.36264E-02-2.11545E-01
 -1      2617 5.16166E-01 1.94748E-01 2.28709E-01 3.43547E-01-2.28276E-03-6.28516E-01
 -1      2618 1.13768E+00 5.61647E-01 5.43058E-01 3.61308E-02 1.42862E-01-3.59300E-01
 -1      2619-5.58685E-01-3.57176E-01-1.73499E-01 1.19258E-01-9.38942E-02-2.41807E-01
 -1      2620 1.78276E+00 1.78766E+00 1.32944E+00-1.22442E-01 9.60346E-02-2.62946E-01
 -1      2621 4.68310E-02 7.10188E-02 7.43186E-02-3.21098E-02 4.28257E-02-1.69137E-01
 -1      2622-6.74202E-01-5.52869E-01-3.43254E-01-2.11317E-02-3.01174E-03-1.68915E-01
 -1      2623-5.15407E-01-4.27326E-01-3.15951E-01-8.58345E-02 1.22533E-02-3.23926E-01
 -1      2624-2.97664E-01-2.12180E-01 3.09000E-02 8.76198E-04 5.79847E-02-2.55841E-01
 -1      2625 7.08313E-01 6.75396E-01 5.96022E-01-1.14827E-01 4.74936E-02-2.65614E-01
 -1      2626 9.91667E-01 6.61758E-01 4.61903E-01-2.04151E-01-1.14660E-02-3.04285E-01
 -1      2627 1.66197E+00 1.23986E+00 8.43072E-01 8.35926E-02 2.58048E-02-4.34409E-01
 -1      2628-6.26219E-01-1.59676E-01-4.26120E-01 4.62957E-01-2.05088E-02-6.88916E-01
 -1      2629 6.58416E-01 4.19044E-01 3.47759E-01-5.66965E-01-4.41215E-03-5.87155E-01
 -1      2630 9.39692E-01 9.51605E-01 5.24107E-01-6.21245E-03-7.54322E-02-1.40884E-01
 -1      2631 9.21021E-01 8.00692E-01 6.94796E-01-3.71932E-02-1.09351E-02-3.27111E-01
 -1      2632 3.84904E-01 2.15248E-01 4.17747E-02 4.56171E-02 3.46704E-02-2.43154E-01
 -1      2633-8.67612E-01-9.62011E-01-3.82793E-01-1.87147E-02 2.64166E-02-4.06352E-02
 -1      2634 1.76932E-01 2.90078E-01 1.69802E-01 9.07739E-03-5.58793E-03-1.45346E-01
 -1      2635-4.35524E-01-2.64856E-01-1.43431E-01 4.02996E-02 5.18508E-02-2.15172E-01
 -1      2636 2.40457E+00 2.14867E+00 1.36601E+00-1.48743E-01 2.02409E-02-5.34852E-01
 -1      2637 7.41147E-01 5.99771E-01 3.73400E-01 3.41097E-02 6.66845E-02-1.76107E-01
 -1      2638-1.21713E+00-1.30602E+00-7.07316E-01 5.68842E-03 9.81085E-03-1.70996E-01
 -1      2639 2.54240E-01 3.31295E-01 3.86926E-01 1.25094E-01-1.27850E-01-2.73370E-01
 -1      2640 1.17992E-01-5.93468E-02-1.01166E-01 1.22872E-01 5.65970E-02-2.98468E-01
 -1      2641 9.72635E-01 8.16239E-01 6.44798E-01 2.14820E-02 1.05815E-01-3.01886E-01
 -1      2642 6.83237E-01 8.11486E-01 2.70246E-01-1.24342E-02 1.72772E-02-1.28612E-01
 -1      2643 5.55486E-01 4.63697E-01 3.33156E-01-9.59947E-04 2.96847E-02-2.97296E-01
 -1      2644 3.85537E-01 2.81552E-01-4.70000E-02-4.79743E-02-6.47293E-02-1.45596E-01
 -1      2645 1.08172E+00 1.27699E+00 7.52614E-01 5.10958E-02-7.88579E-02-1.57384E-01
 -1      2646-4.99647E-01-2.58334E-01-2.75709E-01-3.62489E-01-3.57720E-02-4.11283E-01
 -1      2647-2.45681E-01 1.76915E-01 1.62335E-01 1.85364E-01-9.42688E-02-2.64281E-01
 -1      2648-7.97548E-01-5.58924E-01-5.73486E-01-1.38033E-01 4.49054E-02-4.07003E-01
 -1      2649-7.55996E-01-7.03479E-01-1.68487E-01-3.40422E-02-4.70219E-02-9.40272E-02
 -1      2650 1.27839E+00 7.00879E-01 4.74930E-01 1.65746E-01-9.62108E-02-3.59386E-01
 -1      2651-3.19788E-01-4.17385E-01-5.70928E-01-1.35128E-01-9.95553E-02-3.23840E-01
 -1      2652 1.48586E+00 1.68806E+00 1.12011E+00 1.34328E-01-4.44655E-02-3.13395E-01
 -1      2653-2.49335E-01-2.40942E-01-4.17665E-01 2.25523E-01 5.95178E-02-3.82014E-01
 -1      2654-1.13683E+00-1.10148E+00-8.45367E-01-2.62364E-02 6.55099E-02-3.59379E-01
 -1      2655-1.26933E+00-1.42985E+00-9.42101E-01-5.74524E-02-9.59924E-02-2.25245E-01
 -1      2656-6.72665E-01-4.96090E-01-2.58062E-01-6.06915E-02-2.27519E-02-2.40985E-01
 -1      2657 1.20097E+00 4.90791E-01 5.40630E-01 4.09080E-02 2.57082E-02-4.34203E-01
 -1      2658 1.91258E+00 1.50951E+00 1.09596E+00 2.46102E-01-5.40330E-02-4.54528E-01
 -1      2659-2.46244E-01-2.25053E-01-2.90244E-01 7.31158E-02 1.18231E-01-1.63950E-01
 -1      2660 2.59996E+00 2.68989E+00 1.85523E+00-2.68785E-01 6.94160E-02-4.69958E-01
 -1      2661 9.71030E-01 9.11528E-01 7.34999E-01 4.77833E-02 5.20308E-02-3.20348E-01
 -1      2662 1.98909E+00 1.59028E+00 1.14070E+00-3.13739E-01 1.28821E-01-4.91198E-01
 -1      2663-4.07503E-01-3.80090E-01-3.38076E-01-8.88430E-02-1.30123E-01-3.02392E-01
 -1      2664 1.37478E+00 1.11010E+00 8.54848E-01 1.73594E-03 1.62358E-01-4.52495E-01
 -1      2665-1.59625E+00-1.29998E+00-8.49870E-01 2.51333E-01 2.08740E-01-4.03379E-01
 -1      2666 4.04583E-01 2.40004E-01 1.47766E-01 2.69981E-01-1.99629E-02-3.24819E-01
 -1      2667 1.33810E+00 9.22496E-01 6.85120E-01-8.67337E-02-1.86600E-01-3.80282E-01
 -1      2668-8.62004E-01-4.84435E-01-3.19100E-01 1.12775E-01 3.48376E-02-2.94430E-01
 -1      2669-4.33687E-01-3.22074E-01-2.76050E-01 5.79706E-02 2.58343E-02-1.96434E-01
 -1      2670-1.74621E+00-1.55702E+00-7.28195E-01 1.20653E-01-3.23143E-02-4.93753E-01
 -1      2671 1.72135E+00 9.14970E-01 5.81309E-01-2.50284E-01 2.97018E-03-5.10318E-01
 -1      2672 3.39442E+00 2.57366E+00 2.13890E+00-3.16582E-01 1.77891E-02-8.84733E-01
 -1      2673 9.44347E-01 7.63906E-01 3.55288E-01-1.11232E-02-3.85959E-02-2.10952E-01
 -1      2674-2.75878E-02 8.06713E-02 5.20973E-03 4.55755E-03-3.64431E-02-1.53866E-01
 -1      2675-1.58945E+00-1.82673E+00-1.09072E+00 1.51813E-01 5.22616E-04-2.87068E-01
 -1      2676-2.15343E+00-1.59186E+00-9.86360E-01-1.13259E-01-8.85582E-02-4.69248E-01
 -1      2677 4.76510E-01 3.86741E-01 2.17903E-01 3.83675E-02 1.83414E-02-1.82310E-01
 -1      2678 5.11059E-01 4.22533E-01 3.20239E-01 2.87769E-02-2.59538E-02-1.88190E-01
 -1      2679 1.04268E+00 1.01196E+00 9.21511E-01 1.55258E-02-9.10132E-02-3.53225E-01
 -1      2680 2.28965E-01 2.17595E-01 1.20323E-01-8.04351E-02 5.91789E-02-1.46237E-01
 -1      2681 4.16295E-01 1.48960E-01 1.16763E-01 3.62686E-01-2.91455E-02-4.92251E-01
 -1      2682-4.89497E-02-5.42764E-02-5.90303E-02 4.62416E-02 1.37138E-02-1.92186E-01
 -1      2683-4.22057E-02-4.20744E-02 9.73365E-04-5.06025E-02 2.99761E-02-2.67804E-01
 -1      2684-4.22579E-01-1.97305E-01 2.90976E-01 1.20224E-02 1.06130E-01-2.99863E-01
 -1      2685-1.32685E+00-7.97557E-01-6.89726E-01-1.03001E-02 1.69935E-01-6.12850E-01
 -1      2686-1.98902E-01-1.31301E-01-9.52865E-02-8.12083E-02-6.51001E-02-1.39646E-01
 -1      2687-4.91121E-01-4.51589E-01 1.03897E-01-1.94181E-03 7.27567E-02-1.21499E-01
 -1      2688 1.12667E+00 1.12201E+00 8.21700E-01-1.20271E-01-6.70449E-02-1.51998E-01
 -1      2689 5.33434E-01 4.76317E-01 4.10413E-01 6.01891E-02-4.21457E-02-3.08619E-01
 -1      2690 9.18170E-01 7.79456E-01 4.46111E-01 4.26513E-02-2.86195E-02-2.10017E-01
 -1      2691-5.66764E-01-2.48948E-01-3.48446E-01-4.35155E-01 3.16791E-02-7.74483E-01
 -1      2692-3.65743E-01-2.22348E-01 7.25587E-02 5.19360E-02-7.74167E-02-1.66004E-01
 -1      2693-2.12242E+00-2.15181E+00-1.32978E+00 1.55162E-01-4.91945E-03-5.44922E-01
 -1      2694 2.10040E-01 2.11363E-01 2.53655E-01 1.38875E-01-8.62869E-02-3.13694E-01
 -1      2695 5.74756E-01 2.61225E-01 2.49041E-02 2.64411E-02 3.61240E-02-1.52460E-01
 -1      2696-1.28696E+00-9.86380E-01-9.06985E-01-5.62642E-02-1.37712E-01-3.26372E-01
 -1      2697 1.93132E+00 8.42003E-01 8.44347E-01 1.36609E-01-8.56214E-02-6.29486E-01
 -1      2698-1.60601E+00-1.52329E+00-7.97656E-01 3.57857E-02-9.86649E-03-4.14627E-01
 -1      2699 9.85122E-01 5.52414E-01 6.27273E-01 8.62437E-02 2.17822E-02-3.58994E-01
 -1      2700 6.54989E-01 5.53779E-01 3.64765E-01-3.29912E-02 3.64621E-02-3.07287E-01
 -1      2701 2.42705E+00 1.84572E+00 1.30943E+00 1.11755E-01 9.67991E-02-6.01682E-01
 -1      2702-1.05654E-01 8.24423E-02 3.17255E-01-9.08832E-02 1.46756E-01-2.36224E-01
 -1      2703-1.19999E-01 2.69589E-02 1.31866E-01-2.18979E-02 5.01619E-02-1.42317E-01
 -1      2704 1.57587E-01-2.36880E-02-1.25749E-01-1.22281E-01-1.06969E-01-2.21512E-01
 -1      2705-5.12880E-01-4.20380E-01-1.19232E-01-9.75042E-02 4.23120E-02-1.91654E-01
 -1      2706 4.39143E-01 2.73380E-01 1.41875E-01-3.54722E-02 5.83151E-02-2.18540E-01
 -1      2707 6.09502E-01 4.95361E-01 6.69283E-01 6.07485E-02-1.10987E-01-3.62633E-01
 -1      2708 1.08408E+00 9.10145E-01 4.59179E-01 1.69222E-01 1.10058E-01-2.11236E-01
 -1      2709 1.31408E+00 1.39602E+00 9.50150E-01 7.41436E-02-1.26702E-01-4.70272E-01
 -1      2710-8.59332E-01-7.10926E-01-6.77721E-01 2.64615E-02-3.21098E-02-3.64282E-01
 -1      2711-1.37997E+00-7.20599E-01-6.22327E-01 1.17012E-01-1.18991E-01-4.23129E-01
 -1      2712 2.27049E-01 1.71180E-01 1.24564E-01 4.17081E-02-8.30324E-02-1.57896E-01
 -1      2713-1.50087E-01-1.80635E-01-1.47001E-01-4.06352E-02-4.25482E-02-1.08175E-01
 -1      2714 1.71898E+00 9.28893E-01 7.99195E-01-1.65783E-01-1.26243E-01-5.32242E-01
 -1      2715 1.58464E+00 6.02811E-01 6.92894E-01-5.46588E-02 1.14888E-01-5.35518E-01
 -1      2716 5.67023E-02 2.44604E-02 8.11933E-03-3.29534E-02 1.73285E-02-1.82175E-01
 -1      2717-9.34035E-01-8.68078E-01-5.01609E-01 3.80769E-02 1.05099E-01-1.95770E-01
 -1      2718-8.84908E-01-7.31135E-01-1.61796E-01 8.01351E-02 3.42952E-02-1.91286E-01
 -1      2719 1.68632E-01 2.00921E-01 2.06095E-01 2.38588E-02-1.40908E-02-2.15850E-01
 -1      2720 4.17157E-01 3.86250E-01 2.70686E-01-2.34346E-01 4.01438E-02-2.46004E-01
 -1      2721-5.26949E-01-4.03685E-01-3.54976E-01 1.12219E-01 4.78768E-02-2.95502E-01
 -1      2722-8.37057E-01-6.48863E-01-1.11531E-01-1.54533E-01-7.58355E-02-2.09040E-01
 -1      2723-5.88898E-01-2.60967E-01-3.06012E-01-5.20759E-01-4.00081E-02-6.23584E-01
 -1      2724 1.59345E+00 1.39436E+00 7.56618E-01 5.05421E-02 7.90742E-02-4.16006E-01
 -1      2725-1.15668E+00-1.14884E+00-5.18699E-01 6.08972E-02-1.40423E-01-2.42949E-01
 -1      2726 5.02663E-01 5.86456E-01 7.63572E-01 2.47452E-01-2.33789E-01-4.40362E-01
 -1      2727 2.03025E+00 2.56640E+00 1.65660E+00 2.09339E-01-1.35413E-01-4.64878E-01
 -1      2728 2.12433E-01-1.55368E-01-4.09760E-01 1.69815E-01 1.17572E-01-3.78767E-01
 -1      2729 1.06014E+00 1.14918E+00 6.42520E-01 8.20110E-02 5.68745E-02-2.43315E-01
 -1      2730-1.25017E+00-1.32811E+00-8.67430E-01-3.37217E-02-1.05850E-01-2.78174E-01
 -1      2731-1.06726E+00-9.76601E-01-7.88391E-01 4.19299E-02-1.27471E-01-3.50117E-01
 -1      2732 1.12665E+00 8.87325E-01 6.81485E-01 4.79359E-02-1.00480E-01-4.55175E-01
 -1      2733-5.29241E-01-1.57336E-01-2.92131E-01 4.60695E-01 4.83624E-02-4.87375E-01
 -1      2734-1.19562E+00-9.46802E-01-8.27783E-01-1.62494E-02 6.09804E-02-4.18075E-01
 -1      2735 2.16786E+00 2.18923E+00 1.36310E+00 1.11535E-01 5.69747E-02-6.01243E-01
 -1      2736 9.33048E-01 6.74652E-01 3.10977E-01-1.30495E-01-4.05265E-02-2.21754E-01
 -1      2737 1.16730E+00 9.56289E-01 6.52271E-01 1.87995E-02-1.98363E-02-3.20879E-01
 -1      2738-1.61162E+00-8.64972E-01-6.68675E-01 2.12487E-01 6.45421E-02-4.88417E-01
 -1      2739-7.63422E-02-1.12867E-01-7.18933E-02 3.60284E-03-6.36217E-02-1.34734E-01
 -1      2740 7.26066E-01 2.37727E-01 4.03836E-02 1.95364E-02 6.15970E-02-2.60777E-01
 -1      2741-4.78189E-01-4.51519E-01-7.96613E-01-2.81224E-01-1.28431E-01-5.60633E-01
 -1      2742-1.15901E+00-1.33701E+00-9.45001E-01 4.08441E-02 9.83260E-02-3.97823E-01
 -1      2743 3.32224E-01 2.99940E-01 1.20755E-01-7.12382E-02-1.22113E-02-2.08855E-01
 -1      2744-5.64307E-01-4.45027E-01-2.57712E-01 4.14374E-02 1.23516E-01-2.36615E-01
 -1      2745 9.81991E-01 7.39773E-01 8.68687E-01-1.69163E-01 5.98840E-02-4.66309E-01
 -1      2746-3.29969E-01-4.41807E-02 2.01618E-01-2.26360E-01 9.77824E-02-4.27364E-01
 -1      2747 6.43574E-01 5.09822E-01 4.66172E-01-2.93264E-02 1.06558E-02-2.79416E-01
 -1      2748-1.05295E+00-1.22532E+00-6.53058E-01-3.31473E-03 4.28631E-02-2.11677E-01
 -1      2749-7.44871E-01-5.62260E-01-4.40078E-01 5.03062E-02-3.98320E-02-3.42205E-01
 -1      2750-9.35164E-01-7.86785E-01-9.41677E-01-8.30384E-02-1.53558E-02-5.00889E-01
 -1      2751 6.11649E-01 3.09999E-01-1.85726E-01 1.11738E-02-1.31802E-01-1.64001E-01
 -1      2752 9.44846E-02 1.22715E-01 7.27309E-02-2.36673E-02-1.30009E-02-2.12976E-01
 -1      2753-6.77463E-01-2.97281E-01 9.83537E-02 7.72899E-02-4.89717E-02-1.98944E-01
 -1      2754 5.51585E-01 4.55966E-01 3.93324E-01-8.28923E-02 1.40397E-01-2.77872E-01
 -1      2755 3.86050E-01 1.39855E-01 3.26215E-02 1.72058E-02-7.19372E-02-7.56207E-02
 -1      2756-7.32224E-01-4.45528E-01-5.57174E-01 1.32397E-01 2.00710E-02-3.72280E-01
 -1      2757-1.83662E+00-2.25737E+00-1.26298E+00-1.22504E-01-1.13190E-01-3.43035E-01
 -1      2758 7.50815E-01 6.48558E-01 4.75940E-01-1.39032E-02 1.64989E-01-2.44445E-01
 -1      2759 6.16604E-01 5.69031E-01 4.11109E-01 5.15274E-03-2.01468E-01-2.62255E-01
 -1      2760 3.37163E-01 2.22111E-01-1.22067E-01-5.60707E-02 4.43104E-02-8.42203E-02
 -1      2761-7.75756E-01-6.43912E-01-3.93952E-01-6.26409E-03-2.14418E-01-3.16234E-01
 -1      2762-1.07163E+00-1.17250E+00-7.81713E-01-1.67762E-02-1.94035E-01-2.91948E-01
 -1      2763-2.28308E+00-2.34283E+00-1.25630E+00 1.13561E-02-8.39129E-02-5.65569E-01
 -1      2764-5.80749E-01-4.37216E-01-1.47149E-01-1.18639E-02-1.36224E-01-1.68668E-01
 -1      2765-1.03846E+00-8.77304E-01-6.14899E-01 2.69998E-02-3.21065E-02-3.01961E-01
 -1      2766-3.30645E-01-1.33864E-01 1.30603E-01 3.71607E-02 9.79481E-03-6.75778E-02
 -3
 9999
