    1C
    1U meshsolid_t.inp                                                  
    1UUSER                                                              
    1UDATE              02.july.2016                                    
    1UTIME              20:00:41                                        
    1UHOST                                                              
    1UPGM               CalculiX                                        
    1UVERSION           Version 2.10                             
    1UCOMPILETIME       Sa 5. MÃ¤r 12:23:33 CET 2016                    
    1UDIR                                                               
    1UDBN                                                               
    1UMAT    1PDMS                                                      
    2C                          2775                                     1
 -1         1 3.35263E+00 5.00000E-01 1.70000E+00
 -1         2 6.54013E+00-5.00000E-01 1.70000E+00
 -1         3 6.54013E+00 5.00000E-01 1.70000E+00
 -1         4 8.66513E+00-5.00000E-01 1.70000E+00
 -1         5 1.18526E+01 5.00000E-01 1.70000E+00
 -1         6 1.18526E+01 5.00000E-01 3.49999E-01
 -1         7 3.35263E+00-5.00000E-01 1.70000E+00
 -1         8 1.18526E+01-5.00000E-01 1.70000E+00
 -1         9 8.66513E+00-5.00000E-01 3.49999E-01
 -1        10 6.54013E+00 5.00000E-01 3.49999E-01
 -1        11 6.54013E+00-1.00000E+00 1.70000E+00
 -1        12 6.54013E+00 1.00000E+00 3.49999E-01
 -1        13 8.66513E+00-1.00000E+00 3.49999E-01
 -1        14 8.66513E+00 1.00000E+00 1.70000E+00
 -1        15 8.66513E+00 5.00000E-01 1.70000E+00
 -1        16 8.66513E+00 5.00000E-01 3.49999E-01
 -1        17 8.66513E+00-1.00000E+00 1.70000E+00
 -1        18 8.66513E+00 1.00000E+00 3.49999E-01
 -1        19 6.54013E+00 1.00000E+00 1.70000E+00
 -1        20 2.94561E+00 1.67735E+00 1.70000E+00
 -1        21 8.26062E+00 2.66397E+00 1.70000E+00
 -1        22 8.44124E+00 2.19773E+00 1.70000E+00
 -1        23 6.45973E+00 1.43010E+00 1.70000E+00
 -1        24 5.91787E+00 2.82880E+00 1.70000E+00
 -1        25 3.30686E+00 7.44874E-01 1.70000E+00
 -1        26 1.12329E+01 3.81543E+00 1.70000E+00
 -1        27 6.27911E+00 1.89633E+00 1.70000E+00
 -1        28 8.26062E+00 2.66397E+00 3.49999E-01
 -1        29 7.89937E+00 3.59644E+00 1.70000E+00
 -1        30 1.08716E+01 4.74790E+00 1.70000E+00
 -1        31 7.89937E+00 3.59644E+00 3.49999E-01
 -1        32 5.91787E+00 2.82880E+00 3.49999E-01
 -1        33 5.73725E+00 3.29504E+00 1.70000E+00
 -1        34 7.71875E+00 4.06268E+00 1.70000E+00
 -1        35 6.45973E+00 1.43010E+00 3.49999E-01
 -1        36 2.81447E+00 1.88915E+00 3.49999E-01
 -1        37 2.14078E+00 2.62816E+00 1.70000E+00
 -1        38 8.42235E+00 8.35457E+00 1.70000E+00
 -1        39 9.09605E+00 7.61556E+00 1.70000E+00
 -1        40 6.06676E+00 6.20717E+00 1.70000E+00
 -1        41 4.49637E+00 4.77556E+00 1.70000E+00
 -1        42 6.74046E+00 5.46816E+00 1.70000E+00
 -1        43 7.07730E+00 5.09865E+00 1.70000E+00
 -1        44 5.50691E+00 3.66705E+00 1.70000E+00
 -1        45 5.17006E+00 4.03655E+00 1.70000E+00
 -1        46 4.15952E+00 5.14507E+00 1.70000E+00
 -1        47 2.81447E+00 1.88915E+00 1.70000E+00
 -1        48 6.06676E+00 6.20717E+00 3.49999E-01
 -1        49 2.14078E+00 2.62816E+00 3.49999E-01
 -1        50 6.74046E+00 5.46816E+00 3.49999E-01
 -1        51 5.72991E+00 6.57667E+00 1.70000E+00
 -1        52 1.04681E+00 3.22402E+00 1.70000E+00
 -1        53 1.04681E+00 3.22402E+00 3.49999E-01
 -1        54 2.02002E+00 6.30022E+00 1.70000E+00
 -1        55 3.41480E+00 7.97958E+00 1.70000E+00
 -1        56 2.46761E+00 6.07735E+00 1.70000E+00
 -1        57 1.94198E+00 2.77828E+00 1.70000E+00
 -1        58 3.36277E+00 5.63162E+00 1.70000E+00
 -1        59 3.81035E+00 5.40875E+00 1.70000E+00
 -1        60 4.83559E+00 1.08329E+01 1.70000E+00
 -1        61 4.30996E+00 7.53384E+00 1.70000E+00
 -1        62 5.73075E+00 1.03872E+01 1.70000E+00
 -1        63 2.46761E+00 6.07735E+00 3.49999E-01
 -1        64 3.36277E+00 5.63162E+00 3.49999E-01
 -1        65 2.96722E+00 8.20245E+00 1.70000E+00
 -1        66 3.41480E+00 7.97958E+00 3.49999E-01
 -1        67 4.75754E+00 7.31097E+00 1.70000E+00
 -1        68 4.75754E+00 7.31097E+00 3.49999E-01
 -1        69 3.81035E+00 5.40875E+00 3.49999E-01
 -1        70 2.02002E+00 6.30022E+00 3.49999E-01
 -1        71-1.88525E-01 3.38446E+00 3.49999E-01
 -1        72-1.88525E-01 3.38446E+00 1.70000E+00
 -1        73 1.05580E-01 6.55837E+00 1.70000E+00
 -1        74 5.95756E-01 1.18482E+01 1.70000E+00
 -1        75 3.01650E-01 8.67430E+00 1.70000E+00
 -1        76 8.07209E-01 3.29220E+00 1.70000E+00
 -1        77 1.10131E+00 6.46610E+00 1.70000E+00
 -1        78 1.59149E+00 1.17559E+01 1.70000E+00
 -1        79 1.29738E+00 8.58203E+00 1.70000E+00
 -1        80 3.01650E-01 8.67430E+00 3.49999E-01
 -1        81 1.10131E+00 6.46610E+00 3.49999E-01
 -1        82-3.92287E-01 6.60450E+00 1.70000E+00
 -1        83 1.05580E-01 6.55837E+00 3.49999E-01
 -1        84 1.79525E+00 8.53590E+00 1.70000E+00
 -1        85-1.96217E-01 8.72044E+00 1.70000E+00
 -1        86 1.59918E+00 6.41996E+00 1.70000E+00
 -1        87-2.76271E+00 1.15370E+01 1.70000E+00
 -1        88-8.27966E-01 6.56413E+00 1.70000E+00
 -1        89-1.89041E+00 8.47118E+00 1.70000E+00
 -1        90-2.27070E+00 6.15363E+00 1.70000E+00
 -1        91-1.39840E+00 3.08782E+00 1.70000E+00
 -1        92-1.30888E+00 6.42730E+00 3.49999E-01
 -1        93-4.36578E-01 3.36148E+00 1.70000E+00
 -1        94-1.89041E+00 8.47118E+00 3.49999E-01
 -1        95-3.72454E+00 1.12633E+01 1.70000E+00
 -1        96-2.85224E+00 8.19751E+00 1.70000E+00
 -1        97-1.30888E+00 6.42730E+00 1.70000E+00
 -1        98-8.27966E-01 6.56413E+00 3.49999E-01
 -1        99-2.75162E+00 6.01680E+00 1.70000E+00
 -1       100-1.40950E+00 8.60801E+00 1.70000E+00
 -1       101-1.40950E+00 8.60801E+00 3.49999E-01
 -1       102-3.33315E+00 8.06068E+00 1.70000E+00
 -1       103-3.33315E+00 8.06068E+00 3.49999E-01
 -1       104-6.74380E+00 9.75992E+00 1.70000E+00
 -1       105-4.42389E+00 7.51756E+00 1.70000E+00
 -1       106-4.82290E+00 7.21624E+00 1.70000E+00
 -1       107-4.34032E+00 4.91782E+00 1.70000E+00
 -1       108-4.73933E+00 4.61650E+00 1.70000E+00
 -1       109-6.01993E+00 6.31229E+00 1.70000E+00
 -1       110-2.41942E+00 2.37414E+00 1.70000E+00
 -1       111-3.54230E+00 5.52045E+00 1.70000E+00
 -1       112-7.54181E+00 9.15729E+00 1.70000E+00
 -1       113-1.62140E+00 2.97677E+00 1.70000E+00
 -1       114-4.82290E+00 7.21624E+00 3.49999E-01
 -1       115-3.14329E+00 5.82177E+00 1.70000E+00
 -1       116-3.54230E+00 5.52045E+00 3.49999E-01
 -1       117-3.14329E+00 5.82177E+00 3.49999E-01
 -1       118-4.73933E+00 4.61650E+00 3.49999E-01
 -1       119-4.34032E+00 4.91782E+00 3.49999E-01
 -1       120-5.62092E+00 6.61361E+00 1.70000E+00
 -1       121-3.11368E+00 1.33982E+00 1.70000E+00
 -1       122-3.11368E+00 1.33982E+00 3.49999E-01
 -1       123-9.81409E+00 6.66471E+00 1.70000E+00
 -1       124-5.29732E+00 3.86804E+00 1.70000E+00
 -1       125-7.63046E+00 4.13650E+00 1.70000E+00
 -1       126-7.89368E+00 3.71139E+00 1.70000E+00
 -1       127-5.82375E+00 3.01783E+00 1.70000E+00
 -1       128-2.58725E+00 2.19004E+00 1.70000E+00
 -1       129-5.29732E+00 3.86804E+00 3.49999E-01
 -1       130-1.03405E+01 5.81450E+00 1.70000E+00
 -1       131-5.82375E+00 3.01783E+00 3.49999E-01
 -1       132-6.08696E+00 2.59272E+00 1.70000E+00
 -1       133-6.84081E+00 5.41182E+00 1.70000E+00
 -1       134-7.10403E+00 4.98671E+00 3.49999E-01
 -1       135-7.10403E+00 4.98671E+00 1.70000E+00
 -1       136-7.89368E+00 3.71139E+00 3.49999E-01
 -1       137-7.63046E+00 4.13650E+00 3.49999E-01
 -1       138-5.03410E+00 4.29315E+00 1.70000E+00
 -1       139-5.03410E+00 4.29315E+00 3.49999E-01
 -1       140-6.08696E+00 2.59272E+00 3.49999E-01
 -1       141-3.38742E+00 1.24558E-01 1.70000E+00
 -1       142-8.60947E+00 1.10073E+00 1.70000E+00
 -1       143-8.42572E+00 2.08370E+00 1.70000E+00
 -1       144-6.24502E+00 2.18472E+00 1.70000E+00
 -1       145-6.52065E+00 7.10259E-01 1.70000E+00
 -1       146-1.15589E+01 2.66940E+00 1.70000E+00
 -1       147-1.17427E+01 1.68643E+00 1.70000E+00
 -1       148-3.20367E+00 1.10753E+00 1.70000E+00
 -1       149-6.33690E+00 1.69323E+00 3.49999E-01
 -1       150-8.42572E+00 2.08370E+00 3.49999E-01
 -1       151-8.60947E+00 1.10073E+00 3.49999E-01
 -1       152-6.33690E+00 1.69323E+00 1.70000E+00
 -1       153-6.61252E+00 2.18773E-01 1.70000E+00
 -1       154-6.52065E+00 7.10259E-01 3.49999E-01
 -1       155-8.33384E+00 2.57519E+00 1.70000E+00
 -1       156-8.70134E+00 6.09241E-01 1.70000E+00
 -1       157-3.38742E+00-1.24558E-01 3.49999E-01
 -1       158-6.33690E+00-1.69323E+00 1.70000E+00
 -1       159-3.38742E+00-1.24558E-01 1.70000E+00
 -1       160-8.33384E+00-2.57519E+00 1.70000E+00
 -1       161-6.61252E+00-2.18773E-01 1.70000E+00
 -1       162-1.15589E+01-2.66940E+00 1.70000E+00
 -1       163-8.42572E+00-2.08370E+00 1.70000E+00
 -1       164-1.17427E+01-1.68643E+00 1.70000E+00
 -1       165-6.52065E+00-7.10259E-01 1.70000E+00
 -1       166-8.60947E+00-1.10073E+00 3.49999E-01
 -1       167-1.17427E+01-1.68643E+00 3.49999E-01
 -1       168-8.42572E+00-2.08370E+00 3.49999E-01
 -1       169-3.20367E+00-1.10753E+00 1.70000E+00
 -1       170-6.24502E+00-2.18472E+00 1.70000E+00
 -1       171-8.60947E+00-1.10073E+00 1.70000E+00
 -1       172-8.70134E+00-6.09241E-01 1.70000E+00
 -1       173-6.61252E+00-2.18773E-01 3.49999E-01
 -1       174-8.33384E+00-2.57519E+00 3.49999E-01
 -1       175-2.58725E+00-2.19004E+00 1.70000E+00
 -1       176-3.11368E+00-1.33982E+00 1.70000E+00
 -1       177-7.89368E+00-3.71139E+00 1.70000E+00
 -1       178-1.03405E+01-5.81450E+00 1.70000E+00
 -1       179-7.63046E+00-4.13650E+00 3.49999E-01
 -1       180-7.63046E+00-4.13650E+00 1.70000E+00
 -1       181-7.10403E+00-4.98671E+00 1.70000E+00
 -1       182-9.81409E+00-6.66471E+00 1.70000E+00
 -1       183-7.10403E+00-4.98671E+00 3.49999E-01
 -1       184-5.29732E+00-3.86804E+00 1.70000E+00
 -1       185-5.29732E+00-3.86804E+00 3.49999E-01
 -1       186-2.58725E+00-2.19004E+00 3.49999E-01
 -1       187-5.82375E+00-3.01783E+00 1.70000E+00
 -1       188-5.03410E+00-4.29315E+00 1.70000E+00
 -1       189-7.89368E+00-3.71139E+00 3.49999E-01
 -1       190-6.84081E+00-5.41182E+00 1.70000E+00
 -1       191-6.08696E+00-2.59272E+00 1.70000E+00
 -1       192-5.03410E+00-4.29315E+00 3.49999E-01
 -1       193-1.62140E+00-2.97677E+00 3.49999E-01
 -1       194-2.41942E+00-2.37414E+00 3.49999E-01
 -1       195-3.54230E+00-5.52045E+00 1.70000E+00
 -1       196-1.62140E+00-2.97677E+00 1.70000E+00
 -1       197-2.41942E+00-2.37414E+00 1.70000E+00
 -1       198-4.82290E+00-7.21624E+00 1.70000E+00
 -1       199-3.14329E+00-5.82177E+00 1.70000E+00
 -1       200-4.34032E+00-4.91782E+00 1.70000E+00
 -1       201-4.73933E+00-4.61650E+00 1.70000E+00
 -1       202-4.42389E+00-7.51756E+00 1.70000E+00
 -1       203-5.62092E+00-6.61361E+00 1.70000E+00
 -1       204-6.74380E+00-9.75992E+00 1.70000E+00
 -1       205-7.54181E+00-9.15729E+00 3.49999E-01
 -1       206-6.74380E+00-9.75992E+00 3.49999E-01
 -1       207-4.34032E+00-4.91782E+00 3.49999E-01
 -1       208-7.54181E+00-9.15729E+00 1.70000E+00
 -1       209-3.54230E+00-5.52045E+00 3.49999E-01
 -1       210-6.01993E+00-6.31229E+00 1.70000E+00
 -1       211-4.42389E+00-7.51756E+00 3.49999E-01
 -1       212-1.39840E+00-3.08782E+00 1.70000E+00
 -1       213-4.36578E-01-3.36148E+00 1.70000E+00
 -1       214-1.39840E+00-3.08782E+00 3.49999E-01
 -1       215-1.89041E+00-8.47118E+00 1.70000E+00
 -1       216-2.85224E+00-8.19751E+00 1.70000E+00
 -1       217-3.72454E+00-1.12633E+01 1.70000E+00
 -1       218-2.27070E+00-6.15363E+00 1.70000E+00
 -1       219-3.72454E+00-1.12633E+01 3.49999E-01
 -1       220-1.89041E+00-8.47118E+00 3.49999E-01
 -1       221-2.76271E+00-1.15370E+01 1.70000E+00
 -1       222-1.30888E+00-6.42730E+00 3.49999E-01
 -1       223-2.75162E+00-6.01680E+00 1.70000E+00
 -1       224-1.30888E+00-6.42730E+00 1.70000E+00
 -1       225-8.27966E-01-6.56413E+00 1.70000E+00
 -1       226-8.27966E-01-6.56413E+00 3.49999E-01
 -1       227-3.33315E+00-8.06068E+00 1.70000E+00
 -1       228-2.85224E+00-8.19751E+00 3.49999E-01
 -1       229-1.40950E+00-8.60801E+00 1.70000E+00
 -1       230-3.33315E+00-8.06068E+00 3.49999E-01
 -1       231-1.40950E+00-8.60801E+00 3.49999E-01
 -1       232 8.07209E-01-3.29220E+00 1.70000E+00
 -1       233 1.59149E+00-1.17559E+01 1.70000E+00
 -1       234 1.05580E-01-6.55837E+00 1.70000E+00
 -1       235-1.88525E-01-3.38446E+00 1.70000E+00
 -1       236 3.01650E-01-8.67430E+00 1.70000E+00
 -1       237 5.95756E-01-1.18482E+01 3.49999E-01
 -1       238 5.95756E-01-1.18482E+01 1.70000E+00
 -1       239 1.29738E+00-8.58203E+00 3.49999E-01
 -1       240 1.10131E+00-6.46610E+00 1.70000E+00
 -1       241 8.07209E-01-3.29220E+00 3.49999E-01
 -1       242 1.59918E+00-6.41996E+00 1.70000E+00
 -1       243 1.10131E+00-6.46610E+00 3.49999E-01
 -1       244 3.01650E-01-8.67430E+00 3.49999E-01
 -1       245 1.29738E+00-8.58203E+00 1.70000E+00
 -1       246 1.79525E+00-8.53590E+00 1.70000E+00
 -1       247-3.92287E-01-6.60450E+00 1.70000E+00
 -1       248-1.96217E-01-8.72044E+00 1.70000E+00
 -1       249 1.94198E+00-2.77828E+00 3.49999E-01
 -1       250 1.04681E+00-3.22402E+00 1.70000E+00
 -1       251 3.41480E+00-7.97958E+00 1.70000E+00
 -1       252 4.83559E+00-1.08329E+01 1.70000E+00
 -1       253 4.30996E+00-7.53384E+00 1.70000E+00
 -1       254 2.46761E+00-6.07735E+00 1.70000E+00
 -1       255 3.36277E+00-5.63162E+00 1.70000E+00
 -1       256 1.04681E+00-3.22402E+00 3.49999E-01
 -1       257 5.73075E+00-1.03872E+01 1.70000E+00
 -1       258 1.94198E+00-2.77828E+00 1.70000E+00
 -1       259 3.36277E+00-5.63162E+00 3.49999E-01
 -1       260 2.02002E+00-6.30022E+00 1.70000E+00
 -1       261 2.46761E+00-6.07735E+00 3.49999E-01
 -1       262 4.30996E+00-7.53384E+00 3.49999E-01
 -1       263 2.96722E+00-8.20245E+00 1.70000E+00
 -1       264 3.81035E+00-5.40875E+00 3.49999E-01
 -1       265 3.81035E+00-5.40875E+00 1.70000E+00
 -1       266 4.75754E+00-7.31097E+00 1.70000E+00
 -1       267 2.81447E+00-1.88915E+00 1.70000E+00
 -1       268 5.17006E+00-4.03655E+00 1.70000E+00
 -1       269 4.49637E+00-4.77556E+00 1.70000E+00
 -1       270 6.74046E+00-5.46816E+00 1.70000E+00
 -1       271 6.06676E+00-6.20717E+00 1.70000E+00
 -1       272 9.09605E+00-7.61556E+00 1.70000E+00
 -1       273 2.14078E+00-2.62816E+00 3.49999E-01
 -1       274 2.14078E+00-2.62816E+00 1.70000E+00
 -1       275 8.42235E+00-8.35457E+00 1.70000E+00
 -1       276 6.74046E+00-5.46816E+00 3.49999E-01
 -1       277 5.17006E+00-4.03655E+00 3.49999E-01
 -1       278 5.72991E+00-6.57667E+00 1.70000E+00
 -1       279 6.06676E+00-6.20717E+00 3.49999E-01
 -1       280 4.15952E+00-5.14507E+00 1.70000E+00
 -1       281 5.50691E+00-3.66705E+00 1.70000E+00
 -1       282 7.07730E+00-5.09865E+00 1.70000E+00
 -1       283 5.50691E+00-3.66705E+00 3.49999E-01
 -1       284 2.94561E+00-1.67735E+00 1.70000E+00
 -1       285 6.27911E+00-1.89633E+00 1.70000E+00
 -1       286 5.91787E+00-2.82880E+00 1.70000E+00
 -1       287 1.08716E+01-4.74790E+00 1.70000E+00
 -1       288 1.12329E+01-3.81543E+00 1.70000E+00
 -1       289 8.26062E+00-2.66397E+00 1.70000E+00
 -1       290 7.89937E+00-3.59644E+00 1.70000E+00
 -1       291 1.12329E+01-3.81543E+00 3.49999E-01
 -1       292 8.26062E+00-2.66397E+00 3.49999E-01
 -1       293 6.27911E+00-1.89633E+00 3.49999E-01
 -1       294 3.30686E+00-7.44874E-01 1.70000E+00
 -1       295 5.91787E+00-2.82880E+00 3.49999E-01
 -1       296 6.45973E+00-1.43010E+00 1.70000E+00
 -1       297 8.44124E+00-2.19773E+00 1.70000E+00
 -1       298 5.73725E+00-3.29504E+00 1.70000E+00
 -1       299 7.71875E+00-4.06268E+00 1.70000E+00
 -1       300 8.44124E+00-2.19773E+00 3.49999E-01
 -1       301 1.70000E+01 0.00000E+00 3.49999E-01
 -1       302-1.70000E+01 0.00000E+00-3.49999E-01
 -1       303-1.66733E+01 3.31653E+00 3.49999E-01
 -1       304 3.31653E+00 1.66733E+01-3.49999E-01
 -1       305 0.00000E+00 1.70000E+01-3.49999E-01
 -1       306-1.41350E+01-9.44469E+00 3.49999E-01
 -1       307 1.20208E+01 1.20208E+01-3.49999E-01
 -1       308 1.66733E+01 3.31653E+00 3.49999E-01
 -1       309 1.57060E+01 6.50562E+00-3.49999E-01
 -1       310-3.31653E+00 1.66733E+01-3.49999E-01
 -1       311 1.20208E+01-1.20208E+01-3.49999E-01
 -1       312 1.66733E+01 3.31653E+00-3.49999E-01
 -1       313 1.57060E+01-6.50562E+00-3.49999E-01
 -1       314 1.41350E+01 9.44469E+00-3.49999E-01
 -1       315 9.44469E+00-1.41350E+01-3.49999E-01
 -1       316 6.50562E+00-1.57060E+01-3.49999E-01
 -1       317-6.50562E+00-1.57060E+01-3.49999E-01
 -1       318-6.50562E+00 1.57060E+01-3.49999E-01
 -1       319-9.44469E+00 1.41350E+01-3.49999E-01
 -1       320-1.41350E+01-9.44469E+00-3.49999E-01
 -1       321-1.41350E+01 9.44469E+00-3.49999E-01
 -1       322-1.57060E+01 6.50562E+00-3.49999E-01
 -1       323-1.66733E+01 3.31653E+00-3.49999E-01
 -1       324 1.57060E+01 6.50562E+00 3.49999E-01
 -1       325 9.44469E+00 1.41350E+01-3.49999E-01
 -1       326 6.50562E+00 1.57060E+01-3.49999E-01
 -1       327 3.31653E+00 1.66733E+01 3.49999E-01
 -1       328 9.44469E+00 1.41350E+01 3.49999E-01
 -1       329-1.20208E+01 1.20208E+01-3.49999E-01
 -1       330-8.70134E+00-6.09241E-01 3.49999E-01
 -1       331-8.33384E+00 2.57519E+00 3.49999E-01
 -1       332-1.03405E+01-5.81450E+00 3.49999E-01
 -1       333-1.15589E+01-2.66940E+00 3.49999E-01
 -1       334-5.62092E+00 6.61361E+00 3.49999E-01
 -1       335-7.54181E+00 9.15729E+00 3.49999E-01
 -1       336-6.84081E+00 5.41182E+00 3.49999E-01
 -1       337-1.20208E+01 1.20208E+01 3.49999E-01
 -1       338-9.81409E+00 6.66471E+00 3.49999E-01
 -1       339-1.41350E+01 9.44469E+00 3.49999E-01
 -1       340-1.57060E+01 6.50562E+00 3.49999E-01
 -1       341-1.03405E+01 5.81450E+00 3.49999E-01
 -1       342-6.01993E+00 6.31229E+00 3.49999E-01
 -1       343-6.01993E+00-6.31229E+00 3.49999E-01
 -1       344-6.84081E+00-5.41182E+00 3.49999E-01
 -1       345-5.62092E+00-6.61361E+00 3.49999E-01
 -1       346-9.81409E+00-6.66471E+00 3.49999E-01
 -1       347-9.44469E+00-1.41350E+01 3.49999E-01
 -1       348-1.15589E+01 2.66940E+00 3.49999E-01
 -1       349-1.17427E+01 1.68643E+00 3.49999E-01
 -1       350-1.70000E+01 0.00000E+00 3.49999E-01
 -1       351-6.24502E+00-2.18472E+00 3.49999E-01
 -1       352-2.85224E+00 8.19751E+00 3.49999E-01
 -1       353-3.38742E+00 1.24558E-01 3.49999E-01
 -1       354-6.61252E+00 2.18773E-01 3.49999E-01
 -1       355-6.52065E+00-7.10259E-01 3.49999E-01
 -1       356-8.70134E+00 6.09241E-01 3.49999E-01
 -1       357-4.42389E+00 7.51756E+00 3.49999E-01
 -1       358-6.24502E+00 2.18472E+00 3.49999E-01
 -1       359-2.41942E+00 2.37414E+00 3.49999E-01
 -1       360-2.58725E+00 2.19004E+00 3.49999E-01
 -1       361-1.39840E+00 3.08782E+00 3.49999E-01
 -1       362-2.27070E+00 6.15363E+00 3.49999E-01
 -1       363-2.75162E+00 6.01680E+00 3.49999E-01
 -1       364-3.92287E-01 6.60450E+00 3.49999E-01
 -1       365-1.88525E-01-3.38446E+00 3.49999E-01
 -1       366 1.05580E-01-6.55837E+00 3.49999E-01
 -1       367-1.62140E+00 2.97677E+00 3.49999E-01
 -1       368-2.27070E+00-6.15363E+00 3.49999E-01
 -1       369-2.75162E+00-6.01680E+00 3.49999E-01
 -1       370-4.73933E+00-4.61650E+00 3.49999E-01
 -1       371-3.14329E+00-5.82177E+00 3.49999E-01
 -1       372-3.11368E+00-1.33982E+00 3.49999E-01
 -1       373-3.20367E+00 1.10753E+00 3.49999E-01
 -1       374-3.20367E+00-1.10753E+00 3.49999E-01
 -1       375-6.08696E+00-2.59272E+00 3.49999E-01
 -1       376-5.82375E+00-3.01783E+00 3.49999E-01
 -1       377-6.33690E+00-1.69323E+00 3.49999E-01
 -1       378 1.59918E+00 6.41996E+00 3.49999E-01
 -1       379 8.07209E-01 3.29220E+00 3.49999E-01
 -1       380 2.02002E+00-6.30022E+00 3.49999E-01
 -1       381 1.59918E+00-6.41996E+00 3.49999E-01
 -1       382 1.29738E+00 8.58203E+00 3.49999E-01
 -1       383 4.15952E+00-5.14507E+00 3.49999E-01
 -1       384 8.42235E+00-8.35457E+00 3.49999E-01
 -1       385 5.72991E+00-6.57667E+00 3.49999E-01
 -1       386 5.73075E+00-1.03872E+01 3.49999E-01
 -1       387 4.75754E+00-7.31097E+00 3.49999E-01
 -1       388 5.73725E+00-3.29504E+00 3.49999E-01
 -1       389 2.81447E+00-1.88915E+00 3.49999E-01
 -1       390 4.30996E+00 7.53384E+00 3.49999E-01
 -1       391 4.15952E+00 5.14507E+00 3.49999E-01
 -1       392 1.94198E+00 2.77828E+00 3.49999E-01
 -1       393 4.49637E+00 4.77556E+00 3.49999E-01
 -1       394 6.54013E+00-5.00000E-01 3.49999E-01
 -1       395 3.35263E+00-5.00000E-01 3.49999E-01
 -1       396 3.30686E+00-7.44874E-01 3.49999E-01
 -1       397 6.45973E+00-1.43010E+00 3.49999E-01
 -1       398 6.54013E+00-1.00000E+00 3.49999E-01
 -1       399 1.12329E+01 3.81543E+00 3.49999E-01
 -1       400 5.72991E+00 6.57667E+00 3.49999E-01
 -1       401 5.73075E+00 1.03872E+01 3.49999E-01
 -1       402 4.83559E+00 1.08329E+01 3.49999E-01
 -1       403 6.50562E+00 1.57060E+01 3.49999E-01
 -1       404 1.59149E+00 1.17559E+01 3.49999E-01
 -1       405 2.96722E+00 8.20245E+00 3.49999E-01
 -1       406 1.79525E+00 8.53590E+00 3.49999E-01
 -1       407-2.76271E+00 1.15370E+01 3.49999E-01
 -1       408 5.95756E-01 1.18482E+01 3.49999E-01
 -1       409-4.36578E-01-3.36148E+00 3.49999E-01
 -1       410-4.36578E-01 3.36148E+00 3.49999E-01
 -1       411-1.96217E-01 8.72044E+00 3.49999E-01
 -1       412-3.31653E+00 1.66733E+01 3.49999E-01
 -1       413-6.74380E+00 9.75992E+00 3.49999E-01
 -1       414-3.72454E+00 1.12633E+01 3.49999E-01
 -1       415-9.44469E+00 1.41350E+01 3.49999E-01
 -1       416 1.18526E+01-5.00000E-01 3.49999E-01
 -1       417 1.41350E+01 9.44469E+00 3.49999E-01
 -1       418 1.20208E+01 1.20208E+01 3.49999E-01
 -1       419 1.66733E+01-3.31653E+00 3.49999E-01
 -1       420 8.42235E+00 8.35457E+00 3.49999E-01
 -1       421 1.08716E+01 4.74790E+00 3.49999E-01
 -1       422 7.71875E+00 4.06268E+00 3.49999E-01
 -1       423 9.09605E+00 7.61556E+00 3.49999E-01
 -1       424 1.41350E+01-9.44469E+00 3.49999E-01
 -1       425 1.08716E+01-4.74790E+00 3.49999E-01
 -1       426 1.20208E+01-1.20208E+01 3.49999E-01
 -1       427 7.71875E+00-4.06268E+00 3.49999E-01
 -1       428 7.89937E+00-3.59644E+00 3.49999E-01
 -1       429 7.07730E+00-5.09865E+00 3.49999E-01
 -1       430 9.09605E+00-7.61556E+00 3.49999E-01
 -1       431 9.44469E+00-1.41350E+01 3.49999E-01
 -1       432 6.50562E+00-1.57060E+01 3.49999E-01
 -1       433 2.96722E+00-8.20245E+00 3.49999E-01
 -1       434 4.83559E+00-1.08329E+01 3.49999E-01
 -1       435 3.41480E+00-7.97958E+00 3.49999E-01
 -1       436 1.79525E+00-8.53590E+00 3.49999E-01
 -1       437 1.59149E+00-1.17559E+01 3.49999E-01
 -1       438 0.00000E+00-1.70000E+01 3.49999E-01
 -1       439 3.31653E+00-1.66733E+01 3.49999E-01
 -1       440-1.96217E-01-8.72044E+00 3.49999E-01
 -1       441-3.92287E-01-6.60450E+00 3.49999E-01
 -1       442-2.76271E+00-1.15370E+01 3.49999E-01
 -1       443-4.82290E+00-7.21624E+00 3.49999E-01
 -1       444-6.50562E+00-1.57060E+01 3.49999E-01
 -1       445-3.31653E+00-1.66733E+01 3.49999E-01
 -1       446 8.44124E+00 2.19773E+00 3.49999E-01
 -1       447 3.30686E+00 7.44874E-01 3.49999E-01
 -1       448 6.27911E+00 1.89633E+00 3.49999E-01
 -1       449 3.35263E+00 5.00000E-01 3.49999E-01
 -1       450 7.07730E+00 5.09865E+00 3.49999E-01
 -1       451 5.73725E+00 3.29504E+00 3.49999E-01
 -1       452 5.17006E+00 4.03655E+00 3.49999E-01
 -1       453 2.94561E+00 1.67735E+00 3.49999E-01
 -1       454 2.94561E+00-1.67735E+00 3.49999E-01
 -1       455 5.50691E+00 3.66705E+00 3.49999E-01
 -1       456 4.49637E+00-4.77556E+00 3.49999E-01
 -1       457-6.50562E+00 1.57060E+01 3.49999E-01
 -1       458 0.00000E+00 1.70000E+01 3.49999E-01
 -1       459 1.70000E+01 0.00000E+00-3.49999E-01
 -1       460-1.20208E+01-1.20208E+01-3.49999E-01
 -1       461-1.20208E+01-1.20208E+01 3.49999E-01
 -1       462-9.44469E+00-1.41350E+01-3.49999E-01
 -1       463-1.66733E+01-3.31653E+00-3.49999E-01
 -1       464-1.66733E+01-3.31653E+00 3.49999E-01
 -1       465 0.00000E+00-1.70000E+01-3.49999E-01
 -1       466 1.57060E+01-6.50562E+00 3.49999E-01
 -1       467 1.66733E+01-3.31653E+00-3.49999E-01
 -1       468 1.41350E+01-9.44469E+00-3.49999E-01
 -1       469-3.31653E+00-1.66733E+01-3.49999E-01
 -1       470-1.57060E+01-6.50562E+00-3.49999E-01
 -1       471-1.57060E+01-6.50562E+00 3.49999E-01
 -1       472 3.31653E+00-1.66733E+01-3.49999E-01
 -1       473 3.35263E+00 5.00000E-01 1.02500E+00
 -1       474 3.35263E+00-5.00000E-01 1.02500E+00
 -1       475 4.94638E+00 5.00000E-01 1.70000E+00
 -1       476 4.94638E+00-5.00000E-01 1.70000E+00
 -1       477 7.60263E+00 1.00000E+00 1.70000E+00
 -1       478 7.60263E+00-1.00000E+00 1.70000E+00
 -1       479 1.02589E+01 5.00000E-01 1.70000E+00
 -1       480 1.02589E+01-5.00000E-01 1.70000E+00
 -1       481 1.18526E+01 5.00000E-01 1.02500E+00
 -1       482 1.18526E+01-5.00000E-01 1.02500E+00
 -1       483 4.94638E+00-5.00000E-01 3.49999E-01
 -1       484 6.54013E+00-5.00000E-01 1.02500E+00
 -1       485 8.66513E+00-5.00000E-01 1.02500E+00
 -1       486 1.02589E+01-5.00000E-01 3.49999E-01
 -1       487 1.02589E+01 5.00000E-01 3.49999E-01
 -1       488 8.66513E+00 5.00000E-01 1.02500E+00
 -1       489 6.54013E+00 5.00000E-01 1.02500E+00
 -1       490 4.94638E+00 5.00000E-01 3.49999E-01
 -1       491 6.54013E+00-1.00000E+00 1.02500E+00
 -1       492 6.54013E+00 1.00000E+00 1.02500E+00
 -1       493 8.66513E+00-1.00000E+00 1.02500E+00
 -1       494 8.66513E+00 1.00000E+00 1.02500E+00
 -1       495 7.60263E+00-1.00000E+00 3.49999E-01
 -1       496 7.60263E+00 1.00000E+00 3.49999E-01
 -1       497 2.94561E+00 1.67735E+00 1.02500E+00
 -1       498 3.30686E+00 7.44874E-01 1.02500E+00
 -1       499 9.74676E+00 3.23970E+00 1.70000E+00
 -1       500 9.38548E+00 4.17217E+00 1.70000E+00
 -1       501 7.45049E+00 1.81392E+00 1.70000E+00
 -1       502 6.72800E+00 3.67886E+00 1.70000E+00
 -1       503 4.79298E+00 1.32060E+00 1.70000E+00
 -1       504 4.43174E+00 2.25307E+00 1.70000E+00
 -1       505 1.08716E+01 4.74790E+00 1.02500E+00
 -1       506 1.12329E+01 3.81543E+00 1.02500E+00
 -1       507 4.79298E+00 1.32060E+00 3.49999E-01
 -1       508 6.27911E+00 1.89633E+00 1.02500E+00
 -1       509 8.26062E+00 2.66397E+00 1.02500E+00
 -1       510 9.74676E+00 3.23970E+00 3.49999E-01
 -1       511 9.38548E+00 4.17217E+00 3.49999E-01
 -1       512 7.89937E+00 3.59644E+00 1.02500E+00
 -1       513 5.91787E+00 2.82880E+00 1.02500E+00
 -1       514 4.43174E+00 2.25307E+00 3.49999E-01
 -1       515 6.45973E+00 1.43010E+00 1.02500E+00
 -1       516 5.73725E+00 3.29504E+00 1.02500E+00
 -1       517 8.44124E+00 2.19773E+00 1.02500E+00
 -1       518 7.71875E+00 4.06268E+00 1.02500E+00
 -1       519 7.45049E+00 1.81392E+00 3.49999E-01
 -1       520 6.72800E+00 3.67886E+00 3.49999E-01
 -1       521 2.14078E+00 2.62816E+00 1.02500E+00
 -1       522 2.81447E+00 1.88915E+00 1.02500E+00
 -1       523 7.91825E+00 6.54186E+00 1.70000E+00
 -1       524 7.24455E+00 7.28087E+00 1.70000E+00
 -1       525 6.29211E+00 4.38285E+00 1.70000E+00
 -1       526 4.94472E+00 5.86087E+00 1.70000E+00
 -1       527 3.99226E+00 2.96285E+00 1.70000E+00
 -1       528 3.31857E+00 3.70186E+00 1.70000E+00
 -1       529 8.42235E+00 8.35457E+00 1.02500E+00
 -1       530 9.09605E+00 7.61556E+00 1.02500E+00
 -1       531 3.99226E+00 2.96285E+00 3.49999E-01
 -1       532 5.17006E+00 4.03655E+00 1.02500E+00
 -1       533 6.74046E+00 5.46816E+00 1.02500E+00
 -1       534 7.91825E+00 6.54186E+00 3.49999E-01
 -1       535 7.24455E+00 7.28087E+00 3.49999E-01
 -1       536 6.06676E+00 6.20717E+00 1.02500E+00
 -1       537 4.49637E+00 4.77556E+00 1.02500E+00
 -1       538 3.31857E+00 3.70186E+00 3.49999E-01
 -1       539 5.50691E+00 3.66705E+00 1.02500E+00
 -1       540 4.15952E+00 5.14507E+00 1.02500E+00
 -1       541 7.07730E+00 5.09865E+00 1.02500E+00
 -1       542 5.72991E+00 6.57667E+00 1.02500E+00
 -1       543 6.29211E+00 4.38285E+00 3.49999E-01
 -1       544 4.94472E+00 5.86087E+00 3.49999E-01
 -1       545 1.04681E+00 3.22402E+00 1.02500E+00
 -1       546 1.94198E+00 2.77828E+00 1.02500E+00
 -1       547 2.49362E+00 7.25134E+00 1.70000E+00
 -1       548 5.02036E+00 8.96052E+00 1.70000E+00
 -1       549 4.12520E+00 9.40624E+00 1.70000E+00
 -1       550 2.65237E+00 4.20495E+00 1.70000E+00
 -1       551 1.75721E+00 4.65068E+00 1.70000E+00
 -1       552 4.28395E+00 6.35986E+00 1.70000E+00
 -1       553 5.73075E+00 1.03872E+01 1.02500E+00
 -1       554 4.83559E+00 1.08329E+01 1.02500E+00
 -1       555 3.36277E+00 5.63162E+00 1.02500E+00
 -1       556 2.65237E+00 4.20495E+00 3.49999E-01
 -1       557 4.30996E+00 7.53384E+00 1.02500E+00
 -1       558 5.02036E+00 8.96052E+00 3.49999E-01
 -1       559 4.12520E+00 9.40624E+00 3.49999E-01
 -1       560 3.41480E+00 7.97958E+00 1.02500E+00
 -1       561 2.46761E+00 6.07735E+00 1.02500E+00
 -1       562 1.75721E+00 4.65068E+00 3.49999E-01
 -1       563 3.81035E+00 5.40875E+00 1.02500E+00
 -1       564 2.02002E+00 6.30022E+00 1.02500E+00
 -1       565 4.75754E+00 7.31097E+00 1.02500E+00
 -1       566 2.96722E+00 8.20245E+00 1.02500E+00
 -1       567 4.28395E+00 6.35986E+00 3.49999E-01
 -1       568 2.49362E+00 7.25134E+00 3.49999E-01
 -1       569-1.88525E-01 3.38446E+00 1.02500E+00
 -1       570 8.07209E-01 3.29220E+00 1.02500E+00
 -1       571-2.94252E-01 7.66247E+00 1.70000E+00
 -1       572 1.44444E+00 1.01690E+01 1.70000E+00
 -1       573 4.48703E-01 1.02612E+01 1.70000E+00
 -1       574 9.54260E-01 4.87915E+00 1.70000E+00
 -1       575-4.14725E-02 4.97142E+00 1.70000E+00
 -1       576 1.69721E+00 7.47793E+00 1.70000E+00
 -1       577 1.59149E+00 1.17559E+01 1.02500E+00
 -1       578 5.95756E-01 1.18482E+01 1.02500E+00
 -1       579 1.10131E+00 6.46610E+00 1.02500E+00
 -1       580 9.54260E-01 4.87915E+00 3.49999E-01
 -1       581 1.29738E+00 8.58203E+00 1.02500E+00
 -1       582 1.44444E+00 1.01690E+01 3.49999E-01
 -1       583 4.48703E-01 1.02612E+01 3.49999E-01
 -1       584 3.01650E-01 8.67430E+00 1.02500E+00
 -1       585 1.05580E-01 6.55837E+00 1.02500E+00
 -1       586-4.14725E-02 4.97142E+00 3.49999E-01
 -1       587 1.59918E+00 6.41996E+00 1.02500E+00
 -1       588-3.92287E-01 6.60450E+00 1.02500E+00
 -1       589 1.79525E+00 8.53590E+00 1.02500E+00
 -1       590-1.96217E-01 8.72044E+00 1.02500E+00
 -1       591 1.69721E+00 7.47793E+00 3.49999E-01
 -1       592-2.94252E-01 7.66247E+00 3.49999E-01
 -1       593-1.39840E+00 3.08782E+00 1.02500E+00
 -1       594-4.36578E-01 3.36148E+00 1.02500E+00
 -1       595-3.28839E+00 9.73040E+00 1.70000E+00
 -1       596-1.11873E+00 7.58607E+00 1.70000E+00
 -1       597-1.83455E+00 4.62073E+00 1.70000E+00
 -1       598-2.32656E+00 1.00041E+01 1.70000E+00
 -1       599-3.04239E+00 7.03874E+00 1.70000E+00
 -1       600-8.72729E-01 4.89439E+00 1.70000E+00
 -1       601-2.76271E+00 1.15370E+01 1.02500E+00
 -1       602-3.72454E+00 1.12633E+01 1.02500E+00
 -1       603-1.30888E+00 6.42730E+00 1.02500E+00
 -1       604-8.72729E-01 4.89439E+00 3.49999E-01
 -1       605-1.89041E+00 8.47118E+00 1.02500E+00
 -1       606-2.32656E+00 1.00041E+01 3.49999E-01
 -1       607-3.28839E+00 9.73040E+00 3.49999E-01
 -1       608-2.85224E+00 8.19751E+00 1.02500E+00
 -1       609-2.27070E+00 6.15363E+00 1.02500E+00
 -1       610-1.83455E+00 4.62073E+00 3.49999E-01
 -1       611-8.27966E-01 6.56413E+00 1.02500E+00
 -1       612-2.75162E+00 6.01680E+00 1.02500E+00
 -1       613-1.40950E+00 8.60801E+00 1.02500E+00
 -1       614-3.33315E+00 8.06068E+00 1.02500E+00
 -1       615-1.11873E+00 7.58607E+00 3.49999E-01
 -1       616-3.04239E+00 7.03874E+00 3.49999E-01
 -1       617-2.41942E+00 2.37414E+00 1.02500E+00
 -1       618-1.62140E+00 2.97677E+00 1.02500E+00
 -1       619-5.78335E+00 8.48808E+00 1.70000E+00
 -1       620-6.58137E+00 7.88545E+00 1.70000E+00
 -1       621-3.78359E+00 6.66966E+00 1.70000E+00
 -1       622-5.37963E+00 5.46440E+00 1.70000E+00
 -1       623-2.58185E+00 4.24861E+00 1.70000E+00
 -1       624-3.37987E+00 3.64598E+00 1.70000E+00
 -1       625-6.74380E+00 9.75992E+00 1.02500E+00
 -1       626-7.54181E+00 9.15729E+00 1.02500E+00
 -1       627-3.54230E+00 5.52045E+00 1.02500E+00
 -1       628-2.58185E+00 4.24861E+00 3.49999E-01
 -1       629-4.82290E+00 7.21624E+00 1.02500E+00
 -1       630-5.78335E+00 8.48808E+00 3.49999E-01
 -1       631-6.58137E+00 7.88545E+00 3.49999E-01
 -1       632-5.62092E+00 6.61361E+00 1.02500E+00
 -1       633-4.34032E+00 4.91782E+00 1.02500E+00
 -1       634-3.37987E+00 3.64598E+00 3.49999E-01
 -1       635-3.14329E+00 5.82177E+00 1.02500E+00
 -1       636-4.73933E+00 4.61650E+00 1.02500E+00
 -1       637-4.42389E+00 7.51756E+00 1.02500E+00
 -1       638-6.01993E+00 6.31229E+00 1.02500E+00
 -1       639-3.78359E+00 6.66966E+00 3.49999E-01
 -1       640-5.37963E+00 5.46440E+00 3.49999E-01
 -1       641-2.58725E+00 2.19004E+00 1.02500E+00
 -1       642-3.11368E+00 1.33982E+00 1.02500E+00
 -1       643-8.45906E+00 5.82571E+00 1.70000E+00
 -1       644-8.98548E+00 4.97550E+00 1.70000E+00
 -1       645-5.93746E+00 4.85249E+00 1.70000E+00
 -1       646-6.99032E+00 3.15206E+00 1.70000E+00
 -1       647-3.94229E+00 3.02904E+00 1.70000E+00
 -1       648-4.46872E+00 2.17882E+00 1.70000E+00
 -1       649-9.81409E+00 6.66471E+00 1.02500E+00
 -1       650-1.03405E+01 5.81450E+00 1.02500E+00
 -1       651-3.94229E+00 3.02904E+00 3.49999E-01
 -1       652-5.29732E+00 3.86804E+00 1.02500E+00
 -1       653-7.10403E+00 4.98671E+00 1.02500E+00
 -1       654-8.45906E+00 5.82571E+00 3.49999E-01
 -1       655-8.98548E+00 4.97550E+00 3.49999E-01
 -1       656-7.63046E+00 4.13650E+00 1.02500E+00
 -1       657-5.82375E+00 3.01783E+00 1.02500E+00
 -1       658-4.46872E+00 2.17882E+00 3.49999E-01
 -1       659-5.03410E+00 4.29315E+00 1.02500E+00
 -1       660-6.08696E+00 2.59272E+00 1.02500E+00
 -1       661-6.84081E+00 5.41182E+00 1.02500E+00
 -1       662-7.89368E+00 3.71139E+00 1.02500E+00
 -1       663-5.93746E+00 4.85249E+00 3.49999E-01
 -1       664-6.99032E+00 3.15206E+00 3.49999E-01
 -1       665-3.20367E+00 1.10753E+00 1.02500E+00
 -1       666-3.38742E+00 1.24558E-01 1.02500E+00
 -1       667-9.99231E+00 2.37655E+00 1.70000E+00
 -1       668-1.01761E+01 1.39358E+00 1.70000E+00
 -1       669-7.28943E+00 2.37996E+00 1.70000E+00
 -1       670-7.65693E+00 4.14007E-01 1.70000E+00
 -1       671-4.77029E+00 1.40038E+00 1.70000E+00
 -1       672-4.95403E+00 4.17408E-01 1.70000E+00
 -1       673-1.15589E+01 2.66940E+00 1.02500E+00
 -1       674-1.17427E+01 1.68643E+00 1.02500E+00
 -1       675-4.77029E+00 1.40038E+00 3.49999E-01
 -1       676-6.33690E+00 1.69323E+00 1.02500E+00
 -1       677-8.42572E+00 2.08370E+00 1.02500E+00
 -1       678-9.99231E+00 2.37655E+00 3.49999E-01
 -1       679-1.01761E+01 1.39358E+00 3.49999E-01
 -1       680-8.60947E+00 1.10073E+00 1.02500E+00
 -1       681-6.52065E+00 7.10259E-01 1.02500E+00
 -1       682-4.95403E+00 4.17408E-01 3.49999E-01
 -1       683-6.24502E+00 2.18472E+00 1.02500E+00
 -1       684-6.61252E+00 2.18773E-01 1.02500E+00
 -1       685-8.33384E+00 2.57519E+00 1.02500E+00
 -1       686-8.70134E+00 6.09241E-01 1.02500E+00
 -1       687-7.28943E+00 2.37996E+00 3.49999E-01
 -1       688-7.65693E+00 4.14007E-01 3.49999E-01
 -1       689-3.38742E+00-1.24558E-01 1.02500E+00
 -1       690-3.20367E+00-1.10753E+00 1.02500E+00
 -1       691-4.77029E+00-1.40038E+00 1.70000E+00
 -1       692-4.95403E+00-4.17408E-01 1.70000E+00
 -1       693-7.28943E+00-2.37996E+00 1.70000E+00
 -1       694-7.65693E+00-4.14007E-01 1.70000E+00
 -1       695-9.99231E+00-2.37655E+00 1.70000E+00
 -1       696-1.01761E+01-1.39358E+00 1.70000E+00
 -1       697-1.17427E+01-1.68643E+00 1.02500E+00
 -1       698-1.15589E+01-2.66940E+00 1.02500E+00
 -1       699-4.95403E+00-4.17408E-01 3.49999E-01
 -1       700-6.52065E+00-7.10259E-01 1.02500E+00
 -1       701-8.60947E+00-1.10073E+00 1.02500E+00
 -1       702-1.01761E+01-1.39358E+00 3.49999E-01
 -1       703-9.99231E+00-2.37655E+00 3.49999E-01
 -1       704-8.42572E+00-2.08370E+00 1.02500E+00
 -1       705-6.33690E+00-1.69323E+00 1.02500E+00
 -1       706-4.77029E+00-1.40038E+00 3.49999E-01
 -1       707-6.61252E+00-2.18773E-01 1.02500E+00
 -1       708-6.24502E+00-2.18472E+00 1.02500E+00
 -1       709-8.70134E+00-6.09241E-01 1.02500E+00
 -1       710-8.33384E+00-2.57519E+00 1.02500E+00
 -1       711-7.65693E+00-4.14007E-01 3.49999E-01
 -1       712-7.28943E+00-2.37996E+00 3.49999E-01
 -1       713-3.11368E+00-1.33982E+00 1.02500E+00
 -1       714-2.58725E+00-2.19004E+00 1.02500E+00
 -1       715-3.94229E+00-3.02904E+00 1.70000E+00
 -1       716-4.46872E+00-2.17882E+00 1.70000E+00
 -1       717-5.93746E+00-4.85249E+00 1.70000E+00
 -1       718-6.99032E+00-3.15206E+00 1.70000E+00
 -1       719-8.45906E+00-5.82571E+00 1.70000E+00
 -1       720-8.98548E+00-4.97550E+00 1.70000E+00
 -1       721-1.03405E+01-5.81450E+00 1.02500E+00
 -1       722-9.81409E+00-6.66471E+00 1.02500E+00
 -1       723-4.46872E+00-2.17882E+00 3.49999E-01
 -1       724-5.82375E+00-3.01783E+00 1.02500E+00
 -1       725-7.63046E+00-4.13650E+00 1.02500E+00
 -1       726-8.98548E+00-4.97550E+00 3.49999E-01
 -1       727-8.45906E+00-5.82571E+00 3.49999E-01
 -1       728-7.10403E+00-4.98671E+00 1.02500E+00
 -1       729-5.29732E+00-3.86804E+00 1.02500E+00
 -1       730-3.94229E+00-3.02904E+00 3.49999E-01
 -1       731-6.08696E+00-2.59272E+00 1.02500E+00
 -1       732-5.03410E+00-4.29315E+00 1.02500E+00
 -1       733-7.89368E+00-3.71139E+00 1.02500E+00
 -1       734-6.84081E+00-5.41182E+00 1.02500E+00
 -1       735-6.99032E+00-3.15206E+00 3.49999E-01
 -1       736-5.93746E+00-4.85249E+00 3.49999E-01
 -1       737-1.62140E+00-2.97677E+00 1.02500E+00
 -1       738-2.41942E+00-2.37414E+00 1.02500E+00
 -1       739-2.58185E+00-4.24861E+00 1.70000E+00
 -1       740-3.37987E+00-3.64598E+00 1.70000E+00
 -1       741-3.78359E+00-6.66966E+00 1.70000E+00
 -1       742-5.37963E+00-5.46440E+00 1.70000E+00
 -1       743-5.78335E+00-8.48808E+00 1.70000E+00
 -1       744-6.58137E+00-7.88545E+00 1.70000E+00
 -1       745-7.54181E+00-9.15729E+00 1.02500E+00
 -1       746-6.74380E+00-9.75992E+00 1.02500E+00
 -1       747-3.37987E+00-3.64598E+00 3.49999E-01
 -1       748-4.34032E+00-4.91782E+00 1.02500E+00
 -1       749-5.62092E+00-6.61361E+00 1.02500E+00
 -1       750-6.58137E+00-7.88545E+00 3.49999E-01
 -1       751-4.82290E+00-7.21624E+00 1.02500E+00
 -1       752-5.78335E+00-8.48808E+00 3.49999E-01
 -1       753-3.54230E+00-5.52045E+00 1.02500E+00
 -1       754-2.58185E+00-4.24861E+00 3.49999E-01
 -1       755-4.73933E+00-4.61650E+00 1.02500E+00
 -1       756-3.14329E+00-5.82177E+00 1.02500E+00
 -1       757-6.01993E+00-6.31229E+00 1.02500E+00
 -1       758-4.42389E+00-7.51756E+00 1.02500E+00
 -1       759-5.37963E+00-5.46440E+00 3.49999E-01
 -1       760-3.78359E+00-6.66966E+00 3.49999E-01
 -1       761-4.36578E-01-3.36148E+00 1.02500E+00
 -1       762-1.39840E+00-3.08782E+00 1.02500E+00
 -1       763-8.72729E-01-4.89439E+00 1.70000E+00
 -1       764-1.11873E+00-7.58607E+00 1.70000E+00
 -1       765-1.83455E+00-4.62073E+00 1.70000E+00
 -1       766-2.32656E+00-1.00041E+01 1.70000E+00
 -1       767-3.04239E+00-7.03874E+00 1.70000E+00
 -1       768-3.28839E+00-9.73040E+00 1.70000E+00
 -1       769-3.72454E+00-1.12633E+01 1.02500E+00
 -1       770-2.76271E+00-1.15370E+01 1.02500E+00
 -1       771-1.83455E+00-4.62073E+00 3.49999E-01
 -1       772-2.27070E+00-6.15363E+00 1.02500E+00
 -1       773-2.85224E+00-8.19751E+00 1.02500E+00
 -1       774-3.28839E+00-9.73040E+00 3.49999E-01
 -1       775-1.89041E+00-8.47118E+00 1.02500E+00
 -1       776-2.32656E+00-1.00041E+01 3.49999E-01
 -1       777-1.30888E+00-6.42730E+00 1.02500E+00
 -1       778-8.72729E-01-4.89439E+00 3.49999E-01
 -1       779-2.75162E+00-6.01680E+00 1.02500E+00
 -1       780-8.27966E-01-6.56413E+00 1.02500E+00
 -1       781-3.33315E+00-8.06068E+00 1.02500E+00
 -1       782-1.40950E+00-8.60801E+00 1.02500E+00
 -1       783-3.04239E+00-7.03874E+00 3.49999E-01
 -1       784-1.11873E+00-7.58607E+00 3.49999E-01
 -1       785 8.07209E-01-3.29220E+00 1.02500E+00
 -1       786-1.88525E-01-3.38446E+00 1.02500E+00
 -1       787 1.69721E+00-7.47793E+00 1.70000E+00
 -1       788 9.54260E-01-4.87915E+00 1.70000E+00
 -1       789 1.44444E+00-1.01690E+01 1.70000E+00
 -1       790 4.48703E-01-1.02612E+01 1.70000E+00
 -1       791-4.14725E-02-4.97142E+00 1.70000E+00
 -1       792-2.94252E-01-7.66247E+00 1.70000E+00
 -1       793 5.95756E-01-1.18482E+01 1.02500E+00
 -1       794 1.59149E+00-1.17559E+01 1.02500E+00
 -1       795-4.14725E-02-4.97142E+00 3.49999E-01
 -1       796 1.05580E-01-6.55837E+00 1.02500E+00
 -1       797 3.01650E-01-8.67430E+00 1.02500E+00
 -1       798 4.48703E-01-1.02612E+01 3.49999E-01
 -1       799 1.29738E+00-8.58203E+00 1.02500E+00
 -1       800 1.44444E+00-1.01690E+01 3.49999E-01
 -1       801 1.10131E+00-6.46610E+00 1.02500E+00
 -1       802 9.54260E-01-4.87915E+00 3.49999E-01
 -1       803-3.92287E-01-6.60450E+00 1.02500E+00
 -1       804 1.59918E+00-6.41996E+00 1.02500E+00
 -1       805-1.96217E-01-8.72044E+00 1.02500E+00
 -1       806 1.79525E+00-8.53590E+00 1.02500E+00
 -1       807-2.94252E-01-7.66247E+00 3.49999E-01
 -1       808 1.69721E+00-7.47793E+00 3.49999E-01
 -1       809 1.94198E+00-2.77828E+00 1.02500E+00
 -1       810 1.04681E+00-3.22402E+00 1.02500E+00
 -1       811 4.28395E+00-6.35986E+00 1.70000E+00
 -1       812 5.02036E+00-8.96052E+00 1.70000E+00
 -1       813 4.12520E+00-9.40624E+00 1.70000E+00
 -1       814 2.65237E+00-4.20495E+00 1.70000E+00
 -1       815 1.75721E+00-4.65068E+00 1.70000E+00
 -1       816 2.49362E+00-7.25134E+00 1.70000E+00
 -1       817 4.83559E+00-1.08329E+01 1.02500E+00
 -1       818 5.73075E+00-1.03872E+01 1.02500E+00
 -1       819 1.75721E+00-4.65068E+00 3.49999E-01
 -1       820 2.46761E+00-6.07735E+00 1.02500E+00
 -1       821 3.41480E+00-7.97958E+00 1.02500E+00
 -1       822 4.12520E+00-9.40624E+00 3.49999E-01
 -1       823 4.30996E+00-7.53384E+00 1.02500E+00
 -1       824 5.02036E+00-8.96052E+00 3.49999E-01
 -1       825 3.36277E+00-5.63162E+00 1.02500E+00
 -1       826 2.65237E+00-4.20495E+00 3.49999E-01
 -1       827 2.02002E+00-6.30022E+00 1.02500E+00
 -1       828 3.81035E+00-5.40875E+00 1.02500E+00
 -1       829 2.96722E+00-8.20245E+00 1.02500E+00
 -1       830 4.75754E+00-7.31097E+00 1.02500E+00
 -1       831 2.49362E+00-7.25134E+00 3.49999E-01
 -1       832 4.28395E+00-6.35986E+00 3.49999E-01
 -1       833 2.81447E+00-1.88915E+00 1.02500E+00
 -1       834 2.14078E+00-2.62816E+00 1.02500E+00
 -1       835 3.99226E+00-2.96285E+00 1.70000E+00
 -1       836 3.31857E+00-3.70186E+00 1.70000E+00
 -1       837 6.29211E+00-4.38285E+00 1.70000E+00
 -1       838 4.94472E+00-5.86087E+00 1.70000E+00
 -1       839 7.91825E+00-6.54186E+00 1.70000E+00
 -1       840 7.24455E+00-7.28087E+00 1.70000E+00
 -1       841 9.09605E+00-7.61556E+00 1.02500E+00
 -1       842 8.42235E+00-8.35457E+00 1.02500E+00
 -1       843 3.31857E+00-3.70186E+00 3.49999E-01
 -1       844 4.49637E+00-4.77556E+00 1.02500E+00
 -1       845 6.06676E+00-6.20717E+00 1.02500E+00
 -1       846 7.24455E+00-7.28087E+00 3.49999E-01
 -1       847 7.91825E+00-6.54186E+00 3.49999E-01
 -1       848 6.74046E+00-5.46816E+00 1.02500E+00
 -1       849 5.17006E+00-4.03655E+00 1.02500E+00
 -1       850 3.99226E+00-2.96285E+00 3.49999E-01
 -1       851 4.15952E+00-5.14507E+00 1.02500E+00
 -1       852 5.50691E+00-3.66705E+00 1.02500E+00
 -1       853 5.72991E+00-6.57667E+00 1.02500E+00
 -1       854 7.07730E+00-5.09865E+00 1.02500E+00
 -1       855 4.94472E+00-5.86087E+00 3.49999E-01
 -1       856 6.29211E+00-4.38285E+00 3.49999E-01
 -1       857 3.30686E+00-7.44874E-01 1.02500E+00
 -1       858 2.94561E+00-1.67735E+00 1.02500E+00
 -1       859 4.79298E+00-1.32060E+00 1.70000E+00
 -1       860 4.43174E+00-2.25307E+00 1.70000E+00
 -1       861 7.45049E+00-1.81392E+00 1.70000E+00
 -1       862 6.72800E+00-3.67886E+00 1.70000E+00
 -1       863 9.74676E+00-3.23970E+00 1.70000E+00
 -1       864 9.38548E+00-4.17217E+00 1.70000E+00
 -1       865 1.12329E+01-3.81543E+00 1.02500E+00
 -1       866 1.08716E+01-4.74790E+00 1.02500E+00
 -1       867 4.43174E+00-2.25307E+00 3.49999E-01
 -1       868 5.91787E+00-2.82880E+00 1.02500E+00
 -1       869 7.89937E+00-3.59644E+00 1.02500E+00
 -1       870 9.38548E+00-4.17217E+00 3.49999E-01
 -1       871 9.74676E+00-3.23970E+00 3.49999E-01
 -1       872 8.26062E+00-2.66397E+00 1.02500E+00
 -1       873 6.27911E+00-1.89633E+00 1.02500E+00
 -1       874 4.79298E+00-1.32060E+00 3.49999E-01
 -1       875 5.73725E+00-3.29504E+00 1.02500E+00
 -1       876 6.45973E+00-1.43010E+00 1.02500E+00
 -1       877 7.71875E+00-4.06268E+00 1.02500E+00
 -1       878 8.44124E+00-2.19773E+00 1.02500E+00
 -1       879 6.72800E+00-3.67886E+00 3.49999E-01
 -1       880 7.45049E+00-1.81392E+00 3.49999E-01
 -1       881 1.68367E+01 1.65826E+00 3.49999E-01
 -1       882 1.68367E+01 1.65826E+00-3.49999E-01
 -1       883-1.68367E+01 1.65826E+00-3.49999E-01
 -1       884-1.68367E+01 1.65826E+00 3.49999E-01
 -1       885 1.65826E+00 1.68367E+01 3.49999E-01
 -1       886 1.65826E+00 1.68367E+01-3.49999E-01
 -1       887-1.30779E+01-1.07327E+01-3.49999E-01
 -1       888-1.30779E+01-1.07327E+01 3.49999E-01
 -1       889 1.30779E+01 1.07327E+01 3.49999E-01
 -1       890 1.30779E+01 1.07327E+01-3.49999E-01
 -1       891 1.61896E+01 4.91108E+00 3.49999E-01
 -1       892 1.61896E+01 4.91108E+00-3.49999E-01
 -1       893-1.07327E+01 1.30779E+01 3.49999E-01
 -1       894-1.07327E+01 1.30779E+01-3.49999E-01
 -1       895-4.91108E+00 1.61896E+01 3.49999E-01
 -1       896-4.91108E+00 1.61896E+01-3.49999E-01
 -1       897 1.30779E+01-1.07327E+01 3.49999E-01
 -1       898 1.30779E+01-1.07327E+01-3.49999E-01
 -1       899 1.68367E+01-1.65826E+00-3.49999E-01
 -1       900 1.61896E+01-4.91108E+00-3.49999E-01
 -1       901 1.49205E+01-7.97515E+00-3.49999E-01
 -1       902 1.49205E+01 7.97515E+00-3.49999E-01
 -1       903 1.07327E+01-1.30779E+01-3.49999E-01
 -1       904 1.07327E+01 1.30779E+01-3.49999E-01
 -1       905 7.97515E+00-1.49205E+01-3.49999E-01
 -1       906 7.97515E+00 1.49205E+01-3.49999E-01
 -1       907 4.91108E+00-1.61896E+01-3.49999E-01
 -1       908 4.91108E+00 1.61896E+01-3.49999E-01
 -1       909 1.65826E+00-1.68367E+01-3.49999E-01
 -1       910-1.65826E+00-1.68367E+01-3.49999E-01
 -1       911-1.65826E+00 1.68367E+01-3.49999E-01
 -1       912-4.91108E+00-1.61896E+01-3.49999E-01
 -1       913-7.97515E+00-1.49205E+01-3.49999E-01
 -1       914-7.97515E+00 1.49205E+01-3.49999E-01
 -1       915-1.07327E+01-1.30779E+01-3.49999E-01
 -1       916-1.30779E+01 1.07327E+01-3.49999E-01
 -1       917-1.49205E+01-7.97515E+00-3.49999E-01
 -1       918-1.49205E+01 7.97515E+00-3.49999E-01
 -1       919-1.61896E+01-4.91108E+00-3.49999E-01
 -1       920-1.61896E+01 4.91108E+00-3.49999E-01
 -1       921-1.68367E+01-1.65826E+00-3.49999E-01
 -1       922 1.49205E+01 7.97515E+00 3.49999E-01
 -1       923 7.97515E+00 1.49205E+01 3.49999E-01
 -1       924 4.91108E+00 1.61896E+01 3.49999E-01
 -1       925 1.07327E+01 1.30779E+01 3.49999E-01
 -1       926-1.49205E+01 7.97515E+00 3.49999E-01
 -1       927-1.30779E+01 1.07327E+01 3.49999E-01
 -1       928-1.61896E+01 4.91108E+00 3.49999E-01
 -1       929-1.07327E+01-1.30779E+01 3.49999E-01
 -1       930-1.49205E+01-7.97515E+00 3.49999E-01
 -1       931-1.61896E+01-4.91108E+00 3.49999E-01
 -1       932-1.68367E+01-1.65826E+00 3.49999E-01
 -1       933-1.65826E+00 1.68367E+01 3.49999E-01
 -1       934-7.97515E+00 1.49205E+01 3.49999E-01
 -1       935 1.68367E+01-1.65826E+00 3.49999E-01
 -1       936 1.61896E+01-4.91108E+00 3.49999E-01
 -1       937 1.49205E+01-7.97515E+00 3.49999E-01
 -1       938 1.07327E+01-1.30779E+01 3.49999E-01
 -1       939 7.97515E+00-1.49205E+01 3.49999E-01
 -1       940 4.91108E+00-1.61896E+01 3.49999E-01
 -1       941 1.65826E+00-1.68367E+01 3.49999E-01
 -1       942-1.65826E+00-1.68367E+01 3.49999E-01
 -1       943-4.91108E+00-1.61896E+01 3.49999E-01
 -1       944-7.97515E+00-1.49205E+01 3.49999E-01
 -1       945 5.74326E+00 5.00000E-01 1.70000E+00
 -1       946 4.14951E+00 5.00000E-01 1.70000E+00
 -1       947 5.74326E+00-5.00000E-01 1.70000E+00
 -1       948 9.46200E+00 5.00000E-01 1.70000E+00
 -1       949 1.10557E+01-5.00000E-01 1.70000E+00
 -1       950 9.46200E+00-5.00000E-01 3.49999E-01
 -1       951 1.10557E+01-5.00000E-01 3.49999E-01
 -1       952 9.46200E+00 5.00000E-01 3.49999E-01
 -1       953 4.14951E+00 5.00000E-01 3.49999E-01
 -1       954 4.04992E+00 1.03274E+00 1.70000E+00
 -1       955 5.53605E+00 1.60847E+00 1.70000E+00
 -1       956 3.68867E+00 1.96521E+00 1.70000E+00
 -1       957 9.00369E+00 2.95183E+00 3.49999E-01
 -1       958 1.04898E+01 3.52757E+00 3.49999E-01
 -1       959 8.64243E+00 3.88431E+00 3.49999E-01
 -1       960 3.68867E+00 1.96521E+00 3.49999E-01
 -1       961 3.40337E+00 2.42600E+00 1.70000E+00
 -1       962 4.58116E+00 3.49970E+00 1.70000E+00
 -1       963 2.72968E+00 3.16501E+00 1.70000E+00
 -1       964 7.32936E+00 6.00501E+00 3.49999E-01
 -1       965 8.50715E+00 7.07871E+00 3.49999E-01
 -1       966 6.65566E+00 6.74402E+00 3.49999E-01
 -1       967 2.72968E+00 3.16501E+00 3.49999E-01
 -1       968 3.00757E+00 4.91828E+00 3.49999E-01
 -1       969 5.37555E+00 9.67386E+00 3.49999E-01
 -1       970 3.77000E+00 8.69291E+00 3.49999E-01
 -1       971 1.40201E+00 3.93735E+00 3.49999E-01
 -1       972 3.75176E-01 9.46778E+00 1.70000E+00
 -1       973 1.02778E+00 5.67263E+00 1.70000E+00
 -1       974-1.14999E-01 4.17794E+00 1.70000E+00
 -1       975 1.02778E+00 5.67263E+00 3.49999E-01
 -1       976 1.51796E+00 1.09624E+01 3.49999E-01
 -1       977 3.75176E-01 9.46778E+00 3.49999E-01
 -1       978-1.14999E-01 4.17794E+00 3.49999E-01
 -1       979-3.07031E+00 8.96396E+00 1.70000E+00
 -1       980-2.54464E+00 1.07705E+01 1.70000E+00
 -1       981-1.09080E+00 5.66084E+00 1.70000E+00
 -1       982-1.09080E+00 5.66084E+00 3.49999E-01
 -1       983-2.54464E+00 1.07705E+01 3.49999E-01
 -1       984-3.07031E+00 8.96396E+00 3.49999E-01
 -1       985-1.61647E+00 3.85427E+00 3.49999E-01
 -1       986-6.26358E+00 9.12400E+00 1.70000E+00
 -1       987-6.10114E+00 7.24953E+00 1.70000E+00
 -1       988-3.06207E+00 4.88453E+00 1.70000E+00
 -1       989-2.89965E+00 3.01006E+00 1.70000E+00
 -1       990-3.06207E+00 4.88453E+00 3.49999E-01
 -1       991-5.30312E+00 7.85216E+00 3.49999E-01
 -1       992-6.26358E+00 9.12400E+00 3.49999E-01
 -1       993-6.10114E+00 7.24953E+00 3.49999E-01
 -1       994-2.89965E+00 3.01006E+00 3.49999E-01
 -1       995-3.26477E+00 2.60954E+00 1.70000E+00
 -1       996-4.61980E+00 3.44854E+00 1.70000E+00
 -1       997-3.79120E+00 1.75932E+00 1.70000E+00
 -1       998-4.61980E+00 3.44854E+00 3.49999E-01
 -1       999-9.13657E+00 6.24521E+00 3.49999E-01
 -1      1000-8.30797E+00 4.55600E+00 3.49999E-01
 -1      1001-3.79120E+00 1.75932E+00 3.49999E-01
 -1      1002-9.39278E+00 1.24715E+00 1.70000E+00
 -1      1003-3.98698E+00 1.25396E+00 1.70000E+00
 -1      1004-5.55359E+00 1.54681E+00 1.70000E+00
 -1      1005-4.17073E+00 2.70983E-01 1.70000E+00
 -1      1006-5.55359E+00 1.54681E+00 3.49999E-01
 -1      1007-1.07756E+01 2.52297E+00 3.49999E-01
 -1      1008-9.39278E+00 1.24715E+00 3.49999E-01
 -1      1009-4.17073E+00 2.70983E-01 3.49999E-01
 -1      1010-3.98698E+00-1.25396E+00 1.70000E+00
 -1      1011-5.73734E+00-5.63834E-01 1.70000E+00
 -1      1012-1.09594E+01-1.54000E+00 1.70000E+00
 -1      1013-5.73734E+00-5.63834E-01 3.49999E-01
 -1      1014-1.09594E+01-1.54000E+00 3.49999E-01
 -1      1015-9.20901E+00-2.23012E+00 3.49999E-01
 -1      1016-3.98698E+00-1.25396E+00 3.49999E-01
 -1      1017-4.61980E+00-3.44854E+00 1.70000E+00
 -1      1018-3.26477E+00-2.60954E+00 1.70000E+00
 -1      1019-5.14623E+00-2.59833E+00 1.70000E+00
 -1      1020-5.14623E+00-2.59833E+00 3.49999E-01
 -1      1021-9.66299E+00-5.39500E+00 3.49999E-01
 -1      1022-7.78155E+00-5.40621E+00 3.49999E-01
 -1      1023-3.26477E+00-2.60954E+00 3.49999E-01
 -1      1024-2.10162E+00-3.61269E+00 1.70000E+00
 -1      1025-3.86010E+00-4.28190E+00 1.70000E+00
 -1      1026-7.06159E+00-8.52137E+00 1.70000E+00
 -1      1027-3.86010E+00-4.28190E+00 3.49999E-01
 -1      1028-7.06159E+00-8.52137E+00 3.49999E-01
 -1      1029-5.30312E+00-7.85216E+00 3.49999E-01
 -1      1030-2.10162E+00-3.61269E+00 3.49999E-01
 -1      1031-1.09080E+00-5.66084E+00 1.70000E+00
 -1      1032-6.54653E-01-4.12793E+00 1.70000E+00
 -1      1033-2.05262E+00-5.38718E+00 3.49999E-01
 -1      1034-3.50646E+00-1.04969E+01 3.49999E-01
 -1      1035-2.10848E+00-9.23763E+00 3.49999E-01
 -1      1036-6.54653E-01-4.12793E+00 3.49999E-01
 -1      1037 1.37091E+00-9.37550E+00 1.70000E+00
 -1      1038 5.22229E-01-1.10547E+01 1.70000E+00
 -1      1039 3.20538E-02-5.76489E+00 1.70000E+00
 -1      1040 3.20538E-02-5.76489E+00 3.49999E-01
 -1      1041 5.22229E-01-1.10547E+01 3.49999E-01
 -1      1042 1.37091E+00-9.37550E+00 3.49999E-01
 -1      1043 8.80734E-01-4.08567E+00 3.49999E-01
 -1      1044 2.11241E+00-5.36402E+00 1.70000E+00
 -1      1045 2.11241E+00-5.36402E+00 3.49999E-01
 -1      1046 3.77000E+00-8.69291E+00 3.49999E-01
 -1      1047 4.48039E+00-1.01196E+01 3.49999E-01
 -1      1048 4.66516E+00-8.24718E+00 3.49999E-01
 -1      1049 2.29718E+00-3.49162E+00 3.49999E-01
 -1      1050 4.58116E+00-3.49970E+00 1.70000E+00
 -1      1051 3.40337E+00-2.42600E+00 1.70000E+00
 -1      1052 3.90747E+00-4.23871E+00 1.70000E+00
 -1      1053 7.32936E+00-6.00501E+00 1.70000E+00
 -1      1054 7.83345E+00-7.81772E+00 1.70000E+00
 -1      1055 6.65566E+00-6.74402E+00 3.49999E-01
 -1      1056 7.83345E+00-7.81772E+00 3.49999E-01
 -1      1057 7.32936E+00-6.00501E+00 3.49999E-01
 -1      1058 3.40337E+00-2.42600E+00 3.49999E-01
 -1      1059 4.04992E+00-1.03274E+00 1.70000E+00
 -1      1060 5.17481E+00-2.54094E+00 1.70000E+00
 -1      1061 9.00369E+00-2.95183E+00 1.70000E+00
 -1      1062 1.01285E+01-4.46003E+00 1.70000E+00
 -1      1063 8.64243E+00-3.88431E+00 3.49999E-01
 -1      1064 1.01285E+01-4.46003E+00 3.49999E-01
 -1      1065 9.00369E+00-2.95183E+00 3.49999E-01
 -1      1066 4.04992E+00-1.03274E+00 3.49999E-01
 -1      1067 1.69183E+01 8.29132E-01 3.49999E-01
 -1      1068-1.69183E+01 8.29132E-01-3.49999E-01
 -1      1069 2.48740E+00 1.67550E+01 3.49999E-01
 -1      1070 1.36065E+01 1.00887E+01 3.49999E-01
 -1      1071 1.64315E+01 4.11380E+00 3.49999E-01
 -1      1072 1.59478E+01 5.70835E+00-3.49999E-01
 -1      1073-1.00887E+01 1.36065E+01 3.49999E-01
 -1      1074 1.67550E+01-2.48740E+00-3.49999E-01
 -1      1075 1.59478E+01-5.70835E+00-3.49999E-01
 -1      1076 1.45278E+01-8.70992E+00-3.49999E-01
 -1      1077 1.45278E+01 8.70992E+00-3.49999E-01
 -1      1078 1.53132E+01 7.24039E+00-3.49999E-01
 -1      1079 1.13768E+01-1.25493E+01-3.49999E-01
 -1      1080 1.00887E+01-1.36065E+01-3.49999E-01
 -1      1081 1.13768E+01 1.25493E+01-3.49999E-01
 -1      1082 7.24039E+00-1.53132E+01-3.49999E-01
 -1      1083 8.70992E+00 1.45278E+01-3.49999E-01
 -1      1084 4.11380E+00-1.64315E+01-3.49999E-01
 -1      1085 4.11380E+00 1.64315E+01-3.49999E-01
 -1      1086 5.70835E+00 1.59478E+01-3.49999E-01
 -1      1087 8.29132E-01-1.69183E+01-3.49999E-01
 -1      1088-2.48740E+00-1.67550E+01-3.49999E-01
 -1      1089-2.48740E+00 1.67550E+01-3.49999E-01
 -1      1090-8.29132E-01 1.69183E+01-3.49999E-01
 -1      1091-5.70835E+00-1.59478E+01-3.49999E-01
 -1      1092-8.70992E+00-1.45278E+01-3.49999E-01
 -1      1093-8.70992E+00 1.45278E+01-3.49999E-01
 -1      1094-7.24039E+00 1.53132E+01-3.49999E-01
 -1      1095-1.13768E+01-1.25493E+01-3.49999E-01
 -1      1096-1.36065E+01 1.00887E+01-3.49999E-01
 -1      1097-1.25493E+01 1.13768E+01-3.49999E-01
 -1      1098-1.53132E+01-7.24039E+00-3.49999E-01
 -1      1099-1.45278E+01 8.70992E+00-3.49999E-01
 -1      1100-1.64315E+01-4.11380E+00-3.49999E-01
 -1      1101-1.59478E+01 5.70835E+00-3.49999E-01
 -1      1102-1.69183E+01-8.29132E-01-3.49999E-01
 -1      1103 1.53132E+01 7.24039E+00 3.49999E-01
 -1      1104 8.70992E+00 1.45278E+01 3.49999E-01
 -1      1105 1.13768E+01 1.25493E+01 3.49999E-01
 -1      1106-1.25493E+01 1.13768E+01 3.49999E-01
 -1      1107-1.59478E+01 5.70835E+00 3.49999E-01
 -1      1108-1.00887E+01-1.36065E+01 3.49999E-01
 -1      1109-1.45278E+01-8.70992E+00 3.49999E-01
 -1      1110-1.59478E+01-5.70835E+00 3.49999E-01
 -1      1111-1.67550E+01-2.48740E+00 3.49999E-01
 -1      1112-2.48740E+00 1.67550E+01 3.49999E-01
 -1      1113-8.70992E+00 1.45278E+01 3.49999E-01
 -1      1114 1.69183E+01-8.29132E-01 3.49999E-01
 -1      1115 1.64315E+01-4.11380E+00 3.49999E-01
 -1      1116 1.53132E+01-7.24039E+00 3.49999E-01
 -1      1117 1.13768E+01-1.25493E+01 3.49999E-01
 -1      1118 8.70992E+00-1.45278E+01 3.49999E-01
 -1      1119 5.70835E+00-1.59478E+01 3.49999E-01
 -1      1120 2.48740E+00-1.67550E+01 3.49999E-01
 -1      1121-8.29132E-01-1.69183E+01 3.49999E-01
 -1      1122-4.11380E+00-1.64315E+01 3.49999E-01
 -1      1123-7.24039E+00-1.53132E+01 3.49999E-01
 -1      1124 4.14951E+00-5.00000E-01 1.70000E+00
 -1      1125 1.10557E+01 5.00000E-01 1.70000E+00
 -1      1126 9.46200E+00-5.00000E-01 1.70000E+00
 -1      1127 5.74326E+00-5.00000E-01 3.49999E-01
 -1      1128 4.14951E+00-5.00000E-01 3.49999E-01
 -1      1129 1.10557E+01 5.00000E-01 3.49999E-01
 -1      1130 5.74326E+00 5.00000E-01 3.49999E-01
 -1      1131 1.04898E+01 3.52757E+00 1.70000E+00
 -1      1132 9.00369E+00 2.95183E+00 1.70000E+00
 -1      1133 8.64243E+00 3.88431E+00 1.70000E+00
 -1      1134 1.01285E+01 4.46003E+00 1.70000E+00
 -1      1135 5.17481E+00 2.54094E+00 1.70000E+00
 -1      1136 5.53605E+00 1.60847E+00 3.49999E-01
 -1      1137 4.04992E+00 1.03274E+00 3.49999E-01
 -1      1138 1.01285E+01 4.46003E+00 3.49999E-01
 -1      1139 5.17481E+00 2.54094E+00 3.49999E-01
 -1      1140 8.50715E+00 7.07871E+00 1.70000E+00
 -1      1141 7.32936E+00 6.00501E+00 1.70000E+00
 -1      1142 6.65566E+00 6.74402E+00 1.70000E+00
 -1      1143 7.83345E+00 7.81772E+00 1.70000E+00
 -1      1144 3.90747E+00 4.23871E+00 1.70000E+00
 -1      1145 4.58116E+00 3.49970E+00 3.49999E-01
 -1      1146 3.40337E+00 2.42600E+00 3.49999E-01
 -1      1147 7.83345E+00 7.81772E+00 3.49999E-01
 -1      1148 3.90747E+00 4.23871E+00 3.49999E-01
 -1      1149 5.37555E+00 9.67386E+00 1.70000E+00
 -1      1150 4.66516E+00 8.24718E+00 1.70000E+00
 -1      1151 3.77000E+00 8.69291E+00 1.70000E+00
 -1      1152 4.48039E+00 1.01196E+01 1.70000E+00
 -1      1153 1.40201E+00 3.93735E+00 1.70000E+00
 -1      1154 3.00757E+00 4.91828E+00 1.70000E+00
 -1      1155 2.29718E+00 3.49162E+00 1.70000E+00
 -1      1156 2.11241E+00 5.36402E+00 1.70000E+00
 -1      1157 2.29718E+00 3.49162E+00 3.49999E-01
 -1      1158 4.66516E+00 8.24718E+00 3.49999E-01
 -1      1159 4.48039E+00 1.01196E+01 3.49999E-01
 -1      1160 2.11241E+00 5.36402E+00 3.49999E-01
 -1      1161 1.51796E+00 1.09624E+01 1.70000E+00
 -1      1162 1.37091E+00 9.37550E+00 1.70000E+00
 -1      1163 5.22229E-01 1.10547E+01 1.70000E+00
 -1      1164 8.80734E-01 4.08567E+00 1.70000E+00
 -1      1165 3.20538E-02 5.76489E+00 1.70000E+00
 -1      1166 8.80734E-01 4.08567E+00 3.49999E-01
 -1      1167 1.37091E+00 9.37550E+00 3.49999E-01
 -1      1168 5.22229E-01 1.10547E+01 3.49999E-01
 -1      1169 3.20538E-02 5.76489E+00 3.49999E-01
 -1      1170-3.50646E+00 1.04969E+01 1.70000E+00
 -1      1171-1.61647E+00 3.85427E+00 1.70000E+00
 -1      1172-2.05262E+00 5.38718E+00 1.70000E+00
 -1      1173-2.10848E+00 9.23763E+00 1.70000E+00
 -1      1174-6.54653E-01 4.12793E+00 1.70000E+00
 -1      1175-6.54653E-01 4.12793E+00 3.49999E-01
 -1      1176-2.10848E+00 9.23763E+00 3.49999E-01
 -1      1177-3.50646E+00 1.04969E+01 3.49999E-01
 -1      1178-2.05262E+00 5.38718E+00 3.49999E-01
 -1      1179-5.30312E+00 7.85216E+00 1.70000E+00
 -1      1180-7.06159E+00 8.52137E+00 1.70000E+00
 -1      1181-2.10162E+00 3.61269E+00 1.70000E+00
 -1      1182-3.86010E+00 4.28190E+00 1.70000E+00
 -1      1183-2.10162E+00 3.61269E+00 3.49999E-01
 -1      1184-7.06159E+00 8.52137E+00 3.49999E-01
 -1      1185-3.86010E+00 4.28190E+00 3.49999E-01
 -1      1186-9.13657E+00 6.24521E+00 1.70000E+00
 -1      1187-7.78155E+00 5.40621E+00 1.70000E+00
 -1      1188-8.30797E+00 4.55600E+00 1.70000E+00
 -1      1189-9.66299E+00 5.39500E+00 1.70000E+00
 -1      1190-5.14623E+00 2.59833E+00 1.70000E+00
 -1      1191-3.26477E+00 2.60954E+00 3.49999E-01
 -1      1192-7.78155E+00 5.40621E+00 3.49999E-01
 -1      1193-9.66299E+00 5.39500E+00 3.49999E-01
 -1      1194-5.14623E+00 2.59833E+00 3.49999E-01
 -1      1195-1.07756E+01 2.52297E+00 1.70000E+00
 -1      1196-9.20901E+00 2.23012E+00 1.70000E+00
 -1      1197-1.09594E+01 1.54000E+00 1.70000E+00
 -1      1198-5.73734E+00 5.63834E-01 1.70000E+00
 -1      1199-3.98698E+00 1.25396E+00 3.49999E-01
 -1      1200-9.20901E+00 2.23012E+00 3.49999E-01
 -1      1201-1.09594E+01 1.54000E+00 3.49999E-01
 -1      1202-5.73734E+00 5.63834E-01 3.49999E-01
 -1      1203-5.55359E+00-1.54681E+00 1.70000E+00
 -1      1204-4.17073E+00-2.70983E-01 1.70000E+00
 -1      1205-9.20901E+00-2.23012E+00 1.70000E+00
 -1      1206-1.07756E+01-2.52297E+00 1.70000E+00
 -1      1207-9.39278E+00-1.24715E+00 1.70000E+00
 -1      1208-4.17073E+00-2.70983E-01 3.49999E-01
 -1      1209-9.39278E+00-1.24715E+00 3.49999E-01
 -1      1210-1.07756E+01-2.52297E+00 3.49999E-01
 -1      1211-5.55359E+00-1.54681E+00 3.49999E-01
 -1      1212-3.79120E+00-1.75932E+00 1.70000E+00
 -1      1213-9.66299E+00-5.39500E+00 1.70000E+00
 -1      1214-7.78155E+00-5.40621E+00 1.70000E+00
 -1      1215-9.13657E+00-6.24521E+00 1.70000E+00
 -1      1216-8.30797E+00-4.55600E+00 1.70000E+00
 -1      1217-3.79120E+00-1.75932E+00 3.49999E-01
 -1      1218-8.30797E+00-4.55600E+00 3.49999E-01
 -1      1219-9.13657E+00-6.24521E+00 3.49999E-01
 -1      1220-4.61980E+00-3.44854E+00 3.49999E-01
 -1      1221-3.06207E+00-4.88453E+00 1.70000E+00
 -1      1222-2.89965E+00-3.01006E+00 1.70000E+00
 -1      1223-5.30312E+00-7.85216E+00 1.70000E+00
 -1      1224-6.26358E+00-9.12400E+00 1.70000E+00
 -1      1225-6.10114E+00-7.24953E+00 1.70000E+00
 -1      1226-2.89965E+00-3.01006E+00 3.49999E-01
 -1      1227-6.10114E+00-7.24953E+00 3.49999E-01
 -1      1228-6.26358E+00-9.12400E+00 3.49999E-01
 -1      1229-3.06207E+00-4.88453E+00 3.49999E-01
 -1      1230-2.05262E+00-5.38718E+00 1.70000E+00
 -1      1231-1.61647E+00-3.85427E+00 1.70000E+00
 -1      1232-2.10848E+00-9.23763E+00 1.70000E+00
 -1      1233-2.54464E+00-1.07705E+01 1.70000E+00
 -1      1234-3.50646E+00-1.04969E+01 1.70000E+00
 -1      1235-3.07031E+00-8.96396E+00 1.70000E+00
 -1      1236-1.61647E+00-3.85427E+00 3.49999E-01
 -1      1237-3.07031E+00-8.96396E+00 3.49999E-01
 -1      1238-2.54464E+00-1.07705E+01 3.49999E-01
 -1      1239-1.09080E+00-5.66084E+00 3.49999E-01
 -1      1240 8.80734E-01-4.08567E+00 1.70000E+00
 -1      1241 1.02778E+00-5.67263E+00 1.70000E+00
 -1      1242 1.51796E+00-1.09624E+01 1.70000E+00
 -1      1243 3.75176E-01-9.46778E+00 1.70000E+00
 -1      1244-1.14999E-01-4.17794E+00 1.70000E+00
 -1      1245-1.14999E-01-4.17794E+00 3.49999E-01
 -1      1246 3.75176E-01-9.46778E+00 3.49999E-01
 -1      1247 1.51796E+00-1.09624E+01 3.49999E-01
 -1      1248 1.02778E+00-5.67263E+00 3.49999E-01
 -1      1249 4.66516E+00-8.24718E+00 1.70000E+00
 -1      1250 5.37555E+00-9.67386E+00 1.70000E+00
 -1      1251 4.48039E+00-1.01196E+01 1.70000E+00
 -1      1252 3.77000E+00-8.69291E+00 1.70000E+00
 -1      1253 2.29718E+00-3.49162E+00 1.70000E+00
 -1      1254 3.00757E+00-4.91828E+00 1.70000E+00
 -1      1255 1.40201E+00-3.93735E+00 1.70000E+00
 -1      1256 1.40201E+00-3.93735E+00 3.49999E-01
 -1      1257 5.37555E+00-9.67386E+00 3.49999E-01
 -1      1258 3.00757E+00-4.91828E+00 3.49999E-01
 -1      1259 2.72968E+00-3.16501E+00 1.70000E+00
 -1      1260 8.50715E+00-7.07871E+00 1.70000E+00
 -1      1261 6.65566E+00-6.74402E+00 1.70000E+00
 -1      1262 3.90747E+00-4.23871E+00 3.49999E-01
 -1      1263 2.72968E+00-3.16501E+00 3.49999E-01
 -1      1264 8.50715E+00-7.07871E+00 3.49999E-01
 -1      1265 4.58116E+00-3.49970E+00 3.49999E-01
 -1      1266 5.53605E+00-1.60847E+00 1.70000E+00
 -1      1267 3.68867E+00-1.96521E+00 1.70000E+00
 -1      1268 1.04898E+01-3.52757E+00 1.70000E+00
 -1      1269 8.64243E+00-3.88431E+00 1.70000E+00
 -1      1270 5.17481E+00-2.54094E+00 3.49999E-01
 -1      1271 3.68867E+00-1.96521E+00 3.49999E-01
 -1      1272 1.04898E+01-3.52757E+00 3.49999E-01
 -1      1273 5.53605E+00-1.60847E+00 3.49999E-01
 -1      1274 1.67550E+01 2.48740E+00 3.49999E-01
 -1      1275 1.67550E+01 2.48740E+00-3.49999E-01
 -1      1276 1.69183E+01 8.29132E-01-3.49999E-01
 -1      1277-1.67550E+01 2.48740E+00-3.49999E-01
 -1      1278-1.67550E+01 2.48740E+00 3.49999E-01
 -1      1279-1.69183E+01 8.29132E-01 3.49999E-01
 -1      1280 8.29132E-01 1.69183E+01 3.49999E-01
 -1      1281 8.29132E-01 1.69183E+01-3.49999E-01
 -1      1282 2.48740E+00 1.67550E+01-3.49999E-01
 -1      1283-1.25493E+01-1.13768E+01-3.49999E-01
 -1      1284-1.36065E+01-1.00887E+01-3.49999E-01
 -1      1285-1.36065E+01-1.00887E+01 3.49999E-01
 -1      1286-1.25493E+01-1.13768E+01 3.49999E-01
 -1      1287 1.25493E+01 1.13768E+01 3.49999E-01
 -1      1288 1.25493E+01 1.13768E+01-3.49999E-01
 -1      1289 1.36065E+01 1.00887E+01-3.49999E-01
 -1      1290 1.59478E+01 5.70835E+00 3.49999E-01
 -1      1291 1.64315E+01 4.11380E+00-3.49999E-01
 -1      1292-1.13768E+01 1.25493E+01 3.49999E-01
 -1      1293-1.13768E+01 1.25493E+01-3.49999E-01
 -1      1294-1.00887E+01 1.36065E+01-3.49999E-01
 -1      1295-4.11380E+00 1.64315E+01 3.49999E-01
 -1      1296-5.70835E+00 1.59478E+01 3.49999E-01
 -1      1297-5.70835E+00 1.59478E+01-3.49999E-01
 -1      1298-4.11380E+00 1.64315E+01-3.49999E-01
 -1      1299 1.25493E+01-1.13768E+01 3.49999E-01
 -1      1300 1.36065E+01-1.00887E+01 3.49999E-01
 -1      1301 1.36065E+01-1.00887E+01-3.49999E-01
 -1      1302 1.25493E+01-1.13768E+01-3.49999E-01
 -1      1303 1.69183E+01-8.29132E-01-3.49999E-01
 -1      1304 1.64315E+01-4.11380E+00-3.49999E-01
 -1      1305 1.53132E+01-7.24039E+00-3.49999E-01
 -1      1306 1.00887E+01 1.36065E+01-3.49999E-01
 -1      1307 8.70992E+00-1.45278E+01-3.49999E-01
 -1      1308 7.24039E+00 1.53132E+01-3.49999E-01
 -1      1309 5.70835E+00-1.59478E+01-3.49999E-01
 -1      1310 2.48740E+00-1.67550E+01-3.49999E-01
 -1      1311-8.29132E-01-1.69183E+01-3.49999E-01
 -1      1312-4.11380E+00-1.64315E+01-3.49999E-01
 -1      1313-7.24039E+00-1.53132E+01-3.49999E-01
 -1      1314-1.00887E+01-1.36065E+01-3.49999E-01
 -1      1315-1.45278E+01-8.70992E+00-3.49999E-01
 -1      1316-1.53132E+01 7.24039E+00-3.49999E-01
 -1      1317-1.59478E+01-5.70835E+00-3.49999E-01
 -1      1318-1.64315E+01 4.11380E+00-3.49999E-01
 -1      1319-1.67550E+01-2.48740E+00-3.49999E-01
 -1      1320 1.45278E+01 8.70992E+00 3.49999E-01
 -1      1321 7.24039E+00 1.53132E+01 3.49999E-01
 -1      1322 5.70835E+00 1.59478E+01 3.49999E-01
 -1      1323 4.11380E+00 1.64315E+01 3.49999E-01
 -1      1324 1.00887E+01 1.36065E+01 3.49999E-01
 -1      1325-1.45278E+01 8.70992E+00 3.49999E-01
 -1      1326-1.53132E+01 7.24039E+00 3.49999E-01
 -1      1327-1.36065E+01 1.00887E+01 3.49999E-01
 -1      1328-1.64315E+01 4.11380E+00 3.49999E-01
 -1      1329-1.13768E+01-1.25493E+01 3.49999E-01
 -1      1330-1.53132E+01-7.24039E+00 3.49999E-01
 -1      1331-1.64315E+01-4.11380E+00 3.49999E-01
 -1      1332-1.69183E+01-8.29132E-01 3.49999E-01
 -1      1333-8.29132E-01 1.69183E+01 3.49999E-01
 -1      1334-7.24039E+00 1.53132E+01 3.49999E-01
 -1      1335 1.67550E+01-2.48740E+00 3.49999E-01
 -1      1336 1.59478E+01-5.70835E+00 3.49999E-01
 -1      1337 1.45278E+01-8.70992E+00 3.49999E-01
 -1      1338 1.00887E+01-1.36065E+01 3.49999E-01
 -1      1339 7.24039E+00-1.53132E+01 3.49999E-01
 -1      1340 4.11380E+00-1.64315E+01 3.49999E-01
 -1      1341 8.29132E-01-1.69183E+01 3.49999E-01
 -1      1342-2.48740E+00-1.67550E+01 3.49999E-01
 -1      1343-5.70835E+00-1.59478E+01 3.49999E-01
 -1      1344-8.70992E+00-1.45278E+01 3.49999E-01
 -1      1345 4.52074E+00 6.83541E+00 3.49999E-01
 -1      1346-3.77907E+00-1.97771E-01 3.49999E-01
 -1      1347-3.70763E+00 1.84416E-01 3.49999E-01
 -1      1348-3.45244E+00-1.54957E+00 3.49999E-01
 -1      1349-3.52388E+00-1.16739E+00 3.49999E-01
 -1      1350 3.31714E+00-1.82128E+00 3.49999E-01
 -1      1351 3.05521E+00-2.10861E+00 3.49999E-01
 -1      1352 3.67839E+00 8.88806E-01 3.49999E-01
 -1      1353 3.67839E+00 5.00000E-01 3.49999E-01
 -1      1354 3.10892E+00 2.15757E+00 3.49999E-01
 -1      1355 3.24937E+00 1.79503E+00 3.49999E-01
 -1      1356-5.45616E-01 3.74471E+00 3.49999E-01
 -1      1357-1.58468E-01 3.70883E+00 3.49999E-01
 -1      1358 2.43523E+00 2.89658E+00 3.49999E-01
 -1      1359 2.08718E+00 3.06989E+00 3.49999E-01
 -1      1360-1.50744E+00 3.47105E+00 3.49999E-01
 -1      1361-1.81772E+00 3.23673E+00 3.49999E-01
 -1      1362-1.50744E+00-3.47105E+00 3.49999E-01
 -1      1363-1.81772E+00-3.23673E+00 3.49999E-01
 -1      1364 8.43972E-01-3.68894E+00 3.49999E-01
 -1      1365 1.19202E+00-3.51563E+00 3.49999E-01
 -1      1366-3.45244E+00 1.54957E+00 3.49999E-01
 -1      1367-3.52388E+00 1.16739E+00 3.49999E-01
 -1      1368-2.92601E+00-2.39979E+00 3.49999E-01
 -1      1369-2.61573E+00-2.63410E+00 3.49999E-01
 -1      1370-5.45616E-01-3.74471E+00 3.49999E-01
 -1      1371-1.58468E-01-3.70883E+00 3.49999E-01
 -1      1372 2.43523E+00-2.89658E+00 3.49999E-01
 -1      1373 2.08718E+00-3.06989E+00 3.49999E-01
 -1      1374 1.43639E+01 9.96096E-01 3.49999E-01
 -1      1375 2.64900E+00 1.41462E+01 3.49999E-01
 -1      1376 5.14112E+00 1.34127E+01 3.49999E-01
 -1      1377 1.44726E-03 7.61458E-04-3.49999E-01
 -1      1378-3.93205E+00 1.38194E+01 3.49999E-01
 -1      1379 1.38437E+01 3.76420E+00 3.49999E-01
 -1      1380 1.50503E+01 2.55803E+00 3.49999E-01
 -1      1381-4.87957E+00 1.17803E+01-3.49999E-01
 -1      1382 1.27506E+01-0.00000E+00-3.49999E-01
 -1      1383-8.45847E+00 4.14370E-01-3.49999E-01
 -1      1384 1.06013E+01 7.08348E+00-3.49999E-01
 -1      1385-8.15667E+00 1.19089E+01 3.49999E-01
 -1      1386-1.42905E+01 1.82604E+00 3.49999E-01
 -1      1387-1.25040E+01-2.48724E+00-3.49999E-01
 -1      1388 1.13797E+01 8.80017E+00 3.49999E-01
 -1      1389 6.72200E+00 1.00603E+01-3.49999E-01
 -1      1390-1.06013E+01 7.08348E+00-3.49999E-01
 -1      1391-1.42905E+01-1.82604E+00 3.49999E-01
 -1      1392 1.54866E+00 1.14746E+01-3.49999E-01
 -1      1393-1.22227E+01-7.56795E+00 3.49999E-01
 -1      1394-8.15667E+00-1.19089E+01 3.49999E-01
 -1      1395-5.88596E+00 1.36630E+01-3.49999E-01
 -1      1396-1.35139E+01-4.53478E+00 3.49999E-01
 -1      1397 3.47485E+00 1.23517E+01 3.49999E-01
 -1      1398-8.20073E+00 1.06493E+01-3.49999E-01
 -1      1399-1.28839E+01-5.46948E+00-3.49999E-01
 -1      1400-1.49360E-05 0.00000E+00 3.49999E-01
 -1      1401 9.90722E+00 6.13429E+00 3.49999E-01
 -1      1402-1.35139E+01 4.53478E+00 3.49999E-01
 -1      1403-1.50299E+01-0.00000E+00 3.49999E-01
 -1      1404 1.38437E+01-3.76420E+00 3.49999E-01
 -1      1405 1.17873E+01-8.05686E+00 3.49999E-01
 -1      1406-1.16624E+01 4.51804E+00 3.49999E-01
 -1      1407 1.37035E+01 2.85105E+00-3.49999E-01
 -1      1408-1.03268E+00-1.36748E+00 3.49999E-01
 -1      1409 1.52397E+01 2.75672E+00-3.49999E-01
 -1      1410 8.06088E+00-1.17922E+01 3.49999E-01
 -1      1411 1.06013E+01-7.08348E+00-3.49999E-01
 -1      1412 1.01352E+01-1.02725E+01 3.49999E-01
 -1      1413 2.64900E+00-1.41462E+01 3.49999E-01
 -1      1414-9.74260E-01-1.41423E+01 3.49999E-01
 -1      1415-1.48467E+01 3.45123E+00 3.49999E-01
 -1      1416-1.30975E+01 2.80233E-01 3.49999E-01
 -1      1417-1.02264E+01 3.96172E+00 3.49999E-01
 -1      1418-8.16602E+00 1.26265E+01-3.49999E-01
 -1      1419 1.09410E+01-9.51793E+00-3.49999E-01
 -1      1420 1.26636E+00 1.15445E+00 3.49999E-01
 -1      1421-4.68950E-01 1.64819E+00 3.49999E-01
 -1      1422-1.29804E+01 6.46580E+00-3.49999E-01
 -1      1423-4.57452E+00-7.13141E+00-3.49999E-01
 -1      1424-1.21706E-01 1.39862E+01-3.49999E-01
 -1      1425 7.02226E+00 9.29898E+00 3.49999E-01
 -1      1426-7.28198E+00 1.37079E+01-3.49999E-01
 -1      1427 1.28048E+01 7.31661E+00-3.49999E-01
 -1      1428-2.91357E+00 1.39096E+01-3.49999E-01
 -1      1429 9.81005E+00 9.98369E+00-3.49999E-01
 -1      1430-7.70773E+00-1.00486E+01-3.49999E-01
 -1      1431 5.06893E+00 3.88997E+00-3.49999E-01
 -1      1432-5.90181E+00 1.18524E+01 3.49999E-01
 -1      1433-1.46295E+01-1.85944E+00-3.49999E-01
 -1      1434-1.44753E+01-4.82640E+00-3.49999E-01
 -1      1435-1.24289E+01 2.16272E+00-3.49999E-01
 -1      1436 4.10387E+00-9.23121E+00-3.49999E-01
 -1      1437 1.17274E+01 9.12173E+00-3.49999E-01
 -1      1438 2.27031E+00 1.28847E+01 3.49999E-01
 -1      1439-1.49398E+01-4.09667E+00 3.49999E-01
 -1      1440-6.75067E+00 1.35134E+01 3.49999E-01
 -1      1441-5.62124E+00-1.31678E+01 3.49999E-01
 -1      1442 9.68576E+00-1.18346E+01 3.49999E-01
 -1      1443-1.53643E+01-2.74714E+00 3.49999E-01
 -1      1444-1.12021E+01 4.50686E+00-3.49999E-01
 -1      1445 8.37857E-01-1.36982E+01 3.49999E-01
 -1      1446 6.06275E-01 2.13086E+00 3.49999E-01
 -1      1447 1.07231E+01-1.10963E+01-3.49999E-01
 -1      1448-5.70654E+00 1.45067E+01 3.49999E-01
 -1      1449 1.30114E+01-5.53762E+00-3.49999E-01
 -1      1450 1.03252E+01 8.56621E+00-3.49999E-01
 -1      1451-9.66450E+00-1.11196E+01-3.49999E-01
 -1      1452-1.10275E+01-9.58887E+00 3.49999E-01
 -1      1453 1.36902E+01 5.17159E+00-3.49999E-01
 -1      1454-1.11498E+01-1.07671E+01-3.49999E-01
 -1      1455 5.25698E+00-1.24863E+01-3.49999E-01
 -1      1456-1.52810E+01-2.49256E-01-3.49999E-01
 -1      1457-1.53642E+01-4.22541E+00-3.49999E-01
 -1      1458-1.68443E+00 3.14873E-01 3.49999E-01
 -1      1459 3.88002E+00-1.42255E+01-3.49999E-01
 -1      1460 1.25191E+01-8.65745E+00-3.49999E-01
 -1      1461 8.31312E+00 1.19209E+01-3.49999E-01
 -1      1462 4.17504E+00 1.47307E+01 3.49999E-01
 -1      1463-1.25067E+01 7.15727E+00 3.49999E-01
 -1      1464-1.36603E+01-6.38852E+00 3.49999E-01
 -1      1465 1.06458E+01-6.59158E+00 3.49999E-01
 -1      1466 1.25098E+01 2.33847E+00 3.49999E-01
 -1      1467 1.31893E+01-6.08958E+00 3.49999E-01
 -1      1468 5.36322E+00-1.33748E+01 3.49999E-01
 -1      1469 7.50262E+00-9.84748E+00-3.49999E-01
 -1      1470-1.14922E+01 0.00000E+00 3.49999E-01
 -1      1471-4.90551E+00 1.47361E+01-3.49999E-01
 -1      1472-1.40805E+01 6.10909E+00 3.49999E-01
 -1      1473-1.41042E+01-3.31962E+00-3.49999E-01
 -1      1474 1.25356E+01 3.65121E+00 3.49999E-01
 -1      1475-5.16171E+00 1.03661E+01 3.49999E-01
 -1      1476 1.25098E+01-2.33847E+00 3.49999E-01
 -1      1477-1.92818E+00 6.10220E+00-3.49999E-01
 -1      1478 3.08203E+00 1.08322E+01 3.49999E-01
 -1      1479-1.27486E+01-3.97140E+00-3.49999E-01
 -1      1480 1.96688E+00-1.30189E+01 3.49999E-01
 -1      1481 1.28630E+01 6.40301E+00 3.49999E-01
 -1      1482 7.83808E+00 1.20130E+01 3.49999E-01
 -1      1483 1.87315E+00-1.47687E+01-3.49999E-01
 -1      1484-9.58510E-01-1.39824E+01-3.49999E-01
 -1      1485-1.01776E+01 9.96919E+00 3.49999E-01
 -1      1486-1.55322E+01-1.26611E+00 3.49999E-01
 -1      1487-1.55322E+01 1.26611E+00 3.49999E-01
 -1      1488-8.98337E+00 1.29163E+01 3.49999E-01
 -1      1489 5.47346E+00 1.46694E+01 3.49999E-01
 -1      1490 2.91378E+00 1.39103E+01-3.49999E-01
 -1      1491-1.39525E+01-6.26465E-01 3.49999E-01
 -1      1492-1.09410E+01 9.51793E+00-3.49999E-01
 -1      1493 1.13637E+01 7.99247E+00-3.49999E-01
 -1      1494-1.21190E+01-7.89472E+00-3.49999E-01
 -1      1495 1.40375E+01 6.57019E+00-3.49999E-01
 -1      1496-9.65837E+00 1.16638E+01-3.49999E-01
 -1      1497-8.64282E+00 1.35185E+01-3.49999E-01
 -1      1498-6.55000E+00 1.20977E+01-3.49999E-01
 -1      1499 1.30360E+01 1.11365E+00 3.49999E-01
 -1      1500 1.16875E+00 3.72578E+00-3.49999E-01
 -1      1501-1.38757E+01-3.17281E+00 3.49999E-01
 -1      1502-8.55668E+00-5.43793E+00-3.49999E-01
 -1      1503-1.43150E+01-6.23446E+00-3.49999E-01
 -1      1504 4.33869E+00 1.15113E+01-3.49999E-01
 -1      1505-1.28024E+01-8.88992E+00 3.49999E-01
 -1      1506 1.43636E+01 1.04569E+00-3.49999E-01
 -1      1507-9.54064E+00-1.22820E+01 3.49999E-01
 -1      1508 1.18646E+01 5.67328E+00-3.49999E-01
 -1      1509 1.23875E+01 4.00381E+00-3.49999E-01
 -1      1510-7.93907E+00-1.05130E+01 3.49999E-01
 -1      1511-1.30288E+01-1.53413E+00 3.49999E-01
 -1      1512 1.51479E+01 3.86232E+00 3.49999E-01
 -1      1513 1.55829E+01 1.39221E+00 3.49999E-01
 -1      1514-8.74210E+00 1.37043E+01 3.49999E-01
 -1      1515 1.28103E+01 8.89638E+00 3.49999E-01
 -1      1516 8.93216E+00 1.28538E+01 3.49999E-01
 -1      1517-1.25971E+01 3.53850E+00 3.49999E-01
 -1      1518 1.13966E+01 6.14173E+00 3.49999E-01
 -1      1519 1.17265E+01-9.73534E+00 3.49999E-01
 -1      1520-6.09877E+00 9.91861E+00-3.49999E-01
 -1      1521-1.46840E+01-6.43171E+00 3.49999E-01
 -1      1522-1.27327E+00 1.37408E+01 3.49999E-01
 -1      1523-1.00547E+01 1.15951E+01 3.49999E-01
 -1      1524-1.30269E+01 1.56798E+00 3.49999E-01
 -1      1525 1.03042E+01-8.67473E+00 3.49999E-01
 -1      1526-3.29766E+00 1.51759E+01 3.49999E-01
 -1      1527-1.43553E+01 5.66061E+00-3.49999E-01
 -1      1528-1.11605E+01 6.91029E+00 3.49999E-01
 -1      1529-2.59554E+00 1.40209E+01 3.49999E-01
 -1      1530 1.22478E+01 5.02530E+00 3.49999E-01
 -1      1531 1.22600E+01-7.01782E+00-3.49999E-01
 -1      1532-3.09592E+00 1.28070E+01 3.49999E-01
 -1      1533 7.17359E+00 6.63271E+00-3.49999E-01
 -1      1534-1.91711E+00 1.52150E+01-3.49999E-01
 -1      1535-7.01800E+00 1.23294E+01 3.49999E-01
 -1      1536 5.97388E+00-2.53510E+00-3.49999E-01
 -1      1537-2.06583E+00-8.00301E-01 3.49999E-01
 -1      1538 1.29013E+01 1.53439E+00-3.49999E-01
 -1      1539-1.06452E+01-1.11348E+01 3.49999E-01
 -1      1540-1.20913E+01-9.48507E+00-3.49999E-01
 -1      1541-1.51565E+00 1.38755E+01-3.49999E-01
 -1      1542 8.23094E+00 8.60739E+00-3.49999E-01
 -1      1543-5.41104E+00 1.31506E+01 3.49999E-01
 -1      1544 4.08438E+00 1.48993E+01-3.49999E-01
 -1      1545-1.35705E+01-7.74486E+00 3.49999E-01
 -1      1546-1.20906E+01-5.57990E+00 3.49999E-01
 -1      1547-1.11459E+00 1.20284E+01 3.49999E-01
 -1      1548-1.49546E-01 1.29814E+01 3.49999E-01
 -1      1549-6.39902E+00 1.46229E+01-3.49999E-01
 -1      1550 1.37644E+01-8.53289E-01 3.49999E-01
 -1      1551-1.25123E+01 8.36042E+00-3.49999E-01
 -1      1552-9.13785E+00 1.19466E+01 3.49999E-01
 -1      1553 1.19924E+01-6.71981E+00 3.49999E-01
 -1      1554 1.28539E+01-8.93221E+00 3.49999E-01
 -1      1555-5.87397E+00 1.11014E+01-3.49999E-01
 -1      1556 1.40199E+01 7.02140E+00 3.49999E-01
 -1      1557-1.48100E+01 4.95740E+00 3.49999E-01
 -1      1558 8.29182E+00-1.20736E+01-3.49999E-01
 -1      1559-1.14366E+00-1.23420E+01 3.49999E-01
 -1      1560 6.65486E+00-1.14010E+01-3.49999E-01
 -1      1561 1.08930E+01-1.13362E+01 3.49999E-01
 -1      1562 8.84475E+00-1.29093E+01 3.49999E-01
 -1      1563 1.35563E+01 4.01051E+00-3.49999E-01
 -1      1564 3.74686E+00 1.35642E+01 3.49999E-01
 -1      1565 1.12635E+01-8.23199E+00-3.49999E-01
 -1      1566-6.90821E+00 1.10417E+01 3.49999E-01
 -1      1567 3.04645E+00 1.53929E+01 3.49999E-01
 -1      1568-1.12415E+01 1.08672E+01 3.49999E-01
 -1      1569 1.38100E+01-2.72507E+00-3.49999E-01
 -1      1570 1.30141E+01 8.66559E+00-3.49999E-01
 -1      1571-8.61356E+00 1.03623E+01 3.49999E-01
 -1      1572-1.10923E+01-1.84480E-01-3.49999E-01
 -1      1573 3.95858E+00 1.14162E+01 3.49999E-01
 -1      1574-1.20827E+01-4.07752E+00 3.49999E-01
 -1      1575-1.56962E+01-1.35412E+00-3.49999E-01
 -1      1576-9.27080E+00-1.09168E+01 3.49999E-01
 -1      1577-4.34830E+00-2.24251E+00-3.49999E-01
 -1      1578 1.17340E+01 6.90767E+00-3.49999E-01
 -1      1579-9.58232E+00-2.69432E+00-3.49999E-01
 -1      1580-1.55572E+01 1.11364E+00-3.49999E-01
 -1      1581-1.40802E+01 7.05367E+00-3.49999E-01
 -1      1582 8.52715E+00 1.18938E+00-3.49999E-01
 -1      1583-1.02127E+01 8.29309E+00 3.49999E-01
 -1      1584-1.20511E+01 5.84836E+00 3.49999E-01
 -1      1585 9.93864E+00 1.16300E+01-3.49999E-01
 -1      1586 7.61390E+00 1.33610E+01-3.49999E-01
 -1      1587 9.11157E+00-8.53232E+00-3.49999E-01
 -1      1588 1.26636E+00-1.15445E+00 3.49999E-01
 -1      1589-1.72110E+00 1.04573E+01-3.49999E-01
 -1      1590-9.76449E+00-8.64924E+00-3.49999E-01
 -1      1591 1.58837E+01 1.98299E+00-3.49999E-01
 -1      1592-1.07715E+01-9.50253E+00-3.49999E-01
 -1      1593 1.50458E+01 4.12882E+00-3.49999E-01
 -1      1594-7.00393E+00 1.07034E+01-3.49999E-01
 -1      1595-5.23682E-01-9.37309E+00-3.49999E-01
 -1      1596-4.03949E-01 1.19872E+01-3.49999E-01
 -1      1597 1.44279E+01 2.09256E+00-3.49999E-01
 -1      1598-1.37002E+01 2.93583E+00 3.49999E-01
 -1      1599-9.96828E+00 2.36810E+00-3.49999E-01
 -1      1600 1.38572E+01 7.66348E+00-3.49999E-01
 -1      1601 7.77465E+00-1.10040E+01-3.49999E-01
 -1      1602 2.99572E+00 7.53697E+00-3.49999E-01
 -1      1603 1.26632E+01 5.00679E+00-3.49999E-01
 -1      1604 1.19050E+01-1.03091E+01-3.49999E-01
 -1      1605-7.57368E+00-7.64044E+00-3.49999E-01
 -1      1606-5.05473E+00 1.52281E+01 3.49999E-01
 -1      1607 3.44991E+00 1.56779E+01-3.49999E-01
 -1      1608-9.22685E+00 1.26329E+01-3.49999E-01
 -1      1609-6.51265E+00 1.48355E+01 3.49999E-01
 -1      1610 3.71377E+00-1.27319E+01 3.49999E-01
 -1      1611-1.37016E+01-4.21784E+00-3.49999E-01
 -1      1612-1.56832E+01-4.32214E+00 3.49999E-01
 -1      1613-4.65978E+00 1.21248E+01 3.49999E-01
 -1      1614 4.63973E+00 1.23612E+01 3.49999E-01
 -1      1615 9.33631E+00-5.78080E+00 3.49999E-01
 -1      1616-7.53457E+00 9.17702E+00-3.49999E-01
 -1      1617 6.18103E+00 8.18502E+00 3.49999E-01
 -1      1618-9.89974E+00 1.25624E+01 3.49999E-01
 -1      1619-1.26892E+01-3.05041E+00 3.49999E-01
 -1      1620-1.07242E+01-4.90930E+00-3.49999E-01
 -1      1621-1.14989E+01-6.36590E+00-3.49999E-01
 -1      1622-5.85865E+00-4.62231E+00-3.49999E-01
 -1      1623-1.32557E+01-8.50232E+00-3.49999E-01
 -1      1624-9.38577E+00-8.55626E+00 3.49999E-01
 -1      1625-1.09894E+01-1.83170E+00-3.49999E-01
 -1      1626-1.36470E+01-8.62630E+00 3.49999E-01
 -1      1627 1.43848E+01 5.28932E+00 3.49999E-01
 -1      1628 8.26938E+00 1.01573E+01-3.49999E-01
 -1      1629 2.10429E+00-1.16438E+01-3.49999E-01
 -1      1630 1.03766E+01 1.06740E+01 3.49999E-01
 -1      1631 1.01900E+01-7.58642E+00 3.49999E-01
 -1      1632 9.84161E+00 8.97182E+00 3.49999E-01
 -1      1633-1.36092E+01-2.31696E+00-3.49999E-01
 -1      1634 1.17532E+01 1.01844E+01 3.49999E-01
 -1      1635 7.71146E+00 1.35435E+01 3.49999E-01
 -1      1636 1.32524E+01 2.98052E+00 3.49999E-01
 -1      1637 1.03144E+01 1.19115E+01 3.49999E-01
 -1      1638-1.44585E+01 3.08007E+00-3.49999E-01
 -1      1639 6.23588E+00-6.21744E+00-3.49999E-01
 -1      1640-7.64536E+00 1.16285E+01-3.49999E-01
 -1      1641-1.54214E+01-2.91059E+00-3.49999E-01
 -1      1642-1.60150E+01-3.21557E-01 3.49999E-01
 -1      1643-1.33555E+01-2.40347E+00 3.49999E-01
 -1      1644-1.12657E+01 1.08622E+01-3.49999E-01
 -1      1645 9.21814E+00-9.36767E+00 3.49999E-01
 -1      1646 1.51172E+01 1.52482E+00-3.49999E-01
 -1      1647 8.83488E+00-1.06732E+01 3.49999E-01
 -1      1648-6.38926E+00-1.15320E+01 3.49999E-01
 -1      1649-1.60862E+01-5.77101E-01-3.49999E-01
 -1      1650-6.90765E+00-6.02256E+00-3.49999E-01
 -1      1651 1.34377E+01 7.07123E-01-3.49999E-01
 -1      1652-2.19975E+00 1.22013E+01-3.49999E-01
 -1      1653 1.24297E+01 2.72442E+00-3.49999E-01
 -1      1654-1.24217E+01-8.69539E+00-3.49999E-01
 -1      1655 1.10806E+01 8.70684E+00-3.49999E-01
 -1      1656-7.79262E+00 1.31265E+01 3.49999E-01
 -1      1657-7.16528E+00-1.25217E+01-3.49999E-01
 -1      1658 6.46449E+00 8.28282E+00-3.49999E-01
 -1      1659 1.47701E+01 5.64585E+00-3.49999E-01
 -1      1660-1.31304E+01 7.50799E+00-3.49999E-01
 -1      1661-8.95853E+00 8.97638E+00 3.49999E-01
 -1      1662 1.39921E+01 2.09130E+00 3.49999E-01
 -1      1663-1.27979E+01-7.22959E-01-3.49999E-01
 -1      1664-1.23123E+01-2.30160E+00 3.49999E-01
 -1      1665-3.02178E+00-4.75358E+00-3.49999E-01
 -1      1666 8.56792E+00 1.03072E+01 3.49999E-01
 -1      1667-9.73596E+00-6.82718E+00-3.49999E-01
 -1      1668 1.05714E+01 1.22247E+01-3.49999E-01
 -1      1669-1.30594E+01 4.31642E+00-3.49999E-01
 -1      1670 6.41252E+00 1.37487E+01 3.49999E-01
 -1      1671-1.01098E+01-3.91655E+00 3.49999E-01
 -1      1672-1.49066E+01 4.39033E+00-3.49999E-01
 -1      1673-2.52957E-01-1.31663E+01 3.49999E-01
 -1      1674-5.00809E+00-1.18817E+01 3.49999E-01
 -1      1675 1.30175E+01 6.08105E+00-3.49999E-01
 -1      1676-9.64025E+00-1.24034E+01-3.49999E-01
 -1      1677-5.97068E+00 1.37389E+01 3.49999E-01
 -1      1678-6.96465E+00 9.83433E+00-3.49999E-01
 -1      1679-3.62733E+00-1.14054E+01-3.49999E-01
 -1      1680 4.71336E+00 9.44389E+00-3.49999E-01
 -1      1681-6.24642E+00 4.87719E+00-3.49999E-01
 -1      1682-9.93821E+00 8.31090E-01-3.49999E-01
 -1      1683 1.04824E+01 7.73651E+00 3.49999E-01
 -1      1684-1.12637E+01 3.04605E+00-3.49999E-01
 -1      1685 7.13597E+00 1.07444E+01 3.49999E-01
 -1      1686 1.47968E+01 1.73767E+00 3.49999E-01
 -1      1687 1.44713E+01-5.19561E+00 3.49999E-01
 -1      1688 1.58908E+01 2.23743E+00 3.49999E-01
 -1      1689 1.35325E+01-7.65698E+00-3.49999E-01
 -1      1690-1.94175E+00-7.15474E+00-3.49999E-01
 -1      1691 9.57441E+00 1.26516E+01-3.49999E-01
 -1      1692 3.91051E+00 1.55726E+01 3.49999E-01
 -1      1693-9.08307E+00-9.85888E+00-3.49999E-01
 -1      1694-1.22282E+01 5.36201E+00-3.49999E-01
 -1      1695 9.05838E+00 1.15261E+01 3.49999E-01
 -1      1696-4.37042E+00 1.32628E+01-3.49999E-01
 -1      1697-1.22032E+00 1.27780E+01-3.49999E-01
 -1      1698 7.29177E+00-1.04330E+01 3.49999E-01
 -1      1699-1.04575E+01-5.98544E+00-3.49999E-01
 -1      1700-4.47773E+00-5.49872E+00-3.49999E-01
 -1      1701 8.52425E+00-1.32967E+01-3.49999E-01
 -1      1702 1.07147E+01 1.35622E+00-3.49999E-01
 -1      1703-7.54569E+00 1.40579E+01 3.49999E-01
 -1      1704-1.30445E+01-6.26245E-01 3.49999E-01
 -1      1705-6.03870E+00-1.39488E+01-3.49999E-01
 -1      1706 1.45531E+01-9.08158E-01-3.49999E-01
 -1      1707 9.57349E+00 9.99122E+00 3.49999E-01
 -1      1708-8.52339E+00-1.08814E+01-3.49999E-01
 -1      1709-8.84983E+00-7.75232E+00-3.49999E-01
 -1      1710 5.48781E+00 1.33011E+01-3.49999E-01
 -1      1711-6.42612E+00 8.79168E+00-3.49999E-01
 -1      1712-8.47471E+00-1.11444E+01 3.49999E-01
 -1      1713 9.89073E+00-2.68023E+00-3.49999E-01
 -1      1714-5.71523E+00 1.19367E+01-3.49999E-01
 -1      1715 1.06777E+00 1.50916E+01 3.49999E-01
 -1      1716-1.12111E+01 8.23931E+00-3.49999E-01
 -1      1717 1.35896E+01 8.07147E+00 3.49999E-01
 -1      1718 1.53953E+01-2.60518E-01 3.49999E-01
 -1      1719 3.23567E+00 1.03267E+00-3.49999E-01
 -1      1720-1.11502E+01 1.68626E+00-3.49999E-01
 -1      1721-1.07756E+01 2.40216E+00-3.49999E-01
 -1      1722-1.36458E+01 7.76617E+00 3.49999E-01
 -1      1723-1.13404E+01-6.62817E+00 3.49999E-01
 -1      1724-1.45674E+01-4.00465E+00-3.49999E-01
 -1      1725-8.70133E+00 1.18183E+01-3.49999E-01
 -1      1726-1.24494E+01 2.32724E+00 3.49999E-01
 -1      1727 1.51329E+01-2.74620E+00 3.49999E-01
 -1      1728-6.26253E+00-1.43675E+01 3.49999E-01
 -1      1729 8.47146E+00-6.38388E+00-3.49999E-01
 -1      1730 1.45250E+01-4.84148E+00-3.49999E-01
 -1      1731 8.60400E-01 1.28281E+01-3.49999E-01
 -1      1732 1.06172E+00 1.29664E+01 3.49999E-01
 -1      1733 1.09817E+01-2.05283E+00 3.49999E-01
 -1      1734 9.73479E+00 1.81974E+00 3.49999E-01
 -1      1735-1.51644E+01 5.25698E+00-3.49999E-01
 -1      1736 1.28627E+01 0.00000E+00 3.49999E-01
 -1      1737 2.00984E+00-5.48885E+00-3.49999E-01
 -1      1738 1.21765E+01 7.63574E+00 3.49999E-01
 -1      1739-7.31871E+00-6.67189E+00 3.49999E-01
 -1      1740 9.35340E+00-7.29069E+00-3.49999E-01
 -1      1741 4.11438E+00-1.41414E+01 3.49999E-01
 -1      1742-1.25841E+01 4.97067E+00 3.49999E-01
 -1      1743-7.62854E+00-1.33884E+01 3.49999E-01
 -1      1744-1.00534E+01 1.04437E+01-3.49999E-01
 -1      1745-1.04543E+01 1.12475E+01-3.49999E-01
 -1      1746 1.06083E+01 7.85184E+00-3.49999E-01
 -1      1747 2.53819E+00-1.32469E+01-3.49999E-01
 -1      1748-7.48393E+00-9.91033E+00 3.49999E-01
 -1      1749-7.75030E+00 6.76952E+00-3.49999E-01
 -1      1750 2.71447E+00-1.21094E+01 3.49999E-01
 -1      1751 9.04657E+00-1.00946E+01-3.49999E-01
 -1      1752 1.79155E+00-9.34962E+00-3.49999E-01
 -1      1753 3.38540E+00-1.52863E+01 3.49999E-01
 -1      1754 9.45770E+00 4.00269E+00-3.49999E-01
 -1      1755 8.56821E+00 1.29346E+01-3.49999E-01
 -1      1756-1.09822E+01 5.81395E+00-3.49999E-01
 -1      1757 7.75970E+00-1.36337E+01 3.49999E-01
 -1      1758 1.40445E+00 1.42849E+01-3.49999E-01
 -1      1759-4.28802E-01 1.54635E+01-3.49999E-01
 -1      1760 1.32333E+01-9.24356E+00-3.49999E-01
 -1      1761 1.12972E+01 7.14419E+00 3.49999E-01
 -1      1762 4.99579E+00 6.67426E+00-3.49999E-01
 -1      1763-1.29323E+01-3.88659E+00 3.49999E-01
 -1      1764-1.17800E+01-5.28212E+00-3.49999E-01
 -1      1765-1.07301E+01-5.98486E-01 3.49999E-01
 -1      1766-3.62791E+00 8.36550E+00-3.49999E-01
 -1      1767-1.05441E+01 4.22858E-01 3.49999E-01
 -1      1768-1.28164E+01 4.25663E+00 3.49999E-01
 -1      1769-1.55434E+01 3.40913E+00-3.49999E-01
 -1      1770 8.00521E+00-1.09265E+01 3.49999E-01
 -1      1771 1.59501E+01 1.00171E+00-3.49999E-01
 -1      1772 9.53366E+00 2.41702E+00-3.49999E-01
 -1      1773-7.49715E+00 2.71751E+00-3.49999E-01
 -1      1774 1.93646E+00-1.54115E+01 3.49999E-01
 -1      1775 7.28348E+00 3.16130E+00-3.49999E-01
 -1      1776 1.12306E+01 1.05801E+01-3.49999E-01
 -1      1777 9.49929E+00-1.24778E+01-3.49999E-01
 -1      1778-1.30795E+01 5.87220E+00 3.49999E-01
 -1      1779-1.07033E+01 4.86225E+00 3.49999E-01
 -1      1780 1.38384E+01-2.43228E+00 3.49999E-01
 -1      1781-1.10101E+01 3.43672E+00 3.49999E-01
 -1      1782 6.02293E+00-8.32779E+00-3.49999E-01
 -1      1783 8.72039E+00 5.39944E+00 3.49999E-01
 -1      1784-1.24035E+01 3.33932E+00-3.49999E-01
 -1      1785-1.41456E+01 7.04627E-01 3.49999E-01
 -1      1786 5.94005E+00-1.19294E+01 3.49999E-01
 -1      1787 1.94911E+00 1.32515E+01-3.49999E-01
 -1      1788-1.54563E+01 4.21962E+00 3.49999E-01
 -1      1789 9.28603E+00 8.99087E+00-3.49999E-01
 -1      1790 1.10458E+01 6.21076E+00-3.49999E-01
 -1      1791-8.41970E+00 4.69379E+00-3.49999E-01
 -1      1792 7.04643E+00-1.25717E+01 3.49999E-01
 -1      1793-7.39411E+00 5.50885E+00-3.49999E-01
 -1      1794-5.47543E+00 5.21461E-01-3.49999E-01
 -1      1795 6.04517E+00-8.00511E+00 3.49999E-01
 -1      1796 6.62111E+00 4.87778E+00-3.49999E-01
 -1      1797 6.94268E+00-1.14764E+01 3.49999E-01
 -1      1798 1.22005E+01 1.00967E+01-3.49999E-01
 -1      1799 1.01494E+01-8.10918E+00-3.49999E-01
 -1      1800-7.87340E+00 1.09845E+01 3.49999E-01
 -1      1801-4.76273E+00 1.43091E+01 3.49999E-01
 -1      1802 9.85361E+00-9.34567E+00-3.49999E-01
 -1      1803-9.04666E+00 8.09910E+00-3.49999E-01
 -1      1804 3.94914E+00-6.86075E+00-3.49999E-01
 -1      1805-1.57172E+01 2.80376E+00 3.49999E-01
 -1      1806-1.33139E+00 1.18465E+01-3.49999E-01
 -1      1807-3.56867E+00 1.51444E+01-3.49999E-01
 -1      1808-8.51910E+00 5.87165E+00-3.49999E-01
 -1      1809 1.47257E+01-1.59942E+00 3.49999E-01
 -1      1810 7.27272E+00-7.38799E+00-3.49999E-01
 -1      1811-7.22742E+00 1.27612E+01-3.49999E-01
 -1      1812 4.22652E+00 1.56629E+01-3.49999E-01
 -1      1813-3.64495E+00 1.02960E+01-3.49999E-01
 -1      1814-9.13769E-01-9.86117E+00 3.49999E-01
 -1      1815 1.97717E+00-1.58247E+01-3.49999E-01
 -1      1816 1.05753E+01 8.56853E+00 3.49999E-01
 -1      1817 1.52951E+01-2.76218E+00-3.49999E-01
 -1      1818-8.38790E+00-1.21516E+01-3.49999E-01
 -1      1819 1.32621E+01-4.08916E+00-3.49999E-01
 -1      1820 8.30807E+00 5.31112E+00-3.49999E-01
 -1      1821 8.15832E+00-9.94269E+00 3.49999E-01
 -1      1822 1.12080E+01 1.13361E+01 3.49999E-01
 -1      1823 9.89905E+00 1.27187E+01 3.49999E-01
 -1      1824 5.40175E+00 1.46408E+01-3.49999E-01
 -1      1825 1.26653E+01 9.85520E+00 3.49999E-01
 -1      1826-1.53360E+00-2.36151E+00-3.49999E-01
 -1      1827-1.31876E+01-3.14868E+00-3.49999E-01
 -1      1828 4.19498E+00 1.35811E+01-3.49999E-01
 -1      1829-5.67237E+00-5.85492E+00-3.49999E-01
 -1      1830 1.11109E+01-7.40654E+00 3.49999E-01
 -1      1831 9.62036E+00-6.75111E+00 3.49999E-01
 -1      1832 4.65337E+00 1.25730E+01-3.49999E-01
 -1      1833-8.50787E+00-9.61029E+00 3.49999E-01
 -1      1834 3.93218E+00-1.11238E+01-3.49999E-01
 -1      1835-2.59288E-01-1.17232E+01-3.49999E-01
 -1      1836 2.96704E+00-1.04280E+01 3.49999E-01
 -1      1837 9.12927E+00 1.08651E+01-3.49999E-01
 -1      1838 7.54015E+00 9.39998E+00-3.49999E-01
 -1      1839 1.33612E+01 4.79392E+00 3.49999E-01
 -1      1840-1.12094E+01-3.40088E+00-3.49999E-01
 -1      1841-9.49269E+00-9.69232E-01-3.49999E-01
 -1      1842 2.73537E+00-1.03893E+01-3.49999E-01
 -1      1843 5.39127E+00-1.03021E+01-3.49999E-01
 -1      1844-8.86316E+00-7.44365E+00 3.49999E-01
 -1      1845-9.77530E+00-9.75831E+00 3.49999E-01
 -1      1846-1.08178E+01-8.10093E+00 3.49999E-01
 -1      1847 2.81637E+00-1.42747E+01-3.49999E-01
 -1      1848-1.32618E+01-7.12381E+00-3.49999E-01
 -1      1849-1.39981E+01-7.95444E+00-3.49999E-01
 -1      1850 7.96142E+00-1.40111E+01-3.49999E-01
 -1      1851-7.31871E+00 6.67188E+00 3.49999E-01
 -1      1852 6.15135E+00 1.16984E+01-3.49999E-01
 -1      1853-4.47424E+00 1.30487E+01 3.49999E-01
 -1      1854-4.66894E+00 1.11764E+01 3.49999E-01
 -1      1855-1.50211E+01-5.16692E+00 3.49999E-01
 -1      1856-1.53100E+01-5.10306E+00-3.49999E-01
 -1      1857 8.38446E+00-9.28455E+00-3.49999E-01
 -1      1858 8.22386E+00-1.02881E+01-3.49999E-01
 -1      1859-1.01354E+01 8.06806E+00-3.49999E-01
 -1      1860-9.98812E+00 1.28272E+01-3.49999E-01
 -1      1861-3.49080E+00 1.16799E+01-3.49999E-01
 -1      1862 1.02709E+01-1.02296E+01-3.49999E-01
 -1      1863-8.88332E+00 6.96159E+00-3.49999E-01
 -1      1864-1.21330E+01 4.43309E+00-3.49999E-01
 -1      1865 6.76065E+00-1.29801E+01-3.49999E-01
 -1      1866 1.12786E+01 7.97517E+00 3.49999E-01
 -1      1867 5.63432E-01 8.87782E+00-3.49999E-01
 -1      1868 3.06184E+00 5.16178E+00-3.49999E-01
 -1      1869 6.13510E-01-7.34646E+00-3.49999E-01
 -1      1870-1.86306E+00-1.07137E+01-3.49999E-01
 -1      1871 6.99321E+00-1.05776E+01-3.49999E-01
 -1      1872-8.91753E+00 1.61986E+00-3.49999E-01
 -1      1873 6.09409E+00 7.14623E+00-3.49999E-01
 -1      1874 6.22683E+00 1.20762E+01 3.49999E-01
 -1      1875-1.56558E+01 4.17938E+00-3.49999E-01
 -1      1876 1.35900E+01 2.01751E+00-3.49999E-01
 -1      1877-9.46340E+00-5.86340E+00-3.49999E-01
 -1      1878 8.08308E+00 9.36163E+00 3.49999E-01
 -1      1879-2.30391E-01-1.22485E+01 3.49999E-01
 -1      1880-1.09438E+01-8.27837E+00-3.49999E-01
 -1      1881 1.09067E+01 3.27744E+00-3.49999E-01
 -1      1882-7.29470E+00 4.33099E+00-3.49999E-01
 -1      1883-8.60155E+00-6.62756E+00-3.49999E-01
 -1      1884 1.89139E-01-2.04126E+00 3.49999E-01
 -1      1885 2.05000E+00 0.00000E+00 3.49999E-01
 -1      1886-4.96770E-01-5.05828E+00-3.49999E-01
 -1      1887-7.42722E+00 1.16268E+01 3.49999E-01
 -1      1888 1.08295E+01-4.78769E+00-3.49999E-01
 -1      1889 2.85922E+00-1.29904E+01 3.49999E-01
 -1      1890-1.12004E+01 5.59688E+00 3.49999E-01
 -1      1891-1.20004E+01 9.01922E+00 3.49999E-01
 -1      1892 1.32860E+01-4.86204E+00 3.49999E-01
 -1      1893 1.42425E+01 2.95654E+00 3.49999E-01
 -1      1894 1.20516E+01-5.38171E+00 3.49999E-01
 -1      1895-1.18980E+01 6.39526E+00-3.49999E-01
 -1      1896 9.97842E+00 3.23298E+00-3.49999E-01
 -1      1897-1.03086E+01 1.59264E+00-3.49999E-01
 -1      1898 1.06573E+01 1.42215E+00 3.49999E-01
 -1      1899-1.40105E+01 7.96109E+00-3.49999E-01
 -1      1900-1.37906E+01 6.27281E+00-3.49999E-01
 -1      1901-7.33483E+00-4.60949E+00-3.49999E-01
 -1      1902 7.32982E+00 5.61909E+00-3.49999E-01
 -1      1903 1.50619E+00-1.05569E+01-3.49999E-01
 -1      1904 3.16042E+00 3.09772E+00-3.49999E-01
 -1      1905-1.17156E+01-8.73314E+00 3.49999E-01
 -1      1906 1.36349E+01-4.89963E+00-3.49999E-01
 -1      1907-1.10998E+01-4.83388E+00 3.49999E-01
 -1      1908 9.19289E-01-1.15879E+01-3.49999E-01
 -1      1909-1.21216E+01-9.76413E+00 3.49999E-01
 -1      1910-4.26525E+00 6.11697E+00-3.49999E-01
 -1      1911-9.53955E+00 1.07385E+01 3.49999E-01
 -1      1912 1.22873E+01 8.08760E+00-3.49999E-01
 -1      1913 9.25591E+00 1.07385E+01 3.49999E-01
 -1      1914 1.43332E+01-3.72730E+00-3.49999E-01
 -1      1915 1.72088E+00 1.37372E+01 3.49999E-01
 -1      1916 6.02341E-01 1.18451E+01-3.49999E-01
 -1      1917-5.14019E+00 1.26984E+01-3.49999E-01
 -1      1918-5.46559E-02 1.43328E+01 3.49999E-01
 -1      1919-8.09865E+00-1.34007E+01-3.49999E-01
 -1      1920-1.19073E+01 6.63216E+00 3.49999E-01
 -1      1921-4.14001E+00 1.23549E+01-3.49999E-01
 -1      1922 1.25383E+01-3.79168E+00 3.49999E-01
 -1      1923 2.88779E+00-8.12031E+00-3.49999E-01
 -1      1924 9.08598E+00 3.19023E+00-3.49999E-01
 -1      1925-8.68333E+00-8.83694E+00-3.49999E-01
 -1      1926-9.89304E+00-9.51841E+00-3.49999E-01
 -1      1927-5.96079E+00 1.08956E+01 3.49999E-01
 -1      1928 1.11805E+00 1.56019E+01-3.49999E-01
 -1      1929 2.39149E+00 1.50338E+01-3.49999E-01
 -1      1930 9.75046E+00-1.27516E+01 3.49999E-01
 -1      1931 1.17358E+01-1.07576E+01 3.49999E-01
 -1      1932-1.33927E+01 6.78199E+00 3.49999E-01
 -1      1933 1.27059E+01-1.23166E+00 3.49999E-01
 -1      1934-9.60341E+00 3.25170E-01 3.49999E-01
 -1      1935 2.93574E+00 1.20956E+01-3.49999E-01
 -1      1936-8.38513E+00-8.61544E+00 3.49999E-01
 -1      1937-1.26795E+01 8.20406E+00 3.49999E-01
 -1      1938 1.16048E+00 1.60326E+01 3.49999E-01
 -1      1939-2.07985E+00 2.69838E+00-3.49999E-01
 -1      1940 1.12873E+01 2.57201E+00 3.49999E-01
 -1      1941 1.14430E+01-7.36332E+00-3.49999E-01
 -1      1942 1.37860E+01 6.06764E+00 3.49999E-01
 -1      1943-6.06517E+00 6.56499E+00-3.49999E-01
 -1      1944-5.80924E+00-8.94648E+00-3.49999E-01
 -1      1945 4.38643E+00 8.01134E+00-3.49999E-01
 -1      1946-3.42617E+00 1.20417E+01 3.49999E-01
 -1      1947 1.20513E+01 6.71281E+00 3.49999E-01
 -1      1948-2.59611E+00 9.33995E+00-3.49999E-01
 -1      1949 2.08139E-01-1.52728E+01-3.49999E-01
 -1      1950 4.20779E+00-1.53062E+01-3.49999E-01
 -1      1951-1.63722E+00 1.49252E+00 3.49999E-01
 -1      1952-1.45146E+01 2.65713E+00 3.49999E-01
 -1      1953 8.03245E+00-8.21676E+00-3.49999E-01
 -1      1954 9.12096E+00-9.26893E+00-3.49999E-01
 -1      1955-9.88196E+00-1.15053E+01 3.49999E-01
 -1      1956 1.18594E+01-1.91492E+00-3.49999E-01
 -1      1957-1.31831E+01 5.51948E+00-3.49999E-01
 -1      1958-3.56055E+00-9.14867E+00-3.49999E-01
 -1      1959-4.96610E+00 8.97858E+00-3.49999E-01
 -1      1960 3.95295E+00 7.00639E+00-3.49999E-01
 -1      1961-1.69772E+00-1.14258E+01 3.49999E-01
 -1      1962 1.18555E+01 8.62505E-01-3.49999E-01
 -1      1963-3.56408E+00 9.33141E+00-3.49999E-01
 -1      1964-1.05970E+01-1.17431E+01-3.49999E-01
 -1      1965 4.25741E+00-4.36835E+00-3.49999E-01
 -1      1966 1.32090E+01-1.41882E+00-3.49999E-01
 -1      1967-5.83875E+00-1.49426E+01-3.49999E-01
 -1      1968 1.07312E+01 4.73700E+00-3.49999E-01
 -1      1969 7.47717E+00 7.74058E+00-3.49999E-01
 -1      1970 1.16473E+01 1.94621E+00-3.49999E-01
 -1      1971-8.34107E+00-9.55997E+00-3.49999E-01
 -1      1972 5.53425E+00 1.57465E+00-3.49999E-01
 -1      1973 2.62592E+00 1.17607E+01 3.49999E-01
 -1      1974-6.89029E+00-1.66732E+00-3.49999E-01
 -1      1975-3.33836E+00-1.38487E+01 3.49999E-01
 -1      1976 7.50436E+00-4.27670E+00-3.49999E-01
 -1      1977-5.84686E+00-2.96061E+00-3.49999E-01
 -1      1978-8.34585E+00-1.89370E+00-3.49999E-01
 -1      1979 9.22363E+00-1.12955E+01-3.49999E-01
 -1      1980 5.86338E+00 9.27729E+00-3.49999E-01
 -1      1981-4.79226E+00-1.02416E+01-3.49999E-01
 -1      1982 1.25480E+01-3.01026E+00-3.49999E-01
 -1      1983 1.21993E+01 5.88235E+00 3.49999E-01
 -1      1984 7.30818E+00-8.98534E+00 3.49999E-01
 -1      1985-3.66183E+00-1.02751E+01-3.49999E-01
 -1      1986-1.64076E+00 1.52670E+01 3.49999E-01
 -1      1987 5.95862E+00 2.86436E+00-3.49999E-01
 -1      1988-7.64102E+00-5.47316E+00-3.49999E-01
 -1      1989 1.41165E+00-2.59550E+00-3.49999E-01
 -1      1990 2.48387E-03-1.67980E+00-3.49999E-01
 -1      1991-7.34661E+00-3.10305E+00-3.49999E-01
 -1      1992-1.11099E+01-3.83010E+00 3.49999E-01
 -1      1993-4.62865E+00-8.42209E+00-3.49999E-01
 -1      1994 1.36289E+01-4.99731E-01-3.49999E-01
 -1      1995-1.84842E+00-1.24691E+01-3.49999E-01
 -1      1996-3.44157E+00-7.82540E+00-3.49999E-01
 -1      1997 7.29715E+00 1.11791E+01-3.49999E-01
 -1      1998-2.40739E+00-1.28530E+01 3.49999E-01
 -1      1999-7.62906E+00 1.42037E+00-3.49999E-01
 -1      2000 1.17087E+01 4.70783E+00-3.49999E-01
 -1      2001-1.38592E+01 4.84210E+00-3.49999E-01
 -1      2002 9.77926E+00-5.99424E+00-3.49999E-01
 -1      2003-1.04871E+01-9.73491E-01-3.49999E-01
 -1      2004 1.00440E+01-1.17275E+01-3.49999E-01
 -1      2005-1.08143E+01 8.75844E-01-3.49999E-01
 -1      2006 2.96738E+00 1.01951E+01-3.49999E-01
 -1      2007-1.06161E+01-1.20463E+01 3.49999E-01
 -1      2008 7.19006E-01 6.28452E+00-3.49999E-01
 -1      2009 9.95653E+00 1.08004E+01-3.49999E-01
 -1      2010-1.43389E+01-4.68049E+00 3.49999E-01
 -1      2011 4.27422E+00-1.55252E+01 3.49999E-01
 -1      2012-1.45891E-01 1.29702E+01-3.49999E-01
 -1      2013-8.17864E+00 2.13154E+00-3.49999E-01
 -1      2014-5.28379E+00 9.36462E+00 3.49999E-01
 -1      2015 6.24347E+00-9.05340E+00 3.49999E-01
 -1      2016-1.94927E+00 1.28146E+01 3.49999E-01
 -1      2017 1.40496E+01-7.03726E+00 3.49999E-01
 -1      2018-1.64412E+00-3.95170E+00-3.49999E-01
 -1      2019 4.62478E+00 7.31257E+00-3.49999E-01
 -1      2020-5.12569E+00 1.54621E+01-3.49999E-01
 -1      2021-1.39977E+01 5.24976E+00 3.49999E-01
 -1      2022 8.31810E+00 9.38068E+00-3.49999E-01
 -1      2023 3.73395E+00-1.14029E+01 3.49999E-01
 -1      2024-3.33856E+00-6.38547E+00-3.49999E-01
 -1      2025-1.16732E+01-8.52087E+00-3.49999E-01
 -1      2026-3.03137E+00-3.15273E+00-3.49999E-01
 -1      2027-8.16831E-02-3.35145E+00-3.49999E-01
 -1      2028-1.22669E+01 9.67252E+00-3.49999E-01
 -1      2029 3.47602E+00 8.97269E+00-3.49999E-01
 -1      2030 1.31409E+01 7.27442E+00 3.49999E-01
 -1      2031 3.56463E+00 8.14485E+00-3.49999E-01
 -1      2032 1.25601E+00 1.65303E+00-3.49999E-01
 -1      2033 9.21094E+00-4.24588E+00-3.49999E-01
 -1      2034-5.63226E+00 1.44157E+01-3.49999E-01
 -1      2035-2.41406E-01 1.21093E+01 3.49999E-01
 -1      2036-1.02273E+00 1.29005E+01 3.49999E-01
 -1      2037-7.53455E-01 1.07728E+01 3.49999E-01
 -1      2038 1.35915E+01-8.07291E+00 3.49999E-01
 -1      2039 1.17004E+01-5.80294E+00-3.49999E-01
 -1      2040-2.72641E+00 1.08942E+01-3.49999E-01
 -1      2041-1.46908E+01 4.20096E+00 3.49999E-01
 -1      2042-1.03011E+01-8.93249E+00 3.49999E-01
 -1      2043 3.88255E+00-1.28128E+01-3.49999E-01
 -1      2044-6.06395E+00-7.44571E+00-3.49999E-01
 -1      2045-7.12079E+00-8.87348E+00-3.49999E-01
 -1      2046-1.37417E+01-1.24604E+00-3.49999E-01
 -1      2047-3.90365E+00 1.41755E+01-3.49999E-01
 -1      2048 1.44923E+01 4.81178E+00-3.49999E-01
 -1      2049 5.51744E+00-1.43189E+01-3.49999E-01
 -1      2050-6.30909E+00-1.10379E+01-3.49999E-01
 -1      2051-3.09046E+00-1.44928E+01-3.49999E-01
 -1      2052 2.41355E-01-1.00703E+00 3.49999E-01
 -1      2053-1.34019E+01-6.22146E+00-3.49999E-01
 -1      2054 2.71239E+00 9.53307E+00 3.49999E-01
 -1      2055-1.98553E+00 1.19399E+01 3.49999E-01
 -1      2056 8.76648E+00-1.07494E+01-3.49999E-01
 -1      2057-8.35995E+00-7.37604E-01-3.49999E-01
 -1      2058 6.27093E-01-8.68645E+00-3.49999E-01
 -1      2059 8.69288E+00-6.28356E+00 3.49999E-01
 -1      2060-2.73005E+00 1.16553E+01-3.49999E-01
 -1      2061-1.39483E+01 1.50491E+00-3.49999E-01
 -1      2062-4.34603E+00-3.96106E+00-3.49999E-01
 -1      2063 1.45717E+01-1.97619E+00-3.49999E-01
 -1      2064 4.13669E+00 5.78008E+00-3.49999E-01
 -1      2065-1.04202E+01-1.09984E+01-3.49999E-01
 -1      2066-1.22299E+01-5.97715E+00-3.49999E-01
 -1      2067-7.92298E+00 1.33299E+01-3.49999E-01
 -1      2068 6.11338E+00 9.11072E+00 3.49999E-01
 -1      2069-3.09110E+00 6.99875E+00-3.49999E-01
 -1      2070-1.16113E+01-1.11458E+01 3.49999E-01
 -1      2071 1.11133E+01-5.71318E+00 3.49999E-01
 -1      2072 1.16596E+01-1.11855E+01-3.49999E-01
 -1      2073 7.55959E+00-8.96456E+00-3.49999E-01
 -1      2074-7.17940E+00-1.40909E+01-3.49999E-01
 -1      2075-7.49743E+00-1.14143E+01-3.49999E-01
 -1      2076-9.73502E+00 5.17591E+00-3.49999E-01
 -1      2077-1.15568E+01 7.31812E+00-3.49999E-01
 -1      2078-1.03775E+01 7.38978E+00 3.49999E-01
 -1      2079 1.04904E+01-8.84438E+00-3.49999E-01
 -1      2080-1.33758E+01 2.77172E+00-3.49999E-01
 -1      2081 1.29800E+01-7.14384E+00 3.49999E-01
 -1      2082 6.34023E+00-9.57917E+00-3.49999E-01
 -1      2083 1.16361E+01 4.50787E+00 3.49999E-01
 -1      2084 6.13998E+00 3.92039E+00-3.49999E-01
 -1      2085-7.73915E+00-6.36832E+00-3.49999E-01
 -1      2086-7.23555E+00-1.42825E+01 3.49999E-01
 -1      2087 6.88265E+00 1.84565E+00-3.49999E-01
 -1      2088 1.00375E+01-9.45435E+00 3.49999E-01
 -1      2089-7.13953E-01-1.28203E+01-3.49999E-01
 -1      2090 1.12592E+01-8.87808E+00 3.49999E-01
 -1      2091-1.08854E+00-1.20223E+01-3.49999E-01
 -1      2092-6.58143E-01-1.05781E+01-3.49999E-01
 -1      2093-1.31259E+01-5.49809E+00 3.49999E-01
 -1      2094-4.25758E+00 7.32939E+00-3.49999E-01
 -1      2095 6.52544E+00-9.92724E+00 3.49999E-01
 -1      2096-1.00818E+01 3.72789E+00-3.49999E-01
 -1      2097-6.37258E+00-5.33036E+00-3.49999E-01
 -1      2098-4.66556E+00 1.39894E+01-3.49999E-01
 -1      2099-3.93150E+00-4.77104E+00-3.49999E-01
 -1      2100-2.84436E+00-1.74083E-02-3.49999E-01
 -1      2101 1.57445E+01-1.13210E+00-3.49999E-01
 -1      2102 1.21216E+01 8.45296E+00 3.49999E-01
 -1      2103 1.04549E+01 6.84203E+00 3.49999E-01
 -1      2104 8.42560E+00-9.17112E+00 3.49999E-01
 -1      2105-2.16019E+00-1.36708E+01-3.49999E-01
 -1      2106-9.40055E+00-4.18988E+00-3.49999E-01
 -1      2107 3.83632E+00 4.16438E+00-3.49999E-01
 -1      2108-7.34122E+00 7.94628E+00-3.49999E-01
 -1      2109 1.38504E+01 1.40693E-01 3.49999E-01
 -1      2110 1.18780E+01-9.35906E+00-3.49999E-01
 -1      2111 1.45297E+01-4.18820E-01 3.49999E-01
 -1      2112-9.15831E+00 1.08279E+01-3.49999E-01
 -1      2113-6.94653E-01 7.50103E+00-3.49999E-01
 -1      2114 1.44511E+01 4.40723E+00 3.49999E-01
 -1      2115-1.29026E+01-1.64702E+00-3.49999E-01
 -1      2116-6.42993E+00-8.27983E+00-3.49999E-01
 -1      2117-1.29795E+01-7.02456E+00 3.49999E-01
 -1      2118 1.12404E+01 1.17265E+01-3.49999E-01
 -1      2119-5.53336E-01 1.72443E+00-3.49999E-01
 -1      2120 1.21144E+01 1.44313E+00 3.49999E-01
 -1      2121 3.43435E+00-5.53182E+00-3.49999E-01
 -1      2122-1.16384E+01 2.33014E+00-3.49999E-01
 -1      2123 6.42395E+00 9.89940E+00 3.49999E-01
 -1      2124-5.11078E+00-1.02638E+01 3.49999E-01
 -1      2125-1.37398E+01-1.33382E+00 3.49999E-01
 -1      2126 7.98830E+00 2.22768E+00-3.49999E-01
 -1      2127-1.03378E+01 4.55474E+00-3.49999E-01
 -1      2128-1.49343E+01 2.05575E+00-3.49999E-01
 -1      2129-2.50426E+00-2.75450E-02 3.49999E-01
 -1      2130-3.80014E+00 6.72027E+00-3.49999E-01
 -1      2131 5.88888E+00-4.60573E+00-3.49999E-01
 -1      2132 8.18579E+00 3.10963E+00-3.49999E-01
 -1      2133-8.31717E+00 1.26201E+01 3.49999E-01
 -1      2134 4.69747E+00-8.00218E+00-3.49999E-01
 -1      2135-8.96519E+00 5.24088E+00-3.49999E-01
 -1      2136-7.78596E+00-7.68761E+00 3.49999E-01
 -1      2137-8.14026E+00 8.20608E+00 3.49999E-01
 -1      2138-2.15913E+00-1.40182E+01 3.49999E-01
 -1      2139 1.32000E+01 1.90956E+00 3.49999E-01
 -1      2140-3.46220E+00-5.51477E+00-3.49999E-01
 -1      2141-1.17560E+01-1.05277E+00-3.49999E-01
 -1      2142-3.44352E+00-3.95565E+00-3.49999E-01
 -1      2143-3.96883E+00-3.10129E+00-3.49999E-01
 -1      2144 9.15274E+00 1.19255E+01-3.49999E-01
 -1      2145 1.05765E+01-5.27996E-01-3.49999E-01
 -1      2146 1.41476E+01 2.01036E-01-3.49999E-01
 -1      2147 1.46170E+00-1.26780E+01-3.49999E-01
 -1      2148-9.43424E+00-3.19359E+00 3.49999E-01
 -1      2149 2.35692E+00-1.12848E+01 3.49999E-01
 -1      2150 1.62460E+00-1.44026E+01 3.49999E-01
 -1      2151 1.51844E+01-4.17084E+00 3.49999E-01
 -1      2152 4.45580E-01-2.54005E+00-3.49999E-01
 -1      2153-1.80248E+00-5.26400E+00-3.49999E-01
 -1      2154 1.43662E+01-7.20653E+00-3.49999E-01
 -1      2155 1.32674E+01-6.59841E+00-3.49999E-01
 -1      2156 1.41472E+01-5.89957E+00-3.49999E-01
 -1      2157-7.15334E-01-7.93318E+00-3.49999E-01
 -1      2158-5.22984E+00-5.15766E+00-3.49999E-01
 -1      2159 6.71119E+00 9.20987E+00-3.49999E-01
 -1      2160-1.70396E+00-1.53910E+01 3.49999E-01
 -1      2161-8.31236E+00 6.81950E+00 3.49999E-01
 -1      2162 1.06580E+01-1.73935E+00-3.49999E-01
 -1      2163-1.20824E+01-7.74156E-01 3.49999E-01
 -1      2164-1.01878E+01-3.52674E+00-3.49999E-01
 -1      2165 1.04089E+01 3.95793E+00-3.49999E-01
 -1      2166-6.12481E+00 3.36476E+00-3.49999E-01
 -1      2167 1.18477E+01-1.65038E+00 3.49999E-01
 -1      2168-1.43407E+01 7.06288E+00 3.49999E-01
 -1      2169-6.03486E-01 6.17734E+00-3.49999E-01
 -1      2170 5.17597E+00 8.58473E+00-3.49999E-01
 -1      2171 9.77161E-01-1.72201E+00-3.49999E-01
 -1      2172 6.21415E+00-7.28117E+00-3.49999E-01
 -1      2173-2.21923E+00-4.54800E+00-3.49999E-01
 -1      2174-4.92005E+00-1.47841E+01 3.49999E-01
 -1      2175-3.45814E+00-2.36241E+00-3.49999E-01
 -1      2176 1.53843E+01-4.23149E+00-3.49999E-01
 -1      2177-2.01089E+00-8.83833E+00-3.49999E-01
 -1      2178 1.06573E+01-1.25918E+00 3.49999E-01
 -1      2179-2.45919E+00 1.01340E+01-3.49999E-01
 -1      2180 1.22669E+01-9.39713E-01-3.49999E-01
 -1      2181-8.77922E+00-1.31716E+01 3.49999E-01
 -1      2182-1.05310E+00 9.03291E+00-3.49999E-01
 -1      2183-9.41991E+00 6.03559E+00-3.49999E-01
 -1      2184-4.23347E+00 1.10621E+01-3.49999E-01
 -1      2185 1.15902E+01 2.78607E+00-3.49999E-01
 -1      2186 1.09738E+01 3.90038E-01-3.49999E-01
 -1      2187 1.36871E+01-8.50765E+00-3.49999E-01
 -1      2188 7.01655E+00 1.16391E+01 3.49999E-01
 -1      2189-9.43814E+00-3.43562E+00-3.49999E-01
 -1      2190 2.68969E+00-6.58445E+00-3.49999E-01
 -1      2191-1.03911E+01 1.07955E+01 3.49999E-01
 -1      2192 3.82008E+00 1.22425E+01-3.49999E-01
 -1      2193 2.82695E+00 1.30018E+01-3.49999E-01
 -1      2194 2.00976E+00 1.23043E+01-3.49999E-01
 -1      2195 6.19889E+00 5.97513E+00-3.49999E-01
 -1      2196 6.14565E+00-1.28492E+01 3.49999E-01
 -1      2197 1.46630E+01-3.47644E+00 3.49999E-01
 -1      2198-1.42466E+00 4.92871E-01-3.49999E-01
 -1      2199 3.89460E-01 2.65476E+00-3.49999E-01
 -1      2200 5.46109E+00 1.05528E+01-3.49999E-01
 -1      2201-6.59724E+00 1.32725E+01-3.49999E-01
 -1      2202 7.87775E+00 5.36427E+00 3.49999E-01
 -1      2203 7.30350E+00-1.21506E+01-3.49999E-01
 -1      2204 6.17531E+00-1.22262E+01-3.49999E-01
 -1      2205-3.73286E+00-1.03768E+00-3.49999E-01
 -1      2206-2.84081E+00-1.08157E+01-3.49999E-01
 -1      2207-3.44195E-01 1.56549E+01 3.49999E-01
 -1      2208 1.29004E+01 9.54777E+00-3.49999E-01
 -1      2209 6.02573E-01 7.57885E+00-3.49999E-01
 -1      2210-8.87476E+00 9.45750E+00-3.49999E-01
 -1      2211-1.55647E+01 3.50762E+00 3.49999E-01
 -1      2212-1.23815E+01 7.09854E+00-3.49999E-01
 -1      2213 5.27141E-01-8.39194E-01-3.49999E-01
 -1      2214 6.61213E+00 1.41812E+01-3.49999E-01
 -1      2215 1.53376E+01-1.60925E-02-3.49999E-01
 -1      2216-1.24138E+01-3.26434E+00-3.49999E-01
 -1      2217-4.55469E+00-1.41672E+01-3.49999E-01
 -1      2218-1.85327E+00-1.15914E+01-3.49999E-01
 -1      2219 1.00442E+01-6.10029E+00 3.49999E-01
 -1      2220 4.37859E+00-1.02102E+01-3.49999E-01
 -1      2221 5.24602E+00-9.16743E+00-3.49999E-01
 -1      2222-5.22171E+00-7.75074E+00-3.49999E-01
 -1      2223 1.02686E+01-3.77471E+00-3.49999E-01
 -1      2224-3.76323E+00-7.07874E+00-3.49999E-01
 -1      2225 2.30950E+00-9.68866E+00 3.49999E-01
 -1      2226 9.67531E+00 5.59652E-01-3.49999E-01
 -1      2227-5.34128E+00 5.63362E+00-3.49999E-01
 -1      2228 7.45517E+00-9.71095E+00 3.49999E-01
 -1      2229 3.87412E+00 4.99313E+00-3.49999E-01
 -1      2230-1.15213E+01-4.33344E+00-3.49999E-01
 -1      2231-4.96838E+00 8.60423E+00 3.49999E-01
 -1      2232-9.36902E+00 1.66608E-02-3.49999E-01
 -1      2233 2.99626E+00-1.13065E+01-3.49999E-01
 -1      2234-5.27601E+00-1.00902E+00-3.49999E-01
 -1      2235 5.03539E+00-1.13765E+01-3.49999E-01
 -1      2236 9.08163E+00-1.23705E+00-3.49999E-01
 -1      2237-8.38393E+00-6.70391E+00 3.49999E-01
 -1      2238-1.15689E+01 7.96935E+00 3.49999E-01
 -1      2239-9.08744E+00-1.01479E+01 3.49999E-01
 -1      2240 1.29442E+01-7.24181E+00-3.49999E-01
 -1      2241 1.87458E+00 1.46460E+01 3.49999E-01
 -1      2242 9.60692E+00-4.14185E-01-3.49999E-01
 -1      2243 5.90900E+00-1.30372E+01-3.49999E-01
 -1      2244 7.63576E+00-1.31756E+01-3.49999E-01
 -1      2245-5.86642E+00-1.00382E+01-3.49999E-01
 -1      2246-5.02556E+00-1.16400E+01-3.49999E-01
 -1      2247 8.17323E+00-2.69473E+00-3.49999E-01
 -1      2248-5.55594E+00 7.79014E+00-3.49999E-01
 -1      2249 6.47157E+00-1.41796E+01 3.49999E-01
 -1      2250 5.94237E+00 1.29543E+01 3.49999E-01
 -1      2251 5.64195E+00 1.13306E+01 3.49999E-01
 -1      2252 4.25737E+00 3.15010E+00-3.49999E-01
 -1      2253-1.09076E+01 9.14606E+00 3.49999E-01
 -1      2254-1.26249E+01 9.82207E+00 3.49999E-01
 -1      2255-9.28498E+00 7.65721E+00 3.49999E-01
 -1      2256 1.45053E+01 3.35272E+00-3.49999E-01
 -1      2257 2.95787E+00-9.26466E+00-3.49999E-01
 -1      2258 1.21417E+01-7.87681E+00-3.49999E-01
 -1      2259 2.76212E+00-4.18341E+00-3.49999E-01
 -1      2260 4.86790E+00-5.74068E+00-3.49999E-01
 -1      2261-3.32345E+00-1.52610E+01 3.49999E-01
 -1      2262-4.32693E+00-1.29957E+01 3.49999E-01
 -1      2263 5.67188E-01 1.03617E+01-3.49999E-01
 -1      2264 8.76629E-01 1.41647E+01 3.49999E-01
 -1      2265-9.07265E+00-1.32161E+01-3.49999E-01
 -1      2266-3.39392E+00 1.30275E+01-3.49999E-01
 -1      2267 1.08526E+01-9.77199E+00 3.49999E-01
 -1      2268 4.04276E-01 1.48661E+01-3.49999E-01
 -1      2269 6.43229E-01 1.41261E+01-3.49999E-01
 -1      2270 7.92040E-01-9.75074E+00-3.49999E-01
 -1      2271-5.65718E+00 8.58098E+00-3.49999E-01
 -1      2272-3.10721E+00 4.44945E+00-3.49999E-01
 -1      2273-4.01650E+00 1.24762E+01 3.49999E-01
 -1      2274-1.11662E+00-1.55874E+01-3.49999E-01
 -1      2275 3.08912E+00-1.55510E+01-3.49999E-01
 -1      2276-1.51359E+01 2.04390E+00 3.49999E-01
 -1      2277-7.69459E-01-1.14901E+01 3.49999E-01
 -1      2278-1.72718E+00-1.05889E+01 3.49999E-01
 -1      2279-9.11770E-01-1.06819E+01 3.49999E-01
 -1      2280-1.19017E+01 1.62353E+00-3.49999E-01
 -1      2281 2.73937E+00 4.11199E+00-3.49999E-01
 -1      2282-6.72577E+00-1.17864E+01-3.49999E-01
 -1      2283-6.18295E+00 1.85568E+00-3.49999E-01
 -1      2284 9.57720E+00 5.26695E+00-3.49999E-01
 -1      2285 8.92726E+00 6.87971E+00-3.49999E-01
 -1      2286 1.21918E+01 1.48898E+00-3.49999E-01
 -1      2287-2.88210E+00-7.14177E+00-3.49999E-01
 -1      2288 1.27097E+01-2.14445E+00-3.49999E-01
 -1      2289-7.54512E+00-2.24958E+00-3.49999E-01
 -1      2290 3.67816E+00-1.46238E+00-3.49999E-01
 -1      2291 4.21323E+00-5.20996E+00-3.49999E-01
 -1      2292 3.36601E+00 1.11523E+01-3.49999E-01
 -1      2293-5.39708E+00-6.91966E+00-3.49999E-01
 -1      2294 2.17919E+00 6.32573E+00-3.49999E-01
 -1      2295 2.46381E+00 2.03843E+00-3.49999E-01
 -1      2296-1.24284E+00 4.36637E+00-3.49999E-01
 -1      2297 9.85775E+00-5.00218E+00-3.49999E-01
 -1      2298 8.37376E+00-5.15320E+00-3.49999E-01
 -1      2299-6.88183E-01 9.68869E+00 3.49999E-01
 -1      2300 1.68574E+00 5.01007E+00-3.49999E-01
 -1      2301 3.46822E+00 1.00202E+01 3.49999E-01
 -1      2302-4.07763E+00 9.09160E+00 3.49999E-01
 -1      2303-1.02419E+01 1.27035E-02-3.49999E-01
 -1      2304 2.98371E+00-1.23278E+01-3.49999E-01
 -1      2305 6.92894E+00-4.52408E-01-3.49999E-01
 -1      2306 4.99442E+00-1.34584E+01-3.49999E-01
 -1      2307-6.48448E+00 7.45768E+00-3.49999E-01
 -1      2308 6.39359E+00-1.38859E+01-3.49999E-01
 -1      2309 2.07398E+00 1.56259E+01 3.49999E-01
 -1      2310 1.72138E+00 9.61682E+00-3.49999E-01
 -1      2311 2.32792E+00-1.59492E+00-3.49999E-01
 -1      2312 4.44186E+00-2.82087E+00-3.49999E-01
 -1      2313 4.09438E+00-6.02571E+00-3.49999E-01
 -1      2314 5.02317E+00-4.83051E+00-3.49999E-01
 -1      2315 4.04967E+00 1.03060E+01-3.49999E-01
 -1      2316 2.45621E+00 1.13071E+01-3.49999E-01
 -1      2317-6.21226E+00-6.57197E+00-3.49999E-01
 -1      2318 1.42946E+00 7.00083E+00-3.49999E-01
 -1      2319 3.21829E+00 6.26940E+00-3.49999E-01
 -1      2320 3.55693E+00 2.07827E+00-3.49999E-01
 -1      2321 1.58569E+00 2.70512E+00-3.49999E-01
 -1      2322-1.22260E+00 5.37757E+00-3.49999E-01
 -1      2323-9.53605E-02 3.82654E+00-3.49999E-01
 -1      2324-2.20195E+00 3.80366E+00-3.49999E-01
 -1      2325-3.12922E-01 4.85356E+00-3.49999E-01
 -1      2326-7.52023E-01 2.86866E+00-3.49999E-01
 -1      2327 7.19109E+00-5.45685E+00-3.49999E-01
 -1      2328 9.15319E+00-5.44557E+00-3.49999E-01
 -1      2329-1.44174E+00 1.01873E+01 3.49999E-01
 -1      2330 5.30717E+00-9.69042E-01-3.49999E-01
 -1      2331-6.90171E+00 6.71687E+00-3.49999E-01
 -1      2332 2.70711E+00-2.86198E+00-3.49999E-01
 -1      2333 1.94206E+00 8.97604E-03-3.49999E-01
 -1      2334 5.37004E+00-3.54737E+00-3.49999E-01
 -1      2335 3.60501E+00-3.50586E+00-3.49999E-01
 -1      2336 3.20622E+00-2.59317E-01-3.49999E-01
 -1      2337 1.58359E+00-9.25628E-01-3.49999E-01
 -1      2338 4.37932E+00-3.59815E+00-3.49999E-01
 -1      2339 4.69246E+00 1.07891E+01-3.49999E-01
 -1      2340 3.96341E+00 9.55302E+00-3.49999E-01
 -1      2341 1.85013E+00 1.05657E+01-3.49999E-01
 -1      2342-7.03620E+00-6.92371E+00-3.49999E-01
 -1      2343 4.62650E+00 2.14410E+00-3.49999E-01
 -1      2344 2.38635E+00 2.84806E+00-3.49999E-01
 -1      2345-2.15353E+00 4.89040E+00-3.49999E-01
 -1      2346 6.62453E-01 5.23774E+00-3.49999E-01
 -1      2347 6.32893E+00-5.35420E+00-3.49999E-01
 -1      2348-1.48518E+00 3.32346E+00-3.49999E-01
 -1      2349-3.37654E+00 3.11452E+00-3.49999E-01
 -1      2350-4.59194E-02 5.60594E+00-3.49999E-01
 -1      2351-4.67497E+00 4.07111E+00-3.49999E-01
 -1      2352 7.18122E+00-6.42456E+00-3.49999E-01
 -1      2353 5.25457E+00 1.15122E+01-3.49999E-01
 -1      2354 3.56896E+00-2.60812E+00-3.49999E-01
 -1      2355 4.58430E+00 3.55595E-01-3.49999E-01
 -1      2356-3.10164E+00 5.68918E+00-3.49999E-01
 -1      2357 5.84089E-01 4.37075E+00-3.49999E-01
 -1      2358-4.51159E+00 1.88728E+00-3.49999E-01
 -1      2359 3.04738E+00-1.98033E+00-3.49999E-01
 -1      2360 3.74958E+00 3.74624E-01-3.49999E-01
 -1      2361 5.88433E+00 3.22194E-01-3.49999E-01
 -1      2362 4.19385E+00 1.25956E+00-3.49999E-01
 -1      2363 4.32069E+00-6.47822E-01-3.49999E-01
 -1      2364 4.95035E+00 1.05000E+00-3.49999E-01
 -1      2365-1.30210E+01-9.38619E+00-3.49999E-01
 -1      2366 1.30105E+01 3.35214E+00-3.49999E-01
 -1      2367-2.08868E+00 1.31328E+01-3.49999E-01
 -1      2368 8.06651E+00 6.25149E+00-3.49999E-01
 -1      2369 1.37296E+01 5.90423E+00-3.49999E-01
 -1      2370-7.35871E+00-1.13184E+01 3.49999E-01
 -1      2371-6.87561E-01-4.10799E+00-3.49999E-01
 -1      2372 9.30365E+00-8.48140E+00 3.49999E-01
 -1      2373 7.65664E+00 1.39658E+00-3.49999E-01
 -1      2374 3.07599E+00 1.30780E+01 3.49999E-01
 -1      2375 2.13520E+00-1.32207E+00 3.49999E-01
 -1      2376-4.51142E+00-1.39958E+00-3.49999E-01
 -1      2377 5.19155E+00 5.62639E+00-3.49999E-01
 -1      2378 6.56557E+00 1.28086E+01-3.49999E-01
 -1      2379 5.64047E+00 7.46920E+00 3.49999E-01
 -1      2380-2.37257E+00 8.06976E+00-3.49999E-01
 -1      2381 7.57138E+00 4.67873E+00-3.49999E-01
 -1      2382-5.74575E+00-1.50736E+01 3.49999E-01
 -1      2383 1.50652E+01 5.87594E+00 3.49999E-01
 -1      2384 1.02586E+00-1.27327E+01 3.49999E-01
 -1      2385 7.95290E+00-1.27015E+01 3.49999E-01
 -1      2386 8.88066E+00-1.15320E+01 3.49999E-01
 -1      2387 2.73634E+00-5.03803E+00-3.49999E-01
 -1      2388 7.17285E+00 1.43477E+01 3.49999E-01
 -1      2389-1.74702E+00 9.57632E+00-3.49999E-01
 -1      2390 2.49689E-01 1.50922E+01 3.49999E-01
 -1      2391-2.79659E+00-1.20355E+01-3.49999E-01
 -1      2392-8.15575E+00 8.44887E+00-3.49999E-01
 -1      2393 7.05891E+00 1.27190E+01 3.49999E-01
 -1      2394-1.12893E+00-8.72094E+00-3.49999E-01
 -1      2395-5.89360E+00-9.90268E+00 3.49999E-01
 -1      2396-3.41451E+00-1.55612E+01-3.49999E-01
 -1      2397-9.03078E+00 2.57273E+00-3.49999E-01
 -1      2398-1.06028E+01-2.68593E+00-3.49999E-01
 -1      2399-4.03467E+00-1.28052E+01-3.49999E-01
 -1      2400-1.49580E+00-9.74124E+00-3.49999E-01
 -1      2401-8.34696E+00 3.52428E+00-3.49999E-01
 -1      2402 1.19787E+01 9.38111E+00 3.49999E-01
 -1      2403 1.59966E+01 5.08257E-01 3.49999E-01
 -1      2404 6.13155E+00 2.09279E+00-3.49999E-01
 -1      2405 6.28937E+00 1.30751E+00-3.49999E-01
 -1      2406 2.61653E+00 8.46202E+00-3.49999E-01
 -1      2407-5.11074E+00 6.55980E+00-3.49999E-01
 -1      2408 1.59307E+01-1.15044E+00 3.49999E-01
 -1      2409-1.29175E+01-9.68177E+00 3.49999E-01
 -1      2410-7.17200E-01 1.09250E+01-3.49999E-01
 -1      2411 5.71187E+00 6.52179E+00-3.49999E-01
 -1      2412 9.59403E+00 2.53096E+00 3.49999E-01
 -1      2413 9.90540E+00-6.75384E+00-3.49999E-01
 -1      2414-6.76045E+00-6.16296E+00 3.49999E-01
 -1      2415-9.98630E+00-1.80846E+00-3.49999E-01
 -1      2416 4.44826E+00-1.32848E+01 3.49999E-01
 -1      2417-2.97950E-01 8.40173E+00-3.49999E-01
 -1      2418-1.22081E+00-4.70935E+00-3.49999E-01
 -1      2419-6.69148E+00-1.26721E+01 3.49999E-01
 -1      2420 2.70684E+00-1.58803E+01 3.49999E-01
 -1      2421 8.59028E+00-1.37029E+01 3.49999E-01
 -1      2422-1.03208E+00-3.21120E+00-3.49999E-01
 -1      2423 4.25802E-01-4.37875E+00-3.49999E-01
 -1      2424 2.02234E+00 1.59176E+01-3.49999E-01
 -1      2425-1.67248E+00-8.00901E+00-3.49999E-01
 -1      2426 1.11223E+01 1.05906E+01 3.49999E-01
 -1      2427-8.31472E+00-3.75770E+00-3.49999E-01
 -1      2428 8.99171E+00 6.28707E+00 3.49999E-01
 -1      2429-9.07966E+00 3.65357E+00 3.49999E-01
 -1      2430 6.08675E+00-7.24693E+00 3.49999E-01
 -1      2431-5.83738E+00-1.08098E+01 3.49999E-01
 -1      2432 1.07654E+01 2.30811E+00-3.49999E-01
 -1      2433 7.29947E+00 1.45401E+01-3.49999E-01
 -1      2434-1.04712E+01-8.83607E+00-3.49999E-01
 -1      2435-1.63494E+00-9.78662E+00 3.49999E-01
 -1      2436-7.54160E+00-3.85784E+00-3.49999E-01
 -1      2437 2.32621E+00 1.03451E+01 3.49999E-01
 -1      2438 8.96592E+00 5.95795E+00-3.49999E-01
 -1      2439-8.61982E+00-4.57130E+00-3.49999E-01
 -1      2440-1.57251E+00-2.08233E+00 3.49999E-01
 -1      2441-1.15781E+01-2.54917E+00-3.49999E-01
 -1      2442-1.42052E+01-5.62684E+00 3.49999E-01
 -1      2443-1.93765E+00-1.21965E+01 3.49999E-01
 -1      2444-5.33927E+00 1.44837E+00-3.49999E-01
 -1      2445-9.57278E+00 7.44307E+00-3.49999E-01
 -1      2446 1.31984E+01-4.12695E+00 3.49999E-01
 -1      2447 1.18724E+01-3.07787E+00 3.49999E-01
 -1      2448-1.16687E+00-1.60976E+01 3.49999E-01
 -1      2449-3.82859E+00-1.74838E+00-3.49999E-01
 -1      2450 8.99031E+00 9.29287E+00 3.49999E-01
 -1      2451 1.12707E+00-2.26347E+00 3.49999E-01
 -1      2452-1.17468E+01-1.81046E+00-3.49999E-01
 -1      2453-1.07732E+01-7.19207E+00-3.49999E-01
 -1      2454 6.45967E-01-5.91725E+00-3.49999E-01
 -1      2455 9.49953E+00-4.98072E+00 3.49999E-01
 -1      2456 2.13899E+00-2.34173E+00-3.49999E-01
 -1      2457 3.51361E+00-8.65630E+00-3.49999E-01
 -1      2458 1.28034E+01-5.44157E+00 3.49999E-01
 -1      2459-6.64382E+00-2.53603E+00-3.49999E-01
 -1      2460 9.81569E+00 1.12975E+01 3.49999E-01
 -1      2461 1.04755E+01 2.26929E+00 3.49999E-01
 -1      2462 1.10403E+01-8.15689E+00 3.49999E-01
 -1      2463-8.78081E+00-3.80015E+00 3.49999E-01
 -1      2464-1.87629E+00-3.13663E+00-3.49999E-01
 -1      2465 1.31270E+01-3.05325E+00 3.49999E-01
 -1      2466-6.66381E-01-1.51597E+01 3.49999E-01
 -1      2467 6.37484E-01-1.52603E+01 3.49999E-01
 -1      2468-5.94719E+00 1.00485E+01 3.49999E-01
 -1      2469-1.30295E+00 6.79415E+00-3.49999E-01
 -1      2470 1.34555E+01-1.65901E+00 3.49999E-01
 -1      2471 1.88882E+00-3.55791E+00-3.49999E-01
 -1      2472-6.50876E+00 5.75900E+00-3.49999E-01
 -1      2473 1.19686E+01-4.16954E+00-3.49999E-01
 -1      2474-4.41432E+00-8.86516E+00 3.49999E-01
 -1      2475-7.30810E+00-1.33051E+01-3.49999E-01
 -1      2476 8.39990E+00-7.33576E+00-3.49999E-01
 -1      2477 1.32774E+01-3.30324E+00-3.49999E-01
 -1      2478 1.30845E+00 5.72776E+00-3.49999E-01
 -1      2479-1.08891E+01 3.76195E+00-3.49999E-01
 -1      2480-3.80299E+00 3.89519E+00-3.49999E-01
 -1      2481 8.98149E-01-3.50642E+00-3.49999E-01
 -1      2482-6.95073E+00 1.62149E-02-3.49999E-01
 -1      2483-1.10535E+01 1.00107E+01 3.49999E-01
 -1      2484-5.07945E+00-4.34404E+00-3.49999E-01
 -1      2485 4.99801E+00-1.23912E+01 3.49999E-01
 -1      2486 8.25908E+00-1.48450E-01-3.49999E-01
 -1      2487 7.01534E+00 3.99820E+00-3.49999E-01
 -1      2488 4.66934E+00-1.79908E+00-3.49999E-01
 -1      2489 6.98719E+00 1.20189E+01-3.49999E-01
 -1      2490 2.25035E+00 7.15860E+00-3.49999E-01
 -1      2491-5.29420E+00-1.98832E+00-3.49999E-01
 -1      2492 1.35271E+00-4.31660E+00-3.49999E-01
 -1      2493-1.37832E+01-5.40435E+00-3.49999E-01
 -1      2494 1.58973E+00-1.37386E+01-3.49999E-01
 -1      2495-4.48041E+00-9.35253E+00-3.49999E-01
 -1      2496-2.43788E+00-9.94103E+00-3.49999E-01
 -1      2497-7.01638E+00 3.47663E+00-3.49999E-01
 -1      2498-1.80908E-01 9.62164E+00-3.49999E-01
 -1      2499 8.55106E-01 1.10970E+01-3.49999E-01
 -1      2500-4.49198E+00 8.50449E-01-3.49999E-01
 -1      2501 1.15377E+01 3.86367E+00-3.49999E-01
 -1      2502 8.85616E+00 4.27680E-01-3.49999E-01
 -1      2503-1.20422E+01-1.46227E-01-3.49999E-01
 -1      2504 9.82827E+00 6.45581E+00-3.49999E-01
 -1      2505-5.00059E+00 7.29538E+00-3.49999E-01
 -1      2506-9.74048E-01-6.27552E+00-3.49999E-01
 -1      2507-1.18052E+01 8.90716E+00-3.49999E-01
 -1      2508 7.29689E+00 1.26916E+01-3.49999E-01
 -1      2509 1.46999E+01-6.21707E+00 3.49999E-01
 -1      2510-4.25177E+00-9.81883E+00 3.49999E-01
 -1      2511 7.82895E+00-1.32853E+00-3.49999E-01
 -1      2512 7.42980E+00 4.18164E-01-3.49999E-01
 -1      2513 1.48717E+00 2.01504E+00 3.49999E-01
 -1      2514 2.32590E+00 5.52034E+00-3.49999E-01
 -1      2515 1.07258E+01-5.75778E+00-3.49999E-01
 -1      2516-4.66654E+00 8.13049E+00-3.49999E-01
 -1      2517 3.28163E-01-1.39917E+01-3.49999E-01
 -1      2518-7.89276E+00-8.45733E+00-3.49999E-01
 -1      2519 9.48287E+00-3.43354E+00-3.49999E-01
 -1      2520-5.43904E+00-1.08524E+01-3.49999E-01
 -1      2521 9.02799E+00-2.21552E+00-3.49999E-01
 -1      2522-3.65474E-01-8.61933E+00-3.49999E-01
 -1      2523 4.56818E+00 4.54623E+00-3.49999E-01
 -1      2524-2.83732E+00-1.45496E+01 3.49999E-01
 -1      2525 1.13809E+01 1.77319E+00 3.49999E-01
 -1      2526-1.26624E+01-6.22390E+00 3.49999E-01
 -1      2527 6.35315E+00-1.44869E+00-3.49999E-01
 -1      2528 1.69695E+00-8.16182E+00-3.49999E-01
 -1      2529-1.23089E+01-6.94371E+00-3.49999E-01
 -1      2530-1.39484E+01 1.21667E-01-3.49999E-01
 -1      2531 8.18809E+00-5.27797E+00 3.49999E-01
 -1      2532-1.47883E+01 5.59991E-01-3.49999E-01
 -1      2533-1.11362E+01-1.04360E+01 3.49999E-01
 -1      2534-1.17631E+01-1.12704E+01-3.49999E-01
 -1      2535-5.71573E+00-3.79243E+00-3.49999E-01
 -1      2536-6.54089E+00-1.45668E+01-3.49999E-01
 -1      2537 1.26900E+01-8.00048E+00 3.49999E-01
 -1      2538-1.32373E+01 1.94635E+00-3.49999E-01
 -1      2539-5.05637E+00 1.09715E+01-3.49999E-01
 -1      2540-7.01907E+00 2.01362E+00-3.49999E-01
 -1      2541 5.76215E+00 1.24760E+01-3.49999E-01
 -1      2542-2.44554E+00-3.73937E+00-3.49999E-01
 -1      2543 4.21544E+00-1.35198E+01-3.49999E-01
 -1      2544 2.43944E-01-1.09059E+01-3.49999E-01
 -1      2545-8.81252E-01-1.12978E+01-3.49999E-01
 -1      2546-4.45057E+00 5.09013E+00-3.49999E-01
 -1      2547-9.81086E+00-5.01241E+00-3.49999E-01
 -1      2548 7.85055E+00 3.88320E+00-3.49999E-01
 -1      2549-1.01875E+01 5.82936E+00-3.49999E-01
 -1      2550 6.09368E+00-6.34208E-01-3.49999E-01
 -1      2551 3.53681E-01 1.74814E+00-3.49999E-01
 -1      2552 1.25922E+01-3.75678E+00-3.49999E-01
 -1      2553 3.21679E+00-9.54386E+00 3.49999E-01
 -1      2554 3.73859E+00-7.76028E+00-3.49999E-01
 -1      2555-9.90994E+00 9.41770E+00-3.49999E-01
 -1      2556-2.62303E+00-1.29094E+01-3.49999E-01
 -1      2557 8.80160E+00 1.99079E+00-3.49999E-01
 -1      2558-6.75304E+00 1.12984E+00-3.49999E-01
 -1      2559 9.77852E+00-2.05473E+00 3.49999E-01
 -1      2560-2.87589E+00-8.54325E+00-3.49999E-01
 -1      2561-2.49588E+00-2.35317E+00-3.49999E-01
 -1      2562-1.57947E+01 2.48227E+00-3.49999E-01
 -1      2563 5.11053E+00-6.91536E+00-3.49999E-01
 -1      2564-4.49324E+00-4.20289E-01-3.49999E-01
 -1      2565 5.41559E+00 7.72542E+00-3.49999E-01
 -1      2566-4.90568E+00-3.00202E+00-3.49999E-01
 -1      2567 1.48275E+01-6.45737E+00-3.49999E-01
 -1      2568-7.45543E+00 7.58573E+00 3.49999E-01
 -1      2569 4.28341E-01-1.25122E+01-3.49999E-01
 -1      2570-2.56553E+00-5.83157E+00-3.49999E-01
 -1      2571 4.87529E-02-1.43909E+01 3.49999E-01
 -1      2572 1.58253E+00-1.36580E+01 3.49999E-01
 -1      2573-7.79015E+00-1.08674E-01-3.49999E-01
 -1      2574-1.71650E+00-9.25258E-01-3.49999E-01
 -1      2575-4.32237E+00-1.39897E+01 3.49999E-01
 -1      2576-1.23165E+01 1.63296E-02 3.49999E-01
 -1      2577 5.61034E-01 9.61976E+00-3.49999E-01
 -1      2578 5.35464E+00 9.81803E+00-3.49999E-01
 -1      2579 1.16706E+00-5.19098E+00-3.49999E-01
 -1      2580-6.47109E+00 2.62244E+00-3.49999E-01
 -1      2581 1.17967E+01-1.03302E-01-3.49999E-01
 -1      2582 6.23329E+00 1.35069E+01-3.49999E-01
 -1      2583 5.44960E+00 1.23096E+01 3.49999E-01
 -1      2584-1.69947E+00 1.61131E+00-3.49999E-01
 -1      2585-7.44740E-01 6.78917E-01 3.49999E-01
 -1      2586 2.58452E-01 2.78909E+00 3.49999E-01
 -1      2587 9.78129E+00-1.76611E+00-3.49999E-01
 -1      2588-9.85215E+00 9.12396E+00 3.49999E-01
 -1      2589-6.65475E-03 6.88343E+00-3.49999E-01
 -1      2590 5.22601E+00-2.77522E+00-3.49999E-01
 -1      2591 6.55480E+00-3.56787E+00-3.49999E-01
 -1      2592 1.61670E+01 1.77970E-01-3.49999E-01
 -1      2593-1.84652E+00 8.73449E+00-3.49999E-01
 -1      2594 2.59374E+00 9.36870E+00-3.49999E-01
 -1      2595-4.83059E+00-1.51612E+01-3.49999E-01
 -1      2596 1.11049E+01-2.87977E+00-3.49999E-01
 -1      2597 9.77835E+00 1.50159E+00-3.49999E-01
 -1      2598-4.19796E+00 8.88824E+00-3.49999E-01
 -1      2599-5.41506E+00 2.58175E+00-3.49999E-01
 -1      2600-3.50290E+00-1.23113E+01 3.49999E-01
 -1      2601-3.67575E+00-1.90408E-01-3.49999E-01
 -1      2602 8.34753E+00-3.70081E+00-3.49999E-01
 -1      2603-6.78860E+00-9.77355E+00-3.49999E-01
 -1      2604-9.28267E+00 9.79296E+00 3.49999E-01
 -1      2605 5.29116E+00-1.47189E+01 3.49999E-01
 -1      2606 6.80618E+00-1.33925E+01 3.49999E-01
 -1      2607 4.90729E+00 1.16188E+01 3.49999E-01
 -1      2608-9.02958E+00 6.97025E+00 3.49999E-01
 -1      2609 5.11152E+00 3.02822E+00-3.49999E-01
 -1      2610 2.40624E+00-9.73988E+00-3.49999E-01
 -1      2611 3.51997E+00-9.96021E+00-3.49999E-01
 -1      2612 1.28746E+01-8.00404E+00-3.49999E-01
 -1      2613-4.25884E+00-1.54815E+01 3.49999E-01
 -1      2614 9.50131E+00 7.82653E+00-3.49999E-01
 -1      2615 8.42190E+00 7.68019E+00-3.49999E-01
 -1      2616-3.19477E-01-1.45772E+01-3.49999E-01
 -1      2617 9.96211E+00 4.59279E+00-3.49999E-01
 -1      2618-1.78866E+00-1.47109E+01-3.49999E-01
 -1      2619-1.98961E+00-1.59509E+01-3.49999E-01
 -1      2620-5.97056E+00-1.27368E+01-3.49999E-01
 -1      2621-5.09882E+00 9.97107E+00-3.49999E-01
 -1      2622 9.48445E+00 5.01965E+00 3.49999E-01
 -1      2623 1.88939E+00 4.18189E+00-3.49999E-01
 -1      2624-2.13791E-01-5.87142E+00-3.49999E-01
 -1      2625-1.23893E+00-7.40278E+00-3.49999E-01
 -1      2626-7.14090E-01 2.50977E+00 3.49999E-01
 -1      2627 9.69367E-01 5.68249E-01-3.49999E-01
 -1      2628-3.11707E-01-1.35117E+01-3.49999E-01
 -1      2629 1.77323E-01-6.62158E+00-3.49999E-01
 -1      2630-5.33908E+00 4.71123E+00-3.49999E-01
 -1      2631-2.67149E+00 6.34055E+00-3.49999E-01
 -1      2632 4.98412E+00-2.85778E-01-3.49999E-01
 -1      2633-9.98112E+00 6.59277E+00-3.49999E-01
 -1      2634-7.72904E+00 6.57898E-01-3.49999E-01
 -1      2635 6.34386E+00 1.46179E+01 3.49999E-01
 -1      2636-3.68658E+00-1.37184E+01-3.49999E-01
 -1      2637-3.56300E+00-1.21833E+01-3.49999E-01
 -1      2638-9.16338E+00 4.06051E+00-3.49999E-01
 -1      2639 1.50618E+00 8.25615E+00-3.49999E-01
 -1      2640-1.19002E+00 8.19300E+00-3.49999E-01
 -1      2641-1.09197E+00-5.52709E+00-3.49999E-01
 -1      2642-7.54620E+00-1.25250E+01 3.49999E-01
 -1      2643-9.17237E+00-1.97233E+00-3.49999E-01
 -1      2644-5.86092E+00-1.22821E+01 3.49999E-01
 -1      2645-2.91656E+00-1.50943E+00-3.49999E-01
 -1      2646-8.21897E+00-2.85613E+00-3.49999E-01
 -1      2647 2.26635E+00 3.56284E+00-3.49999E-01
 -1      2648-6.71644E+00-1.07100E+01 3.49999E-01
 -1      2649 9.67900E-01-6.63953E+00-3.49999E-01
 -1      2650 1.11004E+01-3.05450E+00 3.49999E-01
 -1      2651-1.93198E+00-1.61218E+01 3.49999E-01
 -1      2652-1.44505E+01-6.53678E-01-3.49999E-01
 -1      2653-1.05903E+01-7.19111E+00 3.49999E-01
 -1      2654 3.05174E-01-5.18102E+00-3.49999E-01
 -1      2655-1.41218E+01 8.13300E-01-3.49999E-01
 -1      2656-9.41436E+00 1.00100E+01-3.49999E-01
 -1      2657-9.40690E+00-4.29662E+00 3.49999E-01
 -1      2658 1.14738E+00-1.53733E+01-3.49999E-01
 -1      2659 1.22306E+01-5.05129E+00-3.49999E-01
 -1      2660 1.11203E+01-3.96492E+00-3.49999E-01
 -1      2661 1.17393E+01-4.54786E+00 3.49999E-01
 -1      2662 7.83929E+00-6.81499E+00-3.49999E-01
 -1      2663-4.42784E+00 3.04705E+00-3.49999E-01
 -1      2664-6.30126E+00-8.03322E-01-3.49999E-01
 -1      2665-9.70009E-01-1.55996E+00-3.49999E-01
 -1      2666 5.18646E+00-1.15840E+01 3.49999E-01
 -1      2667 5.52897E+00-1.79957E+00-3.49999E-01
 -1      2668-6.10982E+00-1.91520E+00-3.49999E-01
 -1      2669 2.02848E+00-4.70809E+00-3.49999E-01
 -1      2670-9.31946E-01 1.00746E+01-3.49999E-01
 -1      2671-3.14657E+00-9.75364E+00-3.49999E-01
 -1      2672-3.15311E+00 1.39437E+00-3.49999E-01
 -1      2673 1.39707E+01-5.84390E+00 3.49999E-01
 -1      2674 6.64367E+00 5.85964E-01-3.49999E-01
 -1      2675 8.43665E-01-1.32906E+01-3.49999E-01
 -1      2676 8.30854E+00-1.93415E+00-3.49999E-01
 -1      2677 8.88522E+00-2.96278E+00-3.49999E-01
 -1      2678 5.70681E+00-1.40672E+01 3.49999E-01
 -1      2679-1.21120E+01-6.78779E+00 3.49999E-01
 -1      2680 7.09516E+00-2.31714E+00-3.49999E-01
 -1      2681 2.26722E+00-7.41965E+00-3.49999E-01
 -1      2682-1.29560E+01 2.67647E-01-3.49999E-01
 -1      2683-1.37899E+01 7.66650E-02 3.49999E-01
 -1      2684-1.49242E+01 7.74620E-01 3.49999E-01
 -1      2685 1.13848E+01-8.85170E-01-3.49999E-01
 -1      2686 2.77318E-02-1.00957E+01-3.49999E-01
 -1      2687 8.58295E+00 3.74117E+00-3.49999E-01
 -1      2688 3.55686E-01 1.25013E+00 3.49999E-01
 -1      2689 3.70006E+00-1.01577E+01 3.49999E-01
 -1      2690 9.42004E+00-1.31813E+00 3.49999E-01
 -1      2691-6.28265E+00 4.71974E-01-3.49999E-01
 -1      2692 7.47825E+00-3.33327E+00-3.49999E-01
 -1      2693-1.83772E+00-6.29708E+00-3.49999E-01
 -1      2694-7.47565E+00-9.66182E-01-3.49999E-01
 -1      2695-5.27000E-01 7.81793E-01-3.49999E-01
 -1      2696 6.68496E+00-4.38395E+00-3.49999E-01
 -1      2697-4.33257E+00-1.57175E+01-3.49999E-01
 -1      2698 1.17893E+01-3.35551E+00-3.49999E-01
 -1      2699-5.26158E+00 3.43405E+00-3.49999E-01
 -1      2700-7.04394E+00-1.05935E+01-3.49999E-01
 -1      2701 5.14574E+00-1.51881E+01-3.49999E-01
 -1      2702 9.74877E+00 8.13980E+00 3.49999E-01
 -1      2703-5.86173E+00-1.18750E+01-3.49999E-01
 -1      2704-1.62131E+00-1.46017E+01 3.49999E-01
 -1      2705-5.19811E+00-1.33881E+01-3.49999E-01
 -1      2706 1.82078E+00 9.23534E-01-3.49999E-01
 -1      2707 1.02499E+00-1.47416E-01 3.49999E-01
 -1      2708-5.54733E-01-6.96880E+00-3.49999E-01
 -1      2709 6.19966E+00 1.49185E+01-3.49999E-01
 -1      2710 1.82089E+00-6.36483E+00-3.49999E-01
 -1      2711-1.46944E+01-1.06486E+00 3.49999E-01
 -1      2712-5.66326E+00-2.81246E-01-3.49999E-01
 -1      2713-2.49213E+00 1.94403E+00-3.49999E-01
 -1      2714-3.62676E+00 2.20743E+00-3.49999E-01
 -1      2715-3.92708E+00 1.37973E+00-3.49999E-01
 -1      2716 1.44315E+00-7.32008E+00-3.49999E-01
 -1      2717-1.27180E+01 1.17045E+00-3.49999E-01
 -1      2718 2.60255E-01 9.48805E-01-3.49999E-01
 -1      2719 5.12523E+00-1.54605E+01 3.49999E-01
 -1      2720-4.91907E+00-1.34954E+01 3.49999E-01
 -1      2721 7.45400E-01 5.77726E-01 3.49999E-01
 -1      2722 1.10725E+00-2.48271E-01-3.49999E-01
 -1      2723 2.35782E+00 9.13420E-01 3.49999E-01
 -1      2724-1.24561E+01 8.90891E-01 3.49999E-01
 -1      2725 2.56075E+00 5.56343E-01-3.49999E-01
 -1      2726-1.19432E+01 7.36372E-01-3.49999E-01
 -1      2727-1.14915E+01 8.61925E-01 3.49999E-01
 -1      2728 2.51515E+00-1.55732E+00 3.49999E-01
 -1      2729 1.78031E+00 2.35749E+00 3.49999E-01
 -1      2730-1.42749E+00-2.87173E+00-3.49999E-01
 -1      2731-2.95420E+00 0.00000E+00 3.49999E-01
 -1      2732-1.35912E+00 2.34049E+00-3.49999E-01
 -1      2733-1.43063E+00 2.23253E+00 3.49999E-01
 -1      2734-4.47045E-01-2.53702E+00-3.49999E-01
 -1      2735-6.88730E-01-2.18847E+00 3.49999E-01
 -1      2736-6.76895E-02-3.98354E+00-3.49999E-01
 -1      2737-1.17823E+00-2.53188E+00 3.49999E-01
 -1      2738 2.09006E+00-2.96548E+00-3.49999E-01
 -1      2739 9.71997E-01 3.04992E+00-3.49999E-01
 -1      2740 3.15076E+00 4.36662E-01-3.49999E-01
 -1      2741-3.42171E+00-1.44139E+00-3.49999E-01
 -1      2742 1.80275E+00-1.97655E+00 3.49999E-01
 -1      2743 3.02454E+00 1.66969E+00-3.49999E-01
 -1      2744-1.11585E-01 3.13364E+00-3.49999E-01
 -1      2745 2.52386E+00-6.33241E-01 3.49999E-01
 -1      2746 2.44247E+00-7.19000E-01-3.49999E-01
 -1      2747 3.64988E+00-7.79375E-01-3.49999E-01
 -1      2748 5.41293E-01-2.64542E+00 3.49999E-01
 -1      2749 9.08845E-01-2.91225E+00-3.49999E-01
 -1      2750-2.11298E+00-1.63551E+00-3.49999E-01
 -1      2751-2.14051E+00-1.56497E+00 3.49999E-01
 -1      2752-1.18078E+00 2.65137E+00 3.49999E-01
 -1      2753-3.02583E+00-7.56385E-01-3.49999E-01
 -1      2754-2.33083E+00 8.63194E-01-3.49999E-01
 -1      2755-2.32520E+00 9.30331E-01 3.49999E-01
 -1      2756-3.03094E+00 6.81437E-01-3.49999E-01
 -1      2757 2.11930E+00 1.61977E+00 3.49999E-01
 -1      2758-2.07517E+00 1.89176E+00 3.49999E-01
 -1      2759-2.82200E+00 2.61415E+00-3.49999E-01
 -1      2760 2.68408E+00 2.94893E-01 3.49999E-01
 -1      2761-1.69121E-01-2.67375E+00 3.49999E-01
 -1      2762-1.57396E+00 2.81250E+00-3.49999E-01
 -1      2763 8.36392E-01 2.67347E+00 3.49999E-01
 -1      2764 2.55170E+00 1.37234E+00 3.49999E-01
 -1      2765-1.71040E-03-2.82641E+00-3.49999E-01
 -1      2766 1.80428E+00-2.38924E+00 3.49999E-01
 -1      2767 3.04116E+00-8.49396E-01-3.49999E-01
 -1      2768-2.82624E-01 2.84025E+00 3.49999E-01
 -1      2769-2.01294E+00-2.14986E+00-3.49999E-01
 -1      2770-2.43356E+00-1.05490E+00-3.49999E-01
 -1      2771-2.76441E+00 1.09404E+00-3.49999E-01
 -1      2772-2.80438E-01-3.02633E+00 3.49999E-01
 -1      2773 2.93537E+00-5.48723E-01 3.49999E-01
 -1      2774-2.19328E+00-1.99943E+00 3.49999E-01
 -1      2775-2.61842E+00-1.01438E+00 3.49999E-01
 -3
    3C                          8164                                     1
 -1         1    3    0    1
 -2       584       581       585       592
 -1         2    3    0    1
 -2       193       194      2464      1363
 -1         3    3    0    1
 -2      1520       992      1711      2271
 -1         4    3    0    1
 -2       198       758       751       741
 -1         5    3    0    1
 -2       621       107       622       633
 -1         6    3    0    1
 -2       362        92       609       982
 -1         7    3    0    1
 -2      1682       679      1897      2005
 -1         8    3    0    1
 -2      1903       800      2225      2610
 -1         9    3    0    1
 -2       770       217       221      1233
 -1        10    3    0    1
 -2      1003       666      1005      1009
 -1        11    3    0    1
 -2      1004      1202      1006       672
 -1        12    3    0    1
 -2      2263       583      2498      2577
 -1        13    3    0    1
 -2       393       391       537       544
 -1        14    3    0    1
 -2       576       571       581       585
 -1        15    3    0    1
 -2      1495      1556      1942      2383
 -1        16    3    0    1
 -2      1732      1438      1787      1915
 -1        17    3    0    1
 -2       563       555       552       567
 -1        18    3    0    1
 -2      1011      1211       705      1013
 -1        19    3    0    1
 -2       525        40       533       536
 -1        20    3    0    1
 -2       264       259      2121      2313
 -1        21    3    0    1
 -2       484       477       485       488
 -1        22    3    0    1
 -2       605        94       608       984
 -1        23    3    0    1
 -2       336       663      1681      2472
 -1        24    3    0    1
 -2       289       869       872      1269
 -1        25    3    0    1
 -2       652       646       653       657
 -1        26    3    0    1
 -2       500       511       957       959
 -1        27    3    0    1
 -2       632       629       633       640
 -1        28    3    0    1
 -2      1146       967       531      1904
 -1        29    3    0    1
 -2      1183       989       617      1181
 -1        30    3    0    1
 -2      1482      1666      1685      1997
 -1        31    3    0    1
 -2        66       557       560       568
 -1        32    3    0    1
 -2      1200       331      2397      2429
 -1        33    3    0    1
 -2       286       285       868      1266
 -1        34    3    0    1
 -2        88        97       596       603
 -1        35    3    0    1
 -2      2384      1673      2569      2675
 -1        36    3    0    1
 -2      1034       219      1981      1985
 -1        37    3    0    1
 -2        45        41       532      1144
 -1        38    3    0    1
 -2       452       393       532       543
 -1        39    3    0    1
 -2      1580      1403      2532      2684
 -1        40    3    0    1
 -2      1401      1790      2284      2504
 -1        41    3    0    1
 -2      1002      1200      1008       667
 -1        42    3    0    1
 -2      1687       936      1730      2176
 -1        43    3    0    1
 -2      1440      1395      1549      1677
 -1        44    3    0    1
 -2       185       192      1622      2484
 -1        45    3    0    1
 -2       736       183      1622      2097
 -1        46    3    0    1
 -2      1158       549       970      1150
 -1        47    3    0    1
 -2       508       501       509       512
 -1        48    3    0    1
 -2       571        79       576       581
 -1        49    3    0    1
 -2       236       797       799      1037
 -1        50    3    0    1
 -2        75       584       972      1162
 -1        51    3    0    1
 -2      1114      1303      2408      2592
 -1        52    3    0    1
 -2        83       588       585       592
 -1        53    3    0    1
 -2      1271      1066      2290      1350
 -1        54    3    0    1
 -2       780       764       777       784
 -1        55    3    0    1
 -2       778      1036      2371      2418
 -1        56    3    0    1
 -2       536       533       966      1142
 -1        57    3    0    1
 -2      1285      1284      2365      2409
 -1        58    3    0    1
 -2      1746      1655      1816      1866
 -1        59    3    0    1
 -2      1567      1544      1607      1692
 -1        60    3    0    1
 -2       897       898      1604      1760
 -1        61    3    0    1
 -2      1040      2454      2624      2654
 -1        62    3    0    1
 -2       668      1201      1197      1007
 -1        63    3    0    1
 -2      1727      1335      1817      2408
 -1        64    3    0    1
 -2       811       253       816       823
 -1        65    3    0    1
 -2        35       508       515       519
 -1        66    3    0    1
 -2       633       118       636       640
 -1        67    3    0    1
 -2       561       968      1156      1160
 -1        68    3    0    1
 -2       243      1040      1248      2454
 -1        69    3    0    1
 -2       690       157       374      1349
 -1        70    3    0    1
 -2        35       448       508       519
 -1        71    3    0    1
 -2      1791       654      1808      2135
 -1        72    3    0    1
 -2      1217       723      1577      2175
 -1        73    3    0    1
 -2      1683      1746      1816      1866
 -1        74    3    0    1
 -2       443       760      1423      1700
 -1        75    3    0    1
 -2      1671      1620      1907      1992
 -1        76    3    0    1
 -2        18        16       496      1582
 -1        77    3    0    1
 -2        28       517       509       519
 -1        78    3    0    1
 -2       772       218       777      1031
 -1        79    3    0    1
 -2      1000       653      1187      1188
 -1        80    3    0    1
 -2        73       588       571       585
 -1        81    3    0    1
 -2       612       599       609       616
 -1        82    3    0    1
 -2        61       565        67       552
 -1        83    3    0    1
 -2       517        28       446       519
 -1        84    3    0    1
 -2      1598      1386      2080      2538
 -1        85    3    0    1
 -2       777       773       783       784
 -1        86    3    0    1
 -2       658      1001      2358      2714
 -1        87    3    0    1
 -2       532       525       539       543
 -1        88    3    0    1
 -2       620       992       986       619
 -1        89    3    0    1
 -2       234       787       796       801
 -1        90    3    0    1
 -2       516       502       513       520
 -1        91    3    0    1
 -2       660       131       140       664
 -1        92    3    0    1
 -2      1395      1543      1677      2201
 -1        93    3    0    1
 -2       393       532       537      1148
 -1        94    3    0    1
 -2      1085      1323      1607      1692
 -1        95    3    0    1
 -2      1861      1921      1946      2266
 -1        96    3    0    1
 -2       848       844       849       856
 -1        97    3    0    1
 -2      1407      1636      1662      1893
 -1        98    3    0    1
 -2        77       587       576        86
 -1        99    3    0    1
 -2       705       351       708       712
 -1       100    3    0    1
 -2      1228      1026       745      1224
 -1       101    3    0    1
 -2       528      1145       962       527
 -1       102    3    0    1
 -2      1616       335      2210      2392
 -1       103    3    0    1
 -2      1199      1009       675      2500
 -1       104    3    0    1
 -2       508        32       513       519
 -1       105    3    0    1
 -2       629       622       632       633
 -1       106    3    0    1
 -2      1693      1833      1845      2239
 -1       107    3    0    1
 -2      1699      1021      1877      2547
 -1       108    3    0    1
 -2       340       322      1472      1527
 -1       109    3    0    1
 -2        58       547       552       555
 -1       110    3    0    1
 -2       512       508       513       519
 -1       111    3    0    1
 -2      1412      1751      1862      1979
 -1       112    3    0    1
 -2       448        32       508       519
 -1       113    3    0    1
 -2       811       823       825       832
 -1       114    3    0    1
 -2      1473      1433      1501      1633
 -1       115    3    0    1
 -2        31        28       512       519
 -1       116    3    0    1
 -2       545       546       971      1153
 -1       117    3    0    1
 -2        28       509       512       519
 -1       118    3    0    1
 -2       207       748       759       760
 -1       119    3    0    1
 -2       509       508       512       519
 -1       120    3    0    1
 -2       211       443       751       760
 -1       121    3    0    1
 -2       686       680       670       688
 -1       122    3    0    1
 -2        63        64       555       968
 -1       123    3    0    1
 -2         9        13       495      2486
 -1       124    3    0    1
 -2       501       508       509       519
 -1       125    3    0    1
 -2       180       177       718       725
 -1       126    3    0    1
 -2       637       114       357       639
 -1       127    3    0    1
 -2       331      1773      2013      2401
 -1       128    3    0    1
 -2       146       674       673      1197
 -1       129    3    0    1
 -2       764       215       773       775
 -1       130    3    0    1
 -2       729       728       735       736
 -1       131    3    0    1
 -2      1881       399      1940      2185
 -1       132    3    0    1
 -2       840      1056       846       839
 -1       133    3    0    1
 -2       508       501       515       519
 -1       134    3    0    1
 -2       215       216       764       773
 -1       135    3    0    1
 -2       124       127       646       657
 -1       136    3    0    1
 -2      1752       436      2225      2257
 -1       137    3    0    1
 -2       627       116       633       639
 -1       138    3    0    1
 -2       751       443       759       760
 -1       139    3    0    1
 -2       259       820       825      1258
 -1       140    3    0    1
 -2      1617      1425      1658      2068
 -1       141    3    0    1
 -2      1995      1559      2091      2443
 -1       142    3    0    1
 -2       517       501       509       519
 -1       143    3    0    1
 -2        81       587       378       591
 -1       144    3    0    1
 -2        56       561      1154      1156
 -1       145    3    0    1
 -2       792       236       797       799
 -1       146    3    0    1
 -2      1949      2466      2467      2571
 -1       147    3    0    1
 -2      1511       167      2115      2163
 -1       148    3    0    1
 -2       504      1139       503       514
 -1       149    3    0    1
 -2       149       676       681      1202
 -1       150    3    0    1
 -2      1016      1217      2376      2449
 -1       151    3    0    1
 -2       352        94       608       615
 -1       152    3    0    1
 -2       636       622       633       640
 -1       153    3    0    1
 -2      1027       370      2062      2099
 -1       154    3    0    1
 -2      1320       314      1077      1717
 -1       155    3    0    1
 -2       638       334       632       640
 -1       156    3    0    1
 -2      1739      1605      2136      2237
 -1       157    3    0    1
 -2       756       209       371       760
 -1       158    3    0    1
 -2       407       602       414       983
 -1       159    3    0    1
 -2      1584      1422      1694      1778
 -1       160    3    0    1
 -2       185       192       736      1622
 -1       161    3    0    1
 -2       143       669       670       677
 -1       162    3    0    1
 -2      1468      1455      2243      2306
 -1       163    3    0    1
 -2       302      1279       350      1642
 -1       164    3    0    1
 -2       566        66       560       568
 -1       165    3    0    1
 -2       904      1306      1691      1823
 -1       166    3    0    1
 -2       609       603       981       982
 -1       167    3    0    1
 -2       647      1191       658       651
 -1       168    3    0    1
 -2         6      1499      1962      2120
 -1       169    3    0    1
 -2       692      1208      1204       691
 -1       170    3    0    1
 -2       119       118       633       640
 -1       171    3    0    1
 -2      1454      1539      2065      2533
 -1       172    3    0    1
 -2      1596      1547      1697      1806
 -1       173    3    0    1
 -2        37       522       521       961
 -1       174    3    0    1
 -2       821       262       823      1046
 -1       175    3    0    1
 -2       124       659       645       138
 -1       176    3    0    1
 -2      1429      1450      1632      1789
 -1       177    3    0    1
 -2      1627      1453      1839      1942
 -1       178    3    0    1
 -2       492       477       489       496
 -1       179    3    0    1
 -2       390        68       557      1345
 -1       180    3    0    1
 -2       513       955      1135      1139
 -1       181    3    0    1
 -2       123       650       649      1186
 -1       182    3    0    1
 -2       772       777       783      1690
 -1       183    3    0    1
 -2      1443      1319      1575      1641
 -1       184    3    0    1
 -2       609       362       982      1178
 -1       185    3    0    1
 -2        28        31       512       959
 -1       186    3    0    1
 -2       557        66       560       970
 -1       187    3    0    1
 -2      1194      2358      2444      2599
 -1       188    3    0    1
 -2      1522      1424      1548      2012
 -1       189    3    0    1
 -2       295       388      1536      2591
 -1       190    3    0    1
 -2       677       150       680      1200
 -1       191    3    0    1
 -2       376       185       735      2535
 -1       192    3    0    1
 -2       518        31       512       520
 -1       193    3    0    1
 -2       378      2294      2318      2490
 -1       194    3    0    1
 -2      2062      1027      2099      2142
 -1       195    3    0    1
 -2        90       612       599       609
 -1       196    3    0    1
 -2       986      1184       626       992
 -1       197    3    0    1
 -2       109       120       622       632
 -1       198    3    0    1
 -2      1457      1439      1612      1855
 -1       199    3    0    1
 -2       753       209      1027      1229
 -1       200    3    0    1
 -2       437       237      1041      1908
 -1       201    3    0    1
 -2      1178       981       609      1172
 -1       202    3    0    1
 -2       370      1700       759      2158
 -1       203    3    0    1
 -2      1901       183      1988      2097
 -1       204    3    0    1
 -2      1470      1572      2503      2726
 -1       205    3    0    1
 -2      1922      2473      2659      2661
 -1       206    3    0    1
 -2       571       584       585       592
 -1       207    3    0    1
 -2       677       676       680       688
 -1       208    3    0    1
 -2       292       869       872       880
 -1       209    3    0    1
 -2      2054      2029      2406      2594
 -1       210    3    0    1
 -2       119       633       639       640
 -1       211    3    0    1
 -2      1621       332      1699      1764
 -1       212    3    0    1
 -2       959      1754      1924      2687
 -1       213    3    0    1
 -2      1509      1530      1603      2000
 -1       214    3    0    1
 -2       318      1334      1094      1609
 -1       215    3    0    1
 -2        27        24       508       955
 -1       216    3    0    1
 -2       471       470      1110      1521
 -1       217    3    0    1
 -2       598      1177       983       606
 -1       218    3    0    1
 -2       690       159       689      1010
 -1       219    3    0    1
 -2      1406      1444      1779      1781
 -1       220    3    0    1
 -2       142       143       677      1196
 -1       221    3    0    1
 -2      1508      1518      1578      1790
 -1       222    3    0    1
 -2       648      1194      1190       647
 -1       223    3    0    1
 -2       241       256      2481      2749
 -1       224    3    0    1
 -2      1508      1675      1947      1983
 -1       225    3    0    1
 -2       582      2310      2341      2437
 -1       226    3    0    1
 -2      1492      1716      1859      2253
 -1       227    3    0    1
 -2      1780      1809      2063      2470
 -1       228    3    0    1
 -2       144       152       669       676
 -1       229    3    0    1
 -2      2027       409      1370      1371
 -1       230    3    0    1
 -2      1769      1788      1875      2211
 -1       231    3    0    1
 -2       667      1200      1008       678
 -1       232    3    0    1
 -2       671      1006       675       682
 -1       233    3    0    1
 -2      1727      1780      1809      2063
 -1       234    3    0    1
 -2       605       608       979       984
 -1       235    3    0    1
 -2      1443      1439      1473      1501
 -1       236    3    0    1
 -2       689       690      1010      1016
 -1       237    3    0    1
 -2        24       516        33       502
 -1       238    3    0    1
 -2       634       628       994      2324
 -1       239    3    0    1
 -2       999       654      1193      2135
 -1       240    3    0    1
 -2       908      1323      1085      1812
 -1       241    3    0    1
 -2       145       684       670       681
 -1       242    3    0    1
 -2       136       137       656       664
 -1       243    3    0    1
 -2       573       977       583       572
 -1       244    3    0    1
 -2        29        21       501       512
 -1       245    3    0    1
 -2       363      1477      2356      2631
 -1       246    3    0    1
 -2       417      1515      1570      1717
 -1       247    3    0    1
 -2      1018      1217      1023       716
 -1       248    3    0    1
 -2      1552      1488      1608      1618
 -1       249    3    0    1
 -2       308      1380      1409      1688
 -1       250    3    0    1
 -2       621       622       629       633
 -1       251    3    0    1
 -2       582       572       583       977
 -1       252    3    0    1
 -2       577       976      1163      1168
 -1       253    3    0    1
 -2        29       501       502       512
 -1       254    3    0    1
 -2      1544      1462      1564      1828
 -1       255    3    0    1
 -2       114       334       632       991
 -1       256    3    0    1
 -2       987       632       991      1179
 -1       257    3    0    1
 -2        75        79       581      1162
 -1       258    3    0    1
 -2       648      1191      1001       658
 -1       259    3    0    1
 -2       129       659       139       663
 -1       260    3    0    1
 -2       105       621       629       637
 -1       261    3    0    1
 -2       315      1338      1080      1562
 -1       262    3    0    1
 -2      1976       879      2591      2696
 -1       263    3    0    1
 -2       839      1264      1056       847
 -1       264    3    0    1
 -2      1288      1634      1776      1798
 -1       265    3    0    1
 -2       524      1147       523       535
 -1       266    3    0    1
 -2        29       518       502        34
 -1       267    3    0    1
 -2       599       596       603       608
 -1       268    3    0    1
 -2       598      1177       606       595
 -1       269    3    0    1
 -2      1774      1815      2275      2420
 -1       270    3    0    1
 -2       679      1682      1767      2005
 -1       271    3    0    1
 -2      1030      1226      2464      2542
 -1       272    3    0    1
 -2       598      1177       595      1170
 -1       273    3    0    1
 -2       134       661       653       663
 -1       274    3    0    1
 -2       887       888      1909      2409
 -1       275    3    0    1
 -2      2162      2145      2178      2685
 -1       276    3    0    1
 -2        89       613       596       605
 -1       277    3    0    1
 -2       425      2219      2297      2515
 -1       278    3    0    1
 -2      1466      1474      1653      2185
 -1       279    3    0    1
 -2       332       722       346      1219
 -1       280    3    0    1
 -2        42       541        43       525
 -1       281    3    0    1
 -2        72       570       569       974
 -1       282    3    0    1
 -2       501        24       502       513
 -1       283    3    0    1
 -2       603        90       609       981
 -1       284    3    0    1
 -2      2006      2054      2301      2437
 -1       285    3    0    1
 -2      1756      1444      1779      1890
 -1       286    3    0    1
 -2       136       656       662       664
 -1       287    3    0    1
 -2       599       608       609       616
 -1       288    3    0    1
 -2      2059      1615      2328      2531
 -1       289    3    0    1
 -2      2360      1137      2362      1352
 -1       290    3    0    1
 -2        90       599       603       609
 -1       291    3    0    1
 -2      1380      1409      1591      1646
 -1       292    3    0    1
 -2       325      1324       328      1516
 -1       293    3    0    1
 -2       552       555       557       567
 -1       294    3    0    1
 -2       400       966      1873      2379
 -1       295    3    0    1
 -2        89       605       608       979
 -1       296    3    0    1
 -2        97        90       599       603
 -1       297    3    0    1
 -2        87       602       601       980
 -1       298    3    0    1
 -2       334       632       991       993
 -1       299    3    0    1
 -2      2190      2387       261      2121
 -1       300    3    0    1
 -2       701       166       704      1015
 -1       301    3    0    1
 -2        92       611        98       615
 -1       302    3    0    1
 -2       501        21       509       512
 -1       303    3    0    1
 -2       645       652       653       663
 -1       304    3    0    1
 -2       644      1192       655       643
 -1       305    3    0    1
 -2       453      1719      2743      1355
 -1       306    3    0    1
 -2       668      1008       679       667
 -1       307    3    0    1
 -2      1016      1208      2205      2564
 -1       308    3    0    1
 -2       634      2272      2349      2480
 -1       309    3    0    1
 -2      1332      1575       921      1649
 -1       310    3    0    1
 -2       377       705       711       712
 -1       311    3    0    1
 -2       780       222       226       784
 -1       312    3    0    1
 -2       533        42      1141      1142
 -1       313    3    0    1
 -2      1546      1399      1574      1764
 -1       314    3    0    1
 -2       205      1430      1971      2045
 -1       315    3    0    1
 -2       154       688      1999      2558
 -1       316    3    0    1
 -2      1471      1606      2020      2034
 -1       317    3    0    1
 -2       773       764       775       777
 -1       318    3    0    1
 -2      1113       319      1093      1514
 -1       319    3    0    1
 -2      1083      1104      1635      1755
 -1       320    3    0    1
 -2       741       751       753       760
 -1       321    3    0    1
 -2       117      1910      2130      2356
 -1       322    3    0    1
 -2      2033      2298      2328      2455
 -1       323    3    0    1
 -2        58        56       547       555
 -1       324    3    0    1
 -2       125       662       656       646
 -1       325    3    0    1
 -2      1064       870      2297      2455
 -1       326    3    0    1
 -2       498       497       956       960
 -1       327    3    0    1
 -2       451       520      1987      2084
 -1       328    3    0    1
 -2       931       919      1612      1856
 -1       329    3    0    1
 -2       564        63        70       568
 -1       330    3    0    1
 -2      1594      1566      1640      1800
 -1       331    3    0    1
 -2       554       969      1152      1159
 -1       332    3    0    1
 -2      1404      1730      1914      2151
 -1       333    3    0    1
 -2       702       695       703      1209
 -1       334    3    0    1
 -2       524       535       964       966
 -1       335    3    0    1
 -2      1884      1990      2152      2734
 -1       336    3    0    1
 -2       215       782       764       229
 -1       337    3    0    1
 -2       705       704       711       712
 -1       338    3    0    1
 -2      1487      1279      1580      1642
 -1       339    3    0    1
 -2       436      1752      1923      2257
 -1       340    3    0    1
 -2       479       952       950       948
 -1       341    3    0    1
 -2       508       501       512       513
 -1       342    3    0    1
 -2       901      1116      1305      2154
 -1       343    3    0    1
 -2       720       719      1022      1214
 -1       344    3    0    1
 -2      1629       437      1750      2149
 -1       345    3    0    1
 -2       184       732       717       729
 -1       346    3    0    1
 -2       603       599       608       609
 -1       347    3    0    1
 -2       662       656       646       664
 -1       348    3    0    1
 -2       715      1023       730       723
 -1       349    3    0    1
 -2        24       501       508       513
 -1       350    3    0    1
 -2       664       663      2166      2497
 -1       351    3    0    1
 -2      1065       871       870      2519
 -1       352    3    0    1
 -2       676       670       677       680
 -1       353    3    0    1
 -2       603       596       611       615
 -1       354    3    0    1
 -2        90       612        99       599
 -1       355    3    0    1
 -2      2274      2466      2618      2704
 -1       356    3    0    1
 -2        24       516       502       513
 -1       357    3    0    1
 -2      1472      1527      1900      2021
 -1       358    3    0    1
 -2       648      1001       995       997
 -1       359    3    0    1
 -2       752       750      1227      2044
 -1       360    3    0    1
 -2      1694      1584      1756      1895
 -1       361    3    0    1
 -2       356      1008      1383      1682
 -1       362    3    0    1
 -2        92       603       609       982
 -1       363    3    0    1
 -2      1007       668      1195      1197
 -1       364    3    0    1
 -2       498       497       960      1352
 -1       365    3    0    1
 -2       797       799      1037      1042
 -1       366    3    0    1
 -2      1522      1697      2016      2367
 -1       367    3    0    1
 -2       419      1727      1817      2151
 -1       368    3    0    1
 -2       211       751       758       760
 -1       369    3    0    1
 -2      1546       332      1621      1764
 -1       370    3    0    1
 -2      1389      1425      2123      2159
 -1       371    3    0    1
 -2      1094      1426      1549      1703
 -1       372    3    0    1
 -2       137       134       656       664
 -1       373    3    0    1
 -2       391       393      2229      2523
 -1       374    3    0    1
 -2      1021       332      1699      1877
 -1       375    3    0    1
 -2       107       636       622       633
 -1       376    3    0    1
 -2      1515       417      1570      2208
 -1       377    3    0    1
 -2      1474      1379      1636      2366
 -1       378    3    0    1
 -2       644      1192      1000       655
 -1       379    3    0    1
 -2       239       807       808      1869
 -1       380    3    0    1
 -2        31       518       422       520
 -1       381    3    0    1
 -2       332      1621      1699      1723
 -1       382    3    0    1
 -2       245       806       799       787
 -1       383    3    0    1
 -2       470      1317      1521      1856
 -1       384    3    0    1
 -2        96       596       599       608
 -1       385    3    0    1
 -2      1530      1508      1603      2000
 -1       386    3    0    1
 -2      2169       982      2322      2350
 -1       387    3    0    1
 -2       958      1881      1896      2165
 -1       388    3    0    1
 -2       336       134      1192      1793
 -1       389    3    0    1
 -2       501        23       508       515
 -1       390    3    0    1
 -2        10       484       495       496
 -1       391    3    0    1
 -2       573      1168      1163       976
 -1       392    3    0    1
 -2      1590      1624      1846      2042
 -1       393    3    0    1
 -2      1302       897       898      1604
 -1       394    3    0    1
 -2      1637       925      1668      1823
 -1       395    3    0    1
 -2       506       505       958      1131
 -1       396    3    0    1
 -2       136      1000      2401      2429
 -1       397    3    0    1
 -2      1264       847      1729      2662
 -1       398    3    0    1
 -2       555       557       567       568
 -1       399    3    0    1
 -2       864      1065      1061       863
 -1       400    3    0    1
 -2       815      1045       814      1044
 -1       401    3    0    1
 -2      2471      1256      2481      2492
 -1       402    3    0    1
 -2      1450      1683      1746      1816
 -1       403    3    0    1
 -2       825       823       831       832
 -1       404    3    0    1
 -2      1498      1432      1535      1566
 -1       405    3    0    1
 -2       525       526       536       537
 -1       406    3    0    1
 -2      1973       404      2194      2316
 -1       407    3    0    1
 -2       135       133       645       653
 -1       408    3    0    1
 -2       897      1302      1299      1604
 -1       409    3    0    1
 -2       786       232       235      1244
 -1       410    3    0    1
 -2       504      1137       503       954
 -1       411    3    0    1
 -2       269       851       838       280
 -1       412    3    0    1
 -2      1462      1544      1567      1692
 -1       413    3    0    1
 -2       837       271       838       845
 -1       414    3    0    1
 -2      1632      1707      1789      2450
 -1       415    3    0    1
 -2       773       228       783       784
 -1       416    3    0    1
 -2       114       637       629       639
 -1       417    3    0    1
 -2      1505      1545      1623      1626
 -1       418    3    0    1
 -2       542       536       526       544
 -1       419    3    0    1
 -2       932      1332      1486      1575
 -1       420    3    0    1
 -2      1935      1397      2193      2374
 -1       421    3    0    1
 -2       220       228       784      1690
 -1       422    3    0    1
 -2       708       693       705       712
 -1       423    3    0    1
 -2       187       731       718       191
 -1       424    3    0    1
 -2        24       513       955      1135
 -1       425    3    0    1
 -2       845       279       855       856
 -1       426    3    0    1
 -2       195       753      1025      1221
 -1       427    3    0    1
 -2       456       844       855       856
 -1       428    3    0    1
 -2       270       845       848      1261
 -1       429    3    0    1
 -2        21       517        22       501
 -1       430    3    0    1
 -2       314      1320       417      1717
 -1       431    3    0    1
 -2      1471      1606      1801      1807
 -1       432    3    0    1
 -2      1480      1413      1747      1889
 -1       433    3    0    1
 -2      1433      1391      1443      1501
 -1       434    3    0    1
 -2        50       450      1796      1902
 -1       435    3    0    1
 -2       437      1247      1629      1908
 -1       436    3    0    1
 -2      1842      1836      2149      2233
 -1       437    3    0    1
 -2       135       645       646       653
 -1       438    3    0    1
 -2        50       541       533       543
 -1       439    3    0    1
 -2       560       557       561       568
 -1       440    3    0    1
 -2      1279       302      1068      1642
 -1       441    3    0    1
 -2      1819      1404      1914      2477
 -1       442    3    0    1
 -2       494        16       488       496
 -1       443    3    0    1
 -2       133       645       653       661
 -1       444    3    0    1
 -2      1651      1374      2109      2146
 -1       445    3    0    1
 -2       377       355       705      1013
 -1       446    3    0    1
 -2       449       447      2740      2760
 -1       447    3    0    1
 -2        32       516       513       520
 -1       448    3    0    1
 -2       149       154       681       688
 -1       449    3    0    1
 -2       799       239       807       808
 -1       450    3    0    1
 -2       726       719       727      1022
 -1       451    3    0    1
 -2       270       271       837       845
 -1       452    3    0    1
 -2      1029       752      1227      2044
 -1       453    3    0    1
 -2       579       576       581       585
 -1       454    3    0    1
 -2      1050       849      1262      1265
 -1       455    3    0    1
 -2      1448      1297      1549      1609
 -1       456    3    0    1
 -2       897      1519      1604      1931
 -1       457    3    0    1
 -2       920      1735      1788      1875
 -1       458    3    0    1
 -2       447       449      2360      1353
 -1       459    3    0    1
 -2       103       352       608       616
 -1       460    3    0    1
 -2      1438      1935      1973      2194
 -1       461    3    0    1
 -2       972      1167       977       572
 -1       462    3    0    1
 -2        16       494        18       496
 -1       463    3    0    1
 -2       555       561       968      1154
 -1       464    3    0    1
 -2      1672      1557      1788      2041
 -1       465    3    0    1
 -2       362       612       609       616
 -1       466    3    0    1
 -2      1718      1706      2111      2215
 -1       467    3    0    1
 -2      1192      1791      1793      1882
 -1       468    3    0    1
 -2      1719       960      2320      1355
 -1       469    3    0    1
 -2       572       582       583       976
 -1       470    3    0    1
 -2      1624      1590      1926      2042
 -1       471    3    0    1
 -2       491       394       484       495
 -1       472    3    0    1
 -2       107       621       627       633
 -1       473    3    0    1
 -2       635       116       627       639
 -1       474    3    0    1
 -2         9       493       485       495
 -1       475    3    0    1
 -2      1522      1541      1697      2367
 -1       476    3    0    1
 -2      2252       514      2320      2343
 -1       477    3    0    1
 -2       335       413       625       992
 -1       478    3    0    1
 -2       411      1867      2417      2498
 -1       479    3    0    1
 -2        80       590       411       592
 -1       480    3    0    1
 -2       541        50       450       543
 -1       481    3    0    1
 -2       127       660       132       646
 -1       482    3    0    1
 -2       560      1150        61       557
 -1       483    3    0    1
 -2      1403      1456      1486      1642
 -1       484    3    0    1
 -2       394       491       398       495
 -1       485    3    0    1
 -2      1434      1611      1724      2010
 -1       486    3    0    1
 -2      1425      1147      1658      1969
 -1       487    3    0    1
 -2        75       590       584       571
 -1       488    3    0    1
 -2      1395      1677      1801      2034
 -1       489    3    0    1
 -2       230       211       760      2224
 -1       490    3    0    1
 -2      1185       988       627      1182
 -1       491    3    0    1
 -2       368       222       772      1690
 -1       492    3    0    1
 -2       308      1291       312      1512
 -1       493    3    0    1
 -2       493         9        13       495
 -1       494    3    0    1
 -2       948       485       950      1126
 -1       495    3    0    1
 -2      1130        12      2361      2405
 -1       496    3    0    1
 -2      1583      1803      1859      2588
 -1       497    3    0    1
 -2       653       134       663       664
 -1       498    3    0    1
 -2      1116      2017      2509      2567
 -1       499    3    0    1
 -2        75       581       584      1162
 -1       500    3    0    1
 -2      1160       968      2300      2514
 -1       501    3    0    1
 -2       516        32       451       520
 -1       502    3    0    1
 -2      1352       497       447       498
 -1       503    3    0    1
 -2       504      1137       514       503
 -1       504    3    0    1
 -2      1448      1471      1801      2034
 -1       505    3    0    1
 -2       329      1568      1106      1644
 -1       506    3    0    1
 -2      1540      1452      1905      1909
 -1       507    3    0    1
 -2       508        24       513       955
 -1       508    3    0    1
 -2       253       830       823       811
 -1       509    3    0    1
 -2       667       678       679      1007
 -1       510    3    0    1
 -2        54       547       561       564
 -1       511    3    0    1
 -2      1440      1426      1656      1703
 -1       512    3    0    1
 -2       970       560      1150      1151
 -1       513    3    0    1
 -2      1758      1732      1915      2269
 -1       514    3    0    1
 -2       116       990      1185      2272
 -1       515    3    0    1
 -2        20       498       497       956
 -1       516    3    0    1
 -2       834       833      1051      1058
 -1       517    3    0    1
 -2       600      1178       982       604
 -1       518    3    0    1
 -2       830       823       811       832
 -1       519    3    0    1
 -2      1597      1407      1662      1893
 -1       520    3    0    1
 -2         4       485       488       948
 -1       521    3    0    1
 -2       394        10       484       495
 -1       522    3    0    1
 -2       590        80       584       592
 -1       523    3    0    1
 -2       131       660       657       664
 -1       524    3    0    1
 -2      1795      1782      1984      2015
 -1       525    3    0    1
 -2       478       484       485       495
 -1       526    3    0    1
 -2       491       484       478       495
 -1       527    3    0    1
 -2       835      1265       843       850
 -1       528    3    0    1
 -2       106       105       621       629
 -1       529    3    0    1
 -2      1523      1496      1552      1911
 -1       530    3    0    1
 -2         2       477       478       484
 -1       531    3    0    1
 -2       493       478       485       495
 -1       532    3    0    1
 -2      1434      1396      2010      2493
 -1       533    3    0    1
 -2      1501      1439      1724      2010
 -1       534    3    0    1
 -2        38       529      1140      1143
 -1       535    3    0    1
 -2       308       312      1409      1512
 -1       536    3    0    1
 -2       557       390       567       568
 -1       537    3    0    1
 -2       480       951       479       949
 -1       538    3    0    1
 -2       143       685       155       669
 -1       539    3    0    1
 -2       952        18      2226      2502
 -1       540    3    0    1
 -2       254       255       825      1254
 -1       541    3    0    1
 -2      1902      1820      2202      2381
 -1       542    3    0    1
 -2      1569      1727      1780      2197
 -1       543    3    0    1
 -2       103       608       614       616
 -1       544    3    0    1
 -2       498        20        25       956
 -1       545    3    0    1
 -2       644      1000      1187      1188
 -1       546    3    0    1
 -2       522        37        47       961
 -1       547    3    0    1
 -2       680       676       681       688
 -1       548    3    0    1
 -2        57       546      1153      1155
 -1       549    3    0    1
 -2       304      1069      1282      1567
 -1       550    3    0    1
 -2      1815      1310      2275      2420
 -1       551    3    0    1
 -2      1021       726      2547      2657
 -1       552    3    0    1
 -2       522       521       961      1146
 -1       553    3    0    1
 -2        41       540        46       526
 -1       554    3    0    1
 -2       531       527       538       967
 -1       555    3    0    1
 -2      1336       900      1075      1730
 -1       556    3    0    1
 -2        40        42       525       533
 -1       557    3    0    1
 -2       547       552       555       557
 -1       558    3    0    1
 -2        32       513       519       520
 -1       559    3    0    1
 -2       521        37       961       963
 -1       560    3    0    1
 -2        89       613       100       596
 -1       561    3    0    1
 -2       413      1616      1678      1711
 -1       562    3    0    1
 -2        23        27       501       508
 -1       563    3    0    1
 -2       533       525       536       537
 -1       564    3    0    1
 -2        64       555       567       568
 -1       565    3    0    1
 -2      1200      1008       678      1599
 -1       566    3    0    1
 -2      2296      2348      1356      1360
 -1       567    3    0    1
 -2       653       652       657       664
 -1       568    3    0    1
 -2       602       414       983      1177
 -1       569    3    0    1
 -2      1698      1601      1770      1797
 -1       570    3    0    1
 -2        29        21       512      1133
 -1       571    3    0    1
 -2       120       106       622       632
 -1       572    3    0    1
 -2      1586      1670      2214      2582
 -1       573    3    0    1
 -2      1998      2391      2556      2600
 -1       574    3    0    1
 -2       125       135       653      1188
 -1       575    3    0    1
 -2       547        61       552       557
 -1       576    3    0    1
 -2      1051       834      1058      1263
 -1       577    3    0    1
 -2      1480       437      2147      2384
 -1       578    3    0    1
 -2      2049      1468      2243      2306
 -1       579    3    0    1
 -2       183       344      1988      2097
 -1       580    3    0    1
 -2       477       478       484       485
 -1       581    3    0    1
 -2        30       505      1131      1134
 -1       582    3    0    1
 -2      1433      1443      1575      1641
 -1       583    3    0    1
 -2      1459      1741      1753      1950
 -1       584    3    0    1
 -2      1059      1271       860      1267
 -1       585    3    0    1
 -2        42       541       525       533
 -1       586    3    0    1
 -2      1413      1459      1753      1847
 -1       587    3    0    1
 -2      1656      1426      1811      2067
 -1       588    3    0    1
 -2       957       500       959      1133
 -1       589    3    0    1
 -2       456       855      2260      2314
 -1       590    3    0    1
 -2      1383       356      1682      2232
 -1       591    3    0    1
 -2        10       492       489       496
 -1       592    3    0    1
 -2        41       525       532       537
 -1       593    3    0    1
 -2       608       603       609       616
 -1       594    3    0    1
 -2       334       640      2227      2407
 -1       595    3    0    1
 -2       594       593      1174      1175
 -1       596    3    0    1
 -2      1757      1701      1850      2244
 -1       597    3    0    1
 -2       292       872      1063      1065
 -1       598    3    0    1
 -2      1782      1048      1795      2134
 -1       599    3    0    1
 -2      1265       843       850      2335
 -1       600    3    0    1
 -2       600      1178       604       597
 -1       601    3    0    1
 -2      1606      1295      1807      2020
 -1       602    3    0    1
 -2      1911      1744      2112      2656
 -1       603    3    0    1
 -2       547       561       564       568
 -1       604    3    0    1
 -2      2337      1885      2745      2746
 -1       605    3    0    1
 -2       277      1262      1265      1965
 -1       606    3    0    1
 -2      1383       688      2573      2634
 -1       607    3    0    1
 -2      1535      1498      1811      2201
 -1       608    3    0    1
 -2      1302      1299      1931      2072
 -1       609    3    0    1
 -2       158       705      1011      1203
 -1       610    3    0    1
 -2        41       540       526       537
 -1       611    3    0    1
 -2      1806      2040      2055      2060
 -1       612    3    0    1
 -2      1433      1443      1473      1501
 -1       613    3    0    1
 -2       532       525       533       537
 -1       614    3    0    1
 -2      2299      2037      2498      2670
 -1       615    3    0    1
 -2        10       394      2361      2674
 -1       616    3    0    1
 -2       614       608       599       616
 -1       617    3    0    1
 -2      1810      1056      1953      2476
 -1       618    3    0    1
 -2      1229       754      1665      2142
 -1       619    3    0    1
 -2       485       484       488       496
 -1       620    3    0    1
 -2         9       485       488       496
 -1       621    3    0    1
 -2       484       485       495       496
 -1       622    3    0    1
 -2       561       968      1154      1156
 -1       623    3    0    1
 -2        40       533       536      1142
 -1       624    3    0    1
 -2        10       484       489      1130
 -1       625    3    0    1
 -2      1404      1730      1906      1914
 -1       626    3    0    1
 -2      1402      1598      1638      1669
 -1       627    3    0    1
 -2       513       512       519       520
 -1       628    3    0    1
 -2      1432      1381      1613      1854
 -1       629    3    0    1
 -2      1116       937      2017      2154
 -1       630    3    0    1
 -2       868       861       869       873
 -1       631    3    0    1
 -2         2         3       477       489
 -1       632    3    0    1
 -2         3       492        19       477
 -1       633    3    0    1
 -2       621       627       629       639
 -1       634    3    0    1
 -2       294       284       857      1267
 -1       635    3    0    1
 -2      1817       419      2151      2176
 -1       636    3    0    1
 -2       812       813       822      1047
 -1       637    3    0    1
 -2       812      1047      1250      1251
 -1       638    3    0    1
 -2       270       271       845      1261
 -1       639    3    0    1
 -2        64       563        69       567
 -1       640    3    0    1
 -2       422       450      2381      2487
 -1       641    3    0    1
 -2       533       532       537       543
 -1       642    3    0    1
 -2         5       482         8       949
 -1       643    3    0    1
 -2       861       872       873       880
 -1       644    3    0    1
 -2      1248      1039       801      1241
 -1       645    3    0    1
 -2        26        30       505      1131
 -1       646    3    0    1
 -2        15         4       477       488
 -1       647    3    0    1
 -2      1801      1378      1853      2098
 -1       648    3    0    1
 -2       125       135       646       653
 -1       649    3    0    1
 -2       525        41       526       537
 -1       650    3    0    1
 -2      1628      1666      1878      2022
 -1       651    3    0    1
 -2       766      1034      1233      1234
 -1       652    3    0    1
 -2      1553      1405      1830      1941
 -1       653    3    0    1
 -2       869       868       873       880
 -1       654    3    0    1
 -2        94       613       605       615
 -1       655    3    0    1
 -2      1119      2605      2701      2719
 -1       656    3    0    1
 -2       238       233       793      1038
 -1       657    3    0    1
 -2        14        15       477       488
 -1       658    3    0    1
 -2       804       243       381       808
 -1       659    3    0    1
 -2       581       579       585       591
 -1       660    3    0    1
 -2      1332       921      1102      1649
 -1       661    3    0    1
 -2       791      1040       795       788
 -1       662    3    0    1
 -2       624       994       634       623
 -1       663    3    0    1
 -2      1481      1427      1947      2030
 -1       664    3    0    1
 -2      1399      1396      1479      1611
 -1       665    3    0    1
 -2       220       773       775       784
 -1       666    3    0    1
 -2      1491      2530      2652      2683
 -1       667    3    0    1
 -2      1453      1563      2048      2114
 -1       668    3    0    1
 -2      1084      1753      2011      2275
 -1       669    3    0    1
 -2       787       799       801       808
 -1       670    3    0    1
 -2       613       596       605       615
 -1       671    3    0    1
 -2      1717      1515      1912      2102
 -1       672    3    0    1
 -2       661       134       336       663
 -1       673    3    0    1
 -2      2219       425      2297      2455
 -1       674    3    0    1
 -2      1462      1544      1812      1824
 -1       675    3    0    1
 -2       382       589       581       591
 -1       676    3    0    1
 -2       536        48       543       544
 -1       677    3    0    1
 -2      2091      1961      2277      2545
 -1       678    3    0    1
 -2       577        74       578      1163
 -1       679    3    0    1
 -2       537       391       540       544
 -1       680    3    0    1
 -2      1315       306       320      1626
 -1       681    3    0    1
 -2       812      1257      1250      1047
 -1       682    3    0    1
 -2       693       704       705       712
 -1       683    3    0    1
 -2       701       166      1015      1209
 -1       684    3    0    1
 -2       168       710       174       712
 -1       685    3    0    1
 -2       484        10      1127      1130
 -1       686    3    0    1
 -2      1861       414      1921      2184
 -1       687    3    0    1
 -2      2723      1719      2725      2764
 -1       688    3    0    1
 -2      1108       929      1507      1676
 -1       689    3    0    1
 -2       863       870       871      1064
 -1       690    3    0    1
 -2       121       641       642       997
 -1       691    3    0    1
 -2      1510      1430      1708      1971
 -1       692    3    0    1
 -2      1904       538      2107      2281
 -1       693    3    0    1
 -2       605       603       608       615
 -1       694    3    0    1
 -2       674       146       147      1197
 -1       695    3    0    1
 -2       519      2087      2126      2373
 -1       696    3    0    1
 -2       319      1113       415      1514
 -1       697    3    0    1
 -2        75       590       571        85
 -1       698    3    0    1
 -2       200       755       748       742
 -1       699    3    0    1
 -2      1412      1647      1751      1979
 -1       700    3    0    1
 -2       917      1109      1315      1849
 -1       701    3    0    1
 -2       211       230      1993      1996
 -1       702    3    0    1
 -2      1128      2336      2360      2747
 -1       703    3    0    1
 -2      1572      1470      1767      2005
 -1       704    3    0    1
 -2      1293      1292      1523      1618
 -1       705    3    0    1
 -2       187       184       724      1019
 -1       706    3    0    1
 -2      1419      1519      1604      2110
 -1       707    3    0    1
 -2      1405      1565      1830      1941
 -1       708    3    0    1
 -2       635       627       621       639
 -1       709    3    0    1
 -2       512        31       519       520
 -1       710    3    0    1
 -2       340       322      1527      1735
 -1       711    3    0    1
 -2       369       783      2024      2287
 -1       712    3    0    1
 -2       485       948       950       952
 -1       713    3    0    1
 -2      1843      1257      2082      2221
 -1       714    3    0    1
 -2       756       741       753       760
 -1       715    3    0    1
 -2       751       748       753       760
 -1       716    3    0    1
 -2       535       964       966      1533
 -1       717    3    0    1
 -2       801       243       808      1869
 -1       718    3    0    1
 -2       782       775       764       784
 -1       719    3    0    1
 -2       620       993       619       987
 -1       720    3    0    1
 -2      1428      1532      2266      2367
 -1       721    3    0    1
 -2      2245      1944      2395      2495
 -1       722    3    0    1
 -2      1258       264      2121      2291
 -1       723    3    0    1
 -2       161       165       694       700
 -1       724    3    0    1
 -2       959      1783      1820      2202
 -1       725    3    0    1
 -2      1617      1158      2170      2379
 -1       726    3    0    1
 -2       621       629       637       639
 -1       727    3    0    1
 -2      1631      1799      1830      2462
 -1       728    3    0    1
 -2       772       218      1031      1230
 -1       729    3    0    1
 -2       187       731       724       718
 -1       730    3    0    1
 -2      1498      1555      1566      1594
 -1       731    3    0    1
 -2       416      1382      1736      2180
 -1       732    3    0    1
 -2       869       861       872       873
 -1       733    3    0    1
 -2       676       677       687       688
 -1       734    3    0    1
 -2       694       163       701       704
 -1       735    3    0    1
 -2        63       564       561       568
 -1       736    3    0    1
 -2       356      1008      1682      1934
 -1       737    3    0    1
 -2      1758      2264      2268      2269
 -1       738    3    0    1
 -2      1063      1065       870      2519
 -1       739    3    0    1
 -2       999      1808      1863      2161
 -1       740    3    0    1
 -2       846      1055      1810      2172
 -1       741    3    0    1
 -2       724       718       725       728
 -1       742    3    0    1
 -2       732       717       729       736
 -1       743    3    0    1
 -2       992       413      1678      1711
 -1       744    3    0    1
 -2      2442      2053      2093      1464
 -1       745    3    0    1
 -2      2081      1531      2155      2240
 -1       746    3    0    1
 -2       185       729       735       736
 -1       747    3    0    1
 -2       184       717       718       729
 -1       748    3    0    1
 -2      1437      1388      1493      2102
 -1       749    3    0    1
 -2       453       447      1719      1355
 -1       750    3    0    1
 -2      1559      1879      2089      2091
 -1       751    3    0    1
 -2       724       184       729      1019
 -1       752    3    0    1
 -2       704       693       710       712
 -1       753    3    0    1
 -2       677       680      1196      1200
 -1       754    3    0    1
 -2      1487      2128      2562      2276
 -1       755    3    0    1
 -2      1158       970       559      1680
 -1       756    3    0    1
 -2      2150      1445      2517      2571
 -1       757    3    0    1
 -2       226       222      2506      2625
 -1       758    3    0    1
 -2       293       868       873      1273
 -1       759    3    0    1
 -2       608       352       615       616
 -1       760    3    0    1
 -2       646       656       657       664
 -1       761    3    0    1
 -2       613        94       101       615
 -1       762    3    0    1
 -2      1457      1100      1612      1641
 -1       763    3    0    1
 -2       669       144       676       683
 -1       764    3    0    1
 -2      2225      1752      2257      2610
 -1       765    3    0    1
 -2       979       605       984      1176
 -1       766    3    0    1
 -2       700       158       705      1011
 -1       767    3    0    1
 -2       560        61        55       547
 -1       768    3    0    1
 -2      1683      1384      1761      2103
 -1       769    3    0    1
 -2       111       635       621       115
 -1       770    3    0    1
 -2      1400      1377      2695      2718
 -1       771    3    0    1
 -2       602        87        95       980
 -1       772    3    0    1
 -2        40       525       526       536
 -1       773    3    0    1
 -2       162       698      1012      1206
 -1       774    3    0    1
 -2      1319      1111      1443      1575
 -1       775    3    0    1
 -2      1527      1557      2001      2021
 -1       776    3    0    1
 -2         4       493        17       478
 -1       777    3    0    1
 -2      1100      1331      1612      1641
 -1       778    3    0    1
 -2       129       652       663       664
 -1       779    3    0    1
 -2       134       653       656       664
 -1       780    3    0    1
 -2      1422      1584      1694      1895
 -1       781    3    0    1
 -2       644      1193      1189       643
 -1       782    3    0    1
 -2      1681       134      1793      1882
 -1       783    3    0    1
 -2       131       129       657      1194
 -1       784    3    0    1
 -2         4       493       478       485
 -1       785    3    0    1
 -2       484       477       488       489
 -1       786    3    0    1
 -2      1456      1403      1580      1642
 -1       787    3    0    1
 -2      2701      2011       907      2719
 -1       788    3    0    1
 -2       596        88       603       611
 -1       789    3    0    1
 -2       334       114       632       640
 -1       790    3    0    1
 -2       652       653       663       664
 -1       791    3    0    1
 -2         2       477       484       489
 -1       792    3    0    1
 -2       684       670       681       688
 -1       793    3    0    1
 -2        55       566       547        65
 -1       794    3    0    1
 -2      1502      1219      1877      1883
 -1       795    3    0    1
 -2       557       547       560       561
 -1       796    3    0    1
 -2       554       402       969      1159
 -1       797    3    0    1
 -2        92       603       615       616
 -1       798    3    0    1
 -2       167      1664      2115      2452
 -1       799    3    0    1
 -2       276      1639      2327      2352
 -1       800    3    0    1
 -2      1434      1396      1611      2010
 -1       801    3    0    1
 -2       619       987       991      1179
 -1       802    3    0    1
 -2         2       491       484       478
 -1       803    3    0    1
 -2       669       152       670       676
 -1       804    3    0    1
 -2      1495      1481      1675      1942
 -1       805    3    0    1
 -2       129       131       657       664
 -1       806    3    0    1
 -2       127       660       646       657
 -1       807    3    0    1
 -2      1432      1498      1555      1566
 -1       808    3    0    1
 -2      1291      1409      1512      1593
 -1       809    3    0    1
 -2        96       614       599       102
 -1       810    3    0    1
 -2       142       680      1002      1196
 -1       811    3    0    1
 -2      1393      1494      1846      1905
 -1       812    3    0    1
 -2      1217      2175      2449      1348
 -1       813    3    0    1
 -2      2280       349      2724      2726
 -1       814    3    0    1
 -2      1008      1383      1682      1872
 -1       815    3    0    1
 -2      1667      1219      1844      1883
 -1       816    3    0    1
 -2       747      1027      2062      2142
 -1       817    3    0    1
 -2       142       686       680       670
 -1       818    3    0    1
 -2      2219      1465      2413      2515
 -1       819    3    0    1
 -2      1547      1806      2037      2055
 -1       820    3    0    1
 -2       603        92       609       616
 -1       821    3    0    1
 -2      1137       504       960       954
 -1       822    3    0    1
 -2      1272      1064       871      2223
 -1       823    3    0    1
 -2        58       563       552        59
 -1       824    3    0    1
 -2       104       626       625       986
 -1       825    3    0    1
 -2       962      1148       532      1145
 -1       826    3    0    1
 -2       676       149       681       688
 -1       827    3    0    1
 -2       673      1007      1197      1201
 -1       828    3    0    1
 -2      1593      1512      2114      2256
 -1       829    3    0    1
 -2       646       645       652       653
 -1       830    3    0    1
 -2       211      1029      1993      2474
 -1       831    3    0    1
 -2       587       579       576       591
 -1       832    3    0    1
 -2        40       542       536       526
 -1       833    3    0    1
 -2       333      1840      2216      2441
 -1       834    3    0    1
 -2       981      1178       609       982
 -1       835    3    0    1
 -2      1817      1914      2176      2197
 -1       836    3    0    1
 -2      1576      1539      1845      2065
 -1       837    3    0    1
 -2       623       990       628       634
 -1       838    3    0    1
 -2       588       571       585       592
 -1       839    3    0    1
 -2       672      1009       682       671
 -1       840    3    0    1
 -2        96        89       596       608
 -1       841    3    0    1
 -2       289       878       861       297
 -1       842    3    0    1
 -2        58        56       555      1154
 -1       843    3    0    1
 -2        77       587       579       576
 -1       844    3    0    1
 -2       645       124       646       652
 -1       845    3    0    1
 -2       976       573      1161      1163
 -1       846    3    0    1
 -2       107       636       108       622
 -1       847    3    0    1
 -2       670       680       681       688
 -1       848    3    0    1
 -2       185       724       729      1020
 -1       849    3    0    1
 -2       421      1138      1968      2165
 -1       850    3    0    1
 -2      1200      1002       680      1196
 -1       851    3    0    1
 -2       656       653      1000      1188
 -1       852    3    0    1
 -2       611        92       603       615
 -1       853    3    0    1
 -2       477        14       488       494
 -1       854    3    0    1
 -2       629       627       633       639
 -1       855    3    0    1
 -2        92        98       982      2169
 -1       856    3    0    1
 -2       699      1794      2564      2712
 -1       857    3    0    1
 -2       807       796       808      1869
 -1       858    3    0    1
 -2       114       629       632       640
 -1       859    3    0    1
 -2      2473       291      2660      2661
 -1       860    3    0    1
 -2       596        97       599       603
 -1       861    3    0    1
 -2       184       732       188       717
 -1       862    3    0    1
 -2       734       183       728       736
 -1       863    3    0    1
 -2       185       732       729       736
 -1       864    3    0    1
 -2       744      1228       750       743
 -1       865    3    0    1
 -2       405        66       568      1602
 -1       866    3    0    1
 -2       748       751       759       760
 -1       867    3    0    1
 -2       684       154       354       688
 -1       868    3    0    1
 -2       742       198       749       751
 -1       869    3    0    1
 -2        64        63       555       568
 -1       870    3    0    1
 -2       218       779       772       767
 -1       871    3    0    1
 -2       791      1245      1244      1043
 -1       872    3    0    1
 -2       806       799       787       808
 -1       873    3    0    1
 -2       528       967       538       527
 -1       874    3    0    1
 -2       596        89       605       608
 -1       875    3    0    1
 -2        61       565       552       557
 -1       876    3    0    1
 -2       980      1177       598      1170
 -1       877    3    0    1
 -2       563        64       555       567
 -1       878    3    0    1
 -2       691      1211       699       706
 -1       879    3    0    1
 -2       631      1184      1711      2108
 -1       880    3    0    1
 -2        32       451       520      1987
 -1       881    3    0    1
 -2       355       700       705      1013
 -1       882    3    0    1
 -2      1518      1508      1530      2083
 -1       883    3    0    1
 -2       124       659       652       645
 -1       884    3    0    1
 -2       125       662       646       126
 -1       885    3    0    1
 -2      1501      1396      1611      1763
 -1       886    3    0    1
 -2        77        73       576       579
 -1       887    3    0    1
 -2       141       665       666      1003
 -1       888    3    0    1
 -2        58       563       555       552
 -1       889    3    0    1
 -2      1287      1288      1634      1776
 -1       890    3    0    1
 -2      1820      1783      2284      2438
 -1       891    3    0    1
 -2       392        49      2344      1359
 -1       892    3    0    1
 -2       659       652       645       663
 -1       893    3    0    1
 -2      1938       885      2309      2424
 -1       894    3    0    1
 -2       991       357      2505      2516
 -1       895    3    0    1
 -2        61      1151       560        55
 -1       896    3    0    1
 -2      1465      1411      1631      2413
 -1       897    3    0    1
 -2       473      1124       946         1
 -1       898    3    0    1
 -2      1320       902       922      1600
 -1       899    3    0    1
 -2       438      1341      1949      2467
 -1       900    3    0    1
 -2       648      1191       658       647
 -1       901    3    0    1
 -2       228       220       773      1237
 -1       902    3    0    1
 -2       859      1066       874       867
 -1       903    3    0    1
 -2       231      1595      1814      2394
 -1       904    3    0    1
 -2       414      1861      1921      1946
 -1       905    3    0    1
 -2      1511      1663      1704      2163
 -1       906    3    0    1
 -2       211       443       760      1423
 -1       907    3    0    1
 -2        75        79       571       581
 -1       908    3    0    1
 -2       961       521       967      1146
 -1       909    3    0    1
 -2      1247       800      1836      1842
 -1       910    3    0    1
 -2      1072       891      1290      1659
 -1       911    3    0    1
 -2      1058      1271      2359      1350
 -1       912    3    0    1
 -2       868       869       879       880
 -1       913    3    0    1
 -2       902      1320      1077      1600
 -1       914    3    0    1
 -2        48        50       533       543
 -1       915    3    0    1
 -2       262       830       387       832
 -1       916    3    0    1
 -2        62        60       553      1149
 -1       917    3    0    1
 -2       253       830       811       266
 -1       918    3    0    1
 -2      1923       433      2257      2457
 -1       919    3    0    1
 -2       234       240       787       801
 -1       920    3    0    1
 -2       812       822       824      1047
 -1       921    3    0    1
 -2       485       488       948       952
 -1       922    3    0    1
 -2       502       512       513       520
 -1       923    3    0    1
 -2      1584      1890      1895      1920
 -1       924    3    0    1
 -2       596       603       605       615
 -1       925    3    0    1
 -2        16         9       488       496
 -1       926    3    0    1
 -2       488       477       494       496
 -1       927    3    0    1
 -2      1451      1676      1955      1964
 -1       928    3    0    1
 -2      1781      1784      1864      2479
 -1       929    3    0    1
 -2       594        91        93      1174
 -1       930    3    0    1
 -2        21       509       512      1133
 -1       931    3    0    1
 -2         9        16       488       952
 -1       932    3    0    1
 -2       477         4       478       485
 -1       933    3    0    1
 -2       839       846       847      1056
 -1       934    3    0    1
 -2       726      2106      2547      2657
 -1       935    3    0    1
 -2       964       524       966      1142
 -1       936    3    0    1
 -2        48       542       400       544
 -1       937    3    0    1
 -2       388       295       879      2591
 -1       938    3    0    1
 -2      1956      2447      2596      2698
 -1       939    3    0    1
 -2      1429      1630      1632      2426
 -1       940    3    0    1
 -2       484        10       489       496
 -1       941    3    0    1
 -2       525        44       532       539
 -1       942    3    0    1
 -2      1415      1769      1805      2211
 -1       943    3    0    1
 -2        32       448       508      1136
 -1       944    3    0    1
 -2       504      1139      1135       503
 -1       945    3    0    1
 -2       529       420       965      1147
 -1       946    3    0    1
 -2       570        72        76       974
 -1       947    3    0    1
 -2      1014      1765      2141      2163
 -1       948    3    0    1
 -2       501       502       512       513
 -1       949    3    0    1
 -2       482         6       416       951
 -1       950    3    0    1
 -2        96        89       608       979
 -1       951    3    0    1
 -2        96       614       608       599
 -1       952    3    0    1
 -2       981      1178       982       600
 -1       953    3    0    1
 -2       593       985      1174      1175
 -1       954    3    0    1
 -2      1107       920      1101      1735
 -1       955    3    0    1
 -2       304      1323       327      1607
 -1       956    3    0    1
 -2       111       107       621       627
 -1       957    3    0    1
 -2       549      1158       559       548
 -1       958    3    0    1
 -2       334       638       342       640
 -1       959    3    0    1
 -2       627       107       633      1182
 -1       960    3    0    1
 -2        78        74       577      1163
 -1       961    3    0    1
 -2       551      1160       550       562
 -1       962    3    0    1
 -2      1470      1572      2141      2503
 -1       963    3    0    1
 -2        66       566       405       568
 -1       964    3    0    1
 -2       703      1579      2415      2643
 -1       965    3    0    1
 -2      2486       496      2502      2512
 -1       966    3    0    1
 -2       951      2145      2186      2581
 -1       967    3    0    1
 -2      1751      1647      1858      2056
 -1       968    3    0    1
 -2       589       576       581       591
 -1       969    3    0    1
 -2       211       230      1996      2224
 -1       970    3    0    1
 -2      1835      1879      2089      2569
 -1       971    3    0    1
 -2       503      1137       514       507
 -1       972    3    0    1
 -2       566       560       547       568
 -1       973    3    0    1
 -2       504       960       954       956
 -1       974    3    0    1
 -2         3       492       477       489
 -1       975    3    0    1
 -2       660       646       657       664
 -1       976    3    0    1
 -2        49       392      2321      2729
 -1       977    3    0    1
 -2      1294       319      1488      1497
 -1       978    3    0    1
 -2        73       588        82       571
 -1       979    3    0    1
 -2      1150       560        61      1151
 -1       980    3    0    1
 -2       844       277       849       856
 -1       981    3    0    1
 -2       612       362       363       616
 -1       982    3    0    1
 -2      1064       870      2033      2297
 -1       983    3    0    1
 -2       659       129       652       663
 -1       984    3    0    1
 -2      1157       551       971      1155
 -1       985    3    0    1
 -2       351       712      1974      2459
 -1       986    3    0    1
 -2       488       484       489       496
 -1       987    3    0    1
 -2       705       377      1013      1211
 -1       988    3    0    1
 -2       196       738       737      1024
 -1       989    3    0    1
 -2       492        10        12       496
 -1       990    3    0    1
 -2      1032      1236       762      1036
 -1       991    3    0    1
 -2       111       635       627       621
 -1       992    3    0    1
 -2       653       646       656       657
 -1       993    3    0    1
 -2      1721      2479      1781      2096
 -1       994    3    0    1
 -2       335      1571      1616      2210
 -1       995    3    0    1
 -2       121       128       641       997
 -1       996    3    0    1
 -2       507       514      1139      2343
 -1       997    3    0    1
 -2      2310      2006      2437      2594
 -1       998    3    0    1
 -2       653      1000      1187      1192
 -1       999    3    0    1
 -2       576       579       581       591
 -1      1000    3    0    1
 -2       504      1137       960       514
 -1      1001    3    0    1
 -2       499       500       957      1132
 -1      1002    3    0    1
 -2      1945       970      2029      2031
 -1      1003    3    0    1
 -2       585       581       591       592
 -1      1004    3    0    1
 -2       539       452       532       543
 -1      1005    3    0    1
 -2       547       560       561       568
 -1      1006    3    0    1
 -2        27        24       501       508
 -1      1007    3    0    1
 -2       526       536       537       544
 -1      1008    3    0    1
 -2        21       517       501       509
 -1      1009    3    0    1
 -2        73       571       576       585
 -1      1010    3    0    1
 -2      1071      1291      1512      1593
 -1      1011    3    0    1
 -2      1541      1522      1918      1986
 -1      1012    3    0    1
 -2       481       482       949       951
 -1      1013    3    0    1
 -2       525       532       533       543
 -1      1014    3    0    1
 -2       317      1091      1967      2382
 -1      1015    3    0    1
 -2      1422      1581      1900      1932
 -1      1016    3    0    1
 -2      1423       211      1993      1996
 -1      1017    3    0    1
 -2       590       584       571       592
 -1      1018    3    0    1
 -2      1068      1580      1642      1649
 -1      1019    3    0    1
 -2        56       547       555       561
 -1      1020    3    0    1
 -2      2524      2051      2618      2619
 -1      1021    3    0    1
 -2      1666      1628      1685      1997
 -1      1022    3    0    1
 -2      1390       341      1528      1756
 -1      1023    3    0    1
 -2        45        41       525       532
 -1      1024    3    0    1
 -2       393       537       543       544
 -1      1025    3    0    1
 -2       523       524       964      1141
 -1      1026    3    0    1
 -2        40        42       533      1142
 -1      1027    3    0    1
 -2         9      2242      2486      2502
 -1      1028    3    0    1
 -2       588        83       364       592
 -1      1029    3    0    1
 -2       622       632       633       640
 -1      1030    3    0    1
 -2       740      1229       747       739
 -1      1031    3    0    1
 -2      1661      1803      2210      2392
 -1      1032    3    0    1
 -2       557       552       567      1345
 -1      1033    3    0    1
 -2      1802      1419      2079      2088
 -1      1034    3    0    1
 -2        66       390       557       568
 -1      1035    3    0    1
 -2        79       589        84       576
 -1      1036    3    0    1
 -2      1741      2049      2306      2605
 -1      1037    3    0    1
 -2       533        48       536       966
 -1      1038    3    0    1
 -2      1317      1110      1855      1856
 -1      1039    3    0    1
 -2      1591      1380      1646      1688
 -1      1040    3    0    1
 -2      1063       870      2033      2519
 -1      1041    3    0    1
 -2      1713      1733      2559      2650
 -1      1042    3    0    1
 -2      1247       800      1842      1903
 -1      1043    3    0    1
 -2      2124      2245      2395      2495
 -1      1044    3    0    1
 -2       134       336       663      1681
 -1      1045    3    0    1
 -2      1994      1651      2109      2146
 -1      1046    3    0    1
 -2        40       542       526        51
 -1      1047    3    0    1
 -2       751       749      1029      1223
 -1      1048    3    0    1
 -2        44        45       525       532
 -1      1049    3    0    1
 -2      1396      1399      2093      2493
 -1      1050    3    0    1
 -2       555        63       561       568
 -1      1051    3    0    1
 -2       540       526       537       544
 -1      1052    3    0    1
 -2       205      1028      1228      2045
 -1      1053    3    0    1
 -2       844       837       848       849
 -1      1054    3    0    1
 -2       949      1129       481       951
 -1      1055    3    0    1
 -2       314       417      1070      2208
 -1      1056    3    0    1
 -2       589       382       406       591
 -1      1057    3    0    1
 -2       622       109       632       638
 -1      1058    3    0    1
 -2       452       539       455       543
 -1      1059    3    0    1
 -2       796       799       807       808
 -1      1060    3    0    1
 -2       603       608       615       616
 -1      1061    3    0    1
 -2       646       125       653       656
 -1      1062    3    0    1
 -2       587        81       579       591
 -1      1063    3    0    1
 -2       687      1999      2013      2540
 -1      1064    3    0    1
 -2       116       119       633       639
 -1      1065    3    0    1
 -2      1944      1228      2045      2603
 -1      1066    3    0    1
 -2       796       787       799       801
 -1      1067    3    0    1
 -2      1449      1894      2039      2458
 -1      1068    3    0    1
 -2       620       993       631       619
 -1      1069    3    0    1
 -2       986      1184       992       620
 -1      1070    3    0    1
 -2       676       670       680       681
 -1      1071    3    0    1
 -2       116       635       117       639
 -1      1072    3    0    1
 -2       373       122      2672      1367
 -1      1073    3    0    1
 -2      1477        92      2169      2469
 -1      1074    3    0    1
 -2      1863      1749      2137      2161
 -1      1075    3    0    1
 -2      1167       972       584      1162
 -1      1076    3    0    1
 -2       254       816       820       825
 -1      1077    3    0    1
 -2      1047       817      1250      1251
 -1      1078    3    0    1
 -2       269       851       844       838
 -1      1079    3    0    1
 -2       557       555       561       568
 -1      1080    3    0    1
 -2       600      1175       597       604
 -1      1081    3    0    1
 -2       276       279       845       856
 -1      1082    3    0    1
 -2       844       837       845       848
 -1      1083    3    0    1
 -2       532       393       537       543
 -1      1084    3    0    1
 -2       270       854       837       282
 -1      1085    3    0    1
 -2       271       853       278       838
 -1      1086    3    0    1
 -2       240       804       787       801
 -1      1087    3    0    1
 -2        56        54       547       561
 -1      1088    3    0    1
 -2        48       533       536       543
 -1      1089    3    0    1
 -2      1975      2051      2105      2138
 -1      1090    3    0    1
 -2      1385      1552      1725      1800
 -1      1091    3    0    1
 -2        94       605       608       615
 -1      1092    3    0    1
 -2       807       366      1869      2629
 -1      1093    3    0    1
 -2       286       861       862       868
 -1      1094    3    0    1
 -2       946       473       953      1128
 -1      1095    3    0    1
 -2       541       525       533       543
 -1      1096    3    0    1
 -2         2       491       478        11
 -1      1097    3    0    1
 -2       565       552       557      1345
 -1      1098    3    0    1
 -2        73       576       579       585
 -1      1099    3    0    1
 -2      1415      1672      1788      2041
 -1      1100    3    0    1
 -2       867      1270      2312      2590
 -1      1101    3    0    1
 -2       796       792       797       799
 -1      1102    3    0    1
 -2      1318      1769      1875      2211
 -1      1103    3    0    1
 -2       536       533       537       543
 -1      1104    3    0    1
 -2      1689      2017      2038      2154
 -1      1105    3    0    1
 -2       787       792       796       799
 -1      1106    3    0    1
 -2       538       531       967      1904
 -1      1107    3    0    1
 -2       255       828       811       825
 -1      1108    3    0    1
 -2       258       250       809      1255
 -1      1109    3    0    1
 -2      1552      1385      1725      2133
 -1      1110    3    0    1
 -2       844       268       849      1052
 -1      1111    3    0    1
 -2       269       268       844      1052
 -1      1112    3    0    1
 -2       834       267       274      1051
 -1      1113    3    0    1
 -2      1759      1541      1918      1986
 -1      1114    3    0    1
 -2       702      1625      2003      2415
 -1      1115    3    0    1
 -2       828       259       264       832
 -1      1116    3    0    1
 -2        97        90       603       981
 -1      1117    3    0    1
 -2       463      1331      1100      1641
 -1      1118    3    0    1
 -2       767       764       773       777
 -1      1119    3    0    1
 -2       672      1006      1004       671
 -1      1120    3    0    1
 -2       716      1217      1023       723
 -1      1121    3    0    1
 -2       980      1177       602       983
 -1      1122    3    0    1
 -2       207       748       753      1027
 -1      1123    3    0    1
 -2      2278      1814      2400      2435
 -1      1124    3    0    1
 -2       628       623       634       994
 -1      1125    3    0    1
 -2      1928      1938      2207      2390
 -1      1126    3    0    1
 -2       629       114       639       640
 -1      1127    3    0    1
 -2      1383       330      2057      2573
 -1      1128    3    0    1
 -2        28        31       959      2132
 -1      1129    3    0    1
 -2       319      1488      1497      1514
 -1      1130    3    0    1
 -2      1637      1691      2144      1823
 -1      1131    3    0    1
 -2       837       848       849       856
 -1      1132    3    0    1
 -2      1466      1970      2120      2525
 -1      1133    3    0    1
 -2      1464      1503      1848      1849
 -1      1134    3    0    1
 -2       510      1754      1896      1924
 -1      1135    3    0    1
 -2       724       718       728       729
 -1      1136    3    0    1
 -2      1295      1298      1807      2020
 -1      1137    3    0    1
 -2      1863       338      2445      2633
 -1      1138    3    0    1
 -2       363       362      1477      2631
 -1      1139    3    0    1
 -2      1528      1390      1895      2077
 -1      1140    3    0    1
 -2       797       239       799      1042
 -1      1141    3    0    1
 -2       219      1679      1981      1985
 -1      1142    3    0    1
 -2      1006      1194      2358      2444
 -1      1143    3    0    1
 -2      1675      1495      1942      2369
 -1      1144    3    0    1
 -2       762       761      1032      1036
 -1      1145    3    0    1
 -2       766      1238      1233      1034
 -1      1146    3    0    1
 -2       812       813      1047      1251
 -1      1147    3    0    1
 -2      1631      1411      1740      2413
 -1      1148    3    0    1
 -2        12        10      2361      2674
 -1      1149    3    0    1
 -2      1562      1080      1701      1777
 -1      1150    3    0    1
 -2       136       664      1773      2497
 -1      1151    3    0    1
 -2       878       872       861       880
 -1      1152    3    0    1
 -2       484         2       945       947
 -1      1153    3    0    1
 -2      1047      1257      1843      2220
 -1      1154    3    0    1
 -2      1425      1389      1685      1838
 -1      1155    3    0    1
 -2      1928      1938      2309      2424
 -1      1156    3    0    1
 -2       480       951       486       479
 -1      1157    3    0    1
 -2       815      1045       819       814
 -1      1158    3    0    1
 -2      1080       315      1562      1701
 -1      1159    3    0    1
 -2       581       571       584       585
 -1      1160    3    0    1
 -2        38       530        39      1140
 -1      1161    3    0    1
 -2      1275       308       312      1688
 -1      1162    3    0    1
 -2      1339       939      1850      2249
 -1      1163    3    0    1
 -2      1396      1399      1574      2093
 -1      1164    3    0    1
 -2       428       292       869      1063
 -1      1165    3    0    1
 -2      1398       335      1616      1678
 -1      1166    3    0    1
 -2       498       960      1137      1352
 -1      1167    3    0    1
 -2      1137       953      2360      2362
 -1      1168    3    0    1
 -2      1796       543      2084      2487
 -1      1169    3    0    1
 -2      1499      1962      2120      2286
 -1      1170    3    0    1
 -2      1508       421      1968      2000
 -1      1171    3    0    1
 -2       656       653       657       664
 -1      1172    3    0    1
 -2       603       596       605       608
 -1      1173    3    0    1
 -2      1327       916       927      2254
 -1      1174    3    0    1
 -2      1306      1324      1516      1691
 -1      1175    3    0    1
 -2       134       137       656      1000
 -1      1176    3    0    1
 -2       312      1291      1409      1512
 -1      1177    3    0    1
 -2      1409      1512      1593      2256
 -1      1178    3    0    1
 -2      1736      1382      1933      2180
 -1      1179    3    0    1
 -2      1297      1448      1549      2020
 -1      1180    3    0    1
 -2       700       694       701       705
 -1      1181    3    0    1
 -2      1857      1821      2104      2228
 -1      1182    3    0    1
 -2       441      2506      2624      2708
 -1      1183    3    0    1
 -2       633       629       639       640
 -1      1184    3    0    1
 -2       509        28       512       959
 -1      1185    3    0    1
 -2       557       390       970      1158
 -1      1186    3    0    1
 -2       319      1073      1294      1488
 -1      1187    3    0    1
 -2       410      2326      2626      2752
 -1      1188    3    0    1
 -2      2399      1674      2600      2637
 -1      1189    3    0    1
 -2      1403      1487      1580      1642
 -1      1190    3    0    1
 -2       741       742       748       751
 -1      1191    3    0    1
 -2      1382      1736      1994      2109
 -1      1192    3    0    1
 -2      2182       101      2389      2593
 -1      1193    3    0    1
 -2       957        28       959      2132
 -1      1194    3    0    1
 -2        52       546       545      1153
 -1      1195    3    0    1
 -2       836      1265      1262       843
 -1      1196    3    0    1
 -2      1329      1095      1964      2007
 -1      1197    3    0    1
 -2       794       793      1038      1041
 -1      1198    3    0    1
 -2      1394      1507      1818      2181
 -1      1199    3    0    1
 -2      1892      1404      1906      2446
 -1      1200    3    0    1
 -2       368       772       783      1690
 -1      1201    3    0    1
 -2      1524      2061      2538      2717
 -1      1202    3    0    1
 -2       652       129       657       664
 -1      1203    3    0    1
 -2      1676      1955      1964      2007
 -1      1204    3    0    1
 -2      1176        94      1948      2593
 -1      1205    3    0    1
 -2      1191       648      1001       995
 -1      1206    3    0    1
 -2       670       669       676       677
 -1      1207    3    0    1
 -2       764       216       767       773
 -1      1208    3    0    1
 -2      1885      1588      2337      2745
 -1      1209    3    0    1
 -2       919      1457      1612      1856
 -1      1210    3    0    1
 -2       863      1272      1064       871
 -1      1211    3    0    1
 -2       639       119       640      1910
 -1      1212    3    0    1
 -2       848      1053      1055      1057
 -1      1213    3    0    1
 -2       995       641       997      1001
 -1      1214    3    0    1
 -2       668      1008       667      1002
 -1      1215    3    0    1
 -2       142       143       670       677
 -1      1216    3    0    1
 -2       124       646       652       657
 -1      1217    3    0    1
 -2      1630      1429      1632      1707
 -1      1218    3    0    1
 -2      1450      1429      1632      1655
 -1      1219    3    0    1
 -2      1659      1627      1942      2369
 -1      1220    3    0    1
 -2      1459      1413      1741      1889
 -1      1221    3    0    1
 -2       130       650      1186      1189
 -1      1222    3    0    1
 -2      1550      1706      1809      2470
 -1      1223    3    0    1
 -2        63       555       561       968
 -1      1224    3    0    1
 -2      1331       919      1100      1612
 -1      1225    3    0    1
 -2       626       625       986       992
 -1      1226    3    0    1
 -2      1516      1691      1823      2144
 -1      1227    3    0    1
 -2       732       185       192       736
 -1      1228    3    0    1
 -2       748       741       751       753
 -1      1229    3    0    1
 -2      1444      1781      1864      2479
 -1      1230    3    0    1
 -2       693       160       704       710
 -1      1231    3    0    1
 -2      1846      1590      2453      2653
 -1      1232    3    0    1
 -2      1685      1482      1997      2188
 -1      1233    3    0    1
 -2      1429      1837      1913      2009
 -1      1234    3    0    1
 -2      2244      1865      2308      2606
 -1      1235    3    0    1
 -2       546       971      1153      1155
 -1      1236    3    0    1
 -2       626       104       112       986
 -1      1237    3    0    1
 -2      1525      1802      2088      2372
 -1      1238    3    0    1
 -2       964       533      1141      1142
 -1      1239    3    0    1
 -2       772       767       773       777
 -1      1240    3    0    1
 -2       766       768      1034      1234
 -1      1241    3    0    1
 -2      1730      1687      1906      2156
 -1      1242    3    0    1
 -2       279       276       845      1055
 -1      1243    3    0    1
 -2       475       953       490       483
 -1      1244    3    0    1
 -2      1482      1461      1516      1695
 -1      1245    3    0    1
 -2       286       285       861       868
 -1      1246    3    0    1
 -2       334       342       993      1943
 -1      1247    3    0    1
 -2       476      1128      1124       475
 -1      1248    3    0    1
 -2       518       512       502       520
 -1      1249    3    0    1
 -2       382        80       581      1167
 -1      1250    3    0    1
 -2       537       532      1144      1148
 -1      1251    3    0    1
 -2      2526      2117      2529      2679
 -1      1252    3    0    1
 -2       393       452       532      1148
 -1      1253    3    0    1
 -2       285       861       868       873
 -1      1254    3    0    1
 -2       985      1183      2348      1360
 -1      1255    3    0    1
 -2       524       964      1141      1142
 -1      1256    3    0    1
 -2       575      1169      1165       574
 -1      1257    3    0    1
 -2        79       589       576       581
 -1      1258    3    0    1
 -2       679       678      1008      1599
 -1      1259    3    0    1
 -2      1757      1792      2244      2606
 -1      1260    3    0    1
 -2       273       249      2456      2738
 -1      1261    3    0    1
 -2       475      1124       946      1128
 -1      1262    3    0    1
 -2      1184       335      1616      2392
 -1      1263    3    0    1
 -2      1338       315       431      1562
 -1      1264    3    0    1
 -2      2723      1885      2725      2760
 -1      1265    3    0    1
 -2       477       488       489       496
 -1      1266    3    0    1
 -2       106       621       622       629
 -1      1267    3    0    1
 -2       627       621       629       633
 -1      1268    3    0    1
 -2      1011      1211      1013       692
 -1      1269    3    0    1
 -2       163       171       694       701
 -1      1270    3    0    1
 -2      1733      1713      2596      2650
 -1      1271    3    0    1
 -2      1374      1506      1662      1686
 -1      1272    3    0    1
 -2      1959      2231      2271      2516
 -1      1273    3    0    1
 -2       560        61       547       557
 -1      1274    3    0    1
 -2      1148       962       532      1144
 -1      1275    3    0    1
 -2      1743      2419      2475      2642
 -1      1276    3    0    1
 -2      2283       149      2540      2558
 -1      1277    3    0    1
 -2       193       214      2730      2737
 -1      1278    3    0    1
 -2      1412      1862      2088      2267
 -1      1279    3    0    1
 -2       954       498       960      1137
 -1      1280    3    0    1
 -2       555        56       561      1154
 -1      1281    3    0    1
 -2       485         9       488       952
 -1      1282    3    0    1
 -2      1900      1527      1957      2021
 -1      1283    3    0    1
 -2      1597      1506      1646      1686
 -1      1284    3    0    1
 -2       390        66       557       970
 -1      1285    3    0    1
 -2      1467      1449      1531      1553
 -1      1286    3    0    1
 -2       837       838       844       845
 -1      1287    3    0    1
 -2      1783      1820      2284      2622
 -1      1288    3    0    1
 -2       271       853       838       845
 -1      1289    3    0    1
 -2      1498      1432      1555      1714
 -1      1290    3    0    1
 -2       653       135      1187      1188
 -1      1291    3    0    1
 -2       558      1680      1980      2170
 -1      1292    3    0    1
 -2       645       653       661       663
 -1      1293    3    0    1
 -2       152       145       670       676
 -1      1294    3    0    1
 -2      1226      1030      2464      1369
 -1      1295    3    0    1
 -2       915       929      1108      1676
 -1      1296    3    0    1
 -2      1769       303      1805      2211
 -1      1297    3    0    1
 -2       809       250       810      1255
 -1      1298    3    0    1
 -2       968      1148      2107      2229
 -1      1299    3    0    1
 -2       734       728       717       736
 -1      1300    3    0    1
 -2       852       837       849       856
 -1      1301    3    0    1
 -2       287       288       865      1268
 -1      1302    3    0    1
 -2       112       626       986      1180
 -1      1303    3    0    1
 -2       424      1301      1300      1760
 -1      1304    3    0    1
 -2      1191       360      2714      2759
 -1      1305    3    0    1
 -2      1177      1813      2040      2179
 -1      1306    3    0    1
 -2       781       767       773       783
 -1      1307    3    0    1
 -2       876       861       873       880
 -1      1308    3    0    1
 -2       145       670       676       681
 -1      1309    3    0    1
 -2       671      1199      1009       675
 -1      1310    3    0    1
 -2      1841       702      2003      2415
 -1      1311    3    0    1
 -2      1054      1264      1056       839
 -1      1312    3    0    1
 -2      2255       338      2445      2608
 -1      1313    3    0    1
 -2      1850      1082      2249      2308
 -1      1314    3    0    1
 -2      1209       702      1841      2415
 -1      1315    3    0    1
 -2       605       979      1173      1176
 -1      1316    3    0    1
 -2       301      1718      2403      2592
 -1      1317    3    0    1
 -2      1434      2010      2442      2493
 -1      1318    3    0    1
 -2      1493      1384      1578      1761
 -1      1319    3    0    1
 -2      1552      1496      1608      1725
 -1      1320    3    0    1
 -2        92       362       609       616
 -1      1321    3    0    1
 -2       624       990       988       623
 -1      1322    3    0    1
 -2       704       168       711       712
 -1      1323    3    0    1
 -2       184       718       724       729
 -1      1324    3    0    1
 -2       187       184       718       724
 -1      1325    3    0    1
 -2       700       694       707       711
 -1      1326    3    0    1
 -2       198       203       742       749
 -1      1327    3    0    1
 -2      1201      1720      2005      2727
 -1      1328    3    0    1
 -2       146       673      1195      1197
 -1      1329    3    0    1
 -2       598      1176       595       606
 -1      1330    3    0    1
 -2       622       106       629       632
 -1      1331    3    0    1
 -2      1490      1758      1787      1915
 -1      1332    3    0    1
 -2      1975      1998      2105      2556
 -1      1333    3    0    1
 -2       195       756       199       741
 -1      1334    3    0    1
 -2       670       142       677       680
 -1      1335    3    0    1
 -2       718       717       728       729
 -1      1336    3    0    1
 -2       159       690       169      1010
 -1      1337    3    0    1
 -2       728      1022      1216      1218
 -1      1338    3    0    1
 -2      1596      1547      1806      2410
 -1      1339    3    0    1
 -2       143       685       669       677
 -1      1340    3    0    1
 -2      1564      1376      1614      1828
 -1      1341    3    0    1
 -2      1013       699      2234      2712
 -1      1342    3    0    1
 -2        90       609       981      1172
 -1      1343    3    0    1
 -2      1523      1496      1745      1860
 -1      1344    3    0    1
 -2       678       667       679      1008
 -1      1345    3    0    1
 -2       692      1211      1013       699
 -1      1346    3    0    1
 -2      1879      1835      2091      2277
 -1      1347    3    0    1
 -2      1809      1727      1817      2408
 -1      1348    3    0    1
 -2       748       742       749       751
 -1      1349    3    0    1
 -2       631       630       993      2248
 -1      1350    3    0    1
 -2       750       743       752      1227
 -1      1351    3    0    1
 -2       793       233       794      1038
 -1      1352    3    0    1
 -2       971      1500      2357      2623
 -1      1353    3    0    1
 -2      1066      2290      2363      2488
 -1      1354    3    0    1
 -2       824       822      1048      1436
 -1      1355    3    0    1
 -2       311      1079      1561      2072
 -1      1356    3    0    1
 -2       192       736      1622      2158
 -1      1357    3    0    1
 -2       694       161       700       707
 -1      1358    3    0    1
 -2       748       195       753      1025
 -1      1359    3    0    1
 -2       200       755       742       201
 -1      1360    3    0    1
 -2      1554       424      1760      2187
 -1      1361    3    0    1
 -2      2178      2162      2559      2587
 -1      1362    3    0    1
 -2      1453      1675      1839      1942
 -1      1363    3    0    1
 -2       319       415      1073      1488
 -1      1364    3    0    1
 -2      1707      1429      1913      2009
 -1      1365    3    0    1
 -2      1265      1262      2335      2338
 -1      1366    3    0    1
 -2       218       767       772       777
 -1      1367    3    0    1
 -2       243       804       801       808
 -1      1368    3    0    1
 -2       255       828       265       811
 -1      1369    3    0    1
 -2      1236      1030      2018      2173
 -1      1370    3    0    1
 -2       254       827       816       260
 -1      1371    3    0    1
 -2       268       852       281       837
 -1      1372    3    0    1
 -2      1428      1378      1529      2047
 -1      1373    3    0    1
 -2      1691      1637      2144      1585
 -1      1374    3    0    1
 -2      2467      1949      2517      2658
 -1      1375    3    0    1
 -2       312       308      1409      1688
 -1      1376    3    0    1
 -2      2715      2672      1367      2756
 -1      1377    3    0    1
 -2       532        41       537      1144
 -1      1378    3    0    1
 -2        29       518       512       502
 -1      1379    3    0    1
 -2      1007      1201      1720      1721
 -1      1380    3    0    1
 -2      1548      2012      2035      2036
 -1      1381    3    0    1
 -2      1644      1568      2028      2483
 -1      1382    3    0    1
 -2      1539      1454      1964      2070
 -1      1383    3    0    1
 -2      2024       369      2287      2570
 -1      1384    3    0    1
 -2      1272      1062       866      1268
 -1      1385    3    0    1
 -2      1783       511      1820      2622
 -1      1386    3    0    1
 -2      1425      1542      1838      1878
 -1      1387    3    0    1
 -2       571        75       581       584
 -1      1388    3    0    1
 -2      1904      2344      1354      1358
 -1      1389    3    0    1
 -2       986      1184       620      1180
 -1      1390    3    0    1
 -2      1884      2152      2761      2765
 -1      1391    3    0    1
 -2      1406      1584      1694      1742
 -1      1392    3    0    1
 -2       329      1106      1097      1644
 -1      1393    3    0    1
 -2       512       509       959      1133
 -1      1394    3    0    1
 -2       145       684       153       670
 -1      1395    3    0    1
 -2      1475      1520      1555      2621
 -1      1396    3    0    1
 -2       537       536       543       544
 -1      1397    3    0    1
 -2      1335      1074      1817      2408
 -1      1398    3    0    1
 -2       485         9       495       496
 -1      1399    3    0    1
 -2        15         4       488       948
 -1      1400    3    0    1
 -2      1792      1865      2196      2204
 -1      1401    3    0    1
 -2       542        48       536       544
 -1      1402    3    0    1
 -2      1439      1434      1457      1724
 -1      1403    3    0    1
 -2       861       862       868       869
 -1      1404    3    0    1
 -2       454       389      2359      1351
 -1      1405    3    0    1
 -2      1451      1576      1693      2239
 -1      1406    3    0    1
 -2       573       977       572       972
 -1      1407    3    0    1
 -2       527      1145       531       538
 -1      1408    3    0    1
 -2       167       698       333      1014
 -1      1409    3    0    1
 -2      1257       386      1843      2082
 -1      1410    3    0    1
 -2       970      2029      2054      2301
 -1      1411    3    0    1
 -2       632       622       638       640
 -1      1412    3    0    1
 -2      1462      1490      1544      1564
 -1      1413    3    0    1
 -2      1450      1683      1816      2702
 -1      1414    3    0    1
 -2       163       701       704      1205
 -1      1415    3    0    1
 -2       694       693       704       705
 -1      1416    3    0    1
 -2      1474      1509      1563      2366
 -1      1417    3    0    1
 -2      1519      1419      2090      2110
 -1      1418    3    0    1
 -2      1496      1523      1552      1618
 -1      1419    3    0    1
 -2      2214      1824      2635      2709
 -1      1420    3    0    1
 -2       477         4       485       488
 -1      1421    3    0    1
 -2       500       957      1132      1133
 -1      1422    3    0    1
 -2      1710      1376      1824      1828
 -1      1423    3    0    1
 -2        28       957      1924      2132
 -1      1424    3    0    1
 -2       555       547       557       561
 -1      1425    3    0    1
 -2        55       566       560       547
 -1      1426    3    0    1
 -2      1409      1380      1591      1688
 -1      1427    3    0    1
 -2       675       671       682      1009
 -1      1428    3    0    1
 -2       386       434      1843      2235
 -1      1429    3    0    1
 -2       666       141      1003      1005
 -1      1430    3    0    1
 -2      1706      1550      1809      2111
 -1      1431    3    0    1
 -2       909      1120      1310      1815
 -1      1432    3    0    1
 -2       142       686       670       156
 -1      1433    3    0    1
 -2      1486      1332      1642      1649
 -1      1434    3    0    1
 -2       141       148       665      1003
 -1      1435    3    0    1
 -2       701      1015      1207      1209
 -1      1436    3    0    1
 -2      2092      1870      2278      2400
 -1      1437    3    0    1
 -2       149       676       687       688
 -1      1438    3    0    1
 -2       129       652       657      1194
 -1      1439    3    0    1
 -2      1884      1990      2052      2171
 -1      1440    3    0    1
 -2       165       158       694       700
 -1      1441    3    0    1
 -2       676       669       683       687
 -1      1442    3    0    1
 -2       685       669       677       687
 -1      1443    3    0    1
 -2       669       676       677       687
 -1      1444    3    0    1
 -2      1012      1210       698      1014
 -1      1445    3    0    1
 -2       158       694       700       705
 -1      1446    3    0    1
 -2       149       683       358       687
 -1      1447    3    0    1
 -2       685       150       331       687
 -1      1448    3    0    1
 -2       683       149       676       687
 -1      1449    3    0    1
 -2       150       685       677       687
 -1      1450    3    0    1
 -2       151       686       356       688
 -1      1451    3    0    1
 -2       154       684       681       688
 -1      1452    3    0    1
 -2       686       151       680       688
 -1      1453    3    0    1
 -2       748       207       753       760
 -1      1454    3    0    1
 -2       698       167       697      1014
 -1      1455    3    0    1
 -2       163       171       701      1205
 -1      1456    3    0    1
 -2       118       119      2351      2546
 -1      1457    3    0    1
 -2      1210      1012       698      1206
 -1      1458    3    0    1
 -2       192       370       736      2158
 -1      1459    3    0    1
 -2       701      1015      1205      1207
 -1      1460    3    0    1
 -2      1464      1848      2053      2117
 -1      1461    3    0    1
 -2      1494      1393      1654      1905
 -1      1462    3    0    1
 -2       165       158       700      1011
 -1      1463    3    0    1
 -2       377       351       705       712
 -1      1464    3    0    1
 -2       171       709       172       694
 -1      1465    3    0    1
 -2       164       162       697      1012
 -1      1466    3    0    1
 -2       728       183       735       736
 -1      1467    3    0    1
 -2      1031       763      1033      1230
 -1      1468    3    0    1
 -2       171       709       694       701
 -1      1469    3    0    1
 -2       777       222       784      1690
 -1      1470    3    0    1
 -2       729       724      1019      1020
 -1      1471    3    0    1
 -2       967       538      1904      2281
 -1      1472    3    0    1
 -2      1604      1519      1760      2110
 -1      1473    3    0    1
 -2       701       694       704       705
 -1      1474    3    0    1
 -2       175       714      1018      1212
 -1      1475    3    0    1
 -2       160       163       693       704
 -1      1476    3    0    1
 -2       293       295      1273      1536
 -1      1477    3    0    1
 -2       693       163       694       704
 -1      1478    3    0    1
 -2       717       728       729       736
 -1      1479    3    0    1
 -2      1202      1004       676      1198
 -1      1480    3    0    1
 -2       158       693       694       705
 -1      1481    3    0    1
 -2       158       708       693       705
 -1      1482    3    0    1
 -2       158       708       170       693
 -1      1483    3    0    1
 -2       676       145       681      1198
 -1      1484    3    0    1
 -2       698       697      1012      1014
 -1      1485    3    0    1
 -2       719       720      1021      1213
 -1      1486    3    0    1
 -2       712      1974      2289      2694
 -1      1487    3    0    1
 -2       185       376       724      1020
 -1      1488    3    0    1
 -2       709       694       701       711
 -1      1489    3    0    1
 -2       694       700       701       711
 -1      1490    3    0    1
 -2       700       355       705       711
 -1      1491    3    0    1
 -2      1801      1471      1807      2047
 -1      1492    3    0    1
 -2       701       700       705       711
 -1      1493    3    0    1
 -2       355       377       705       711
 -1      1494    3    0    1
 -2       166       701       704       711
 -1      1495    3    0    1
 -2       704       701       705       711
 -1      1496    3    0    1
 -2       181       734       728       717
 -1      1497    3    0    1
 -2       168       166       704       711
 -1      1498    3    0    1
 -2       173       355       700       711
 -1      1499    3    0    1
 -2       173       700       707       711
 -1      1500    3    0    1
 -2       709       166       330       711
 -1      1501    3    0    1
 -2       166       709       701       711
 -1      1502    3    0    1
 -2       710       168       704       712
 -1      1503    3    0    1
 -2       183       734       344       736
 -1      1504    3    0    1
 -2       735      1901      2436      2535
 -1      1505    3    0    1
 -2       663       134      1681      1882
 -1      1506    3    0    1
 -2       180       725       728      1216
 -1      1507    3    0    1
 -2       716      1020       723       715
 -1      1508    3    0    1
 -2       177       718       725       733
 -1      1509    3    0    1
 -2       623      1183       994       628
 -1      1510    3    0    1
 -2       650       999      1186      1189
 -1      1511    3    0    1
 -2      1427      1578      1738      1912
 -1      1512    3    0    1
 -2       719       720       726      1021
 -1      1513    3    0    1
 -2      1378      1801      2047      2098
 -1      1514    3    0    1
 -2       179       183       728      1218
 -1      1515    3    0    1
 -2       198       749       751      1223
 -1      1516    3    0    1
 -2      2743      2320      1354      1355
 -1      1517    3    0    1
 -2      1583      1716      2238      2253
 -1      1518    3    0    1
 -2       883      1279      1068      1580
 -1      1519    3    0    1
 -2       716      1023      1018       715
 -1      1520    3    0    1
 -2       722       721      1215      1219
 -1      1521    3    0    1
 -2       719      1219      1215      1021
 -1      1522    3    0    1
 -2      1506      1374      1646      1686
 -1      1523    3    0    1
 -2       915       929      1676      2007
 -1      1524    3    0    1
 -2       720       719       726      1022
 -1      1525    3    0    1
 -2       718       180       725       728
 -1      1526    3    0    1
 -2      2006      2054      2437      2594
 -1      1527    3    0    1
 -2       181       734       717       190
 -1      1528    3    0    1
 -2       717       181       718       728
 -1      1529    3    0    1
 -2       722       178       182      1215
 -1      1530    3    0    1
 -2       729       185      1020      1220
 -1      1531    3    0    1
 -2       181       180       718       728
 -1      1532    3    0    1
 -2       923      1635      2388      2433
 -1      1533    3    0    1
 -2      1021       719      1213      1215
 -1      1534    3    0    1
 -2       328       325      1516      1755
 -1      1535    3    0    1
 -2      1236      1032       762      1231
 -1      1536    3    0    1
 -2       421      1401      1790      1968
 -1      1537    3    0    1
 -2       200       741       742       748
 -1      1538    3    0    1
 -2       200       195       741       748
 -1      1539    3    0    1
 -2      1472      1527      1581      1900
 -1      1540    3    0    1
 -2       731       724       718       735
 -1      1541    3    0    1
 -2      1836      1842      2553      2611
 -1      1542    3    0    1
 -2       718       725       733       735
 -1      1543    3    0    1
 -2       718       724       725       735
 -1      1544    3    0    1
 -2       725       724       728       735
 -1      1545    3    0    1
 -2       179       725       728       735
 -1      1546    3    0    1
 -2       183       179       728       735
 -1      1547    3    0    1
 -2       376       185       724       735
 -1      1548    3    0    1
 -2       322      1527      1581      2168
 -1      1549    3    0    1
 -2       728       724       729       735
 -1      1550    3    0    1
 -2       724       185       729       735
 -1      1551    3    0    1
 -2       414      1177      1813      2040
 -1      1552    3    0    1
 -2       375       376       724       735
 -1      1553    3    0    1
 -2       375       724       731       735
 -1      1554    3    0    1
 -2       733       179       189       735
 -1      1555    3    0    1
 -2       179       733       725       735
 -1      1556    3    0    1
 -2       207       209       753       760
 -1      1557    3    0    1
 -2       349      1435      1726      2122
 -1      1558    3    0    1
 -2       745       204       746      1224
 -1      1559    3    0    1
 -2       209       207       753      1027
 -1      1560    3    0    1
 -2       768       766      1035      1232
 -1      1561    3    0    1
 -2      1726      1598      2080      2538
 -1      1562    3    0    1
 -2      1559      1995      2089      2105
 -1      1563    3    0    1
 -2       738       196       197      1024
 -1      1564    3    0    1
 -2      1517      1406      1784      1864
 -1      1565    3    0    1
 -2      1299       897      1604      1931
 -1      1566    3    0    1
 -2       447       453       497      1355
 -1      1567    3    0    1
 -2      1624      1693      1833      1845
 -1      1568    3    0    1
 -2      1797      1698      1871      2095
 -1      1569    3    0    1
 -2       195       756       741       753
 -1      1570    3    0    1
 -2      1515      1570      1717      1912
 -1      1571    3    0    1
 -2      1940      1466      1970      2185
 -1      1572    3    0    1
 -2      2160      2274      2448      2619
 -1      1573    3    0    1
 -2       758       751       741       760
 -1      1574    3    0    1
 -2       797       244      1042      1246
 -1      1575    3    0    1
 -2      1374      1718      2215      2403
 -1      1576    3    0    1
 -2       203       757       742       749
 -1      1577    3    0    1
 -2       203       757       210       742
 -1      1578    3    0    1
 -2       345       443       751      1029
 -1      1579    3    0    1
 -2       384      1587      1953      2476
 -1      1580    3    0    1
 -2       198       758       741       202
 -1      1581    3    0    1
 -2      1393      1848      2117      2529
 -1      1582    3    0    1
 -2       741       198       742       751
 -1      1583    3    0    1
 -2       195       741       748       753
 -1      1584    3    0    1
 -2      1694      1406      1742      1864
 -1      1585    3    0    1
 -2       738       737      1024      1030
 -1      1586    3    0    1
 -2      2050      1648      2282      2703
 -1      1587    3    0    1
 -2       215       782       775       764
 -1      1588    3    0    1
 -2      1519      1604      1931      2267
 -1      1589    3    0    1
 -2      1394      1507      1712      1818
 -1      1590    3    0    1
 -2       764       775       777       784
 -1      1591    3    0    1
 -2       200       195       748      1025
 -1      1592    3    0    1
 -2      1774      1483      1815      2658
 -1      1593    3    0    1
 -2       761       212       762      1032
 -1      1594    3    0    1
 -2       218       224       777      1031
 -1      1595    3    0    1
 -2      1704      1491      2046      2125
 -1      1596    3    0    1
 -2       218       779       767       223
 -1      1597    3    0    1
 -2      2152      2451      2748      2749
 -1      1598    3    0    1
 -2      2001      1402      2021      2041
 -1      1599    3    0    1
 -2       757       742       749       759
 -1      1600    3    0    1
 -2       755       748       742       759
 -1      1601    3    0    1
 -2       742       748       749       759
 -1      1602    3    0    1
 -2       345       749       751       759
 -1      1603    3    0    1
 -2      1113       914       934      1703
 -1      1604    3    0    1
 -2       749       748       751       759
 -1      1605    3    0    1
 -2       443       345       751       759
 -1      1606    3    0    1
 -2       989      1183       994       623
 -1      1607    3    0    1
 -2      2736      1245      1364      1371
 -1      1608    3    0    1
 -2      1034       769      1233      1234
 -1      1609    3    0    1
 -2       207       755       370       759
 -1      1610    3    0    1
 -2       749       343       757       759
 -1      1611    3    0    1
 -2       755       207       748       759
 -1      1612    3    0    1
 -2       345       343       749       759
 -1      1613    3    0    1
 -2       209       756       753       760
 -1      1614    3    0    1
 -2       775       773       777       784
 -1      1615    3    0    1
 -2      1411      1631      1740      1799
 -1      1616    3    0    1
 -2       456       277       856      2314
 -1      1617    3    0    1
 -2       245       236       799      1037
 -1      1618    3    0    1
 -2       804       787       801       808
 -1      1619    3    0    1
 -2       173       355      2482      2664
 -1      1620    3    0    1
 -2       365       409      2027      1371
 -1      1621    3    0    1
 -2       632       987       991       993
 -1      1622    3    0    1
 -2       214      2464      1362      1363
 -1      1623    3    0    1
 -2       220       228       773       784
 -1      1624    3    0    1
 -2       473      1124         1       474
 -1      1625    3    0    1
 -2       224       780       764       777
 -1      1626    3    0    1
 -2       774      1238       776       766
 -1      1627    3    0    1
 -2      1064      2033      2223      2297
 -1      1628    3    0    1
 -2      2051      2217      2575      2636
 -1      1629    3    0    1
 -2      1270       867      2488      2590
 -1      1630    3    0    1
 -2       216       781       227       767
 -1      1631    3    0    1
 -2       602       601       980       983
 -1      1632    3    0    1
 -2       765      1036      1032       763
 -1      1633    3    0    1
 -2      1032      1236      1036       765
 -1      1634    3    0    1
 -2       559      2029      2301      2340
 -1      1635    3    0    1
 -2       216       781       767       773
 -1      1636    3    0    1
 -2       198       203       749      1223
 -1      1637    3    0    1
 -2       765      1236      1036       771
 -1      1638    3    0    1
 -2      2205      1016      2449      2741
 -1      1639    3    0    1
 -2       765      1036       763       771
 -1      1640    3    0    1
 -2       234       803       796       792
 -1      1641    3    0    1
 -2       224       780       225       764
 -1      1642    3    0    1
 -2       763      1036       778       771
 -1      1643    3    0    1
 -2       234       787       792       796
 -1      1644    3    0    1
 -2       799       796       801       808
 -1      1645    3    0    1
 -2      1486      1456      1575      1649
 -1      1646    3    0    1
 -2      1542      1147      1969      2615
 -1      1647    3    0    1
 -2       417       314      1570      2208
 -1      1648    3    0    1
 -2      1865      1792      2196      2606
 -1      1649    3    0    1
 -2       953       490       483      2355
 -1      1650    3    0    1
 -2       631       630      2248      2271
 -1      1651    3    0    1
 -2       224       764       767       777
 -1      1652    3    0    1
 -2       213       212       761      1032
 -1      1653    3    0    1
 -2       218       224       767       777
 -1      1654    3    0    1
 -2      1775        32      1987      2404
 -1      1655    3    0    1
 -2      2250      2378      2541      2582
 -1      1656    3    0    1
 -2       166       168      1978      2694
 -1      1657    3    0    1
 -2       335       413      1616      1678
 -1      1658    3    0    1
 -2       801       243      1040      1248
 -1      1659    3    0    1
 -2        31        28      1775      2132
 -1      1660    3    0    1
 -2       766       768       774      1034
 -1      1661    3    0    1
 -2         2         3       489       945
 -1      1662    3    0    1
 -2       779       772       767       783
 -1      1663    3    0    1
 -2       767       772       773       783
 -1      1664    3    0    1
 -2       879       856      2591      2696
 -1      1665    3    0    1
 -2       244       239       797      1042
 -1      1666    3    0    1
 -2       243       366       796      1040
 -1      1667    3    0    1
 -2       818       817      1250      1257
 -1      1668    3    0    1
 -2       773       772       777       783
 -1      1669    3    0    1
 -2      1708      1510      1712      2075
 -1      1670    3    0    1
 -2       243       796       801      1040
 -1      1671    3    0    1
 -2       781       228       230       783
 -1      1672    3    0    1
 -2       368       779       369       783
 -1      1673    3    0    1
 -2       228       781       773       783
 -1      1674    3    0    1
 -2       779       368       772       783
 -1      1675    3    0    1
 -2       239       806       436       808
 -1      1676    3    0    1
 -2       220       782       231       784
 -1      1677    3    0    1
 -2       222       780       777       784
 -1      1678    3    0    1
 -2       782       220       775       784
 -1      1679    3    0    1
 -2      1048       824      1436      2134
 -1      1680    3    0    1
 -2      1217      1023       723      2175
 -1      1681    3    0    1
 -2       240       804       242       787
 -1      1682    3    0    1
 -2       243      1869      2649      2716
 -1      1683    3    0    1
 -2      1039      1248      1040       788
 -1      1684    3    0    1
 -2      1039      1248       801      1040
 -1      1685    3    0    1
 -2      1560       386      1797      1871
 -1      1686    3    0    1
 -2       240       801      1039      1241
 -1      1687    3    0    1
 -2       236       797      1037      1243
 -1      1688    3    0    1
 -2       774       766       776      1035
 -1      1689    3    0    1
 -2       879      2591      2680      2692
 -1      1690    3    0    1
 -2      1049       815      1253      1255
 -1      1691    3    0    1
 -2       815      1256      1255      1049
 -1      1692    3    0    1
 -2       911       933      1986      2207
 -1      1693    3    0    1
 -2       236       805       792       797
 -1      1694    3    0    1
 -2       237       794       437      1041
 -1      1695    3    0    1
 -2       234       803       792       247
 -1      1696    3    0    1
 -2      2119      1421      2626      2733
 -1      1697    3    0    1
 -2      1489       908      1812       924
 -1      1698    3    0    1
 -2       386       434      1257      1843
 -1      1699    3    0    1
 -2       236       805       248       792
 -1      1700    3    0    1
 -2       234       240       801      1039
 -1      1701    3    0    1
 -2       796       234       801      1039
 -1      1702    3    0    1
 -2       824      1048      1782      2134
 -1      1703    3    0    1
 -2       534      1533      1969      2368
 -1      1704    3    0    1
 -2      1038      1247       794      1041
 -1      1705    3    0    1
 -2      1757      1701      2244      2385
 -1      1706    3    0    1
 -2       310      1112       412      1526
 -1      1707    3    0    1
 -2      1862      1419      2088      2267
 -1      1708    3    0    1
 -2       787       245       792       799
 -1      1709    3    0    1
 -2       245       806       787       246
 -1      1710    3    0    1
 -2       245       236       792       799
 -1      1711    3    0    1
 -2      1750      1629      2149      2233
 -1      1712    3    0    1
 -2       821       253       823       816
 -1      1713    3    0    1
 -2       950         9       952      2502
 -1      1714    3    0    1
 -2      1439      1443      1473      1641
 -1      1715    3    0    1
 -2       820       816       821       823
 -1      1716    3    0    1
 -2       818       252       257      1250
 -1      1717    3    0    1
 -2       275       842      1054      1260
 -1      1718    3    0    1
 -2       795       788       802      1043
 -1      1719    3    0    1
 -2       854       848       837       856
 -1      1720    3    0    1
 -2       254       827       820       816
 -1      1721    3    0    1
 -2      1919      1092      2181      2265
 -1      1722    3    0    1
 -2      1509      1474      2083      2501
 -1      1723    3    0    1
 -2      1093       319      1497      1514
 -1      1724    3    0    1
 -2       805       792       797       807
 -1      1725    3    0    1
 -2       789      1247       798       800
 -1      1726    3    0    1
 -2       803       796       792       807
 -1      1727    3    0    1
 -2       792       796       797       807
 -1      1728    3    0    1
 -2       239       244       797       807
 -1      1729    3    0    1
 -2      1044      1258      1045       814
 -1      1730    3    0    1
 -2      1252       253       821       251
 -1      1731    3    0    1
 -2       797       796       799       807
 -1      1732    3    0    1
 -2       239       797       799       807
 -1      1733    3    0    1
 -2        36        49      2295      2757
 -1      1734    3    0    1
 -2      1258      1044       820      1254
 -1      1735    3    0    1
 -2      1530      1508      2000      2083
 -1      1736    3    0    1
 -2       836      1263      1259       835
 -1      1737    3    0    1
 -2       805       244       440       807
 -1      1738    3    0    1
 -2       366       803       441       807
 -1      1739    3    0    1
 -2       244       805       797       807
 -1      1740    3    0    1
 -2       803       366       796       807
 -1      1741    3    0    1
 -2       830       262       823       832
 -1      1742    3    0    1
 -2       806       239       799       808
 -1      1743    3    0    1
 -2       259       828       825       832
 -1      1744    3    0    1
 -2       836      1263       835       843
 -1      1745    3    0    1
 -2      1054      1264       839      1260
 -1      1746    3    0    1
 -2       820       816       823       825
 -1      1747    3    0    1
 -2       251       829       816       821
 -1      1748    3    0    1
 -2       272       842       275      1260
 -1      1749    3    0    1
 -2       823       262       831       832
 -1      1750    3    0    1
 -2       828       811       825       832
 -1      1751    3    0    1
 -2      1279      1068      1580      1642
 -1      1752    3    0    1
 -2       259       825       831       832
 -1      1753    3    0    1
 -2       251       829       263       816
 -1      1754    3    0    1
 -2       752       750      2044      2116
 -1      1755    3    0    1
 -2      1256      1049       819      2471
 -1      1756    3    0    1
 -2       277       456       844      1262
 -1      1757    3    0    1
 -2       430      1587      1740      1799
 -1      1758    3    0    1
 -2       836      1265       843       835
 -1      1759    3    0    1
 -2      1265       836      1262      1050
 -1      1760    3    0    1
 -2       909       941      1120      1815
 -1      1761    3    0    1
 -2       345       759      1700      1829
 -1      1762    3    0    1
 -2      1501      1619      1763      1827
 -1      1763    3    0    1
 -2       819       815       814      1049
 -1      1764    3    0    1
 -2      1584      1694      1756      1890
 -1      1765    3    0    1
 -2      1403      1456      2652      2711
 -1      1766    3    0    1
 -2      1581      1472      1932      2168
 -1      1767    3    0    1
 -2       520      1775      1987      2084
 -1      1768    3    0    1
 -2       255       811       816       825
 -1      1769    3    0    1
 -2       816       811       823       825
 -1      1770    3    0    1
 -2       663       640      1681      2472
 -1      1771    3    0    1
 -2      1456      1486      1575      2711
 -1      1772    3    0    1
 -2       390       970      1158      1945
 -1      1773    3    0    1
 -2      1507      1451      1576      1712
 -1      1774    3    0    1
 -2      1404      1569      1914      2477
 -1      1775    3    0    1
 -2       406      2310      2406      2639
 -1      1776    3    0    1
 -2      1428      1526      1534      1807
 -1      1777    3    0    1
 -2       254       255       816       825
 -1      1778    3    0    1
 -2      1428      1526      1807      2047
 -1      1779    3    0    1
 -2      1270      1265      2312      2590
 -1      1780    3    0    1
 -2       843       835       850      1263
 -1      1781    3    0    1
 -2      1762       544      2377      2411
 -1      1782    3    0    1
 -2      1218       189      2427      2463
 -1      1783    3    0    1
 -2      1666      1461      1695      1837
 -1      1784    3    0    1
 -2       269       268       837       844
 -1      1785    3    0    1
 -2       269       837       838       844
 -1      1786    3    0    1
 -2       154       149      1202      2691
 -1      1787    3    0    1
 -2       829       816       821       831
 -1      1788    3    0    1
 -2       827       820       816       831
 -1      1789    3    0    1
 -2      1792      1865      2244      2606
 -1      1790    3    0    1
 -2       816       820       821       831
 -1      1791    3    0    1
 -2       262       435       821       831
 -1      1792    3    0    1
 -2      1375      1490      1758      1929
 -1      1793    3    0    1
 -2       821       820       823       831
 -1      1794    3    0    1
 -2       262       821       823       831
 -1      1795    3    0    1
 -2       399      1474      1940      2185
 -1      1796    3    0    1
 -2       261       259       820       831
 -1      1797    3    0    1
 -2       823       820       825       831
 -1      1798    3    0    1
 -2       820       259       825       831
 -1      1799    3    0    1
 -2       261       827       380       831
 -1      1800    3    0    1
 -2       821       433       829       831
 -1      1801    3    0    1
 -2       827       261       820       831
 -1      1802    3    0    1
 -2       435       433       821       831
 -1      1803    3    0    1
 -2       456       277       844       856
 -1      1804    3    0    1
 -2       276       848      1055      1057
 -1      1805    3    0    1
 -2       893      1293       894      1618
 -1      1806    3    0    1
 -2      1508       421      1790      1968
 -1      1807    3    0    1
 -2       836      1262      1050      1052
 -1      1808    3    0    1
 -2      1584      1694      1742      1778
 -1      1809    3    0    1
 -2      1529      1428      1541      2367
 -1      1810    3    0    1
 -2      1885      2706      2723      2725
 -1      1811    3    0    1
 -2       961       521       963       967
 -1      1812    3    0    1
 -2       268       852       837       849
 -1      1813    3    0    1
 -2       918      1316      1581      2168
 -1      1814    3    0    1
 -2       209       760      1700      2140
 -1      1815    3    0    1
 -2       841       842      1260      1264
 -1      1816    3    0    1
 -2       839      1057       847       846
 -1      1817    3    0    1
 -2       385       279      1055      1639
 -1      1818    3    0    1
 -2      1059      1271       857      1066
 -1      1819    3    0    1
 -2       268       837       844       849
 -1      1820    3    0    1
 -2       273      2332      2456      1351
 -1      1821    3    0    1
 -2       819       814       826      1049
 -1      1822    3    0    1
 -2       323      1769      1805      2562
 -1      1823    3    0    1
 -2      1059      1271      1066       860
 -1      1824    3    0    1
 -2        60       554      1149      1152
 -1      1825    3    0    1
 -2       270       854       848       837
 -1      1826    3    0    1
 -2      2054      2310      2437      2594
 -1      1827    3    0    1
 -2      1408      1884      1990      2052
 -1      1828    3    0    1
 -2       837       270       845       848
 -1      1829    3    0    1
 -2      1525      1802      2079      2088
 -1      1830    3    0    1
 -2      1644      1492      1744      2483
 -1      1831    3    0    1
 -2      1033       368      2570      2693
 -1      1832    3    0    1
 -2       267       834       833      1051
 -1      1833    3    0    1
 -2      1264      1054       842      1260
 -1      1834    3    0    1
 -2      1576      1451      1708      1712
 -1      1835    3    0    1
 -2       486      1129       487       479
 -1      1836    3    0    1
 -2       345       343       759      1829
 -1      1837    3    0    1
 -2      1547      1697      2016      2036
 -1      1838    3    0    1
 -2      1451      1507      1676      1818
 -1      1839    3    0    1
 -2      1062      1272      1064       863
 -1      1840    3    0    1
 -2       860      1066      1059       859
 -1      1841    3    0    1
 -2       286       875       868       862
 -1      1842    3    0    1
 -2       851       844       838       855
 -1      1843    3    0    1
 -2       853       838       845       855
 -1      1844    3    0    1
 -2       838       844       845       855
 -1      1845    3    0    1
 -2      1271      1059       857      1267
 -1      1846    3    0    1
 -2       860      1270       867       859
 -1      1847    3    0    1
 -2       872      1061      1063      1065
 -1      1848    3    0    1
 -2       383       456       844       855
 -1      1849    3    0    1
 -2       383       844       851       855
 -1      1850    3    0    1
 -2       853       279       385       855
 -1      1851    3    0    1
 -2       279       853       845       855
 -1      1852    3    0    1
 -2       276       845       848       856
 -1      1853    3    0    1
 -2       844       845       855       856
 -1      1854    3    0    1
 -2       845       844       848       856
 -1      1855    3    0    1
 -2       852       277       283       856
 -1      1856    3    0    1
 -2       277       852       849       856
 -1      1857    3    0    1
 -2       276       854       429       856
 -1      1858    3    0    1
 -2       295       868       879       880
 -1      1859    3    0    1
 -2       854       276       848       856
 -1      1860    3    0    1
 -2       872       869       873       880
 -1      1861    3    0    1
 -2       476      1127       475       947
 -1      1862    3    0    1
 -2      1063       864      1061      1269
 -1      1863    3    0    1
 -2      2035      1731      1596      2012
 -1      1864    3    0    1
 -2      1057       840      1055       846
 -1      1865    3    0    1
 -2      1117       311      1079      1561
 -1      1866    3    0    1
 -2       860      1270       859      1060
 -1      1867    3    0    1
 -2       868       293       873       880
 -1      1868    3    0    1
 -2      1975      1998      2556      2600
 -1      1869    3    0    1
 -2      2359       389      2456      1351
 -1      1870    3    0    1
 -2       487      1702      2186      2226
 -1      1871    3    0    1
 -2       289       290       861       869
 -1      1872    3    0    1
 -2       286       875       862       298
 -1      1873    3    0    1
 -2       863      1065       871       870
 -1      1874    3    0    1
 -2       861       290       862       869
 -1      1875    3    0    1
 -2       290       877       299       862
 -1      1876    3    0    1
 -2       290       877       862       869
 -1      1877    3    0    1
 -2       285       876       861       873
 -1      1878    3    0    1
 -2       864      1064       870       863
 -1      1879    3    0    1
 -2       861       289       869       872
 -1      1880    3    0    1
 -2       289       878       872       861
 -1      1881    3    0    1
 -2       293       295       868      1273
 -1      1882    3    0    1
 -2       864      1065       863       870
 -1      1883    3    0    1
 -2      1469      2082      2095      2228
 -1      1884    3    0    1
 -2       285       876       296       861
 -1      1885    3    0    1
 -2       475       953       483      1128
 -1      1886    3    0    1
 -2       858       857      1267      1271
 -1      1887    3    0    1
 -2       239       244      1869      2058
 -1      1888    3    0    1
 -2      1617      1658      1980      2068
 -1      1889    3    0    1
 -2       954       498       956       960
 -1      1890    3    0    1
 -2       877       862       869       879
 -1      1891    3    0    1
 -2       814      1258      1045       826
 -1      1892    3    0    1
 -2       875       868       862       879
 -1      1893    3    0    1
 -2       862       868       869       879
 -1      1894    3    0    1
 -2       154       149       681      1202
 -1      1895    3    0    1
 -2       428       427       869       879
 -1      1896    3    0    1
 -2       295       875       388       879
 -1      1897    3    0    1
 -2       869       427       877       879
 -1      1898    3    0    1
 -2       875       295       868       879
 -1      1899    3    0    1
 -2       295       293       868       880
 -1      1900    3    0    1
 -2       292       428       869       880
 -1      1901    3    0    1
 -2       869       428       879       880
 -1      1902    3    0    1
 -2       292       878       300       880
 -1      1903    3    0    1
 -2       876       293       397       880
 -1      1904    3    0    1
 -2       878       292       872       880
 -1      1905    3    0    1
 -2       293       876       873       880
 -1      1906    3    0    1
 -2       353      1347      1367      2756
 -1      1907    3    0    1
 -2       802      2423      2579      2654
 -1      1908    3    0    1
 -2      1210      1625      2398      2441
 -1      1909    3    0    1
 -2      1424      1522      1548      1918
 -1      1910    3    0    1
 -2      1274      1275      1591      1688
 -1      1911    3    0    1
 -2       641       642       997      1001
 -1      1912    3    0    1
 -2      1497      1514      1656      2067
 -1      1913    3    0    1
 -2       412       310      1526      1807
 -1      1914    3    0    1
 -2      1448      1471      1606      1801
 -1      1915    3    0    1
 -2      2017      1689      2081      2155
 -1      1916    3    0    1
 -2       353       157      2100      2731
 -1      1917    3    0    1
 -2      2260       832      2313      2563
 -1      1918    3    0    1
 -2      2049      1468      2605      2678
 -1      1919    3    0    1
 -2      1718      1809      2101      2408
 -1      1920    3    0    1
 -2       346      1219      1667      1877
 -1      1921    3    0    1
 -2       953       475       946      1128
 -1      1922    3    0    1
 -2      1937      1463      2212      2238
 -1      1923    3    0    1
 -2       889      1634      1798      1825
 -1      1924    3    0    1
 -2      1685      1425      1838      1878
 -1      1925    3    0    1
 -2      1192       654      1749      1808
 -1      1926    3    0    1
 -2       749       345       751      1029
 -1      1927    3    0    1
 -2      1124       473       946      1128
 -1      1928    3    0    1
 -2         4       485       948      1126
 -1      1929    3    0    1
 -2      1502      1219       726      1877
 -1      1930    3    0    1
 -2      1561      1447      1931      2072
 -1      1931    3    0    1
 -2       473      1124       474      1128
 -1      1932    3    0    1
 -2      1576      1451      1845      2239
 -1      1933    3    0    1
 -2       346      1699      2453      2653
 -1      1934    3    0    1
 -2      1443      1439      1612      1641
 -1      1935    3    0    1
 -2      1845      1624      1926      2042
 -1      1936    3    0    1
 -2      2064       391      2229      2523
 -1      1937    3    0    1
 -2       209       207      1027      2099
 -1      1938    3    0    1
 -2      1706      1994      2111      2146
 -1      1939    3    0    1
 -2      1542       420      1789      2450
 -1      1940    3    0    1
 -2       605        94       984      1176
 -1      1941    3    0    1
 -2      1840       333      2398      2441
 -1      1942    3    0    1
 -2      1903       798      2270      2544
 -1      1943    3    0    1
 -2      1672      1638      2001      2041
 -1      1944    3    0    1
 -2      1444      1406      1694      1864
 -1      1945    3    0    1
 -2        83        81       585      1169
 -1      1946    3    0    1
 -2       481         6       951      1129
 -1      1947    3    0    1
 -2      1645      1412      1647      1751
 -1      1948    3    0    1
 -2      1526      1529      1534      1986
 -1      1949    3    0    1
 -2       458       305      1280      1938
 -1      1950    3    0    1
 -2       261       259       831      2190
 -1      1951    3    0    1
 -2      1219      1502       726       727
 -1      1952    3    0    1
 -2       570       569       974       978
 -1      1953    3    0    1
 -2       437      1480      1629      1750
 -1      1954    3    0    1
 -2      1128       953      2360      1353
 -1      1955    3    0    1
 -2       487      1129      1702      1898
 -1      1956    3    0    1
 -2       476      1128       475       483
 -1      1957    3    0    1
 -2      1570      1427      1600      1717
 -1      1958    3    0    1
 -2      2351      1185      2480      2546
 -1      1959    3    0    1
 -2        26       505       506      1131
 -1      1960    3    0    1
 -2      1624      1709      1844      1936
 -1      1961    3    0    1
 -2       556      1157      2623      2647
 -1      1962    3    0    1
 -2      2029       405      2054      2406
 -1      1963    3    0    1
 -2      1557       928      1735      1788
 -1      1964    3    0    1
 -2      1281       885      1280      1938
 -1      1965    3    0    1
 -2      1647      1645      1751      1821
 -1      1966    3    0    1
 -2      1288      1287      1634      1798
 -1      1967    3    0    1
 -2      1774       941      1815      2420
 -1      1968    3    0    1
 -2       407       983      2040      2060
 -1      1969    3    0    1
 -2      1904       967      2344      1358
 -1      1970    3    0    1
 -2       151       150      1999      2013
 -1      1971    3    0    1
 -2      1158       558      1617      2170
 -1      1972    3    0    1
 -2      1029       752      2044      2222
 -1      1973    3    0    1
 -2       891      1071      1512      1593
 -1      1974    3    0    1
 -2      1413      1459      1847      1889
 -1      1975    3    0    1
 -2       969       558      1159      1680
 -1      1976    3    0    1
 -2      1521      1317      1855      1856
 -1      1977    3    0    1
 -2      1544      1607      1692      1812
 -1      1978    3    0    1
 -2       346       332      1219      1877
 -1      1979    3    0    1
 -2      1193       999      2135      2183
 -1      1980    3    0    1
 -2       840      1057      1053       839
 -1      1981    3    0    1
 -2       561        63       968      1160
 -1      1982    3    0    1
 -2      1338       903      1080      1930
 -1      1983    3    0    1
 -2       574      1166       586       580
 -1      1984    3    0    1
 -2      1324       325      1306      1516
 -1      1985    3    0    1
 -2       750      1227      2044      2342
 -1      1986    3    0    1
 -2       237      1041      1835      2277
 -1      1987    3    0    1
 -2      1055       385      1639      2172
 -1      1988    3    0    1
 -2      1043       791      1240      1244
 -1      1989    3    0    1
 -2      1461      1516      1695      2144
 -1      1990    3    0    1
 -2      1541      1522      1697      2012
 -1      1991    3    0    1
 -2      1961      1559      2091      2277
 -1      1992    3    0    1
 -2      1116      1305      2154      2567
 -1      1993    3    0    1
 -2      1640      1385      1725      1800
 -1      1994    3    0    1
 -2       262       823      1046      1048
 -1      1995    3    0    1
 -2       435       262       821      1046
 -1      1996    3    0    1
 -2      1630      1707      1913      2009
 -1      1997    3    0    1
 -2      1554      1460      1760      2110
 -1      1998    3    0    1
 -2      1709      1605      2136      2518
 -1      1999    3    0    1
 -2       990       628       634      2272
 -1      2000    3    0    1
 -2      1634      1437      1776      1798
 -1      2001    3    0    1
 -2        18      1582      2557      2597
 -1      2002    3    0    1
 -2      1922       291      2473      2661
 -1      2003    3    0    1
 -2       957      1924      2132      2687
 -1      2004    3    0    1
 -2      1297      1296      1448      2020
 -1      2005    3    0    1
 -2       600      1175      1174       597
 -1      2006    3    0    1
 -2      1046      1048      1436      2134
 -1      2007    3    0    1
 -2       797      1037      1243      1246
 -1      2008    3    0    1
 -2       332       346      1699      1877
 -1      2009    3    0    1
 -2      1540      1454      1909      2534
 -1      2010    3    0    1
 -2      1624      1590      1709      1925
 -1      2011    3    0    1
 -2      1332       350      1642      1649
 -1      2012    3    0    1
 -2      1429      1632      1707      1789
 -1      2013    3    0    1
 -2      1378      1428      1529      1532
 -1      2014    3    0    1
 -2       388      1536      2334      2590
 -1      2015    3    0    1
 -2       222       772       777      1239
 -1      2016    3    0    1
 -2       889      1288       890      1798
 -1      2017    3    0    1
 -2       619       992       630       631
 -1      2018    3    0    1
 -2        10      1127      1130      2361
 -1      2019    3    0    1
 -2      1387       333      2216      2441
 -1      2020    3    0    1
 -2      1456      1486      1642      1649
 -1      2021    3    0    1
 -2       203       749      1223      1225
 -1      2022    3    0    1
 -2       653       134       656      1000
 -1      2023    3    0    1
 -2      1751      1412      1802      2088
 -1      2024    3    0    1
 -2        32       520      1775      1987
 -1      2025    3    0    1
 -2       624      1185       990       634
 -1      2026    3    0    1
 -2      1587      1857      1954      2104
 -1      2027    3    0    1
 -2      1429      1632      1655      1816
 -1      2028    3    0    1
 -2      1614      1564      1832      2192
 -1      2029    3    0    1
 -2       483      1130      1127      2632
 -1      2030    3    0    1
 -2      2715      2672      1366      1367
 -1      2031    3    0    1
 -2      1334       318       457      1609
 -1      2032    3    0    1
 -2       152       676      1004      1198
 -1      2033    3    0    1
 -2       387       262      1804      2134
 -1      2034    3    0    1
 -2      1936      1709      2136      2518
 -1      2035    3    0    1
 -2       349       348      1201      1720
 -1      2036    3    0    1
 -2       440      1595      2394      2522
 -1      2037    3    0    1
 -2      1434      1439      1855      2010
 -1      2038    3    0    1
 -2       171       701      1205      1207
 -1      2039    3    0    1
 -2       819       802      1043      2492
 -1      2040    3    0    1
 -2       390        66       970      1945
 -1      2041    3    0    1
 -2      1466      1474      1636      1653
 -1      2042    3    0    1
 -2      1549      1448      1609      1677
 -1      2043    3    0    1
 -2      1643      1511      1664      2115
 -1      2044    3    0    1
 -2      1758      1715      1928      2268
 -1      2045    3    0    1
 -2       400      1762      2379      2411
 -1      2046    3    0    1
 -2      2037      1589      2410      2670
 -1      2047    3    0    1
 -2      1036      2018      2371      2418
 -1      2048    3    0    1
 -2      1553      1894      2039      2071
 -1      2049    3    0    1
 -2      1414      1559      2105      2138
 -1      2050    3    0    1
 -2        63        70      2294      2514
 -1      2051    3    0    1
 -2      1041      1903      1908      2544
 -1      2052    3    0    1
 -2      1411      1465      1631      1830
 -1      2053    3    0    1
 -2       333       167      1014      1625
 -1      2054    3    0    1
 -2      1544      1490      1567      1929
 -1      2055    3    0    1
 -2       484         2       489       945
 -1      2056    3    0    1
 -2      1842      1247      1903      2149
 -1      2057    3    0    1
 -2       476      1127       483       475
 -1      2058    3    0    1
 -2         1      1124         7       474
 -1      2059    3    0    1
 -2       205      1028      2045      2518
 -1      2060    3    0    1
 -2      1518      1508      1578      1947
 -1      2061    3    0    1
 -2      1667       346      2453      2653
 -1      2062    3    0    1
 -2       873       868      1266      1273
 -1      2063    3    0    1
 -2       482         5       481       949
 -1      2064    3    0    1
 -2       957      1772      1924      2412
 -1      2065    3    0    1
 -2      1955      1539      1964      2007
 -1      2066    3    0    1
 -2       479      1126       950       480
 -1      2067    3    0    1
 -2      1537      2574      2751      2770
 -1      2068    3    0    1
 -2       219       442      1679      2206
 -1      2069    3    0    1
 -2       960      1719      1352      1355
 -1      2070    3    0    1
 -2      1518      1761      1790      2103
 -1      2071    3    0    1
 -2      1747      1413      1847      1889
 -1      2072    3    0    1
 -2       486       952       950       479
 -1      2073    3    0    1
 -2      1851      1749      2161      2568
 -1      2074    3    0    1
 -2       480       479       486       950
 -1      2075    3    0    1
 -2      1065       864      1063       870
 -1      2076    3    0    1
 -2       440       231      2157      2522
 -1      2077    3    0    1
 -2      1336      1075      1687      1730
 -1      2078    3    0    1
 -2       479      1126       948       950
 -1      2079    3    0    1
 -2         6       482       481       951
 -1      2080    3    0    1
 -2       640       334      1910      2407
 -1      2081    3    0    1
 -2      1696      1921      2266      2273
 -1      2082    3    0    1
 -2       486       952       479       487
 -1      2083    3    0    1
 -2         9       485       950       952
 -1      2084    3    0    1
 -2       447      2360      1352      1353
 -1      2085    3    0    1
 -2      1718      1706      1809      2111
 -1      2086    3    0    1
 -2        32       508       513      1136
 -1      2087    3    0    1
 -2       498        25       954       956
 -1      2088    3    0    1
 -2      1535      1498      1640      1811
 -1      2089    3    0    1
 -2       510       499       511       957
 -1      2090    3    0    1
 -2       205      1748      1833      1971
 -1      2091    3    0    1
 -2      1302      1299      1604      1931
 -1      2092    3    0    1
 -2       920      1107       928      1735
 -1      2093    3    0    1
 -2      1107       322       340      1735
 -1      2094    3    0    1
 -2      1706      1718      1809      2101
 -1      2095    3    0    1
 -2      1658      1980      2068      2159
 -1      2096    3    0    1
 -2       499       500       511       957
 -1      2097    3    0    1
 -2      2051      2105      2138      2618
 -1      2098    3    0    1
 -2      1958       774      2474      2510
 -1      2099    3    0    1
 -2       342       993      1943      2331
 -1      2100    3    0    1
 -2       421       399       505       958
 -1      2101    3    0    1
 -2       505       399       506       958
 -1      2102    3    0    1
 -2       955       513      1136      1139
 -1      2103    3    0    1
 -2       524      1147      1143       523
 -1      2104    3    0    1
 -2      1160      2300      2478      2514
 -1      2105    3    0    1
 -2       871      1065      1713      2519
 -1      2106    3    0    1
 -2        28       509       957       959
 -1      2107    3    0    1
 -2       315       431      1562      2421
 -1      2108    3    0    1
 -2       505       421       958      1138
 -1      2109    3    0    1
 -2       505       958      1134      1138
 -1      2110    3    0    1
 -2       528       967       527       963
 -1      2111    3    0    1
 -2      1826       193      2464      2730
 -1      2112    3    0    1
 -2       534       523       535       964
 -1      2113    3    0    1
 -2       616       639      2069      2631
 -1      2114    3    0    1
 -2       219      1034      1981      2510
 -1      2115    3    0    1
 -2       497       960      1352      1355
 -1      2116    3    0    1
 -2       473       953      1128      1353
 -1      2117    3    0    1
 -2       523       524       535       964
 -1      2118    3    0    1
 -2       902      1078      1556      1600
 -1      2119    3    0    1
 -2      1027      1665      2099      2142
 -1      2120    3    0    1
 -2      1834      1836      2023      2689
 -1      2121    3    0    1
 -2       527      1146       967       531
 -1      2122    3    0    1
 -2       530       420       423       965
 -1      2123    3    0    1
 -2       420       530       529       965
 -1      2124    3    0    1
 -2        50        48       533       966
 -1      2125    3    0    1
 -2       391        69      2064      2229
 -1      2126    3    0    1
 -2       548      1158       559       558
 -1      2127    3    0    1
 -2        50       533       964       966
 -1      2128    3    0    1
 -2       971      1500      2647      1359
 -1      2129    3    0    1
 -2       529       965      1143      1147
 -1      2130    3    0    1
 -2       527       961       963       967
 -1      2131    3    0    1
 -2       527      1146       961       967
 -1      2132    3    0    1
 -2       528      1148      1145       538
 -1      2133    3    0    1
 -2      2296       985      2348      1360
 -1      2134    3    0    1
 -2      2343       507      2362      2364
 -1      2135    3    0    1
 -2       401       554       402       969
 -1      2136    3    0    1
 -2       554       401       553       969
 -1      2137    3    0    1
 -2      1376      1614      1832      2583
 -1      2138    3    0    1
 -2      1550      1994      2109      2111
 -1      2139    3    0    1
 -2      2092       798      2544      2686
 -1      2140    3    0    1
 -2       549       970      1150      1151
 -1      2141    3    0    1
 -2       572      1167       977       582
 -1      2142    3    0    1
 -2      1846      1590      1880      2453
 -1      2143    3    0    1
 -2       361       593      1356      1360
 -1      2144    3    0    1
 -2        77        73       579      1165
 -1      2145    3    0    1
 -2       980      1177       983       598
 -1      2146    3    0    1
 -2        76       570       974      1164
 -1      2147    3    0    1
 -2      1166       974       570      1164
 -1      2148    3    0    1
 -2       974      1166       570       978
 -1      2149    3    0    1
 -2       727       726      1022      1502
 -1      2150    3    0    1
 -2       573       572       583       976
 -1      2151    3    0    1
 -2       573      1168       976       583
 -1      2152    3    0    1
 -2      1298       895       896      2020
 -1      2153    3    0    1
 -2       736       185      1622      2535
 -1      2154    3    0    1
 -2      1851      2307      2331      2568
 -1      2155    3    0    1
 -2        31      1775      2487      2548
 -1      2156    3    0    1
 -2       435       433       831      1923
 -1      2157    3    0    1
 -2      1764      1574      1907      2230
 -1      2158    3    0    1
 -2      1532      1652      2016      2055
 -1      2159    3    0    1
 -2       579        73       585      1165
 -1      2160    3    0    1
 -2       598      1176      1173       595
 -1      2161    3    0    1
 -2      1275      1409      1591      1688
 -1      2162    3    0    1
 -2       106       629       632      1179
 -1      2163    3    0    1
 -2       120       632       987      1179
 -1      2164    3    0    1
 -2       595      1177       606       607
 -1      2165    3    0    1
 -2       597      1178       604       610
 -1      2166    3    0    1
 -2      1177       980       602      1170
 -1      2167    3    0    1
 -2       350       302      1642      1649
 -1      2168    3    0    1
 -2        89       605       979      1173
 -1      2169    3    0    1
 -2       120       106       632      1179
 -1      2170    3    0    1
 -2       602       407       601       983
 -1      2171    3    0    1
 -2        94       352       608       984
 -1      2172    3    0    1
 -2       736       370       759      2158
 -1      2173    3    0    1
 -2      1490      1544      1564      1828
 -1      2174    3    0    1
 -2       310      1089      1526      1807
 -1      2175    3    0    1
 -2       295      1270      1273      1536
 -1      2176    3    0    1
 -2      1493      1655      1746      1866
 -1      2177    3    0    1
 -2      1183      2324      2348      1361
 -1      2178    3    0    1
 -2       881      1275       882      1591
 -1      2179    3    0    1
 -2      1418      1488      1497      1608
 -1      2180    3    0    1
 -2      1375      1462      1544      1567
 -1      2181    3    0    1
 -2      1183      1939      2324      1361
 -1      2182    3    0    1
 -2       359       367      1939      1361
 -1      2183    3    0    1
 -2       652       124       657      1190
 -1      2184    3    0    1
 -2       988      1185       990       624
 -1      2185    3    0    1
 -2       624       994       623       989
 -1      2186    3    0    1
 -2       632       629       991      1179
 -1      2187    3    0    1
 -2      1548      1522      2012      2036
 -1      2188    3    0    1
 -2       624       990       623       634
 -1      2189    3    0    1
 -2       629       114       632       991
 -1      2190    3    0    1
 -2      1081      1105      1668      2118
 -1      2191    3    0    1
 -2       653       134      1000      1192
 -1      2192    3    0    1
 -2       620      1184       992       631
 -1      2193    3    0    1
 -2       421       399      1968      2083
 -1      2194    3    0    1
 -2      1346       690       157       689
 -1      2195    3    0    1
 -2       626       335       992      1184
 -1      2196    3    0    1
 -2       335       625       626       992
 -1      2197    3    0    1
 -2       620       992       619       631
 -1      2198    3    0    1
 -2      1574      1840      1992      2230
 -1      2199    3    0    1
 -2       630       619       631       993
 -1      2200    3    0    1
 -2       987       619       991       993
 -1      2201    3    0    1
 -2      1297       895      1296      2020
 -1      2202    3    0    1
 -2      2295        49      1354      1358
 -1      2203    3    0    1
 -2       619       630       991       993
 -1      2204    3    0    1
 -2       995       641      1001      1191
 -1      2205    3    0    1
 -2       641       128       995       997
 -1      2206    3    0    1
 -2      1004      1202       676      1006
 -1      2207    3    0    1
 -2      1192       644      1000      1187
 -1      2208    3    0    1
 -2      1002      1200       680      1008
 -1      2209    3    0    1
 -2       470      1098      1503      1521
 -1      2210    3    0    1
 -2       152       145       676      1198
 -1      2211    3    0    1
 -2      1672      1769      1788      1875
 -1      2212    3    0    1
 -2       142       677       680      1196
 -1      2213    3    0    1
 -2       338       650       341       999
 -1      2214    3    0    1
 -2       650       338       649       999
 -1      2215    3    0    1
 -2       124       127       657      1190
 -1      2216    3    0    1
 -2       762      1036      1362      1370
 -1      2217    3    0    1
 -2       371      2024      2140      2570
 -1      2218    3    0    1
 -2      1834      2023      2233      2304
 -1      2219    3    0    1
 -2       125       653       656      1188
 -1      2220    3    0    1
 -2       380       261      2190      2710
 -1      2221    3    0    1
 -2       441      2624      2629      2708
 -1      2222    3    0    1
 -2      1729      1615      2002      2328
 -1      2223    3    0    1
 -2       850      2312      2335      2354
 -1      2224    3    0    1
 -2       672      1009       671      1005
 -1      2225    3    0    1
 -2       222       226       784      2625
 -1      2226    3    0    1
 -2       673      1007      1195      1197
 -1      2227    3    0    1
 -2       692      1211       699       691
 -1      2228    3    0    1
 -2       672      1006       671       682
 -1      2229    3    0    1
 -2      1462      1544      1692      1812
 -1      2230    3    0    1
 -2      1510      1708      1712      2239
 -1      2231    3    0    1
 -2       668       667       679      1007
 -1      2232    3    0    1
 -2       668      1201      1007       679
 -1      2233    3    0    1
 -2       681       676      1198      1202
 -1      2234    3    0    1
 -2       348       674       349      1201
 -1      2235    3    0    1
 -2       674       348       673      1201
 -1      2236    3    0    1
 -2       674       673      1197      1201
 -1      2237    3    0    1
 -2      1295      1526      1606      1807
 -1      2238    3    0    1
 -2       408      1596      1731      1916
 -1      2239    3    0    1
 -2       673       348      1007      1201
 -1      2240    3    0    1
 -2       704       701      1015      1205
 -1      2241    3    0    1
 -2       671      1003      1005      1009
 -1      2242    3    0    1
 -2       671      1199      1003      1009
 -1      2243    3    0    1
 -2       697       162       698      1012
 -1      2244    3    0    1
 -2       696      1209      1207       695
 -1      2245    3    0    1
 -2      1578      1493      1738      1912
 -1      2246    3    0    1
 -2       705       700      1011      1013
 -1      2247    3    0    1
 -2       720      1218      1216      1022
 -1      2248    3    0    1
 -2      1568       329      1106       337
 -1      2249    3    0    1
 -2      2027      2736      1364      1371
 -1      2250    3    0    1
 -2      1211      1011       705      1203
 -1      2251    3    0    1
 -2       159       689      1010      1204
 -1      2252    3    0    1
 -2      1375      1462      1490      1544
 -1      2253    3    0    1
 -2       423       420      2614      2615
 -1      2254    3    0    1
 -2       166       168       704      1015
 -1      2255    3    0    1
 -2       720      1218      1022       726
 -1      2256    3    0    1
 -2      1376      1614      1828      1832
 -1      2257    3    0    1
 -2      1426      1440      1549      1703
 -1      2258    3    0    1
 -2      1453      1675      1942      2369
 -1      2259    3    0    1
 -2      2500      1009      2601      1347
 -1      2260    3    0    1
 -2      1768      1517      1784      1864
 -1      2261    3    0    1
 -2      1022       720      1214      1216
 -1      2262    3    0    1
 -2       716      1020       715      1019
 -1      2263    3    0    1
 -2       729       184      1017      1019
 -1      2264    3    0    1
 -2       772      1031      1033      1230
 -1      2265    3    0    1
 -2       965      2285      2368      2615
 -1      2266    3    0    1
 -2      1018      1217       714      1023
 -1      2267    3    0    1
 -2      1217      1018       714      1212
 -1      2268    3    0    1
 -2      1017       729      1019      1020
 -1      2269    3    0    1
 -2       715       723       730      1020
 -1      2270    3    0    1
 -2      1229      1025       753      1221
 -1      2271    3    0    1
 -2      1391      1501      1633      1643
 -1      2272    3    0    1
 -2       715      1017      1019      1020
 -1      2273    3    0    1
 -2       715      1220      1017      1020
 -1      2274    3    0    1
 -2      1219       726      1021       719
 -1      2275    3    0    1
 -2      1017       729      1020      1220
 -1      2276    3    0    1
 -2      1834       434      2023      2235
 -1      2277    3    0    1
 -2      1836      1842      2225      2610
 -1      2278    3    0    1
 -2       744      1227       743       750
 -1      2279    3    0    1
 -2      1617       535      1658      1969
 -1      2280    3    0    1
 -2      1438      1935      2193      2374
 -1      2281    3    0    1
 -2       535       966      1617      1873
 -1      2282    3    0    1
 -2       721      1021      1215      1219
 -1      2283    3    0    1
 -2       716      1023       715       723
 -1      2284    3    0    1
 -2       725       728      1216      1218
 -1      2285    3    0    1
 -2      1890      1528      1895      1920
 -1      2286    3    0    1
 -2       740      1226      1222       739
 -1      2287    3    0    1
 -2      1384      1493      1746      1761
 -1      2288    3    0    1
 -2       744      1227      1225       743
 -1      2289    3    0    1
 -2      1029       743      1223      1225
 -1      2290    3    0    1
 -2      1473      1439      1641      1724
 -1      2291    3    0    1
 -2       753       748      1025      1027
 -1      2292    3    0    1
 -2      2180       416      2581      2685
 -1      2293    3    0    1
 -2       715      1220      1020       730
 -1      2294    3    0    1
 -2       197       738      1024      1222
 -1      2295    3    0    1
 -2      1025      1229       753      1027
 -1      2296    3    0    1
 -2       446       519      2126      2373
 -1      2297    3    0    1
 -2       738       193       737      1363
 -1      2298    3    0    1
 -2       749      1029      1225      1227
 -1      2299    3    0    1
 -2       743      1228       750       752
 -1      2300    3    0    1
 -2       749      1029      1223      1225
 -1      2301    3    0    1
 -2       992       630       631      1711
 -1      2302    3    0    1
 -2       768      1237      1035       774
 -1      2303    3    0    1
 -2       424      1300      1554      1760
 -1      2304    3    0    1
 -2       329      1293      1568      1644
 -1      2305    3    0    1
 -2      1029       743      1225      1227
 -1      2306    3    0    1
 -2       212       762      1032      1231
 -1      2307    3    0    1
 -2       763       771       778      1033
 -1      2308    3    0    1
 -2       739      1229       747       754
 -1      2309    3    0    1
 -2       763       765       771      1033
 -1      2310    3    0    1
 -2       763      1239      1031      1033
 -1      2311    3    0    1
 -2       769       217      1233      1234
 -1      2312    3    0    1
 -2       768       766       774      1035
 -1      2313    3    0    1
 -2        83        81      1169      2008
 -1      2314    3    0    1
 -2      1523      1568      1745      2191
 -1      2315    3    0    1
 -2       769      1034      1233      1238
 -1      2316    3    0    1
 -2      2626      2326      2732      2752
 -1      2317    3    0    1
 -2       790      1246      1243       789
 -1      2318    3    0    1
 -2      1493      1738      1912      2102
 -1      2319    3    0    1
 -2       370       207      1700      2099
 -1      2320    3    0    1
 -2       791      1040       788      1039
 -1      2321    3    0    1
 -2      1843       386      1871      2082
 -1      2322    3    0    1
 -2      1321       906       923      2433
 -1      2323    3    0    1
 -2      1046       813      1048      1249
 -1      2324    3    0    1
 -2       801       796      1039      1040
 -1      2325    3    0    1
 -2       791       788      1043      1240
 -1      2326    3    0    1
 -2      2033      1063      2298      2455
 -1      2327    3    0    1
 -2       763      1239      1033       778
 -1      2328    3    0    1
 -2       233       794      1038      1242
 -1      2329    3    0    1
 -2       788       795       802      1040
 -1      2330    3    0    1
 -2       823      1046      1249       821
 -1      2331    3    0    1
 -2       794       237       793      1041
 -1      2332    3    0    1
 -2      1778      1422      1900      1932
 -1      2333    3    0    1
 -2      1374      1499      1651      2109
 -1      2334    3    0    1
 -2      1104      1516      1635      1755
 -1      2335    3    0    1
 -2       795       791       788      1043
 -1      2336    3    0    1
 -2       791      1245      1043       795
 -1      2337    3    0    1
 -2      1749      1851      2331      2568
 -1      2338    3    0    1
 -2      1738      1493      1761      1866
 -1      2339    3    0    1
 -2      1595      1246      1814      2686
 -1      2340    3    0    1
 -2       231      1035      2400      2435
 -1      2341    3    0    1
 -2       992      1520      2014      2271
 -1      2342    3    0    1
 -2       814       819       826      1045
 -1      2343    3    0    1
 -2       788      1248      1040       802
 -1      2344    3    0    1
 -2       813       812      1048      1249
 -1      2345    3    0    1
 -2      1282       304      1567      1607
 -1      2346    3    0    1
 -2      1778      1472      1957      2021
 -1      2347    3    0    1
 -2       583       582       977      2577
 -1      2348    3    0    1
 -2      1821      1751      1857      2104
 -1      2349    3    0    1
 -2      2017      2154      2156      2567
 -1      2350    3    0    1
 -2       817       252      1250      1251
 -1      2351    3    0    1
 -2       822       812       824      1048
 -1      2352    3    0    1
 -2       812      1257      1047       824
 -1      2353    3    0    1
 -2      1493      1578      1738      1761
 -1      2354    3    0    1
 -2      1569      1780      2063      2470
 -1      2355    3    0    1
 -2       813       812       822      1048
 -1      2356    3    0    1
 -2        68      1762      1345      2019
 -1      2357    3    0    1
 -2      1046       823      1249      1048
 -1      2358    3    0    1
 -2       813       822      1046      1048
 -1      2359    3    0    1
 -2       815      1256      1049       819
 -1      2360    3    0    1
 -2       392        53      2321      2763
 -1      2361    3    0    1
 -2       337       329      1292      1568
 -1      2362    3    0    1
 -2       817      1047      1250      1257
 -1      2363    3    0    1
 -2       842       272       841      1260
 -1      2364    3    0    1
 -2       849       277      1262      1265
 -1      2365    3    0    1
 -2       849       268      1050      1052
 -1      2366    3    0    1
 -2      1290      1072      1659      2383
 -1      2367    3    0    1
 -2      1559      1961      2091      2443
 -1      2368    3    0    1
 -2      1136       507      1972      2364
 -1      2369    3    0    1
 -2      1053       848      1055      1261
 -1      2370    3    0    1
 -2       848       845      1055      1261
 -1      2371    3    0    1
 -2      1055       840      1053      1261
 -1      2372    3    0    1
 -2       840      1056       839      1054
 -1      2373    3    0    1
 -2      2732      1939      2733      2762
 -1      2374    3    0    1
 -2      1137       960      2362      1352
 -1      2375    3    0    1
 -2       434      1047      1843      2220
 -1      2376    3    0    1
 -2       845       276       848      1055
 -1      2377    3    0    1
 -2       840      1057      1055      1053
 -1      2378    3    0    1
 -2      1627      1659      1942      2383
 -1      2379    3    0    1
 -2       889      1289      1070      1825
 -1      2380    3    0    1
 -2      1867       382      2209      2639
 -1      2381    3    0    1
 -2      1472      1900      1957      2021
 -1      2382    3    0    1
 -2      1147       965      1969      2615
 -1      2383    3    0    1
 -2       960      1719      2362      1352
 -1      2384    3    0    1
 -2       865       866      1268      1272
 -1      2385    3    0    1
 -2       723      1020      1577      2566
 -1      2386    3    0    1
 -2       317       444      1967      2536
 -1      2387    3    0    1
 -2       840      1057       839       846
 -1      2388    3    0    1
 -2      2332      1058      2359      1351
 -1      2389    3    0    1
 -2      1615      2297      2328      2455
 -1      2390    3    0    1
 -2       430       384       841      1264
 -1      2391    3    0    1
 -2       857       284       858      1267
 -1      2392    3    0    1
 -2      1278      1277      1805      2562
 -1      2393    3    0    1
 -2      1061       872      1063      1269
 -1      2394    3    0    1
 -2       872       869      1063      1269
 -1      2395    3    0    1
 -2       864      1064       863      1062
 -1      2396    3    0    1
 -2      1520      1555      1927      2468
 -1      2397    3    0    1
 -2      1557      1672      2001      2041
 -1      2398    3    0    1
 -2       404       408      1731      1916
 -1      2399    3    0    1
 -2       869       292       872      1063
 -1      2400    3    0    1
 -2       864      1065      1063      1061
 -1      2401    3    0    1
 -2       860      1271      1066       867
 -1      2402    3    0    1
 -2      1107       340      1557      1735
 -1      2403    3    0    1
 -2       289       290       869      1269
 -1      2404    3    0    1
 -2       800       798      1246      2270
 -1      2405    3    0    1
 -2      1795      1782      1810      1984
 -1      2406    3    0    1
 -2       860      1066       859       867
 -1      2407    3    0    1
 -2       486      1129       479       951
 -1      2408    3    0    1
 -2      2399      2556      2600      2636
 -1      2409    3    0    1
 -2      1516       325      1691      1755
 -1      2410    3    0    1
 -2      1084       907      1950      2011
 -1      2411    3    0    1
 -2      1481      1495      1556      1942
 -1      2412    3    0    1
 -2       807       366      2629      2708
 -1      2413    3    0    1
 -2       175       176       713      1212
 -1      2414    3    0    1
 -2       496      2373      2512      2674
 -1      2415    3    0    1
 -2      2422       214      1362      1370
 -1      2416    3    0    1
 -2      2182      2299      2498      2670
 -1      2417    3    0    1
 -2      1430      1510      1833      1971
 -1      2418    3    0    1
 -2      1158       970      1680      1945
 -1      2419    3    0    1
 -2      1315      1109      1626      1849
 -1      2420    3    0    1
 -2       915      1329       929      2007
 -1      2421    3    0    1
 -2        18      1582      2226      2502
 -1      2422    3    0    1
 -2      1430      1510      1748      1833
 -1      2423    3    0    1
 -2      2326      2119      2626      2732
 -1      2424    3    0    1
 -2      1928      1715      2241      2309
 -1      2425    3    0    1
 -2      1633      1511      1643      2115
 -1      2426    3    0    1
 -2      2448      2160      2619      2651
 -1      2427    3    0    1
 -2       421      1968      2000      2083
 -1      2428    3    0    1
 -2      1418      1656      2067      2133
 -1      2429    3    0    1
 -2      1551      1937      2212      2238
 -1      2430    3    0    1
 -2       496        12      2087      2373
 -1      2431    3    0    1
 -2       421       958      1138      2165
 -1      2432    3    0    1
 -2      1543      1696      1917      2098
 -1      2433    3    0    1
 -2      1846      1494      1880      2025
 -1      2434    3    0    1
 -2      1628      1666      2022      2450
 -1      2435    3    0    1
 -2       307      1288      1822      2118
 -1      2436    3    0    1
 -2      1293       893      1292      1618
 -1      2437    3    0    1
 -2       730       747      2062      2143
 -1      2438    3    0    1
 -2      1185       990       634      2272
 -1      2439    3    0    1
 -2      1959      2302      2598      2621
 -1      2440    3    0    1
 -2      1848      2053      2117      2526
 -1      2441    3    0    1
 -2      1525      1631      1799      2372
 -1      2442    3    0    1
 -2      1426      1440      1811      2201
 -1      2443    3    0    1
 -2       362       982      1178      1477
 -1      2444    3    0    1
 -2       970      1680      1945      2029
 -1      2445    3    0    1
 -2         9        16       952      2502
 -1      2446    3    0    1
 -2      1226      2026      2464      2542
 -1      2447    3    0    1
 -2       318      1094      1549      1609
 -1      2448    3    0    1
 -2       441       226      1239      2624
 -1      2449    3    0    1
 -2      1632      1450      1655      1816
 -1      2450    3    0    1
 -2      1293      1292      1568      1745
 -1      2451    3    0    1
 -2       306      1315      1109      1626
 -1      2452    3    0    1
 -2      1468      1455      2196      2243
 -1      2453    3    0    1
 -2      1022       727      1502      1988
 -1      2454    3    0    1
 -2      1729      1740      1831      2059
 -1      2455    3    0    1
 -2      1548       408      1731      1732
 -1      2456    3    0    1
 -2      1504       402      2339      2607
 -1      2457    3    0    1
 -2      1433      1443      1486      1575
 -1      2458    3    0    1
 -2      1177       606       607      2179
 -1      2459    3    0    1
 -2       834      1051      1259      1263
 -1      2460    3    0    1
 -2       330       688       711      1383
 -1      2461    3    0    1
 -2      1437      1493      1912      2102
 -1      2462    3    0    1
 -2       440      1246      1595      2522
 -1      2463    3    0    1
 -2       735      1622      1901      2535
 -1      2464    3    0    1
 -2      2606      1850      2249      2308
 -1      2465    3    0    1
 -2      1490      1375      1544      1567
 -1      2466    3    0    1
 -2      1331       463       464      1641
 -1      2467    3    0    1
 -2       393       452      1148      2523
 -1      2468    3    0    1
 -2      1054      1264       842      1056
 -1      2469    3    0    1
 -2      1909      1454      2070      2534
 -1      2470    3    0    1
 -2      1128       953      2355      2360
 -1      2471    3    0    1
 -2      1597      1380      1662      1686
 -1      2472    3    0    1
 -2      1440      1535      1656      1811
 -1      2473    3    0    1
 -2      1435      1726      2080      2538
 -1      2474    3    0    1
 -2      1683      1384      1746      1761
 -1      2475    3    0    1
 -2      2257      2553      2610      2611
 -1      2476    3    0    1
 -2       453        36      2743      2764
 -1      2477    3    0    1
 -2        31        28       519      1775
 -1      2478    3    0    1
 -2      1301       424       468      1760
 -1      2479    3    0    1
 -2      1780      1569      2288      2470
 -1      2480    3    0    1
 -2      1496      1523      1618      1860
 -1      2481    3    0    1
 -2       730       723      1577      2566
 -1      2482    3    0    1
 -2      1501      1473      1611      1724
 -1      2483    3    0    1
 -2      1490      1375      1567      1929
 -1      2484    3    0    1
 -2      1651      1499      1736      2109
 -1      2485    3    0    1
 -2      1627      1453      1942      2369
 -1      2486    3    0    1
 -2      1958       230      1993      2474
 -1      2487    3    0    1
 -2      1817      1569      1914      2197
 -1      2488    3    0    1
 -2      1527      1472      1557      2021
 -1      2489    3    0    1
 -2      1459      1747      1889      2543
 -1      2490    3    0    1
 -2      1888      1064      2223      2297
 -1      2491    3    0    1
 -2      1507      1818      2181      2265
 -1      2492    3    0    1
 -2       129       139      2351      2630
 -1      2493    3    0    1
 -2       472       439      1084      2275
 -1      2494    3    0    1
 -2       972      1167       584       977
 -1      2495    3    0    1
 -2      1794       699      1013      2712
 -1      2496    3    0    1
 -2      2260       383      2291      2313
 -1      2497    3    0    1
 -2      1331       464      1612      1641
 -1      2498    3    0    1
 -2      1258      1965      2121      2387
 -1      2499    3    0    1
 -2      1193       341      2183      2549
 -1      2500    3    0    1
 -2      1751      1645      1857      2104
 -1      2501    3    0    1
 -2      1545      1494      1623      1848
 -1      2502    3    0    1
 -2      1546      1399      1764      2066
 -1      2503    3    0    1
 -2      1769       303      1318       323
 -1      2504    3    0    1
 -2      1291       308      1071      1512
 -1      2505    3    0    1
 -2       907      1340       940      2011
 -1      2506    3    0    1
 -2      1487       883      1279       884
 -1      2507    3    0    1
 -2      1631       430      1740      1799
 -1      2508    3    0    1
 -2       933      1112      1534      1986
 -1      2509    3    0    1
 -2      1247      1038       794      1242
 -1      2510    3    0    1
 -2      1579      2148      2164      2189
 -1      2511    3    0    1
 -2      1246       440      1595      1814
 -1      2512    3    0    1
 -2      1258       826      2259      2387
 -1      2513    3    0    1
 -2      2561       186      2645      1368
 -1      2514    3    0    1
 -2      1414      2618      2105      1484
 -1      2515    3    0    1
 -2      1611      1501      1763      1827
 -1      2516    3    0    1
 -2      1538      1466      2120      2139
 -1      2517    3    0    1
 -2       408       404      1731      1732
 -1      2518    3    0    1
 -2      2198      1951      2585      2695
 -1      2519    3    0    1
 -2       231       440      2394      2522
 -1      2520    3    0    1
 -2      1716      1390      1859      2078
 -1      2521    3    0    1
 -2      1762      1960      1345      2019
 -1      2522    3    0    1
 -2      1531      1405      2258      2537
 -1      2523    3    0    1
 -2      1474      1466      1940      2185
 -1      2524    3    0    1
 -2       763       765      1033      1230
 -1      2525    3    0    1
 -2      1256      1043      2481      2492
 -1      2526    3    0    1
 -2      1857      1645      1954      2104
 -1      2527    3    0    1
 -2       301      1276       459      2592
 -1      2528    3    0    1
 -2      1292       329      1293      1568
 -1      2529    3    0    1
 -2      1722       926      1899      2168
 -1      2530    3    0    1
 -2      1066       396      2290      1350
 -1      2531    3    0    1
 -2      2079      1419      2090      2267
 -1      2532    3    0    1
 -2       971       379      1166      1500
 -1      2533    3    0    1
 -2      2240      2081      2537      2612
 -1      2534    3    0    1
 -2       915      1108      1314      1676
 -1      2535    3    0    1
 -2      1455      1786      2196      2204
 -1      2536    3    0    1
 -2      1581      1660      1722      1932
 -1      2537    3    0    1
 -2      1055       276      1057      1639
 -1      2538    3    0    1
 -2      2253      1583      2555      2588
 -1      2539    3    0    1
 -2       134       137      1000      1882
 -1      2540    3    0    1
 -2      1518      1508      1947      1983
 -1      2541    3    0    1
 -2      1184       986       626      1180
 -1      2542    3    0    1
 -2      1708      1394      1712      1818
 -1      2543    3    0    1
 -2      1695      1585      1837      2144
 -1      2544    3    0    1
 -2       400        68      1762      1345
 -1      2545    3    0    1
 -2      2039      1465      2071      2515
 -1      2546    3    0    1
 -2       969       558      1680      2578
 -1      2547    3    0    1
 -2      1085      1323      1692      1812
 -1      2548    3    0    1
 -2       302      1068      1642      1649
 -1      2549    3    0    1
 -2      1944       752      2395      2474
 -1      2550    3    0    1
 -2      1776      1630      1822      2009
 -1      2551    3    0    1
 -2      1914      2151      2176      2197
 -1      2552    3    0    1
 -2      1440      1549      1609      1677
 -1      2553    3    0    1
 -2      1781      1684      1784      2479
 -1      2554    3    0    1
 -2      1422      1584      1895      1920
 -1      2555    3    0    1
 -2      2576      1470      2726      2727
 -1      2556    3    0    1
 -2       929      1507      1676      2007
 -1      2557    3    0    1
 -2        83        81      2008      2209
 -1      2558    3    0    1
 -2      1591      1513      1646      1771
 -1      2559    3    0    1
 -2       643      1192       655       654
 -1      2560    3    0    1
 -2      1433      1391      1501      1633
 -1      2561    3    0    1
 -2       119       116       633      1185
 -1      2562    3    0    1
 -2       914      1334       934      1703
 -1      2563    3    0    1
 -2      1700       345      1829      2293
 -1      2564    3    0    1
 -2      1512       891      1593      2114
 -1      2565    3    0    1
 -2       650       123       130      1186
 -1      2566    3    0    1
 -2       650       999      1189      1193
 -1      2567    3    0    1
 -2      1219       346      1667      1844
 -1      2568    3    0    1
 -2      1538      1499      2120      2286
 -1      2569    3    0    1
 -2      1630      1429      1707      2009
 -1      2570    3    0    1
 -2      1546       332      1764      1907
 -1      2571    3    0    1
 -2      2124      2395      2474      2495
 -1      2572    3    0    1
 -2      1021      1620      1907      2547
 -1      2573    3    0    1
 -2       631       993      1851      2307
 -1      2574    3    0    1
 -2      1581      1422      1660      1932
 -1      2575    3    0    1
 -2      1472      1778      1900      1932
 -1      2576    3    0    1
 -2        18        16      1582      2502
 -1      2577    3    0    1
 -2      1855      1503      1856      2442
 -1      2578    3    0    1
 -2      1387      1619      1827      2216
 -1      2579    3    0    1
 -2       393       391      2377      2523
 -1      2580    3    0    1
 -2      1320      1077      1600      1717
 -1      2581    3    0    1
 -2      1891      1492      2028      2483
 -1      2582    3    0    1
 -2       175       713       714      1212
 -1      2583    3    0    1
 -2       725       179       728      1218
 -1      2584    3    0    1
 -2       385      2172      2430      2563
 -1      2585    3    0    1
 -2      1323       327      1607      1692
 -1      2586    3    0    1
 -2      1709      1624      1925      1936
 -1      2587    3    0    1
 -2      1264       430      1740      1831
 -1      2588    3    0    1
 -2       657       652      1190      1194
 -1      2589    3    0    1
 -2       802      2423      2492      2579
 -1      2590    3    0    1
 -2       464      1111      1443      1641
 -1      2591    3    0    1
 -2      1490      1375      1758      1915
 -1      2592    3    0    1
 -2       413      1566      1594      1800
 -1      2593    3    0    1
 -2      2257      1436      2553      2611
 -1      2594    3    0    1
 -2      1772       510      1896      1924
 -1      2595    3    0    1
 -2      1393      1505      1623      1654
 -1      2596    3    0    1
 -2      1687      1075      2509      2567
 -1      2597    3    0    1
 -2      1184      1616      2108      2392
 -1      2598    3    0    1
 -2      1111      1319      1443      1641
 -1      2599    3    0    1
 -2      1833      1693      1971      2239
 -1      2600    3    0    1
 -2      1740      1729      1831      2413
 -1      2601    3    0    1
 -2       966      1617      1873      2379
 -1      2602    3    0    1
 -2      1655      1450      1746      1816
 -1      2603    3    0    1
 -2       895      1295      1606      2020
 -1      2604    3    0    1
 -2       388       295      1536      2590
 -1      2605    3    0    1
 -2       783       368      1690      2287
 -1      2606    3    0    1
 -2      1282       885       886      2424
 -1      2607    3    0    1
 -2      1605      1028      2045      2116
 -1      2608    3    0    1
 -2       343       759      1829      2097
 -1      2609    3    0    1
 -2      1499      1374      1876      2139
 -1      2610    3    0    1
 -2      1993      1958      2474      2495
 -1      2611    3    0    1
 -2       783      1996      2224      2287
 -1      2612    3    0    1
 -2         5       481       949      1125
 -1      2613    3    0    1
 -2       949      1129       951       479
 -1      2614    3    0    1
 -2      1129       949       481      1125
 -1      2615    3    0    1
 -2      1100       919      1457      1612
 -1      2616    3    0    1
 -2        10       394       484      1127
 -1      2617    3    0    1
 -2      1965      1258      2259      2387
 -1      2618    3    0    1
 -2      1450      1632      1789      2702
 -1      2619    3    0    1
 -2       395      1128      2360      1353
 -1      2620    3    0    1
 -2      1035      2400      2435      2496
 -1      2621    3    0    1
 -2      1669      1402      1742      1957
 -1      2622    3    0    1
 -2       945       484       947      1127
 -1      2623    3    0    1
 -2       859      1273      1270       874
 -1      2624    3    0    1
 -2       483      1130       490       475
 -1      2625    3    0    1
 -2      1765      1841      2003      2303
 -1      2626    3    0    1
 -2      1412      1751      1802      1862
 -1      2627    3    0    1
 -2       947       475       945      1127
 -1      2628    3    0    1
 -2       475      1130       945      1127
 -1      2629    3    0    1
 -2       949      1129       479      1125
 -1      2630    3    0    1
 -2       489       484       945      1130
 -1      2631    3    0    1
 -2       945       484      1127      1130
 -1      2632    3    0    1
 -2      1488      1418      1497      2133
 -1      2633    3    0    1
 -2      1631       430      1799      2372
 -1      2634    3    0    1
 -2       483      1130       475      1127
 -1      2635    3    0    1
 -2       500      1138      1134       499
 -1      2636    3    0    1
 -2       513        32      1136      1139
 -1      2637    3    0    1
 -2       505       958      1131      1134
 -1      2638    3    0    1
 -2       509       957       959      1133
 -1      2639    3    0    1
 -2       509        21      1132      1133
 -1      2640    3    0    1
 -2       957       509      1132      1133
 -1      2641    3    0    1
 -2       958       499      1131      1134
 -1      2642    3    0    1
 -2       500      1138       499       511
 -1      2643    3    0    1
 -2       530       529       965      1140
 -1      2644    3    0    1
 -2       513       508       955      1136
 -1      2645    3    0    1
 -2      1112       310      1089      1526
 -1      2646    3    0    1
 -2      1301       897      1300      1760
 -1      2647    3    0    1
 -2       343      1650      1829      2317
 -1      2648    3    0    1
 -2       464       463      1111      1641
 -1      2649    3    0    1
 -2       530        38       529      1140
 -1      2650    3    0    1
 -2       533       964       966      1142
 -1      2651    3    0    1
 -2       529       965      1140      1143
 -1      2652    3    0    1
 -2      1744      1485      2191      2483
 -1      2653    3    0    1
 -2       464      1443      1612      1641
 -1      2654    3    0    1
 -2       965       523      1140      1143
 -1      2655    3    0    1
 -2       499       510       511      1138
 -1      2656    3    0    1
 -2       958       499      1134      1138
 -1      2657    3    0    1
 -2       510       499       958      1138
 -1      2658    3    0    1
 -2       922       902      1556      1600
 -1      2659    3    0    1
 -2      1108      1507      2181      2265
 -1      2660    3    0    1
 -2       514       503       507      1139
 -1      2661    3    0    1
 -2      1551      1891      1937      2238
 -1      2662    3    0    1
 -2       962      1148      1145       528
 -1      2663    3    0    1
 -2       955       503      1135      1139
 -1      2664    3    0    1
 -2      1136       503       955      1139
 -1      2665    3    0    1
 -2       503      1136       507      1139
 -1      2666    3    0    1
 -2        45       532       962      1144
 -1      2667    3    0    1
 -2       546        52        57      1153
 -1      2668    3    0    1
 -2      1306      1324      1691      1823
 -1      2669    3    0    1
 -2       901       937      1116      2154
 -1      2670    3    0    1
 -2       553       554       969      1149
 -1      2671    3    0    1
 -2      2023      1610      2043      2485
 -1      2672    3    0    1
 -2       402      2251      2353      2607
 -1      2673    3    0    1
 -2       800      1836      1842      2225
 -1      2674    3    0    1
 -2       528      1145       527       538
 -1      2675    3    0    1
 -2       554       969      1149      1152
 -1      2676    3    0    1
 -2       553        60       554      1149
 -1      2677    3    0    1
 -2      1617      1658      1873      2565
 -1      2678    3    0    1
 -2       523       534       535      1147
 -1      2679    3    0    1
 -2       965       523      1143      1147
 -1      2680    3    0    1
 -2      1377      1400      1408      2052
 -1      2681    3    0    1
 -2       534       523       965      1147
 -1      2682    3    0    1
 -2         6      1382      1499      1736
 -1      2683    3    0    1
 -2        12      2087      2373      2674
 -1      2684    3    0    1
 -2       962      1148       528      1144
 -1      2685    3    0    1
 -2       532       452      1145      1148
 -1      2686    3    0    1
 -2       549      1158       970       559
 -1      2687    3    0    1
 -2       549      1159      1152       548
 -1      2688    3    0    1
 -2       549      1159       548       559
 -1      2689    3    0    1
 -2       969       548      1149      1152
 -1      2690    3    0    1
 -2       551      1160      1156       550
 -1      2691    3    0    1
 -2      1218      1022       726      1502
 -1      2692    3    0    1
 -2      1175       985      2296      1360
 -1      2693    3    0    1
 -2       546       971      1155      1157
 -1      2694    3    0    1
 -2       383      1258      1262      2291
 -1      2695    3    0    1
 -2       550      1157       562       556
 -1      2696    3    0    1
 -2       551      1157       562       550
 -1      2697    3    0    1
 -2       971       551      1153      1155
 -1      2698    3    0    1
 -2       551      1157       971       562
 -1      2699    3    0    1
 -2       573       572       976      1161
 -1      2700    3    0    1
 -2       968       550      1154      1156
 -1      2701    3    0    1
 -2      2321       392      2344      1359
 -1      2702    3    0    1
 -2       822      1046      1048      1436
 -1      2703    3    0    1
 -2      2259      1049      2332      2471
 -1      2704    3    0    1
 -2      1594      1398      1678      1800
 -1      2705    3    0    1
 -2         6       416       951      2581
 -1      2706    3    0    1
 -2       551      1157       550      1155
 -1      2707    3    0    1
 -2       821       253       816       251
 -1      2708    3    0    1
 -2       557       970      1150      1158
 -1      2709    3    0    1
 -2       970       557      1150       560
 -1      2710    3    0    1
 -2      1396      1399      1479      1574
 -1      2711    3    0    1
 -2       549      1158       548      1150
 -1      2712    3    0    1
 -2       919       931      1110      1856
 -1      2713    3    0    1
 -2      1604      1302      1931      2072
 -1      2714    3    0    1
 -2       969       548      1152      1159
 -1      2715    3    0    1
 -2       559       548       558      1159
 -1      2716    3    0    1
 -2      1095      1329      1964      2534
 -1      2717    3    0    1
 -2       558       548       969      1159
 -1      2718    3    0    1
 -2       968       550      1156      1160
 -1      2719    3    0    1
 -2       562       550       556      1160
 -1      2720    3    0    1
 -2       556       550       968      1160
 -1      2721    3    0    1
 -2       577       976      1161      1163
 -1      2722    3    0    1
 -2        78       577      1161      1163
 -1      2723    3    0    1
 -2       575      1166       586       574
 -1      2724    3    0    1
 -2       974      1166       978       575
 -1      2725    3    0    1
 -2       575      1166       978       586
 -1      2726    3    0    1
 -2       575      1169       574       586
 -1      2727    3    0    1
 -2        95       602       980      1170
 -1      2728    3    0    1
 -2        77       579       973      1165
 -1      2729    3    0    1
 -2       344       736       759      2097
 -1      2730    3    0    1
 -2      1694      1444      1756      1890
 -1      2731    3    0    1
 -2       887      1540      1909      2534
 -1      2732    3    0    1
 -2       575      1166       574      1164
 -1      2733    3    0    1
 -2       974      1166       575      1164
 -1      2734    3    0    1
 -2       581       584      1162      1167
 -1      2735    3    0    1
 -2       581        80       584      1167
 -1      2736    3    0    1
 -2      1387      1633      1643      2115
 -1      2737    3    0    1
 -2      1883      1709      2136      2237
 -1      2738    3    0    1
 -2       972      1167       572      1162
 -1      2739    3    0    1
 -2       584        80       977      1167
 -1      2740    3    0    1
 -2       442      2391      2600      2637
 -1      2741    3    0    1
 -2       578       577      1163      1168
 -1      2742    3    0    1
 -2       404       578       408      1168
 -1      2743    3    0    1
 -2       577       404       976      1168
 -1      2744    3    0    1
 -2       578       404       577      1168
 -1      2745    3    0    1
 -2       585       579      1165      1169
 -1      2746    3    0    1
 -2        81       579       585      1169
 -1      2747    3    0    1
 -2       586       574       580      1169
 -1      2748    3    0    1
 -2       579       973      1165      1169
 -1      2749    3    0    1
 -2       579        81       975      1169
 -1      2750    3    0    1
 -2       574       975       580      1169
 -1      2751    3    0    1
 -2       973       579       975      1169
 -1      2752    3    0    1
 -2       973       574      1165      1169
 -1      2753    3    0    1
 -2       975       574       973      1169
 -1      2754    3    0    1
 -2      1693      1624      1833      1925
 -1      2755    3    0    1
 -2        91       594       593      1174
 -1      2756    3    0    1
 -2       985       597      1171      1174
 -1      2757    3    0    1
 -2       593       985      1171      1174
 -1      2758    3    0    1
 -2        91       593      1171      1174
 -1      2759    3    0    1
 -2       591        81      2209      2318
 -1      2760    3    0    1
 -2       903      1338       938      1930
 -1      2761    3    0    1
 -2       985       597      1174      1175
 -1      2762    3    0    1
 -2       604       597       610      1175
 -1      2763    3    0    1
 -2       410      2323      1356      1357
 -1      2764    3    0    1
 -2      1715      1928      1938      2309
 -1      2765    3    0    1
 -2        71       379      2323      1357
 -1      2766    3    0    1
 -2       610       597       985      1175
 -1      2767    3    0    1
 -2       595       607       606      1176
 -1      2768    3    0    1
 -2       595       984       607      1176
 -1      2769    3    0    1
 -2       979       595      1173      1176
 -1      2770    3    0    1
 -2       984       595       979      1176
 -1      2771    3    0    1
 -2       535       534       964      1533
 -1      2772    3    0    1
 -2       600      1178       597      1172
 -1      2773    3    0    1
 -2       981      1178       600      1172
 -1      2774    3    0    1
 -2       618       110       113      1181
 -1      2775    3    0    1
 -2       110       618       617      1181
 -1      2776    3    0    1
 -2       989      1183       617       994
 -1      2777    3    0    1
 -2       110       617       989      1181
 -1      2778    3    0    1
 -2       111       107       627      1182
 -1      2779    3    0    1
 -2       988      1185       627       990
 -1      2780    3    0    1
 -2       111       627       988      1182
 -1      2781    3    0    1
 -2      1324      1516      1691      1823
 -1      2782    3    0    1
 -2       323       303      1277      1805
 -1      2783    3    0    1
 -2       618       617      1181      1183
 -1      2784    3    0    1
 -2      2119      1421      2551      2768
 -1      2785    3    0    1
 -2      1421      2119      2626      2768
 -1      2786    3    0    1
 -2       925      1105      1637      1668
 -1      2787    3    0    1
 -2       989      1183       623      1181
 -1      2788    3    0    1
 -2      2119      2326      2626      2768
 -1      2789    3    0    1
 -2      1633      1391      1643      2125
 -1      2790    3    0    1
 -2       633       627      1182      1185
 -1      2791    3    0    1
 -2       116       627       633      1185
 -1      2792    3    0    1
 -2       137       136      1791      2401
 -1      2793    3    0    1
 -2      1511      1704      2046      2125
 -1      2794    3    0    1
 -2       988      1185       624      1182
 -1      2795    3    0    1
 -2       627       116       990      1185
 -1      2796    3    0    1
 -2       649       650       999      1186
 -1      2797    3    0    1
 -2       999       643      1186      1189
 -1      2798    3    0    1
 -2       644      1193       643       655
 -1      2799    3    0    1
 -2       648      1194       647       658
 -1      2800    3    0    1
 -2       124       652       996      1190
 -1      2801    3    0    1
 -2       668       667      1007      1195
 -1      2802    3    0    1
 -2       771       778      2153      2418
 -1      2803    3    0    1
 -2       648      1191       647       995
 -1      2804    3    0    1
 -2       358      2283      2540      2580
 -1      2805    3    0    1
 -2      1956      2167      2180      2685
 -1      2806    3    0    1
 -2       644      1192       643      1187
 -1      2807    3    0    1
 -2       650       341       999      1193
 -1      2808    3    0    1
 -2       796       243       801      1869
 -1      2809    3    0    1
 -2       320       306      1284      2365
 -1      2810    3    0    1
 -2      1127      1273      2330      2550
 -1      2811    3    0    1
 -2       655       643       654      1193
 -1      2812    3    0    1
 -2       999       643      1189      1193
 -1      2813    3    0    1
 -2      2092      2277      2279      2545
 -1      2814    3    0    1
 -2       654       643       999      1193
 -1      2815    3    0    1
 -2      1537      2129      2770      2775
 -1      2816    3    0    1
 -2      2062      1220      2143      2566
 -1      2817    3    0    1
 -2       408       404      1168      2499
 -1      2818    3    0    1
 -2       658       647       651      1194
 -1      2819    3    0    1
 -2       652       996      1190      1194
 -1      2820    3    0    1
 -2       652       129       998      1194
 -1      2821    3    0    1
 -2       647       998       651      1194
 -1      2822    3    0    1
 -2       996       652       998      1194
 -1      2823    3    0    1
 -2       996       647      1190      1194
 -1      2824    3    0    1
 -2       998       647       996      1194
 -1      2825    3    0    1
 -2      1863      2255      2445      2608
 -1      2826    3    0    1
 -2       665       666      1003      1199
 -1      2827    3    0    1
 -2      1003       666      1009      1199
 -1      2828    3    0    1
 -2      2440      1408      2665      2750
 -1      2829    3    0    1
 -2      1459      1753      1847      2275
 -1      2830    3    0    1
 -2      1719       447      2725      2740
 -1      2831    3    0    1
 -2      2336       449      2360      2740
 -1      2832    3    0    1
 -2       150       151       680      1200
 -1      2833    3    0    1
 -2      1503      1464      1848      2053
 -1      2834    3    0    1
 -2      1444      1406      1779      1890
 -1      2835    3    0    1
 -2      1545      1623      1626      1849
 -1      2836    3    0    1
 -2      1002      1200       667      1196
 -1      2837    3    0    1
 -2       680       151      1008      1200
 -1      2838    3    0    1
 -2       150       331       687      2013
 -1      2839    3    0    1
 -2      1004      1202       672      1198
 -1      2840    3    0    1
 -2       672      1202      1006       682
 -1      2841    3    0    1
 -2       676       149      1006      1202
 -1      2842    3    0    1
 -2       692      1208       691       699
 -1      2843    3    0    1
 -2       695      1210       702       703
 -1      2844    3    0    1
 -2       696      1210       702       695
 -1      2845    3    0    1
 -2      1012      1210      1014       696
 -1      2846    3    0    1
 -2       696      1210      1014       702
 -1      2847    3    0    1
 -2      1699      1723      2453      2653
 -1      2848    3    0    1
 -2      1015       695      1205      1207
 -1      2849    3    0    1
 -2       992       413      1520      1678
 -1      2850    3    0    1
 -2       689      1010      1204      1208
 -1      2851    3    0    1
 -2      1010       689      1016      1208
 -1      2852    3    0    1
 -2       691       706       699      1208
 -1      2853    3    0    1
 -2      1422      1463      1778      1920
 -1      2854    3    0    1
 -2       691      1016       706      1208
 -1      2855    3    0    1
 -2      1010       691      1204      1208
 -1      2856    3    0    1
 -2      1016       691      1010      1208
 -1      2857    3    0    1
 -2      1015       695      1207      1209
 -1      2858    3    0    1
 -2       698       333      1014      1210
 -1      2859    3    0    1
 -2       696      1209       695       702
 -1      2860    3    0    1
 -2       703       695      1015      1209
 -1      2861    3    0    1
 -2       696      1210       695      1206
 -1      2862    3    0    1
 -2      1012      1210       696      1206
 -1      2863    3    0    1
 -2      1718      2215      2403      2592
 -1      2864    3    0    1
 -2       692      1211       691      1203
 -1      2865    3    0    1
 -2      1011      1211       692      1203
 -1      2866    3    0    1
 -2       178       722       721      1215
 -1      2867    3    0    1
 -2       721      1021      1213      1215
 -1      2868    3    0    1
 -2       178       721      1213      1215
 -1      2869    3    0    1
 -2       181       180       728      1216
 -1      2870    3    0    1
 -2       728      1022      1214      1216
 -1      2871    3    0    1
 -2       181       728      1214      1216
 -1      2872    3    0    1
 -2       713       714      1212      1217
 -1      2873    3    0    1
 -2       401      1389      1685      2123
 -1      2874    3    0    1
 -2      1398      1640      1725      1800
 -1      2875    3    0    1
 -2      2205       157      1346      1349
 -1      2876    3    0    1
 -2      1667      1624      1709      1844
 -1      2877    3    0    1
 -2      1018      1217       716      1212
 -1      2878    3    0    1
 -2       690      1016      1346      1349
 -1      2879    3    0    1
 -2      1741      1468      2306      2416
 -1      2880    3    0    1
 -2      1089      1112      1526      1534
 -1      2881    3    0    1
 -2       999      1808      2135      2183
 -1      2882    3    0    1
 -2       728       183      1022      1218
 -1      2883    3    0    1
 -2      1952      1805      2128      2276
 -1      2884    3    0    1
 -2       722       332       721      1219
 -1      2885    3    0    1
 -2       721       332      1021      1219
 -1      2886    3    0    1
 -2      1025      1229      1027       740
 -1      2887    3    0    1
 -2       740      1229      1027       747
 -1      2888    3    0    1
 -2       921       932      1111      1575
 -1      2889    3    0    1
 -2       740      1226       739       747
 -1      2890    3    0    1
 -2       749       345      1029      1227
 -1      2891    3    0    1
 -2       208       204       745      1224
 -1      2892    3    0    1
 -2      1026      1228       745      1028
 -1      2893    3    0    1
 -2      1026      1228      1028       744
 -1      2894    3    0    1
 -2       208       745      1026      1224
 -1      2895    3    0    1
 -2       744      1228      1028       750
 -1      2896    3    0    1
 -2      2026      1226      2464      1369
 -1      2897    3    0    1
 -2      1435      1726      1784      2080
 -1      2898    3    0    1
 -2      1398       335      1571      1616
 -1      2899    3    0    1
 -2      1277       303      1278      1805
 -1      2900    3    0    1
 -2       738      1024      1222      1226
 -1      2901    3    0    1
 -2      1024       738      1030      1226
 -1      2902    3    0    1
 -2       739       754       747      1226
 -1      2903    3    0    1
 -2      1995      2091      2218      2443
 -1      2904    3    0    1
 -2       739      1030       754      1226
 -1      2905    3    0    1
 -2      1024       739      1222      1226
 -1      2906    3    0    1
 -2      1030       739      1024      1226
 -1      2907    3    0    1
 -2       752       743      1029      1227
 -1      2908    3    0    1
 -2       746       745      1224      1228
 -1      2909    3    0    1
 -2       205       746       206      1228
 -1      2910    3    0    1
 -2       745       205      1028      1228
 -1      2911    3    0    1
 -2       746       205       745      1228
 -1      2912    3    0    1
 -2       744      1228       743      1224
 -1      2913    3    0    1
 -2      1026      1228       744      1224
 -1      2914    3    0    1
 -2       740      1229       739      1221
 -1      2915    3    0    1
 -2      1025      1229       740      1221
 -1      2916    3    0    1
 -2      1247       437      1629      2149
 -1      2917    3    0    1
 -2       217       770       769      1233
 -1      2918    3    0    1
 -2       215       216       773      1235
 -1      2919    3    0    1
 -2      1035       768      1232      1235
 -1      2920    3    0    1
 -2       768      1237      1235      1035
 -1      2921    3    0    1
 -2       366       441      2624      2629
 -1      2922    3    0    1
 -2       215       773       775      1235
 -1      2923    3    0    1
 -2       775      1035      1232      1235
 -1      2924    3    0    1
 -2       215       775      1232      1235
 -1      2925    3    0    1
 -2      1112      1526      1534      1986
 -1      2926    3    0    1
 -2      1852      1685      2188      2251
 -1      2927    3    0    1
 -2       383       264      1258      2291
 -1      2928    3    0    1
 -2      1032      1236       765      1231
 -1      2929    3    0    1
 -2       775      1035      1235      1237
 -1      2930    3    0    1
 -2       773       775      1235      1237
 -1      2931    3    0    1
 -2       773       220       775      1237
 -1      2932    3    0    1
 -2       338      1390      1528      2078
 -1      2933    3    0    1
 -2      2074      1743      2086      2475
 -1      2934    3    0    1
 -2      1728      2086      2419      2475
 -1      2935    3    0    1
 -2      1380      1409      1893      2256
 -1      2936    3    0    1
 -2      1831      2002      2219      2413
 -1      2937    3    0    1
 -2       775       220      1035      1237
 -1      2938    3    0    1
 -2       770       769      1233      1238
 -1      2939    3    0    1
 -2       219       770       442      1238
 -1      2940    3    0    1
 -2       769       219      1034      1238
 -1      2941    3    0    1
 -2       770       219       769      1238
 -1      2942    3    0    1
 -2       222       368       772      1239
 -1      2943    3    0    1
 -2       777       772      1031      1239
 -1      2944    3    0    1
 -2      1031       772      1033      1239
 -1      2945    3    0    1
 -2       772       368      1033      1239
 -1      2946    3    0    1
 -2       790      1247       798       789
 -1      2947    3    0    1
 -2      1038      1247      1041       790
 -1      2948    3    0    1
 -2       790      1247      1041       798
 -1      2949    3    0    1
 -2       790      1246       789       798
 -1      2950    3    0    1
 -2      1669      1742      1768      1864
 -1      2951    3    0    1
 -2       232       786       785      1244
 -1      2952    3    0    1
 -2       785      1043      1240      1244
 -1      2953    3    0    1
 -2       232       785      1240      1244
 -1      2954    3    0    1
 -2       783       777       784      1690
 -1      2955    3    0    1
 -2      1157       971       562      2623
 -1      2956    3    0    1
 -2       785      1043      1244      1245
 -1      2957    3    0    1
 -2       786       785      1244      1245
 -1      2958    3    0    1
 -2       834      1058      1263      1372
 -1      2959    3    0    1
 -2      1543      1395      1677      2098
 -1      2960    3    0    1
 -2      1256      2481      1364      1365
 -1      2961    3    0    1
 -2      1037       797      1042      1246
 -1      2962    3    0    1
 -2       789       800       798      1246
 -1      2963    3    0    1
 -2       794       437      1041      1247
 -1      2964    3    0    1
 -2       789      1042       800      1246
 -1      2965    3    0    1
 -2      1037       789      1243      1246
 -1      2966    3    0    1
 -2      1042       789      1037      1246
 -1      2967    3    0    1
 -2       317      1343      1091      2382
 -1      2968    3    0    1
 -2       790      1247       789      1242
 -1      2969    3    0    1
 -2      1038      1247       790      1242
 -1      2970    3    0    1
 -2      1039      1248       788      1241
 -1      2971    3    0    1
 -2       815       814      1049      1253
 -1      2972    3    0    1
 -2       252       818       817      1250
 -1      2973    3    0    1
 -2       821      1046      1249      1252
 -1      2974    3    0    1
 -2      1046       813      1249      1252
 -1      2975    3    0    1
 -2      1249       821       253       823
 -1      2976    3    0    1
 -2       821      1249       253      1252
 -1      2977    3    0    1
 -2      2321        53      2739      2763
 -1      2978    3    0    1
 -2       274       834      1051      1259
 -1      2979    3    0    1
 -2       820       254       825      1254
 -1      2980    3    0    1
 -2      1044      1258       820      1045
 -1      2981    3    0    1
 -2       254       820      1044      1254
 -1      2982    3    0    1
 -2       809      1049      1253      1255
 -1      2983    3    0    1
 -2       258       809      1253      1255
 -1      2984    3    0    1
 -2      1708      1394      1818      2075
 -1      2985    3    0    1
 -2      1479      1611      1763      1827
 -1      2986    3    0    1
 -2       809      1049      1255      1256
 -1      2987    3    0    1
 -2       810       809      1255      1256
 -1      2988    3    0    1
 -2       122       360      2672      1366
 -1      2989    3    0    1
 -2      2714      1001      2715      1366
 -1      2990    3    0    1
 -2      1803      1583      1859      2255
 -1      2991    3    0    1
 -2       641       642      1001      1366
 -1      2992    3    0    1
 -2      1408      2574      2665      2750
 -1      2993    3    0    1
 -2       386       817       818      1257
 -1      2994    3    0    1
 -2       817       434      1047      1257
 -1      2995    3    0    1
 -2       386       434       817      1257
 -1      2996    3    0    1
 -2       249       809      1365      1373
 -1      2997    3    0    1
 -2       259       261       820      1258
 -1      2998    3    0    1
 -2       825       820      1254      1258
 -1      2999    3    0    1
 -2      2471       249      1365      1373
 -1      3000    3    0    1
 -2       820       261      1045      1258
 -1      3001    3    0    1
 -2      1044      1258       814      1254
 -1      3002    3    0    1
 -2       270       848      1053      1261
 -1      3003    3    0    1
 -2       277       844       849      1262
 -1      3004    3    0    1
 -2       327      1567      1607      1692
 -1      3005    3    0    1
 -2       849       844      1052      1262
 -1      3006    3    0    1
 -2      1491      1663      1704      2046
 -1      3007    3    0    1
 -2       754      1229      1665      2173
 -1      3008    3    0    1
 -2      1050       849      1052      1262
 -1      3009    3    0    1
 -2       286       868      1060      1266
 -1      3010    3    0    1
 -2       772       222       777      1690
 -1      3011    3    0    1
 -2       868       285       873      1266
 -1      3012    3    0    1
 -2       760       209      2024      2140
 -1      3013    3    0    1
 -2       835      1058       850      1263
 -1      3014    3    0    1
 -2      1051       835      1259      1263
 -1      3015    3    0    1
 -2      1058       835      1051      1263
 -1      3016    3    0    1
 -2       842       384      1056      1264
 -1      3017    3    0    1
 -2       841       384       842      1264
 -1      3018    3    0    1
 -2       384      1984      2073      2104
 -1      3019    3    0    1
 -2       405        66      1602      2031
 -1      3020    3    0    1
 -2       437      1908      2147      2384
 -1      3021    3    0    1
 -2       836      1265       835      1050
 -1      3022    3    0    1
 -2       294       857      1059      1267
 -1      3023    3    0    1
 -2       287       865       866      1268
 -1      3024    3    0    1
 -2      1062      1272       866      1064
 -1      3025    3    0    1
 -2       287       866      1062      1268
 -1      3026    3    0    1
 -2       289       872      1061      1269
 -1      3027    3    0    1
 -2      1429      1630      1776      2009
 -1      3028    3    0    1
 -2      1060      1273       868      1270
 -1      3029    3    0    1
 -2       874       859       867      1270
 -1      3030    3    0    1
 -2      1329       915      1095      2007
 -1      3031    3    0    1
 -2      1379      1474      1563      2366
 -1      3032    3    0    1
 -2      1060      1273      1270       859
 -1      3033    3    0    1
 -2      1273      1060       868      1266
 -1      3034    3    0    1
 -2       953      1137      2360      1352
 -1      3035    3    0    1
 -2       291       866       865      1272
 -1      3036    3    0    1
 -2      1062      1272       863      1268
 -1      3037    3    0    1
 -2       866       291       425      1272
 -1      3038    3    0    1
 -2       866       425      1064      1272
 -1      3039    3    0    1
 -2      1060      1273       859      1266
 -1      3040    3    0    1
 -2       868       295      1270      1273
 -1      3041    3    0    1
 -2       735       736      1622      2535
 -1      3042    3    0    1
 -2       654      1192      1791      1808
 -1      3043    3    0    1
 -2      1606      1448      2020      2034
 -1      3044    3    0    1
 -2      1111       463      1319      1641
 -1      3045    3    0    1
 -2      1558      1562      1701      1777
 -1      3046    3    0    1
 -2      1387       333      1664      2216
 -1      3047    3    0    1
 -2      1104       325       328      1755
 -1      3048    3    0    1
 -2      1637      1668      1691      1823
 -1      3049    3    0    1
 -2       348      1007      1201      1720
 -1      3050    3    0    1
 -2       730      1023      2026      2143
 -1      3051    3    0    1
 -2       925       904      1668      1823
 -1      3052    3    0    1
 -2      1399      1546      2093      2526
 -1      3053    3    0    1
 -2       901      1689      2038      2154
 -1      3054    3    0    1
 -2      1920      1463      2077      2212
 -1      3055    3    0    1
 -2      1493      1388      1655      1866
 -1      3056    3    0    1
 -2      1158       559       558      1680
 -1      3057    3    0    1
 -2      1148       968      2107      2281
 -1      3058    3    0    1
 -2      1463      1660      1937      2212
 -1      3059    3    0    1
 -2        92        98      2169      2469
 -1      3060    3    0    1
 -2       205      1430      2045      2603
 -1      3061    3    0    1
 -2       924      1462      1692      1812
 -1      3062    3    0    1
 -2       439      1753      2275      2420
 -1      3063    3    0    1
 -2      1652      1532      2016      2367
 -1      3064    3    0    1
 -2       437       237      1908      2384
 -1      3065    3    0    1
 -2       752      1944      2116      2222
 -1      3066    3    0    1
 -2       534       535      1147      1969
 -1      3067    3    0    1
 -2       303      1769      1318      2211
 -1      3068    3    0    1
 -2      1028       750      1605      2136
 -1      3069    3    0    1
 -2      1448      1549      2020      2034
 -1      3070    3    0    1
 -2      2349      1191      2714      2759
 -1      3071    3    0    1
 -2      1697      1652      2016      2367
 -1      3072    3    0    1
 -2      1440      1535      1811      2201
 -1      3073    3    0    1
 -2      1801      1471      2047      2098
 -1      3074    3    0    1
 -2      1939      2348      1361      2762
 -1      3075    3    0    1
 -2      1539      1964      2007      2070
 -1      3076    3    0    1
 -2      1481      1675      1839      1983
 -1      3077    3    0    1
 -2       262       831       832      1804
 -1      3078    3    0    1
 -2      1565      1411      1830      1941
 -1      3079    3    0    1
 -2      1766       984      1948      1963
 -1      3080    3    0    1
 -2      1519       897      1604      1760
 -1      3081    3    0    1
 -2      2008       975      2346      2478
 -1      3082    3    0    1
 -2       119      1185      2351      2546
 -1      3083    3    0    1
 -2      2328      1615      2455      2531
 -1      3084    3    0    1
 -2      1758      1375      1929      2241
 -1      3085    3    0    1
 -2      2454      1248      2579      2654
 -1      3086    3    0    1
 -2       383       456       855      2260
 -1      3087    3    0    1
 -2       568        63      2294      2319
 -1      3088    3    0    1
 -2      1499      1382      1651      1736
 -1      3089    3    0    1
 -2      1439      1457      1612      1641
 -1      3090    3    0    1
 -2      1925      1709      1936      2518
 -1      3091    3    0    1
 -2      1978       168      2289      2694
 -1      3092    3    0    1
 -2      2299      2182      2389      2670
 -1      3093    3    0    1
 -2      2348       361      1356      1360
 -1      3094    3    0    1
 -2       966       535      1533      1873
 -1      3095    3    0    1
 -2      2011      2701       907      1950
 -1      3096    3    0    1
 -2       430      1631      1740      1831
 -1      3097    3    0    1
 -2       831       435      1923      2554
 -1      3098    3    0    1
 -2      1008       679      1599      1897
 -1      3099    3    0    1
 -2      1736      1550      1994      2109
 -1      3100    3    0    1
 -2      1598      1638      1669      2080
 -1      3101    3    0    1
 -2       349      1435      1524      1726
 -1      3102    3    0    1
 -2      2280      1524      2717      2724
 -1      3103    3    0    1
 -2      1623      1505      1626      2365
 -1      3104    3    0    1
 -2      1458      1400      2198      2585
 -1      3105    3    0    1
 -2      1707      1429      1789      2450
 -1      3106    3    0    1
 -2      2627      1420      2688      2721
 -1      3107    3    0    1
 -2       439      1310      1120      2420
 -1      3108    3    0    1
 -2      2355       490      2361      2364
 -1      3109    3    0    1
 -2       993      1851      2307      2331
 -1      3110    3    0    1
 -2      1374      1513      1646      1686
 -1      3111    3    0    1
 -2      2428      1783      2438      2622
 -1      3112    3    0    1
 -2      1275       312      1409      1688
 -1      3113    3    0    1
 -2      1423       211      1996      2224
 -1      3114    3    0    1
 -2       976      2263      2341       582
 -1      3115    3    0    1
 -2      1659      1495      1942      2383
 -1      3116    3    0    1
 -2       206       205      1228      2045
 -1      3117    3    0    1
 -2      1512      1380      1893      2256
 -1      3118    3    0    1
 -2       116       119       639      1910
 -1      3119    3    0    1
 -2      1407      1379      1636      1893
 -1      3120    3    0    1
 -2      1918      1424      2268      2269
 -1      3121    3    0    1
 -2      1425      1658      2068      2159
 -1      3122    3    0    1
 -2       137       134       664      1882
 -1      3123    3    0    1
 -2       890       889      1798      1825
 -1      3124    3    0    1
 -2        53       379       971      1500
 -1      3125    3    0    1
 -2       824      1436      2134      2221
 -1      3126    3    0    1
 -2      1409      1380      1512      2256
 -1      3127    3    0    1
 -2       902      1103       922      1556
 -1      3128    3    0    1
 -2      1343       317       444      2382
 -1      3129    3    0    1
 -2      1399      1479      1574      1764
 -1      3130    3    0    1
 -2       390      1945      1960      2031
 -1      3131    3    0    1
 -2      1339       905      1082      1850
 -1      3132    3    0    1
 -2      1494      1393      1545      1623
 -1      3133    3    0    1
 -2      1619      1387      1643      1664
 -1      3134    3    0    1
 -2      2349       651      2663      2714
 -1      3135    3    0    1
 -2      1622       736      2097      2158
 -1      3136    3    0    1
 -2       220       228      1690      2425
 -1      3137    3    0    1
 -2       231       220       784      2425
 -1      3138    3    0    1
 -2       363       362      1178      1477
 -1      3139    3    0    1
 -2       348      1007      1684      1781
 -1      3140    3    0    1
 -2      1488      1294      1497      1608
 -1      3141    3    0    1
 -2       401      1685      1852      2251
 -1      3142    3    0    1
 -2      1836      1247      1842      2149
 -1      3143    3    0    1
 -2       167      2115      2141      2452
 -1      3144    3    0    1
 -2      1767      1682      1934      2303
 -1      3145    3    0    1
 -2      1506      1597      1662      1686
 -1      3146    3    0    1
 -2       374      2645      2741      2753
 -1      3147    3    0    1
 -2      1572      1470      2005      2727
 -1      3148    3    0    1
 -2      1064       425      1888      2660
 -1      3149    3    0    1
 -2       114       639       640      1910
 -1      3150    3    0    1
 -2      1713      1272      2596      2650
 -1      3151    3    0    1
 -2      2190      2387      1737       261
 -1      3152    3    0    1
 -2       654      1192      1749      1851
 -1      3153    3    0    1
 -2       440       231      1595      1814
 -1      3154    3    0    1
 -2      2246      2431      2520      2703
 -1      3155    3    0    1
 -2      1742      1402      1778      1957
 -1      3156    3    0    1
 -2       330       356       688      1383
 -1      3157    3    0    1
 -2       429      1057      2327      2531
 -1      3158    3    0    1
 -2      1332       302       350      1649
 -1      3159    3    0    1
 -2      1820       422      2202      2381
 -1      3160    3    0    1
 -2       534      1783      2368      2428
 -1      3161    3    0    1
 -2      1738      1427      1912      2030
 -1      3162    3    0    1
 -2      1617      1873      2379      2565
 -1      3163    3    0    1
 -2      1777      1442      1930      2004
 -1      3164    3    0    1
 -2      1554      1460      2537      2612
 -1      3165    3    0    1
 -2      1731      1732      1787      1915
 -1      3166    3    0    1
 -2      1687      1404      1730      1906
 -1      3167    3    0    1
 -2      1684      1007      1721      1781
 -1      3168    3    0    1
 -2      1696      1853      1921      2273
 -1      3169    3    0    1
 -2       302      1332      1102      1649
 -1      3170    3    0    1
 -2       778      1239      2153      2641
 -1      3171    3    0    1
 -2      1484      1414      2616      2628
 -1      3172    3    0    1
 -2      1612      1457      1855      1856
 -1      3173    3    0    1
 -2      2300       580      2346      2357
 -1      3174    3    0    1
 -2      1287      1288      1776      1822
 -1      3175    3    0    1
 -2      1513       881      1591      1688
 -1      3176    3    0    1
 -2      1426      1656      1703      2067
 -1      3177    3    0    1
 -2      1415      1672      1769      1788
 -1      3178    3    0    1
 -2       386       434      2235      2666
 -1      3179    3    0    1
 -2      1976       427      2298      2602
 -1      3180    3    0    1
 -2      1731      1548      1732      2269
 -1      3181    3    0    1
 -2      1192      1749      1793      1808
 -1      3182    3    0    1
 -2      1047       822      2220      2689
 -1      3183    3    0    1
 -2      1503      1521      1855      1856
 -1      3184    3    0    1
 -2       585        83       592      2209
 -1      3185    3    0    1
 -2      1380      1597      1646      1686
 -1      3186    3    0    1
 -2      1129      1702      1962      2186
 -1      3187    3    0    1
 -2      1638      1402      1669      2001
 -1      3188    3    0    1
 -2       535       534      1533      1969
 -1      3189    3    0    1
 -2      2312      1265      2334      2590
 -1      3190    3    0    1
 -2      1467      1531      2081      1553
 -1      3191    3    0    1
 -2       470      1330      1098      1521
 -1      3192    3    0    1
 -2      1042      1246      2058      2270
 -1      3193    3    0    1
 -2         9       950      2236      2242
 -1      3194    3    0    1
 -2       628       610       985      2324
 -1      3195    3    0    1
 -2      1461      1482      1516      1755
 -1      3196    3    0    1
 -2      1070      1515      1825      2208
 -1      3197    3    0    1
 -2       450        50       964      1902
 -1      3198    3    0    1
 -2      2124      1981      2495      2510
 -1      3199    3    0    1
 -2      1542      1425      1838      1969
 -1      3200    3    0    1
 -2      1572      1470      1765      1767
 -1      3201    3    0    1
 -2       883      1487      1279      1580
 -1      3202    3    0    1
 -2      1706      1718      2101      2215
 -1      3203    3    0    1
 -2      1601      1469      1698      1858
 -1      3204    3    0    1
 -2      1479      1396      1574      1763
 -1      3205    3    0    1
 -2      1744      1485      2555      2656
 -1      3206    3    0    1
 -2      1862      1412      1979      2004
 -1      3207    3    0    1
 -2       897      1301       898      1760
 -1      3208    3    0    1
 -2        32      1775      2087      2404
 -1      3209    3    0    1
 -2      2618      1414      2105      2704
 -1      3210    3    0    1
 -2      1428      1526      1529      1534
 -1      3211    3    0    1
 -2      1628      1429      1666      1707
 -1      3212    3    0    1
 -2       968      1868      2107      2281
 -1      3213    3    0    1
 -2      1462      1375      1490      1564
 -1      3214    3    0    1
 -2      1575      1332       921       932
 -1      3215    3    0    1
 -2        94       984      1176      1948
 -1      3216    3    0    1
 -2       639      2069      2094       616
 -1      3217    3    0    1
 -2       103      1766      2069      2094
 -1      3218    3    0    1
 -2      2419      1657      2475      2642
 -1      3219    3    0    1
 -2      1323       304      1085      1607
 -1      3220    3    0    1
 -2      1508       421      2000      2083
 -1      3221    3    0    1
 -2      1129       487      1702      2186
 -1      3222    3    0    1
 -2      1545      1464      1848      1849
 -1      3223    3    0    1
 -2      1389      1425      1685      2123
 -1      3224    3    0    1
 -2      1979      1647      2056      2386
 -1      3225    3    0    1
 -2       847       846      2352      2662
 -1      3226    3    0    1
 -2      1658       535      1873      1969
 -1      3227    3    0    1
 -2      1595      1814      2092      2686
 -1      3228    3    0    1
 -2      1540      1654      1905      2025
 -1      3229    3    0    1
 -2      1669      1402      1957      2001
 -1      3230    3    0    1
 -2       336      1681      1793      2472
 -1      3231    3    0    1
 -2      1465      1553      1941      2039
 -1      3232    3    0    1
 -2      1808      1749      1863      2161
 -1      3233    3    0    1
 -2      1605       750      2116      2342
 -1      3234    3    0    1
 -2      1574       333      1840      2216
 -1      3235    3    0    1
 -2      1389      1628      1685      1838
 -1      3236    3    0    1
 -2      1520       413      1594      1678
 -1      3237    3    0    1
 -2      1883      1605      2085      2237
 -1      3238    3    0    1
 -2      1676      1507      1955      2007
 -1      3239    3    0    1
 -2      1393      1505      1654      1905
 -1      3240    3    0    1
 -2      2423      1043      2481      1364
 -1      3241    3    0    1
 -2      1429      1628      1666      1837
 -1      3242    3    0    1
 -2      1385      1418      1535      1640
 -1      3243    3    0    1
 -2      1558      2203      2244      2385
 -1      3244    3    0    1
 -2       521      1146      1354      1358
 -1      3245    3    0    1
 -2      1411      1631      1799      1830
 -1      3246    3    0    1
 -2      1658      1425      1969      2159
 -1      3247    3    0    1
 -2       640      1910      2227      2407
 -1      3248    3    0    1
 -2       103       984      1766      2302
 -1      3249    3    0    1
 -2      1330       470       471      1521
 -1      3250    3    0    1
 -2      1297       318      1549      1609
 -1      3251    3    0    1
 -2      1430      1510      1708      2075
 -1      3252    3    0    1
 -2      1248      2454      2579      2710
 -1      3253    3    0    1
 -2       919      1331       931      1612
 -1      3254    3    0    1
 -2       404      1392      2194      2316
 -1      3255    3    0    1
 -2       969       558      1980      2068
 -1      3256    3    0    1
 -2      1380      1409      1597      1893
 -1      3257    3    0    1
 -2      1443      1433      1473      1641
 -1      3258    3    0    1
 -2      1619      1501      1643      1827
 -1      3259    3    0    1
 -2      1709      1844      2136      2237
 -1      3260    3    0    1
 -2       214       409      2422      2737
 -1      3261    3    0    1
 -2      1219      1844      1883      2237
 -1      3262    3    0    1
 -2       726      1218      1502      2439
 -1      3263    3    0    1
 -2      1836      2225      2553      2610
 -1      3264    3    0    1
 -2       421      1401      2284      2622
 -1      3265    3    0    1
 -2      1758      1915      2264      2269
 -1      3266    3    0    1
 -2       892       891      1072      1659
 -1      3267    3    0    1
 -2      1705      1728      1967      2174
 -1      3268    3    0    1
 -2      1462      1544      1824      1828
 -1      3269    3    0    1
 -2      1615      1729      2059      2328
 -1      3270    3    0    1
 -2      1103      1078      1495      1556
 -1      3271    3    0    1
 -2      1741      1610      2416      2543
 -1      3272    3    0    1
 -2       975       580      1169      2346
 -1      3273    3    0    1
 -2      1000       137      1791      1882
 -1      3274    3    0    1
 -2       394      2305      2361      2674
 -1      3275    3    0    1
 -2       654      1749      1808      2161
 -1      3276    3    0    1
 -2      1752       436      1923      2528
 -1      3277    3    0    1
 -2       322      1326       340      2168
 -1      3278    3    0    1
 -2      1587       384      1857      2104
 -1      3279    3    0    1
 -2      1427      1578      1675      1947
 -1      3280    3    0    1
 -2       322       340      1472      2168
 -1      3281    3    0    1
 -2      1480      2147      2494      2572
 -1      3282    3    0    1
 -2      1388      1437      1493      1655
 -1      3283    3    0    1
 -2      1529      1428      1534      1541
 -1      3284    3    0    1
 -2      1974       355      2664      2694
 -1      3285    3    0    1
 -2       735       185       736      2535
 -1      3286    3    0    1
 -2      1451      1693      1845      2239
 -1      3287    3    0    1
 -2       319       415      1488      1514
 -1      3288    3    0    1
 -2      1627      1453      2048      2114
 -1      3289    3    0    1
 -2      1374      1662      1876      2139
 -1      3290    3    0    1
 -2       358       140      2283      2580
 -1      3291    3    0    1
 -2       486       951      2145      2186
 -1      3292    3    0    1
 -2      1495      1556      1600      2030
 -1      3293    3    0    1
 -2       332      1546      1621      1723
 -1      3294    3    0    1
 -2      1694      1669      1742      1957
 -1      3295    3    0    1
 -2      1382      1651      1736      2109
 -1      3296    3    0    1
 -2      1746      1683      1761      1866
 -1      3297    3    0    1
 -2      1415      1638      1672      2041
 -1      3298    3    0    1
 -2      1756      1584      1890      1895
 -1      3299    3    0    1
 -2       496        18      1582      2373
 -1      3300    3    0    1
 -2       631      1184      2108      2568
 -1      3301    3    0    1
 -2      1439      1434      1724      2010
 -1      3302    3    0    1
 -2      1289       889       890      1825
 -1      3303    3    0    1
 -2      2124      1981      2246      2520
 -1      3304    3    0    1
 -2      2605      2011      2701      2719
 -1      3305    3    0    1
 -2      1396      1479      1611      1763
 -1      3306    3    0    1
 -2      1741      1459      1889      2543
 -1      3307    3    0    1
 -2      1532      1652      2266      2367
 -1      3308    3    0    1
 -2      1821      1469      1857      1858
 -1      3309    3    0    1
 -2       427      1063      2298      2602
 -1      3310    3    0    1
 -2      1029       211      1993      2222
 -1      3311    3    0    1
 -2      1184      1616      1711      2108
 -1      3312    3    0    1
 -2      1000       655      1791      2638
 -1      3313    3    0    1
 -2      1647      1751      1979      2056
 -1      3314    3    0    1
 -2      1393      1846      2453      2653
 -1      3315    3    0    1
 -2      1802      1412      1862      2088
 -1      3316    3    0    1
 -2       385      1639      2172      2563
 -1      3317    3    0    1
 -2      2091      1961      2218      2443
 -1      3318    3    0    1
 -2       114      1910      2094      2130
 -1      3319    3    0    1
 -2      1627       891      2048      2383
 -1      3320    3    0    1
 -2      2106      1671      2547      2657
 -1      3321    3    0    1
 -2       881      1274      1591      1688
 -1      3322    3    0    1
 -2      1330      1098      1521      1849
 -1      3323    3    0    1
 -2      1989       249      2471      2738
 -1      3324    3    0    1
 -2       174       168      1978      2643
 -1      3325    3    0    1
 -2       978      1166      2323      2357
 -1      3326    3    0    1
 -2        48       400      1873      2411
 -1      3327    3    0    1
 -2      2051      1975      2261      2524
 -1      3328    3    0    1
 -2       886       885      1938      2424
 -1      3329    3    0    1
 -2      1693      1624      1925      1926
 -1      3330    3    0    1
 -2      1496      1552      1608      1618
 -1      3331    3    0    1
 -2      1494      1393      1623      1654
 -1      3332    3    0    1
 -2      1789      1632      2450      2702
 -1      3333    3    0    1
 -2       348       349      1726      2122
 -1      3334    3    0    1
 -2      1551       339      1937      2254
 -1      3335    3    0    1
 -2       304       327      1567      1607
 -1      3336    3    0    1
 -2      1951      1421      2119      2733
 -1      3337    3    0    1
 -2       362        92       982      1477
 -1      3338    3    0    1
 -2       101       411      2182      2299
 -1      3339    3    0    1
 -2      2113       592      2209      2417
 -1      3340    3    0    1
 -2      1628      1685      1838      1878
 -1      3341    3    0    1
 -2       911       933      1534      1986
 -1      3342    3    0    1
 -2      1288       889      1287      1798
 -1      3343    3    0    1
 -2       654       655      1193      2135
 -1      3344    3    0    1
 -2      1598      1402      1638      2041
 -1      3345    3    0    1
 -2      1263       843      2259      2335
 -1      3346    3    0    1
 -2      1395      1440      1549      2201
 -1      3347    3    0    1
 -2       495       398      2305      2527
 -1      3348    3    0    1
 -2       335       413      1678      1800
 -1      3349    3    0    1
 -2      1679       442      2600      2637
 -1      3350    3    0    1
 -2      1729      1831      2002      2059
 -1      3351    3    0    1
 -2      1057       847       846      2352
 -1      3352    3    0    1
 -2       341      1528      1756      1890
 -1      3353    3    0    1
 -2      1094       914      1426      1703
 -1      3354    3    0    1
 -2      1929      1928      2241      2309
 -1      3355    3    0    1
 -2       262       435      1804      2554
 -1      3356    3    0    1
 -2      1296      1297      1448      1609
 -1      3357    3    0    1
 -2       912      1122      1312      2697
 -1      3358    3    0    1
 -2      1459      2049      2605      2701
 -1      3359    3    0    1
 -2      1884      2152      2171      2451
 -1      3360    3    0    1
 -2      1547      1596      2037      2410
 -1      3361    3    0    1
 -2      1391      1433      1443      1486
 -1      3362    3    0    1
 -2       346       332      1699      2653
 -1      3363    3    0    1
 -2      1503      1464      1521      1849
 -1      3364    3    0    1
 -2      1555      1566      1594      1927
 -1      3365    3    0    1
 -2      1480      1747      1750      1889
 -1      3366    3    0    1
 -2      1706      1809      2063      2101
 -1      3367    3    0    1
 -2      1098      1503      1521      1849
 -1      3368    3    0    1
 -2       426       311      1561      2072
 -1      3369    3    0    1
 -2      1895      1422      1920      2212
 -1      3370    3    0    1
 -2      1310       472      2275      2420
 -1      3371    3    0    1
 -2      1491      1663      2046      2530
 -1      3372    3    0    1
 -2       114       357       639      2094
 -1      3373    3    0    1
 -2      1731      1548      2012      2035
 -1      3374    3    0    1
 -2       134      1192      1793      1882
 -1      3375    3    0    1
 -2       333      1619      1664      2216
 -1      3376    3    0    1
 -2       466       313      1116      2567
 -1      3377    3    0    1
 -2       952      2226      2242      2502
 -1      3378    3    0    1
 -2      1834      1836      1842      2233
 -1      3379    3    0    1
 -2      1613      1381      1714      1917
 -1      3380    3    0    1
 -2      1110       470      1317      1521
 -1      3381    3    0    1
 -2       422       959      1820      2202
 -1      3382    3    0    1
 -2       151       356      1008      1872
 -1      3383    3    0    1
 -2      1584      1406      1694      1890
 -1      3384    3    0    1
 -2      1587       430      1740      2476
 -1      3385    3    0    1
 -2      1402      1778      1957      2021
 -1      3386    3    0    1
 -2      1045       261      1737      2387
 -1      3387    3    0    1
 -2      1538      1499      1876      2139
 -1      3388    3    0    1
 -2       452       393      2377      2523
 -1      3389    3    0    1
 -2       903      1777      1930      2004
 -1      3390    3    0    1
 -2       333      1014      1210      1625
 -1      3391    3    0    1
 -2      1716      2077      2078      2238
 -1      3392    3    0    1
 -2       425      1064      2297      2455
 -1      3393    3    0    1
 -2      1507      1676      1818      2265
 -1      3394    3    0    1
 -2       900      1336       936      1730
 -1      3395    3    0    1
 -2      1583      1716      1859      2078
 -1      3396    3    0    1
 -2      1148      2107      2229      2523
 -1      3397    3    0    1
 -2      1382      1499      1538      1962
 -1      3398    3    0    1
 -2       333      1210      1840      2398
 -1      3399    3    0    1
 -2      1556       922      1600      1717
 -1      3400    3    0    1
 -2       495      2305      2511      2527
 -1      3401    3    0    1
 -2      1630      1429      1776      2426
 -1      3402    3    0    1
 -2      1741      1753      1950      2011
 -1      3403    3    0    1
 -2      1334      1094      1609      1703
 -1      3404    3    0    1
 -2       416       951      2581      2685
 -1      3405    3    0    1
 -2      2323       978      1356      1357
 -1      3406    3    0    1
 -2      1880      1846      1905      2042
 -1      3407    3    0    1
 -2       919      1110      1317      1856
 -1      3408    3    0    1
 -2      1520      1475      2468      2621
 -1      3409    3    0    1
 -2      1570      1427      1717      1912
 -1      3410    3    0    1
 -2       306       320      1626      2365
 -1      3411    3    0    1
 -2      1401      2284      2438      2504
 -1      3412    3    0    1
 -2      1630      1585      1637      1822
 -1      3413    3    0    1
 -2      1463      1422      1778      1932
 -1      3414    3    0    1
 -2       230       760       783      2224
 -1      3415    3    0    1
 -2      1168       408      1596      2035
 -1      3416    3    0    1
 -2       928       920      1735      1788
 -1      3417    3    0    1
 -2       408      1168      1596      1916
 -1      3418    3    0    1
 -2      1810      1056      2476      2662
 -1      3419    3    0    1
 -2      1719       447      1352      1355
 -1      3420    3    0    1
 -2       610      2296      2324      2345
 -1      3421    3    0    1
 -2       819      1737      2579      2669
 -1      3422    3    0    1
 -2      1738      1717      1912      2102
 -1      3423    3    0    1
 -2      1304       419       467      2176
 -1      3424    3    0    1
 -2      2281       556      2300      2623
 -1      3425    3    0    1
 -2       593       985      1175      1360
 -1      3426    3    0    1
 -2      2530      1403      2532      2652
 -1      3427    3    0    1
 -2      1342      1088      2396      2619
 -1      3428    3    0    1
 -2       434      1047      1257      1843
 -1      3429    3    0    1
 -2      1695      1585      1637      2460
 -1      3430    3    0    1
 -2       315      1562      1701      2421
 -1      3431    3    0    1
 -2       348      1007      1720      2122
 -1      3432    3    0    1
 -2      1461      1482      1666      1695
 -1      3433    3    0    1
 -2      1599      1007      1897       678
 -1      3434    3    0    1
 -2       228       783       784      1690
 -1      3435    3    0    1
 -2      1734      1772      2412      2461
 -1      3436    3    0    1
 -2      1275       881      1274      1591
 -1      3437    3    0    1
 -2      1650      1739      2085      2342
 -1      3438    3    0    1
 -2       558       559      1159      1680
 -1      3439    3    0    1
 -2      1505      1540      1654      1905
 -1      3440    3    0    1
 -2      1454      1909      2070      2533
 -1      3441    3    0    1
 -2      1519      1419      1604      2267
 -1      3442    3    0    1
 -2      1759       911      1986      2207
 -1      3443    3    0    1
 -2      1553      1531      1941      2039
 -1      3444    3    0    1
 -2       535      1617      1658      1873
 -1      3445    3    0    1
 -2       386      1797      1871      2095
 -1      3446    3    0    1
 -2      1130       483       490      2632
 -1      3447    3    0    1
 -2      1598      1415      1638      1952
 -1      3448    3    0    1
 -2      2706      2295      2757      2764
 -1      3449    3    0    1
 -2      1399      1546      1574      2093
 -1      3450    3    0    1
 -2      2145       487      2186      2226
 -1      3451    3    0    1
 -2      1036      1245      1886      2371
 -1      3452    3    0    1
 -2        31       519       520      1775
 -1      3453    3    0    1
 -2      1394      1708      1712      2075
 -1      3454    3    0    1
 -2      1401      1518      1790      2103
 -1      3455    3    0    1
 -2       901      1337       937      2038
 -1      3456    3    0    1
 -2      1247       798       800      1903
 -1      3457    3    0    1
 -2      2517      1949      2571      2616
 -1      3458    3    0    1
 -2      1313      2074      2086      2536
 -1      3459    3    0    1
 -2       150       151      1200      1872
 -1      3460    3    0    1
 -2      1622       183      1901      2097
 -1      3461    3    0    1
 -2      1791      1192      1793      1808
 -1      3462    3    0    1
 -2      1602        66      1960      2031
 -1      3463    3    0    1
 -2      1219       726       719       727
 -1      3464    3    0    1
 -2      1633      1387      1643      1827
 -1      3465    3    0    1
 -2      1705      1728      2419      2475
 -1      3466    3    0    1
 -2      2553      1836      2611      2689
 -1      3467    3    0    1
 -2       241       365      2027      1371
 -1      3468    3    0    1
 -2       308      1275      1274      1688
 -1      3469    3    0    1
 -2      1407      1379      1563      2366
 -1      3470    3    0    1
 -2       304       327      1069      1567
 -1      3471    3    0    1
 -2      1689      2081      2155      2240
 -1      3472    3    0    1
 -2      1289      1070      1825      2208
 -1      3473    3    0    1
 -2      1555      1432      1566      1927
 -1      3474    3    0    1
 -2      1413      1753      1774      1847
 -1      3475    3    0    1
 -2       279       276      1055      1639
 -1      3476    3    0    1
 -2       137      1791      1882      2401
 -1      3477    3    0    1
 -2      1334       914      1094      1703
 -1      3478    3    0    1
 -2      1771      1513      2215      2403
 -1      3479    3    0    1
 -2      1178      1477      2322      2345
 -1      3480    3    0    1
 -2      1497      1093      1514      1703
 -1      3481    3    0    1
 -2      1380       308      1409      1512
 -1      3482    3    0    1
 -2      1698      1469      1821      1858
 -1      3483    3    0    1
 -2       325      1306      1516      1691
 -1      3484    3    0    1
 -2      1585      1630      1637      2460
 -1      3485    3    0    1
 -2      1455      2043      2416      2485
 -1      3486    3    0    1
 -2       858       396       857      1350
 -1      3487    3    0    1
 -2      1752       800      1903      2610
 -1      3488    3    0    1
 -2      1016      2205      2376      2564
 -1      3489    3    0    1
 -2       750      1028      1605      2116
 -1      3490    3    0    1
 -2       914      1113      1093      1703
 -1      3491    3    0    1
 -2      1580      1456      1642      1649
 -1      3492    3    0    1
 -2      1112       911       933      1534
 -1      3493    3    0    1
 -2      1332      1486      1575      1649
 -1      3494    3    0    1
 -2      1434      1855      1856      2442
 -1      3495    3    0    1
 -2      2400      1870      2435      2496
 -1      3496    3    0    1
 -2      1518      1578      1761      1947
 -1      3497    3    0    1
 -2      1693      1708      1971      2239
 -1      3498    3    0    1
 -2       965       534      2368      2428
 -1      3499    3    0    1
 -2       918      1326      1316      2168
 -1      3500    3    0    1
 -2      1696      1853      1917      1921
 -1      3501    3    0    1
 -2      1264      1056       847      2662
 -1      3502    3    0    1
 -2      1722      1581      1932      2168
 -1      3503    3    0    1
 -2      2046      1491      2530      2652
 -1      3504    3    0    1
 -2       343       344       759      2097
 -1      3505    3    0    1
 -2      1007       348      1684      1721
 -1      3506    3    0    1
 -2      1513      1374      2215      2403
 -1      3507    3    0    1
 -2      1655      1388      1816      1866
 -1      3508    3    0    1
 -2      1645      1751      1821      2104
 -1      3509    3    0    1
 -2        64      1868      2064      2229
 -1      3510    3    0    1
 -2      1296       318      1297      1609
 -1      3511    3    0    1
 -2      1660      1463      1722      1932
 -1      3512    3    0    1
 -2      1585      1695      1837      2460
 -1      3513    3    0    1
 -2      1459      1747      1847      1889
 -1      3514    3    0    1
 -2      1178       982       604      2322
 -1      3515    3    0    1
 -2       346      1667      1699      1877
 -1      3516    3    0    1
 -2       368       222      1690      2693
 -1      3517    3    0    1
 -2       457       318      1296      1609
 -1      3518    3    0    1
 -2       207       209      1700      2099
 -1      3519    3    0    1
 -2      1069      1282      1567      2424
 -1      3520    3    0    1
 -2      1607      1085      1692      1812
 -1      3521    3    0    1
 -2       134       336      1681      1793
 -1      3522    3    0    1
 -2      1624      1590      1667      1709
 -1      3523    3    0    1
 -2       887      1540      2365      2409
 -1      3524    3    0    1
 -2      1631      1525      1799      2462
 -1      3525    3    0    1
 -2      1229      1033      1665      2173
 -1      3526    3    0    1
 -2       428       292      2247      2692
 -1      3527    3    0    1
 -2      1425      1147      1617      1658
 -1      3528    3    0    1
 -2      1492      1485      1744      2483
 -1      3529    3    0    1
 -2       941      1120      1815      2420
 -1      3530    3    0    1
 -2      2015      1782      2073      2082
 -1      3531    3    0    1
 -2      1467      1449      1553      2039
 -1      3532    3    0    1
 -2      1078      1495      1556      1600
 -1      3533    3    0    1
 -2      1440      1426      1549      2201
 -1      3534    3    0    1
 -2      1315       320      1623      1626
 -1      3535    3    0    1
 -2      2203      1792      2244      2385
 -1      3536    3    0    1
 -2      1958       774      1985      2671
 -1      3537    3    0    1
 -2      1566      1498      1594      1640
 -1      3538    3    0    1
 -2      1831      1729      2002      2413
 -1      3539    3    0    1
 -2      2014      1520      2468      2621
 -1      3540    3    0    1
 -2      1652      1806      2055      2060
 -1      3541    3    0    1
 -2      1300       897      1554      1760
 -1      3542    3    0    1
 -2       922      1320      1600      1717
 -1      3543    3    0    1
 -2       452       455      1145      1431
 -1      3544    3    0    1
 -2      1246      1595      2058      2270
 -1      3545    3    0    1
 -2      1568      1106      1644      2254
 -1      3546    3    0    1
 -2      1105       904      1081      1668
 -1      3547    3    0    1
 -2       906      1104       923      1635
 -1      3548    3    0    1
 -2      1147       420      1542      1878
 -1      3549    3    0    1
 -2      1646      1380      1686      1688
 -1      3550    3    0    1
 -2       314       417      1570      1717
 -1      3551    3    0    1
 -2      1670      1376      1710      2250
 -1      3552    3    0    1
 -2      2446      1922      2465      2477
 -1      3553    3    0    1
 -2      2215      1771      2403      2592
 -1      3554    3    0    1
 -2       994      1183      1939      2324
 -1      3555    3    0    1
 -2      1563      1453      1839      2114
 -1      3556    3    0    1
 -2      1908      2147      2384      2569
 -1      3557    3    0    1
 -2      1735      1672      1788      1875
 -1      3558    3    0    1
 -2      1636      1407      1653      2366
 -1      3559    3    0    1
 -2      1013      1794      1202       682
 -1      3560    3    0    1
 -2      1093      1113      1514      1703
 -1      3561    3    0    1
 -2      1763      1479      1827      2216
 -1      3562    3    0    1
 -2       407       414      1861      2040
 -1      3563    3    0    1
 -2       405       970      2029      2054
 -1      3564    3    0    1
 -2      1453      1627      1659      2369
 -1      3565    3    0    1
 -2      1571      1398      1616      2210
 -1      3566    3    0    1
 -2       334       114       640      1910
 -1      3567    3    0    1
 -2        68       400      1762      2379
 -1      3568    3    0    1
 -2      1717      1738      1912      2030
 -1      3569    3    0    1
 -2       964       450      1902      2202
 -1      3570    3    0    1
 -2      1457      1434      1855      1856
 -1      3571    3    0    1
 -2      1459      1741      2049      2306
 -1      3572    3    0    1
 -2      1637      1585      1668      2118
 -1      3573    3    0    1
 -2      1840      1574      2216      2230
 -1      3574    3    0    1
 -2      1422      1463      1660      1932
 -1      3575    3    0    1
 -2      1321       923      2388      2433
 -1      3576    3    0    1
 -2      1517      1406      1781      1784
 -1      3577    3    0    1
 -2       209      1700      2099      2140
 -1      3578    3    0    1
 -2      1621      1546      1764      2066
 -1      3579    3    0    1
 -2       151      1008      1200      1872
 -1      3580    3    0    1
 -2      1634      1287      1776      1822
 -1      3581    3    0    1
 -2       879       427      1976      2692
 -1      3582    3    0    1
 -2       687       331      1773      2013
 -1      3583    3    0    1
 -2      1424      1918      2264      2269
 -1      3584    3    0    1
 -2      1409      1380      1597      1646
 -1      3585    3    0    1
 -2       458       305      1938      2207
 -1      3586    3    0    1
 -2      1549      1440      1609      1703
 -1      3587    3    0    1
 -2       891      1291      1071      1593
 -1      3588    3    0    1
 -2      1344      1743      1919      2181
 -1      3589    3    0    1
 -2      1513      1646      1686      1688
 -1      3590    3    0    1
 -2      1499      1538      1962      2286
 -1      3591    3    0    1
 -2      1432      1498      1543      1714
 -1      3592    3    0    1
 -2      1375      1567      1929      2241
 -1      3593    3    0    1
 -2      1878      1542      2022      2450
 -1      3594    3    0    1
 -2      1465      1553      1830      1941
 -1      3595    3    0    1
 -2       325      1104      1083      1755
 -1      3596    3    0    1
 -2      1475      1555      2539      2621
 -1      3597    3    0    1
 -2      1653      1466      1970      2286
 -1      3598    3    0    1
 -2      1439      1473      1501      1724
 -1      3599    3    0    1
 -2      1625      1014      2141      2452
 -1      3600    3    0    1
 -2       420      1542      1878      2450
 -1      3601    3    0    1
 -2       414      1813      1861      2040
 -1      3602    3    0    1
 -2       519        32       520      1775
 -1      3603    3    0    1
 -2       998       129      2351      2699
 -1      3604    3    0    1
 -2        10        12       496      2674
 -1      3605    3    0    1
 -2      1991       189      2427      2436
 -1      3606    3    0    1
 -2      1340      1084      1753      2011
 -1      3607    3    0    1
 -2      1077       314      1570      1717
 -1      3608    3    0    1
 -2      1528      1756      1890      1895
 -1      3609    3    0    1
 -2      1393      1505      1545      1623
 -1      3610    3    0    1
 -2      1959      2014      2231      2302
 -1      3611    3    0    1
 -2      1863       999      2161      2608
 -1      3612    3    0    1
 -2       449       395      2336      1353
 -1      3613    3    0    1
 -2       702      1765      1841      2003
 -1      3614    3    0    1
 -2      2037      1596      1168      2410
 -1      3615    3    0    1
 -2      1925      1936      1971      2518
 -1      3616    3    0    1
 -2      1517       348      1726      1784
 -1      3617    3    0    1
 -2      1104       328      1516      1755
 -1      3618    3    0    1
 -2      1728      1967      2382      2536
 -1      3619    3    0    1
 -2      1441      1674      2620      2644
 -1      3620    3    0    1
 -2       311      1117       426      1561
 -1      3621    3    0    1
 -2      1220       730      2143      2566
 -1      3622    3    0    1
 -2      1669      1694      1742      1864
 -1      3623    3    0    1
 -2      2368      2285      2428      2438
 -1      3624    3    0    1
 -2      1690       222      2625      2693
 -1      3625    3    0    1
 -2      1606      1526      1801      1807
 -1      3626    3    0    1
 -2      1627      1453      1659      2048
 -1      3627    3    0    1
 -2      1573      1478      1973      2292
 -1      3628    3    0    1
 -2      1509      1474      1653      2366
 -1      3629    3    0    1
 -2      1192      1000       655      1791
 -1      3630    3    0    1
 -2      1292      1293      1523      1745
 -1      3631    3    0    1
 -2      2053      1399      2093      2526
 -1      3632    3    0    1
 -2      2037      2410      2498      2670
 -1      3633    3    0    1
 -2      1684       348      1781      1784
 -1      3634    3    0    1
 -2      1515      1912      1437      1570
 -1      3635    3    0    1
 -2      1756       341      1779      2549
 -1      3636    3    0    1
 -2      1533       964      1902      2368
 -1      3637    3    0    1
 -2      1697      1547      2016      2055
 -1      3638    3    0    1
 -2      1247      1041       798      1903
 -1      3639    3    0    1
 -2       150       151      1872      2013
 -1      3640    3    0    1
 -2      1291       891       892      1593
 -1      3641    3    0    1
 -2      1451      1845      1926      2065
 -1      3642    3    0    1
 -2       117       363      2356      2631
 -1      3643    3    0    1
 -2      1483      1413      1774      1847
 -1      3644    3    0    1
 -2       129      2166      2630      2699
 -1      3645    3    0    1
 -2        80      1867      2209      2417
 -1      3646    3    0    1
 -2      1540      1452      1909      2533
 -1      3647    3    0    1
 -2      2732      2733      2752      2762
 -1      3648    3    0    1
 -2      1380      1597      1662      1893
 -1      3649    3    0    1
 -2       639       114      2094      2130
 -1      3650    3    0    1
 -2       261      1045      1258      2387
 -1      3651    3    0    1
 -2       655       654      1791      2135
 -1      3652    3    0    1
 -2      1449      1531      1553      2039
 -1      3653    3    0    1
 -2      1491      2046      2125      2711
 -1      3654    3    0    1
 -2      1272       871      1713      2223
 -1      3655    3    0    1
 -2      1094      1549      1609      1703
 -1      3656    3    0    1
 -2      1388      1429      1655      1816
 -1      3657    3    0    1
 -2      1623      1545      1848      1849
 -1      3658    3    0    1
 -2      1539      1576      1955      2065
 -1      3659    3    0    1
 -2       944       913      1919      2086
 -1      3660    3    0    1
 -2      1328       928      1788      1875
 -1      3661    3    0    1
 -2      1520       992      1678      1711
 -1      3662    3    0    1
 -2      1727      1817      2151      2197
 -1      3663    3    0    1
 -2      1526      1428      1529      2047
 -1      3664    3    0    1
 -2       759      1700      1829      2158
 -1      3665    3    0    1
 -2       149       154      1999      2558
 -1      3666    3    0    1
 -2      1481      1427      1675      1947
 -1      3667    3    0    1
 -2       519       496      2087      2373
 -1      3668    3    0    1
 -2      1402      1598      1669      1768
 -1      3669    3    0    1
 -2       559       970      2029      2340
 -1      3670    3    0    1
 -2      1385      1418      1640      1725
 -1      3671    3    0    1
 -2       331       150      1200      2397
 -1      3672    3    0    1
 -2      1975      2051      2138      2524
 -1      3673    3    0    1
 -2      1455      2235      2485      2666
 -1      3674    3    0    1
 -2       870      2033      2297      2455
 -1      3675    3    0    1
 -2      1790      1401      2103      2504
 -1      3676    3    0    1
 -2      1420      2032      2513      2757
 -1      3677    3    0    1
 -2      1422      1778      1900      1957
 -1      3678    3    0    1
 -2      1549      1448      1677      2034
 -1      3679    3    0    1
 -2       332      1021      1219      1877
 -1      3680    3    0    1
 -2       117       116       639      1910
 -1      3681    3    0    1
 -2       186       714      1348      1368
 -1      3682    3    0    1
 -2      1439      1457      1641      1724
 -1      3683    3    0    1
 -2      1623      1315      1626      1849
 -1      3684    3    0    1
 -2      1505      1540      1905      1909
 -1      3685    3    0    1
 -2       959       422      2381      2548
 -1      3686    3    0    1
 -2      1402      1957      2001      2021
 -1      3687    3    0    1
 -2      1695      1666      1837      1913
 -1      3688    3    0    1
 -2      1083       906      1586      1635
 -1      3689    3    0    1
 -2       376       735      1977      2535
 -1      3690    3    0    1
 -2       958       399      1881      2165
 -1      3691    3    0    1
 -2       959       422      1820      2381
 -1      3692    3    0    1
 -2      1503       470      1521      1856
 -1      3693    3    0    1
 -2      1386      1952      2128      2276
 -1      3694    3    0    1
 -2       231       440      1595      2394
 -1      3695    3    0    1
 -2      2044      1029      2222      2293
 -1      3696    3    0    1
 -2       277      2131      2314      2334
 -1      3697    3    0    1
 -2      2391      2556      2600      2637
 -1      3698    3    0    1
 -2      1425      1147      1542      1878
 -1      3699    3    0    1
 -2      1434      1439      1457      1855
 -1      3700    3    0    1
 -2      1425      2068      2123      2159
 -1      3701    3    0    1
 -2      1808       999      1863      2183
 -1      3702    3    0    1
 -2      1447      1412      1862      2004
 -1      3703    3    0    1
 -2      1495      1659      1942      2369
 -1      3704    3    0    1
 -2      1707      1429      1837      1913
 -1      3705    3    0    1
 -2       904      1105       925      1668
 -1      3706    3    0    1
 -2      1412      1442      1979      2004
 -1      3707    3    0    1
 -2      1077      1570      1600      1717
 -1      3708    3    0    1
 -2       249      1989      2456      2738
 -1      3709    3    0    1
 -2      1016      1217      2449      1348
 -1      3710    3    0    1
 -2       867      2312      2354      2488
 -1      3711    3    0    1
 -2      1499      1382      1538      1651
 -1      3712    3    0    1
 -2      1082      1339      1850      2249
 -1      3713    3    0    1
 -2       915      1676      1964      2007
 -1      3714    3    0    1
 -2      1443      1111      1486      1575
 -1      3715    3    0    1
 -2      1624      1693      1845      1926
 -1      3716    3    0    1
 -2       408       404      1392      1916
 -1      3717    3    0    1
 -2      1111       932      1486      1575
 -1      3718    3    0    1
 -2       231      1035      2177      2400
 -1      3719    3    0    1
 -2      1104       906      1083      1635
 -1      3720    3    0    1
 -2      1952      1638      2061      2128
 -1      3721    3    0    1
 -2       679      1201      1897      2005
 -1      3722    3    0    1
 -2      1576      1451      1693      1708
 -1      3723    3    0    1
 -2       418       307      1287      1822
 -1      3724    3    0    1
 -2      1957      1527      2001      2021
 -1      3725    3    0    1
 -2       911      1112      1089      1534
 -1      3726    3    0    1
 -2        80       411      1867      2417
 -1      3727    3    0    1
 -2       907      1119      1309      2719
 -1      3728    3    0    1
 -2      1484      1414      1673      2089
 -1      3729    3    0    1
 -2      2028      1568      2254      2483
 -1      3730    3    0    1
 -2      1638      1415      1672      1769
 -1      3731    3    0    1
 -2      1020      1977      2491      2566
 -1      3732    3    0    1
 -2      1647      1770      2056      2386
 -1      3733    3    0    1
 -2       568      1602      2319      2490
 -1      3734    3    0    1
 -2      1344       913      1092      1919
 -1      3735    3    0    1
 -2      1513      1591      1646      1688
 -1      3736    3    0    1
 -2      1022      1218      1901      1988
 -1      3737    3    0    1
 -2      1103       902      1078      1556
 -1      3738    3    0    1
 -2      1293      1568      1644      1745
 -1      3739    3    0    1
 -2       921      1111      1319      1575
 -1      3740    3    0    1
 -2      2378      1586      2393      2508
 -1      3741    3    0    1
 -2       435      1046      2457      2554
 -1      3742    3    0    1
 -2      1493      1746      1761      1866
 -1      3743    3    0    1
 -2      2017      2156      2509      2567
 -1      3744    3    0    1
 -2      1406      1444      1694      1890
 -1      3745    3    0    1
 -2      1761      1384      1790      2103
 -1      3746    3    0    1
 -2       443       345      1423      2293
 -1      3747    3    0    1
 -2      1418      1656      1811      2067
 -1      3748    3    0    1
 -2       390       557       567      1345
 -1      3749    3    0    1
 -2      1879      1835      2089      2091
 -1      3750    3    0    1
 -2      1674      2262      2399      2600
 -1      3751    3    0    1
 -2      1594      1520      1927      2468
 -1      3752    3    0    1
 -2      1672      1557      1735      1788
 -1      3753    3    0    1
 -2      1710      1376      1828      1832
 -1      3754    3    0    1
 -2      1559      1879      2091      2277
 -1      3755    3    0    1
 -2      1842      1836      2553      2610
 -1      3756    3    0    1
 -2       443       759       760      1700
 -1      3757    3    0    1
 -2       759       207       760      1700
 -1      3758    3    0    1
 -2      2160      2274      2618      2704
 -1      3759    3    0    1
 -2      2205       157      2601      1346
 -1      3760    3    0    1
 -2      1874      2250      2541      2583
 -1      3761    3    0    1
 -2      1376      1489      1710      1824
 -1      3762    3    0    1
 -2      1792      1757      2244      2385
 -1      3763    3    0    1
 -2      1376      1462      1824      1828
 -1      3764    3    0    1
 -2       998      2351      2663      2699
 -1      3765    3    0    1
 -2       207       209       760      1700
 -1      3766    3    0    1
 -2      1169       982      2169      2350
 -1      3767    3    0    1
 -2      1597      1407      1893      2256
 -1      3768    3    0    1
 -2      1069      1567      2309      2424
 -1      3769    3    0    1
 -2       150       687      1999      2013
 -1      3770    3    0    1
 -2      1945       390      1960      2019
 -1      3771    3    0    1
 -2      1995      2218      2391      2443
 -1      3772    3    0    1
 -2      1503      1464      2053      2442
 -1      3773    3    0    1
 -2       291       425      1272      2660
 -1      3774    3    0    1
 -2       982        92      2169      2322
 -1      3775    3    0    1
 -2       185      1020      1220      2566
 -1      3776    3    0    1
 -2       407      1861      1946      2060
 -1      3777    3    0    1
 -2      1788      1328      1875      2211
 -1      3778    3    0    1
 -2      1208      1016      2205      1346
 -1      3779    3    0    1
 -2      1292      1523      1568      1745
 -1      3780    3    0    1
 -2      1239       778      1886      2641
 -1      3781    3    0    1
 -2      1560       386      1786      1797
 -1      3782    3    0    1
 -2      1564      1490      2193      2374
 -1      3783    3    0    1
 -2      1624      1833      1925      1936
 -1      3784    3    0    1
 -2      1614      1564      1828      1832
 -1      3785    3    0    1
 -2      1602       568      2406      2490
 -1      3786    3    0    1
 -2      1578      1738      1761      1947
 -1      3787    3    0    1
 -2      1466      1653      1970      2185
 -1      3788    3    0    1
 -2      1425      1838      1969      2159
 -1      3789    3    0    1
 -2      1944       752      1993      2222
 -1      3790    3    0    1
 -2       970       405      2029      2031
 -1      3791    3    0    1
 -2       967      1904      2344      2647
 -1      3792    3    0    1
 -2       334       114      2407      2505
 -1      3793    3    0    1
 -2      1585      1637      1668      1691
 -1      3794    3    0    1
 -2       984       607      1963      2302
 -1      3795    3    0    1
 -2       891      1659      2048      2383
 -1      3796    3    0    1
 -2       675      1006      2358      2444
 -1      3797    3    0    1
 -2      1955      1451      1964      2065
 -1      3798    3    0    1
 -2      1960       390      1345      2019
 -1      3799    3    0    1
 -2      1445      1673      2517      2571
 -1      3800    3    0    1
 -2      2428      1401      2438      2504
 -1      3801    3    0    1
 -2       802       795      2423      2654
 -1      3802    3    0    1
 -2      1650       343      2097      2414
 -1      3803    3    0    1
 -2      1462      1376      1564      1828
 -1      3804    3    0    1
 -2      1344       944      1919      2086
 -1      3805    3    0    1
 -2      1782      1810      1984      2073
 -1      3806    3    0    1
 -2       219      1034      1238      2206
 -1      3807    3    0    1
 -2      1629       437      1908      2147
 -1      3808    3    0    1
 -2      1956      1476      1982      2288
 -1      3809    3    0    1
 -2      1042       800      1752      2225
 -1      3810    3    0    1
 -2       189       179      2427      2436
 -1      3811    3    0    1
 -2      1324       904       925      1823
 -1      3812    3    0    1
 -2      2236        13      2511      2676
 -1      3813    3    0    1
 -2      1970      1940      2432      2525
 -1      3814    3    0    1
 -2      1029       443      2222      2293
 -1      3815    3    0    1
 -2        66       970      1945      2031
 -1      3816    3    0    1
 -2       774      1237      1958      2474
 -1      3817    3    0    1
 -2      1596       408      1731      2035
 -1      3818    3    0    1
 -2      1782       824      2134      2221
 -1      3819    3    0    1
 -2      1386      1952      2061      2128
 -1      3820    3    0    1
 -2      1379      1563      1839      2114
 -1      3821    3    0    1
 -2      1980      1389      2123      2159
 -1      3822    3    0    1
 -2      1577      1020      2491      2566
 -1      3823    3    0    1
 -2      1123      1313      2086      2536
 -1      3824    3    0    1
 -2        68       390      1158      1945
 -1      3825    3    0    1
 -2      1578      1508      1675      1947
 -1      3826    3    0    1
 -2      1175      2296      2323      1356
 -1      3827    3    0    1
 -2       386      1560      1843      1871
 -1      3828    3    0    1
 -2      2329      2299      2389      2670
 -1      3829    3    0    1
 -2      1698      1601      1797      1871
 -1      3830    3    0    1
 -2      1578      1427      1738      1947
 -1      3831    3    0    1
 -2      1716      1551      2077      2238
 -1      3832    3    0    1
 -2      1238       776      1870      2496
 -1      3833    3    0    1
 -2       630       991       993      2248
 -1      3834    3    0    1
 -2       262      1804      2134      2554
 -1      3835    3    0    1
 -2      1014       167      2141      2452
 -1      3836    3    0    1
 -2      1427      1717      1912      2030
 -1      3837    3    0    1
 -2      1786      1560      2204      2235
 -1      3838    3    0    1
 -2       630      2014      2231      2271
 -1      3839    3    0    1
 -2      1951      2119      2585      2695
 -1      3840    3    0    1
 -2       832      1804      2313      2563
 -1      3841    3    0    1
 -2      1558      1410      1562      2386
 -1      3842    3    0    1
 -2      1841      1209      2415      2643
 -1      3843    3    0    1
 -2      1758      1731      1787      1915
 -1      3844    3    0    1
 -2       214      2422      2730      2737
 -1      3845    3    0    1
 -2      2751      1537      2770      2775
 -1      3846    3    0    1
 -2       703       702      1209      2415
 -1      3847    3    0    1
 -2      1601      1410      1770      1797
 -1      3848    3    0    1
 -2      1421      1446      2551      2586
 -1      3849    3    0    1
 -2      1193       655      2076      2135
 -1      3850    3    0    1
 -2      1831      1615      2002      2059
 -1      3851    3    0    1
 -2      1619      1574      1763      2216
 -1      3852    3    0    1
 -2       413      1594      1678      1800
 -1      3853    3    0    1
 -2      1287       889      1634      1798
 -1      3854    3    0    1
 -2      1576      1451      1955      2065
 -1      3855    3    0    1
 -2       887      1285       888      2409
 -1      3856    3    0    1
 -2      2282      1648      2419      2644
 -1      3857    3    0    1
 -2       874      1066      2363      2488
 -1      3858    3    0    1
 -2      2246      1674      2431      2703
 -1      3859    3    0    1
 -2        68       390      1945      2019
 -1      3860    3    0    1
 -2       101        94      2593      2640
 -1      3861    3    0    1
 -2      2264      1918      2268      2269
 -1      3862    3    0    1
 -2       332      1021      1620      1907
 -1      3863    3    0    1
 -2       580      2300      2346      2478
 -1      3864    3    0    1
 -2        36       453      2743      1355
 -1      3865    3    0    1
 -2      1379      1407      1636      2366
 -1      3866    3    0    1
 -2      2521       300      2559      2690
 -1      3867    3    0    1
 -2      1469      1821      1857      2228
 -1      3868    3    0    1
 -2      1772      2432      2461      2597
 -1      3869    3    0    1
 -2       322      1472      1527      2168
 -1      3870    3    0    1
 -2       688       711      1383      2573
 -1      3871    3    0    1
 -2      1496      1523      1745      1911
 -1      3872    3    0    1
 -2      2395      1944      2474      2495
 -1      3873    3    0    1
 -2      2245       206      2603      2648
 -1      3874    3    0    1
 -2      1769      1415      1788      2211
 -1      3875    3    0    1
 -2       237      1835      1879      2277
 -1      3876    3    0    1
 -2       604       982      1169      2350
 -1      3877    3    0    1
 -2      1504      1573      1614      2192
 -1      3878    3    0    1
 -2      1478      2006      2301      2437
 -1      3879    3    0    1
 -2       465       438      1087      1949
 -1      3880    3    0    1
 -2      1474      1636      1653      2366
 -1      3881    3    0    1
 -2       448        32       519      1775
 -1      3882    3    0    1
 -2      1459      1741      2306      2543
 -1      3883    3    0    1
 -2      1092       462      2181      2265
 -1      3884    3    0    1
 -2      1592      1540      1905      2025
 -1      3885    3    0    1
 -2      1461      1628      1666      1997
 -1      3886    3    0    1
 -2       352        94      2380      2593
 -1      3887    3    0    1
 -2      1237       230      1958      2474
 -1      3888    3    0    1
 -2      1666      1707      1837      1913
 -1      3889    3    0    1
 -2      1063       427      2298      2531
 -1      3890    3    0    1
 -2      1700       370       759       207
 -1      3891    3    0    1
 -2      1498      1535      1640      1887
 -1      3892    3    0    1
 -2      1833      1925      1936      1971
 -1      3893    3    0    1
 -2       824      1782      1795      2015
 -1      3894    3    0    1
 -2      1628      1389      1685      1997
 -1      3895    3    0    1
 -2      1200      1008      1599      1872
 -1      3896    3    0    1
 -2       205      1833      1936      1971
 -1      3897    3    0    1
 -2      1236       762      1036      1362
 -1      3898    3    0    1
 -2      1685      1389      1852      1997
 -1      3899    3    0    1
 -2      1770      1601      1858      2056
 -1      3900    3    0    1
 -2      1509      1530      2000      2083
 -1      3901    3    0    1
 -2      1865      2196      2243      2606
 -1      3902    3    0    1
 -2       941      1774      1815      2658
 -1      3903    3    0    1
 -2       345       443      1423      1700
 -1      3904    3    0    1
 -2       443       345       759      1700
 -1      3905    3    0    1
 -2      1569      1727      1817      2063
 -1      3906    3    0    1
 -2      1396      1434      1611      2493
 -1      3907    3    0    1
 -2        48       966      2195      2411
 -1      3908    3    0    1
 -2      1583      1661      1803      2588
 -1      3909    3    0    1
 -2      1544      1567      1607      1929
 -1      3910    3    0    1
 -2      1562      1080      1777      1930
 -1      3911    3    0    1
 -2      1516      1482      1635      1755
 -1      3912    3    0    1
 -2      1586      1083      1635      1755
 -1      3913    3    0    1
 -2      1743      1344      1919      2086
 -1      3914    3    0    1
 -2       168       174      1978      2289
 -1      3915    3    0    1
 -2       568       405      1602      2406
 -1      3916    3    0    1
 -2      1677      1448      1801      2034
 -1      3917    3    0    1
 -2       344      1650      2097      2414
 -1      3918    3    0    1
 -2       322      1107      1101      1735
 -1      3919    3    0    1
 -2      1381      1432      1613      1714
 -1      3920    3    0    1
 -2       340      1472      1557      1735
 -1      3921    3    0    1
 -2      1472      1527      1557      1735
 -1      3922    3    0    1
 -2      1407      1597      1662      1876
 -1      3923    3    0    1
 -2      1472       340      1527      1735
 -1      3924    3    0    1
 -2       420       965      1147      2615
 -1      3925    3    0    1
 -2      1119       316      1309      2701
 -1      3926    3    0    1
 -2      2106      2439      2463      2657
 -1      3927    3    0    1
 -2       333      1574      1840      1992
 -1      3928    3    0    1
 -2      1415      1598      1638      2041
 -1      3929    3    0    1
 -2       249       256      2471      1365
 -1      3930    3    0    1
 -2      2053      2066      2526      2529
 -1      3931    3    0    1
 -2      1624      1590      1925      1926
 -1      3932    3    0    1
 -2      1426      1440      1656      1811
 -1      3933    3    0    1
 -2        63        70       568      2294
 -1      3934    3    0    1
 -2       867      2312      2488      2590
 -1      3935    3    0    1
 -2      1276      1067      1771      2403
 -1      3936    3    0    1
 -2      1886       778      2371      2418
 -1      3937    3    0    1
 -2      1708      1510      1833      2239
 -1      3938    3    0    1
 -2      1693      1451      1845      1926
 -1      3939    3    0    1
 -2      1855      1434      2010      2442
 -1      3940    3    0    1
 -2      1376      1489      1670      1710
 -1      3941    3    0    1
 -2      2261      2396      2524      2619
 -1      3942    3    0    1
 -2       366       441      2629      2708
 -1      3943    3    0    1
 -2      1912      1515      1437      2102
 -1      3944    3    0    1
 -2       413       335      1616      1711
 -1      3945    3    0    1
 -2       335       413       992      1711
 -1      3946    3    0    1
 -2      1622       185      2484      2535
 -1      3947    3    0    1
 -2      1184       992       631      1711
 -1      3948    3    0    1
 -2       335       992      1184      1711
 -1      3949    3    0    1
 -2       335      1184      1616      1711
 -1      3950    3    0    1
 -2       377       351       712      1974
 -1      3951    3    0    1
 -2      1990      1408      2052      2665
 -1      3952    3    0    1
 -2      1325       918      1099      1899
 -1      3953    3    0    1
 -2      1778      1472      1900      1957
 -1      3954    3    0    1
 -2       343       344      2097      2414
 -1      3955    3    0    1
 -2      1844      1709      1883      2237
 -1      3956    3    0    1
 -2      1506      1374      1651      2146
 -1      3957    3    0    1
 -2       936      1336      1687      1730
 -1      3958    3    0    1
 -2       342       334       640      2227
 -1      3959    3    0    1
 -2       847      1057      1729      2352
 -1      3960    3    0    1
 -2      1920      1528      2077      2238
 -1      3961    3    0    1
 -2      1210       333      1840      1992
 -1      3962    3    0    1
 -2      1420      2627      2688      2718
 -1      3963    3    0    1
 -2      1661      1803      2137      2255
 -1      3964    3    0    1
 -2      1926      1592      2042      2434
 -1      3965    3    0    1
 -2      2145       951      2178      2685
 -1      3966    3    0    1
 -2      2017      1116      2154      2567
 -1      3967    3    0    1
 -2      1605      1883      2136      2237
 -1      3968    3    0    1
 -2       400        48      2377      2411
 -1      3969    3    0    1
 -2      1463      1920      2077      2238
 -1      3970    3    0    1
 -2      1560       386      1843      2235
 -1      3971    3    0    1
 -2       556       562      2300      2623
 -1      3972    3    0    1
 -2       230       783      1996      2224
 -1      3973    3    0    1
 -2      1868        64      2064      2319
 -1      3974    3    0    1
 -2       970       559      2029      2301
 -1      3975    3    0    1
 -2      1507      1108      1676      2265
 -1      3976    3    0    1
 -2      1708      1833      1971      2239
 -1      3977    3    0    1
 -2       567      1762      1960      1345
 -1      3978    3    0    1
 -2       239       244       807      1869
 -1      3979    3    0    1
 -2      2290      1066      2363      2747
 -1      3980    3    0    1
 -2      1404      1687      1892      1906
 -1      3981    3    0    1
 -2      1540      1452      1592      1905
 -1      3982    3    0    1
 -2       341       338      2549      2633
 -1      3983    3    0    1
 -2      1981      1034      1985      2510
 -1      3984    3    0    1
 -2      1296       895      1606      2020
 -1      3985    3    0    1
 -2      1423       345      1700      2293
 -1      3986    3    0    1
 -2      1505      1623      1654      2365
 -1      3987    3    0    1
 -2       895      1297       896      2020
 -1      3988    3    0    1
 -2       383       456      2260      2291
 -1      3989    3    0    1
 -2      1567      1282      1607      2424
 -1      3990    3    0    1
 -2       567       544      1762      1345
 -1      3991    3    0    1
 -2      1377      2198      2585      2695
 -1      3992    3    0    1
 -2      1397      1438      1935      1973
 -1      3993    3    0    1
 -2       607      1813      1963      2302
 -1      3994    3    0    1
 -2       538      1148      2107      2281
 -1      3995    3    0    1
 -2      2595      2396      2613      2697
 -1      3996    3    0    1
 -2      1166       978      2323      1357
 -1      3997    3    0    1
 -2       404       408      1392      2499
 -1      3998    3    0    1
 -2      1935      1397      1973      2292
 -1      3999    3    0    1
 -2      1584      1422      1778      1920
 -1      4000    3    0    1
 -2      1505      1626      2365      2409
 -1      4001    3    0    1
 -2       167      1625      2441      2452
 -1      4002    3    0    1
 -2      1663      1511      1704      2046
 -1      4003    3    0    1
 -2      1728      1123      2086      2536
 -1      4004    3    0    1
 -2      1535      1418      1656      1811
 -1      4005    3    0    1
 -2      1826       193      2440      2769
 -1      4006    3    0    1
 -2       341      1756      1779      1890
 -1      4007    3    0    1
 -2      1390      1716      2077      2078
 -1      4008    3    0    1
 -2      1418      1535      1640      1811
 -1      4009    3    0    1
 -2       375       376       735      1977
 -1      4010    3    0    1
 -2      1419      1519      2090      2267
 -1      4011    3    0    1
 -2      2040       983      2055      2060
 -1      4012    3    0    1
 -2      1517      1669      1768      1784
 -1      4013    3    0    1
 -2       798      1246      2270      2686
 -1      4014    3    0    1
 -2      1694      1742      1778      1957
 -1      4015    3    0    1
 -2       607      1948      1963      2179
 -1      4016    3    0    1
 -2       582       583      2263      2577
 -1      4017    3    0    1
 -2       606       983      1589      2179
 -1      4018    3    0    1
 -2      1589       983      2040      2179
 -1      4019    3    0    1
 -2      1928      1715      1938      2390
 -1      4020    3    0    1
 -2      1715      1928      2268      2390
 -1      4021    3    0    1
 -2       607       606      1948      2179
 -1      4022    3    0    1
 -2      2264      1715      2268      2390
 -1      4023    3    0    1
 -2       928      1107      1557      1735
 -1      4024    3    0    1
 -2      1263      2259      2332      2335
 -1      4025    3    0    1
 -2       428       292      1063      2602
 -1      4026    3    0    1
 -2       982      1178      1477      2322
 -1      4027    3    0    1
 -2      1405      1460      1554      2090
 -1      4028    3    0    1
 -2      1510      1712      2075      2370
 -1      4029    3    0    1
 -2      1640      1385      1800      1887
 -1      4030    3    0    1
 -2      1592      1454      2065      2533
 -1      4031    3    0    1
 -2      2134      1795      2172      2563
 -1      4032    3    0    1
 -2       303       323      1769      1805
 -1      4033    3    0    1
 -2      1748      1430      1833      1971
 -1      4034    3    0    1
 -2       369       368       783      2287
 -1      4035    3    0    1
 -2      1745      1744      1911      2191
 -1      4036    3    0    1
 -2       310      1295      1298      1807
 -1      4037    3    0    1
 -2       352       615       616      2380
 -1      4038    3    0    1
 -2      1654      1494      1905      2025
 -1      4039    3    0    1
 -2      1701      1757      1850      2421
 -1      4040    3    0    1
 -2      1218      2427      2439      2463
 -1      4041    3    0    1
 -2       891      1290      1659      2383
 -1      4042    3    0    1
 -2      1008       356      1383      1872
 -1      4043    3    0    1
 -2        16         9      2486      2502
 -1      4044    3    0    1
 -2      2017      1689      2038      2081
 -1      4045    3    0    1
 -2      1501      1473      1633      1827
 -1      4046    3    0    1
 -2      1727      1569      1817      2197
 -1      4047    3    0    1
 -2      1393      1494      1545      1848
 -1      4048    3    0    1
 -2      1804       387      2134      2563
 -1      4049    3    0    1
 -2      1526      1089      1534      1807
 -1      4050    3    0    1
 -2       356       151      1383      1872
 -1      4051    3    0    1
 -2       352        94       615      2380
 -1      4052    3    0    1
 -2      1413      1459      1741      1753
 -1      4053    3    0    1
 -2      1473      1501      1611      1827
 -1      4054    3    0    1
 -2      1378      1696      1853      2098
 -1      4055    3    0    1
 -2       408      1548      1731      2035
 -1      4056    3    0    1
 -2      1382         6      1499      1962
 -1      4057    3    0    1
 -2       832       387      1804      2563
 -1      4058    3    0    1
 -2        70      1160      2478      2514
 -1      4059    3    0    1
 -2      1522      1697      2012      2036
 -1      4060    3    0    1
 -2      1387      1619      1643      1827
 -1      4061    3    0    1
 -2      1501      1633      1643      1827
 -1      4062    3    0    1
 -2      1000      2401      2429      2638
 -1      4063    3    0    1
 -2       885      1069      2309      2424
 -1      4064    3    0    1
 -2      1567      1607      1929      2424
 -1      4065    3    0    1
 -2      1045       380      1248      1737
 -1      4066    3    0    1
 -2       261       380      1045      1737
 -1      4067    3    0    1
 -2      1712      1394      2075      2370
 -1      4068    3    0    1
 -2      1776      1634      1822      2426
 -1      4069    3    0    1
 -2      2353      2251      2583      2607
 -1      4070    3    0    1
 -2       380       381      1248      1737
 -1      4071    3    0    1
 -2      1780      1476      2288      2465
 -1      4072    3    0    1
 -2      1448      1296      1606      2020
 -1      4073    3    0    1
 -2      1058      1263      2332      2354
 -1      4074    3    0    1
 -2      1638      1415      1769      1805
 -1      4075    3    0    1
 -2       939      1757      1850      2249
 -1      4076    3    0    1
 -2      2218       442      2391      2443
 -1      4077    3    0    1
 -2       907       940      1119      2719
 -1      4078    3    0    1
 -2       390        68      1345      2019
 -1      4079    3    0    1
 -2       654       999      1808      2135
 -1      4080    3    0    1
 -2       335      1661      2210      2392
 -1      4081    3    0    1
 -2      1389       401      1685      1852
 -1      4082    3    0    1
 -2       387       262       832      1804
 -1      4083    3    0    1
 -2      1698      1469      1871      2095
 -1      4084    3    0    1
 -2      2002      2219      2413      2515
 -1      4085    3    0    1
 -2      1529      1522      1541      1986
 -1      4086    3    0    1
 -2        48       400       966      1873
 -1      4087    3    0    1
 -2      1534      1529      1541      1986
 -1      4088    3    0    1
 -2       331       136      1773      2401
 -1      4089    3    0    1
 -2       382       591      2209      2639
 -1      4090    3    0    1
 -2       421      1508      1518      2083
 -1      4091    3    0    1
 -2      1921      1946      2266      2273
 -1      4092    3    0    1
 -2       239       436      1042      1752
 -1      4093    3    0    1
 -2      1429      1666      1707      1837
 -1      4094    3    0    1
 -2       511       959      1754      1924
 -1      4095    3    0    1
 -2      1193      1779      2076      2127
 -1      4096    3    0    1
 -2      1751      1645      1802      1954
 -1      4097    3    0    1
 -2      2351       129      2630      2699
 -1      4098    3    0    1
 -2      1762       544      2064      2377
 -1      4099    3    0    1
 -2      1437      1515      2208      2402
 -1      4100    3    0    1
 -2      1865      1792      2203      2204
 -1      4101    3    0    1
 -2       348      1517      1781      1784
 -1      4102    3    0    1
 -2      2210      2555      2588      2604
 -1      4103    3    0    1
 -2      1843       434      2220      2235
 -1      4104    3    0    1
 -2      2006      1478      2316      2437
 -1      4105    3    0    1
 -2      2106      1671      2164      2547
 -1      4106    3    0    1
 -2      2023      1834      2043      2304
 -1      4107    3    0    1
 -2      1674      2246      2399      2705
 -1      4108    3    0    1
 -2      1568      1644      2028      2254
 -1      4109    3    0    1
 -2       897      1519      1554      1760
 -1      4110    3    0    1
 -2      1075       313      2509      2567
 -1      4111    3    0    1
 -2      1451      1576      1845      2065
 -1      4112    3    0    1
 -2       366       796       807      1869
 -1      4113    3    0    1
 -2       366       243       796      1869
 -1      4114    3    0    1
 -2      2723      2706      2757      2764
 -1      4115    3    0    1
 -2      1680      1159      2315      2340
 -1      4116    3    0    1
 -2      2298      2328      2455      2531
 -1      4117    3    0    1
 -2       414       407      1861      1946
 -1      4118    3    0    1
 -2      1482      1461      1666      1997
 -1      4119    3    0    1
 -2      1539      1955      1964      2065
 -1      4120    3    0    1
 -2       230       211      1993      2474
 -1      4121    3    0    1
 -2        63      2294      2319      2514
 -1      4122    3    0    1
 -2      1402      1669      1742      1768
 -1      4123    3    0    1
 -2      1598      1517      1669      1768
 -1      4124    3    0    1
 -2      1701      1562      2385      2421
 -1      4125    3    0    1
 -2      1404      1687      1730      2151
 -1      4126    3    0    1
 -2      1753      1459      1950      2275
 -1      4127    3    0    1
 -2      1998      1995      2391      2443
 -1      4128    3    0    1
 -2       951       486      2145      2178
 -1      4129    3    0    1
 -2      1757      1118      1850      2421
 -1      4130    3    0    1
 -2      2128      1487      2562      1580
 -1      4131    3    0    1
 -2       390       567       568      1960
 -1      4132    3    0    1
 -2      1407      1379      1893      2256
 -1      4133    3    0    1
 -2      1964      2007      2070      2534
 -1      4134    3    0    1
 -2       352       103       984      1766
 -1      4135    3    0    1
 -2      1454      1964      2070      2534
 -1      4136    3    0    1
 -2      1772       510      1924      2412
 -1      4137    3    0    1
 -2      1454      1539      1964      2065
 -1      4138    3    0    1
 -2      1639      1055      2172      2352
 -1      4139    3    0    1
 -2       881      1513      1591      1771
 -1      4140    3    0    1
 -2       882       881      1591      1771
 -1      4141    3    0    1
 -2        94       352      1948      2593
 -1      4142    3    0    1
 -2       448        32      2087      2404
 -1      4143    3    0    1
 -2        32      1139      1987      2404
 -1      4144    3    0    1
 -2        94       101       615      2640
 -1      4145    3    0    1
 -2      1276       881       882      1771
 -1      4146    3    0    1
 -2       881      1276      1067      1771
 -1      4147    3    0    1
 -2       881      1067      1513      1771
 -1      4148    3    0    1
 -2       237      1908      2384      2569
 -1      4149    3    0    1
 -2      1404      1569      1780      2197
 -1      4150    3    0    1
 -2       727      1219      1502      1883
 -1      4151    3    0    1
 -2      1581      1722      1899      2168
 -1      4152    3    0    1
 -2      1527      1557      1735      2001
 -1      4153    3    0    1
 -2      2603      2245      2648      2700
 -1      4154    3    0    1
 -2      1456      1575      2652      2711
 -1      4155    3    0    1
 -2       433      1046      2257      2457
 -1      4156    3    0    1
 -2      1422      1463      1920      2212
 -1      4157    3    0    1
 -2      1226       747      2026      2542
 -1      4158    3    0    1
 -2      1728      1967      2174      2382
 -1      4159    3    0    1
 -2      1377      2627      2707      2722
 -1      4160    3    0    1
 -2       594       593      1175      1356
 -1      4161    3    0    1
 -2      1220      1020       730      2566
 -1      4162    3    0    1
 -2      1542      1838      1878      2022
 -1      4163    3    0    1
 -2      1398       335      1678      1800
 -1      4164    3    0    1
 -2      2290       454      2359      1350
 -1      4165    3    0    1
 -2      1608      1496      1618      1860
 -1      4166    3    0    1
 -2      1751      1821      1857      1858
 -1      4167    3    0    1
 -2       894       893      1618      1860
 -1      4168    3    0    1
 -2       335      1398      1571      1800
 -1      4169    3    0    1
 -2       331       664       687      1773
 -1      4170    3    0    1
 -2       331       136       664      1773
 -1      4171    3    0    1
 -2      1048       824      1782      1795
 -1      4172    3    0    1
 -2      1647      1770      1858      2056
 -1      4173    3    0    1
 -2       331       136      2401      2429
 -1      4174    3    0    1
 -2      1326       322      1316      2168
 -1      4175    3    0    1
 -2      2151      1817      2176      2197
 -1      4176    3    0    1
 -2      1398      1594      1640      1800
 -1      4177    3    0    1
 -2       344      1650      1988      2097
 -1      4178    3    0    1
 -2      1693      1576      1708      2239
 -1      4179    3    0    1
 -2       384      1587      1857      1953
 -1      4180    3    0    1
 -2      1287       307      1288      1822
 -1      4181    3    0    1
 -2       149       358      2283      2540
 -1      4182    3    0    1
 -2      1388      1437      1655      2426
 -1      4183    3    0    1
 -2        50       450       543      1796
 -1      4184    3    0    1
 -2      1666      1628      1707      2450
 -1      4185    3    0    1
 -2      1743      1919      2074      2086
 -1      4186    3    0    1
 -2      1405      1460      2258      2537
 -1      4187    3    0    1
 -2      1845      1592      1926      2065
 -1      4188    3    0    1
 -2       379      2323      2739      2744
 -1      4189    3    0    1
 -2      1425      1389      1838      2159
 -1      4190    3    0    1
 -2      2043      1610      2416      2485
 -1      4191    3    0    1
 -2      1168      2263      2410      2499
 -1      4192    3    0    1
 -2      1490      1915      1438      1375
 -1      4193    3    0    1
 -2      1872       151      1999      2013
 -1      4194    3    0    1
 -2      1852      1874      2378      2541
 -1      4195    3    0    1
 -2       157       353      2601      1347
 -1      4196    3    0    1
 -2      1597      1506      1662      1876
 -1      4197    3    0    1
 -2      2219      2002      2297      2515
 -1      4198    3    0    1
 -2      1674      2246      2620      2703
 -1      4199    3    0    1
 -2      1508       421      1518      1790
 -1      4200    3    0    1
 -2      1578      1518      1761      1790
 -1      4201    3    0    1
 -2      1384      1578      1761      1790
 -1      4202    3    0    1
 -2       421      1401      1518      1790
 -1      4203    3    0    1
 -2      1219      1667      1877      1883
 -1      4204    3    0    1
 -2      2339       402      2353      2607
 -1      4205    3    0    1
 -2      1751      1647      1821      1858
 -1      4206    3    0    1
 -2      1192       655       654      1791
 -1      4207    3    0    1
 -2       982       364      1169      2169
 -1      4208    3    0    1
 -2      1409      1597      1893      2256
 -1      4209    3    0    1
 -2       249       256      1989      2471
 -1      4210    3    0    1
 -2       456      2260      2291      2314
 -1      4211    3    0    1
 -2       990       363      1178      2356
 -1      4212    3    0    1
 -2       867       874      1270      2488
 -1      4213    3    0    1
 -2      1934      1682      2232      2303
 -1      4214    3    0    1
 -2      1451      1708      1712      1818
 -1      4215    3    0    1
 -2      1507      1451      1712      1818
 -1      4216    3    0    1
 -2      1650       343      1829      2097
 -1      4217    3    0    1
 -2      1799      1525      1802      2079
 -1      4218    3    0    1
 -2       137       136      1000      1791
 -1      4219    3    0    1
 -2      2068      1980      2123      2159
 -1      4220    3    0    1
 -2       344       183       736      2097
 -1      4221    3    0    1
 -2      1538      1466      1653      2286
 -1      4222    3    0    1
 -2      1557      1672      1735      2001
 -1      4223    3    0    1
 -2       306      1285      2365      2409
 -1      4224    3    0    1
 -2      1626       306      2365      2409
 -1      4225    3    0    1
 -2      1631      1740      1831      2413
 -1      4226    3    0    1
 -2       399       958      1881      1940
 -1      4227    3    0    1
 -2       114       334       991      2505
 -1      4228    3    0    1
 -2      1644      1744      2191      2483
 -1      4229    3    0    1
 -2       149       154       688      1999
 -1      4230    3    0    1
 -2      1891      2028      2254      2483
 -1      4231    3    0    1
 -2        94       352       984      1948
 -1      4232    3    0    1
 -2      1687      2156      2509      2673
 -1      4233    3    0    1
 -2      1819      1404      1906      1914
 -1      4234    3    0    1
 -2      1696      1378      2047      2098
 -1      4235    3    0    1
 -2      1744      1496      1745      1911
 -1      4236    3    0    1
 -2        98       364       982      2169
 -1      4237    3    0    1
 -2       906      1586      1635      2433
 -1      4238    3    0    1
 -2       950       952      2242      2502
 -1      4239    3    0    1
 -2       137       136      1882      2497
 -1      4240    3    0    1
 -2      1615      1831      2002      2219
 -1      4241    3    0    1
 -2       798      2092      2279      2686
 -1      4242    3    0    1
 -2      1574      1479      1763      2216
 -1      4243    3    0    1
 -2      2002      1615      2219      2297
 -1      4244    3    0    1
 -2       442       219      1238      2206
 -1      4245    3    0    1
 -2      2082      1984      2095      2228
 -1      4246    3    0    1
 -2      2336       395      2360      1353
 -1      4247    3    0    1
 -2      1469      1857      2073      2228
 -1      4248    3    0    1
 -2       428       427       879      2692
 -1      4249    3    0    1
 -2       879      1976      2591      2692
 -1      4250    3    0    1
 -2      1401      1790      1968      2284
 -1      4251    3    0    1
 -2      1464      1545      1848      2117
 -1      4252    3    0    1
 -2      1504      1614      1832      2192
 -1      4253    3    0    1
 -2      1474      1509      1653      2501
 -1      4254    3    0    1
 -2      1540      1505      2365      2409
 -1      4255    3    0    1
 -2      1177       607      1813      2179
 -1      4256    3    0    1
 -2      1968       399      2165      2501
 -1      4257    3    0    1
 -2       402      1504      1573      2607
 -1      4258    3    0    1
 -2      1316       322      1581      2168
 -1      4259    3    0    1
 -2      1583      1716      2078      2238
 -1      4260    3    0    1
 -2       262       435       831      1804
 -1      4261    3    0    1
 -2       444      1728      2382      2536
 -1      4262    3    0    1
 -2       511       957       959      1924
 -1      4263    3    0    1
 -2       205      1430      1748      1971
 -1      4264    3    0    1
 -2      1698      1469      2095      2228
 -1      4265    3    0    1
 -2      2274       910      2448      2619
 -1      4266    3    0    1
 -2      1644      1744      1745      2191
 -1      4267    3    0    1
 -2      1726      1435      1784      2122
 -1      4268    3    0    1
 -2      1523      1745      1911      2191
 -1      4269    3    0    1
 -2      2163      1470      2503      2576
 -1      4270    3    0    1
 -2       349       348      1720      2122
 -1      4271    3    0    1
 -2       348      1684      1721      2122
 -1      4272    3    0    1
 -2      1147       535      1617      1969
 -1      4273    3    0    1
 -2      1295       412      1526      1807
 -1      4274    3    0    1
 -2       310       412      1295      1807
 -1      4275    3    0    1
 -2      1504      1573      2315      2339
 -1      4276    3    0    1
 -2      1528      1895      1920      2077
 -1      4277    3    0    1
 -2       943       912      2595      2697
 -1      4278    3    0    1
 -2      1645      1751      1857      1954
 -1      4279    3    0    1
 -2      1938       305      1928      2207
 -1      4280    3    0    1
 -2      1046       433      2257      2553
 -1      4281    3    0    1
 -2      2288      1569      2465      2477
 -1      4282    3    0    1
 -2      2306      1741      2416      2543
 -1      4283    3    0    1
 -2      1889      1747      2043      2543
 -1      4284    3    0    1
 -2      1852      2200      2251      2353
 -1      4285    3    0    1
 -2      1863      2161      2255      2608
 -1      4286    3    0    1
 -2       219      1034      1679      1985
 -1      4287    3    0    1
 -2       771      1236      2018      2173
 -1      4288    3    0    1
 -2      1323       924      1692      1812
 -1      4289    3    0    1
 -2      1323       908       924      1812
 -1      4290    3    0    1
 -2      1462       924      1489      1812
 -1      4291    3    0    1
 -2       923       906      1635      2433
 -1      4292    3    0    1
 -2       413       992      1520      2468
 -1      4293    3    0    1
 -2      1056      1264      2476      2662
 -1      4294    3    0    1
 -2      1028      1936      2136      2518
 -1      4295    3    0    1
 -2      1638      1402      2001      2041
 -1      4296    3    0    1
 -2      1424      1759      1918      2268
 -1      4297    3    0    1
 -2      1892      1449      2458      2659
 -1      4298    3    0    1
 -2      1990      1884      2152      2171
 -1      4299    3    0    1
 -2      1809      1706      2063      2470
 -1      4300    3    0    1
 -2      1317      1110      1521      1855
 -1      4301    3    0    1
 -2      1915      1490      1438      1787
 -1      4302    3    0    1
 -2      1732      1731      1758      1915
 -1      4303    3    0    1
 -2      1067      1513      1771      2403
 -1      4304    3    0    1
 -2       467       419      1074      1817
 -1      4305    3    0    1
 -2      1944      1228      2245      2395
 -1      4306    3    0    1
 -2      1074       419      1335      1817
 -1      4307    3    0    1
 -2      1335       419      1727      1817
 -1      4308    3    0    1
 -2      1782      1795      1810      2172
 -1      4309    3    0    1
 -2      1460      1554      2187      2612
 -1      4310    3    0    1
 -2      1615      1729      2002      2059
 -1      4311    3    0    1
 -2      2285       423      2614      2615
 -1      4312    3    0    1
 -2       230       228      1996      2287
 -1      4313    3    0    1
 -2      1769      1638      1805      2562
 -1      4314    3    0    1
 -2      1147      1425      1542      1969
 -1      4315    3    0    1
 -2      1466      1538      2120      2286
 -1      4316    3    0    1
 -2      1446      1421      2551      2688
 -1      4317    3    0    1
 -2      2466      1414      2571      2616
 -1      4318    3    0    1
 -2       157      2601      1346      1347
 -1      4319    3    0    1
 -2       965       423      2285      2615
 -1      4320    3    0    1
 -2      1970      1466      2120      2286
 -1      4321    3    0    1
 -2       511       959      1783      1820
 -1      4322    3    0    1
 -2       131      1194      2599      2699
 -1      4323    3    0    1
 -2      1478      1973      2292      2316
 -1      4324    3    0    1
 -2       904      1324      1306      1823
 -1      4325    3    0    1
 -2      1668       904      1691      1823
 -1      4326    3    0    1
 -2      1489      1462      1812      1824
 -1      4327    3    0    1
 -2       357       103      1766      2302
 -1      4328    3    0    1
 -2      1948       352      2380      2593
 -1      4329    3    0    1
 -2      1374      2111      2146      2215
 -1      4330    3    0    1
 -2      2111      1706      2146      2215
 -1      4331    3    0    1
 -2       774      1238       766      1034
 -1      4332    3    0    1
 -2       908      1489      1812      1824
 -1      4333    3    0    1
 -2      1489      1086       908      1322
 -1      4334    3    0    1
 -2      1506      1374      2146      2215
 -1      4335    3    0    1
 -2      1394      2075      2370      2642
 -1      4336    3    0    1
 -2      1376      1462      1489      1824
 -1      4337    3    0    1
 -2      1086      1489       908      1824
 -1      4338    3    0    1
 -2       908      1489      1322       924
 -1      4339    3    0    1
 -2      1953       384      2073      2104
 -1      4340    3    0    1
 -2       520      1775      2084      2487
 -1      4341    3    0    1
 -2       362       363       616      2631
 -1      4342    3    0    1
 -2      1802      1645      2088      2372
 -1      4343    3    0    1
 -2       401      1852      2200      2251
 -1      4344    3    0    1
 -2      1967      1705      2174      2217
 -1      4345    3    0    1
 -2      1809      1817      2063      2101
 -1      4346    3    0    1
 -2      1723      1393      2453      2653
 -1      4347    3    0    1
 -2      1837      1695      1913      2460
 -1      4348    3    0    1
 -2      2506       226      2625      2708
 -1      4349    3    0    1
 -2       376       375      1020      1977
 -1      4350    3    0    1
 -2      1551      1891      2028      2254
 -1      4351    3    0    1
 -2       370       192      2062      2484
 -1      4352    3    0    1
 -2       333      1210      2398      2441
 -1      4353    3    0    1
 -2       193      1826      2464      2769
 -1      4354    3    0    1
 -2      1210       333      1625      2441
 -1      4355    3    0    1
 -2      1429      1632      1816      2426
 -1      4356    3    0    1
 -2      1566      1640      1800      1887
 -1      4357    3    0    1
 -2      2446      1922      2477      2552
 -1      4358    3    0    1
 -2      1528      1390      1756      1895
 -1      4359    3    0    1
 -2      1805      2128      2276      2562
 -1      4360    3    0    1
 -2      1416      2682      2717      2724
 -1      4361    3    0    1
 -2      1540       887      1909      2409
 -1      4362    3    0    1
 -2      1303       301       459      2592
 -1      4363    3    0    1
 -2      1014       702      1625      2003
 -1      4364    3    0    1
 -2      1245       786      1364      1371
 -1      4365    3    0    1
 -2      1965      1258      2121      2291
 -1      4366    3    0    1
 -2      1463      1660      1722      1937
 -1      4367    3    0    1
 -2      1465      1411      2413      2515
 -1      4368    3    0    1
 -2       870      1064      2033      2223
 -1      4369    3    0    1
 -2      1446      2199      2551      2586
 -1      4370    3    0    1
 -2      1628      1461      1666      1837
 -1      4371    3    0    1
 -2       429      1976      2327      2696
 -1      4372    3    0    1
 -2      1621      1699      1723      2453
 -1      4373    3    0    1
 -2      1429      1388      1655      2426
 -1      4374    3    0    1
 -2      1474      1379      1563      1839
 -1      4375    3    0    1
 -2      1509      1474      1563      1839
 -1      4376    3    0    1
 -2      1469      1601      1698      1871
 -1      4377    3    0    1
 -2         9       950      2242      2502
 -1      4378    3    0    1
 -2       871      1713      2559      2650
 -1      4379    3    0    1
 -2      1766       357      2302      2516
 -1      4380    3    0    1
 -2      1727      1809      1817      2063
 -1      4381    3    0    1
 -2      2394       231      2400      2435
 -1      4382    3    0    1
 -2       421      1401      1968      2284
 -1      4383    3    0    1
 -2      1601      1560      1797      1871
 -1      4384    3    0    1
 -2      2245      2050      2648      2700
 -1      4385    3    0    1
 -2      2332      1263      2335      2354
 -1      4386    3    0    1
 -2       211       443      1423      2222
 -1      4387    3    0    1
 -2      1474      1509      1530      1839
 -1      4388    3    0    1
 -2      1530      1509      1603      1839
 -1      4389    3    0    1
 -2      1563      1453      1603      1839
 -1      4390    3    0    1
 -2      1603      1453      1675      1839
 -1      4391    3    0    1
 -2      1509      1563      1603      1839
 -1      4392    3    0    1
 -2        48      2195      2377      2411
 -1      4393    3    0    1
 -2       390       567      1960      1345
 -1      4394    3    0    1
 -2      1041       798      1903      2544
 -1      4395    3    0    1
 -2      1492      1644      2028      2483
 -1      4396    3    0    1
 -2      1653      1538      1876      2139
 -1      4397    3    0    1
 -2      1023      2026      2143      2175
 -1      4398    3    0    1
 -2        70       568      2294      2490
 -1      4399    3    0    1
 -2      1095       915      1964      2007
 -1      4400    3    0    1
 -2      1376      1710      2250      2583
 -1      4401    3    0    1
 -2      1438      1732      1787      2194
 -1      4402    3    0    1
 -2      1852      1874      2541      2583
 -1      4403    3    0    1
 -2      1564      1490      1828      2193
 -1      4404    3    0    1
 -2       330       166      1209      1841
 -1      4405    3    0    1
 -2      1209       702      1765      1841
 -1      4406    3    0    1
 -2      2745      2728      2767      2773
 -1      4407    3    0    1
 -2      1393      1723      2529      2679
 -1      4408    3    0    1
 -2        98       615      2113      2469
 -1      4409    3    0    1
 -2      1716      1551      2238      2507
 -1      4410    3    0    1
 -2      1399      2053      2093      2493
 -1      4411    3    0    1
 -2       795      1886      2423      2654
 -1      4412    3    0    1
 -2      1853      1613      1921      2273
 -1      4413    3    0    1
 -2      1660      1581      1722      1899
 -1      4414    3    0    1
 -2       965       534      1147      1969
 -1      4415    3    0    1
 -2      1766       984      1963      2302
 -1      4416    3    0    1
 -2      1585      1822      2009      2118
 -1      4417    3    0    1
 -2       413      1520      1594      2468
 -1      4418    3    0    1
 -2       930      1521      1545      1849
 -1      4419    3    0    1
 -2      1521      1464      1545      1849
 -1      4420    3    0    1
 -2      1109      1545      1626      1849
 -1      4421    3    0    1
 -2      1109       930      1545      1849
 -1      4422    3    0    1
 -2       917       930      1109      1849
 -1      4423    3    0    1
 -2      1330       917      1098      1849
 -1      4424    3    0    1
 -2       930      1330      1521      1849
 -1      4425    3    0    1
 -2       917      1330       930      1849
 -1      4426    3    0    1
 -2       905      1339       939      1850
 -1      4427    3    0    1
 -2       905      1118      1307      1850
 -1      4428    3    0    1
 -2      1118       939      1757      1850
 -1      4429    3    0    1
 -2       905       939      1118      1850
 -1      4430    3    0    1
 -2      1841       330      2057      2232
 -1      4431    3    0    1
 -2      1749      1192      1793      1851
 -1      4432    3    0    1
 -2      1192       336      1793      1851
 -1      4433    3    0    1
 -2      1895      1920      2077      2212
 -1      4434    3    0    1
 -2      1463      1422      1660      2212
 -1      4435    3    0    1
 -2      1989       249      2456      2766
 -1      4436    3    0    1
 -2      1229       209      2099      2140
 -1      4437    3    0    1
 -2      1636      1407      1662      1876
 -1      4438    3    0    1
 -2      1328       920       928      1875
 -1      4439    3    0    1
 -2       920      1328      1318      1875
 -1      4440    3    0    1
 -2       928       920      1788      1875
 -1      4441    3    0    1
 -2       442      1998      2391      2443
 -1      4442    3    0    1
 -2       192       370      2158      2484
 -1      4443    3    0    1
 -2      1451      1507      1576      1955
 -1      4444    3    0    1
 -2       277       456      1262      1965
 -1      4445    3    0    1
 -2      1507      1451      1676      1955
 -1      4446    3    0    1
 -2      1720      1007      1721      2122
 -1      4447    3    0    1
 -2      1669      1768      1784      1864
 -1      4448    3    0    1
 -2      1403      1491      2652      2683
 -1      4449    3    0    1
 -2       931      1612      1855      1856
 -1      4450    3    0    1
 -2      1110       931      1855      1856
 -1      4451    3    0    1
 -2        81       975      1169      2008
 -1      4452    3    0    1
 -2       335      1184      2137      2392
 -1      4453    3    0    1
 -2      1636      1466      1653      2139
 -1      4454    3    0    1
 -2      1700       370      2099      2484
 -1      4455    3    0    1
 -2      1543      1395      1917      2201
 -1      4456    3    0    1
 -2      1601      1698      1770      1858
 -1      4457    3    0    1
 -2      1647      1770      1821      1858
 -1      4458    3    0    1
 -2      1770      1698      1821      1858
 -1      4459    3    0    1
 -2       303      1318      1328      2211
 -1      4460    3    0    1
 -2      1995      1998      2391      2556
 -1      4461    3    0    1
 -2      1293       894      1618      1860
 -1      4462    3    0    1
 -2      1488      1608      1618      1860
 -1      4463    3    0    1
 -2      1073      1294      1488      1860
 -1      4464    3    0    1
 -2      1488      1294      1608      1860
 -1      4465    3    0    1
 -2      1293      1523      1745      1860
 -1      4466    3    0    1
 -2      1523      1293      1618      1860
 -1      4467    3    0    1
 -2      1294       893       894      1860
 -1      4468    3    0    1
 -2       893      1294      1073      1860
 -1      4469    3    0    1
 -2      1073      1488      1618      1860
 -1      4470    3    0    1
 -2       893      1073      1618      1860
 -1      4471    3    0    1
 -2      1557      2001      2021      2041
 -1      4472    3    0    1
 -2      1422      1694      1778      1957
 -1      4473    3    0    1
 -2      1675      1603      1839      1983
 -1      4474    3    0    1
 -2       998       651      1194      2663
 -1      4475    3    0    1
 -2      1998      1975      2105      2138
 -1      4476    3    0    1
 -2      1559      1998      2105      2138
 -1      4477    3    0    1
 -2       651       634      2349      2480
 -1      4478    3    0    1
 -2      1671      1620      2164      2547
 -1      4479    3    0    1
 -2      1021       726      1877      2547
 -1      4480    3    0    1
 -2      1406      1781      1784      1864
 -1      4481    3    0    1
 -2      1742      1406      1768      1864
 -1      4482    3    0    1
 -2      1406      1517      1768      1864
 -1      4483    3    0    1
 -2      1467      2155      2156      2673
 -1      4484    3    0    1
 -2      1661      1571      2210      2604
 -1      4485    3    0    1
 -2      1395      1543      1917      2098
 -1      4486    3    0    1
 -2      1575      1433      2652      2711
 -1      4487    3    0    1
 -2       411       101      2182      2417
 -1      4488    3    0    1
 -2      1246       244      2058      2522
 -1      4489    3    0    1
 -2      1696      1543      1853      2098
 -1      4490    3    0    1
 -2      1569      1404      1914      2197
 -1      4491    3    0    1
 -2      1677      1395      1801      2098
 -1      4492    3    0    1
 -2      1520       992      2014      2468
 -1      4493    3    0    1
 -2       382        80      1167      1867
 -1      4494    3    0    1
 -2        80       977      1167      1867
 -1      4495    3    0    1
 -2       999       338      1863      2183
 -1      4496    3    0    1
 -2      1611      1501      1724      2010
 -1      4497    3    0    1
 -2      1424      1522      1541      2012
 -1      4498    3    0    1
 -2      2243      2196      2308      2606
 -1      4499    3    0    1
 -2      1340       907      1084      2011
 -1      4500    3    0    1
 -2      1387      1643      1664      2115
 -1      4501    3    0    1
 -2      1396      1501      1611      2010
 -1      4502    3    0    1
 -2      1894      1888      2039      2071
 -1      4503    3    0    1
 -2        16        18       952      2502
 -1      4504    3    0    1
 -2      1047       434      1834      2220
 -1      4505    3    0    1
 -2      2556      2399      2600      2637
 -1      4506    3    0    1
 -2        80       411       977      1867
 -1      4507    3    0    1
 -2       891      1627      2048      2114
 -1      4508    3    0    1
 -2      1265       277      1965      2338
 -1      4509    3    0    1
 -2      1935      1973      2194      2316
 -1      4510    3    0    1
 -2        64        69       968      1868
 -1      4511    3    0    1
 -2      1569      1780      2288      2465
 -1      4512    3    0    1
 -2      2294       568      2319      2490
 -1      4513    3    0    1
 -2      1574      1479      2216      2230
 -1      4514    3    0    1
 -2       300        13      2236      2676
 -1      4515    3    0    1
 -2      1630      1585      1822      2009
 -1      4516    3    0    1
 -2      1479      1574      1764      2230
 -1      4517    3    0    1
 -2      1220       730      2062      2143
 -1      4518    3    0    1
 -2       796       801       808      1869
 -1      4519    3    0    1
 -2       370      2062      2099      2484
 -1      4520    3    0    1
 -2      1535      1385      1640      1887
 -1      4521    3    0    1
 -2      1455      2043      2306      2416
 -1      4522    3    0    1
 -2      1566      1498      1640      1887
 -1      4523    3    0    1
 -2      1379      1407      1563      2256
 -1      4524    3    0    1
 -2      1535      1498      1566      1887
 -1      4525    3    0    1
 -2      1744      1485      1911      2191
 -1      4526    3    0    1
 -2      1471      1606      1807      2020
 -1      4527    3    0    1
 -2      1874      1852      2188      2251
 -1      4528    3    0    1
 -2       402       401      2200      2251
 -1      4529    3    0    1
 -2      1407      1636      1653      1876
 -1      4530    3    0    1
 -2      1538      1499      1651      1876
 -1      4531    3    0    1
 -2      1506      1374      1662      1876
 -1      4532    3    0    1
 -2      1374      1506      1651      1876
 -1      4533    3    0    1
 -2      1499      1374      1651      1876
 -1      4534    3    0    1
 -2       209       371      2024      2140
 -1      4535    3    0    1
 -2      1700       760      2024      2140
 -1      4536    3    0    1
 -2      1665      1229      2099      2140
 -1      4537    3    0    1
 -2      1620      1764      1907      2230
 -1      4538    3    0    1
 -2       726      1877      1219      1021
 -1      4539    3    0    1
 -2      1628      1666      1685      1878
 -1      4540    3    0    1
 -2       396       454      2290      1350
 -1      4541    3    0    1
 -2      1030      1236      2018      1362
 -1      4542    3    0    1
 -2        13       300      2236      2690
 -1      4543    3    0    1
 -2       950        13      2236      2690
 -1      4544    3    0    1
 -2       784       220      1690      2425
 -1      4545    3    0    1
 -2      1524      1785      2061      2655
 -1      4546    3    0    1
 -2       228       230       783      2287
 -1      4547    3    0    1
 -2       783       230      1996      2287
 -1      4548    3    0    1
 -2      1411      1465      1830      1941
 -1      4549    3    0    1
 -2      1147      1617      1658      1969
 -1      4550    3    0    1
 -2       535      1533      1873      1969
 -1      4551    3    0    1
 -2       679      1008      1682      1897
 -1      4552    3    0    1
 -2      2100      2129      2198      2754
 -1      4553    3    0    1
 -2      1276      1067      2403      2592
 -1      4554    3    0    1
 -2       168       166       711      2694
 -1      4555    3    0    1
 -2       134       663       664      1882
 -1      4556    3    0    1
 -2       134      1000      1192      1882
 -1      4557    3    0    1
 -2      1192      1000      1791      1882
 -1      4558    3    0    1
 -2      1709      1667      1844      1883
 -1      4559    3    0    1
 -2      2441       167      1664       333
 -1      4560    3    0    1
 -2       795      1040      1886      2654
 -1      4561    3    0    1
 -2      1514      1497      1703      2067
 -1      4562    3    0    1
 -2      1913      1630      2009      2460
 -1      4563    3    0    1
 -2      1588      1885      2337      2707
 -1      4564    3    0    1
 -2      1470      1572      2726      2727
 -1      4565    3    0    1
 -2       372      2645      1348      2741
 -1      4566    3    0    1
 -2      1894      1553      2039      2458
 -1      4567    3    0    1
 -2      1845      1592      2065      2533
 -1      4568    3    0    1
 -2      1928       886      1938      2424
 -1      4569    3    0    1
 -2      2474      2124      2495      2510
 -1      4570    3    0    1
 -2      2017       937      2038      2154
 -1      4571    3    0    1
 -2       736       759      2097      2158
 -1      4572    3    0    1
 -2       885      1282      1069      2424
 -1      4573    3    0    1
 -2      1956      2162      2167      2685
 -1      4574    3    0    1
 -2       678      1200      1599      2397
 -1      4575    3    0    1
 -2       231       784      2157      2425
 -1      4576    3    0    1
 -2      1468      1455      2306      2485
 -1      4577    3    0    1
 -2       333       167      1625      2441
 -1      4578    3    0    1
 -2       855       856      2131      2314
 -1      4579    3    0    1
 -2      1571      1911      2112      2656
 -1      4580    3    0    1
 -2       795       778      1036      1886
 -1      4581    3    0    1
 -2       795      1036      1245      1886
 -1      4582    3    0    1
 -2       778       795      1040      1886
 -1      4583    3    0    1
 -2       778      1040      1239      1886
 -1      4584    3    0    1
 -2      1819      1892      1906      2446
 -1      4585    3    0    1
 -2      1891      1716      2238      2507
 -1      4586    3    0    1
 -2      1492      1716      2253      2507
 -1      4587    3    0    1
 -2      1615      2219      2297      2455
 -1      4588    3    0    1
 -2       241      2027      2481      1364
 -1      4589    3    0    1
 -2      1427      1600      1717      2030
 -1      4590    3    0    1
 -2      1427      1481      1675      2030
 -1      4591    3    0    1
 -2      1481      1495      1675      2030
 -1      4592    3    0    1
 -2      1600      1556      1717      2030
 -1      4593    3    0    1
 -2      1420      2032      2627      2718
 -1      4594    3    0    1
 -2       149      1999      2540      2558
 -1      4595    3    0    1
 -2       414       407       983      2040
 -1      4596    3    0    1
 -2      1246       798      1814      2686
 -1      4597    3    0    1
 -2       414       983      1177      2040
 -1      4598    3    0    1
 -2      1528      1390      2077      2078
 -1      4599    3    0    1
 -2      1708      1576      1712      2239
 -1      4600    3    0    1
 -2      1853      1613      1917      1921
 -1      4601    3    0    1
 -2      1613      1381      1917      1921
 -1      4602    3    0    1
 -2      1201      1720      1721      1897
 -1      4603    3    0    1
 -2       345      1029      1227      2293
 -1      4604    3    0    1
 -2       679       678      1599      1897
 -1      4605    3    0    1
 -2      1682      1008      1872      1897
 -1      4606    3    0    1
 -2      1008      1599      1872      1897
 -1      4607    3    0    1
 -2      1007      1201      1721      1897
 -1      4608    3    0    1
 -2      1201      1007       679      1897
 -1      4609    3    0    1
 -2       678       679      1007      1897
 -1      4610    3    0    1
 -2      1007      1599      1897      1721
 -1      4611    3    0    1
 -2      1495      1481      1556      2030
 -1      4612    3    0    1
 -2       342       336      1851      2472
 -1      4613    3    0    1
 -2      1531      1405      1553      1941
 -1      4614    3    0    1
 -2       321      1325      1099      1899
 -1      4615    3    0    1
 -2       926      1325      1722      1899
 -1      4616    3    0    1
 -2       918      1325       926      1899
 -1      4617    3    0    1
 -2      1325       339      1722      1899
 -1      4618    3    0    1
 -2      1325       321       339      1899
 -1      4619    3    0    1
 -2       544       400      2377      2411
 -1      4620    3    0    1
 -2       183       179       735      1901
 -1      4621    3    0    1
 -2       179       183      1218      1901
 -1      4622    3    0    1
 -2      1861       407      2040      2060
 -1      4623    3    0    1
 -2       441       226      2506      2708
 -1      4624    3    0    1
 -2      1471      1448      1606      2034
 -1      4625    3    0    1
 -2      2245      2124      2395      2431
 -1      4626    3    0    1
 -2      1801      1395      2034      2098
 -1      4627    3    0    1
 -2      1965       456      2291      2314
 -1      4628    3    0    1
 -2      1497      1093      1703      2067
 -1      4629    3    0    1
 -2       183      1622       735       736
 -1      4630    3    0    1
 -2      1622       183       735      1901
 -1      4631    3    0    1
 -2       183      1022      1218      1901
 -1      4632    3    0    1
 -2       230      1958      1993      1996
 -1      4633    3    0    1
 -2      1950      1741      2011      2605
 -1      4634    3    0    1
 -2       606      1176      1948      2389
 -1      4635    3    0    1
 -2      1028       205      1936      2518
 -1      4636    3    0    1
 -2      1729      1264      1740      2059
 -1      4637    3    0    1
 -2       847      1264      1729      2059
 -1      4638    3    0    1
 -2       630       631      1711      2271
 -1      4639    3    0    1
 -2      1082       316      2249      2308
 -1      4640    3    0    1
 -2      1106      1097      1644      2254
 -1      4641    3    0    1
 -2       982       604      2322      2325
 -1      4642    3    0    1
 -2       604      2296      2322      2325
 -1      4643    3    0    1
 -2       435       262      1046      2554
 -1      4644    3    0    1
 -2      2524      2160      2618      2704
 -1      4645    3    0    1
 -2        71       410      2744      2768
 -1      4646    3    0    1
 -2      1950      1741      2605      2701
 -1      4647    3    0    1
 -2      1884      2152      2748      2761
 -1      4648    3    0    1
 -2      1716      1891      2238      2253
 -1      4649    3    0    1
 -2      1574      1546      1764      1907
 -1      4650    3    0    1
 -2       332      1620      1699      1907
 -1      4651    3    0    1
 -2       332      1699      1764      1907
 -1      4652    3    0    1
 -2      1699      1620      1764      1907
 -1      4653    3    0    1
 -2      1629      1247      1903      1908
 -1      4654    3    0    1
 -2      1715      1758      2264      2268
 -1      4655    3    0    1
 -2      1550      1706      1994      2111
 -1      4656    3    0    1
 -2       437      1041      1247      1908
 -1      4657    3    0    1
 -2      1247      1041      1903      1908
 -1      4658    3    0    1
 -2      1460      1405      1565      2090
 -1      4659    3    0    1
 -2      1015       703      1579      2148
 -1      4660    3    0    1
 -2      1814      1595      2092      2400
 -1      4661    3    0    1
 -2      1087      1949      2467      2658
 -1      4662    3    0    1
 -2       174      1015      1579      2148
 -1      4663    3    0    1
 -2       256      1989      2471      2749
 -1      4664    3    0    1
 -2      1730      1687      2156      2567
 -1      4665    3    0    1
 -2      1532      1378      2266      2273
 -1      4666    3    0    1
 -2       783       760      2024      2224
 -1      4667    3    0    1
 -2       129       131      2166      2699
 -1      4668    3    0    1
 -2      1868       968      2107      2229
 -1      4669    3    0    1
 -2      1433      1391      1633      2046
 -1      4670    3    0    1
 -2      1545      1393      1848      2117
 -1      4671    3    0    1
 -2      1385      1418      1725      2133
 -1      4672    3    0    1
 -2      1469      1984      2082      2228
 -1      4673    3    0    1
 -2      2073      1857      2104      2228
 -1      4674    3    0    1
 -2      1585      1695      1637      2144
 -1      4675    3    0    1
 -2       723      1217      1577      2449
 -1      4676    3    0    1
 -2      1441      1705      2419      2620
 -1      4677    3    0    1
 -2      1661      2210      2588      2604
 -1      4678    3    0    1
 -2      1675      1481      1839      1942
 -1      4679    3    0    1
 -2       427       428      1976      2692
 -1      4680    3    0    1
 -2      2555      1485      2588      2604
 -1      4681    3    0    1
 -2       906      1321      1308      2433
 -1      4682    3    0    1
 -2      1246      1595      2270      2686
 -1      4683    3    0    1
 -2      1964      1329      2007      2534
 -1      4684    3    0    1
 -2      1984      1469      2073      2228
 -1      4685    3    0    1
 -2       462       347      2181      2265
 -1      4686    3    0    1
 -2       347      1314      1108      2265
 -1      4687    3    0    1
 -2       347      1108      2181      2265
 -1      4688    3    0    1
 -2      1378      1428      1532      2266
 -1      4689    3    0    1
 -2      1314       347       462      2265
 -1      4690    3    0    1
 -2      1432      1613      1714      1917
 -1      4691    3    0    1
 -2      1543      1432      1714      1917
 -1      4692    3    0    1
 -2      1543      1696      1853      1917
 -1      4693    3    0    1
 -2      1432      1543      1613      1917
 -1      4694    3    0    1
 -2      1613      1543      1853      1917
 -1      4695    3    0    1
 -2      1716      1583      1859      2253
 -1      4696    3    0    1
 -2      1522      1424      1541      1918
 -1      4697    3    0    1
 -2        12        35      2087      2405
 -1      4698    3    0    1
 -2       314      1070      1289      2208
 -1      4699    3    0    1
 -2      1070       417      1515      2208
 -1      4700    3    0    1
 -2      1818      1919      2181      2265
 -1      4701    3    0    1
 -2      1108      1314      1676      2265
 -1      4702    3    0    1
 -2       321       339      1551      2254
 -1      4703    3    0    1
 -2      1419      1802      1862      2088
 -1      4704    3    0    1
 -2      1541      1424      1759      1918
 -1      4705    3    0    1
 -2      1759      1928      2207      2390
 -1      4706    3    0    1
 -2      1928      1759      2268      2390
 -1      4707    3    0    1
 -2      1614      2353      2583      2607
 -1      4708    3    0    1
 -2       913      1344       944      1919
 -1      4709    3    0    1
 -2      1548      1424      1918      2264
 -1      4710    3    0    1
 -2      1589      2037      2055      2329
 -1      4711    3    0    1
 -2      2079      1525      2088      2267
 -1      4712    3    0    1
 -2      1525      2079      2090      2267
 -1      4713    3    0    1
 -2      1419      2079      2088      2267
 -1      4714    3    0    1
 -2      1508      1518      1530      1983
 -1      4715    3    0    1
 -2      2077      1551      2212      2238
 -1      4716    3    0    1
 -2       192       185      2062      2484
 -1      4717    3    0    1
 -2      1564      1828      1832      2192
 -1      4718    3    0    1
 -2      1622       192      2158      2484
 -1      4719    3    0    1
 -2      1568      1644      1745      2191
 -1      4720    3    0    1
 -2      1740      1264      1831      2059
 -1      4721    3    0    1
 -2       510       511      1754      1924
 -1      4722    3    0    1
 -2       511       510       957      1924
 -1      4723    3    0    1
 -2      1418      1385      1535      2133
 -1      4724    3    0    1
 -2      1418      1535      1656      2133
 -1      4725    3    0    1
 -2       688       154      2482      2558
 -1      4726    3    0    1
 -2      1520      1555      1594      1927
 -1      4727    3    0    1
 -2      1080       903      1777      1930
 -1      4728    3    0    1
 -2      1338      1080      1562      1930
 -1      4729    3    0    1
 -2      1055      1057       846      2352
 -1      4730    3    0    1
 -2      2551      1421      2586      2768
 -1      4731    3    0    1
 -2      1645      1587      1954      2104
 -1      4732    3    0    1
 -2      1128      2360      2363      2747
 -1      4733    3    0    1
 -2      1759      1918      2268      2390
 -1      4734    3    0    1
 -2      1857       384      1953      2104
 -1      4735    3    0    1
 -2      1442      1562      1777      1930
 -1      4736    3    0    1
 -2      1857      1953      2073      2104
 -1      4737    3    0    1
 -2      1814      2092      2279      2400
 -1      4738    3    0    1
 -2      1835      2277      2544      2545
 -1      4739    3    0    1
 -2      1782      1984      2015      2073
 -1      4740    3    0    1
 -2      2081      1531      2240      2537
 -1      4741    3    0    1
 -2      1008       679      1682      1934
 -1      4742    3    0    1
 -2      1682       679      1767      1934
 -1      4743    3    0    1
 -2      1442      1777      1979      2004
 -1      4744    3    0    1
 -2      1765      1209      1841      1934
 -1      4745    3    0    1
 -2      1412      1447      1561      2004
 -1      4746    3    0    1
 -2      1836      2023      2149      2233
 -1      4747    3    0    1
 -2      1719       453      2743      2764
 -1      4748    3    0    1
 -2      1490      1438      1787      2193
 -1      4749    3    0    1
 -2      1935      1397      2192      2193
 -1      4750    3    0    1
 -2      2076      1193      2183      2549
 -1      4751    3    0    1
 -2      1201      1720      1897      2005
 -1      4752    3    0    1
 -2      1859      1583      2078      2255
 -1      4753    3    0    1
 -2      1722      1660      1899      1937
 -1      4754    3    0    1
 -2        68      1762      2019      2565
 -1      4755    3    0    1
 -2       339      1722      1899      1937
 -1      4756    3    0    1
 -2       321       339      1899      1937
 -1      4757    3    0    1
 -2       339       321      1551      1937
 -1      4758    3    0    1
 -2      1660      1551      1899      1937
 -1      4759    3    0    1
 -2      1551       321      1899      1937
 -1      4760    3    0    1
 -2      2044      1227      2293      2317
 -1      4761    3    0    1
 -2       885      1281       886      1938
 -1      4762    3    0    1
 -2      1280       305      1281      1938
 -1      4763    3    0    1
 -2       890      1289      1825      2208
 -1      4764    3    0    1
 -2       886      1281      1928      1938
 -1      4765    3    0    1
 -2      1886       778      2418      2641
 -1      4766    3    0    1
 -2      1326       918       926      2168
 -1      4767    3    0    1
 -2       332      1021      1699      2547
 -1      4768    3    0    1
 -2      1169        83      2008      2350
 -1      4769    3    0    1
 -2      2325       586      2346      2350
 -1      4770    3    0    1
 -2      1658      1617      1980      2170
 -1      4771    3    0    1
 -2      1278       883      1277      2562
 -1      4772    3    0    1
 -2      1403      1456      2532      2652
 -1      4773    3    0    1
 -2      1620      1671      1907      2547
 -1      4774    3    0    1
 -2      1217       723      2376      2449
 -1      4775    3    0    1
 -2      1340       439      1753      2275
 -1      4776    3    0    1
 -2      1527      1472      1581      2168
 -1      4777    3    0    1
 -2       918      1581      1899      2168
 -1      4778    3    0    1
 -2      1589      2329      2389      2670
 -1      4779    3    0    1
 -2      1809      1817      2101      2408
 -1      4780    3    0    1
 -2      1177       983       606      2179
 -1      4781    3    0    1
 -2       926       918      1899      2168
 -1      4782    3    0    1
 -2      1638      1415      1805      1952
 -1      4783    3    0    1
 -2       808       239      1869      2716
 -1      4784    3    0    1
 -2      1505      1540      1909      2409
 -1      4785    3    0    1
 -2       333      1574      1619      2216
 -1      4786    3    0    1
 -2      1464      2053      2093      2526
 -1      4787    3    0    1
 -2      1946      1532      2266      2273
 -1      4788    3    0    1
 -2       279       855       856      2347
 -1      4789    3    0    1
 -2      2160      2261      2524      2619
 -1      4790    3    0    1
 -2       435       831      1804      2554
 -1      4791    3    0    1
 -2      1465      1553      2039      2071
 -1      4792    3    0    1
 -2       984       607      1176      1948
 -1      4793    3    0    1
 -2       468       424      1076      2187
 -1      4794    3    0    1
 -2       607       606      1176      1948
 -1      4795    3    0    1
 -2       394      1127      2361      2550
 -1      4796    3    0    1
 -2      1950      1084      2011      2275
 -1      4797    3    0    1
 -2      1087       438      1341      1949
 -1      4798    3    0    1
 -2      1749       654      1851      2161
 -1      4799    3    0    1
 -2      1009      1208      2601      1346
 -1      4800    3    0    1
 -2       999       654      1808      2161
 -1      4801    3    0    1
 -2      1697      1522      2016      2036
 -1      4802    3    0    1
 -2       231      2177      2394      2400
 -1      4803    3    0    1
 -2       149       154      2558      2691
 -1      4804    3    0    1
 -2      1333       305       458      2207
 -1      4805    3    0    1
 -2      1404      2446      2465      2477
 -1      4806    3    0    1
 -2      1569      1404      2465      2477
 -1      4807    3    0    1
 -2      1982      2288      2465      2477
 -1      4808    3    0    1
 -2      1404      1819      2446      2477
 -1      4809    3    0    1
 -2       430       384      1264      2476
 -1      4810    3    0    1
 -2      1603      1530      1839      1983
 -1      4811    3    0    1
 -2       442      1679      2391      2637
 -1      4812    3    0    1
 -2       136       137      1882      2401
 -1      4813    3    0    1
 -2      1056       846      1810      1984
 -1      4814    3    0    1
 -2       846      1795      1810      1984
 -1      4815    3    0    1
 -2       984       607      1948      1963
 -1      4816    3    0    1
 -2      1480       437      1629      2147
 -1      4817    3    0    1
 -2      1508      1603      1675      1983
 -1      4818    3    0    1
 -2      1508      1530      1603      1983
 -1      4819    3    0    1
 -2      1994      2109      2111      2146
 -1      4820    3    0    1
 -2      2124      1981      2245      2495
 -1      4821    3    0    1
 -2       760      1700      2024      2224
 -1      4822    3    0    1
 -2      1820      1902      2202      2368
 -1      4823    3    0    1
 -2      1472      1581      1932      1900
 -1      4824    3    0    1
 -2      1675      1481      1947      1983
 -1      4825    3    0    1
 -2       760      1423      1700      2224
 -1      4826    3    0    1
 -2       727      1219      1883      2237
 -1      4827    3    0    1
 -2       759      1829      2097      2158
 -1      4828    3    0    1
 -2       760       211      1423      2224
 -1      4829    3    0    1
 -2      1460      1554      2090      2110
 -1      4830    3    0    1
 -2      1565      1460      2090      2110
 -1      4831    3    0    1
 -2      2285       965      2368      2428
 -1      4832    3    0    1
 -2      1550      1706      1966      1994
 -1      4833    3    0    1
 -2      1933      1550      1966      1994
 -1      4834    3    0    1
 -2        66       568      1602      1960
 -1      4835    3    0    1
 -2        66       390       568      1960
 -1      4836    3    0    1
 -2       682       699      1794      2564
 -1      4837    3    0    1
 -2      1483      2150      2494      2517
 -1      4838    3    0    1
 -2      2109      1374      2111      2146
 -1      4839    3    0    1
 -2      1510      1708      1833      1971
 -1      4840    3    0    1
 -2      1670      1824      2214      2582
 -1      4841    3    0    1
 -2      1619      1387      1664      2216
 -1      4842    3    0    1
 -2      1656      1497      2067      2133
 -1      4843    3    0    1
 -2      1872       150      2013      2397
 -1      4844    3    0    1
 -2      1634      1437      1798      2402
 -1      4845    3    0    1
 -2      1833      1693      1925      1971
 -1      4846    3    0    1
 -2      1772      1734      2412      2557
 -1      4847    3    0    1
 -2      1980       969      2068      2123
 -1      4848    3    0    1
 -2       384       430      1587      2476
 -1      4849    3    0    1
 -2       976       582      2341      2437
 -1      4850    3    0    1
 -2      1727      1569      1780      2063
 -1      4851    3    0    1
 -2      1775        28      2126      2132
 -1      4852    3    0    1
 -2       291       425      2660      2661
 -1      4853    3    0    1
 -2       259       264       832      2313
 -1      4854    3    0    1
 -2      1504      1573      2192      2292
 -1      4855    3    0    1
 -2       189       174       735      1991
 -1      4856    3    0    1
 -2       348      1726      1784      2122
 -1      4857    3    0    1
 -2      1736      1550      1933      1994
 -1      4858    3    0    1
 -2      1419      1565      2090      2110
 -1      4859    3    0    1
 -2      1728      1705      2074      2475
 -1      4860    3    0    1
 -2       351      1211      2491      2668
 -1      4861    3    0    1
 -2      2378      2393      2489      2508
 -1      4862    3    0    1
 -2       557        68       565      1345
 -1      4863    3    0    1
 -2      1842      1903      2225      2610
 -1      4864    3    0    1
 -2       383      1262      1965      2291
 -1      4865    3    0    1
 -2       456       383      1262      1965
 -1      4866    3    0    1
 -2       345       343      1829      2317
 -1      4867    3    0    1
 -2       699       706      2234      2564
 -1      4868    3    0    1
 -2      1684       348      1784      2122
 -1      4869    3    0    1
 -2      1007       348      1721      2122
 -1      4870    3    0    1
 -2       174       712       735      1991
 -1      4871    3    0    1
 -2        94       615      2380      2640
 -1      4872    3    0    1
 -2       970      1680      2029      2340
 -1      4873    3    0    1
 -2       456       383      1965      2291
 -1      4874    3    0    1
 -2      2295        49      2729      2757
 -1      4875    3    0    1
 -2      1573      1397      2192      2292
 -1      4876    3    0    1
 -2       970       559      1680      2340
 -1      4877    3    0    1
 -2      1645      1751      1802      2088
 -1      4878    3    0    1
 -2      1471      1801      2034      2098
 -1      4879    3    0    1
 -2       993       342      1851      2331
 -1      4880    3    0    1
 -2      1262      1258      1965      2291
 -1      4881    3    0    1
 -2        49      2295      2321      2344
 -1      4882    3    0    1
 -2       183      1022      1901      1988
 -1      4883    3    0    1
 -2       640      2227      2546      2630
 -1      4884    3    0    1
 -2      1218      1022      1502      1988
 -1      4885    3    0    1
 -2      1022       344      1650      1988
 -1      4886    3    0    1
 -2       117       363       990      2356
 -1      4887    3    0    1
 -2       483      1127      2330      2632
 -1      4888    3    0    1
 -2      2471       819      2492      2669
 -1      4889    3    0    1
 -2      2174      1967      2217      2595
 -1      4890    3    0    1
 -2      1130       490      2361      2632
 -1      4891    3    0    1
 -2      1492      1891      2253      2483
 -1      4892    3    0    1
 -2      2117      1848      2526      2529
 -1      4893    3    0    1
 -2       434      1834      2220      2235
 -1      4894    3    0    1
 -2       544       400      1762      1345
 -1      4895    3    0    1
 -2      2119      1951      2584      2695
 -1      4896    3    0    1
 -2      1271      2290      2359      1350
 -1      4897    3    0    1
 -2      1312      1122      2396      2697
 -1      4898    3    0    1
 -2       391      2064      2377      2523
 -1      4899    3    0    1
 -2      1412      1442      1647      1979
 -1      4900    3    0    1
 -2      2059      1729      2298      2328
 -1      4901    3    0    1
 -2      1563      1593      2048      2114
 -1      4902    3    0    1
 -2      1391      1633      2046      2125
 -1      4903    3    0    1
 -2      1382      1736      1933      1994
 -1      4904    3    0    1
 -2      1209      1015      2415      2643
 -1      4905    3    0    1
 -2      1511      1633      1643      2125
 -1      4906    3    0    1
 -2      1775       519      2087      2126
 -1      4907    3    0    1
 -2      1375      1490      1564      2374
 -1      4908    3    0    1
 -2        28       446       519      2126
 -1      4909    3    0    1
 -2        28       519      1775      2126
 -1      4910    3    0    1
 -2      1633      1511      2046      2125
 -1      4911    3    0    1
 -2      2150      1413      2494      2572
 -1      4912    3    0    1
 -2      1555      1475      1927      2468
 -1      4913    3    0    1
 -2      2274      2160      2448      2466
 -1      4914    3    0    1
 -2      2119      1421      2585      2695
 -1      4915    3    0    1
 -2      1995      1559      1998      2105
 -1      4916    3    0    1
 -2       384      1056      1953      1984
 -1      4917    3    0    1
 -2      1803      1661      2137      2392
 -1      4918    3    0    1
 -2      1753      1774      2275      2420
 -1      4919    3    0    1
 -2      1405      1531      1553      2537
 -1      4920    3    0    1
 -2      1437      1515      1570      2208
 -1      4921    3    0    1
 -2      1534      1541      1759      1986
 -1      4922    3    0    1
 -2       911      1534      1759      1986
 -1      4923    3    0    1
 -2      1798       890      1825      2208
 -1      4924    3    0    1
 -2      1645      1412      1751      2088
 -1      4925    3    0    1
 -2      1995      1559      2089      2091
 -1      4926    3    0    1
 -2      1377      1408      2574      2665
 -1      4927    3    0    1
 -2      1650      1022      1988      2085
 -1      4928    3    0    1
 -2      2225      2257      2553      2610
 -1      4929    3    0    1
 -2      1737      1045      2387      2669
 -1      4930    3    0    1
 -2       183       344      1022      1988
 -1      4931    3    0    1
 -2       342      1943      2227      2472
 -1      4932    3    0    1
 -2       385       279      1639      2260
 -1      4933    3    0    1
 -2      1009       682      2500      2564
 -1      4934    3    0    1
 -2      1504      1573      2292      2315
 -1      4935    3    0    1
 -2      1851      1793      2331      2472
 -1      4936    3    0    1
 -2       279       385       855      2260
 -1      4937    3    0    1
 -2       514       531      2252      2320
 -1      4938    3    0    1
 -2       567       568      1960      2319
 -1      4939    3    0    1
 -2       150       331      2013      2397
 -1      4940    3    0    1
 -2      1661      1583      1803      2255
 -1      4941    3    0    1
 -2      1837      1913      2009      2460
 -1      4942    3    0    1
 -2      1397      1573      1973      2292
 -1      4943    3    0    1
 -2      2393      1482      2489      2508
 -1      4944    3    0    1
 -2      2184      1475      2539      2621
 -1      4945    3    0    1
 -2      2137      1863      2161      2255
 -1      4946    3    0    1
 -2      1803      1863      2137      2255
 -1      4947    3    0    1
 -2       167      1014      1625      2452
 -1      4948    3    0    1
 -2      1265      2312      2334      2338
 -1      4949    3    0    1
 -2      1795       846      1810      2172
 -1      4950    3    0    1
 -2      1673      1484      2089      2628
 -1      4951    3    0    1
 -2       345       443      1029      2293
 -1      4952    3    0    1
 -2      1664      1387      2115      2452
 -1      4953    3    0    1
 -2       682      1794      2500      2564
 -1      4954    3    0    1
 -2      1929      1928      2309      2424
 -1      4955    3    0    1
 -2       129       998      1194      2699
 -1      4956    3    0    1
 -2      1795      1782      2134      2172
 -1      4957    3    0    1
 -2       370      1700      2158      2484
 -1      4958    3    0    1
 -2      1138       421      1968      2284
 -1      4959    3    0    1
 -2       983      1589      2040      2055
 -1      4960    3    0    1
 -2      1733      1956      2162      2167
 -1      4961    3    0    1
 -2      1846      1880      1905      2025
 -1      4962    3    0    1
 -2      1494      1846      1905      2025
 -1      4963    3    0    1
 -2       189       174      1991      2646
 -1      4964    3    0    1
 -2       436      1042      1752      2225
 -1      4965    3    0    1
 -2       136      1773      2401      2497
 -1      4966    3    0    1
 -2      1209      1841      1934      2232
 -1      4967    3    0    1
 -2      1799      1411      1830      2462
 -1      4968    3    0    1
 -2       966        48      1873      2411
 -1      4969    3    0    1
 -2      1568      1644      2191      2483
 -1      4970    3    0    1
 -2      1885      2333      2627      2706
 -1      4971    3    0    1
 -2       687       149       688      1999
 -1      4972    3    0    1
 -2       151      1383      1872      1999
 -1      4973    3    0    1
 -2      1682      1767      2005      2303
 -1      4974    3    0    1
 -2      1765      1572      1767      2303
 -1      4975    3    0    1
 -2      1747      1750      1889      2304
 -1      4976    3    0    1
 -2       677       687       688      1999
 -1      4977    3    0    1
 -2       677       150       687      1999
 -1      4978    3    0    1
 -2       151       150       680      1999
 -1      4979    3    0    1
 -2       151       680       688      1999
 -1      4980    3    0    1
 -2       150       677       680      1999
 -1      4981    3    0    1
 -2       680       677       688      1999
 -1      4982    3    0    1
 -2      1838      1628      1878      2022
 -1      4983    3    0    1
 -2       407      1652      2055      2060
 -1      4984    3    0    1
 -2       344      1022      1650      2414
 -1      4985    3    0    1
 -2       752      1029      1993      2222
 -1      4986    3    0    1
 -2      1395      1549      1677      2034
 -1      4987    3    0    1
 -2      1447      1604      1931      2072
 -1      4988    3    0    1
 -2      1689      2081      2240      2612
 -1      4989    3    0    1
 -2       211      1423      1993      2222
 -1      4990    3    0    1
 -2      1836      1834      2023      2233
 -1      4991    3    0    1
 -2       702      1014      1765      2003
 -1      4992    3    0    1
 -2      1629      1842      2149      2233
 -1      4993    3    0    1
 -2      1447      1079      1561      2004
 -1      4994    3    0    1
 -2       938       903      1930      2004
 -1      4995    3    0    1
 -2      1079      1117      1561      2004
 -1      4996    3    0    1
 -2      1442      1412      1561      2004
 -1      4997    3    0    1
 -2      1442       938      1930      2004
 -1      4998    3    0    1
 -2       903      1117      1079      2004
 -1      4999    3    0    1
 -2       938      1442      1561      2004
 -1      5000    3    0    1
 -2      1117       903       938      2004
 -1      5001    3    0    1
 -2      1117       938      1561      2004
 -1      5002    3    0    1
 -2      1201       679      1767      2005
 -1      5003    3    0    1
 -2       899       935      1114      2408
 -1      5004    3    0    1
 -2      1227      1029      2044      2293
 -1      5005    3    0    1
 -2      1427      1738      1947      2030
 -1      5006    3    0    1
 -2       856       277      2131      2314
 -1      5007    3    0    1
 -2       443      1423      2222      2293
 -1      5008    3    0    1
 -2      1494      1393      2453      2529
 -1      5009    3    0    1
 -2      1532       407      1652      2055
 -1      5010    3    0    1
 -2      1652      1697      2016      2055
 -1      5011    3    0    1
 -2      1547      1697      1806      2055
 -1      5012    3    0    1
 -2      2213      1377      2707      2722
 -1      5013    3    0    1
 -2      2272       628      2324      2345
 -1      5014    3    0    1
 -2       558      1980      2068      2170
 -1      5015    3    0    1
 -2      1453      1627      1839      2114
 -1      5016    3    0    1
 -2      1617       558      2068      2170
 -1      5017    3    0    1
 -2      1781      1417      2096      2479
 -1      5018    3    0    1
 -2      2054       406      2310      2594
 -1      5019    3    0    1
 -2      1680      1158      1945      2170
 -1      5020    3    0    1
 -2      2296       610      2322      2345
 -1      5021    3    0    1
 -2       610      1178      2322      2345
 -1      5022    3    0    1
 -2      1681       129      2166      2630
 -1      5023    3    0    1
 -2      1980      1617      2068      2170
 -1      5024    3    0    1
 -2      1674      2124      2246      2520
 -1      5025    3    0    1
 -2      1840      1210      2164      2398
 -1      5026    3    0    1
 -2      1521      1503      1855      2442
 -1      5027    3    0    1
 -2        36      2295      2743      2764
 -1      5028    3    0    1
 -2        98        92       615      2469
 -1      5029    3    0    1
 -2       711      2057      2573      2694
 -1      5030    3    0    1
 -2      1209       330      1841      2232
 -1      5031    3    0    1
 -2       330       356      1383      2232
 -1      5032    3    0    1
 -2       330      1383      2057      2232
 -1      5033    3    0    1
 -2      2023      1750      2233      2304
 -1      5034    3    0    1
 -2      1682       356      1934      2232
 -1      5035    3    0    1
 -2      1767      1572      2005      2303
 -1      5036    3    0    1
 -2       534       964      1533      2368
 -1      5037    3    0    1
 -2       220       228      2425      2560
 -1      5038    3    0    1
 -2      1981      1985      2495      2510
 -1      5039    3    0    1
 -2      1467      2017      2081      2155
 -1      5040    3    0    1
 -2      1449      1467      1531      2155
 -1      5041    3    0    1
 -2      1531      1467      2081      2155
 -1      5042    3    0    1
 -2      1689      2017      2154      2155
 -1      5043    3    0    1
 -2      1452      1592      1845      2533
 -1      5044    3    0    1
 -2        12      2361      2405      2674
 -1      5045    3    0    1
 -2       345      1829      2293      2317
 -1      5046    3    0    1
 -2       899      1335       935      2408
 -1      5047    3    0    1
 -2      2297      2033      2328      2455
 -1      5048    3    0    1
 -2      1716      1891      2253      2507
 -1      5049    3    0    1
 -2       430      1587      1799      2372
 -1      5050    3    0    1
 -2      1826       193      2730      2737
 -1      5051    3    0    1
 -2      1734      1772      2461      2597
 -1      5052    3    0    1
 -2      1567      1929      2309      2424
 -1      5053    3    0    1
 -2      2745      2336      2760      2773
 -1      5054    3    0    1
 -2      1238      1870      1961      2218
 -1      5055    3    0    1
 -2      1982      1476      2447      2465
 -1      5056    3    0    1
 -2       895      1298      1295      2020
 -1      5057    3    0    1
 -2      2152      1989      2451      2749
 -1      5058    3    0    1
 -2      1719       447      2360      1352
 -1      5059    3    0    1
 -2      1588      1884      2171      2451
 -1      5060    3    0    1
 -2       256       249      1989      2451
 -1      5061    3    0    1
 -2      1046      2134      2457      2554
 -1      5062    3    0    1
 -2       711       688      2482      2573
 -1      5063    3    0    1
 -2      1520      1475      1555      2468
 -1      5064    3    0    1
 -2       399      1968      2083      2501
 -1      5065    3    0    1
 -2      1420      1885      2706      2723
 -1      5066    3    0    1
 -2        13         9      2236      2486
 -1      5067    3    0    1
 -2        16         9       496      2486
 -1      5068    3    0    1
 -2         9       495       496      2486
 -1      5069    3    0    1
 -2      1413      1483      1774      2150
 -1      5070    3    0    1
 -2       209       371       760      2024
 -1      5071    3    0    1
 -2      1749      2108      2137      2568
 -1      5072    3    0    1
 -2       230      1958      1996      2560
 -1      5073    3    0    1
 -2       371       369       760      2024
 -1      5074    3    0    1
 -2       760       369       783      2024
 -1      5075    3    0    1
 -2      1476      1982      2288      2465
 -1      5076    3    0    1
 -2      1659      1627      2048      2383
 -1      5077    3    0    1
 -2      1461      1695      1837      2144
 -1      5078    3    0    1
 -2      2250      1710      2541      2583
 -1      5079    3    0    1
 -2      1762       567      1960      2064
 -1      5080    3    0    1
 -2      1619      1763      1827      2216
 -1      5081    3    0    1
 -2       936       900      1730      2176
 -1      5082    3    0    1
 -2       447      1719      2723      2764
 -1      5083    3    0    1
 -2       467       419      1817      2176
 -1      5084    3    0    1
 -2      1569      1404      1780      2465
 -1      5085    3    0    1
 -2      1922      1982      2447      2465
 -1      5086    3    0    1
 -2      2053      2442      2093      2493
 -1      5087    3    0    1
 -2      1687      1730      2151      2176
 -1      5088    3    0    1
 -2       419      1304      1115      2176
 -1      5089    3    0    1
 -2       747      1023      1226      2026
 -1      5090    3    0    1
 -2       747       730      1023      2026
 -1      5091    3    0    1
 -2      1493      1388      1866      2102
 -1      5092    3    0    1
 -2      1738      1493      1866      2102
 -1      5093    3    0    1
 -2      1431      1145      2252      2609
 -1      5094    3    0    1
 -2      1145      1139      2252      2609
 -1      5095    3    0    1
 -2      1495      1427      1675      2030
 -1      5096    3    0    1
 -2      1427      1495      1600      2030
 -1      5097    3    0    1
 -2        66       390      1960      2031
 -1      5098    3    0    1
 -2       390        66      1945      2031
 -1      5099    3    0    1
 -2        66       405       970      2031
 -1      5100    3    0    1
 -2      2024       783      2224      2287
 -1      5101    3    0    1
 -2       277       456      1965      2314
 -1      5102    3    0    1
 -2      1639       276      2327      2347
 -1      5103    3    0    1
 -2      2396      1122      2613      2697
 -1      5104    3    0    1
 -2      1973      1935      2292      2316
 -1      5105    3    0    1
 -2       402       969      1159      2200
 -1      5106    3    0    1
 -2      1416      1785      2655      2683
 -1      5107    3    0    1
 -2       228       783      1690      2287
 -1      5108    3    0    1
 -2      2530      1416      1704      2682
 -1      5109    3    0    1
 -2      2053      1464      2117      2526
 -1      5110    3    0    1
 -2      1271      2290      2354      2359
 -1      5111    3    0    1
 -2       968      1868      2281      2514
 -1      5112    3    0    1
 -2        63       968      1160      2514
 -1      5113    3    0    1
 -2       379      1166      2323      1357
 -1      5114    3    0    1
 -2      1699       332      1723      2653
 -1      5115    3    0    1
 -2      2117      1393      2529      2679
 -1      5116    3    0    1
 -2      2555      1485      2604      2656
 -1      5117    3    0    1
 -2       976       404      1392      2499
 -1      5118    3    0    1
 -2      1596      1547      2035      2036
 -1      5119    3    0    1
 -2      1547      1596      1697      2036
 -1      5120    3    0    1
 -2      2012      1596      2035      2036
 -1      5121    3    0    1
 -2      1697      1596      2012      2036
 -1      5122    3    0    1
 -2      2277      2092      2544      2545
 -1      5123    3    0    1
 -2      1547      1596      2035      2037
 -1      5124    3    0    1
 -2       276       279       856      2347
 -1      5125    3    0    1
 -2       966      1873      2195      2411
 -1      5126    3    0    1
 -2       798       800      1903      2270
 -1      5127    3    0    1
 -2      1758      1915      2241      2264
 -1      5128    3    0    1
 -2      1715      1758      2241      2264
 -1      5129    3    0    1
 -2      1949      2274      2448      2466
 -1      5130    3    0    1
 -2      1417      1444      2127      2479
 -1      5131    3    0    1
 -2       341       338       999      2183
 -1      5132    3    0    1
 -2      2330      1273      2527      2550
 -1      5133    3    0    1
 -2       400       544      1762      2411
 -1      5134    3    0    1
 -2       423       965      2285      2428
 -1      5135    3    0    1
 -2      1337       901      1076      2038
 -1      5136    3    0    1
 -2      1852      1685      1997      2188
 -1      5137    3    0    1
 -2      1411      1465      1941      2039
 -1      5138    3    0    1
 -2      1079      1447      1561      2072
 -1      5139    3    0    1
 -2      1689       901      2038      2187
 -1      5140    3    0    1
 -2       424       468      1760      2187
 -1      5141    3    0    1
 -2      1592      1845      1926      2042
 -1      5142    3    0    1
 -2      1592      1452      1845      2042
 -1      5143    3    0    1
 -2      1814       231      2394      2435
 -1      5144    3    0    1
 -2      1943       993      2248      2307
 -1      5145    3    0    1
 -2       450      1796      2381      2487
 -1      5146    3    0    1
 -2      1137       514       507      2362
 -1      5147    3    0    1
 -2       993       631      2248      2307
 -1      5148    3    0    1
 -2      1228      1944      2045      2116
 -1      5149    3    0    1
 -2      1028      1228      2045      2116
 -1      5150    3    0    1
 -2      2466      1414      2618      2704
 -1      5151    3    0    1
 -2       706      2234      2376      2491
 -1      5152    3    0    1
 -2        64        63       568      2319
 -1      5153    3    0    1
 -2       752      1944      1993      2474
 -1      5154    3    0    1
 -2      2351       118      2546      2630
 -1      5155    3    0    1
 -2      2440      1826      2665      2735
 -1      5156    3    0    1
 -2        81      2008      2209      2318
 -1      5157    3    0    1
 -2       531      1904      2252      2320
 -1      5158    3    0    1
 -2       871      1713      2223      2519
 -1      5159    3    0    1
 -2      2157       231      2394      2522
 -1      5160    3    0    1
 -2      1526      1801      1807      2047
 -1      5161    3    0    1
 -2      1378      1526      1529      2047
 -1      5162    3    0    1
 -2      1526      1378      1801      2047
 -1      5163    3    0    1
 -2      1663      1511      2046      2115
 -1      5164    3    0    1
 -2       892       891      1659      2048
 -1      5165    3    0    1
 -2       891       892      1593      2048
 -1      5166    3    0    1
 -2      1229       747       754      2142
 -1      5167    3    0    1
 -2      1511      1633      2046      2115
 -1      5168    3    0    1
 -2      1850      1757      2244      2606
 -1      5169    3    0    1
 -2      1865      2243      2308      2606
 -1      5170    3    0    1
 -2      1030       754      1226      2542
 -1      5171    3    0    1
 -2       754      1030      2173      2542
 -1      5172    3    0    1
 -2      1874      2378      2393      2489
 -1      5173    3    0    1
 -2       754       747      1226      2542
 -1      5174    3    0    1
 -2       880       292      2247      2676
 -1      5175    3    0    1
 -2      1914      1404      2151      2197
 -1      5176    3    0    1
 -2       631      2108      2307      2568
 -1      5177    3    0    1
 -2      1441      1705      1728      2419
 -1      5178    3    0    1
 -2       664       137      1882      2497
 -1      5179    3    0    1
 -2      1437      1388      2102      2402
 -1      5180    3    0    1
 -2       300       292       880      2676
 -1      5181    3    0    1
 -2      1515      1825      2208      2402
 -1      5182    3    0    1
 -2      1636      1653      1876      2139
 -1      5183    3    0    1
 -2      1466      1538      1653      2139
 -1      5184    3    0    1
 -2      1563      1593      2114      2256
 -1      5185    3    0    1
 -2      1499      1538      2120      2139
 -1      5186    3    0    1
 -2      1806      1589      2037      2055
 -1      5187    3    0    1
 -2      1697      1652      1806      2055
 -1      5188    3    0    1
 -2      1589      1806      2040      2055
 -1      5189    3    0    1
 -2       166       330       711      2057
 -1      5190    3    0    1
 -2       330       166      1841      2057
 -1      5191    3    0    1
 -2      1273      2330      2527      2667
 -1      5192    3    0    1
 -2       244       807      1869      2058
 -1      5193    3    0    1
 -2       244      1042      1246      2058
 -1      5194    3    0    1
 -2       316      2049      2249      2308
 -1      5195    3    0    1
 -2       244       239      1042      2058
 -1      5196    3    0    1
 -2      1042       239      1752      2058
 -1      5197    3    0    1
 -2      1393      1494      1848      2529
 -1      5198    3    0    1
 -2      1723      1621      2453      2529
 -1      5199    3    0    1
 -2       630       991      2248      2271
 -1      5200    3    0    1
 -2       992       630      1711      2271
 -1      5201    3    0    1
 -2       991       630      2231      2271
 -1      5202    3    0    1
 -2      1848      2053      2526      2529
 -1      5203    3    0    1
 -2      2182       101      2593      2640
 -1      5204    3    0    1
 -2       407      1532      1652      2060
 -1      5205    3    0    1
 -2       983       407      2055      2060
 -1      5206    3    0    1
 -2      1532       407      1946      2060
 -1      5207    3    0    1
 -2       427      1976      2298      2531
 -1      5208    3    0    1
 -2        92      1477      2169      2322
 -1      5209    3    0    1
 -2      1063      2298      2455      2531
 -1      5210    3    0    1
 -2       427       429      1976      2531
 -1      5211    3    0    1
 -2      2210      2555      2604      2656
 -1      5212    3    0    1
 -2       774      1958      1985      2510
 -1      5213    3    0    1
 -2      1571      2210      2604      2656
 -1      5214    3    0    1
 -2      1386      1524      1785      2061
 -1      5215    3    0    1
 -2      1785      1403      2530      2683
 -1      5216    3    0    1
 -2      1075      1687      1730      2567
 -1      5217    3    0    1
 -2       936      1687      2151      2176
 -1      5218    3    0    1
 -2       586      1169      2346      2350
 -1      5219    3    0    1
 -2      1027       192      1220      2062
 -1      5220    3    0    1
 -2       192       185      1220      2062
 -1      5221    3    0    1
 -2       730      1027      1220      2062
 -1      5222    3    0    1
 -2       370       192      1027      2062
 -1      5223    3    0    1
 -2       730       747      1027      2062
 -1      5224    3    0    1
 -2      2263       583      2410      2498
 -1      5225    3    0    1
 -2       544       567      1762      2064
 -1      5226    3    0    1
 -2        69        64       567      2064
 -1      5227    3    0    1
 -2       531      1146      1904      2320
 -1      5228    3    0    1
 -2       391        69       567      2064
 -1      5229    3    0    1
 -2       544       391       567      2064
 -1      5230    3    0    1
 -2      1585      1637      1822      2118
 -1      5231    3    0    1
 -2      1822      1776      2009      2118
 -1      5232    3    0    1
 -2      1288      1776      1822      2118
 -1      5233    3    0    1
 -2       914      1426      1703      2067
 -1      5234    3    0    1
 -2      1093       914      1703      2067
 -1      5235    3    0    1
 -2      1656      1514      1703      2067
 -1      5236    3    0    1
 -2       631      1711      2271      2307
 -1      5237    3    0    1
 -2      1956      1733      2162      2596
 -1      5238    3    0    1
 -2      2160      2524      2618      2619
 -1      5239    3    0    1
 -2      1066       874       867      2488
 -1      5240    3    0    1
 -2       103       352       616      2069
 -1      5241    3    0    1
 -2       450      1796      1902      2381
 -1      5242    3    0    1
 -2       386      1871      2082      2095
 -1      5243    3    0    1
 -2      1779       341      2076      2549
 -1      5244    3    0    1
 -2       450      1902      2202      2381
 -1      5245    3    0    1
 -2      1984      2015      2082      2095
 -1      5246    3    0    1
 -2      1593       891      2048      2114
 -1      5247    3    0    1
 -2      1511       167      1664      2115
 -1      5248    3    0    1
 -2       490       483      2355      2632
 -1      5249    3    0    1
 -2      1257       386      2082      2095
 -1      5250    3    0    1
 -2       483      2330      2363      2632
 -1      5251    3    0    1
 -2      2015      1257      2082      2095
 -1      5252    3    0    1
 -2       311      1299      1302      2072
 -1      5253    3    0    1
 -2       426      1561      1931      2072
 -1      5254    3    0    1
 -2      1299       426      1931      2072
 -1      5255    3    0    1
 -2       311       426      1299      2072
 -1      5256    3    0    1
 -2       136      1000      1791      2401
 -1      5257    3    0    1
 -2      1953       384      1984      2073
 -1      5258    3    0    1
 -2      1984      1953      1810      1056
 -1      5259    3    0    1
 -2      1953      1984      1810      2073
 -1      5260    3    0    1
 -2      1553      1531      2081      2537
 -1      5261    3    0    1
 -2      1689      2038      2081      2537
 -1      5262    3    0    1
 -2      1444      1756      1779      2127
 -1      5263    3    0    1
 -2       338      1390      2078      2633
 -1      5264    3    0    1
 -2       405      2029      2031      2406
 -1      5265    3    0    1
 -2      1417      1444      1779      2127
 -1      5266    3    0    1
 -2       231      2157      2394      2425
 -1      5267    3    0    1
 -2       778      1036      1886      2371
 -1      5268    3    0    1
 -2      1452      1540      1592      2533
 -1      5269    3    0    1
 -2       802       795      1043      2423
 -1      5270    3    0    1
 -2      1475      1177      1813      2184
 -1      5271    3    0    1
 -2      1813       414      1861      2184
 -1      5272    3    0    1
 -2      2077      1528      2078      2238
 -1      5273    3    0    1
 -2      1382       416      1736      2581
 -1      5274    3    0    1
 -2       414      1613      1921      2184
 -1      5275    3    0    1
 -2       358       149       687      2540
 -1      5276    3    0    1
 -2      1613      1381      1921      2184
 -1      5277    3    0    1
 -2      1381      1613      1854      2184
 -1      5278    3    0    1
 -2      1177       414      1813      2184
 -1      5279    3    0    1
 -2       687       149      1999      2540
 -1      5280    3    0    1
 -2      1193       655      1417      2076
 -1      5281    3    0    1
 -2       341      1193      1779      2076
 -1      5282    3    0    1
 -2      1517      1669      1784      2080
 -1      5283    3    0    1
 -2      1517      1598      1669      2080
 -1      5284    3    0    1
 -2      1138      2284      2617      2622
 -1      5285    3    0    1
 -2      1726      1517      1784      2080
 -1      5286    3    0    1
 -2      1638      1598      1952      2080
 -1      5287    3    0    1
 -2      1638      1952      2061      2080
 -1      5288    3    0    1
 -2      1475      1555      1927      2539
 -1      5289    3    0    1
 -2      1952      1386      2061      2080
 -1      5290    3    0    1
 -2      1401      2428      2438      2622
 -1      5291    3    0    1
 -2      1783      2284      2438      2622
 -1      5292    3    0    1
 -2      1598      1517      1726      2080
 -1      5293    3    0    1
 -2      1598      1386      1952      2080
 -1      5294    3    0    1
 -2      1539      1454      2070      2533
 -1      5295    3    0    1
 -2      1984      2015      2073      2082
 -1      5296    3    0    1
 -2      1469      1984      2073      2082
 -1      5297    3    0    1
 -2       447      2725      2740      2760
 -1      5298    3    0    1
 -2      1805      1638      1952      2128
 -1      5299    3    0    1
 -2       634      1185      2272      2480
 -1      5300    3    0    1
 -2      1509      1474      1530      2083
 -1      5301    3    0    1
 -2       452       455      1431      2084
 -1      5302    3    0    1
 -2       455       452       543      2084
 -1      5303    3    0    1
 -2       543       452      1431      2084
 -1      5304    3    0    1
 -2       520       451       543      2084
 -1      5305    3    0    1
 -2       451       455       543      2084
 -1      5306    3    0    1
 -2       727      1502      1988      2085
 -1      5307    3    0    1
 -2      1502       727      1883      2085
 -1      5308    3    0    1
 -2      1022       727      1988      2085
 -1      5309    3    0    1
 -2       727      1022      1739      2085
 -1      5310    3    0    1
 -2      2174       943      2595      2613
 -1      5311    3    0    1
 -2      1919       913      2074      2086
 -1      5312    3    0    1
 -2       913       944      1123      2086
 -1      5313    3    0    1
 -2       913      1313      2074      2086
 -1      5314    3    0    1
 -2       913      1123      1313      2086
 -1      5315    3    0    1
 -2       519       448      1775      2087
 -1      5316    3    0    1
 -2      1690       228      2287      2425
 -1      5317    3    0    1
 -2      1991       712      2289      2646
 -1      5318    3    0    1
 -2      1445      2494      2517      2675
 -1      5319    3    0    1
 -2      2147      2384      2569      2675
 -1      5320    3    0    1
 -2        35       448       519      2087
 -1      5321    3    0    1
 -2       448        32      1775      2087
 -1      5322    3    0    1
 -2      1972      1130      2361      2405
 -1      5323    3    0    1
 -2      1850      2606      2249      1757
 -1      5324    3    0    1
 -2      1397      2192      2193      2374
 -1      5325    3    0    1
 -2        12        35       519      2087
 -1      5326    3    0    1
 -2       496        12       519      2087
 -1      5327    3    0    1
 -2      1211      1013       699      2234
 -1      5328    3    0    1
 -2      1629      1842      1903      2149
 -1      5329    3    0    1
 -2      1949      2466      2571      2616
 -1      5330    3    0    1
 -2      1247      1629      1903      2149
 -1      5331    3    0    1
 -2      1414      1559      1673      2089
 -1      5332    3    0    1
 -2      1673      1559      1879      2089
 -1      5333    3    0    1
 -2      1419      1565      2079      2090
 -1      5334    3    0    1
 -2      1870      1238      1961      2278
 -1      5335    3    0    1
 -2      1918      2264      2268      2390
 -1      5336    3    0    1
 -2      1520      1959      2014      2271
 -1      5337    3    0    1
 -2      2014      1959      2231      2271
 -1      5338    3    0    1
 -2      1870      2092      2279      2545
 -1      5339    3    0    1
 -2      1961      2091      2218      2545
 -1      5340    3    0    1
 -2      2150      1445      2494      2517
 -1      5341    3    0    1
 -2      1870      2092      2278      2279
 -1      5342    3    0    1
 -2       776      1238      1870      2278
 -1      5343    3    0    1
 -2      1961       442      2218      2443
 -1      5344    3    0    1
 -2      1559      1995      1998      2443
 -1      5345    3    0    1
 -2       103       357      1766      2094
 -1      5346    3    0    1
 -2       616       103      2069      2094
 -1      5347    3    0    1
 -2       357       103       639      2094
 -1      5348    3    0    1
 -2       103       616       639      2094
 -1      5349    3    0    1
 -2      1871      1469      2082      2095
 -1      5350    3    0    1
 -2       446        18      1582      2557
 -1      5351    3    0    1
 -2      1721      2479      1684      1781
 -1      5352    3    0    1
 -2      2213      1588      2337      2722
 -1      5353    3    0    1
 -2      1208      2205      2564      2601
 -1      5354    3    0    1
 -2      1959      2231      2516      2598
 -1      5355    3    0    1
 -2      1007      1721      1781      2096
 -1      5356    3    0    1
 -2      1007      1599      1721      2096
 -1      5357    3    0    1
 -2      1007       678      1599      2096
 -1      5358    3    0    1
 -2      1210       703      2164      2398
 -1      5359    3    0    1
 -2      1634      1798      1825      2402
 -1      5360    3    0    1
 -2      1417       678      1781      2096
 -1      5361    3    0    1
 -2       703      1579      2164      2398
 -1      5362    3    0    1
 -2      1388      1437      1634      2402
 -1      5363    3    0    1
 -2       678      1007      1781      2096
 -1      5364    3    0    1
 -2      1543      1677      1801      2098
 -1      5365    3    0    1
 -2      1543      1801      1853      2098
 -1      5366    3    0    1
 -2      1730      1914      2151      2176
 -1      5367    3    0    1
 -2       209      1027      1229      2099
 -1      5368    3    0    1
 -2      1229      1027      1665      2099
 -1      5369    3    0    1
 -2      1625      1014      2003      2141
 -1      5370    3    0    1
 -2       207       370      1027      2099
 -1      5371    3    0    1
 -2       628       634      2272      2324
 -1      5372    3    0    1
 -2       663       664      1882      2497
 -1      5373    3    0    1
 -2      1588      2213      2707      2722
 -1      5374    3    0    1
 -2      1546      1399      2066      2526
 -1      5375    3    0    1
 -2       419      1115      2151      2176
 -1      5376    3    0    1
 -2      1169      2008      2346      2350
 -1      5377    3    0    1
 -2      1951      1458      2198      2585
 -1      5378    3    0    1
 -2       858       857      1271      1350
 -1      5379    3    0    1
 -2      1034       219      1679      2206
 -1      5380    3    0    1
 -2       900      1115      1304      2176
 -1      5381    3    0    1
 -2       900       936      1115      2176
 -1      5382    3    0    1
 -2       360      2713      2714      2759
 -1      5383    3    0    1
 -2       114       639      1910      2130
 -1      5384    3    0    1
 -2       639       117      1910      2130
 -1      5385    3    0    1
 -2      1414      1559      2089      2105
 -1      5386    3    0    1
 -2      1484      1414      2089      2105
 -1      5387    3    0    1
 -2      1662      1636      1876      2139
 -1      5388    3    0    1
 -2      1775        31      2132      2548
 -1      5389    3    0    1
 -2      2397       331      2401      2429
 -1      5390    3    0    1
 -2      1433      1391      2046      2711
 -1      5391    3    0    1
 -2       678      1200      2397      2429
 -1      5392    3    0    1
 -2      1630      1585      2009      2460
 -1      5393    3    0    1
 -2       422        31      2487      2548
 -1      5394    3    0    1
 -2       472       439      2275      2420
 -1      5395    3    0    1
 -2      2115       167      2141      2163
 -1      5396    3    0    1
 -2      1651      1382      1994      2109
 -1      5397    3    0    1
 -2      1490      1438      2193      2374
 -1      5398    3    0    1
 -2      1744      1496      1911      2112
 -1      5399    3    0    1
 -2      1519      1554      1760      2110
 -1      5400    3    0    1
 -2      1554      1519      2090      2110
 -1      5401    3    0    1
 -2       369       368      2287      2570
 -1      5402    3    0    1
 -2       436       433      1923      2528
 -1      5403    3    0    1
 -2      1496      1552      1911      2112
 -1      5404    3    0    1
 -2      1552      1496      1725      2112
 -1      5405    3    0    1
 -2      1990      2052      2171      2213
 -1      5406    3    0    1
 -2      1660      1551      1937      2212
 -1      5407    3    0    1
 -2      1725      1398      1800      2112
 -1      5408    3    0    1
 -2      1398      1571      1800      2112
 -1      5409    3    0    1
 -2      1552      1725      1800      2112
 -1      5410    3    0    1
 -2      1552      1571      1911      2112
 -1      5411    3    0    1
 -2      1571      1552      1800      2112
 -1      5412    3    0    1
 -2      2305       394      2361      2550
 -1      5413    3    0    1
 -2       341       999      1193      2183
 -1      5414    3    0    1
 -2      1998      1995      2105      2556
 -1      5415    3    0    1
 -2       558      1158      1680      2170
 -1      5416    3    0    1
 -2      1933      1476      2288      2470
 -1      5417    3    0    1
 -2      1706      1550      1966      2470
 -1      5418    3    0    1
 -2      2231      1959      2302      2598
 -1      5419    3    0    1
 -2       295      1270      1536      2590
 -1      5420    3    0    1
 -2       592        98       615      2113
 -1      5421    3    0    1
 -2       364        98       592      2113
 -1      5422    3    0    1
 -2      1228      1028       750      2116
 -1      5423    3    0    1
 -2      1228       752      1944      2116
 -1      5424    3    0    1
 -2      1228       750       752      2116
 -1      5425    3    0    1
 -2       379        71      2323      2744
 -1      5426    3    0    1
 -2      1836      1834      2611      2689
 -1      5427    3    0    1
 -2      2162      1713      2559      2587
 -1      5428    3    0    1
 -2      2046      1391      2125      2711
 -1      5429    3    0    1
 -2       856       429      2347      2696
 -1      5430    3    0    1
 -2       377      1974      2664      2668
 -1      5431    3    0    1
 -2      1105      1637      1668      2118
 -1      5432    3    0    1
 -2       418       307      1822      2118
 -1      5433    3    0    1
 -2       307      1105      1081      2118
 -1      5434    3    0    1
 -2      1637      1105      1822      2118
 -1      5435    3    0    1
 -2      1105       418      1822      2118
 -1      5436    3    0    1
 -2      1105       307       418      2118
 -1      5437    3    0    1
 -2       276       429      1057      2327
 -1      5438    3    0    1
 -2       402      2200      2339      2353
 -1      5439    3    0    1
 -2      1440      1395      1677      2201
 -1      5440    3    0    1
 -2      1389       401      1852      2200
 -1      5441    3    0    1
 -2      2200       402      2251      2353
 -1      5442    3    0    1
 -2        92       982      1477      2322
 -1      5443    3    0    1
 -2       402       401       969      2200
 -1      5444    3    0    1
 -2       985      1183      2324      2348
 -1      5445    3    0    1
 -2       678      1599      2096      2397
 -1      5446    3    0    1
 -2      1670      1586      2214      2388
 -1      5447    3    0    1
 -2      1975      2262      2399      2636
 -1      5448    3    0    1
 -2       522       521      1146      1354
 -1      5449    3    0    1
 -2       800      1752      2225      2610
 -1      5450    3    0    1
 -2      2044      1227      2317      2342
 -1      5451    3    0    1
 -2       264       259      1258      2121
 -1      5452    3    0    1
 -2       404       976      1392      2316
 -1      5453    3    0    1
 -2      2553      1842      2610      2611
 -1      5454    3    0    1
 -2      1303      2101      2408      2592
 -1      5455    3    0    1
 -2      1728      2074      2086      2475
 -1      5456    3    0    1
 -2      1919      1743      2074      2475
 -1      5457    3    0    1
 -2      1438      1397      1935      2374
 -1      5458    3    0    1
 -2      1417      1193      2076      2127
 -1      5459    3    0    1
 -2      1193      1417      1779      2127
 -1      5460    3    0    1
 -2       387      1795      2134      2563
 -1      5461    3    0    1
 -2      1639       385      2260      2563
 -1      5462    3    0    1
 -2       855       832      2260      2563
 -1      5463    3    0    1
 -2       385       855      2260      2563
 -1      5464    3    0    1
 -2      1384      1790      2103      2504
 -1      5465    3    0    1
 -2      2069       639      2094      2130
 -1      5466    3    0    1
 -2      1166       978       586      2357
 -1      5467    3    0    1
 -2       586       978      2325      2357
 -1      5468    3    0    1
 -2       139       118      2351      2630
 -1      5469    3    0    1
 -2       580       586      2346      2357
 -1      5470    3    0    1
 -2      2101      1718      2408      2592
 -1      5471    3    0    1
 -2       832       383       855      2313
 -1      5472    3    0    1
 -2      2002      1615      2297      2328
 -1      5473    3    0    1
 -2      2296       985      2324      2348
 -1      5474    3    0    1
 -2       570       569       978      1357
 -1      5475    3    0    1
 -2      1086      1322      1489      2709
 -1      5476    3    0    1
 -2      1504       402      1573      2339
 -1      5477    3    0    1
 -2       559      1159      1680      2340
 -1      5478    3    0    1
 -2       277       283       856      2131
 -1      5479    3    0    1
 -2       507       514      2343      2362
 -1      5480    3    0    1
 -2       402      1159      2315      2339
 -1      5481    3    0    1
 -2       444       317      1967      2382
 -1      5482    3    0    1
 -2       341      1193      2076      2549
 -1      5483    3    0    1
 -2      1488      1497      1514      2133
 -1      5484    3    0    1
 -2      1514      1497      1656      2133
 -1      5485    3    0    1
 -2      1488      1552      1608      2133
 -1      5486    3    0    1
 -2      1608      1552      1725      2133
 -1      5487    3    0    1
 -2      1418      1488      1608      2133
 -1      5488    3    0    1
 -2      1497      1418      2067      2133
 -1      5489    3    0    1
 -2      1418      1608      1725      2133
 -1      5490    3    0    1
 -2      1485      1492      1744      2555
 -1      5491    3    0    1
 -2      2043      2306      2416      2543
 -1      5492    3    0    1
 -2      1033       771      2153      2173
 -1      5493    3    0    1
 -2      1029       752      1993      2474
 -1      5494    3    0    1
 -2       262       387      1048      2134
 -1      5495    3    0    1
 -2      1048       387      1795      2134
 -1      5496    3    0    1
 -2      1709      1844      1936      2136
 -1      5497    3    0    1
 -2      1709      1605      1883      2136
 -1      5498    3    0    1
 -2      1891      1551      1937      2254
 -1      5499    3    0    1
 -2      1512      1379      2114      2256
 -1      5500    3    0    1
 -2      1670      2250      2378      2393
 -1      5501    3    0    1
 -2      1328      1318      1875      2211
 -1      5502    3    0    1
 -2       983      1177      2040      2179
 -1      5503    3    0    1
 -2      1092      1344      1919      2181
 -1      5504    3    0    1
 -2      1379      1563      2114      2256
 -1      5505    3    0    1
 -2      1379      1512      1893      2256
 -1      5506    3    0    1
 -2      1586      1635      1670      2393
 -1      5507    3    0    1
 -2      1586      1670      2378      2393
 -1      5508    3    0    1
 -2      2250      1874      2378      2393
 -1      5509    3    0    1
 -2      2467      2150      2517      2571
 -1      5510    3    0    1
 -2       937       901      2038      2154
 -1      5511    3    0    1
 -2      2017      2154      2155      2156
 -1      5512    3    0    1
 -2      2305        10      2512      2674
 -1      5513    3    0    1
 -2       371       209      1229      2140
 -1      5514    3    0    1
 -2      1464      1503      1521      2442
 -1      5515    3    0    1
 -2       703      1579      2148      2164
 -1      5516    3    0    1
 -2      1470      1572      1765      2141
 -1      5517    3    0    1
 -2      1765      1572      2003      2141
 -1      5518    3    0    1
 -2      1014      1765      2003      2141
 -1      5519    3    0    1
 -2      2397      2096      2429      2638
 -1      5520    3    0    1
 -2      1919      1743      2475      2642
 -1      5521    3    0    1
 -2      1840      1210      1992      2164
 -1      5522    3    0    1
 -2      1027      1229      1665      2142
 -1      5523    3    0    1
 -2      1229      1027       747      2142
 -1      5524    3    0    1
 -2      2062       747      2142      2143
 -1      5525    3    0    1
 -2       747      2026      2142      2143
 -1      5526    3    0    1
 -2       747       730      2026      2143
 -1      5527    3    0    1
 -2      2156      1687      2509      2567
 -1      5528    3    0    1
 -2      1116       313      1305      2567
 -1      5529    3    0    1
 -2       466      1116      2509      2567
 -1      5530    3    0    1
 -2      1691      1516      1755      2144
 -1      5531    3    0    1
 -2      1516      1461      1755      2144
 -1      5532    3    0    1
 -2      1695      1516      1823      2144
 -1      5533    3    0    1
 -2      1637      1695      1823      2144
 -1      5534    3    0    1
 -2      1337       424      2038      2187
 -1      5535    3    0    1
 -2      1460      1554      1760      2187
 -1      5536    3    0    1
 -2       901      1076      2038      2187
 -1      5537    3    0    1
 -2      2018      1030      2464      2542
 -1      5538    3    0    1
 -2      1076      1337      2038      2187
 -1      5539    3    0    1
 -2      1321       326      1308      2709
 -1      5540    3    0    1
 -2      1092       347      1344      2181
 -1      5541    3    0    1
 -2       334       342      1943      2227
 -1      5542    3    0    1
 -2      1681       640      2630      2227
 -1      5543    3    0    1
 -2      1765      1470      2141      2163
 -1      5544    3    0    1
 -2      1828      1564      2193      2374
 -1      5545    3    0    1
 -2      1629      1480      2304      1750
 -1      5546    3    0    1
 -2       495      2305      2486      2511
 -1      5547    3    0    1
 -2      1562      1558      1701      2385
 -1      5548    3    0    1
 -2      1410      1792      2203      2385
 -1      5549    3    0    1
 -2      1558      1410      2203      2385
 -1      5550    3    0    1
 -2      1410      1558      1562      2385
 -1      5551    3    0    1
 -2        13       495      2486      2511
 -1      5552    3    0    1
 -2      1944      1993      2474      2495
 -1      5553    3    0    1
 -2       723      1577      2376      2449
 -1      5554    3    0    1
 -2      1577      1217      2175      2449
 -1      5555    3    0    1
 -2       883      1278       884      2562
 -1      5556    3    0    1
 -2      1035      2177      2400      2496
 -1      5557    3    0    1
 -2       122       373      2672      2771
 -1      5558    3    0    1
 -2      2358       675      2500      2715
 -1      5559    3    0    1
 -2      2332       273      2456      2738
 -1      5560    3    0    1
 -2      1239      1033       778      2153
 -1      5561    3    0    1
 -2       166      1841      2057      2643
 -1      5562    3    0    1
 -2      1891      1551      2028      2507
 -1      5563    3    0    1
 -2       711       330      1383      2573
 -1      5564    3    0    1
 -2      1321      1308      2635      2709
 -1      5565    3    0    1
 -2       771       778      1033      2153
 -1      5566    3    0    1
 -2       430       384      1587      2372
 -1      5567    3    0    1
 -2      1949      2467      2517      2571
 -1      5568    3    0    1
 -2      1891      1492      2253      2507
 -1      5569    3    0    1
 -2      1492      1891      2028      2507
 -1      5570    3    0    1
 -2      1461      1482      1755      2508
 -1      5571    3    0    1
 -2      1086      1489      1824      2709
 -1      5572    3    0    1
 -2      1958      2474      2495      2510
 -1      5573    3    0    1
 -2       228       220      1237      2560
 -1      5574    3    0    1
 -2      1034       774      1985      2510
 -1      5575    3    0    1
 -2      1449      1467      2155      2156
 -1      5576    3    0    1
 -2       219      1981      2124      2510
 -1      5577    3    0    1
 -2      1985      1958      2495      2510
 -1      5578    3    0    1
 -2        10       496      2512      2674
 -1      5579    3    0    1
 -2      1431       452      2377      2523
 -1      5580    3    0    1
 -2      2086      1743      2419      2475
 -1      5581    3    0    1
 -2       230      1237      1958      2560
 -1      5582    3    0    1
 -2      1437      1388      1634      2426
 -1      5583    3    0    1
 -2       231       784       807      2157
 -1      5584    3    0    1
 -2       440       231       807      2157
 -1      5585    3    0    1
 -2      1483      1774      1815      2275
 -1      5586    3    0    1
 -2      1863      1803      2137      2392
 -1      5587    3    0    1
 -2      1749      1863      2137      2392
 -1      5588    3    0    1
 -2      1666      1878      2022      2450
 -1      5589    3    0    1
 -2      1084      1340      1753      2275
 -1      5590    3    0    1
 -2      1753      1950      2011      2275
 -1      5591    3    0    1
 -2      1657      2282      2419      2620
 -1      5592    3    0    1
 -2      1663      2163      2503      2576
 -1      5593    3    0    1
 -2      2761      2734      2765      2772
 -1      5594    3    0    1
 -2      1753      1774      1847      2275
 -1      5595    3    0    1
 -2      1774      1483      1847      2275
 -1      5596    3    0    1
 -2       167      1014      2141      2163
 -1      5597    3    0    1
 -2      1663      1511      2115      2163
 -1      5598    3    0    1
 -2      1663      2115      2141      2163
 -1      5599    3    0    1
 -2      1671      1620      1992      2164
 -1      5600    3    0    1
 -2      1671       703      2148      2164
 -1      5601    3    0    1
 -2      1210      1671      1992      2164
 -1      5602    3    0    1
 -2      1210       703      1671      2164
 -1      5603    3    0    1
 -2       399       421      1968      2165
 -1      5604    3    0    1
 -2       421       399       958      2165
 -1      5605    3    0    1
 -2       958       510      1138      2165
 -1      5606    3    0    1
 -2       510       958      1896      2165
 -1      5607    3    0    1
 -2      1754       510      1896      2165
 -1      5608    3    0    1
 -2       511       510      1754      2165
 -1      5609    3    0    1
 -2       510       511      1138      2165
 -1      5610    3    0    1
 -2      1138       511      1754      2165
 -1      5611    3    0    1
 -2      1055      1810      2172      2352
 -1      5612    3    0    1
 -2       131       140       664      2166
 -1      5613    3    0    1
 -2       129       131       664      2166
 -1      5614    3    0    1
 -2       969      1159      2200      2578
 -1      5615    3    0    1
 -2      1949      2274      2466      2616
 -1      5616    3    0    1
 -2       206      2245      2395      2648
 -1      5617    3    0    1
 -2      1000      1791      2401      2638
 -1      5618    3    0    1
 -2       604       586      2325      2350
 -1      5619    3    0    1
 -2       129       663      1681      2166
 -1      5620    3    0    1
 -2       663       129       664      2166
 -1      5621    3    0    1
 -2       411       977      1867      2498
 -1      5622    3    0    1
 -2       411      2182      2299      2498
 -1      5623    3    0    1
 -2      1984      2073      2104      2228
 -1      5624    3    0    1
 -2      1853      1696      2266      2273
 -1      5625    3    0    1
 -2      1921       414      1946      2273
 -1      5626    3    0    1
 -2      1613       414      1921      2273
 -1      5627    3    0    1
 -2      1469      1698      1821      2228
 -1      5628    3    0    1
 -2      1467      1449      2039      2458
 -1      5629    3    0    1
 -2       364        83      1169      2169
 -1      5630    3    0    1
 -2       167      2441      1664      2452
 -1      5631    3    0    1
 -2      1852      1874      2188      2489
 -1      5632    3    0    1
 -2      1588      1884      2052      2171
 -1      5633    3    0    1
 -2      1667       346      1699      2453
 -1      5634    3    0    1
 -2       771      1033      1229      2173
 -1      5635    3    0    1
 -2       771       754      1236      2173
 -1      5636    3    0    1
 -2       754       771      1229      2173
 -1      5637    3    0    1
 -2       754      1030      1236      2173
 -1      5638    3    0    1
 -2      1065      1713      2521      2559
 -1      5639    3    0    1
 -2       179      1218      2427      2436
 -1      5640    3    0    1
 -2      1733      1713      2162      2596
 -1      5641    3    0    1
 -2      1892      1922      2659      2661
 -1      5642    3    0    1
 -2      1798      1437      2208      2402
 -1      5643    3    0    1
 -2      1277       323      1805      2562
 -1      5644    3    0    1
 -2      1805      1638      2128      2562
 -1      5645    3    0    1
 -2       730      1023      2143      2175
 -1      5646    3    0    1
 -2      1577       730      2143      2175
 -1      5647    3    0    1
 -2      1023       730       723      2175
 -1      5648    3    0    1
 -2       723       730      1577      2175
 -1      5649    3    0    1
 -2       357      1766      2094      2516
 -1      5650    3    0    1
 -2      1034      1679      1985      2206
 -1      5651    3    0    1
 -2      1115       936      2151      2176
 -1      5652    3    0    1
 -2       292       428      2247      2602
 -1      5653    3    0    1
 -2      1882       136      2401      2497
 -1      5654    3    0    1
 -2       331      2013      2397      2401
 -1      5655    3    0    1
 -2      1016      2205      1349      2741
 -1      5656    3    0    1
 -2      1918      1759      1986      2207
 -1      5657    3    0    1
 -2       220       231      1035      2177
 -1      5658    3    0    1
 -2      2177       220      2425      2560
 -1      5659    3    0    1
 -2       239       808      2528      2716
 -1      5660    3    0    1
 -2      1813       607      1963      2179
 -1      5661    3    0    1
 -2      1610      2043      2416      2543
 -1      5662    3    0    1
 -2      1933      1956      2167      2180
 -1      5663    3    0    1
 -2      1966      1933      1994      2180
 -1      5664    3    0    1
 -2      1933      1382      1994      2180
 -1      5665    3    0    1
 -2       416      1736      1933      2180
 -1      5666    3    0    1
 -2       416      1933      2167      2180
 -1      5667    3    0    1
 -2      1028      1605      2045      2518
 -1      5668    3    0    1
 -2       462       347      1092      2181
 -1      5669    3    0    1
 -2      1532      1652      2060      2266
 -1      5670    3    0    1
 -2      1888       425      2297      2515
 -1      5671    3    0    1
 -2      1918      1759      2207      2390
 -1      5672    3    0    1
 -2       666      1009      1199      1347
 -1      5673    3    0    1
 -2      2322       982      2325      2350
 -1      5674    3    0    1
 -2      1731      1732      1758      2269
 -1      5675    3    0    1
 -2      2076      1193      2135      2183
 -1      5676    3    0    1
 -2      1773       687      2013      2540
 -1      5677    3    0    1
 -2      1382         6      1962      2581
 -1      5678    3    0    1
 -2      1962         6      2186      2581
 -1      5679    3    0    1
 -2      1177      1475      1854      2184
 -1      5680    3    0    1
 -2      1613       414      1854      2184
 -1      5681    3    0    1
 -2       414      1177      1854      2184
 -1      5682    3    0    1
 -2       486      1129       951      2186
 -1      5683    3    0    1
 -2         6      1129      1962      2186
 -1      5684    3    0    1
 -2      1670      1586      2378      2582
 -1      5685    3    0    1
 -2      1129       486       487      2186
 -1      5686    3    0    1
 -2       487       486      2145      2186
 -1      5687    3    0    1
 -2      1378      1853      2266      2273
 -1      5688    3    0    1
 -2      1710      2250      2541      2582
 -1      5689    3    0    1
 -2      2250      1670      2378      2582
 -1      5690    3    0    1
 -2      1710      1670      2250      2582
 -1      5691    3    0    1
 -2      1076       424      1337      2187
 -1      5692    3    0    1
 -2       424      1554      2038      2187
 -1      5693    3    0    1
 -2      1157       562       556      2623
 -1      5694    3    0    1
 -2      2281       556      2623      2647
 -1      5695    3    0    1
 -2      1671      2106      2164      2189
 -1      5696    3    0    1
 -2      2148      1671      2164      2189
 -1      5697    3    0    1
 -2       114      2094      2407      2505
 -1      5698    3    0    1
 -2       380       261       831      2190
 -1      5699    3    0    1
 -2       870      1063      2033      2455
 -1      5700    3    0    1
 -2       259       261      2121      2190
 -1      5701    3    0    1
 -2       831       259       832      2190
 -1      5702    3    0    1
 -2       832       259      1804      2190
 -1      5703    3    0    1
 -2       831       832      1804      2190
 -1      5704    3    0    1
 -2      1438      1787      2193      2194
 -1      5705    3    0    1
 -2      1935      1438      2193      2194
 -1      5706    3    0    1
 -2      1573      1397      1614      2192
 -1      5707    3    0    1
 -2      1397      1564      1614      2192
 -1      5708    3    0    1
 -2      2295        49      2321      2729
 -1      5709    3    0    1
 -2      2311      2337      2375      2746
 -1      5710    3    0    1
 -2      1731       404      1916      2194
 -1      5711    3    0    1
 -2       404      1392      1916      2194
 -1      5712    3    0    1
 -2       404      1731      1732      2194
 -1      5713    3    0    1
 -2      1732      1731      1787      2194
 -1      5714    3    0    1
 -2       404      1438      1973      2194
 -1      5715    3    0    1
 -2      1438       404      1732      2194
 -1      5716    3    0    1
 -2       222      2506      2625      2693
 -1      5717    3    0    1
 -2      1533       966      1873      2195
 -1      5718    3    0    1
 -2       730      1577      2143      2566
 -1      5719    3    0    1
 -2       568       591      2406      2490
 -1      5720    3    0    1
 -2       378        70      2294      2490
 -1      5721    3    0    1
 -2        50        48       966      2195
 -1      5722    3    0    1
 -2      1796        50      1902      2195
 -1      5723    3    0    1
 -2       964       966      1533      2195
 -1      5724    3    0    1
 -2       964        50       966      2195
 -1      5725    3    0    1
 -2       964      1533      1902      2195
 -1      5726    3    0    1
 -2        50       964      1902      2195
 -1      5727    3    0    1
 -2      2530      1416      2655      2683
 -1      5728    3    0    1
 -2      2131       856      2347      2696
 -1      5729    3    0    1
 -2       429       427      1976      2696
 -1      5730    3    0    1
 -2      1377      1400      2707      2721
 -1      5731    3    0    1
 -2        49        36      2295      1354
 -1      5732    3    0    1
 -2      1663      1704      2163      2576
 -1      5733    3    0    1
 -2      2051      2217      2261      2575
 -1      5734    3    0    1
 -2      1975      2051      2261      2575
 -1      5735    3    0    1
 -2      1674      2620      2644      2703
 -1      5736    3    0    1
 -2      1403      1456      1580      2532
 -1      5737    3    0    1
 -2       425      1064      1888      2297
 -1      5738    3    0    1
 -2      1403      1785      2530      2532
 -1      5739    3    0    1
 -2      1498      1432      1543      2201
 -1      5740    3    0    1
 -2      1432      1498      1535      2201
 -1      5741    3    0    1
 -2      1498      1543      1714      2201
 -1      5742    3    0    1
 -2      1714      1543      1917      2201
 -1      5743    3    0    1
 -2      1535      1440      1543      2201
 -1      5744    3    0    1
 -2      1543      1440      1677      2201
 -1      5745    3    0    1
 -2      1432      1535      1543      2201
 -1      5746    3    0    1
 -2      1560      1601      1797      2203
 -1      5747    3    0    1
 -2      2106       726      2439      2657
 -1      5748    3    0    1
 -2      1713      1272      2223      2596
 -1      5749    3    0    1
 -2      1558      1410      1601      2203
 -1      5750    3    0    1
 -2      1601      1410      1797      2203
 -1      5751    3    0    1
 -2      1410      1792      1797      2203
 -1      5752    3    0    1
 -2      1786      1560      1797      2204
 -1      5753    3    0    1
 -2      1797      1560      2203      2204
 -1      5754    3    0    1
 -2      1792      1797      2203      2204
 -1      5755    3    0    1
 -2      1786      1792      2196      2204
 -1      5756    3    0    1
 -2      1792      1786      1797      2204
 -1      5757    3    0    1
 -2      1487      1805      2276      2562
 -1      5758    3    0    1
 -2      1487       884      1805      2562
 -1      5759    3    0    1
 -2      2601      1009      1346      1347
 -1      5760    3    0    1
 -2      1466      1940      1970      2525
 -1      5761    3    0    1
 -2      2620      2282      2644      2703
 -1      5762    3    0    1
 -2      1455      1786      2204      2235
 -1      5763    3    0    1
 -2      2236         9      2242      2486
 -1      5764    3    0    1
 -2       884      1278      1805      2562
 -1      5765    3    0    1
 -2       883       884      1487      2562
 -1      5766    3    0    1
 -2       883      1487      1580      2562
 -1      5767    3    0    1
 -2      2290       396      2747      2767
 -1      5768    3    0    1
 -2      1681       663      1882      2497
 -1      5769    3    0    1
 -2       305      1090      1759      2207
 -1      5770    3    0    1
 -2       305      1333      1090      2207
 -1      5771    3    0    1
 -2       305      1759      1928      2207
 -1      5772    3    0    1
 -2      1333       911      1090      2207
 -1      5773    3    0    1
 -2      1090       911      1759      2207
 -1      5774    3    0    1
 -2       911      1333       933      2207
 -1      5775    3    0    1
 -2       305      1938      1928      1281
 -1      5776    3    0    1
 -2       591       585       592      2209
 -1      5777    3    0    1
 -2       382        80      1867      2209
 -1      5778    3    0    1
 -2       567        64       568      2319
 -1      5779    3    0    1
 -2       435       433      1923      2457
 -1      5780    3    0    1
 -2      1910       114      2094      2407
 -1      5781    3    0    1
 -2       101      2182      2417      2640
 -1      5782    3    0    1
 -2       581       591       592      2209
 -1      5783    3    0    1
 -2       581       382       591      2209
 -1      5784    3    0    1
 -2        81        83       585      2209
 -1      5785    3    0    1
 -2        80       382       581      2209
 -1      5786    3    0    1
 -2       579       585       591      2209
 -1      5787    3    0    1
 -2        81       579       591      2209
 -1      5788    3    0    1
 -2       579        81       585      2209
 -1      5789    3    0    1
 -2        80       581       584      2209
 -1      5790    3    0    1
 -2       584       581       592      2209
 -1      5791    3    0    1
 -2        80       584       592      2209
 -1      5792    3    0    1
 -2      1571       335      1661      2210
 -1      5793    3    0    1
 -2      1741      1459      2049      2605
 -1      5794    3    0    1
 -2      2052      1588      2171      2213
 -1      5795    3    0    1
 -2      1377      1400      2052      2213
 -1      5796    3    0    1
 -2      2217      2262      2575      2636
 -1      5797    3    0    1
 -2      2054      2006      2301      2594
 -1      5798    3    0    1
 -2      1589       606      2179      2389
 -1      5799    3    0    1
 -2      1435      1524      2538      2717
 -1      5800    3    0    1
 -2      1592      1452      2042      2434
 -1      5801    3    0    1
 -2       606      1948      2179      2389
 -1      5802    3    0    1
 -2      1975      2051      2575      2636
 -1      5803    3    0    1
 -2      2310       406      2406      2594
 -1      5804    3    0    1
 -2       606      1589      2329      2389
 -1      5805    3    0    1
 -2      1374      1506      1646      2215
 -1      5806    3    0    1
 -2      1020       723      1577      2491
 -1      5807    3    0    1
 -2      1513      1646      1771      2215
 -1      5808    3    0    1
 -2      1513      1374      1646      2215
 -1      5809    3    0    1
 -2      1374      1718      2111      2215
 -1      5810    3    0    1
 -2      1967      2174      2382      2595
 -1      5811    3    0    1
 -2      1825      1798      2208      2402
 -1      5812    3    0    1
 -2      1200       150      1872      2397
 -1      5813    3    0    1
 -2      1599      1200      1872      2397
 -1      5814    3    0    1
 -2      1238       442      2206      2218
 -1      5815    3    0    1
 -2      1870      1238      2206      2218
 -1      5816    3    0    1
 -2       442      1238      1961      2218
 -1      5817    3    0    1
 -2       389      2311      2359      2456
 -1      5818    3    0    1
 -2       396       858       454      1350
 -1      5819    3    0    1
 -2       983       606      1589      2329
 -1      5820    3    0    1
 -2      1228      1944      2245      2603
 -1      5821    3    0    1
 -2      1405      1460      1565      2258
 -1      5822    3    0    1
 -2      1047       822      1436      2220
 -1      5823    3    0    1
 -2      1531      1405      1941      2258
 -1      5824    3    0    1
 -2       824      1782      2015      2221
 -1      5825    3    0    1
 -2      2015      1782      2082      2221
 -1      5826    3    0    1
 -2      1257      1047       824      2221
 -1      5827    3    0    1
 -2      1257      1843      2220      2221
 -1      5828    3    0    1
 -2      1257      2015      2082      2221
 -1      5829    3    0    1
 -2      1436      1047      2220      2221
 -1      5830    3    0    1
 -2      1047      1257      2220      2221
 -1      5831    3    0    1
 -2       822      1047      1436      2221
 -1      5832    3    0    1
 -2       824       822      1436      2221
 -1      5833    3    0    1
 -2       822       824      1047      2221
 -1      5834    3    0    1
 -2      1257       824      2015      2221
 -1      5835    3    0    1
 -2      2044       752      2116      2222
 -1      5836    3    0    1
 -2      1888      2039      2071      2515
 -1      5837    3    0    1
 -2      2006      1478      2292      2316
 -1      5838    3    0    1
 -2      1824      1489      2635      2709
 -1      5839    3    0    1
 -2       443       211      1029      2222
 -1      5840    3    0    1
 -2       870       871      1064      2223
 -1      5841    3    0    1
 -2      1702       487      1898      2597
 -1      5842    3    0    1
 -2       438      1949      2466      2467
 -1      5843    3    0    1
 -2       465       438      1949      2448
 -1      5844    3    0    1
 -2       800      1842      1903      2225
 -1      5845    3    0    1
 -2      1405      1565      1941      2258
 -1      5846    3    0    1
 -2      1386      2061      2080      2538
 -1      5847    3    0    1
 -2      1605      1739      2085      2237
 -1      5848    3    0    1
 -2      1463      2077      2212      2238
 -1      5849    3    0    1
 -2      1963      1766      2302      2598
 -1      5850    3    0    1
 -2      1711       631      2108      2307
 -1      5851    3    0    1
 -2      1739       727      2085      2237
 -1      5852    3    0    1
 -2      1006      1194      2444      2599
 -1      5853    3    0    1
 -2      2302      1766      2516      2598
 -1      5854    3    0    1
 -2      1138       421      2284      2622
 -1      5855    3    0    1
 -2       727      1883      2085      2237
 -1      5856    3    0    1
 -2        69        64      2064      2229
 -1      5857    3    0    1
 -2        64        69      1868      2229
 -1      5858    3    0    1
 -2        69       968      1868      2229
 -1      5859    3    0    1
 -2       391       393      1148      2229
 -1      5860    3    0    1
 -2       968       391      1148      2229
 -1      5861    3    0    1
 -2        69       391       968      2229
 -1      5862    3    0    1
 -2      1992      1840      2164      2230
 -1      5863    3    0    1
 -2      1620      1992      2164      2230
 -1      5864    3    0    1
 -2      1620      1907      1992      2230
 -1      5865    3    0    1
 -2      1907      1574      1992      2230
 -1      5866    3    0    1
 -2      1572      1765      2003      2303
 -1      5867    3    0    1
 -2      1610      2023      2043      2304
 -1      5868    3    0    1
 -2      1841      1934      2232      2303
 -1      5869    3    0    1
 -2      1841      1765      1934      2303
 -1      5870    3    0    1
 -2      1889      1610      2043      2304
 -1      5871    3    0    1
 -2      1765      1767      1934      2303
 -1      5872    3    0    1
 -2      1413      1480      1747      2572
 -1      5873    3    0    1
 -2      1747      1889      2043      2304
 -1      5874    3    0    1
 -2       330      1209      1934      2232
 -1      5875    3    0    1
 -2       356       330      1934      2232
 -1      5876    3    0    1
 -2      1750      1629      2233      2304
 -1      5877    3    0    1
 -2      2023      1750      2149      2233
 -1      5878    3    0    1
 -2      1211       699       706      2234
 -1      5879    3    0    1
 -2      1990      1408      2665      2735
 -1      5880    3    0    1
 -2      2574      2750      2751      2770
 -1      5881    3    0    1
 -2       510       957      1924      2412
 -1      5882    3    0    1
 -2       399      1881      2165      2501
 -1      5883    3    0    1
 -2      1485      1492      2253      2483
 -1      5884    3    0    1
 -2       386      1560      1786      2235
 -1      5885    3    0    1
 -2      2330       874      2488      2667
 -1      5886    3    0    1
 -2      2482       688      2558      2634
 -1      5887    3    0    1
 -2      2147      1480      2384      2572
 -1      5888    3    0    1
 -2      1803      1863      2255      2445
 -1      5889    3    0    1
 -2      1442      1647      1979      2386
 -1      5890    3    0    1
 -2      1865      2196      2204      2243
 -1      5891    3    0    1
 -2      1869       807      2157      2522
 -1      5892    3    0    1
 -2      1792      1865      2203      2244
 -1      5893    3    0    1
 -2      2196      1455      2204      2243
 -1      5894    3    0    1
 -2      1582       496      2373      2512
 -1      5895    3    0    1
 -2        13         9       950      2236
 -1      5896    3    0    1
 -2      1661      2210      2555      2588
 -1      5897    3    0    1
 -2      1375      1758      1915      2241
 -1      5898    3    0    1
 -2      1715      1758      1928      2241
 -1      5899    3    0    1
 -2      2075      1510      2370      2700
 -1      5900    3    0    1
 -2      1739      1605      2085      2342
 -1      5901    3    0    1
 -2      1928      1758      1929      2241
 -1      5902    3    0    1
 -2       422        31       520      2487
 -1      5903    3    0    1
 -2      1803      1661      2555      2588
 -1      5904    3    0    1
 -2       952       486       950      2242
 -1      5905    3    0    1
 -2       486       487      2145      2242
 -1      5906    3    0    1
 -2      2145       487      2226      2242
 -1      5907    3    0    1
 -2       341       338      2183      2549
 -1      5908    3    0    1
 -2       486       952       487      2242
 -1      5909    3    0    1
 -2       487       952      2226      2242
 -1      5910    3    0    1
 -2      1767      1201      2005      2727
 -1      5911    3    0    1
 -2      2298      2059      2328      2531
 -1      5912    3    0    1
 -2      1777      1442      1979      2386
 -1      5913    3    0    1
 -2       136       137       664      2497
 -1      5914    3    0    1
 -2      1040       441      1239      2624
 -1      5915    3    0    1
 -2      1674       219      1679      2246
 -1      5916    3    0    1
 -2      1679       219      1981      2246
 -1      5917    3    0    1
 -2       361       410      2348      1356
 -1      5918    3    0    1
 -2      1970      1940      2185      2432
 -1      5919    3    0    1
 -2      1981       219      2124      2246
 -1      5920    3    0    1
 -2       219      1674      2124      2246
 -1      5921    3    0    1
 -2      1228       206      2045      2603
 -1      5922    3    0    1
 -2      1430       205      1748      2603
 -1      5923    3    0    1
 -2      1459      1741      1950      2701
 -1      5924    3    0    1
 -2       807      1869      2058      2522
 -1      5925    3    0    1
 -2      2050      2245      2431      2520
 -1      5926    3    0    1
 -2       222       784      1690      2625
 -1      5927    3    0    1
 -2      1483      2150      2517      2658
 -1      5928    3    0    1
 -2      1850      2244      2308      2606
 -1      5929    3    0    1
 -2      1614      1832      2353      2607
 -1      5930    3    0    1
 -2      1614      1504      1832      2607
 -1      5931    3    0    1
 -2      1573      1504      1614      2607
 -1      5932    3    0    1
 -2      1567      1929      2241      2309
 -1      5933    3    0    1
 -2      1339       316       432      2249
 -1      5934    3    0    1
 -2       978      1175      2323      1356
 -1      5935    3    0    1
 -2       316      1339      1082      2249
 -1      5936    3    0    1
 -2       220       231      2177      2425
 -1      5937    3    0    1
 -2       628       610      2324      2345
 -1      5938    3    0    1
 -2      1431      1145      2107      2252
 -1      5939    3    0    1
 -2       538      1904      2107      2252
 -1      5940    3    0    1
 -2       538       531      1904      2252
 -1      5941    3    0    1
 -2      1145       531       538      2252
 -1      5942    3    0    1
 -2      1148       538      2107      2252
 -1      5943    3    0    1
 -2      1145      1148      2107      2252
 -1      5944    3    0    1
 -2      1148      1145       538      2252
 -1      5945    3    0    1
 -2       990       628      2272      2345
 -1      5946    3    0    1
 -2       514       531      1145      2252
 -1      5947    3    0    1
 -2      1139       514      1145      2252
 -1      5948    3    0    1
 -2       689      1016      1208      1346
 -1      5949    3    0    1
 -2       916      1096      2028      2254
 -1      5950    3    0    1
 -2       916      1327      1096      2254
 -1      5951    3    0    1
 -2       916      1106       927      2254
 -1      5952    3    0    1
 -2       321      1327       339      2254
 -1      5953    3    0    1
 -2      1096       321      2028      2254
 -1      5954    3    0    1
 -2      1327       321      1096      2254
 -1      5955    3    0    1
 -2      1097       916      2028      2254
 -1      5956    3    0    1
 -2      1106       916      1097      2254
 -1      5957    3    0    1
 -2      1644      1097      2028      2254
 -1      5958    3    0    1
 -2       321      1551      2028      2254
 -1      5959    3    0    1
 -2       433       436      1923      2257
 -1      5960    3    0    1
 -2      1923       435      2457      2554
 -1      5961    3    0    1
 -2      1421      2688      2695      2718
 -1      5962    3    0    1
 -2       436       433      2225      2257
 -1      5963    3    0    1
 -2      1386      1524      2061      2538
 -1      5964    3    0    1
 -2      1435      1524      1726      2538
 -1      5965    3    0    1
 -2      2530      1403      2652      2683
 -1      5966    3    0    1
 -2      2556      1975      2600      2636
 -1      5967    3    0    1
 -2       277      1265      2334      2338
 -1      5968    3    0    1
 -2       392        49      2321      2344
 -1      5969    3    0    1
 -2      1397      1935      2192      2292
 -1      5970    3    0    1
 -2      1681       640      2227      2472
 -1      5971    3    0    1
 -2      1635      1586      1670      2388
 -1      5972    3    0    1
 -2      1258      1262      1965      2259
 -1      5973    3    0    1
 -2      1975      2399      2600      2636
 -1      5974    3    0    1
 -2      2262      2217      2399      2636
 -1      5975    3    0    1
 -2      1227       345      2293      2317
 -1      5976    3    0    1
 -2       264       383       832      2313
 -1      5977    3    0    1
 -2       259      1804      2190      2313
 -1      5978    3    0    1
 -2       264      2121      2291      2313
 -1      5979    3    0    1
 -2       826      1049      1263      2259
 -1      5980    3    0    1
 -2      1258       826      1262      2259
 -1      5981    3    0    1
 -2       843       826      1263      2259
 -1      5982    3    0    1
 -2       826       843      1262      2259
 -1      5983    3    0    1
 -2      2092      2278      2279      2400
 -1      5984    3    0    1
 -2      2108      1749      2137      2392
 -1      5985    3    0    1
 -2      1184      2108      2137      2392
 -1      5986    3    0    1
 -2       381      2649      2710      2716
 -1      5987    3    0    1
 -2      1168       976       583      2263
 -1      5988    3    0    1
 -2       582       583       976      2263
 -1      5989    3    0    1
 -2      1771      1276      2403      2592
 -1      5990    3    0    1
 -2       259       832      1804      2313
 -1      5991    3    0    1
 -2      1159       969      1680      2578
 -1      5992    3    0    1
 -2      1873       400      2379      2411
 -1      5993    3    0    1
 -2      1417      1444      1781      1779
 -1      5994    3    0    1
 -2      1754      1138      2165      2617
 -1      5995    3    0    1
 -2      1378      1696      2047      2266
 -1      5996    3    0    1
 -2      1428      1378      2047      2266
 -1      5997    3    0    1
 -2      1946      1532      2060      2266
 -1      5998    3    0    1
 -2      1861      1946      2060      2266
 -1      5999    3    0    1
 -2      1696      1378      1853      2266
 -1      6000    3    0    1
 -2      2205      1016      2376      2449
 -1      6001    3    0    1
 -2      1412      1447      1862      2267
 -1      6002    3    0    1
 -2      1447      1561      1931      2267
 -1      6003    3    0    1
 -2      1447      1412      1561      2267
 -1      6004    3    0    1
 -2      1604      1447      1931      2267
 -1      6005    3    0    1
 -2      1604      1419      1862      2267
 -1      6006    3    0    1
 -2      1447      1604      1862      2267
 -1      6007    3    0    1
 -2      1548      1424      2264      2269
 -1      6008    3    0    1
 -2      1548      1731      2012      2269
 -1      6009    3    0    1
 -2      1424      1548      2012      2269
 -1      6010    3    0    1
 -2      1915      1732      2264      2269
 -1      6011    3    0    1
 -2      1732      1548      2264      2269
 -1      6012    3    0    1
 -2      1752      1042      2058      2270
 -1      6013    3    0    1
 -2      1835      2091      2277      2545
 -1      6014    3    0    1
 -2      1042       800      1246      2270
 -1      6015    3    0    1
 -2       800      1752      1903      2270
 -1      6016    3    0    1
 -2       800      1042      1752      2270
 -1      6017    3    0    1
 -2       630       992      2014      2271
 -1      6018    3    0    1
 -2      1729      1057      2327      2352
 -1      6019    3    0    1
 -2      1482      2188      2393      2489
 -1      6020    3    0    1
 -2       429       276       856      2347
 -1      6021    3    0    1
 -2      1781      1444      1864      1406
 -1      6022    3    0    1
 -2       119       116      1185      2272
 -1      6023    3    0    1
 -2       276       429      2327      2347
 -1      6024    3    0    1
 -2       586       604      1169      2350
 -1      6025    3    0    1
 -2      1826      2734      2735      2737
 -1      6026    3    0    1
 -2      1602       405      2031      2406
 -1      6027    3    0    1
 -2      2332      1058      2354      2359
 -1      6028    3    0    1
 -2      1166      1500      2323      2357
 -1      6029    3    0    1
 -2       116       990      2272      2356
 -1      6030    3    0    1
 -2       688       151      1999      2634
 -1      6031    3    0    1
 -2      2130       117      2356      2631
 -1      6032    3    0    1
 -2       276      1057      1639      2352
 -1      6033    3    0    1
 -2      2248       991      2505      2516
 -1      6034    3    0    1
 -2       982       604      2325      2350
 -1      6035    3    0    1
 -2      1057       276      2327      2352
 -1      6036    3    0    1
 -2      1055       846      1810      2352
 -1      6037    3    0    1
 -2      1084       439      1340      2275
 -1      6038    3    0    1
 -2      1757      1701      2385      2421
 -1      6039    3    0    1
 -2      1185       119      2272      2546
 -1      6040    3    0    1
 -2      2285      2428      2438      2504
 -1      6041    3    0    1
 -2      1185      2272      2480      2546
 -1      6042    3    0    1
 -2      1910       640      2227      2546
 -1      6043    3    0    1
 -2       119       640      1910      2546
 -1      6044    3    0    1
 -2      1720       349      2122      2280
 -1      6045    3    0    1
 -2       349      1435      2122      2280
 -1      6046    3    0    1
 -2      1435       349      1524      2280
 -1      6047    3    0    1
 -2      1475      1854      2184      2539
 -1      6048    3    0    1
 -2      1854      1381      2184      2539
 -1      6049    3    0    1
 -2       977      1867      2498      2577
 -1      6050    3    0    1
 -2      1785      1386      2061      2655
 -1      6051    3    0    1
 -2       139       129       663      2630
 -1      6052    3    0    1
 -2      1239       226      2506      2624
 -1      6053    3    0    1
 -2       556       967      1157      2281
 -1      6054    3    0    1
 -2       538       556      1148      2281
 -1      6055    3    0    1
 -2       556       538       967      2281
 -1      6056    3    0    1
 -2       556       968      1148      2281
 -1      6057    3    0    1
 -2        83      1169      2169      2350
 -1      6058    3    0    1
 -2      2676       292      2677       300
 -1      6059    3    0    1
 -2      1874      2250      2378      2541
 -1      6060    3    0    1
 -2      2119      2626      2732      2733
 -1      6061    3    0    1
 -2       300      1065      2521      2559
 -1      6062    3    0    1
 -2       798      2270      2544      2686
 -1      6063    3    0    1
 -2      2359      1058      1350      1351
 -1      6064    3    0    1
 -2       149       358      1006      2283
 -1      6065    3    0    1
 -2       395      1128      2336      2360
 -1      6066    3    0    1
 -2      1058      1271      2354      2359
 -1      6067    3    0    1
 -2      2049       316      2605      2701
 -1      6068    3    0    1
 -2       420      1147      1542      2615
 -1      6069    3    0    1
 -2       965       534      1969      2615
 -1      6070    3    0    1
 -2       534       965      2368      2615
 -1      6071    3    0    1
 -2      1969       534      2368      2615
 -1      6072    3    0    1
 -2       420      1542      2614      2615
 -1      6073    3    0    1
 -2       114       357      2094      2505
 -1      6074    3    0    1
 -2      1966      1933      2180      2288
 -1      6075    3    0    1
 -2      1933      1956      2180      2288
 -1      6076    3    0    1
 -2      1956      1933      2167      2288
 -1      6077    3    0    1
 -2      1476      1956      2167      2288
 -1      6078    3    0    1
 -2      1933      1476      2167      2288
 -1      6079    3    0    1
 -2       174       168       712      2289
 -1      6080    3    0    1
 -2      1482      1461      1997      2489
 -1      6081    3    0    1
 -2       843      1262      2259      2335
 -1      6082    3    0    1
 -2      1885      2722      2627      2333
 -1      6083    3    0    1
 -2      1049      1263      2259      2332
 -1      6084    3    0    1
 -2      1482      1997      2188      2489
 -1      6085    3    0    1
 -2       383       264      2291      2313
 -1      6086    3    0    1
 -2      1245      1043      2736      1364
 -1      6087    3    0    1
 -2      1262      1965      2335      2338
 -1      6088    3    0    1
 -2       425      1064      1272      2660
 -1      6089    3    0    1
 -2       960      1719      2320      2362
 -1      6090    3    0    1
 -2       822      1046      1436      2553
 -1      6091    3    0    1
 -2      2092       798      2279      2544
 -1      6092    3    0    1
 -2      2248       631      2271      2307
 -1      6093    3    0    1
 -2       855       456       856      2314
 -1      6094    3    0    1
 -2       832       855      2260      2313
 -1      6095    3    0    1
 -2      2006      1478      2301      2315
 -1      6096    3    0    1
 -2      1972       507      2343      2364
 -1      6097    3    0    1
 -2       850      1265      2335      2338
 -1      6098    3    0    1
 -2      1492      1485      2253      2555
 -1      6099    3    0    1
 -2      1965       277      2334      2338
 -1      6100    3    0    1
 -2      1874      1852      2378      2489
 -1      6101    3    0    1
 -2       338      2078      2445      2633
 -1      6102    3    0    1
 -2      1158      2170      2379      2565
 -1      6103    3    0    1
 -2       291      1272      2650      2660
 -1      6104    3    0    1
 -2       953      1137      2355      2362
 -1      6105    3    0    1
 -2      2121       259      2190      2313
 -1      6106    3    0    1
 -2       855       383      2260      2313
 -1      6107    3    0    1
 -2      1658      1617      2170      2565
 -1      6108    3    0    1
 -2       433       435      1046      2457
 -1      6109    3    0    1
 -2       425      1888      2071      2515
 -1      6110    3    0    1
 -2        64       567      2064      2319
 -1      6111    3    0    1
 -2       610       604      1175      2296
 -1      6112    3    0    1
 -2       985       610      1175      2296
 -1      6113    3    0    1
 -2      2337      1588      2375      2745
 -1      6114    3    0    1
 -2       279       276      1639      2347
 -1      6115    3    0    1
 -2      1271       857      1066      1350
 -1      6116    3    0    1
 -2       279      1639      2260      2347
 -1      6117    3    0    1
 -2       628       985      1183      2324
 -1      6118    3    0    1
 -2      1183       994       628      2324
 -1      6119    3    0    1
 -2       855       279      2260      2347
 -1      6120    3    0    1
 -2       943      2595      2613      2697
 -1      6121    3    0    1
 -2       226       441      2506      2624
 -1      6122    3    0    1
 -2       556       562      1160      2300
 -1      6123    3    0    1
 -2      2096      1417      2127      2479
 -1      6124    3    0    1
 -2      1208      2205      2601      1346
 -1      6125    3    0    1
 -2       366       441      1040      2624
 -1      6126    3    0    1
 -2       977      1167      1867      2577
 -1      6127    3    0    1
 -2       968       556      1160      2300
 -1      6128    3    0    1
 -2       562       580      1160      2300
 -1      6129    3    0    1
 -2       580       975      1160      2300
 -1      6130    3    0    1
 -2      1177      1475      1813      2302
 -1      6131    3    0    1
 -2       607      1177      1813      2302
 -1      6132    3    0    1
 -2       140      2283      2580      2599
 -1      6133    3    0    1
 -2      1480      1747      2147      2304
 -1      6134    3    0    1
 -2      1747      1480      1750      2304
 -1      6135    3    0    1
 -2      1480      1629      2304      2147
 -1      6136    3    0    1
 -2      1750      1610      1889      2304
 -1      6137    3    0    1
 -2      1610      1750      2023      2304
 -1      6138    3    0    1
 -2       398       394       495      2305
 -1      6139    3    0    1
 -2       193       214      2464      2730
 -1      6140    3    0    1
 -2      2147      2494      2572      2675
 -1      6141    3    0    1
 -2      2312       850      2335      2338
 -1      6142    3    0    1
 -2        53      1500      2321      2739
 -1      6143    3    0    1
 -2       953      2355      2360      2362
 -1      6144    3    0    1
 -2      1943       342      2331      2472
 -1      6145    3    0    1
 -2       543       520      2084      2487
 -1      6146    3    0    1
 -2      1673      1445      2517      2675
 -1      6147    3    0    1
 -2       495        10       496      2512
 -1      6148    3    0    1
 -2      1272      1064      2223      2660
 -1      6149    3    0    1
 -2       520        31      1775      2487
 -1      6150    3    0    1
 -2       151      1383      1999      2634
 -1      6151    3    0    1
 -2      2305       495      2486      2512
 -1      6152    3    0    1
 -2      1064      1888      2223      2660
 -1      6153    3    0    1
 -2       496      2502      2512      1582
 -1      6154    3    0    1
 -2      1943       993      2307      2331
 -1      6155    3    0    1
 -2       495       496      2486      2512
 -1      6156    3    0    1
 -2      2177       231      2394      2425
 -1      6157    3    0    1
 -2       750      2044      2116      2342
 -1      6158    3    0    1
 -2       706      1211      2234      2491
 -1      6159    3    0    1
 -2       567      1960      2064      2319
 -1      6160    3    0    1
 -2       406      1167      2054      2310
 -1      6161    3    0    1
 -2       406       382      1167      2310
 -1      6162    3    0    1
 -2      1729       847      2352      2662
 -1      6163    3    0    1
 -2      1265       850      2312      2338
 -1      6164    3    0    1
 -2      1965       277      2314      2334
 -1      6165    3    0    1
 -2      1573       402      2315      2339
 -1      6166    3    0    1
 -2       277       283      2131      2334
 -1      6167    3    0    1
 -2      1589      2037      2329      2670
 -1      6168    3    0    1
 -2      1158        68      1945      2565
 -1      6169    3    0    1
 -2       831      2190      2554      2681
 -1      6170    3    0    1
 -2      1793      1749      1851      2331
 -1      6171    3    0    1
 -2       292      2676      2677      2247
 -1      6172    3    0    1
 -2      2360       953      1352      1353
 -1      6173    3    0    1
 -2       850       867      1265      2312
 -1      6174    3    0    1
 -2       874       483      2330      2363
 -1      6175    3    0    1
 -2      1265       867      1270      2312
 -1      6176    3    0    1
 -2      1159       402      2200      2339
 -1      6177    3    0    1
 -2      1262      1965      2259      2335
 -1      6178    3    0    1
 -2      1265      1262       843      2335
 -1      6179    3    0    1
 -2      1478      2006      2292      2315
 -1      6180    3    0    1
 -2      1573      1478      2292      2315
 -1      6181    3    0    1
 -2      1945        68      2019      2565
 -1      6182    3    0    1
 -2      2379      1873      2411      2565
 -1      6183    3    0    1
 -2       402      1159      1573      2315
 -1      6184    3    0    1
 -2      1573      1159      2301      2315
 -1      6185    3    0    1
 -2       976      1392      2316      2341
 -1      6186    3    0    1
 -2      1478      1573      2301      2315
 -1      6187    3    0    1
 -2       976       404      1973      2316
 -1      6188    3    0    1
 -2       343       345      1227      2317
 -1      6189    3    0    1
 -2       313       466      2509      2567
 -1      6190    3    0    1
 -2      1943       334      2227      2407
 -1      6191    3    0    1
 -2       334       114      1910      2407
 -1      6192    3    0    1
 -2        81       378      2008      2318
 -1      6193    3    0    1
 -2       378        81       591      2318
 -1      6194    3    0    1
 -2       568      1602      1960      2319
 -1      6195    3    0    1
 -2      2295        36      2743      1354
 -1      6196    3    0    1
 -2      2395      2245      2431      2648
 -1      6197    3    0    1
 -2      2245      2050      2431      2648
 -1      6198    3    0    1
 -2       951      2145      2581      2685
 -1      6199    3    0    1
 -2      2344      1157      2647      1359
 -1      6200    3    0    1
 -2       531       960      1146      2320
 -1      6201    3    0    1
 -2       531       514       960      2320
 -1      6202    3    0    1
 -2      2320       960      1354      1355
 -1      6203    3    0    1
 -2      1166       971      1500      2357
 -1      6204    3    0    1
 -2       975      1169      2008      2346
 -1      6205    3    0    1
 -2      1178       604       610      2322
 -1      6206    3    0    1
 -2       610       604      2296      2322
 -1      6207    3    0    1
 -2       985       610      2296      2324
 -1      6208    3    0    1
 -2       362       616      2469      2631
 -1      6209    3    0    1
 -2      1421      1951      2119      2585
 -1      6210    3    0    1
 -2       193      1826      2440      2737
 -1      6211    3    0    1
 -2       379      1166      1500      2323
 -1      6212    3    0    1
 -2      2440      2750      2769      2774
 -1      6213    3    0    1
 -2       983      1589      2055      2329
 -1      6214    3    0    1
 -2      1713      2521      2559      2587
 -1      6215    3    0    1
 -2      2220       822      2611      2689
 -1      6216    3    0    1
 -2      1057      1055      1639      2352
 -1      6217    3    0    1
 -2      1166       570       978      1357
 -1      6218    3    0    1
 -2       427       879      1976      2696
 -1      6219    3    0    1
 -2       570        71       569      1357
 -1      6220    3    0    1
 -2      1183       994      1939      1361
 -1      6221    3    0    1
 -2       604      1175      2296      2325
 -1      6222    3    0    1
 -2      2296      1175      2323      2325
 -1      6223    3    0    1
 -2      1175       978      2323      2325
 -1      6224    3    0    1
 -2       726      2106      2439      2547
 -1      6225    3    0    1
 -2       604       586      1175      2325
 -1      6226    3    0    1
 -2       586       978      1175      2325
 -1      6227    3    0    1
 -2      1178      1477      2345      2356
 -1      6228    3    0    1
 -2       116       117       990      2356
 -1      6229    3    0    1
 -2       990      1178      2345      2356
 -1      6230    3    0    1
 -2       663       129      1681      2630
 -1      6231    3    0    1
 -2       436       239       808      2528
 -1      6232    3    0    1
 -2      1393      1723      2453      2529
 -1      6233    3    0    1
 -2      1137       953      2355      2364
 -1      6234    3    0    1
 -2      1127      1130      2361      2632
 -1      6235    3    0    1
 -2      1588      2171      2213      2337
 -1      6236    3    0    1
 -2       293      1536      2527      2680
 -1      6237    3    0    1
 -2      2503      1663      2576      2682
 -1      6238    3    0    1
 -2       874       483      1127      2330
 -1      6239    3    0    1
 -2      1137      2355      2362      2364
 -1      6240    3    0    1
 -2       874      1127      1273      2330
 -1      6241    3    0    1
 -2      1704      1663      2530      2682
 -1      6242    3    0    1
 -2       239       436      1752      2528
 -1      6243    3    0    1
 -2       349      1524      2280      2724
 -1      6244    3    0    1
 -2      1414      2571      2616      2628
 -1      6245    3    0    1
 -2      1400      2052      2213      2707
 -1      6246    3    0    1
 -2      2052      1588      2213      2707
 -1      6247    3    0    1
 -2      1673      2517      2571      2628
 -1      6248    3    0    1
 -2      1414      1484      1673      2628
 -1      6249    3    0    1
 -2       389      2311      2456      2728
 -1      6250    3    0    1
 -2      2571      2517      2616      2628
 -1      6251    3    0    1
 -2      1536       388      2334      2591
 -1      6252    3    0    1
 -2      1718      2101      2215      2592
 -1      6253    3    0    1
 -2       283       277      1265      2334
 -1      6254    3    0    1
 -2      2272       990      2345      2356
 -1      6255    3    0    1
 -2       117       116      1910      2356
 -1      6256    3    0    1
 -2      2333      1885      2337      2746
 -1      6257    3    0    1
 -2       507      1137      2362      2364
 -1      6258    3    0    1
 -2      1262      1265      1965      2338
 -1      6259    3    0    1
 -2        36      2743      1354      1355
 -1      6260    3    0    1
 -2      1159      1680      2315      2339
 -1      6261    3    0    1
 -2       819       802      2492      2579
 -1      6262    3    0    1
 -2       338      1863      2183      2633
 -1      6263    3    0    1
 -2      2029      2006      2301      2340
 -1      6264    3    0    1
 -2      2301      2006      2315      2340
 -1      6265    3    0    1
 -2      1159      2301      2315      2340
 -1      6266    3    0    1
 -2      1159       559      2301      2340
 -1      6267    3    0    1
 -2      2263       582      2310      2341
 -1      6268    3    0    1
 -2      1445      2150      2494      2572
 -1      6269    3    0    1
 -2      1783      2368      2428      2438
 -1      6270    3    0    1
 -2      1943       334      2407      2505
 -1      6271    3    0    1
 -2      1783      1820      2368      2438
 -1      6272    3    0    1
 -2      1605      1739      2136      2342
 -1      6273    3    0    1
 -2       750      1605      2136      2342
 -1      6274    3    0    1
 -2      1227       750      1739      2342
 -1      6275    3    0    1
 -2      1739       750      2136      2342
 -1      6276    3    0    1
 -2      1178       363      1477      2356
 -1      6277    3    0    1
 -2      2188      1874      2393      2489
 -1      6278    3    0    1
 -2       338      2183      2549      2633
 -1      6279    3    0    1
 -2       514       960      2320      2343
 -1      6280    3    0    1
 -2      1136      1139      1972      2343
 -1      6281    3    0    1
 -2       507      1136      1972      2343
 -1      6282    3    0    1
 -2      1136       507      1139      2343
 -1      6283    3    0    1
 -2      2050      1648      2431      2648
 -1      6284    3    0    1
 -2      1719      2320      2743      1355
 -1      6285    3    0    1
 -2      2344        49      1358      1359
 -1      6286    3    0    1
 -2       546       971      1157      1359
 -1      6287    3    0    1
 -2      1040      1239      1886      2624
 -1      6288    3    0    1
 -2      1166       586       580      2357
 -1      6289    3    0    1
 -2       586      2325      2346      2357
 -1      6290    3    0    1
 -2       610       990      1178      2345
 -1      6291    3    0    1
 -2       610       628       990      2345
 -1      6292    3    0    1
 -2       978      2323      2325      2357
 -1      6293    3    0    1
 -2       580       586      1169      2346
 -1      6294    3    0    1
 -2       616      2069      2469      2631
 -1      6295    3    0    1
 -2       151       356      1383      2634
 -1      6296    3    0    1
 -2       675      1199      2500      2715
 -1      6297    3    0    1
 -2      2249      2049      2605      2678
 -1      6298    3    0    1
 -2       856       855      2131      2347
 -1      6299    3    0    1
 -2       855      2260      2314      2347
 -1      6300    3    0    1
 -2      2131       855      2314      2347
 -1      6301    3    0    1
 -2        71       570       379      1357
 -1      6302    3    0    1
 -2       361       410      2326      2348
 -1      6303    3    0    1
 -2       410        71      2323      1357
 -1      6304    3    0    1
 -2      1183      2348      1360      1361
 -1      6305    3    0    1
 -2       618       617      1183      1361
 -1      6306    3    0    1
 -2      2078      1390      2445      2633
 -1      6307    3    0    1
 -2        10       394      1127      2361
 -1      6308    3    0    1
 -2       634      2272      2324      2349
 -1      6309    3    0    1
 -2       994       634      2324      2349
 -1      6310    3    0    1
 -2      1397      1564      2192      2374
 -1      6311    3    0    1
 -2      2156      2017      2509      2673
 -1      6312    3    0    1
 -2      2155      2017      2156      2673
 -1      6313    3    0    1
 -2      1467      2017      2155      2673
 -1      6314    3    0    1
 -2      1803      1661      2210      2555
 -1      6315    3    0    1
 -2       454       389      2311      2359
 -1      6316    3    0    1
 -2      1723      1621      2529      2679
 -1      6317    3    0    1
 -2       454      2359      1350      1351
 -1      6318    3    0    1
 -2       449      2336      2360      1353
 -1      6319    3    0    1
 -2       651       634      1191      2349
 -1      6320    3    0    1
 -2       634       994      1191      2349
 -1      6321    3    0    1
 -2      2440      1826      2735      2737
 -1      6322    3    0    1
 -2       139       118      1185      2351
 -1      6323    3    0    1
 -2       118       119      1185      2351
 -1      6324    3    0    1
 -2       998       139      1185      2351
 -1      6325    3    0    1
 -2       129       139       998      2351
 -1      6326    3    0    1
 -2      1399      1396      1611      2493
 -1      6327    3    0    1
 -2      1001      1199      2715      1366
 -1      6328    3    0    1
 -2      1030      2018      2173      2542
 -1      6329    3    0    1
 -2      1058       850      1263      2354
 -1      6330    3    0    1
 -2       850       867      2312      2354
 -1      6331    3    0    1
 -2       843       850      2335      2354
 -1      6332    3    0    1
 -2       850       843      1263      2354
 -1      6333    3    0    1
 -2      1263       843      2335      2354
 -1      6334    3    0    1
 -2       850      1058      1271      2354
 -1      6335    3    0    1
 -2      1997      1852      2188      2489
 -1      6336    3    0    1
 -2       867       850      1271      2354
 -1      6337    3    0    1
 -2      1540      1505      1654      2365
 -1      6338    3    0    1
 -2      1375      1438      1490      2374
 -1      6339    3    0    1
 -2       320      1623      1626      2365
 -1      6340    3    0    1
 -2      1130      1972      2361      2364
 -1      6341    3    0    1
 -2       490      1130      2361      2364
 -1      6342    3    0    1
 -2      2355      1128      2360      2363
 -1      6343    3    0    1
 -2       953       483      1128      2355
 -1      6344    3    0    1
 -2       953       490      2355      2364
 -1      6345    3    0    1
 -2      2262      1975      2399      2600
 -1      6346    3    0    1
 -2      1400      1377      2198      2585
 -1      6347    3    0    1
 -2      1470      2141      2163      2503
 -1      6348    3    0    1
 -2      1998       442      2391      2600
 -1      6349    3    0    1
 -2      1001      1199      2358      2715
 -1      6350    3    0    1
 -2       394        10      2305      2674
 -1      6351    3    0    1
 -2      2141      1663      2163      2503
 -1      6352    3    0    1
 -2      1474       399      2083      2501
 -1      6353    3    0    1
 -2      1474      1653      2185      2501
 -1      6354    3    0    1
 -2      2000      1509      2083      2501
 -1      6355    3    0    1
 -2       399      1474      2185      2501
 -1      6356    3    0    1
 -2       658      1006      1194      2358
 -1      6357    3    0    1
 -2       675       658      1001      2358
 -1      6358    3    0    1
 -2       658       675      1006      2358
 -1      6359    3    0    1
 -2       675      1001      1199      2358
 -1      6360    3    0    1
 -2      1881       399      2185      2501
 -1      6361    3    0    1
 -2        13       300      2511      2676
 -1      6362    3    0    1
 -2        12        10      1130      2361
 -1      6363    3    0    1
 -2       960      2320      2343      2362
 -1      6364    3    0    1
 -2      1137       960       514      2362
 -1      6365    3    0    1
 -2       514       960      2343      2362
 -1      6366    3    0    1
 -2      1939       367      2733      2762
 -1      6367    3    0    1
 -2       483      1066      1128      2363
 -1      6368    3    0    1
 -2       483       874      1066      2363
 -1      6369    3    0    1
 -2      1884      2152      2451      2748
 -1      6370    3    0    1
 -2      1130      1136      1972      2364
 -1      6371    3    0    1
 -2       507       490      1137      2364
 -1      6372    3    0    1
 -2       490       507      1130      2364
 -1      6373    3    0    1
 -2       490       953      1137      2364
 -1      6374    3    0    1
 -2      1130       507      1136      2364
 -1      6375    3    0    1
 -2      1589      1806      2037      2410
 -1      6376    3    0    1
 -2      1284       306      1285      2365
 -1      6377    3    0    1
 -2      1596      2037      1168      2035
 -1      6378    3    0    1
 -2       682       675      1009      2500
 -1      6379    3    0    1
 -2      1806      1547      2037      2410
 -1      6380    3    0    1
 -2       976      1392      2341      2499
 -1      6381    3    0    1
 -2      1168      1596      1916      2410
 -1      6382    3    0    1
 -2      1522      1529      1541      2367
 -1      6383    3    0    1
 -2      1428      1529      1532      2367
 -1      6384    3    0    1
 -2      1529      1522      2016      2367
 -1      6385    3    0    1
 -2      1532      1529      2016      2367
 -1      6386    3    0    1
 -2      1783      1820      2202      2368
 -1      6387    3    0    1
 -2      1902       964      2202      2368
 -1      6388    3    0    1
 -2       534      1783      2202      2368
 -1      6389    3    0    1
 -2       964       534      2202      2368
 -1      6390    3    0    1
 -2      1120      1310      1815      2420
 -1      6391    3    0    1
 -2      2283      1006      2444      2599
 -1      6392    3    0    1
 -2      1648      2050      2282      2370
 -1      6393    3    0    1
 -2       703      1015      1579      2643
 -1      6394    3    0    1
 -2      1416      2530      2655      2682
 -1      6395    3    0    1
 -2      2018      1036      1362      1236
 -1      6396    3    0    1
 -2       336       342       640      2472
 -1      6397    3    0    1
 -2      1525      1799      1802      2372
 -1      6398    3    0    1
 -2      1645      1587      2104      2372
 -1      6399    3    0    1
 -2      1587       384      2104      2372
 -1      6400    3    0    1
 -2      1645      1587      1802      1954
 -1      6401    3    0    1
 -2      1799      1587      1802      2372
 -1      6402    3    0    1
 -2      1587      1645      1802      2372
 -1      6403    3    0    1
 -2      1582       446      2126      2373
 -1      6404    3    0    1
 -2      1091      1967      2382      2595
 -1      6405    3    0    1
 -2        18       446      1582      2373
 -1      6406    3    0    1
 -2        18       496       519      2373
 -1      6407    3    0    1
 -2       446        18       519      2373
 -1      6408    3    0    1
 -2      1564      1828      2192      2374
 -1      6409    3    0    1
 -2      2192      1828      2193      2374
 -1      6410    3    0    1
 -2      2375      2337      2745      2746
 -1      6411    3    0    1
 -2      1436      1046      2134      2457
 -1      6412    3    0    1
 -2      1387      1664      2441      2452
 -1      6413    3    0    1
 -2      2326       410      2626      2768
 -1      6414    3    0    1
 -2      2734      1884      2735      2761
 -1      6415    3    0    1
 -2       140       664      2166      2580
 -1      6416    3    0    1
 -2       706      1016      1217      2376
 -1      6417    3    0    1
 -2       723       706      1217      2376
 -1      6418    3    0    1
 -2       393       391       544      2377
 -1      6419    3    0    1
 -2       544       391      2064      2377
 -1      6420    3    0    1
 -2       543      1796      2084      2377
 -1      6421    3    0    1
 -2      1431       543      2084      2377
 -1      6422    3    0    1
 -2       510      1772      1896      2412
 -1      6423    3    0    1
 -2       400        48       544      2377
 -1      6424    3    0    1
 -2       543       393       544      2377
 -1      6425    3    0    1
 -2      2051      2261      2396      2524
 -1      6426    3    0    1
 -2        48       543       544      2377
 -1      6427    3    0    1
 -2       543        50      1796      2377
 -1      6428    3    0    1
 -2      1796        50      2195      2377
 -1      6429    3    0    1
 -2       452       543      1431      2377
 -1      6430    3    0    1
 -2       452       393       543      2377
 -1      6431    3    0    1
 -2        50        48      2195      2377
 -1      6432    3    0    1
 -2        48        50       543      2377
 -1      6433    3    0    1
 -2       352       616      2069      2380
 -1      6434    3    0    1
 -2       103       352      2069      2380
 -1      6435    3    0    1
 -2       352       103      1766      2380
 -1      6436    3    0    1
 -2      1766       103      2069      2380
 -1      6437    3    0    1
 -2      1948       352      1766      2380
 -1      6438    3    0    1
 -2       352      1948      1766       984
 -1      6439    3    0    1
 -2      1966      1933      2288      2470
 -1      6440    3    0    1
 -2      1476      1780      2288      2470
 -1      6441    3    0    1
 -2      1550      1933      1966      2470
 -1      6442    3    0    1
 -2      2330       874      2363      2488
 -1      6443    3    0    1
 -2       422       450      2202      2381
 -1      6444    3    0    1
 -2      1495      1103      1556      2383
 -1      6445    3    0    1
 -2      1078      1103      1495      2383
 -1      6446    3    0    1
 -2       309      1290       324      2383
 -1      6447    3    0    1
 -2       309      1495      1659      2383
 -1      6448    3    0    1
 -2      1072       309      1659      2383
 -1      6449    3    0    1
 -2      1290       309      1072      2383
 -1      6450    3    0    1
 -2      1103       309       324      2383
 -1      6451    3    0    1
 -2       309      1103      1078      2383
 -1      6452    3    0    1
 -2       309      1078      1495      2383
 -1      6453    3    0    1
 -2      1701      1558      2244      2385
 -1      6454    3    0    1
 -2      1410      1558      1601      2386
 -1      6455    3    0    1
 -2      1410      1601      1770      2386
 -1      6456    3    0    1
 -2      1770      1601      2056      2386
 -1      6457    3    0    1
 -2      1562      1442      1777      2386
 -1      6458    3    0    1
 -2      1558      1562      1777      2386
 -1      6459    3    0    1
 -2      1558      1979      2056      2386
 -1      6460    3    0    1
 -2      1558      1777      1979      2386
 -1      6461    3    0    1
 -2      1601      1558      2056      2386
 -1      6462    3    0    1
 -2       259      1258      2121      2387
 -1      6463    3    0    1
 -2       261       259      2121      2387
 -1      6464    3    0    1
 -2       259       261      1258      2387
 -1      6465    3    0    1
 -2      1880      2042      1590      1846
 -1      6466    3    0    1
 -2      1590      1926      2042      2434
 -1      6467    3    0    1
 -2      2042      1880      1590      2434
 -1      6468    3    0    1
 -2      2029      2054      2301      2594
 -1      6469    3    0    1
 -2       406      2054      2406      2594
 -1      6470    3    0    1
 -2      2182       101      2299      2389
 -1      6471    3    0    1
 -2      2299      1176      2329      2389
 -1      6472    3    0    1
 -2      1176       606      2329      2389
 -1      6473    3    0    1
 -2       101      1176      2299      2389
 -1      6474    3    0    1
 -2       442      1679      2206      2391
 -1      6475    3    0    1
 -2       442      2206      2218      2391
 -1      6476    3    0    1
 -2      1595      1814      2394      2400
 -1      6477    3    0    1
 -2      1009      1208      2564      2601
 -1      6478    3    0    1
 -2      2182       411      2417      2498
 -1      6479    3    0    1
 -2      1661       335      2137      2392
 -1      6480    3    0    1
 -2      1388      1429      1816      2426
 -1      6481    3    0    1
 -2       558       969      1980      2578
 -1      6482    3    0    1
 -2       591       406      2406      2639
 -1      6483    3    0    1
 -2      1437      1634      1776      2426
 -1      6484    3    0    1
 -2      1630      1776      1822      2426
 -1      6485    3    0    1
 -2      2209       591      2318      2639
 -1      6486    3    0    1
 -2      1940      1881      2185      2432
 -1      6487    3    0    1
 -2      1565      1405      1830      2462
 -1      6488    3    0    1
 -2       752      1228      1944      2395
 -1      6489    3    0    1
 -2      2396      2051      2524      2619
 -1      6490    3    0    1
 -2      1524      1416      2717      2724
 -1      6491    3    0    1
 -2      1733      1956      2447      2596
 -1      6492    3    0    1
 -2      1312       445       469      2396
 -1      6493    3    0    1
 -2       469       445      1088      2396
 -1      6494    3    0    1
 -2       445      1312      1122      2396
 -1      6495    3    0    1
 -2       445      1122      2261      2396
 -1      6496    3    0    1
 -2      1088       445      1342      2396
 -1      6497    3    0    1
 -2      1342       445      2261      2396
 -1      6498    3    0    1
 -2      1420      1885      2627      2706
 -1      6499    3    0    1
 -2      1194       998      2663      2699
 -1      6500    3    0    1
 -2       131       129      1194      2699
 -1      6501    3    0    1
 -2       846      1055      2172      2430
 -1      6502    3    0    1
 -2      1515      1437      2102      2402
 -1      6503    3    0    1
 -2      1959      2014      2302      2621
 -1      6504    3    0    1
 -2      1475      1813      2302      2621
 -1      6505    3    0    1
 -2      1813      1475      2184      2621
 -1      6506    3    0    1
 -2      1959      1520      2014      2621
 -1      6507    3    0    1
 -2       446      1582      2126      2557
 -1      6508    3    0    1
 -2       157       353      2100      2601
 -1      6509    3    0    1
 -2      2500      1009      2564      2601
 -1      6510    3    0    1
 -2      1687      1906      2156      2673
 -1      6511    3    0    1
 -2       179       735      1901      2436
 -1      6512    3    0    1
 -2      1218       179      1901      2436
 -1      6513    3    0    1
 -2      2278      1814      2279      2400
 -1      6514    3    0    1
 -2      1055       385      2172      2430
 -1      6515    3    0    1
 -2      2138      2524      2618      2704
 -1      6516    3    0    1
 -2      2454       366      2629      2649
 -1      6517    3    0    1
 -2      1795       846      2172      2430
 -1      6518    3    0    1
 -2      1176      1948      2389      2593
 -1      6519    3    0    1
 -2       101      1176      2389      2593
 -1      6520    3    0    1
 -2        32       448      1136      2404
 -1      6521    3    0    1
 -2      1136       448      1972      2404
 -1      6522    3    0    1
 -2        32      1136      1139      2404
 -1      6523    3    0    1
 -2      1139      1136      1972      2404
 -1      6524    3    0    1
 -2      1136      1130      1972      2405
 -1      6525    3    0    1
 -2      1416      2576      2682      2724
 -1      6526    3    0    1
 -2      2725      1719      2743      2764
 -1      6527    3    0    1
 -2      2706      2723      2725      2764
 -1      6528    3    0    1
 -2      1446      1420      2032      2513
 -1      6529    3    0    1
 -2        35       448      2087      2405
 -1      6530    3    0    1
 -2      2087       448      2404      2405
 -1      6531    3    0    1
 -2       448      1972      2404      2405
 -1      6532    3    0    1
 -2       448      1136      1972      2405
 -1      6533    3    0    1
 -2        12      1130      1136      2405
 -1      6534    3    0    1
 -2        35        12      1136      2405
 -1      6535    3    0    1
 -2       448        35      1136      2405
 -1      6536    3    0    1
 -2        94      2380      2593      2640
 -1      6537    3    0    1
 -2       615       592      2113      2640
 -1      6538    3    0    1
 -2       615      2113      2469      2640
 -1      6539    3    0    1
 -2      2380       615      2469      2640
 -1      6540    3    0    1
 -2      2113       592      2417      2640
 -1      6541    3    0    1
 -2       405       406      2054      2406
 -1      6542    3    0    1
 -2       406       405       568      2406
 -1      6543    3    0    1
 -2       406       568       591      2406
 -1      6544    3    0    1
 -2       899      1114      1303      2408
 -1      6545    3    0    1
 -2       899      1303      2101      2408
 -1      6546    3    0    1
 -2      1335       899      1074      2408
 -1      6547    3    0    1
 -2      1074       899      2101      2408
 -1      6548    3    0    1
 -2      1817      1074      2101      2408
 -1      6549    3    0    1
 -2      1284       887      2365      2409
 -1      6550    3    0    1
 -2      1285       887      1284      2409
 -1      6551    3    0    1
 -2       583      1168      2263      2410
 -1      6552    3    0    1
 -2       404       976      1168      2499
 -1      6553    3    0    1
 -2      1916      1168      2410      2499
 -1      6554    3    0    1
 -2      1392       408      1916      2499
 -1      6555    3    0    1
 -2       408      1168      1916      2499
 -1      6556    3    0    1
 -2      1168       583      2037      2410
 -1      6557    3    0    1
 -2      1168       976      2263      2499
 -1      6558    3    0    1
 -2       261       380      1737      2710
 -1      6559    3    0    1
 -2      1635      1586      2388      2433
 -1      6560    3    0    1
 -2      1411      1565      1830      2462
 -1      6561    3    0    1
 -2      1586      2214      2388      2433
 -1      6562    3    0    1
 -2       357      2094      2505      2516
 -1      6563    3    0    1
 -2      1465      1631      1831      2413
 -1      6564    3    0    1
 -2      1465      1831      2219      2413
 -1      6565    3    0    1
 -2       343      1650      2317      2414
 -1      6566    3    0    1
 -2      1227       343      2317      2414
 -1      6567    3    0    1
 -2      1739      1650      2085      2414
 -1      6568    3    0    1
 -2      1022      1739      2085      2414
 -1      6569    3    0    1
 -2      1650      1022      2085      2414
 -1      6570    3    0    1
 -2      1650      1739      2342      2414
 -1      6571    3    0    1
 -2      1227      2317      2342      2414
 -1      6572    3    0    1
 -2      1739      1227      2342      2414
 -1      6573    3    0    1
 -2      2317      1650      2342      2414
 -1      6574    3    0    1
 -2      2282      2419      2620      2644
 -1      6575    3    0    1
 -2       703      1579      2398      2415
 -1      6576    3    0    1
 -2      1210       702       703      2415
 -1      6577    3    0    1
 -2      2419      1441      2620      2644
 -1      6578    3    0    1
 -2      1015       703      1209      2415
 -1      6579    3    0    1
 -2      1210       703      2398      2415
 -1      6580    3    0    1
 -2      1625      1210      2398      2415
 -1      6581    3    0    1
 -2       702      1625      1210      1014
 -1      6582    3    0    1
 -2      1625       702      1210      2415
 -1      6583    3    0    1
 -2      1239      1886      2624      2641
 -1      6584    3    0    1
 -2      2482       711      2573      2694
 -1      6585    3    0    1
 -2       411        80       592      2417
 -1      6586    3    0    1
 -2       592        80      2209      2417
 -1      6587    3    0    1
 -2      2506      1239      2624      2641
 -1      6588    3    0    1
 -2      1036       778       771      2418
 -1      6589    3    0    1
 -2       771      2153      2173      2418
 -1      6590    3    0    1
 -2      2018       771      2173      2418
 -1      6591    3    0    1
 -2      1236       771      2018      2418
 -1      6592    3    0    1
 -2      1036      1236      2018      2418
 -1      6593    3    0    1
 -2      1236      1036       771      2418
 -1      6594    3    0    1
 -2      2282      1648      2370      2419
 -1      6595    3    0    1
 -2      1015       703      2415      2643
 -1      6596    3    0    1
 -2      1978       166      2057      2643
 -1      6597    3    0    1
 -2       430      1264      1740      2476
 -1      6598    3    0    1
 -2      1264      1729      1740      2476
 -1      6599    3    0    1
 -2      1310       439       472      2420
 -1      6600    3    0    1
 -2      1118      1307      1850      2421
 -1      6601    3    0    1
 -2       431       315      1118      2421
 -1      6602    3    0    1
 -2      1307      1701      1850      2421
 -1      6603    3    0    1
 -2      1307       315      1701      2421
 -1      6604    3    0    1
 -2      1118       315      1307      2421
 -1      6605    3    0    1
 -2      1036      1245      2736      1370
 -1      6606    3    0    1
 -2      2464      1030      1362      1363
 -1      6607    3    0    1
 -2      2235      2023      2485      2666
 -1      6608    3    0    1
 -2      1049      2332      2471      2738
 -1      6609    3    0    1
 -2      1884      1408      1990      2735
 -1      6610    3    0    1
 -2       214       193      2464      1363
 -1      6611    3    0    1
 -2      1989       256      2451      2749
 -1      6612    3    0    1
 -2      2626      2732      2733      2752
 -1      6613    3    0    1
 -2      1884      1990      2734      2735
 -1      6614    3    0    1
 -2      1245       795      1886      2423
 -1      6615    3    0    1
 -2      1245      1043       795      2423
 -1      6616    3    0    1
 -2       433      2225      2257      2553
 -1      6617    3    0    1
 -2       342      1851      2331      2472
 -1      6618    3    0    1
 -2      1006       149      2558      2691
 -1      6619    3    0    1
 -2       336      1793      1851      2472
 -1      6620    3    0    1
 -2       336       640       663      2472
 -1      6621    3    0    1
 -2      1503      1434      2442      2493
 -1      6622    3    0    1
 -2       640       342      2227      2472
 -1      6623    3    0    1
 -2      1655      1437      1776      2426
 -1      6624    3    0    1
 -2      1429      1655      1776      2426
 -1      6625    3    0    1
 -2      1610      1889      2043      2543
 -1      6626    3    0    1
 -2      1157       967      2344      2647
 -1      6627    3    0    1
 -2       971      1500      2623      2647
 -1      6628    3    0    1
 -2       967      1157      2281      2647
 -1      6629    3    0    1
 -2      1904       967      2281      2647
 -1      6630    3    0    1
 -2      1157       971      2623      2647
 -1      6631    3    0    1
 -2       189       179      1218      2427
 -1      6632    3    0    1
 -2       382       406       591      2639
 -1      6633    3    0    1
 -2      2310       382      1867      2639
 -1      6634    3    0    1
 -2      1417       678      2096      2429
 -1      6635    3    0    1
 -2      2096       678      2397      2429
 -1      6636    3    0    1
 -2       406       382      2310      2639
 -1      6637    3    0    1
 -2       382      2310      1867      1167
 -1      6638    3    0    1
 -2       591      2406      2490      2639
 -1      6639    3    0    1
 -2      2496       774      1238       776
 -1      6640    3    0    1
 -2       243       366      2454      2649
 -1      6641    3    0    1
 -2      1486      1433      1575      2711
 -1      6642    3    0    1
 -2      1065      1713      2519      2677
 -1      6643    3    0    1
 -2      1405      1565      2090      2462
 -1      6644    3    0    1
 -2       397       293      2527      2680
 -1      6645    3    0    1
 -2      2079      1525      2090      2462
 -1      6646    3    0    1
 -2      1565      2079      2090      2462
 -1      6647    3    0    1
 -2      1565      1799      2079      2462
 -1      6648    3    0    1
 -2      1799      1525      2079      2462
 -1      6649    3    0    1
 -2      1905      1880      2042      2434
 -1      6650    3    0    1
 -2      1452      1592      1905      2434
 -1      6651    3    0    1
 -2      1905      1592      2025      2434
 -1      6652    3    0    1
 -2      1880      1905      2025      2434
 -1      6653    3    0    1
 -2      1452      1905      2042      2434
 -1      6654    3    0    1
 -2      1814      2394      2400      2435
 -1      6655    3    0    1
 -2      1870      2278      2400      2435
 -1      6656    3    0    1
 -2       663      1681      2166      2497
 -1      6657    3    0    1
 -2      1870       776      2278      2435
 -1      6658    3    0    1
 -2      1728      1705      1967      2536
 -1      6659    3    0    1
 -2       179       189       735      2436
 -1      6660    3    0    1
 -2       735       189      1991      2436
 -1      6661    3    0    1
 -2      2074      1728      2086      2536
 -1      6662    3    0    1
 -2      1705      1728      2074      2536
 -1      6663    3    0    1
 -2      1967       444      2382      2536
 -1      6664    3    0    1
 -2      1167      2054      2310      2437
 -1      6665    3    0    1
 -2       582      1167      2310      2437
 -1      6666    3    0    1
 -2      2316       976      2341      2437
 -1      6667    3    0    1
 -2      1973       976      2316      2437
 -1      6668    3    0    1
 -2      1478      1973      2316      2437
 -1      6669    3    0    1
 -2      2006      2316      2341      2437
 -1      6670    3    0    1
 -2      2310      2006      2341      2437
 -1      6671    3    0    1
 -2      2381       422      2487      2548
 -1      6672    3    0    1
 -2      1218      1901      1988      2439
 -1      6673    3    0    1
 -2      1502      1218      1988      2439
 -1      6674    3    0    1
 -2      1218      2427      2436      2439
 -1      6675    3    0    1
 -2      1901      1218      2436      2439
 -1      6676    3    0    1
 -2      1786       386      2235      2666
 -1      6677    3    0    1
 -2       434      2023      2235      2666
 -1      6678    3    0    1
 -2      1455      1786      2235      2666
 -1      6679    3    0    1
 -2      2481       241      1364      1365
 -1      6680    3    0    1
 -2      2736      2027      1370      1371
 -1      6681    3    0    1
 -2       333      1387      1664      2441
 -1      6682    3    0    1
 -2      1674      2246      2431      2520
 -1      6683    3    0    1
 -2       870       871      2223      2519
 -1      6684    3    0    1
 -2      2033       870      2223      2519
 -1      6685    3    0    1
 -2      1971       205      2045      2518
 -1      6686    3    0    1
 -2      1503      1434      1856      2442
 -1      6687    3    0    1
 -2      1936       205      1971      2518
 -1      6688    3    0    1
 -2      1605      1028      2136      2518
 -1      6689    3    0    1
 -2      1006       675       682      2444
 -1      6690    3    0    1
 -2      1968      2000      2083      2501
 -1      6691    3    0    1
 -2      1202      1006       682      2444
 -1      6692    3    0    1
 -2      1202       682      1794      2444
 -1      6693    3    0    1
 -2      1859      1803      2255      2445
 -1      6694    3    0    1
 -2      1390      1859      2078      2445
 -1      6695    3    0    1
 -2      2078      1859      2255      2445
 -1      6696    3    0    1
 -2       356       688      1383      2634
 -1      6697    3    0    1
 -2       688      1999      2558      2634
 -1      6698    3    0    1
 -2       338      2078      2255      2445
 -1      6699    3    0    1
 -2      1404      1819      1906      2446
 -1      6700    3    0    1
 -2      1476      1956      1982      2447
 -1      6701    3    0    1
 -2      2396      1342      2619      2651
 -1      6702    3    0    1
 -2      2261      1342      2396      2651
 -1      6703    3    0    1
 -2      1956      1476      2167      2447
 -1      6704    3    0    1
 -2      1733      1956      2167      2447
 -1      6705    3    0    1
 -2       487      1702      2226      2597
 -1      6706    3    0    1
 -2      1772      1734      2557      2597
 -1      6707    3    0    1
 -2       952       487      2226      2597
 -1      6708    3    0    1
 -2      2432      1702      2461      2597
 -1      6709    3    0    1
 -2      1702      1898      2461      2597
 -1      6710    3    0    1
 -2       438      1311      1121      2448
 -1      6711    3    0    1
 -2       465      1949      2274      2448
 -1      6712    3    0    1
 -2       910       942      1121      2448
 -1      6713    3    0    1
 -2       910      1121      1311      2448
 -1      6714    3    0    1
 -2      1311       438       465      2448
 -1      6715    3    0    1
 -2      1311       465      2274      2448
 -1      6716    3    0    1
 -2       910      1311      2274      2448
 -1      6717    3    0    1
 -2      1628      1429      1707      2450
 -1      6718    3    0    1
 -2      1789      1429      2022      2450
 -1      6719    3    0    1
 -2      1542      1789      2022      2450
 -1      6720    3    0    1
 -2      1429      1628      2022      2450
 -1      6721    3    0    1
 -2      1030      2018      2464      1362
 -1      6722    3    0    1
 -2      2066      1546      2526      2679
 -1      6723    3    0    1
 -2      2152      1989      2171      2451
 -1      6724    3    0    1
 -2       795       802      1040      2654
 -1      6725    3    0    1
 -2      1494      1846      1880      2453
 -1      6726    3    0    1
 -2      1494      1393      1846      2453
 -1      6727    3    0    1
 -2      1248       802      2579      2654
 -1      6728    3    0    1
 -2      1886      1040      2624      2654
 -1      6729    3    0    1
 -2       871      1272      1713      2650
 -1      6730    3    0    1
 -2      1482      1461      2489      2508
 -1      6731    3    0    1
 -2      1482      1635      1755      2508
 -1      6732    3    0    1
 -2      1635      1586      1755      2508
 -1      6733    3    0    1
 -2      1635      1482      2393      2508
 -1      6734    3    0    1
 -2      1586      1635      2393      2508
 -1      6735    3    0    1
 -2       243       366      1040      2454
 -1      6736    3    0    1
 -2      1785      2530      2532      2655
 -1      6737    3    0    1
 -2      1491      1403      2652      2711
 -1      6738    3    0    1
 -2      1551      1891      2238      2507
 -1      6739    3    0    1
 -2      1553      1467      2039      2458
 -1      6740    3    0    1
 -2      1043       802      2423      2492
 -1      6741    3    0    1
 -2       819      1043      1256      2492
 -1      6742    3    0    1
 -2       735      1977      1991      2459
 -1      6743    3    0    1
 -2       735       375      1977      2459
 -1      6744    3    0    1
 -2       712      1991      2289      2459
 -1      6745    3    0    1
 -2      1974       712      2289      2459
 -1      6746    3    0    1
 -2      1043      2423      2481      2492
 -1      6747    3    0    1
 -2      2401      2397      2429      2638
 -1      6748    3    0    1
 -2       819      1256      2471      2492
 -1      6749    3    0    1
 -2       712       735      1991      2459
 -1      6750    3    0    1
 -2       351       375       712      2459
 -1      6751    3    0    1
 -2       712       375       735      2459
 -1      6752    3    0    1
 -2      1585      1837      2009      2460
 -1      6753    3    0    1
 -2      1772      1896      2412      2461
 -1      6754    3    0    1
 -2       958      1881      1940      2461
 -1      6755    3    0    1
 -2      1940      1881      2432      2461
 -1      6756    3    0    1
 -2      1702      1898      2432      2461
 -1      6757    3    0    1
 -2      2231      2302      2516      2598
 -1      6758    3    0    1
 -2      1896       510      2412      2461
 -1      6759    3    0    1
 -2       958       510      1896      2461
 -1      6760    3    0    1
 -2      1881       958      1896      2461
 -1      6761    3    0    1
 -2      1896      1772      2432      2461
 -1      6762    3    0    1
 -2      1881      1896      2432      2461
 -1      6763    3    0    1
 -2      1565      1411      1799      2462
 -1      6764    3    0    1
 -2      1157       556      2281      2647
 -1      6765    3    0    1
 -2      1341      1087      2467      2658
 -1      6766    3    0    1
 -2      2150      2467      2517      2658
 -1      6767    3    0    1
 -2      2427      2106      2439      2463
 -1      6768    3    0    1
 -2      2189      2106      2427      2463
 -1      6769    3    0    1
 -2       738       737      1030      1363
 -1      6770    3    0    1
 -2       193       738       194      1363
 -1      6771    3    0    1
 -2       975      1160      2300      2478
 -1      6772    3    0    1
 -2      1411      1465      2039      2515
 -1      6773    3    0    1
 -2       438      1949      2448      2466
 -1      6774    3    0    1
 -2      1894      1449      2039      2659
 -1      6775    3    0    1
 -2      1341      1087      1949      2467
 -1      6776    3    0    1
 -2      1449      1894      2458      2659
 -1      6777    3    0    1
 -2      1819      2446      2552      2659
 -1      6778    3    0    1
 -2      1566      1594      1927      2468
 -1      6779    3    0    1
 -2      1566       413      1594      2468
 -1      6780    3    0    1
 -2       362        92      1477      2469
 -1      6781    3    0    1
 -2       615        92       616      2469
 -1      6782    3    0    1
 -2       615       616      2380      2469
 -1      6783    3    0    1
 -2       616      2069      2380      2469
 -1      6784    3    0    1
 -2        92       362       616      2469
 -1      6785    3    0    1
 -2       490      2355      2361      2632
 -1      6786    3    0    1
 -2      1966      1569      2063      2470
 -1      6787    3    0    1
 -2      1706      1966      2063      2470
 -1      6788    3    0    1
 -2      1569      1966      2288      2470
 -1      6789    3    0    1
 -2      2247       292      2680      2692
 -1      6790    3    0    1
 -2       826      1049      2259      2471
 -1      6791    3    0    1
 -2       826       819      1049      2471
 -1      6792    3    0    1
 -2       149      1006      1202      2691
 -1      6793    3    0    1
 -2       447       453      1719      2764
 -1      6794    3    0    1
 -2        53       379      1500      2739
 -1      6795    3    0    1
 -2       410      2326      2348      1356
 -1      6796    3    0    1
 -2      2129      2100      2198      2574
 -1      6797    3    0    1
 -2      1272      2596      2650      2660
 -1      6798    3    0    1
 -2      2349       651      2480      2663
 -1      6799    3    0    1
 -2      1272      2223      2596      2660
 -1      6800    3    0    1
 -2       846       847      1056      2662
 -1      6801    3    0    1
 -2      1238      1870      2206      2496
 -1      6802    3    0    1
 -2      1870       776      2435      2496
 -1      6803    3    0    1
 -2      1035      1237      2177      2496
 -1      6804    3    0    1
 -2      1869       239      2528      2716
 -1      6805    3    0    1
 -2      1001      2358      2714      2715
 -1      6806    3    0    1
 -2      1056       384      1953      2476
 -1      6807    3    0    1
 -2       384      1056      1264      2476
 -1      6808    3    0    1
 -2      2050      2282      2370      2700
 -1      6809    3    0    1
 -2      1510      1430      1748      2700
 -1      6810    3    0    1
 -2       998      2351      2480      2663
 -1      6811    3    0    1
 -2       975       580      2346      2478
 -1      6812    3    0    1
 -2       580       975      2300      2478
 -1      6813    3    0    1
 -2      2294       378      2318      2478
 -1      6814    3    0    1
 -2       378      2008      2318      2478
 -1      6815    3    0    1
 -2        70       378      2294      2478
 -1      6816    3    0    1
 -2        81       975      2008      2478
 -1      6817    3    0    1
 -2       378        81      2008      2478
 -1      6818    3    0    1
 -2       975        70      1160      2478
 -1      6819    3    0    1
 -2       378        70       975      2478
 -1      6820    3    0    1
 -2        81       378       975      2478
 -1      6821    3    0    1
 -2      1444      1417      1781      2479
 -1      6822    3    0    1
 -2      1951      2198      2584      2695
 -1      6823    3    0    1
 -2      1185       998      2351      2480
 -1      6824    3    0    1
 -2       634       651      1185      2480
 -1      6825    3    0    1
 -2       651       998      1185      2480
 -1      6826    3    0    1
 -2      2053      1503      2442      2493
 -1      6827    3    0    1
 -2      1043      2423      2736      1364
 -1      6828    3    0    1
 -2       810       809      1256      1365
 -1      6829    3    0    1
 -2      1485      2253      2555      2588
 -1      6830    3    0    1
 -2      2160      2261      2619      2651
 -1      6831    3    0    1
 -2      1408      1377      2052      2665
 -1      6832    3    0    1
 -2      1049      1263      2332      2738
 -1      6833    3    0    1
 -2      1408      2440      2665      2735
 -1      6834    3    0    1
 -2       360       359      2713      2759
 -1      6835    3    0    1
 -2       154       354       688      2482
 -1      6836    3    0    1
 -2       688       173       711      2482
 -1      6837    3    0    1
 -2       354       173       688      2482
 -1      6838    3    0    1
 -2      1123       317      1313      2536
 -1      6839    3    0    1
 -2      2306      1455      2416      2485
 -1      6840    3    0    1
 -2      1468      2306      2416      2485
 -1      6841    3    0    1
 -2      1786      1455      2196      2485
 -1      6842    3    0    1
 -2      1455      1468      2196      2485
 -1      6843    3    0    1
 -2      1273       874      2330      2667
 -1      6844    3    0    1
 -2       874      1273      2488      2667
 -1      6845    3    0    1
 -2      2023      1834      2235      2485
 -1      6846    3    0    1
 -2      1834      2023      2043      2485
 -1      6847    3    0    1
 -2      2043      1455      2235      2485
 -1      6848    3    0    1
 -2      1834      2043      2235      2485
 -1      6849    3    0    1
 -2      2724      2576      2726      2727
 -1      6850    3    0    1
 -2      1720       349      2280      2727
 -1      6851    3    0    1
 -2       450       543      1796      2487
 -1      6852    3    0    1
 -2       450       422       520      2487
 -1      6853    3    0    1
 -2       450       520       543      2487
 -1      6854    3    0    1
 -2      1271       867      2354      2488
 -1      6855    3    0    1
 -2      2290      1271      2354      2488
 -1      6856    3    0    1
 -2      1066      1271      2290      2488
 -1      6857    3    0    1
 -2      1271      1066       867      2488
 -1      6858    3    0    1
 -2       377       351      1974      2668
 -1      6859    3    0    1
 -2      1273      1270       874      2488
 -1      6860    3    0    1
 -2       591       378      2318      2490
 -1      6861    3    0    1
 -2       568        70       591      2490
 -1      6862    3    0    1
 -2        70       378       591      2490
 -1      6863    3    0    1
 -2       723       706      2376      2491
 -1      6864    3    0    1
 -2      1577       723      2376      2491
 -1      6865    3    0    1
 -2       375      1020      1977      2491
 -1      6866    3    0    1
 -2       826      2259      2387      2669
 -1      6867    3    0    1
 -2      1020       351      1211      2491
 -1      6868    3    0    1
 -2       723      1020      1211      2491
 -1      6869    3    0    1
 -2      2492       819      2579      2669
 -1      6870    3    0    1
 -2       706       723      1211      2491
 -1      6871    3    0    1
 -2       375       351      1020      2491
 -1      6872    3    0    1
 -2      1396      2093      2442      2493
 -1      6873    3    0    1
 -2      2010      1396      2442      2493
 -1      6874    3    0    1
 -2      1747      1480      2147      2494
 -1      6875    3    0    1
 -2       300      2236      2521      2676
 -1      6876    3    0    1
 -2      1413      1483      2150      2494
 -1      6877    3    0    1
 -2      1483      1413      1847      2494
 -1      6878    3    0    1
 -2      1413      1747      1847      2494
 -1      6879    3    0    1
 -2      1489      1670      1824      2635
 -1      6880    3    0    1
 -2       330       711      2057      2573
 -1      6881    3    0    1
 -2      2585      1421      2688      2695
 -1      6882    3    0    1
 -2      2236        13      2486      2511
 -1      6883    3    0    1
 -2       994      1191      2349      2759
 -1      6884    3    0    1
 -2      2748      2761      2765      2772
 -1      6885    3    0    1
 -2      1191       651      2349      2714
 -1      6886    3    0    1
 -2      2129      1458      2754      2755
 -1      6887    3    0    1
 -2      1199       666      1347      1367
 -1      6888    3    0    1
 -2       776      1035      2435      2496
 -1      6889    3    0    1
 -2      1237      2496       774      2671
 -1      6890    3    0    1
 -2      1237       774      1958      2671
 -1      6891    3    0    1
 -2      1237      1958      2560      2671
 -1      6892    3    0    1
 -2       583      2037      2410      2498
 -1      6893    3    0    1
 -2      2496      1237      2560      2671
 -1      6894    3    0    1
 -2      2496      1237       774      1035
 -1      6895    3    0    1
 -2       977       411      2299      2498
 -1      6896    3    0    1
 -2       583       977      2299      2498
 -1      6897    3    0    1
 -2      2037       583      2299      2498
 -1      6898    3    0    1
 -2      2263       976      2341      2499
 -1      6899    3    0    1
 -2      2358       675      2444      2500
 -1      6900    3    0    1
 -2       185       376      1020      2566
 -1      6901    3    0    1
 -2      1762      2379      2411      2565
 -1      6902    3    0    1
 -2       682      1794      2444      2500
 -1      6903    3    0    1
 -2       675       682      2444      2500
 -1      6904    3    0    1
 -2       723       730      1020      2566
 -1      6905    3    0    1
 -2      1063      2033      2298      2602
 -1      6906    3    0    1
 -2      1467      1449      2458      2673
 -1      6907    3    0    1
 -2      2494      1445      2572      2675
 -1      6908    3    0    1
 -2      1762        68      2379      2565
 -1      6909    3    0    1
 -2        68      1158      2379      2565
 -1      6910    3    0    1
 -2      1449      1467      2156      2673
 -1      6911    3    0    1
 -2      1158      1945      2170      2565
 -1      6912    3    0    1
 -2      2170      1617      2379      2565
 -1      6913    3    0    1
 -2      1687      1892      1906      2673
 -1      6914    3    0    1
 -2       583       977      2498      2577
 -1      6915    3    0    1
 -2      1867      1167      2310      2577
 -1      6916    3    0    1
 -2      1167       977       582      2577
 -1      6917    3    0    1
 -2      2285       423      2428      2504
 -1      6918    3    0    1
 -2      1401       423      2103      2504
 -1      6919    3    0    1
 -2       423      1401      2428      2504
 -1      6920    3    0    1
 -2       991       334       993      2505
 -1      6921    3    0    1
 -2       991       993      2248      2505
 -1      6922    3    0    1
 -2       993      1943      2248      2505
 -1      6923    3    0    1
 -2       993       334      1943      2505
 -1      6924    3    0    1
 -2       357       114       991      2505
 -1      6925    3    0    1
 -2      1818      1394      2181      2642
 -1      6926    3    0    1
 -2       711       166      2057      2694
 -1      6927    3    0    1
 -2       355      2482      2664      2694
 -1      6928    3    0    1
 -2      1690       784      2425      2625
 -1      6929    3    0    1
 -2       784      2157      2425      2625
 -1      6930    3    0    1
 -2       226       222      1239      2506
 -1      6931    3    0    1
 -2      1075      1336      1687      2509
 -1      6932    3    0    1
 -2      2307      2108      2331      2568
 -1      6933    3    0    1
 -2      1749      2137      2161      2568
 -1      6934    3    0    1
 -2      1336       313       466      2509
 -1      6935    3    0    1
 -2      1851       631      2307      2568
 -1      6936    3    0    1
 -2       313      1336      1075      2509
 -1      6937    3    0    1
 -2      2108      1184      2137      2568
 -1      6938    3    0    1
 -2      1713      1065      2521      2677
 -1      6939    3    0    1
 -2       239      1752      2058      2528
 -1      6940    3    0    1
 -2      1869       239      2058      2528
 -1      6941    3    0    1
 -2       495        13       880      2511
 -1      6942    3    0    1
 -2      2551      2032      2688      2718
 -1      6943    3    0    1
 -2        13       300       880      2511
 -1      6944    3    0    1
 -2       496      2486      2502        16
 -1      6945    3    0    1
 -2       394       495      2305      2512
 -1      6946    3    0    1
 -2        10       394      2305      2512
 -1      6947    3    0    1
 -2       394        10       495      2512
 -1      6948    3    0    1
 -2      1673      2517      2628      2675
 -1      6949    3    0    1
 -2      2569      1673      2628      2675
 -1      6950    3    0    1
 -2      2384      2147      2572      2675
 -1      6951    3    0    1
 -2      2294        70      2478      2514
 -1      6952    3    0    1
 -2       556      2281      2300      2514
 -1      6953    3    0    1
 -2       968       556      2300      2514
 -1      6954    3    0    1
 -2       556       968      2281      2514
 -1      6955    3    0    1
 -2        64        63      2319      2514
 -1      6956    3    0    1
 -2      1868        64      2319      2514
 -1      6957    3    0    1
 -2        63        64       968      2514
 -1      6958    3    0    1
 -2       968        64      1868      2514
 -1      6959    3    0    1
 -2        70        63      1160      2514
 -1      6960    3    0    1
 -2      2071      1465      2219      2515
 -1      6961    3    0    1
 -2       425      2071      2219      2515
 -1      6962    3    0    1
 -2       991      2248      2271      2516
 -1      6963    3    0    1
 -2      2231       991      2271      2516
 -1      6964    3    0    1
 -2       357       991      2231      2516
 -1      6965    3    0    1
 -2       357      2231      2302      2516
 -1      6966    3    0    1
 -2       166      1978      2057      2694
 -1      6967    3    0    1
 -2      1413      1747      2494      2572
 -1      6968    3    0    1
 -2       300      2677      2676      2521
 -1      6969    3    0    1
 -2      1747      1480      2494      2572
 -1      6970    3    0    1
 -2      1981      2124      2245      2520
 -1      6971    3    0    1
 -2      2245      2124      2431      2520
 -1      6972    3    0    1
 -2      2124      1674      2431      2520
 -1      6973    3    0    1
 -2      2049      2249      2308      2678
 -1      6974    3    0    1
 -2      1468      2049      2243      2678
 -1      6975    3    0    1
 -2      1468      2049      2605      2306
 -1      6976    3    0    1
 -2       228      1996      2287      2560
 -1      6977    3    0    1
 -2      1237      2177      2496      2560
 -1      6978    3    0    1
 -2       228       230      1996      2560
 -1      6979    3    0    1
 -2       228      2287      2425      2560
 -1      6980    3    0    1
 -2      1595      1246      2058      2522
 -1      6981    3    0    1
 -2       244       440       807      2522
 -1      6982    3    0    1
 -2       807       440      2157      2522
 -1      6983    3    0    1
 -2       244       807      2058      2522
 -1      6984    3    0    1
 -2       440       244      1246      2522
 -1      6985    3    0    1
 -2       393      1148      2229      2523
 -1      6986    3    0    1
 -2      1145       452      1431      2523
 -1      6987    3    0    1
 -2       452      1145      1148      2523
 -1      6988    3    0    1
 -2      1145      1431      2107      2523
 -1      6989    3    0    1
 -2      1148      1145      2107      2523
 -1      6990    3    0    1
 -2      2432      1940      2461      2525
 -1      6991    3    0    1
 -2      1898      2432      2461      2525
 -1      6992    3    0    1
 -2      1898      1702      2432      2525
 -1      6993    3    0    1
 -2      2120      1970      2286      2525
 -1      6994    3    0    1
 -2      1962      2120      2286      2525
 -1      6995    3    0    1
 -2      1702      1129      1962      2525
 -1      6996    3    0    1
 -2      1129      1702      1898      2525
 -1      6997    3    0    1
 -2      1129         6      1962      2525
 -1      6998    3    0    1
 -2      1962         6      2120      2525
 -1      6999    3    0    1
 -2      1702      1970      2432      2525
 -1      7000    3    0    1
 -2      1702      1962      1970      2525
 -1      7001    3    0    1
 -2      1970      1962      2286      2525
 -1      7002    3    0    1
 -2      1539      1845      2065      2533
 -1      7003    3    0    1
 -2      1454      1540      1909      2533
 -1      7004    3    0    1
 -2      1399      2053      2066      2526
 -1      7005    3    0    1
 -2       300       880      2511      2676
 -1      7006    3    0    1
 -2      1456      1403      1486      2711
 -1      7007    3    0    1
 -2       808       436      2528      2681
 -1      7008    3    0    1
 -2       880       495      2511      2527
 -1      7009    3    0    1
 -2       397       293      1273      2527
 -1      7010    3    0    1
 -2      2032      1446      2199      2551
 -1      7011    3    0    1
 -2       397       398       880      2527
 -1      7012    3    0    1
 -2       398       495       880      2527
 -1      7013    3    0    1
 -2      2511       880      2527      2680
 -1      7014    3    0    1
 -2       293       397       880      2680
 -1      7015    3    0    1
 -2      2284      1401      2438      2622
 -1      7016    3    0    1
 -2      1663      1491      1704      2530
 -1      7017    3    0    1
 -2      1785      2530      2655      2683
 -1      7018    3    0    1
 -2      1487      1403      1580      2684
 -1      7019    3    0    1
 -2      2532      1785      2655      2684
 -1      7020    3    0    1
 -2      1403      1785      2532      2684
 -1      7021    3    0    1
 -2      1729      2059      2298      2531
 -1      7022    3    0    1
 -2      1729       847      2059      2531
 -1      7023    3    0    1
 -2      1057       847      1729      2531
 -1      7024    3    0    1
 -2      1976       429      2327      2531
 -1      7025    3    0    1
 -2      1057      1729      2327      2531
 -1      7026    3    0    1
 -2      2298      1976      2327      2531
 -1      7027    3    0    1
 -2      1729      2298      2327      2531
 -1      7028    3    0    1
 -2      1540      1454      1592      2533
 -1      7029    3    0    1
 -2       888       887      1909      2534
 -1      7030    3    0    1
 -2      1286       460      1283      2534
 -1      7031    3    0    1
 -2      1286      1909      2070      2534
 -1      7032    3    0    1
 -2       461      1286      2070      2534
 -1      7033    3    0    1
 -2       460      1286       461      2534
 -1      7034    3    0    1
 -2       887      1286      1283      2534
 -1      7035    3    0    1
 -2      1329       460       461      2534
 -1      7036    3    0    1
 -2      1329       461      2070      2534
 -1      7037    3    0    1
 -2       460      1329      1095      2534
 -1      7038    3    0    1
 -2      1286       887       888      2534
 -1      7039    3    0    1
 -2      2007      1329      2070      2534
 -1      7040    3    0    1
 -2      1286       888      1909      2534
 -1      7041    3    0    1
 -2      1977       735      1991      2535
 -1      7042    3    0    1
 -2      1991       735      2436      2535
 -1      7043    3    0    1
 -2       444      1123      1728      2536
 -1      7044    3    0    1
 -2       444       317      1123      2536
 -1      7045    3    0    1
 -2      1460      1405      1554      2537
 -1      7046    3    0    1
 -2      1122      2261      2396      2613
 -1      7047    3    0    1
 -2      2217      2174      2595      2613
 -1      7048    3    0    1
 -2      2240      1531      2258      2537
 -1      7049    3    0    1
 -2      2217      2261      2575      2613
 -1      7050    3    0    1
 -2      2174      2217      2575      2613
 -1      7051    3    0    1
 -2      1491      1704      2530      2683
 -1      7052    3    0    1
 -2      1524      1386      1598      2538
 -1      7053    3    0    1
 -2      1524      1598      1726      2538
 -1      7054    3    0    1
 -2       511      1138      2617      2622
 -1      7055    3    0    1
 -2      1432      1555      1714      2539
 -1      7056    3    0    1
 -2      1381      1432      1714      2539
 -1      7057    3    0    1
 -2      1432      1381      1854      2539
 -1      7058    3    0    1
 -2      1555      1432      1927      2539
 -1      7059    3    0    1
 -2      1854      1475      1927      2539
 -1      7060    3    0    1
 -2      1432      1854      1927      2539
 -1      7061    3    0    1
 -2      1065       871      1713      2559
 -1      7062    3    0    1
 -2      1794      1202      2444      2691
 -1      7063    3    0    1
 -2       416      1382      2180      2581
 -1      7064    3    0    1
 -2      2092      1814      2279      2686
 -1      7065    3    0    1
 -2       359      1939      2733      2758
 -1      7066    3    0    1
 -2       747       754      2142      2542
 -1      7067    3    0    1
 -2      2026       747      2142      2542
 -1      7068    3    0    1
 -2      1665       754      2173      2542
 -1      7069    3    0    1
 -2       754      1665      2142      2542
 -1      7070    3    0    1
 -2      1610      1741      1889      2543
 -1      7071    3    0    1
 -2      1041      1835      2277      2544
 -1      7072    3    0    1
 -2       237      1041      1908      2544
 -1      7073    3    0    1
 -2      1041       237      1835      2544
 -1      7074    3    0    1
 -2      1835       237      1908      2544
 -1      7075    3    0    1
 -2      2277      2092      2279      2544
 -1      7076    3    0    1
 -2       798      1041      2279      2544
 -1      7077    3    0    1
 -2      1041      2277      2279      2544
 -1      7078    3    0    1
 -2      1870      1961      2218      2545
 -1      7079    3    0    1
 -2      1961      1870      2278      2545
 -1      7080    3    0    1
 -2      2278      1870      2279      2545
 -1      7081    3    0    1
 -2      2277      1961      2279      2545
 -1      7082    3    0    1
 -2      1961      2278      2279      2545
 -1      7083    3    0    1
 -2       119       116      2272      2546
 -1      7084    3    0    1
 -2      2272       116      2356      2546
 -1      7085    3    0    1
 -2       116      1910      2356      2546
 -1      7086    3    0    1
 -2       116       119      1910      2546
 -1      7087    3    0    1
 -2       119       118       640      2546
 -1      7088    3    0    1
 -2      1477       362      2469      2631
 -1      7089    3    0    1
 -2      1021       332      1620      2547
 -1      7090    3    0    1
 -2      1620       332      1699      2547
 -1      7091    3    0    1
 -2      1502       726      2439      2547
 -1      7092    3    0    1
 -2       726      1502      1877      2547
 -1      7093    3    0    1
 -2      1671      1021      1907      2547
 -1      7094    3    0    1
 -2      1420      1446      2032      2688
 -1      7095    3    0    1
 -2        31       422       959      2548
 -1      7096    3    0    1
 -2       688      2482      2573      2634
 -1      7097    3    0    1
 -2      1779      2076      2127      2549
 -1      7098    3    0    1
 -2      1756      1779      2127      2549
 -1      7099    3    0    1
 -2       398      2305      2527      2550
 -1      7100    3    0    1
 -2       398       394      2305      2550
 -1      7101    3    0    1
 -2       397       398      2527      2550
 -1      7102    3    0    1
 -2      1273       397      2527      2550
 -1      7103    3    0    1
 -2       394       398      1127      2550
 -1      7104    3    0    1
 -2      1127       398      1273      2550
 -1      7105    3    0    1
 -2       398       397      1273      2550
 -1      7106    3    0    1
 -2      1673      2089      2569      2628
 -1      7107    3    0    1
 -2      1834      1047      2220      2689
 -1      7108    3    0    1
 -2      1819      2446      2477      2552
 -1      7109    3    0    1
 -2      1922      1982      2465      2552
 -1      7110    3    0    1
 -2      2465      1982      2477      2552
 -1      7111    3    0    1
 -2      1922      2465      2477      2552
 -1      7112    3    0    1
 -2      2257      1046      1436      2457
 -1      7113    3    0    1
 -2      1046      2257      1436      2553
 -1      7114    3    0    1
 -2      2258      2240      2537      2612
 -1      7115    3    0    1
 -2      1460      2258      2537      2612
 -1      7116    3    0    1
 -2      2081      1689      2537      2612
 -1      7117    3    0    1
 -2      1689      2038      2537      2612
 -1      7118    3    0    1
 -2      1804       831      2190      2554
 -1      7119    3    0    1
 -2      1046       262      1048      2554
 -1      7120    3    0    1
 -2      1048       262      2134      2554
 -1      7121    3    0    1
 -2      1046      1048      2134      2554
 -1      7122    3    0    1
 -2      1859      1492      2253      2555
 -1      7123    3    0    1
 -2      1583      1859      2253      2555
 -1      7124    3    0    1
 -2       364        83      2169      2589
 -1      7125    3    0    1
 -2        83       592      2209      2589
 -1      7126    3    0    1
 -2       592      2113      2209      2589
 -1      7127    3    0    1
 -2      2008        83      2209      2589
 -1      7128    3    0    1
 -2      1772       957      1924      2557
 -1      7129    3    0    1
 -2       957      1772      2412      2557
 -1      7130    3    0    1
 -2       957        28      1924      2557
 -1      7131    3    0    1
 -2        28      2126      2132      2557
 -1      7132    3    0    1
 -2        28       446      2126      2557
 -1      7133    3    0    1
 -2      1924        28      2132      2557
 -1      7134    3    0    1
 -2        18       446      1734      2557
 -1      7135    3    0    1
 -2      1734       446      2412      2557
 -1      7136    3    0    1
 -2       446       957      2412      2557
 -1      7137    3    0    1
 -2       446        28       957      2557
 -1      7138    3    0    1
 -2      1006       149      2283      2558
 -1      7139    3    0    1
 -2       428      2247      2602      2692
 -1      7140    3    0    1
 -2      1713      1733      2162      2559
 -1      7141    3    0    1
 -2      2162      1733      2178      2559
 -1      7142    3    0    1
 -2      1468      1741      2306      2605
 -1      7143    3    0    1
 -2      1237      2177       220      1035
 -1      7144    3    0    1
 -2      2177      1237       220      2560
 -1      7145    3    0    1
 -2       230       228      1237      2560
 -1      7146    3    0    1
 -2      2464       194      2561      1369
 -1      7147    3    0    1
 -2       194       186      2561      1369
 -1      7148    3    0    1
 -2       738       194      1363      1369
 -1      7149    3    0    1
 -2      1885      1420      2627      2721
 -1      7150    3    0    1
 -2      2561       186      1368      1369
 -1      7151    3    0    1
 -2      2172      1795      2430      2563
 -1      7152    3    0    1
 -2       385       387       832      2563
 -1      7153    3    0    1
 -2       387       385      2430      2563
 -1      7154    3    0    1
 -2       385       832       855      2563
 -1      7155    3    0    1
 -2      1795       387      2430      2563
 -1      7156    3    0    1
 -2      2234       706      2376      2564
 -1      7157    3    0    1
 -2       706       699      1208      2564
 -1      7158    3    0    1
 -2       368      2287      2570      2693
 -1      7159    3    0    1
 -2       428       427      1976      2602
 -1      7160    3    0    1
 -2       706      1016      2376      2564
 -1      7161    3    0    1
 -2      1016       706      1208      2564
 -1      7162    3    0    1
 -2      2033      1063      2519      2602
 -1      7163    3    0    1
 -2       682      1208       699      2564
 -1      7164    3    0    1
 -2      1208       682      1009      2564
 -1      7165    3    0    1
 -2      1020       376      1977      2566
 -1      7166    3    0    1
 -2       185      1220      2062      2566
 -1      7167    3    0    1
 -2       185      2484      2535      2566
 -1      7168    3    0    1
 -2       185      2062      2484      2566
 -1      7169    3    0    1
 -2       376       185      2535      2566
 -1      7170    3    0    1
 -2      1977       376      2535      2566
 -1      7171    3    0    1
 -2      2108      1749      2331      2568
 -1      7172    3    0    1
 -2       237      1835      1908      2569
 -1      7173    3    0    1
 -2      1835       237      1879      2569
 -1      7174    3    0    1
 -2      1879      1673      2089      2569
 -1      7175    3    0    1
 -2      1879       237      2384      2569
 -1      7176    3    0    1
 -2      1673      1879      2384      2569
 -1      7177    3    0    1
 -2       436       433      2528      2681
 -1      7178    3    0    1
 -2       371       369      2024      2570
 -1      7179    3    0    1
 -2      1033      1665      2173      2570
 -1      7180    3    0    1
 -2      2153      1033      2173      2570
 -1      7181    3    0    1
 -2      1033      1229      1665      2570
 -1      7182    3    0    1
 -2      1229       371      2140      2570
 -1      7183    3    0    1
 -2      1665      1229      2140      2570
 -1      7184    3    0    1
 -2       368       369      1033      2570
 -1      7185    3    0    1
 -2      1033       369      1229      2570
 -1      7186    3    0    1
 -2       369       371      1229      2570
 -1      7187    3    0    1
 -2       429      2327      2347      2696
 -1      7188    3    0    1
 -2      2214      1670      2388      2635
 -1      7189    3    0    1
 -2      1579       174      2148      2646
 -1      7190    3    0    1
 -2       712       174      2289      2646
 -1      7191    3    0    1
 -2      1458      2129      2198      2574
 -1      7192    3    0    1
 -2      2713      2754      2755      2771
 -1      7193    3    0    1
 -2      1786      1455      2485      2666
 -1      7194    3    0    1
 -2       189      2427      2463      2646
 -1      7195    3    0    1
 -2      1400      1458      2198      2574
 -1      7196    3    0    1
 -2       174       712      1991      2646
 -1      7197    3    0    1
 -2       174      1978      2289      2646
 -1      7198    3    0    1
 -2      1377      1400      2198      2574
 -1      7199    3    0    1
 -2      1400      1377      1408      2574
 -1      7200    3    0    1
 -2      1978       174      2643      2646
 -1      7201    3    0    1
 -2       189      1991      2427      2646
 -1      7202    3    0    1
 -2      1458      1537      2129      2574
 -1      7203    3    0    1
 -2      1458      1408      1537      2574
 -1      7204    3    0    1
 -2      1400      1408      1458      2574
 -1      7205    3    0    1
 -2       582      2263      2310      2577
 -1      7206    3    0    1
 -2      1167       582      2310      2577
 -1      7207    3    0    1
 -2      1680       558      1980      2578
 -1      7208    3    0    1
 -2       401       969      2200      2578
 -1      7209    3    0    1
 -2      1159      1680      2339      2578
 -1      7210    3    0    1
 -2      2200      1159      2339      2578
 -1      7211    3    0    1
 -2      1389       401      2200      2578
 -1      7212    3    0    1
 -2      1980       969      2123      2578
 -1      7213    3    0    1
 -2      1389      1980      2123      2578
 -1      7214    3    0    1
 -2       401      1389      2123      2578
 -1      7215    3    0    1
 -2       969       401      2123      2578
 -1      7216    3    0    1
 -2      1045       819      1737      2579
 -1      7217    3    0    1
 -2      1248      1045      1737      2579
 -1      7218    3    0    1
 -2       802       819      1045      2579
 -1      7219    3    0    1
 -2       802      1045      1248      2579
 -1      7220    3    0    1
 -2      2166       664      2497      2580
 -1      7221    3    0    1
 -2       687       358      2540      2580
 -1      7222    3    0    1
 -2      2166       140      2599       131
 -1      7223    3    0    1
 -2       442       219      1679      2600
 -1      7224    3    0    1
 -2       664      1773      2497      2580
 -1      7225    3    0    1
 -2       664       687      1773      2580
 -1      7226    3    0    1
 -2      1773       687      2540      2580
 -1      7227    3    0    1
 -2       140       358       687      2580
 -1      7228    3    0    1
 -2       664       140       687      2580
 -1      7229    3    0    1
 -2         6      1382      1736      2581
 -1      7230    3    0    1
 -2         6       951      1129      2581
 -1      7231    3    0    1
 -2      1129       951      2186      2581
 -1      7232    3    0    1
 -2         6      1129      2186      2581
 -1      7233    3    0    1
 -2       416         6      1736      2581
 -1      7234    3    0    1
 -2      1489      1710      1824      2582
 -1      7235    3    0    1
 -2      1670      1489      1824      2582
 -1      7236    3    0    1
 -2      1489      1670      1710      2582
 -1      7237    3    0    1
 -2      1874      1852      2251      2583
 -1      7238    3    0    1
 -2       338       999      1863      2608
 -1      7239    3    0    1
 -2      1832      1614      2353      2583
 -1      7240    3    0    1
 -2      1710      1376      1832      2583
 -1      7241    3    0    1
 -2      2251      1852      2353      2583
 -1      7242    3    0    1
 -2      1832      2353      2541      2583
 -1      7243    3    0    1
 -2      1710      1832      2541      2583
 -1      7244    3    0    1
 -2      2353      1852      2541      2583
 -1      7245    3    0    1
 -2       496        12      2373      2674
 -1      7246    3    0    1
 -2      1892      1449      1906      2673
 -1      7247    3    0    1
 -2      1445      1673      2384      2675
 -1      7248    3    0    1
 -2      2205       374      2741      2753
 -1      7249    3    0    1
 -2      2087        12      2405      2674
 -1      7250    3    0    1
 -2      1445      2384      2572      2675
 -1      7251    3    0    1
 -2      1449      1892      2458      2673
 -1      7252    3    0    1
 -2      1458      1951      2198      2755
 -1      7253    3    0    1
 -2      1906      1449      2156      2673
 -1      7254    3    0    1
 -2       410      2323      2326      1356
 -1      7255    3    0    1
 -2       822      2553      2611      2689
 -1      7256    3    0    1
 -2      1309      1119      2701      2719
 -1      7257    3    0    1
 -2      2145      2162      2178      2587
 -1      7258    3    0    1
 -2       154       354      2482      2691
 -1      7259    3    0    1
 -2       154      2482      2558      2691
 -1      7260    3    0    1
 -2      2145       486      2242      2587
 -1      7261    3    0    1
 -2       486      2145      2178      2587
 -1      7262    3    0    1
 -2      1583      1859      2555      2588
 -1      7263    3    0    1
 -2      1859      1803      2555      2588
 -1      7264    3    0    1
 -2        98      2169      2469      2589
 -1      7265    3    0    1
 -2      2113        98      2469      2589
 -1      7266    3    0    1
 -2        83       364       592      2589
 -1      7267    3    0    1
 -2       592       364      2113      2589
 -1      7268    3    0    1
 -2        98       364      2169      2589
 -1      7269    3    0    1
 -2       364        98      2113      2589
 -1      7270    3    0    1
 -2      2169        83      2350      2589
 -1      7271    3    0    1
 -2        83      2008      2350      2589
 -1      7272    3    0    1
 -2      1974       351      2459      2668
 -1      7273    3    0    1
 -2      1265       283      2334      2590
 -1      7274    3    0    1
 -2       283       388      2334      2590
 -1      7275    3    0    1
 -2       295       388      1270      2590
 -1      7276    3    0    1
 -2       283      1265      1270      2590
 -1      7277    3    0    1
 -2       388       283      1270      2590
 -1      7278    3    0    1
 -2      1923       831      2554      2681
 -1      7279    3    0    1
 -2       283      2131      2334      2591
 -1      7280    3    0    1
 -2       283       856      2131      2591
 -1      7281    3    0    1
 -2       388       283      2334      2591
 -1      7282    3    0    1
 -2       433       831      1923      2681
 -1      7283    3    0    1
 -2       433      1923      2528      2681
 -1      7284    3    0    1
 -2      1524      1435      2280      2717
 -1      7285    3    0    1
 -2       856       388       879      2591
 -1      7286    3    0    1
 -2       283       388       856      2591
 -1      7287    3    0    1
 -2      1067       301      2403      2592
 -1      7288    3    0    1
 -2      1276       301      1067      2592
 -1      7289    3    0    1
 -2       301      1303      1114      2592
 -1      7290    3    0    1
 -2       301      1114      1718      2592
 -1      7291    3    0    1
 -2      1718      1114      2408      2592
 -1      7292    3    0    1
 -2       778      2153      2418      2641
 -1      7293    3    0    1
 -2       101        94      1176      2593
 -1      7294    3    0    1
 -2      2006      2029      2301      2594
 -1      7295    3    0    1
 -2       420      1542      1789      2614
 -1      7296    3    0    1
 -2      2282      1648      2644      2703
 -1      7297    3    0    1
 -2      1343      1091      2382      2595
 -1      7298    3    0    1
 -2      1343       912      1091      2595
 -1      7299    3    0    1
 -2       912      1343       943      2595
 -1      7300    3    0    1
 -2      2174      1343      2382      2595
 -1      7301    3    0    1
 -2       943      1343      2174      2595
 -1      7302    3    0    1
 -2      2274      2160      2618      2619
 -1      7303    3    0    1
 -2      2261      2396      2619      2651
 -1      7304    3    0    1
 -2      1734        18      2557      2597
 -1      7305    3    0    1
 -2      1582        18      2226      2597
 -1      7306    3    0    1
 -2        18       952      2226      2597
 -1      7307    3    0    1
 -2      1898      1734      2461      2597
 -1      7308    3    0    1
 -2       487      1734      1898      2597
 -1      7309    3    0    1
 -2       487       952      1734      2597
 -1      7310    3    0    1
 -2       952        18      1734      2597
 -1      7311    3    0    1
 -2       355       377      1974      2664
 -1      7312    3    0    1
 -2      1430      1510      2075      2700
 -1      7313    3    0    1
 -2       377       355      1013      2664
 -1      7314    3    0    1
 -2       819       826      1045      2669
 -1      7315    3    0    1
 -2       140      2166      2599      2580
 -1      7316    3    0    1
 -2       140       358      2283      2599
 -1      7317    3    0    1
 -2      2282      2075      2370      2700
 -1      7318    3    0    1
 -2      2050      2370      2648      2700
 -1      7319    3    0    1
 -2       358      1006      2283      2599
 -1      7320    3    0    1
 -2      1400      1377      2585      2695
 -1      7321    3    0    1
 -2       819      1045      1737      2669
 -1      7322    3    0    1
 -2      2336       449      2740      2760
 -1      7323    3    0    1
 -2       292       428      2680      2692
 -1      7324    3    0    1
 -2       496      2502      1582        16
 -1      7325    3    0    1
 -2       140       131      1194      2599
 -1      7326    3    0    1
 -2       358       140      1194      2599
 -1      7327    3    0    1
 -2      1006       358      1194      2599
 -1      7328    3    0    1
 -2      1063       292      1065      2602
 -1      7329    3    0    1
 -2       427       428      1063      2602
 -1      7330    3    0    1
 -2       206       205      2045      2603
 -1      7331    3    0    1
 -2       206      2245      1228      2395
 -1      7332    3    0    1
 -2      2245       206      1228      2603
 -1      7333    3    0    1
 -2      1433      2046      2652      2711
 -1      7334    3    0    1
 -2      2046      1491      2652      2711
 -1      7335    3    0    1
 -2       205       206      1748      2603
 -1      7336    3    0    1
 -2       423      1683      2614      2702
 -1      7337    3    0    1
 -2       316       432      2249      2605
 -1      7338    3    0    1
 -2      2049       316      2249      2605
 -1      7339    3    0    1
 -2      1789       420      2614      2702
 -1      7340    3    0    1
 -2      1683      1746      2614      2702
 -1      7341    3    0    1
 -2      1683      1450      1746      2702
 -1      7342    3    0    1
 -2       420       423      2614      2702
 -1      7343    3    0    1
 -2      1632      1450      1816      2702
 -1      7344    3    0    1
 -2      1504      2339      2353      2607
 -1      7345    3    0    1
 -2      1832      1504      2353      2607
 -1      7346    3    0    1
 -2       338      1863      2445      2608
 -1      7347    3    0    1
 -2       514      1139      2343      2609
 -1      7348    3    0    1
 -2      1139       514      2252      2609
 -1      7349    3    0    1
 -2      2252       514      2343      2609
 -1      7350    3    0    1
 -2      1139      1972      2343      2609
 -1      7351    3    0    1
 -2       455      1145      1431      2609
 -1      7352    3    0    1
 -2      1987       451      2084      2609
 -1      7353    3    0    1
 -2        32       451      1987      2609
 -1      7354    3    0    1
 -2      1139        32      1987      2609
 -1      7355    3    0    1
 -2      1139      1987      2404      2609
 -1      7356    3    0    1
 -2      1972      1139      2404      2609
 -1      7357    3    0    1
 -2       455      1431      2084      2609
 -1      7358    3    0    1
 -2       451       455      2084      2609
 -1      7359    3    0    1
 -2       455      1139      1145      2609
 -1      7360    3    0    1
 -2       451        32      1139      2609
 -1      7361    3    0    1
 -2       455       451      1139      2609
 -1      7362    3    0    1
 -2      1836      1834      1842      2611
 -1      7363    3    0    1
 -2      1436       822      2553      2611
 -1      7364    3    0    1
 -2       822      1436      2220      2611
 -1      7365    3    0    1
 -2      2236       300      2521      2690
 -1      7366    3    0    1
 -2      2559      2178      2587      2690
 -1      7367    3    0    1
 -2      2038      1689      2187      2612
 -1      7368    3    0    1
 -2      1554      2038      2187      2612
 -1      7369    3    0    1
 -2      2038      1554      2537      2612
 -1      7370    3    0    1
 -2      2217      2051      2261      2613
 -1      7371    3    0    1
 -2      2261      2051      2396      2613
 -1      7372    3    0    1
 -2      2396      2217      2595      2613
 -1      7373    3    0    1
 -2      1956      1982      2447      2698
 -1      7374    3    0    1
 -2      2051      2217      2396      2613
 -1      7375    3    0    1
 -2      1384      1683      1746      2614
 -1      7376    3    0    1
 -2      2285       423      2504      2614
 -1      7377    3    0    1
 -2      1683      1384      2103      2614
 -1      7378    3    0    1
 -2      2103      1384      2504      2614
 -1      7379    3    0    1
 -2       423      2103      2504      2614
 -1      7380    3    0    1
 -2      1648      2050      2431      2703
 -1      7381    3    0    1
 -2       423      1683      2103      2614
 -1      7382    3    0    1
 -2       420       423       965      2615
 -1      7383    3    0    1
 -2       511      1138      1754      2617
 -1      7384    3    0    1
 -2      1968      1138      2284      2617
 -1      7385    3    0    1
 -2      1138      1968      2165      2617
 -1      7386    3    0    1
 -2      2100       353      2731      2756
 -1      7387    3    0    1
 -2      2171      1588      2451      2742
 -1      7388    3    0    1
 -2      2051      2138      2524      2618
 -1      7389    3    0    1
 -2      2419      1705      2475      2620
 -1      7390    3    0    1
 -2      1657      2419      2475      2620
 -1      7391    3    0    1
 -2      2274      2160      2466      2704
 -1      7392    3    0    1
 -2      2274      2466      2616      2618
 -1      7393    3    0    1
 -2      2682      2717      2724      2726
 -1      7394    3    0    1
 -2      1414      1484      2616      2618
 -1      7395    3    0    1
 -2      2466      1414      2616      2618
 -1      7396    3    0    1
 -2      1441      1705      2620      2705
 -1      7397    3    0    1
 -2      2246      1674      2620      2705
 -1      7398    3    0    1
 -2      2217      2262      2399      2705
 -1      7399    3    0    1
 -2      2032      1420      2627      2706
 -1      7400    3    0    1
 -2       353      2100      2601      2756
 -1      7401    3    0    1
 -2      1813      1963      2302      2621
 -1      7402    3    0    1
 -2      2302      1963      2598      2621
 -1      7403    3    0    1
 -2      2014      1475      2302      2621
 -1      7404    3    0    1
 -2      1475      2014      2468      2621
 -1      7405    3    0    1
 -2      1754       511      2617      2622
 -1      7406    3    0    1
 -2       511      1754      1820      2622
 -1      7407    3    0    1
 -2      2284      1754      2617      2622
 -1      7408    3    0    1
 -2      1820      1754      2284      2622
 -1      7409    3    0    1
 -2       562       580      2300      2623
 -1      7410    3    0    1
 -2      2300       580      2357      2623
 -1      7411    3    0    1
 -2      2357       971       580      1166
 -1      7412    3    0    1
 -2      1648      2050      2370      2648
 -1      7413    3    0    1
 -2      2623       580       971       562
 -1      7414    3    0    1
 -2       971      2357       580      2623
 -1      7415    3    0    1
 -2      1308      2433      2635      2709
 -1      7416    3    0    1
 -2       122      2672      2713      2771
 -1      7417    3    0    1
 -2      1036      2371      1362      1370
 -1      7418    3    0    1
 -2      1826      2440      2750      2769
 -1      7419    3    0    1
 -2       367       359      1939      2733
 -1      7420    3    0    1
 -2      1951      2119      2584      2733
 -1      7421    3    0    1
 -2       441       366       807      2708
 -1      7422    3    0    1
 -2      1414      1673      2571      2628
 -1      7423    3    0    1
 -2       326      1322      1086      2709
 -1      7424    3    0    1
 -2      2447      1733      2596      2650
 -1      7425    3    0    1
 -2      2166       131      2599      2699
 -1      7426    3    0    1
 -2      1040       366      2624      2629
 -1      7427    3    0    1
 -2       366      1040      2454      2629
 -1      7428    3    0    1
 -2      2454      1040      2624      2629
 -1      7429    3    0    1
 -2      2433      2214      2635      2709
 -1      7430    3    0    1
 -2       118       640      2546      2630
 -1      7431    3    0    1
 -2       640      1681      2630       663
 -1      7432    3    0    1
 -2       118       139       663      2630
 -1      7433    3    0    1
 -2       640       118       663      2630
 -1      7434    3    0    1
 -2      2069       639      2130      2631
 -1      7435    3    0    1
 -2       639       117      2130      2631
 -1      7436    3    0    1
 -2       363       117       639      2631
 -1      7437    3    0    1
 -2       616       363       639      2631
 -1      7438    3    0    1
 -2      1127      2361      2550      2632
 -1      7439    3    0    1
 -2      2330      1127      2550      2632
 -1      7440    3    0    1
 -2      1128       483      2363      2632
 -1      7441    3    0    1
 -2       483      1128      2355      2632
 -1      7442    3    0    1
 -2      2355      1128      2363      2632
 -1      7443    3    0    1
 -2      1390       338      1528      2633
 -1      7444    3    0    1
 -2       341      1390      1528      2633
 -1      7445    3    0    1
 -2      1390       341      1756      2633
 -1      7446    3    0    1
 -2      1756       341      2549      2633
 -1      7447    3    0    1
 -2       338       341      1528      2633
 -1      7448    3    0    1
 -2       356       151       688      2634
 -1      7449    3    0    1
 -2      1824      1670      2214      2635
 -1      7450    3    0    1
 -2      2388      1321      2433      2635
 -1      7451    3    0    1
 -2      2214      2388      2433      2635
 -1      7452    3    0    1
 -2      1321      1308      2433      2635
 -1      7453    3    0    1
 -2      1737      1248      2579      2710
 -1      7454    3    0    1
 -2       380       381      1737      2710
 -1      7455    3    0    1
 -2      1737      2190       261      2710
 -1      7456    3    0    1
 -2      2051      1975      2105      2636
 -1      7457    3    0    1
 -2      2105      1975      2556      2636
 -1      7458    3    0    1
 -2      2262      1975      2575      2636
 -1      7459    3    0    1
 -2      1679      1674      2246      2637
 -1      7460    3    0    1
 -2      2246      1674      2399      2637
 -1      7461    3    0    1
 -2      2600      1679      1674       219
 -1      7462    3    0    1
 -2      1679      2600      1674      2637
 -1      7463    3    0    1
 -2       655      2076      2135      2638
 -1      7464    3    0    1
 -2      1791       655      2135      2638
 -1      7465    3    0    1
 -2      2096      1417      2429      2638
 -1      7466    3    0    1
 -2      1417      2096      2127      2638
 -1      7467    3    0    1
 -2       655      1417      2076      2638
 -1      7468    3    0    1
 -2      2076      1417      2127      2638
 -1      7469    3    0    1
 -2       655      1000      2429      2638
 -1      7470    3    0    1
 -2      1417       655      2429      2638
 -1      7471    3    0    1
 -2      2318       591      2490      2639
 -1      7472    3    0    1
 -2      2417       101       592       411
 -1      7473    3    0    1
 -2       101       592       615      2640
 -1      7474    3    0    1
 -2       101      2417       592      2640
 -1      7475    3    0    1
 -2      2282      1657      2419      2642
 -1      7476    3    0    1
 -2      2370      2282      2419      2642
 -1      7477    3    0    1
 -2      1394      1818      2075      2642
 -1      7478    3    0    1
 -2      1919      1818      2181      2642
 -1      7479    3    0    1
 -2      1743      1919      2181      2642
 -1      7480    3    0    1
 -2      2075      2282      2370      2642
 -1      7481    3    0    1
 -2      1657      1919      2475      2642
 -1      7482    3    0    1
 -2      1657      1818      1919      2642
 -1      7483    3    0    1
 -2      1818      1657      2075      2642
 -1      7484    3    0    1
 -2      2075      1657      2282      2642
 -1      7485    3    0    1
 -2       168       166      1978      2643
 -1      7486    3    0    1
 -2       166       168      1015      2643
 -1      7487    3    0    1
 -2       166      1209      1841      2643
 -1      7488    3    0    1
 -2       166      1015      1209      2643
 -1      7489    3    0    1
 -2       168       174      1015      2643
 -1      7490    3    0    1
 -2      1016      2205      1346      1349
 -1      7491    3    0    1
 -2       194      2464      1363      1369
 -1      7492    3    0    1
 -2      1408      1537      2574      2751
 -1      7493    3    0    1
 -2      1408      2574      2750      2751
 -1      7494    3    0    1
 -2       372       186      2645      2751
 -1      7495    3    0    1
 -2      1989      2171      2451      2742
 -1      7496    3    0    1
 -2      2198      1951      2584      2754
 -1      7497    3    0    1
 -2       396       395      2767      2773
 -1      7498    3    0    1
 -2       454       396      2290      2767
 -1      7499    3    0    1
 -2      2032      2295      2513      2757
 -1      7500    3    0    1
 -2      2440      1408      2750      2751
 -1      7501    3    0    1
 -2      1579      2148      2189      2646
 -1      7502    3    0    1
 -2      2427      2189      2463      2646
 -1      7503    3    0    1
 -2      1015      1579      2643      2646
 -1      7504    3    0    1
 -2       174      1015      2643      2646
 -1      7505    3    0    1
 -2      1015       174      1579      2646
 -1      7506    3    0    1
 -2      2189      2148      2463      2646
 -1      7507    3    0    1
 -2       174       189      2463      2646
 -1      7508    3    0    1
 -2      2148       174      2463      2646
 -1      7509    3    0    1
 -2       593      1175      1356      1360
 -1      7510    3    0    1
 -2      1741      1459      2605      2701
 -1      7511    3    0    1
 -2       316       432      2605      2701
 -1      7512    3    0    1
 -2      2011      1950      2605      2701
 -1      7513    3    0    1
 -2      2262      1441      2705      2720
 -1      7514    3    0    1
 -2       366      1869      2629      2649
 -1      7515    3    0    1
 -2       366       243      1869      2649
 -1      7516    3    0    1
 -2       910      2448      2619      2651
 -1      7517    3    0    1
 -2       910       942      2448      2651
 -1      7518    3    0    1
 -2      2619      1342       910      2651
 -1      7519    3    0    1
 -2       910      1342       942      2651
 -1      7520    3    0    1
 -2      1342      2619       910      1088
 -1      7521    3    0    1
 -2      2234       699      2564      2712
 -1      7522    3    0    1
 -2      1013      2234      2664      2712
 -1      7523    3    0    1
 -2       173      1013      2664      2712
 -1      7524    3    0    1
 -2       173      2664      2691      2712
 -1      7525    3    0    1
 -2      1794      1202      2691      2712
 -1      7526    3    0    1
 -2      1624      1590      1846      2653
 -1      7527    3    0    1
 -2      1590      1624      1667      2653
 -1      7528    3    0    1
 -2      1667      1624      1844      2653
 -1      7529    3    0    1
 -2       346      1667      1844      2653
 -1      7530    3    0    1
 -2      1590      1667      2453      2653
 -1      7531    3    0    1
 -2      1040      1248      2454      2654
 -1      7532    3    0    1
 -2      1248      1040       802      2654
 -1      7533    3    0    1
 -2      1416      2530      1704      2683
 -1      7534    3    0    1
 -2      1785      1386      2655      2684
 -1      7535    3    0    1
 -2      1487      1580      2128      2684
 -1      7536    3    0    1
 -2      1524      1416      1785      2655
 -1      7537    3    0    1
 -2      1571      1398      2210      2656
 -1      7538    3    0    1
 -2      1398      1571      2112      2656
 -1      7539    3    0    1
 -2      1485      1744      1911      2656
 -1      7540    3    0    1
 -2      1911      1571      2604      2656
 -1      7541    3    0    1
 -2      1485      1911      2604      2656
 -1      7542    3    0    1
 -2      1671      1021      2547      2657
 -1      7543    3    0    1
 -2       726      1218      2439      2657
 -1      7544    3    0    1
 -2      2439      1218      2463      2657
 -1      7545    3    0    1
 -2      2148      1671      2189      2657
 -1      7546    3    0    1
 -2      1671      2106      2189      2657
 -1      7547    3    0    1
 -2      2189      2106      2463      2657
 -1      7548    3    0    1
 -2      2148      2189      2463      2657
 -1      7549    3    0    1
 -2      1483      1774      2150      2658
 -1      7550    3    0    1
 -2       909       941      1815      2658
 -1      7551    3    0    1
 -2      1774       941      2467      2658
 -1      7552    3    0    1
 -2      2150      1774      2467      2658
 -1      7553    3    0    1
 -2      1341       909      1087      2658
 -1      7554    3    0    1
 -2       941      1341      2467      2658
 -1      7555    3    0    1
 -2       909      1341       941      2658
 -1      7556    3    0    1
 -2      1892      1819      1906      2659
 -1      7557    3    0    1
 -2      1449      1892      1906      2659
 -1      7558    3    0    1
 -2      1819      1892      2446      2659
 -1      7559    3    0    1
 -2       846      1056      1810      2662
 -1      7560    3    0    1
 -2      1922      2473      2552      2659
 -1      7561    3    0    1
 -2      2446      1922      2552      2659
 -1      7562    3    0    1
 -2      1264      1729      2476      2662
 -1      7563    3    0    1
 -2       846      1810      2352      2662
 -1      7564    3    0    1
 -2      1892      1922      2446      2659
 -1      7565    3    0    1
 -2      2458      1892      2659      2661
 -1      7566    3    0    1
 -2      1894      2458      2659      2661
 -1      7567    3    0    1
 -2      1888       425      2071      2661
 -1      7568    3    0    1
 -2      1894      1888      2071      2661
 -1      7569    3    0    1
 -2       425      1888      2660      2661
 -1      7570    3    0    1
 -2      1888      1894      2039      2661
 -1      7571    3    0    1
 -2      2039      1894      2659      2661
 -1      7572    3    0    1
 -2      2473      1888      2659      2661
 -1      7573    3    0    1
 -2      1888      2473      2660      2661
 -1      7574    3    0    1
 -2      1888      2039      2659      2661
 -1      7575    3    0    1
 -2       651       998      2480      2663
 -1      7576    3    0    1
 -2       651       658      1194      2663
 -1      7577    3    0    1
 -2      1194      2358      2599      2663
 -1      7578    3    0    1
 -2      1194       658      2358      2663
 -1      7579    3    0    1
 -2       377      1013      1211      2664
 -1      7580    3    0    1
 -2      1211      1013      2234      2664
 -1      7581    3    0    1
 -2      1976       428      2602      2692
 -1      7582    3    0    1
 -2       428       879      2680      2692
 -1      7583    3    0    1
 -2       355       173      1013      2664
 -1      7584    3    0    1
 -2      2052      1377      2213      2665
 -1      7585    3    0    1
 -2      1990      2052      2213      2665
 -1      7586    3    0    1
 -2       273      2738      1372      1373
 -1      7587    3    0    1
 -2      1273      1270      2488      2667
 -1      7588    3    0    1
 -2      2488      1270      2590      2667
 -1      7589    3    0    1
 -2      1270      1536      2590      2667
 -1      7590    3    0    1
 -2      1270      1273      1536      2667
 -1      7591    3    0    1
 -2       293      1273      2527      2667
 -1      7592    3    0    1
 -2      1273       293      1536      2667
 -1      7593    3    0    1
 -2      1536       293      2527      2667
 -1      7594    3    0    1
 -2       375       351      2491      2668
 -1      7595    3    0    1
 -2      1977       375      2491      2668
 -1      7596    3    0    1
 -2       375      1977      2459      2668
 -1      7597    3    0    1
 -2       351       375      2459      2668
 -1      7598    3    0    1
 -2      1211       377      2664      2668
 -1      7599    3    0    1
 -2      2234      1211      2664      2668
 -1      7600    3    0    1
 -2      1211      2234      2491      2668
 -1      7601    3    0    1
 -2       351       377      1211      2668
 -1      7602    3    0    1
 -2      1258       826      2387      2669
 -1      7603    3    0    1
 -2      1045      1258      2387      2669
 -1      7604    3    0    1
 -2      1258      1045       826      2669
 -1      7605    3    0    1
 -2       826       819      2471      2669
 -1      7606    3    0    1
 -2      2259       826      2471      2669
 -1      7607    3    0    1
 -2      2037      2299      2329      2670
 -1      7608    3    0    1
 -2       774      1034      1985      2671
 -1      7609    3    0    1
 -2      1985      1034      2206      2671
 -1      7610    3    0    1
 -2       774      2496      1035       776
 -1      7611    3    0    1
 -2      2671      1238       774      1034
 -1      7612    3    0    1
 -2      1034      1238      2206      2671
 -1      7613    3    0    1
 -2      2206      1238      2496      2671
 -1      7614    3    0    1
 -2       774      2496      1238      2671
 -1      7615    3    0    1
 -2      1191      1001       658      2714
 -1      7616    3    0    1
 -2       243       808      1869      2716
 -1      7617    3    0    1
 -2      2324       994      2349      2759
 -1      7618    3    0    1
 -2      1951      2584      2754      2755
 -1      7619    3    0    1
 -2       808       381      2710      2716
 -1      7620    3    0    1
 -2       381       243      2649      2716
 -1      7621    3    0    1
 -2      1199       675      2358      2715
 -1      7622    3    0    1
 -2      2715      2500      1347      1367
 -1      7623    3    0    1
 -2      2528       808      2681      2716
 -1      7624    3    0    1
 -2      2295      2032      2706      2757
 -1      7625    3    0    1
 -2      2152      2748      2761      2765
 -1      7626    3    0    1
 -2      2198      1951      2754      2755
 -1      7627    3    0    1
 -2      2681       808      2710      2716
 -1      7628    3    0    1
 -2      1065       300      2521      2677
 -1      7629    3    0    1
 -2      2247       292      2602      2677
 -1      7630    3    0    1
 -2       292      1065      2602      2677
 -1      7631    3    0    1
 -2      1063      2519      2602      2677
 -1      7632    3    0    1
 -2      1065      1063      2602      2677
 -1      7633    3    0    1
 -2      1063      1065      2519      2677
 -1      7634    3    0    1
 -2       292       300      1065      2677
 -1      7635    3    0    1
 -2      2196      1468      2243      2678
 -1      7636    3    0    1
 -2      2196      2243      2308      2678
 -1      7637    3    0    1
 -2      2308      2249      2606      2678
 -1      7638    3    0    1
 -2      2196      2308      2606      2678
 -1      7639    3    0    1
 -2      2243      2049      2308      2678
 -1      7640    3    0    1
 -2      2066      2526      2529      2679
 -1      7641    3    0    1
 -2      1621      1546      2066      2679
 -1      7642    3    0    1
 -2      1546      1621      1723      2679
 -1      7643    3    0    1
 -2      1621      2066      2529      2679
 -1      7644    3    0    1
 -2       880       397      2527      2680
 -1      7645    3    0    1
 -2       880      2511      2676      2680
 -1      7646    3    0    1
 -2      2247       880      2676      2680
 -1      7647    3    0    1
 -2       293       295      1536      2680
 -1      7648    3    0    1
 -2      1536       295      2591      2680
 -1      7649    3    0    1
 -2       295       293       880      2680
 -1      7650    3    0    1
 -2       368      1690      2287      2693
 -1      7651    3    0    1
 -2       295       879      2591      2680
 -1      7652    3    0    1
 -2       879       295       880      2680
 -1      7653    3    0    1
 -2       428       879       880      2680
 -1      7654    3    0    1
 -2       292       880      2247      2680
 -1      7655    3    0    1
 -2       292       428       880      2680
 -1      7656    3    0    1
 -2       433       436       831      2681
 -1      7657    3    0    1
 -2       436       808       831      2681
 -1      7658    3    0    1
 -2      1391      1433      1486      2711
 -1      7659    3    0    1
 -2      1663      1704      2576      2682
 -1      7660    3    0    1
 -2      2032      1420      2688      2718
 -1      7661    3    0    1
 -2      1704      1416      2576      2682
 -1      7662    3    0    1
 -2      2128      1386      2276      2684
 -1      7663    3    0    1
 -2      1487      2128      2276      2684
 -1      7664    3    0    1
 -2      1386      2061      2655      2684
 -1      7665    3    0    1
 -2      2061      1386      2128      2684
 -1      7666    3    0    1
 -2      2128      1580      2532      2684
 -1      7667    3    0    1
 -2      2128      2532      2655      2684
 -1      7668    3    0    1
 -2      2061      2128      2655      2684
 -1      7669    3    0    1
 -2      2167       416      2180      2685
 -1      7670    3    0    1
 -2      1733      2162      2178      2685
 -1      7671    3    0    1
 -2      2162      1733      2167      2685
 -1      7672    3    0    1
 -2       951      2167      2178      2685
 -1      7673    3    0    1
 -2       951       416      2167      2685
 -1      7674    3    0    1
 -2      2167      1733      2178      2685
 -1      7675    3    0    1
 -2      1814       798      2279      2686
 -1      7676    3    0    1
 -2       959       957      2132      2687
 -1      7677    3    0    1
 -2       957       959      1924      2687
 -1      7678    3    0    1
 -2        31      2132      2548      2687
 -1      7679    3    0    1
 -2       959        31      2548      2687
 -1      7680    3    0    1
 -2        31       959      2132      2687
 -1      7681    3    0    1
 -2       959      1754      1820       511
 -1      7682    3    0    1
 -2      1754       959      1820      2687
 -1      7683    3    0    1
 -2      1820       959      2381      2687
 -1      7684    3    0    1
 -2      2381       959      2548      2687
 -1      7685    3    0    1
 -2      2032      1446      2551      2688
 -1      7686    3    0    1
 -2       940       907      2011      2719
 -1      7687    3    0    1
 -2       856      2131      2591      2696
 -1      7688    3    0    1
 -2       907      1309      2701      2719
 -1      7689    3    0    1
 -2       434      1834      2023      2689
 -1      7690    3    0    1
 -2       434      1047      1834      2689
 -1      7691    3    0    1
 -2      1834      2220      2611      2689
 -1      7692    3    0    1
 -2      2521      2559      2587      2690
 -1      7693    3    0    1
 -2       950      2236      2242      2690
 -1      7694    3    0    1
 -2      2178       486      2587      2690
 -1      7695    3    0    1
 -2       486      2242      2587      2690
 -1      7696    3    0    1
 -2       486       950      2242      2690
 -1      7697    3    0    1
 -2      2236      2521      2587      2690
 -1      7698    3    0    1
 -2      2242      2236      2587      2690
 -1      7699    3    0    1
 -2      1202      1006      2444      2691
 -1      7700    3    0    1
 -2       354       173      2482      2691
 -1      7701    3    0    1
 -2      2482       173      2664      2691
 -1      7702    3    0    1
 -2      2283      1006      2558      2691
 -1      7703    3    0    1
 -2      1006      2283      2444      2691
 -1      7704    3    0    1
 -2      2032      1420      2706      2757
 -1      7705    3    0    1
 -2       360       122      2672      2713
 -1      7706    3    0    1
 -2       354       154      1202      2691
 -1      7707    3    0    1
 -2       665       666      1199      1367
 -1      7708    3    0    1
 -2      2153      1033      2570      2693
 -1      7709    3    0    1
 -2       222       368      1239      2693
 -1      7710    3    0    1
 -2       368      1033      1239      2693
 -1      7711    3    0    1
 -2      1239      1033      2153      2693
 -1      7712    3    0    1
 -2      1239      2153      2641      2693
 -1      7713    3    0    1
 -2       222      1239      2506      2693
 -1      7714    3    0    1
 -2      2506      1239      2641      2693
 -1      7715    3    0    1
 -2       168       712      2289      2694
 -1      7716    3    0    1
 -2       173       711      2482      2694
 -1      7717    3    0    1
 -2       355       173      2482      2694
 -1      7718    3    0    1
 -2       173       355       711      2694
 -1      7719    3    0    1
 -2       377       355      1974      2694
 -1      7720    3    0    1
 -2       355       377       711      2694
 -1      7721    3    0    1
 -2       168       711       712      2694
 -1      7722    3    0    1
 -2       711       377       712      2694
 -1      7723    3    0    1
 -2       712       377      1974      2694
 -1      7724    3    0    1
 -2       429       856       879      2696
 -1      7725    3    0    1
 -2       427       429       879      2696
 -1      7726    3    0    1
 -2       912       943      1122      2697
 -1      7727    3    0    1
 -2      1122       943      2613      2697
 -1      7728    3    0    1
 -2       291      2473      2660      2698
 -1      7729    3    0    1
 -2      2473      1922      2552      2698
 -1      7730    3    0    1
 -2      1922      1982      2552      2698
 -1      7731    3    0    1
 -2      1982      1922      2447      2698
 -1      7732    3    0    1
 -2      2596      2447      2650      2698
 -1      7733    3    0    1
 -2      2650       291      2660      2698
 -1      7734    3    0    1
 -2      2596      2650      2660      2698
 -1      7735    3    0    1
 -2       291      1922      2473      2698
 -1      7736    3    0    1
 -2      2447       291      2650      2698
 -1      7737    3    0    1
 -2      1922       291      2447      2698
 -1      7738    3    0    1
 -2      2599      1194      2663      2699
 -1      7739    3    0    1
 -2      1748      1430      2603      2700
 -1      7740    3    0    1
 -2       206      2603      2648      2700
 -1      7741    3    0    1
 -2       206      1748      2603      2700
 -1      7742    3    0    1
 -2      1510      1748      2648      2700
 -1      7743    3    0    1
 -2      2370      1510      2648      2700
 -1      7744    3    0    1
 -2      1748       206      2648      2700
 -1      7745    3    0    1
 -2       432      1119      2605      2701
 -1      7746    3    0    1
 -2       432       316      1119      2701
 -1      7747    3    0    1
 -2      2262      2217      2575      2720
 -1      7748    3    0    1
 -2      2217      2262      2705      2720
 -1      7749    3    0    1
 -2       420      1789      2450      2702
 -1      7750    3    0    1
 -2      1450      1789      2614      2702
 -1      7751    3    0    1
 -2      1746      1450      2614      2702
 -1      7752    3    0    1
 -2      2431      2050      2520      2703
 -1      7753    3    0    1
 -2      1648      1674      2644      2703
 -1      7754    3    0    1
 -2      1674      1648      2431      2703
 -1      7755    3    0    1
 -2      2105      2138      2618      2704
 -1      7756    3    0    1
 -2      2105      2704      1414      2138
 -1      7757    3    0    1
 -2      1885      2627      2707      2721
 -1      7758    3    0    1
 -2      1674      1441      2620      2705
 -1      7759    3    0    1
 -2      2262      1674      2399      2705
 -1      7760    3    0    1
 -2      2627      1377      2707      2721
 -1      7761    3    0    1
 -2      1441      1674      2262      2705
 -1      7762    3    0    1
 -2       349      2724      2726      2727
 -1      7763    3    0    1
 -2      1470      1767      2005      2727
 -1      7764    3    0    1
 -2      2449      1016      1348      2741
 -1      7765    3    0    1
 -2      1201       349      1720      2727
 -1      7766    3    0    1
 -2      2280       349      2726      2727
 -1      7767    3    0    1
 -2      1377      1400      2213      2707
 -1      7768    3    0    1
 -2      2337      1588      2707      2722
 -1      7769    3    0    1
 -2      1951      2584      2755      2758
 -1      7770    3    0    1
 -2      2734      1884      2761      2765
 -1      7771    3    0    1
 -2      1869       807      2629      2708
 -1      7772    3    0    1
 -2       807      1869      2157      2708
 -1      7773    3    0    1
 -2       784      2157      2625      2708
 -1      7774    3    0    1
 -2       784       807      2157      2708
 -1      7775    3    0    1
 -2       226       784      2625      2708
 -1      7776    3    0    1
 -2       226       441       807      2708
 -1      7777    3    0    1
 -2       784       226       807      2708
 -1      7778    3    0    1
 -2      1489       403      2635      2709
 -1      7779    3    0    1
 -2       326      1321       403      2709
 -1      7780    3    0    1
 -2      1322       326       403      2709
 -1      7781    3    0    1
 -2       403      1321      2635      2709
 -1      7782    3    0    1
 -2      1322       403      1489      2709
 -1      7783    3    0    1
 -2       381      1248      1737      2710
 -1      7784    3    0    1
 -2       243       381      2649      2710
 -1      7785    3    0    1
 -2      2454       243      2649      2710
 -1      7786    3    0    1
 -2       831      2190      2681      2710
 -1      7787    3    0    1
 -2       831       380      2190      2710
 -1      7788    3    0    1
 -2      1248       243      2454      2710
 -1      7789    3    0    1
 -2       808       831      2681      2710
 -1      7790    3    0    1
 -2       381       380       808      2710
 -1      7791    3    0    1
 -2       381       243      1248      2710
 -1      7792    3    0    1
 -2       808       380       831      2710
 -1      7793    3    0    1
 -2       354       173      2691      2712
 -1      7794    3    0    1
 -2      1202       354      2691      2712
 -1      7795    3    0    1
 -2       699      1794      1013       682
 -1      7796    3    0    1
 -2       173      1202      1013      2712
 -1      7797    3    0    1
 -2      1013      1794      2712      1202
 -1      7798    3    0    1
 -2      1202       173       354      2712
 -1      7799    3    0    1
 -2       186      2561      2750      2774
 -1      7800    3    0    1
 -2       359       360       994      2759
 -1      7801    3    0    1
 -2       447      2723      2725      2760
 -1      7802    3    0    1
 -2      2672       360      2713      2714
 -1      7803    3    0    1
 -2      1199      2715      1366      1367
 -1      7804    3    0    1
 -2      2500      1199      1347      1367
 -1      7805    3    0    1
 -2      1199      2500      2715      1367
 -1      7806    3    0    1
 -2      1191       658       651      2714
 -1      7807    3    0    1
 -2       658      2358      2663      2714
 -1      7808    3    0    1
 -2       651       658      2663      2714
 -1      7809    3    0    1
 -2       449       447      2360      2740
 -1      7810    3    0    1
 -2       447      1719      2360      2740
 -1      7811    3    0    1
 -2      2513      2295      2729      2757
 -1      7812    3    0    1
 -2       243       381       808      2716
 -1      7813    3    0    1
 -2      2175      2449      1348      2741
 -1      7814    3    0    1
 -2        49      2295      2344      1358
 -1      7815    3    0    1
 -2      1885      2333      2706      2725
 -1      7816    3    0    1
 -2      2061      1524      2655      2717
 -1      7817    3    0    1
 -2      1524      1416      2655      2717
 -1      7818    3    0    1
 -2      2655      1416      2682      2717
 -1      7819    3    0    1
 -2      1719       447      2723      2725
 -1      7820    3    0    1
 -2        49       521      1354      1358
 -1      7821    3    0    1
 -2      2119      1421      2695      2718
 -1      7822    3    0    1
 -2      1421      2551      2688      2718
 -1      7823    3    0    1
 -2      1421      2119      2551      2718
 -1      7824    3    0    1
 -2      2585      1400      2695      2718
 -1      7825    3    0    1
 -2      2688      2585      2695      2718
 -1      7826    3    0    1
 -2      1400      2585      2688      2718
 -1      7827    3    0    1
 -2      2217      2174      2575      2720
 -1      7828    3    0    1
 -2      1441      1705      2705      2720
 -1      7829    3    0    1
 -2      1705      1728      2174      2720
 -1      7830    3    0    1
 -2      1705      1441      1728      2720
 -1      7831    3    0    1
 -2      1705      2174      2217      2720
 -1      7832    3    0    1
 -2      1705      2217      2705      2720
 -1      7833    3    0    1
 -2      2688      1400      2718      2721
 -1      7834    3    0    1
 -2      2627      2688      2718      2721
 -1      7835    3    0    1
 -2      1400      1377      2718      2721
 -1      7836    3    0    1
 -2      1377      2627      2718      2721
 -1      7837    3    0    1
 -2      1885      2337      2707      2722
 -1      7838    3    0    1
 -2      2722      1885      2627      2707
 -1      7839    3    0    1
 -2      1885      2333      2337      2722
 -1      7840    3    0    1
 -2       395      2336      2767      2773
 -1      7841    3    0    1
 -2      2754      2713      2755      2758
 -1      7842    3    0    1
 -2      1939       359      2713      2758
 -1      7843    3    0    1
 -2      1146      1904      2320      1354
 -1      7844    3    0    1
 -2       360       122      2713      2758
 -1      7845    3    0    1
 -2      2584      2754      2755      2758
 -1      7846    3    0    1
 -2      2717      2280      2724      2726
 -1      7847    3    0    1
 -2       389       454      2311      2728
 -1      7848    3    0    1
 -2       249       273      2456      2766
 -1      7849    3    0    1
 -2      1470      2503      2576      2726
 -1      7850    3    0    1
 -2      2586        71      2744      2768
 -1      7851    3    0    1
 -2      2576      2682      2724      2726
 -1      7852    3    0    1
 -2      2576      2503      2682      2726
 -1      7853    3    0    1
 -2      2713       122      2755      2758
 -1      7854    3    0    1
 -2      2005      1720      2726      2727
 -1      7855    3    0    1
 -2      1572      2005      2726      2727
 -1      7856    3    0    1
 -2      1720      2280      2726      2727
 -1      7857    3    0    1
 -2      2032      2321      2513      2729
 -1      7858    3    0    1
 -2      2295      2032      2513      2729
 -1      7859    3    0    1
 -2      2584      1951      2733      2758
 -1      7860    3    0    1
 -2       359       360      2713      2758
 -1      7861    3    0    1
 -2      2032      2295      2321      2729
 -1      7862    3    0    1
 -2      1458      2198      2754      2755
 -1      7863    3    0    1
 -2      2706      1420      2723      2757
 -1      7864    3    0    1
 -2       762       761      1036      1370
 -1      7865    3    0    1
 -2      2336       395      2760      2773
 -1      7866    3    0    1
 -2      2755      2754      2756      2771
 -1      7867    3    0    1
 -2       409       214      2422      1370
 -1      7868    3    0    1
 -2      2471       256      2481      1365
 -1      7869    3    0    1
 -2       361       367      2348      2762
 -1      7870    3    0    1
 -2      1036      2018      1362      2371
 -1      7871    3    0    1
 -2       359       994      1939      2759
 -1      7872    3    0    1
 -2      2584      2119      2732      2733
 -1      7873    3    0    1
 -2      1939       994      2324      2759
 -1      7874    3    0    1
 -2      1886      1245      2423      2736
 -1      7875    3    0    1
 -2      1245      1043      2423      2736
 -1      7876    3    0    1
 -2      1245      1886      2371      2736
 -1      7877    3    0    1
 -2      1036      1245      2371      2736
 -1      7878    3    0    1
 -2       256       241      2481      1365
 -1      7879    3    0    1
 -2      1256      2471      2481      1365
 -1      7880    3    0    1
 -2      2665      1826      2734      2735
 -1      7881    3    0    1
 -2      1990      2665      2734      2735
 -1      7882    3    0    1
 -2       241      2027      1364      1371
 -1      7883    3    0    1
 -2      1245      2736      1370      1371
 -1      7884    3    0    1
 -2      1364       786       241      1371
 -1      7885    3    0    1
 -2      1826      2730      2734      2737
 -1      7886    3    0    1
 -2      2730      2422      2734      2737
 -1      7887    3    0    1
 -2      2471      1049      2738      1373
 -1      7888    3    0    1
 -2      1500       379      2323      2739
 -1      7889    3    0    1
 -2      2295        36      2757      2764
 -1      7890    3    0    1
 -2      2645      2175      1348      2741
 -1      7891    3    0    1
 -2      1989      2456      2742      2766
 -1      7892    3    0    1
 -2       353      2601      1347      2756
 -1      7893    3    0    1
 -2       689       690      1016      1346
 -1      7894    3    0    1
 -2      2205       374      1349      2741
 -1      7895    3    0    1
 -2       372       374      2645      2741
 -1      7896    3    0    1
 -2      1199      1009      2500      1347
 -1      7897    3    0    1
 -2      2100      2129      2753      2770
 -1      7898    3    0    1
 -2      2129      1458      2198      2754
 -1      7899    3    0    1
 -2       373       353      1367      2756
 -1      7900    3    0    1
 -2       186      2561      2645      2750
 -1      7901    3    0    1
 -2       241      2748      2749      2765
 -1      7902    3    0    1
 -2      2746      2745      2767      2773
 -1      7903    3    0    1
 -2      1826      2440      2665      2750
 -1      7904    3    0    1
 -2       186       372      2645      1348
 -1      7905    3    0    1
 -2      1226      2026      1368      1369
 -1      7906    3    0    1
 -2       713       714      1217      1348
 -1      7907    3    0    1
 -2       372       186       713      1348
 -1      7908    3    0    1
 -2       273       389      2456      2742
 -1      7909    3    0    1
 -2       713       186       714      1348
 -1      7910    3    0    1
 -2      2026      2561      1368      1369
 -1      7911    3    0    1
 -2       690      1346       157      1349
 -1      7912    3    0    1
 -2       372      1348      1349      2741
 -1      7913    3    0    1
 -2      1348      1016      1349      2741
 -1      7914    3    0    1
 -2       374       372      1349      2741
 -1      7915    3    0    1
 -2      2456       389      2728      2742
 -1      7916    3    0    1
 -2      2311      2456      2728      2742
 -1      7917    3    0    1
 -2      2375      2311      2728      2742
 -1      7918    3    0    1
 -2      2337      2311      2375      2742
 -1      7919    3    0    1
 -2      1588      2171      2337      2742
 -1      7920    3    0    1
 -2      1588      2337      2375      2742
 -1      7921    3    0    1
 -2      2171      1989      2456      2742
 -1      7922    3    0    1
 -2      2311      2171      2456      2742
 -1      7923    3    0    1
 -2      2171      2311      2337      2742
 -1      7924    3    0    1
 -2       857       396      1066      1350
 -1      7925    3    0    1
 -2       389       273      2456      1351
 -1      7926    3    0    1
 -2       249      2471      2738      1373
 -1      7927    3    0    1
 -2      2738      1049      1372      1373
 -1      7928    3    0    1
 -2       273       389       833      1351
 -1      7929    3    0    1
 -2       273       833       834      1351
 -1      7930    3    0    1
 -2      2332      2359      2456      1351
 -1      7931    3    0    1
 -2      2323       410      2326      2744
 -1      7932    3    0    1
 -2      1719      2360      2362      1352
 -1      7933    3    0    1
 -2       379      2199      2586      2744
 -1      7934    3    0    1
 -2        71       410      2323      2744
 -1      7935    3    0    1
 -2       474       473      1128      1353
 -1      7936    3    0    1
 -2       395       449       473      1353
 -1      7937    3    0    1
 -2       395       473       474      1353
 -1      7938    3    0    1
 -2       395       474      1128      1353
 -1      7939    3    0    1
 -2      2152      1884      2734      2765
 -1      7940    3    0    1
 -2       194      2464      2561      2769
 -1      7941    3    0    1
 -2       960      1146      2320      1354
 -1      7942    3    0    1
 -2      1157      2344      1358      1359
 -1      7943    3    0    1
 -2      2199       379      2739      2744
 -1      7944    3    0    1
 -2        36        49       521      1354
 -1      7945    3    0    1
 -2        36       521       522      1354
 -1      7946    3    0    1
 -2      1904      2295      2320      1354
 -1      7947    3    0    1
 -2      2320      2295      2743      1354
 -1      7948    3    0    1
 -2      2295      1904      2344      1354
 -1      7949    3    0    1
 -2       497      1352       447      1355
 -1      7950    3    0    1
 -2        71       379      2586      2744
 -1      7951    3    0    1
 -2       194       193      2464      2769
 -1      7952    3    0    1
 -2      2371      2422      1362      1370
 -1      7953    3    0    1
 -2       361       594       410      1356
 -1      7954    3    0    1
 -2      2323      2296      2348      1356
 -1      7955    3    0    1
 -2      2326      2323      2348      1356
 -1      7956    3    0    1
 -2       594       361       593      1356
 -1      7957    3    0    1
 -2       994       359      1939      1361
 -1      7958    3    0    1
 -2       379       570      1166      1357
 -1      7959    3    0    1
 -2       396      1066      2290      2747
 -1      7960    3    0    1
 -2       249      1989      2451      2766
 -1      7961    3    0    1
 -2      1175      2296      1356      1360
 -1      7962    3    0    1
 -2       967      1157      2344      1358
 -1      7963    3    0    1
 -2       521       967      1146      1358
 -1      7964    3    0    1
 -2      2344      2295      1354      1358
 -1      7965    3    0    1
 -2      2311      2375      2728      2746
 -1      7966    3    0    1
 -2       410      2326      2744      2768
 -1      7967    3    0    1
 -2      2199      2551      2586      2768
 -1      7968    3    0    1
 -2      2199      2586      2744      2768
 -1      7969    3    0    1
 -2      2728      2375      2745      2746
 -1      7970    3    0    1
 -2      1146      1904      1354      1358
 -1      7971    3    0    1
 -2      1146       967      1904      1358
 -1      7972    3    0    1
 -2      1157       971      2647      1359
 -1      7973    3    0    1
 -2       971        53      1500      1359
 -1      7974    3    0    1
 -2        53       392      2321      1359
 -1      7975    3    0    1
 -2      1500        53      2321      1359
 -1      7976    3    0    1
 -2       546       545       971      1359
 -1      7977    3    0    1
 -2        53       546       392      1359
 -1      7978    3    0    1
 -2      2321      2344      2647      1359
 -1      7979    3    0    1
 -2      1500      2321      2647      1359
 -1      7980    3    0    1
 -2       546        53       545      1359
 -1      7981    3    0    1
 -2       545        53       971      1359
 -1      7982    3    0    1
 -2       367       361      2348      1361
 -1      7983    3    0    1
 -2      2348       361      1360      1361
 -1      7984    3    0    1
 -2      1183       617       994      1361
 -1      7985    3    0    1
 -2       359       618       367      1361
 -1      7986    3    0    1
 -2      2324      1939      2348      1361
 -1      7987    3    0    1
 -2       618       359       617      1361
 -1      7988    3    0    1
 -2       617       359       994      1361
 -1      7989    3    0    1
 -2      1128       395      2336      2747
 -1      7990    3    0    1
 -2      1066      1128      2363      2747
 -1      7991    3    0    1
 -2       396       395      1128      2747
 -1      7992    3    0    1
 -2      1066       396      1128      2747
 -1      7993    3    0    1
 -2      1043      1256      2481      1364
 -1      7994    3    0    1
 -2      2750      2645      2751      2770
 -1      7995    3    0    1
 -2       785      1043      1245      1364
 -1      7996    3    0    1
 -2      2348       367      1361      2762
 -1      7997    3    0    1
 -2      2326      2732      2752      2762
 -1      7998    3    0    1
 -2       367      1939      1361      2762
 -1      7999    3    0    1
 -2       256      2471      2481      2749
 -1      8000    3    0    1
 -2       214      2464      2730      1362
 -1      8001    3    0    1
 -2      2422       214      2730      1362
 -1      8002    3    0    1
 -2      2018      2422      2464      1362
 -1      8003    3    0    1
 -2      2018      2371      2422      1362
 -1      8004    3    0    1
 -2       241       786       365      1371
 -1      8005    3    0    1
 -2      2464      2422      2730      1362
 -1      8006    3    0    1
 -2      2027       241      2481      2749
 -1      8007    3    0    1
 -2      2451      1989      2742      2766
 -1      8008    3    0    1
 -2       256       241      2748      2749
 -1      8009    3    0    1
 -2      2451       256      2748      2749
 -1      8010    3    0    1
 -2      1049      1263      2738      1372
 -1      8011    3    0    1
 -2       786       785      1245      1364
 -1      8012    3    0    1
 -2       273      2332      1351      1372
 -1      8013    3    0    1
 -2       834       273      1351      1372
 -1      8014    3    0    1
 -2      2332       273      2738      1372
 -1      8015    3    0    1
 -2      2481      2027      2736      1364
 -1      8016    3    0    1
 -2      2423      2481      2736      1364
 -1      8017    3    0    1
 -2      2321      2032      2513      2763
 -1      8018    3    0    1
 -2       249       810       256      1365
 -1      8019    3    0    1
 -2       810       249       809      1365
 -1      8020    3    0    1
 -2      2321      2513      2729      2763
 -1      8021    3    0    1
 -2      2672       360      2714      1366
 -1      8022    3    0    1
 -2      1191      1001      2714      1366
 -1      8023    3    0    1
 -2       360      1191      2714      1366
 -1      8024    3    0    1
 -2       641      1001      1191      1366
 -1      8025    3    0    1
 -2       641       122       642      1366
 -1      8026    3    0    1
 -2       360       122       641      1366
 -1      8027    3    0    1
 -2      2672      2714      2715      1366
 -1      8028    3    0    1
 -2       360       641      1191      1366
 -1      8029    3    0    1
 -2      2672       122      1366      1367
 -1      8030    3    0    1
 -2       373       353       665      1367
 -1      8031    3    0    1
 -2       666       353      1347      1367
 -1      8032    3    0    1
 -2       665       353       666      1367
 -1      8033    3    0    1
 -2       410       361      2326      2752
 -1      8034    3    0    1
 -2      1023      1226      2026      1368
 -1      8035    3    0    1
 -2      1023      2026      2175      1368
 -1      8036    3    0    1
 -2      2645       186      1348      1368
 -1      8037    3    0    1
 -2      2175      2645      1348      1368
 -1      8038    3    0    1
 -2      1217      2175      1348      1368
 -1      8039    3    0    1
 -2      1217      1023      2175      1368
 -1      8040    3    0    1
 -2       714      1217      1348      1368
 -1      8041    3    0    1
 -2      1217       714      1023      1368
 -1      8042    3    0    1
 -2      2175      2561      2645      1368
 -1      8043    3    0    1
 -2      2175      2026      2561      1368
 -1      8044    3    0    1
 -2      2464      1030      1363      1369
 -1      8045    3    0    1
 -2      1030       738      1363      1369
 -1      8046    3    0    1
 -2       738      1030      1226      1369
 -1      8047    3    0    1
 -2      2026      2464      2561      1369
 -1      8048    3    0    1
 -2      2371      1036      2736      1370
 -1      8049    3    0    1
 -2      2027       409      2422      1370
 -1      8050    3    0    1
 -2       373      2755      2756      2771
 -1      8051    3    0    1
 -2      2672       373      2756      2771
 -1      8052    3    0    1
 -2       157      2205      2601      2753
 -1      8053    3    0    1
 -2      2100       157      2601      2753
 -1      8054    3    0    1
 -2       122      2713      2755      2771
 -1      8055    3    0    1
 -2       373       122      2755      2771
 -1      8056    3    0    1
 -2      2100      2129      2731      2753
 -1      8057    3    0    1
 -2      2205       374       157      1349
 -1      8058    3    0    1
 -2       374      2205       157      2753
 -1      8059    3    0    1
 -2       157      2100      2731      2753
 -1      8060    3    0    1
 -2       374       157      2731      2753
 -1      8061    3    0    1
 -2      2672       373      1367      2756
 -1      8062    3    0    1
 -2      1347      2715      1367      2756
 -1      8063    3    0    1
 -2      2748      2152      2749      2765
 -1      8064    3    0    1
 -2       359      1939      2713      2759
 -1      8065    3    0    1
 -2      2500      2715      1347      2756
 -1      8066    3    0    1
 -2      2601      2500      1347      2756
 -1      8067    3    0    1
 -2      2027       365      2765      2772
 -1      8068    3    0    1
 -2       409       365      2027      2772
 -1      8069    3    0    1
 -2       365      2748      2765      2772
 -1      8070    3    0    1
 -2      2100      2129      2754      2756
 -1      8071    3    0    1
 -2      2129      2100      2731      2756
 -1      8072    3    0    1
 -2      2754      2129      2755      2756
 -1      8073    3    0    1
 -2       353       373      2731      2756
 -1      8074    3    0    1
 -2      2731       373      2755      2756
 -1      8075    3    0    1
 -2      2129      2731      2755      2756
 -1      8076    3    0    1
 -2      2732      2584      2733      2758
 -1      8077    3    0    1
 -2      1939      2732      2733      2758
 -1      8078    3    0    1
 -2      2584      1939      2713      2758
 -1      8079    3    0    1
 -2      2584      2713      2754      2758
 -1      8080    3    0    1
 -2      1939      2584      2732      2758
 -1      8081    3    0    1
 -2       994       360      1191      2759
 -1      8082    3    0    1
 -2      2745      2336      2746      2760
 -1      8083    3    0    1
 -2      1885      2745      2746      2760
 -1      8084    3    0    1
 -2      2561       194      2769      2774
 -1      8085    3    0    1
 -2       395       449      2336      2760
 -1      8086    3    0    1
 -2      2333      1885      2746      2760
 -1      8087    3    0    1
 -2      1885      2333      2725      2760
 -1      8088    3    0    1
 -2      2725      2336      2740      2760
 -1      8089    3    0    1
 -2      2336      2725      2746      2760
 -1      8090    3    0    1
 -2      2725      2333      2746      2760
 -1      8091    3    0    1
 -2      2456       273      2742      2766
 -1      8092    3    0    1
 -2       361      2326      2752      2762
 -1      8093    3    0    1
 -2      2326       361      2348      2762
 -1      8094    3    0    1
 -2       367       361      2752      2762
 -1      8095    3    0    1
 -2      2733       367      2752      2762
 -1      8096    3    0    1
 -2      2332      1058      1351      1372
 -1      8097    3    0    1
 -2      1263      1058      2332      1372
 -1      8098    3    0    1
 -2      1263      2332      2738      1372
 -1      8099    3    0    1
 -2      2371      2027      2422      1370
 -1      8100    3    0    1
 -2       214       409       761      1370
 -1      8101    3    0    1
 -2      2027      2371      2736      1370
 -1      8102    3    0    1
 -2       214       762      1362      1370
 -1      8103    3    0    1
 -2       214       761       762      1370
 -1      8104    3    0    1
 -2       786      1364       241       785
 -1      8105    3    0    1
 -2       392      2321      2729      2763
 -1      8106    3    0    1
 -2      1446      2032      2199      2763
 -1      8107    3    0    1
 -2      2032      1446      2513      2763
 -1      8108    3    0    1
 -2      1351       834      1058       833
 -1      8109    3    0    1
 -2       834      1351      1058      1372
 -1      8110    3    0    1
 -2       273       249      2738      1373
 -1      8111    3    0    1
 -2      1256      2471      1365      1373
 -1      8112    3    0    1
 -2      1256      1049      2471      1373
 -1      8113    3    0    1
 -2       809      1049      1256      1373
 -1      8114    3    0    1
 -2       809      1256      1365      1373
 -1      8115    3    0    1
 -2      1446      2199      2586      2763
 -1      8116    3    0    1
 -2        53       379      2739      2763
 -1      8117    3    0    1
 -2       379      2199      2739      2763
 -1      8118    3    0    1
 -2      2199       379      2586      2763
 -1      8119    3    0    1
 -2      2199      2321      2739      2763
 -1      8120    3    0    1
 -2      2199      2032      2321      2763
 -1      8121    3    0    1
 -2      2295      2706      2743      2764
 -1      8122    3    0    1
 -2      2706      2725      2743      2764
 -1      8123    3    0    1
 -2      2027       241      2749      2765
 -1      8124    3    0    1
 -2       365       241      2027      2765
 -1      8125    3    0    1
 -2      2336      2745      2746      2773
 -1      8126    3    0    1
 -2       241       365      2748      2765
 -1      8127    3    0    1
 -2       395      2336      2747      2767
 -1      8128    3    0    1
 -2       396       395      2747      2767
 -1      8129    3    0    1
 -2      2750      2440      2751      2774
 -1      8130    3    0    1
 -2       186       194      2561      2774
 -1      8131    3    0    1
 -2      2745      2728      2746      2767
 -1      8132    3    0    1
 -2      2311       454      2359      2767
 -1      8133    3    0    1
 -2       454      2290      2359      2767
 -1      8134    3    0    1
 -2       454      2311      2728      2767
 -1      8135    3    0    1
 -2      2728      2311      2746      2767
 -1      8136    3    0    1
 -2       194      2440      2769      2774
 -1      8137    3    0    1
 -2      2326      2199      2744      2768
 -1      8138    3    0    1
 -2      2199      2119      2551      2768
 -1      8139    3    0    1
 -2      2119      2199      2326      2768
 -1      8140    3    0    1
 -2      2129      2753      2770      2775
 -1      8141    3    0    1
 -2       193       194      2440      2769
 -1      8142    3    0    1
 -2      2129      2100      2574      2770
 -1      8143    3    0    1
 -2      1537      2129      2574      2770
 -1      8144    3    0    1
 -2      2735      2734      2761      2772
 -1      8145    3    0    1
 -2      2734      2735      2737      2772
 -1      8146    3    0    1
 -2      2422      2734      2737      2772
 -1      8147    3    0    1
 -2       409      2422      2737      2772
 -1      8148    3    0    1
 -2       409      2027      2422      2772
 -1      8149    3    0    1
 -2      2734      2027      2765      2772
 -1      8150    3    0    1
 -2      2422      2027      2734      2772
 -1      8151    3    0    1
 -2       454       396      2767      2773
 -1      8152    3    0    1
 -2      2728       454      2767      2773
 -1      8153    3    0    1
 -2      2336      2746      2767      2773
 -1      8154    3    0    1
 -2      2645      2750      2751      2774
 -1      8155    3    0    1
 -2       186      2645      2751      2774
 -1      8156    3    0    1
 -2      2645       186      2750      2774
 -1      8157    3    0    1
 -2      2750      2561      2769      2774
 -1      8158    3    0    1
 -2      2645      2751      2770      2775
 -1      8159    3    0    1
 -2      2645       372      2751      2775
 -1      8160    3    0    1
 -2       374       372      2645      2775
 -1      8161    3    0    1
 -2       374      2645      2753      2775
 -1      8162    3    0    1
 -2      2731       374      2753      2775
 -1      8163    3    0    1
 -2      2129      2731      2753      2775
 -1      8164    3    0    1
 -2      2753      2645      2770      2775
 -3
    1PSTEP                         1           1           1          
  100CL  101 1.000000000        2775                     0    1           1
 -4  DISP        4    1
 -5  D1          1    2    1    0
 -5  D2          1    2    2    0
 -5  D3          1    2    3    0
 -5  ALL         1    2    0    0    1ALL
 -1         1 6.09454E-03-1.16689E-03-6.38468E-02
 -1         2 1.31408E-03-8.12535E-04-8.54542E-02
 -1         3 1.14085E-03-5.03535E-04-8.51208E-02
 -1         4-2.97124E-03-7.34489E-04-8.88259E-02
 -1         5-1.02194E-02-5.67799E-04-7.28162E-02
 -1         6-3.95579E-03-1.73385E-04-7.16276E-02
 -1         7 6.23152E-03-1.27700E-03-6.45037E-02
 -1         8-1.01116E-02-8.97786E-04-7.36137E-02
 -1         9-2.47945E-03 3.34846E-07-8.96380E-02
 -1        10-2.86135E-03-3.36542E-04-8.56092E-02
 -1        11 4.63715E-04-8.55738E-04-8.59020E-02
 -1        12-2.84589E-03-5.93546E-04-8.51947E-02
 -1        13-2.28939E-03 2.17713E-04-8.97772E-02
 -1        14-1.73839E-03-5.57588E-04-8.85910E-02
 -1        15-2.95631E-03-3.33572E-04-8.85554E-02
 -1        16-2.40745E-03-2.93679E-04-8.92156E-02
 -1        17-1.87870E-03-7.40634E-04-8.93035E-02
 -1        18-2.48636E-03-4.26137E-04-8.90258E-02
 -1        19 3.41827E-04-4.66255E-04-8.51955E-02
 -1        20 7.94398E-03-5.85529E-03-5.63082E-02
 -1        21-3.79861E-04-7.65586E-03-8.33523E-02
 -1        22 5.71121E-04-7.29726E-03-8.59156E-02
 -1        23 2.53621E-03-6.92179E-03-8.35687E-02
 -1        24 3.45814E-03-6.42168E-03-7.60358E-02
 -1        25 8.16889E-03-5.73163E-03-6.24717E-02
 -1        26-6.40191E-03-9.21209E-03-6.85633E-02
 -1        27 3.46288E-03-6.73028E-03-8.09224E-02
 -1        28-2.00865E-03-1.51932E-03-8.40602E-02
 -1        29-2.33006E-04-7.13223E-03-7.90196E-02
 -1        30-6.87624E-03-9.20831E-03-6.42842E-02
 -1        31-2.03463E-03-1.80501E-03-7.97933E-02
 -1        32-2.09641E-03-1.71420E-03-7.65669E-02
 -1        33 2.65491E-03-6.66770E-03-7.38704E-02
 -1        34 5.38446E-04-6.84868E-03-7.69967E-02
 -1        35-2.49576E-03-1.07556E-03-8.36767E-02
 -1        36-1.60232E-03-1.32632E-03-5.16786E-02
 -1        37 1.41127E-02-8.67342E-03-3.96739E-02
 -1        38 7.82038E-04-1.21791E-02-4.91218E-02
 -1        39 1.37425E-03-1.19196E-02-5.51448E-02
 -1        40 6.58004E-03-1.04211E-02-5.91416E-02
 -1        41 9.15005E-03-8.92936E-03-5.68143E-02
 -1        42 6.73612E-03-1.05472E-02-6.72975E-02
 -1        43 7.30429E-03-1.00751E-02-7.15104E-02
 -1        44 8.78321E-03-9.46957E-03-6.97091E-02
 -1        45 9.47906E-03-9.04880E-03-6.53350E-02
 -1        46 8.65536E-03-9.28714E-03-5.27520E-02
 -1        47 1.41002E-02-8.81163E-03-5.18300E-02
 -1        48-3.52409E-04-2.38629E-03-5.96698E-02
 -1        49-8.69391E-04-1.18671E-03-3.84797E-02
 -1        50-2.87527E-04-2.30993E-03-6.77146E-02
 -1        51 7.11048E-03-9.97042E-03-5.52970E-02
 -1        52 1.96591E-02-6.62208E-03-1.79887E-02
 -1        53-6.07953E-05-9.10138E-04-1.67424E-02
 -1        54 1.53979E-02-7.56046E-03-2.40360E-02
 -1        55 1.36475E-02-8.16286E-03-3.13934E-02
 -1        56 1.56155E-02-7.05720E-03-2.96248E-02
 -1        57 1.96249E-02-6.63837E-03-3.36396E-02
 -1        58 1.56120E-02-7.14001E-03-4.08214E-02
 -1        59 1.54536E-02-7.38634E-03-4.65481E-02
 -1        60 9.17059E-03-9.45533E-03-2.65057E-02
 -1        61 1.37936E-02-8.25787E-03-4.17831E-02
 -1        62 9.50720E-03-9.31519E-03-3.42847E-02
 -1        63 8.60964E-04-1.68070E-03-2.95595E-02
 -1        64 8.13726E-04-1.76627E-03-4.12174E-02
 -1        65 1.38616E-02-7.85459E-03-2.62977E-02
 -1        66 1.32900E-03-1.94069E-03-3.19220E-02
 -1        67 1.40639E-02-7.82779E-03-4.71975E-02
 -1        68 1.03756E-03-1.93568E-03-4.67345E-02
 -1        69 5.86314E-04-1.80492E-03-4.73019E-02
 -1        70 1.04839E-03-1.27380E-03-2.34275E-02
 -1        71 3.51009E-04 1.47030E-05 8.28150E-03
 -1        72 2.33270E-02-1.26226E-03 7.00942E-03
 -1        73 1.87527E-02-1.19688E-03 1.76238E-03
 -1        74 1.28821E-02-1.70934E-03-1.21554E-03
 -1        75 1.72626E-02-1.37736E-03 3.06593E-04
 -1        76 2.34054E-02-1.20585E-03-1.04182E-02
 -1        77 1.88558E-02-1.21580E-03-1.07922E-02
 -1        78 1.29245E-02-1.43244E-03-8.89897E-03
 -1        79 1.74732E-02-1.35343E-03-1.12379E-02
 -1        80 2.18645E-03-2.95622E-04 3.59676E-05
 -1        81 1.53807E-03-6.66702E-04-1.09746E-02
 -1        82 1.86636E-02-1.31246E-03 7.91957E-03
 -1        83 1.75131E-03-2.83296E-04 1.93620E-03
 -1        84 1.75410E-02-1.26915E-03-1.70295E-02
 -1        85 1.73273E-02-1.34893E-03 5.94548E-03
 -1        86 1.87695E-02-1.27769E-03-1.70779E-02
 -1        87 1.12443E-02 7.41210E-03 1.59901E-02
 -1        88 1.70636E-02 6.10914E-03 1.56020E-02
 -1        89 1.54929E-02 6.54651E-03 2.11916E-02
 -1        90 1.76150E-02 5.73738E-03 3.35693E-02
 -1        91 2.19577E-02 5.53609E-03 3.24175E-02
 -1        92 1.48124E-03 1.16581E-03 2.15411E-02
 -1        93 2.19421E-02 5.49597E-03 1.53150E-02
 -1        94 1.94279E-03 1.25246E-03 2.16414E-02
 -1        95 1.12740E-02 7.29433E-03 2.35819E-02
 -1        96 1.58874E-02 6.45108E-03 3.24013E-02
 -1        97 1.72148E-02 5.76435E-03 2.15441E-02
 -1        98 1.48100E-03 6.76130E-04 1.48268E-02
 -1        99 1.74796E-02 5.93877E-03 3.97564E-02
 -1       100 1.56302E-02 6.31448E-03 1.57755E-02
 -1       101 2.05658E-03 9.41440E-04 1.65118E-02
 -1       102 1.60422E-02 6.15587E-03 3.81047E-02
 -1       103 1.72829E-03 1.33965E-03 3.73247E-02
 -1       104 4.64417E-03 1.30137E-02 4.04952E-02
 -1       105 1.04999E-02 1.08749E-02 4.70243E-02
 -1       106 9.86860E-03 1.14321E-02 5.18213E-02
 -1       107 1.23035E-02 1.01056E-02 6.20034E-02
 -1       108 1.19678E-02 1.04984E-02 6.74024E-02
 -1       109 1.02832E-02 1.09182E-02 6.64969E-02
 -1       110 1.62938E-02 9.41678E-03 5.38475E-02
 -1       111 1.23331E-02 9.94694E-03 5.13779E-02
 -1       112 4.48431E-03 1.32882E-02 4.69952E-02
 -1       113 1.62960E-02 9.20587E-03 3.97961E-02
 -1       114 6.17630E-04 2.38933E-03 5.24686E-02
 -1       115 1.19720E-02 1.03003E-02 4.62966E-02
 -1       116 1.41417E-04 2.14446E-03 5.15269E-02
 -1       117 2.80678E-04 1.93760E-03 4.58561E-02
 -1       118-3.65789E-04 2.20107E-03 6.79022E-02
 -1       119 4.35587E-05 2.19263E-03 6.25408E-02
 -1       120 9.90428E-03 1.16016E-02 6.15311E-02
 -1       121 1.07883E-02 9.48879E-03 6.93462E-02
 -1       122-1.67663E-03 1.18385E-03 6.86859E-02
 -1       123-4.41986E-03 1.16675E-02 6.23248E-02
 -1       124 5.50576E-03 9.32212E-03 7.59374E-02
 -1       125 2.31281E-03 1.09247E-02 8.36580E-02
 -1       126 3.03735E-03 1.05169E-02 8.73656E-02
 -1       127 5.51496E-03 9.59302E-03 8.31543E-02
 -1       128 1.07569E-02 9.43208E-03 5.89236E-02
 -1       129-1.52141E-03 2.18154E-03 7.64640E-02
 -1       130-4.58048E-03 1.18998E-02 6.62863E-02
 -1       131-1.73505E-03 1.87770E-03 8.37356E-02
 -1       132 4.95105E-03 9.93174E-03 8.69889E-02
 -1       133 3.14406E-03 1.02189E-02 7.38187E-02
 -1       134-1.05320E-03 2.27053E-03 7.76452E-02
 -1       135 2.18859E-03 1.06243E-02 7.70789E-02
 -1       136-1.38237E-03 2.08077E-03 8.72328E-02
 -1       137-1.40835E-03 2.17369E-03 8.43334E-02
 -1       138 4.83093E-03 9.66285E-03 7.25296E-02
 -1       139-1.06690E-03 2.18158E-03 7.22349E-02
 -1       140-2.09545E-03 1.65399E-03 8.73647E-02
 -1       141 5.77362E-03 3.66032E-03 7.56854E-02
 -1       142-3.15181E-03 4.92052E-03 9.52856E-02
 -1       143-2.83911E-03 4.39324E-03 9.28494E-02
 -1       144-7.85306E-05 4.24417E-03 8.98473E-02
 -1       145 9.07064E-04 4.29500E-03 9.36214E-02
 -1       146-1.02596E-02 5.56549E-03 7.53199E-02
 -1       147-9.88911E-03 5.81228E-03 7.78896E-02
 -1       148 5.66750E-03 3.53723E-03 7.24543E-02
 -1       149-2.51611E-03 1.06899E-03 9.15266E-02
 -1       150-2.56539E-03 1.17970E-03 9.35054E-02
 -1       151-2.50267E-03 8.99408E-04 9.61288E-02
 -1       152 9.00007E-04 3.93690E-03 9.10870E-02
 -1       153 1.29810E-04 4.46409E-03 9.53352E-02
 -1       154-2.80443E-03 6.42774E-04 9.43758E-02
 -1       155-1.96496E-03 4.23947E-03 9.18217E-02
 -1       156-2.17362E-03 4.74020E-03 9.69251E-02
 -1       157-2.39232E-03-8.07850E-05 7.50709E-02
 -1       158 8.39953E-04-2.53677E-03 9.25087E-02
 -1       159 5.94539E-03-2.42776E-03 7.54861E-02
 -1       160-2.14073E-03-2.91185E-03 9.37946E-02
 -1       161-2.34264E-04-2.94244E-03 9.57051E-02
 -1       162-1.02870E-02-4.00175E-03 7.72273E-02
 -1       163-3.33346E-03-2.98136E-03 9.44369E-02
 -1       164-1.01622E-02-4.38982E-03 7.86813E-02
 -1       165 8.08268E-04-2.90025E-03 9.44905E-02
 -1       166-2.36270E-03-4.80107E-04 9.69021E-02
 -1       167-3.76958E-03-8.75804E-04 7.69825E-02
 -1       168-2.38241E-03-8.18805E-04 9.52215E-02
 -1       169 5.76370E-03-2.31743E-03 7.29289E-02
 -1       170-7.21152E-05-2.65951E-03 9.18847E-02
 -1       171-3.33947E-03-3.29397E-03 9.62456E-02
 -1       172-2.32348E-03-3.11461E-03 9.73766E-02
 -1       173-2.71519E-03-1.30714E-04 9.57421E-02
 -1       174-2.56227E-03-1.05401E-03 9.45063E-02
 -1       175 1.11195E-02-8.48045E-03 6.00819E-02
 -1       176 1.09558E-02-8.65806E-03 7.02182E-02
 -1       177 3.35961E-03-9.25964E-03 9.06150E-02
 -1       178-4.40831E-03-1.10108E-02 7.12650E-02
 -1       179-1.34317E-03-2.02122E-03 8.77635E-02
 -1       180 2.46795E-03-1.00472E-02 8.72392E-02
 -1       181 2.33311E-03-9.72552E-03 8.10780E-02
 -1       182-4.36606E-03-1.06753E-02 6.75852E-02
 -1       183-1.07664E-03-2.29433E-03 8.18690E-02
 -1       184 5.95045E-03-8.70496E-03 7.88784E-02
 -1       185-1.36882E-03-2.23882E-03 7.94479E-02
 -1       186-1.32966E-03-1.49094E-03 5.91954E-02
 -1       187 6.02913E-03-8.93393E-03 8.57779E-02
 -1       188 5.19247E-03-9.08917E-03 7.56408E-02
 -1       189-1.47001E-03-1.88668E-03 9.04184E-02
 -1       190 3.02218E-03-9.33587E-03 7.80835E-02
 -1       191 5.49207E-03-9.24481E-03 8.95177E-02
 -1       192-1.04403E-03-2.24349E-03 7.52891E-02
 -1       193-1.53247E-04-1.34322E-03 3.89209E-02
 -1       194-9.49110E-04-1.55766E-03 5.50714E-02
 -1       195 1.30742E-02-9.70327E-03 5.39286E-02
 -1       196 1.73417E-02-9.25240E-03 4.05949E-02
 -1       197 1.75184E-02-9.16666E-03 5.48742E-02
 -1       198 1.06386E-02-1.10810E-02 5.55277E-02
 -1       199 1.26920E-02-1.00997E-02 4.87097E-02
 -1       200 1.30095E-02-9.87218E-03 6.47668E-02
 -1       201 1.27115E-02-1.02211E-02 7.02419E-02
 -1       202 1.10423E-02-1.06301E-02 5.07049E-02
 -1       203 1.07069E-02-1.12000E-02 6.55021E-02
 -1       204 5.34437E-03-1.26061E-02 4.66241E-02
 -1       205-3.37428E-04-3.20781E-03 5.22049E-02
 -1       206-6.93896E-05-3.22240E-03 4.59576E-02
 -1       207 5.09949E-05-2.32438E-03 6.52432E-02
 -1       208 5.23673E-03-1.27765E-02 5.31356E-02
 -1       209 1.60663E-04-2.39179E-03 5.42011E-02
 -1       210 1.11117E-02-1.07505E-02 7.06577E-02
 -1       211 9.62749E-04-2.35595E-03 5.15869E-02
 -1       212 2.30032E-02-5.51219E-03 3.30705E-02
 -1       213 2.29518E-02-5.45208E-03 1.52903E-02
 -1       214 9.86964E-05-1.04768E-03 3.35218E-02
 -1       215 1.65669E-02-6.47125E-03 2.28593E-02
 -1       216 1.69787E-02-6.34867E-03 3.48048E-02
 -1       217 1.24481E-02-7.52306E-03 2.71539E-02
 -1       218 1.85665E-02-5.68480E-03 3.51343E-02
 -1       219 1.58487E-03-2.00564E-03 2.63453E-02
 -1       220 1.96249E-03-1.42439E-03 2.31494E-02
 -1       221 1.23377E-02-7.52233E-03 1.89634E-02
 -1       222 1.53830E-03-1.32422E-03 2.23334E-02
 -1       223 1.84308E-02-5.88042E-03 4.16634E-02
 -1       224 1.81957E-02-5.73724E-03 2.24798E-02
 -1       225 1.80456E-02-5.98773E-03 1.62221E-02
 -1       226 1.54492E-03-8.22650E-04 1.54051E-02
 -1       227 1.71142E-02-6.07530E-03 4.08612E-02
 -1       228 1.78582E-03-1.51820E-03 3.49068E-02
 -1       229 1.67013E-02-6.24344E-03 1.70859E-02
 -1       230 1.64861E-03-1.68848E-03 4.02467E-02
 -1       231 2.00164E-03-1.12495E-03 1.78202E-02
 -1       232 2.38292E-02 1.10941E-03-1.09876E-02
 -1       233 1.36206E-02 1.37749E-03-9.31395E-03
 -1       234 1.91906E-02 1.02776E-03 1.78914E-03
 -1       235 2.38304E-02 1.09687E-03 7.08496E-03
 -1       236 1.76942E-02 1.28594E-03 4.38366E-04
 -1       237 2.01133E-03 2.06607E-04-1.68070E-03
 -1       238 1.36180E-02 1.70544E-03-1.07370E-03
 -1       239 2.11267E-03 2.66519E-04-1.14685E-02
 -1       240 1.93128E-02 9.95736E-04-1.10636E-02
 -1       241 2.42564E-04 1.38054E-04-1.17798E-02
 -1       242 1.92317E-02 1.06481E-03-1.74533E-02
 -1       243 1.62295E-03 3.46367E-04-1.12486E-02
 -1       244 2.39405E-03 6.59136E-05 3.22652E-04
 -1       245 1.79386E-02 1.21465E-03-1.14832E-02
 -1       246 1.80066E-02 1.10292E-03-1.74471E-02
 -1       247 1.91024E-02 1.17403E-03 8.08893E-03
 -1       248 1.77632E-02 1.24354E-03 6.28330E-03
 -1       249-5.83969E-04 1.02887E-03-3.49209E-02
 -1       250 1.95170E-02 6.57873E-03-1.88440E-02
 -1       251 1.36926E-02 7.96871E-03-3.22821E-02
 -1       252 9.07902E-03 9.37296E-03-2.74099E-02
 -1       253 1.37876E-02 8.12303E-03-4.27858E-02
 -1       254 1.56391E-02 6.92830E-03-3.04810E-02
 -1       255 1.55755E-02 7.01883E-03-4.17532E-02
 -1       256-1.45665E-04 7.50294E-04-1.73704E-02
 -1       257 9.45314E-03 9.18404E-03-3.50097E-02
 -1       258 1.95039E-02 6.63134E-03-3.44551E-02
 -1       259 7.51397E-04 1.61719E-03-4.21387E-02
 -1       260 1.53865E-02 7.28930E-03-2.49117E-02
 -1       261 8.39137E-04 1.49480E-03-3.05151E-02
 -1       262 1.11549E-03 1.71447E-03-4.30998E-02
 -1       263 1.39293E-02 7.63825E-03-2.71776E-02
 -1       264 4.63938E-04 1.70489E-03-4.81167E-02
 -1       265 1.54106E-02 7.26976E-03-4.74823E-02
 -1       266 1.40554E-02 7.69887E-03-4.82507E-02
 -1       267 1.43432E-02 8.89904E-03-5.30349E-02
 -1       268 1.01287E-02 9.21614E-03-6.69898E-02
 -1       269 9.69894E-03 9.02672E-03-5.81165E-02
 -1       270 7.28990E-03 1.07265E-02-6.95274E-02
 -1       271 7.28726E-03 1.03295E-02-6.10734E-02
 -1       272 2.42551E-03 1.24509E-02-5.84997E-02
 -1       273-1.01381E-03 1.30465E-03-3.94532E-02
 -1       274 1.45741E-02 8.65106E-03-4.03950E-02
 -1       275 1.90506E-03 1.28629E-02-5.12156E-02
 -1       276-4.85752E-04 2.28171E-03-6.99722E-02
 -1       277-9.71542E-04 1.96041E-03-6.76243E-02
 -1       278 7.77995E-03 9.92161E-03-5.70415E-02
 -1       279-3.84099E-05 2.22616E-03-6.17336E-02
 -1       280 9.26033E-03 9.33360E-03-5.37982E-02
 -1       281 9.66923E-03 9.60479E-03-7.17347E-02
 -1       282 7.89520E-03 1.02178E-02-7.39689E-02
 -1       283-1.44498E-03 1.88917E-03-7.21921E-02
 -1       284 8.09427E-03 4.81364E-03-5.72634E-02
 -1       285 3.73242E-03 6.02636E-03-8.22415E-02
 -1       286 3.59258E-03 5.71300E-03-7.78273E-02
 -1       287-7.23726E-03 7.99194E-03-6.76948E-02
 -1       288-7.06820E-03 8.39280E-03-7.09337E-02
 -1       289-2.36162E-04 6.86575E-03-8.56379E-02
 -1       290-8.56532E-05 6.32880E-03-8.16447E-02
 -1       291-3.78078E-03 1.90274E-03-6.92705E-02
 -1       292-1.97268E-03 1.33893E-03-8.64078E-02
 -1       293-2.29129E-03 1.17954E-03-8.29295E-02
 -1       294 8.22589E-03 4.78247E-03-6.27152E-02
 -1       295-2.12553E-03 1.62087E-03-7.83538E-02
 -1       296 3.07987E-03 6.29401E-03-8.48194E-02
 -1       297 7.50485E-04 6.50418E-03-8.80337E-02
 -1       298 2.82015E-03 5.94699E-03-7.57758E-02
 -1       299 7.13903E-04 6.04349E-03-7.98583E-02
 -1       300-2.03100E-03 1.10333E-03-8.81866E-02
 -1       301 0.00000E+00 0.00000E+00 0.00000E+00
 -1       302 0.00000E+00 0.00000E+00 0.00000E+00
 -1       303 0.00000E+00 0.00000E+00 0.00000E+00
 -1       304 0.00000E+00 0.00000E+00 0.00000E+00
 -1       305 0.00000E+00 0.00000E+00 0.00000E+00
 -1       306 0.00000E+00 0.00000E+00 0.00000E+00
 -1       307 0.00000E+00 0.00000E+00 0.00000E+00
 -1       308 0.00000E+00 0.00000E+00 0.00000E+00
 -1       309 0.00000E+00 0.00000E+00 0.00000E+00
 -1       310 0.00000E+00 0.00000E+00 0.00000E+00
 -1       311 0.00000E+00 0.00000E+00 0.00000E+00
 -1       312 0.00000E+00 0.00000E+00 0.00000E+00
 -1       313 0.00000E+00 0.00000E+00 0.00000E+00
 -1       314 0.00000E+00 0.00000E+00 0.00000E+00
 -1       315 0.00000E+00 0.00000E+00 0.00000E+00
 -1       316 0.00000E+00 0.00000E+00 0.00000E+00
 -1       317 0.00000E+00 0.00000E+00 0.00000E+00
 -1       318 0.00000E+00 0.00000E+00 0.00000E+00
 -1       319 0.00000E+00 0.00000E+00 0.00000E+00
 -1       320 0.00000E+00 0.00000E+00 0.00000E+00
 -1       321 0.00000E+00 0.00000E+00 0.00000E+00
 -1       322 0.00000E+00 0.00000E+00 0.00000E+00
 -1       323 0.00000E+00 0.00000E+00 0.00000E+00
 -1       324 0.00000E+00 0.00000E+00 0.00000E+00
 -1       325 0.00000E+00 0.00000E+00 0.00000E+00
 -1       326 0.00000E+00 0.00000E+00 0.00000E+00
 -1       327 0.00000E+00 0.00000E+00 0.00000E+00
 -1       328 0.00000E+00 0.00000E+00 0.00000E+00
 -1       329 0.00000E+00 0.00000E+00 0.00000E+00
 -1       330-2.30279E-03-2.20680E-04 9.74877E-02
 -1       331-2.10302E-03 1.38669E-03 9.23545E-02
 -1       332-2.36134E-03-2.75577E-03 7.00576E-02
 -1       333-3.53456E-03-1.08145E-03 7.61552E-02
 -1       334 5.84833E-04 2.35698E-03 6.19303E-02
 -1       335-3.17547E-04 2.90854E-03 4.60228E-02
 -1       336-7.21175E-04 2.34231E-03 7.45264E-02
 -1       337 0.00000E+00 0.00000E+00 0.00000E+00
 -1       338-2.03813E-03 2.90749E-03 6.13057E-02
 -1       339 0.00000E+00 0.00000E+00 0.00000E+00
 -1       340 0.00000E+00 0.00000E+00 0.00000E+00
 -1       341-2.38504E-03 2.87952E-03 6.53018E-02
 -1       342 3.93577E-04 2.37102E-03 6.61136E-02
 -1       343 1.22677E-04-2.55010E-03 7.01757E-02
 -1       344-1.02605E-03-2.41423E-03 7.87203E-02
 -1       345 5.88723E-04-2.47316E-03 6.59642E-02
 -1       346-2.31788E-03-3.04739E-03 6.65809E-02
 -1       347 0.00000E+00 0.00000E+00 0.00000E+00
 -1       348-3.57178E-03 1.24530E-03 7.42492E-02
 -1       349-4.26082E-03 1.17882E-03 7.61263E-02
 -1       350 0.00000E+00 0.00000E+00 0.00000E+00
 -1       351-2.44019E-03-1.20606E-03 9.19622E-02
 -1       352 1.70657E-03 1.40315E-03 3.23689E-02
 -1       353-2.49245E-03 3.02057E-04 7.49191E-02
 -1       354-2.62752E-03 3.20221E-04 9.55118E-02
 -1       355-2.79174E-03-3.97545E-04 9.49674E-02
 -1       356-2.74463E-03 7.98867E-04 9.72201E-02
 -1       357 7.38288E-04 2.38793E-03 4.80599E-02
 -1       358-2.30267E-03 1.35861E-03 8.97488E-02
 -1       359-1.00850E-03 1.28470E-03 5.40137E-02
 -1       360-1.60500E-03 1.57255E-03 5.79864E-02
 -1       361-2.49120E-05 7.92253E-04 3.29864E-02
 -1       362 1.06763E-03 1.36345E-03 3.39506E-02
 -1       363 7.90398E-04 1.59960E-03 4.02491E-02
 -1       364 1.56058E-03 2.57889E-04 8.89690E-03
 -1       365 4.25867E-04-2.68807E-04 8.43867E-03
 -1       366 1.71965E-03 4.85562E-05 1.99826E-03
 -1       367-5.14276E-04 1.22661E-03 3.80358E-02
 -1       368 1.18719E-03-1.58352E-03 3.55856E-02
 -1       369 8.98123E-04-1.82331E-03 4.22668E-02
 -1       370-4.37411E-04-2.31697E-03 7.08994E-02
 -1       371 4.27138E-04-2.19220E-03 4.82636E-02
 -1       372-2.10420E-03-1.10529E-03 6.95231E-02
 -1       373-2.19833E-03 9.38501E-04 7.08641E-02
 -1       374-2.21876E-03-7.25108E-04 7.17406E-02
 -1       375-2.01363E-03-1.60981E-03 8.98450E-02
 -1       376-1.60112E-03-1.92559E-03 8.64519E-02
 -1       377-2.70947E-03-8.49637E-04 9.32022E-02
 -1       378 1.25705E-03-8.98712E-04-1.79577E-02
 -1       379 2.87048E-04-3.83153E-04-1.13859E-02
 -1       380 1.03189E-03 1.21862E-03-2.43078E-02
 -1       381 1.49555E-03 4.04994E-04-1.79977E-02
 -1       382 2.11935E-03-4.24193E-04-1.09414E-02
 -1       383-5.63078E-05 1.96529E-03-5.32478E-02
 -1       384-1.32532E-03 2.90702E-03-5.08703E-02
 -1       385 1.83795E-04 2.28909E-03-5.79560E-02
 -1       386 4.69361E-04 2.37854E-03-3.35831E-02
 -1       387 9.93398E-04 1.85974E-03-4.77761E-02
 -1       388-1.86288E-03 1.76099E-03-7.54450E-02
 -1       389-1.44907E-03 1.08217E-03-5.27921E-02
 -1       390 1.32227E-03-1.84507E-03-4.21078E-02
 -1       391-2.70197E-04-2.19627E-03-5.23614E-02
 -1       392-6.32048E-04-1.19474E-03-3.40457E-02
 -1       393-4.54630E-04-2.17266E-03-5.71317E-02
 -1       394-2.90711E-03 1.98257E-05-8.60268E-02
 -1       395-2.59940E-03 5.88518E-05-6.36385E-02
 -1       396-2.47440E-03 5.15615E-04-6.25493E-02
 -1       397-2.61495E-03 8.96850E-04-8.49467E-02
 -1       398-2.85232E-03 3.99698E-04-8.58027E-02
 -1       399-3.30928E-03-2.08820E-03-6.66893E-02
 -1       400 1.65188E-04-2.34659E-03-5.62220E-02
 -1       401 4.63722E-04-2.54578E-03-3.31020E-02
 -1       402 7.82255E-04-2.17558E-03-2.62909E-02
 -1       403 0.00000E+00 0.00000E+00 0.00000E+00
 -1       404 1.79628E-03-3.00927E-04-8.36890E-03
 -1       405 1.48470E-03-1.74920E-03-2.72401E-02
 -1       406 2.10977E-03-6.35519E-04-1.59373E-02
 -1       407 1.48586E-03 1.46257E-03 1.63620E-02
 -1       408 2.02424E-03-4.68091E-04-2.08339E-03
 -1       409 3.47736E-04-7.27531E-04 1.38967E-02
 -1       410 1.47000E-04 6.15012E-04 1.41254E-02
 -1       411 2.14600E-03-2.09444E-04 5.10706E-03
 -1       412 0.00000E+00 0.00000E+00 0.00000E+00
 -1       413 1.18603E-04 2.99615E-03 3.98189E-02
 -1       414 1.51636E-03 1.59735E-03 2.28120E-02
 -1       415 0.00000E+00 0.00000E+00 0.00000E+00
 -1       416-4.50485E-03-3.05632E-05-7.19352E-02
 -1       417 0.00000E+00 0.00000E+00 0.00000E+00
 -1       418 0.00000E+00 0.00000E+00 0.00000E+00
 -1       419 0.00000E+00 0.00000E+00 0.00000E+00
 -1       420-1.44656E-03-3.13163E-03-4.87828E-02
 -1       421-3.11813E-03-2.31138E-03-6.37364E-02
 -1       422-1.93454E-03-1.90205E-03-7.76105E-02
 -1       423-1.30316E-03-2.94218E-03-5.33500E-02
 -1       424 0.00000E+00 0.00000E+00 0.00000E+00
 -1       425-3.38511E-03 2.16051E-03-6.68528E-02
 -1       426 0.00000E+00 0.00000E+00 0.00000E+00
 -1       427-1.84534E-03 1.79986E-03-8.04295E-02
 -1       428-1.95007E-03 1.61598E-03-8.24082E-02
 -1       429-7.12767E-04 2.14134E-03-7.37276E-02
 -1       430-1.50388E-03 3.05082E-03-5.65866E-02
 -1       431 0.00000E+00 0.00000E+00 0.00000E+00
 -1       432 0.00000E+00 0.00000E+00 0.00000E+00
 -1       433 1.71752E-03 1.31234E-03-2.79748E-02
 -1       434 9.53046E-04 2.08599E-03-2.73270E-02
 -1       435 1.45347E-03 1.63785E-03-3.27288E-02
 -1       436 1.90293E-03 7.32124E-04-1.66699E-02
 -1       437 1.90060E-03 4.14569E-04-8.86994E-03
 -1       438 0.00000E+00 0.00000E+00 0.00000E+00
 -1       439 0.00000E+00 0.00000E+00 0.00000E+00
 -1       440 2.35446E-03-2.14314E-04 5.74021E-03
 -1       441 1.59810E-03-2.91690E-04 8.75210E-03
 -1       442 1.64813E-03-1.88633E-03 1.92798E-02
 -1       443 6.26438E-04-2.60094E-03 5.60764E-02
 -1       444 0.00000E+00 0.00000E+00 0.00000E+00
 -1       445 0.00000E+00 0.00000E+00 0.00000E+00
 -1       446-1.92526E-03-1.28101E-03-8.60258E-02
 -1       447-2.20479E-03-7.34333E-04-6.22465E-02
 -1       448-2.19974E-03-1.43564E-03-8.15279E-02
 -1       449-2.25405E-03-4.51438E-04-6.30123E-02
 -1       450-4.77533E-04-2.24463E-03-7.13369E-02
 -1       451-1.91959E-03-1.90879E-03-7.35367E-02
 -1       452-1.05929E-03-2.08414E-03-6.57645E-02
 -1       453-1.89568E-03-1.13968E-03-5.45823E-02
 -1       454-1.89372E-03 8.97634E-04-5.58796E-02
 -1       455-1.33877E-03-2.01337E-03-7.00823E-02
 -1       456-4.89551E-04 2.04647E-03-5.84062E-02
 -1       457 0.00000E+00 0.00000E+00 0.00000E+00
 -1       458 0.00000E+00 0.00000E+00 0.00000E+00
 -1       459 0.00000E+00 0.00000E+00 0.00000E+00
 -1       460 0.00000E+00 0.00000E+00 0.00000E+00
 -1       461 0.00000E+00 0.00000E+00 0.00000E+00
 -1       462 0.00000E+00 0.00000E+00 0.00000E+00
 -1       463 0.00000E+00 0.00000E+00 0.00000E+00
 -1       464 0.00000E+00 0.00000E+00 0.00000E+00
 -1       465 0.00000E+00 0.00000E+00 0.00000E+00
 -1       466 0.00000E+00 0.00000E+00 0.00000E+00
 -1       467 0.00000E+00 0.00000E+00 0.00000E+00
 -1       468 0.00000E+00 0.00000E+00 0.00000E+00
 -1       469 0.00000E+00 0.00000E+00 0.00000E+00
 -1       470 0.00000E+00 0.00000E+00 0.00000E+00
 -1       471 0.00000E+00 0.00000E+00 0.00000E+00
 -1       472 0.00000E+00 0.00000E+00 0.00000E+00
 -1       473 1.72481E-03-7.17846E-04-6.37554E-02
 -1       474 1.70944E-03-6.14142E-04-6.43373E-02
 -1       475 4.76752E-03-7.60422E-04-7.62041E-02
 -1       476 4.95048E-03-1.04517E-03-7.69777E-02
 -1       477-7.34865E-04-2.28823E-04-8.73833E-02
 -1       478-6.66427E-04-1.16009E-03-8.82380E-02
 -1       479-8.03458E-03-3.90960E-04-8.37779E-02
 -1       480-8.05015E-03-7.94313E-04-8.43072E-02
 -1       481-7.17066E-03-3.12011E-04-7.25770E-02
 -1       482-6.90787E-03-4.05927E-04-7.34405E-02
 -1       483-2.98499E-03 9.83498E-05-7.70345E-02
 -1       484-8.27874E-04-4.78862E-04-8.61321E-02
 -1       485-2.58936E-03-4.07711E-04-8.96627E-02
 -1       486-2.89482E-03 1.48855E-04-8.49566E-02
 -1       487-2.81414E-03-1.57538E-04-8.47396E-02
 -1       488-2.67199E-03-2.82690E-04-8.93708E-02
 -1       489-8.41193E-04-3.49133E-04-8.58061E-02
 -1       490-3.09769E-03-3.42289E-04-7.66719E-02
 -1       491-1.10792E-03-4.01259E-04-8.62585E-02
 -1       492-1.16766E-03-4.02471E-04-8.55523E-02
 -1       493-2.15310E-03-3.53924E-04-8.98026E-02
 -1       494-2.43325E-03-2.96420E-04-8.91144E-02
 -1       495-2.45761E-03 2.30660E-04-8.88269E-02
 -1       496-2.65544E-03-4.05000E-04-8.79747E-02
 -1       497 2.88037E-03-3.42895E-03-5.59367E-02
 -1       498 2.80758E-03-3.43577E-03-6.25178E-02
 -1       499-4.99784E-03-8.72832E-03-7.82561E-02
 -1       500-4.64036E-03-8.18430E-03-7.46078E-02
 -1       501 1.76977E-03-7.29000E-03-8.52077E-02
 -1       502 1.50093E-03-6.47730E-03-7.59194E-02
 -1       503 6.66413E-03-6.21653E-03-7.35213E-02
 -1       504 7.06141E-03-5.89142E-03-6.77840E-02
 -1       505-4.84834E-03-5.41304E-03-6.42577E-02
 -1       506-4.74129E-03-5.88267E-03-6.79942E-02
 -1       507-2.70918E-03-1.25999E-03-7.38925E-02
 -1       508 6.07989E-04-4.13966E-03-8.15043E-02
 -1       509-1.00973E-03-4.51364E-03-8.42453E-02
 -1       510-1.85765E-03-1.68961E-03-7.89174E-02
 -1       511-1.87569E-03-1.87919E-03-7.51651E-02
 -1       512-1.10384E-03-4.41690E-03-7.96288E-02
 -1       513 5.88067E-04-4.05595E-03-7.66691E-02
 -1       514-2.39993E-03-1.53886E-03-6.79802E-02
 -1       515 3.91928E-04-4.22126E-03-8.39702E-02
 -1       516 3.54279E-04-4.22605E-03-7.41737E-02
 -1       517-6.87099E-04-4.32815E-03-8.63701E-02
 -1       518-7.44248E-04-4.31275E-03-7.73967E-02
 -1       519-2.16618E-03-1.37114E-03-8.57071E-02
 -1       520-1.66447E-03-1.81325E-03-7.64777E-02
 -1       521 6.61812E-03-4.99179E-03-3.95359E-02
 -1       522 6.32291E-03-5.11686E-03-5.18699E-02
 -1       523 3.03092E-03-1.19745E-02-6.30839E-02
 -1       524 3.04738E-03-1.16338E-02-5.65432E-02
 -1       525 8.23929E-03-9.87663E-03-7.09599E-02
 -1       526 7.72918E-03-9.42654E-03-5.44037E-02
 -1       527 1.30925E-02-8.69288E-03-6.01750E-02
 -1       528 1.25033E-02-8.66400E-03-4.96587E-02
 -1       529-2.96083E-04-7.50377E-03-4.90029E-02
 -1       530 2.45553E-04-7.07767E-03-5.49079E-02
 -1       531-1.41273E-03-1.85737E-03-6.05988E-02
 -1       532 4.38961E-03-5.65417E-03-6.57790E-02
 -1       533 3.22814E-03-6.39698E-03-6.79456E-02
 -1       534-2.83035E-04-2.56523E-03-6.36569E-02
 -1       535-1.53164E-04-2.56656E-03-5.70834E-02
 -1       536 3.14844E-03-6.30290E-03-5.96600E-02
 -1       537 4.31698E-03-5.56144E-03-5.72747E-02
 -1       538-1.06078E-03-1.97291E-03-4.96655E-02
 -1       539 4.21158E-03-5.77009E-03-7.00406E-02
 -1       540 4.12381E-03-5.68721E-03-5.29897E-02
 -1       541 3.39727E-03-6.18266E-03-7.17997E-02
 -1       542 3.41426E-03-6.08240E-03-5.56848E-02
 -1       543-6.07404E-04-2.28796E-03-7.13929E-02
 -1       544-1.46831E-04-2.18739E-03-5.48328E-02
 -1       545 9.75362E-03-3.55381E-03-1.75997E-02
 -1       546 9.60636E-03-3.95775E-03-3.37598E-02
 -1       547 1.45078E-02-7.57529E-03-2.53485E-02
 -1       548 1.07542E-02-9.14671E-03-3.88123E-02
 -1       549 1.07364E-02-9.13749E-03-3.03597E-02
 -1       550 1.84708E-02-6.76922E-03-3.82304E-02
 -1       551 1.86679E-02-6.54790E-03-2.41591E-02
 -1       552 1.48402E-02-7.65658E-03-4.71494E-02
 -1       553 5.21275E-03-5.84349E-03-3.40994E-02
 -1       554 4.84204E-03-5.88882E-03-2.64128E-02
 -1       555 8.31647E-03-4.48817E-03-4.10796E-02
 -1       556 2.77000E-05-1.60676E-03-3.83940E-02
 -1       557 7.53927E-03-4.97595E-03-4.22035E-02
 -1       558 1.19346E-03-2.08097E-03-3.90570E-02
 -1       559 1.37708E-03-2.05006E-03-3.08007E-02
 -1       560 7.52296E-03-4.96858E-03-3.17779E-02
 -1       561 8.26417E-03-4.46317E-03-2.99968E-02
 -1       562 3.01164E-04-1.35135E-03-2.43561E-02
 -1       563 8.23497E-03-4.61401E-03-4.67841E-02
 -1       564 8.22820E-03-4.49987E-03-2.41660E-02
 -1       565 7.67162E-03-4.76819E-03-4.73761E-02
 -1       566 7.60187E-03-4.82638E-03-2.65991E-02
 -1       567 1.00027E-03-1.89405E-03-4.73344E-02
 -1       568 1.34159E-03-1.67701E-03-2.56383E-02
 -1       569 1.17825E-02-6.48115E-04 7.24033E-03
 -1       570 1.20482E-02-8.60029E-04-1.05154E-02
 -1       571 1.79063E-02-1.27143E-03 6.91347E-03
 -1       572 1.46204E-02-1.36513E-03-9.97692E-03
 -1       573 1.43712E-02-1.75370E-03-1.03852E-03
 -1       574 2.18763E-02-1.15720E-03-1.10718E-02
 -1       575 2.20615E-02-1.26603E-03 4.80765E-03
 -1       576 1.81704E-02-1.33847E-03-1.70512E-02
 -1       577 7.38973E-03-9.43733E-04-8.80340E-03
 -1       578 7.36447E-03-1.01634E-03-1.33680E-03
 -1       579 1.01216E-02-8.82665E-04-1.08093E-02
 -1       580 8.18243E-04-6.12180E-04-1.13717E-02
 -1       581 9.69571E-03-9.07872E-04-1.12344E-02
 -1       582 2.24632E-03-3.23507E-04-9.81714E-03
 -1       583 2.17463E-03-3.75921E-04-1.05358E-03
 -1       584 9.76425E-03-8.66214E-04 2.00441E-04
 -1       585 1.02365E-02-7.56291E-04 1.67965E-03
 -1       586 8.60927E-04-2.14291E-04 4.82679E-03
 -1       587 1.01259E-02-9.26892E-04-1.71811E-02
 -1       588 1.02449E-02-7.41993E-04 7.98744E-03
 -1       589 9.68230E-03-9.34929E-04-1.69037E-02
 -1       590 9.75278E-03-8.44456E-04 5.80733E-03
 -1       591 1.68041E-03-7.09205E-04-1.71005E-02
 -1       592 2.08133E-03-1.41194E-04 6.81285E-03
 -1       593 1.09633E-02 3.28559E-03 3.24755E-02
 -1       594 1.10366E-02 3.06493E-03 1.51338E-02
 -1       595 1.31748E-02 7.00229E-03 2.87128E-02
 -1       596 1.62176E-02 6.10374E-03 1.58075E-02
 -1       597 2.07927E-02 5.44033E-03 3.39188E-02
 -1       598 1.27156E-02 7.43568E-03 1.98340E-02
 -1       599 1.68360E-02 6.10986E-03 3.90384E-02
 -1       600 2.03596E-02 5.54234E-03 1.86290E-02
 -1       601 6.38663E-03 4.51283E-03 1.60217E-02
 -1       602 6.33015E-03 4.36745E-03 2.34883E-02
 -1       603 9.36189E-03 3.49886E-03 2.16543E-02
 -1       604 5.13946E-04 1.03024E-03 1.83762E-02
 -1       605 8.69388E-03 3.89171E-03 2.15089E-02
 -1       606 1.95524E-03 1.43506E-03 1.99684E-02
 -1       607 1.85975E-03 1.39018E-03 2.89369E-02
 -1       608 8.70983E-03 3.88096E-03 3.25171E-02
 -1       609 9.36078E-03 3.58159E-03 3.38324E-02
 -1       610 2.87151E-04 1.25394E-03 3.41184E-02
 -1       611 9.36907E-03 3.53527E-03 1.56118E-02
 -1       612 9.30845E-03 3.66198E-03 3.99338E-02
 -1       613 8.74716E-03 3.77975E-03 1.60119E-02
 -1       614 8.80386E-03 3.81327E-03 3.81155E-02
 -1       615 1.81063E-03 1.07941E-03 1.60440E-02
 -1       616 1.24040E-03 1.47723E-03 3.91704E-02
 -1       617 7.67602E-03 5.48956E-03 5.38178E-02
 -1       618 7.78923E-03 5.26696E-03 3.95866E-02
 -1       619 6.21073E-03 1.27944E-02 4.80140E-02
 -1       620 6.35515E-03 1.28627E-02 5.59301E-02
 -1       621 1.11260E-02 1.04325E-02 4.69832E-02
 -1       622 1.12154E-02 1.09003E-02 6.73066E-02
 -1       623 1.55299E-02 9.44275E-03 4.62786E-02
 -1       624 1.52687E-02 9.65369E-03 5.93250E-02
 -1       625 2.22248E-03 8.00771E-03 4.03348E-02
 -1       626 2.20959E-03 8.14813E-03 4.68914E-02
 -1       627 6.20781E-03 6.07792E-03 5.18431E-02
 -1       628-5.12290E-04 1.83353E-03 4.64835E-02
 -1       629 5.25162E-03 6.79779E-03 5.23233E-02
 -1       630 4.37431E-04 2.78054E-03 4.85252E-02
 -1       631 5.01629E-04 2.52163E-03 5.63143E-02
 -1       632 5.23322E-03 6.92873E-03 6.20815E-02
 -1       633 6.17198E-03 6.22459E-03 6.24046E-02
 -1       634-6.79113E-04 1.94805E-03 5.98812E-02
 -1       635 6.14272E-03 6.20438E-03 4.64863E-02
 -1       636 5.96905E-03 6.41786E-03 6.77238E-02
 -1       637 5.36611E-03 6.63811E-03 4.74487E-02
 -1       638 5.27814E-03 6.81258E-03 6.67618E-02
 -1       639 6.06761E-04 2.14954E-03 4.73633E-02
 -1       640 6.33360E-05 2.36276E-03 6.76308E-02
 -1       641 4.36051E-03 5.44563E-03 5.88592E-02
 -1       642 4.59481E-03 5.44503E-03 6.91586E-02
 -1       643-2.64947E-03 1.16977E-02 7.21890E-02
 -1       644-1.86494E-03 1.17927E-02 7.78662E-02
 -1       645 3.74046E-03 9.63051E-03 7.36824E-02
 -1       646 4.09846E-03 1.03039E-02 8.76016E-02
 -1       647 8.82065E-03 9.02762E-03 6.90124E-02
 -1       648 9.36869E-03 9.09878E-03 7.81764E-02
 -1       649-3.33316E-03 7.26630E-03 6.19599E-02
 -1       650-3.12008E-03 7.45094E-03 6.62071E-02
 -1       651-1.76532E-03 2.01216E-03 6.93712E-02
 -1       652 1.90596E-03 5.74972E-03 7.65297E-02
 -1       653 5.17467E-04 6.40466E-03 7.76423E-02
 -1       654-1.03177E-03 2.47082E-03 7.29341E-02
 -1       655-1.39242E-03 2.36849E-03 7.83788E-02
 -1       656 5.51505E-04 6.47352E-03 8.44399E-02
 -1       657 1.94175E-03 5.83457E-03 8.37219E-02
 -1       658-2.07806E-03 1.71058E-03 7.83498E-02
 -1       659 1.75322E-03 5.92101E-03 7.28016E-02
 -1       660 1.65182E-03 5.94649E-03 8.73223E-02
 -1       661 7.60086E-04 6.27285E-03 7.42615E-02
 -1       662 8.26973E-04 6.32324E-03 8.77606E-02
 -1       663-1.04015E-03 2.30724E-03 7.41714E-02
 -1       664-1.57165E-03 2.03994E-03 8.80300E-02
 -1       665 1.57547E-03 2.14307E-03 7.23438E-02
 -1       666 1.67373E-03 2.09432E-03 7.55938E-02
 -1       667-7.91845E-03 5.33723E-03 8.70013E-02
 -1       668-8.16167E-03 5.82180E-03 8.94898E-02
 -1       669-9.85057E-04 3.87859E-03 9.13161E-02
 -1       670-9.59528E-04 4.73170E-03 9.66188E-02
 -1       671 4.77159E-03 3.52044E-03 8.33776E-02
 -1       672 4.40278E-03 3.77542E-03 8.66981E-02
 -1       673-7.09599E-03 3.35610E-03 7.51223E-02
 -1       674-6.67507E-03 3.37749E-03 7.76779E-02
 -1       675-2.91439E-03 9.15374E-04 8.38375E-02
 -1       676-8.69720E-04 2.46732E-03 9.16346E-02
 -1       677-2.59774E-03 2.79881E-03 9.34749E-02
 -1       678-2.73763E-03 1.22317E-03 8.78340E-02
 -1       679-2.50748E-03 1.08306E-03 9.00620E-02
 -1       680-2.62680E-03 2.86652E-03 9.62446E-02
 -1       681-9.69931E-04 2.54880E-03 9.44085E-02
 -1       682-2.99254E-03 5.09840E-04 8.70816E-02
 -1       683-1.06027E-03 2.52804E-03 9.01689E-02
 -1       684-1.28018E-03 2.53332E-03 9.57261E-02
 -1       685-2.18278E-03 2.75732E-03 9.22186E-02
 -1       686-2.32556E-03 2.75623E-03 9.74142E-02
 -1       687-2.36332E-03 1.22380E-03 9.18087E-02
 -1       688-2.59501E-03 7.17946E-04 9.72294E-02
 -1       689 1.74944E-03-1.38710E-03 7.53928E-02
 -1       690 1.55832E-03-1.51300E-03 7.27686E-02
 -1       691 4.74981E-03-2.21502E-03 8.44763E-02
 -1       692 4.36226E-03-2.56522E-03 8.70147E-02
 -1       693-1.24053E-03-2.34313E-03 9.34058E-02
 -1       694-1.11658E-03-3.32091E-03 9.70250E-02
 -1       695-8.00177E-03-3.66534E-03 8.86922E-02
 -1       696-8.46670E-03-4.19262E-03 9.02789E-02
 -1       697-6.85343E-03-2.76618E-03 7.84523E-02
 -1       698-7.01160E-03-2.43113E-03 7.70050E-02
 -1       699-3.07331E-03-3.61128E-04 8.73688E-02
 -1       700-9.93655E-04-1.73740E-03 9.51321E-02
 -1       701-2.84237E-03-1.93907E-03 9.71100E-02
 -1       702-2.71055E-03-6.96587E-04 9.08574E-02
 -1       703-2.55167E-03-7.68916E-04 8.95584E-02
 -1       704-2.83972E-03-1.79006E-03 9.51507E-02
 -1       705-1.03537E-03-1.62397E-03 9.31935E-02
 -1       706-2.98527E-03-8.11415E-04 8.49505E-02
 -1       707-1.20043E-03-1.79874E-03 9.61237E-02
 -1       708-1.39663E-03-1.69227E-03 9.23187E-02
 -1       709-2.45422E-03-1.80281E-03 9.78265E-02
 -1       710-2.61860E-03-1.78448E-03 9.43363E-02
 -1       711-2.61997E-03-3.08662E-04 9.75727E-02
 -1       712-2.53258E-03-1.04668E-03 9.40375E-02
 -1       713 4.14968E-03-4.97875E-03 7.02283E-02
 -1       714 4.63570E-03-4.83189E-03 5.99584E-02
 -1       715 9.31078E-03-8.38628E-03 7.10175E-02
 -1       716 9.77512E-03-8.49800E-03 7.99149E-02
 -1       717 3.97154E-03-8.93795E-03 7.73570E-02
 -1       718 4.55934E-03-9.48717E-03 9.05680E-02
 -1       719-2.74165E-03-1.04729E-02 7.70603E-02
 -1       720-1.79390E-03-1.06040E-02 8.20376E-02
 -1       721-3.49645E-03-7.01428E-03 7.10249E-02
 -1       722-3.08189E-03-6.72744E-03 6.75113E-02
 -1       723-2.10030E-03-1.69566E-03 8.00087E-02
 -1       724 2.28950E-03-5.52792E-03 8.63449E-02
 -1       725 7.89966E-04-5.97310E-03 8.80869E-02
 -1       726-1.49108E-03-2.19425E-03 8.24737E-02
 -1       727-1.26925E-03-2.40823E-03 7.78342E-02
 -1       728 6.08852E-04-5.95510E-03 8.16906E-02
 -1       729 2.19216E-03-5.49544E-03 7.94846E-02
 -1       730-1.61877E-03-1.99531E-03 7.13306E-02
 -1       731 1.97899E-03-5.64183E-03 8.99083E-02
 -1       732 1.95442E-03-5.71222E-03 7.59181E-02
 -1       733 1.00567E-03-5.82239E-03 9.10558E-02
 -1       734 8.88189E-04-5.83271E-03 7.84906E-02
 -1       735-1.37417E-03-2.00461E-03 9.10233E-02
 -1       736-1.07385E-03-2.38126E-03 7.77639E-02
 -1       737 8.34763E-03-5.15312E-03 4.02394E-02
 -1       738 8.46498E-03-5.54524E-03 5.49410E-02
 -1       739 1.63282E-02-9.21266E-03 4.80220E-02
 -1       740 1.61531E-02-9.35109E-03 6.12560E-02
 -1       741 1.18136E-02-1.02054E-02 4.99917E-02
 -1       742 1.19735E-02-1.05745E-02 7.07560E-02
 -1       743 7.16239E-03-1.23363E-02 5.29795E-02
 -1       744 7.29482E-03-1.24400E-02 6.11320E-02
 -1       745 2.68156E-03-8.04320E-03 5.30371E-02
 -1       746 2.67058E-03-7.86695E-03 4.64300E-02
 -1       747-6.62918E-04-2.06529E-03 6.16446E-02
 -1       748 6.55439E-03-6.13716E-03 6.51440E-02
 -1       749 5.61376E-03-6.81318E-03 6.60315E-02
 -1       750 4.92481E-04-2.67866E-03 6.15072E-02
 -1       751 5.57148E-03-6.73600E-03 5.60032E-02
 -1       752 5.75936E-04-2.73216E-03 5.35295E-02
 -1       753 6.56955E-03-6.09935E-03 5.44040E-02
 -1       754-4.63145E-04-2.06898E-03 4.81819E-02
 -1       755 6.39315E-03-6.30606E-03 7.05166E-02
 -1       756 6.50949E-03-6.25013E-03 4.88897E-02
 -1       757 5.76772E-03-6.68627E-03 7.08949E-02
 -1       758 5.83722E-03-6.53188E-03 5.11029E-02
 -1       759 8.26333E-05-2.46104E-03 7.10181E-02
 -1       760 5.33854E-04-2.41136E-03 5.04483E-02
 -1       761 1.15739E-02-3.07052E-03 1.50812E-02
 -1       762 1.15537E-02-3.34240E-03 3.31159E-02
 -1       763 2.14214E-02-5.55995E-03 1.90275E-02
 -1       764 1.72804E-02-6.03474E-03 1.67672E-02
 -1       765 2.18100E-02-5.44729E-03 3.51416E-02
 -1       766 1.36452E-02-7.30524E-03 2.21312E-02
 -1       767 1.78092E-02-6.03202E-03 4.13460E-02
 -1       768 1.41484E-02-6.95829E-03 3.17583E-02
 -1       769 6.98775E-03-4.87511E-03 2.70003E-02
 -1       770 7.02886E-03-4.63612E-03 1.90573E-02
 -1       771 6.37650E-04-1.34530E-03 3.51532E-02
 -1       772 9.78417E-03-3.64414E-03 3.53902E-02
 -1       773 9.31685E-03-3.89034E-03 3.49372E-02
 -1       774 1.90798E-03-1.55261E-03 3.17454E-02
 -1       775 9.26044E-03-3.91840E-03 2.31502E-02
 -1       776 1.98082E-03-1.51845E-03 2.23180E-02
 -1       777 9.85957E-03-3.56386E-03 2.26024E-02
 -1       778 8.06905E-04-1.12173E-03 1.90784E-02
 -1       779 9.73777E-03-3.72048E-03 4.18320E-02
 -1       780 9.84266E-03-3.62250E-03 1.62136E-02
 -1       781 9.30693E-03-3.81666E-03 4.08617E-02
 -1       782 9.28631E-03-3.79831E-03 1.73204E-02
 -1       783 1.30435E-03-1.64662E-03 4.14285E-02
 -1       784 1.84171E-03-1.21153E-03 1.69200E-02
 -1       785 1.20818E-02 6.89757E-04-1.10830E-02
 -1       786 1.21335E-02 4.37288E-04 7.29665E-03
 -1       787 1.86467E-02 1.15306E-03-1.74871E-02
 -1       788 2.23293E-02 9.98148E-04-1.14329E-02
 -1       789 1.53384E-02 1.31303E-03-1.04985E-02
 -1       790 1.50801E-02 1.68934E-03-1.12838E-03
 -1       791 2.25628E-02 1.09245E-03 4.76990E-03
 -1       792 1.83460E-02 1.15655E-03 7.14695E-03
 -1       793 7.88542E-03 9.99429E-04-1.17200E-03
 -1       794 7.73410E-03 8.29327E-04-9.25508E-03
 -1       795 9.45260E-04-2.86429E-05 4.63167E-03
 -1       796 1.04366E-02 5.68217E-04 1.70593E-03
 -1       797 9.95093E-03 7.00714E-04 3.35422E-04
 -1       798 2.39347E-03 2.25522E-04-1.27410E-03
 -1       799 9.94382E-03 7.10895E-04-1.14914E-02
 -1       800 2.24800E-03 3.51192E-04-1.06858E-02
 -1       801 1.03943E-02 6.66149E-04-1.11093E-02
 -1       802 8.91579E-04 2.44926E-04-1.16574E-02
 -1       803 1.04309E-02 6.00305E-04 8.11431E-03
 -1       804 1.04044E-02 6.81498E-04-1.75329E-02
 -1       805 9.95682E-03 6.50113E-04 6.15574E-03
 -1       806 9.92384E-03 7.13255E-04-1.73342E-02
 -1       807 1.94912E-03-4.36992E-05 7.00579E-03
 -1       808 1.72342E-03 3.88034E-04-1.74197E-02
 -1       809 9.38618E-03 4.04060E-03-3.45540E-02
 -1       810 9.55266E-03 3.57375E-03-1.85554E-02
 -1       811 1.48316E-02 7.53219E-03-4.81250E-02
 -1       812 1.09235E-02 9.00691E-03-4.00528E-02
 -1       813 1.08489E-02 9.08576E-03-3.13803E-02
 -1       814 1.83898E-02 6.77459E-03-3.92066E-02
 -1       815 1.86341E-02 6.51997E-03-2.49919E-02
 -1       816 1.45756E-02 7.36339E-03-2.61990E-02
 -1       817 4.83396E-03 5.76552E-03-2.73344E-02
 -1       818 5.24123E-03 5.72120E-03-3.47965E-02
 -1       819 1.24168E-04 1.20939E-03-2.52003E-02
 -1       820 8.27472E-03 4.27888E-03-3.08746E-02
 -1       821 7.49685E-03 4.74132E-03-3.26755E-02
 -1       822 1.06193E-03 1.91911E-03-3.18462E-02
 -1       823 7.44295E-03 4.83708E-03-4.32189E-02
 -1       824 1.38101E-03 1.72324E-03-4.01157E-02
 -1       825 8.22648E-03 4.36407E-03-4.20067E-02
 -1       826-1.48795E-04 1.58244E-03-3.94485E-02
 -1       827 8.23524E-03 4.39603E-03-2.50171E-02
 -1       828 8.13888E-03 4.49439E-03-4.76958E-02
 -1       829 7.68963E-03 4.57613E-03-2.74888E-02
 -1       830 7.48709E-03 4.65800E-03-4.83884E-02
 -1       831 1.22637E-03 1.47383E-03-2.65227E-02
 -1       832 9.03602E-04 1.80131E-03-4.83308E-02
 -1       833 6.50736E-03 5.03042E-03-5.30795E-02
 -1       834 6.77898E-03 4.93899E-03-4.02718E-02
 -1       835 1.34491E-02 8.74582E-03-6.13569E-02
 -1       836 1.30434E-02 8.66250E-03-5.04196E-02
 -1       837 8.87943E-03 1.00032E-02-7.31868E-02
 -1       838 8.41795E-03 9.47139E-03-5.57157E-02
 -1       839 3.70020E-03 1.22556E-02-6.55821E-02
 -1       840 3.79140E-03 1.18955E-02-5.85438E-02
 -1       841 6.13547E-04 7.60781E-03-5.80624E-02
 -1       842 3.10709E-04 7.71493E-03-5.12147E-02
 -1       843-1.01571E-03 1.79083E-03-5.03656E-02
 -1       844 4.65100E-03 5.54973E-03-5.84724E-02
 -1       845 3.48250E-03 6.26565E-03-6.15312E-02
 -1       846-1.59167E-04 2.47251E-03-5.90856E-02
 -1       847-1.61618E-04 2.39431E-03-6.60238E-02
 -1       848 3.51572E-03 6.39896E-03-7.02400E-02
 -1       849 4.68718E-03 5.63611E-03-6.75726E-02
 -1       850-1.56486E-03 1.66007E-03-6.17802E-02
 -1       851 4.48083E-03 5.61831E-03-5.39713E-02
 -1       852 4.42013E-03 5.78838E-03-7.20685E-02
 -1       853 3.74734E-03 6.07674E-03-5.73966E-02
 -1       854 3.69043E-03 6.17965E-03-7.42770E-02
 -1       855-1.03644E-04 2.07494E-03-5.61569E-02
 -1       856-7.02648E-04 2.12157E-03-7.35975E-02
 -1       857 2.80489E-03 2.90798E-03-6.27195E-02
 -1       858 2.94530E-03 2.82345E-03-5.69600E-02
 -1       859 6.89947E-03 5.47445E-03-7.44893E-02
 -1       860 7.34140E-03 5.14908E-03-6.89669E-02
 -1       861 2.01460E-03 6.55603E-03-8.69485E-02
 -1       862 1.71200E-03 5.70350E-03-7.82387E-02
 -1       863-5.30444E-03 7.84811E-03-8.08012E-02
 -1       864-5.08021E-03 7.40915E-03-7.75940E-02
 -1       865-5.09778E-03 5.22348E-03-7.06735E-02
 -1       866-5.32451E-03 4.83178E-03-6.74540E-02
 -1       867-2.39198E-03 1.25197E-03-6.91993E-02
 -1       868 6.73998E-04 3.59930E-03-7.83568E-02
 -1       869-1.09904E-03 3.94704E-03-8.22651E-02
 -1       870-2.34703E-03 1.71271E-03-7.81989E-02
 -1       871-2.20317E-03 1.54971E-03-8.15450E-02
 -1       872-1.00824E-03 4.07610E-03-8.65537E-02
 -1       873 6.71582E-04 3.67237E-03-8.29815E-02
 -1       874-2.75084E-03 9.42095E-04-7.49278E-02
 -1       875 3.94722E-04 3.78172E-03-7.60310E-02
 -1       876 3.74306E-04 3.71569E-03-8.51891E-02
 -1       877-7.10979E-04 3.83803E-03-8.03101E-02
 -1       878-6.72173E-04 3.87748E-03-8.84996E-02
 -1       879-1.98509E-03 1.69718E-03-7.88343E-02
 -1       880-2.27493E-03 1.12463E-03-8.74391E-02
 -1       881 0.00000E+00 0.00000E+00 0.00000E+00
 -1       882 0.00000E+00 0.00000E+00 0.00000E+00
 -1       883 0.00000E+00 0.00000E+00 0.00000E+00
 -1       884 0.00000E+00 0.00000E+00 0.00000E+00
 -1       885 0.00000E+00 0.00000E+00 0.00000E+00
 -1       886 0.00000E+00 0.00000E+00 0.00000E+00
 -1       887 0.00000E+00 0.00000E+00 0.00000E+00
 -1       888 0.00000E+00 0.00000E+00 0.00000E+00
 -1       889 0.00000E+00 0.00000E+00 0.00000E+00
 -1       890 0.00000E+00 0.00000E+00 0.00000E+00
 -1       891 0.00000E+00 0.00000E+00 0.00000E+00
 -1       892 0.00000E+00 0.00000E+00 0.00000E+00
 -1       893 0.00000E+00 0.00000E+00 0.00000E+00
 -1       894 0.00000E+00 0.00000E+00 0.00000E+00
 -1       895 0.00000E+00 0.00000E+00 0.00000E+00
 -1       896 0.00000E+00 0.00000E+00 0.00000E+00
 -1       897 0.00000E+00 0.00000E+00 0.00000E+00
 -1       898 0.00000E+00 0.00000E+00 0.00000E+00
 -1       899 0.00000E+00 0.00000E+00 0.00000E+00
 -1       900 0.00000E+00 0.00000E+00 0.00000E+00
 -1       901 0.00000E+00 0.00000E+00 0.00000E+00
 -1       902 0.00000E+00 0.00000E+00 0.00000E+00
 -1       903 0.00000E+00 0.00000E+00 0.00000E+00
 -1       904 0.00000E+00 0.00000E+00 0.00000E+00
 -1       905 0.00000E+00 0.00000E+00 0.00000E+00
 -1       906 0.00000E+00 0.00000E+00 0.00000E+00
 -1       907 0.00000E+00 0.00000E+00 0.00000E+00
 -1       908 0.00000E+00 0.00000E+00 0.00000E+00
 -1       909 0.00000E+00 0.00000E+00 0.00000E+00
 -1       910 0.00000E+00 0.00000E+00 0.00000E+00
 -1       911 0.00000E+00 0.00000E+00 0.00000E+00
 -1       912 0.00000E+00 0.00000E+00 0.00000E+00
 -1       913 0.00000E+00 0.00000E+00 0.00000E+00
 -1       914 0.00000E+00 0.00000E+00 0.00000E+00
 -1       915 0.00000E+00 0.00000E+00 0.00000E+00
 -1       916 0.00000E+00 0.00000E+00 0.00000E+00
 -1       917 0.00000E+00 0.00000E+00 0.00000E+00
 -1       918 0.00000E+00 0.00000E+00 0.00000E+00
 -1       919 0.00000E+00 0.00000E+00 0.00000E+00
 -1       920 0.00000E+00 0.00000E+00 0.00000E+00
 -1       921 0.00000E+00 0.00000E+00 0.00000E+00
 -1       922 0.00000E+00 0.00000E+00 0.00000E+00
 -1       923 0.00000E+00 0.00000E+00 0.00000E+00
 -1       924 0.00000E+00 0.00000E+00 0.00000E+00
 -1       925 0.00000E+00 0.00000E+00 0.00000E+00
 -1       926 0.00000E+00 0.00000E+00 0.00000E+00
 -1       927 0.00000E+00 0.00000E+00 0.00000E+00
 -1       928 0.00000E+00 0.00000E+00 0.00000E+00
 -1       929 0.00000E+00 0.00000E+00 0.00000E+00
 -1       930 0.00000E+00 0.00000E+00 0.00000E+00
 -1       931 0.00000E+00 0.00000E+00 0.00000E+00
 -1       932 0.00000E+00 0.00000E+00 0.00000E+00
 -1       933 0.00000E+00 0.00000E+00 0.00000E+00
 -1       934 0.00000E+00 0.00000E+00 0.00000E+00
 -1       935 0.00000E+00 0.00000E+00 0.00000E+00
 -1       936 0.00000E+00 0.00000E+00 0.00000E+00
 -1       937 0.00000E+00 0.00000E+00 0.00000E+00
 -1       938 0.00000E+00 0.00000E+00 0.00000E+00
 -1       939 0.00000E+00 0.00000E+00 0.00000E+00
 -1       940 0.00000E+00 0.00000E+00 0.00000E+00
 -1       941 0.00000E+00 0.00000E+00 0.00000E+00
 -1       942 0.00000E+00 0.00000E+00 0.00000E+00
 -1       943 0.00000E+00 0.00000E+00 0.00000E+00
 -1       944 0.00000E+00 0.00000E+00 0.00000E+00
 -1       945 3.44054E-03-6.62056E-04-8.10904E-02
 -1       946 5.54411E-03-9.45773E-04-6.99224E-02
 -1       947 3.65208E-03-1.10988E-03-8.17220E-02
 -1       948-5.94201E-03-3.42054E-04-8.67423E-02
 -1       949-9.56647E-03-7.56301E-04-7.87841E-02
 -1       950-2.18140E-03-4.82427E-05-8.83452E-02
 -1       951-3.52816E-03-2.97039E-05-7.95372E-02
 -1       952-2.52462E-03-1.02922E-04-8.80614E-02
 -1       953-2.87280E-03-4.93894E-04-7.05518E-02
 -1       954 7.60659E-03-5.85294E-03-6.80678E-02
 -1       955 5.52702E-03-6.37616E-03-7.76562E-02
 -1       956 7.76072E-03-5.65438E-03-6.20075E-02
 -1       957-1.59958E-03-1.61400E-03-8.24194E-02
 -1       958-2.34665E-03-2.00562E-03-7.37742E-02
 -1       959-1.84464E-03-1.76456E-03-7.85232E-02
 -1       960-2.52456E-03-1.22999E-03-6.22530E-02
 -1       961 1.37437E-02-8.77489E-03-5.59940E-02
 -1       962 1.15073E-02-8.72793E-03-6.30234E-02
 -1       963 1.36168E-02-8.61535E-03-4.45447E-02
 -1       964 2.83627E-05-2.34843E-03-6.65612E-02
 -1       965-4.22530E-04-2.67323E-03-5.93763E-02
 -1       966-1.23358E-04-2.47109E-03-5.92503E-02
 -1       967-9.23610E-04-1.70944E-03-4.45877E-02
 -1       968 5.39756E-04-1.79218E-03-4.04692E-02
 -1       969 9.78204E-04-2.21510E-03-3.64583E-02
 -1       970 1.25784E-03-1.98262E-03-3.18146E-02
 -1       971 1.38240E-05-1.03620E-03-2.10860E-02
 -1       972 1.56921E-02-1.59389E-03-3.92470E-04
 -1       973 2.06783E-02-1.14376E-03-1.09858E-02
 -1       974 2.29516E-02-1.27823E-03 6.11788E-03
 -1       975 1.14726E-03-5.63357E-04-1.12095E-02
 -1       976 2.08003E-03-2.72070E-04-9.32551E-03
 -1       977 2.47457E-03-4.22342E-04-6.97694E-04
 -1       978 4.60755E-04-8.78807E-05 6.49295E-03
 -1       979 1.43395E-02 6.79511E-03 3.06144E-02
 -1       980 1.17371E-02 7.49618E-03 1.79548E-02
 -1       981 1.91075E-02 5.64840E-03 2.00658E-02
 -1       982 9.45494E-04 1.03903E-03 2.03947E-02
 -1       983 1.58280E-03 1.42640E-03 1.83538E-02
 -1       984 1.98324E-03 1.35049E-03 3.09761E-02
 -1       985 1.89400E-04 1.07361E-03 3.36414E-02
 -1       986 4.99367E-03 1.30782E-02 4.43307E-02
 -1       987 7.91632E-03 1.23667E-02 5.91082E-02
 -1       988 1.42110E-02 9.61164E-03 4.91223E-02
 -1       989 1.59863E-02 9.54153E-03 5.67341E-02
 -1       990-3.91399E-04 2.15159E-03 4.94873E-02
 -1       991 5.15283E-04 2.55666E-03 5.13409E-02
 -1       992-5.12652E-05 2.82107E-03 4.48395E-02
 -1       993 7.98514E-04 2.34670E-03 5.97920E-02
 -1       994-8.73480E-04 1.75712E-03 5.72102E-02
 -1       995 1.00716E-02 9.24738E-03 6.38325E-02
 -1       996 7.58068E-03 9.03093E-03 7.27704E-02
 -1       997 1.05201E-02 9.29692E-03 7.37837E-02
 -1       998-1.82423E-03 2.02476E-03 7.36597E-02
 -1       999-1.54857E-03 2.61428E-03 6.78764E-02
 -1      1000-1.02008E-03 2.24092E-03 8.23556E-02
 -1      1001-2.09119E-03 1.45258E-03 7.40514E-02
 -1      1002-5.99627E-03 5.43412E-03 9.29559E-02
 -1      1003 5.41211E-03 3.59458E-03 7.76491E-02
 -1      1004 3.21119E-03 3.71616E-03 8.77386E-02
 -1      1005 5.48728E-03 3.63425E-03 8.11344E-02
 -1      1006-3.03230E-03 1.02545E-03 8.87732E-02
 -1      1007-3.27967E-03 1.23858E-03 8.20465E-02
 -1      1008-2.11158E-03 9.05495E-04 9.42804E-02
 -1      1009-2.76387E-03 4.41310E-04 8.16007E-02
 -1      1010 5.44771E-03-2.30111E-03 7.86083E-02
 -1      1011 3.07482E-03-2.66689E-03 9.11523E-02
 -1      1012-9.62981E-03-4.26169E-03 8.43817E-02
 -1      1013-2.91367E-03-4.67534E-04 9.19812E-02
 -1      1014-3.16369E-03-8.69134E-04 8.49601E-02
 -1      1015-2.24903E-03-7.25984E-04 9.32730E-02
 -1      1016-2.81293E-03-7.60087E-04 7.90614E-02
 -1      1017 8.08199E-03-8.41663E-03 7.51970E-02
 -1      1018 1.05825E-02-8.46138E-03 6.53747E-02
 -1      1019 8.23247E-03-8.59035E-03 8.32667E-02
 -1      1020-1.90612E-03-1.97567E-03 8.39888E-02
 -1      1021-2.14437E-03-2.43660E-03 7.72961E-02
 -1      1022-1.01934E-03-2.29551E-03 8.06921E-02
 -1      1023-1.82880E-03-1.66638E-03 6.58541E-02
 -1      1024 1.70753E-02-9.22591E-03 4.40269E-02
 -1      1025 1.49991E-02-9.44907E-03 6.33856E-02
 -1      1026 6.18318E-03-1.26541E-02 5.72212E-02
 -1      1027-1.44903E-04-2.23150E-03 6.39877E-02
 -1      1028 2.24985E-04-2.86995E-03 5.78763E-02
 -1      1029 6.19219E-04-2.65696E-03 5.54195E-02
 -1      1030-4.72777E-04-1.61801E-03 4.38972E-02
 -1      1031 2.01235E-02-5.65686E-03 2.06903E-02
 -1      1032 2.26178E-02-5.39823E-03 1.68763E-02
 -1      1033 7.72914E-04-1.49047E-03 3.56303E-02
 -1      1034 1.54242E-03-1.85272E-03 2.96627E-02
 -1      1035 2.14954E-03-1.47160E-03 2.32256E-02
 -1      1036 3.62033E-04-9.55611E-04 1.69563E-02
 -1      1037 1.64510E-02 1.21574E-03-1.08921E-02
 -1      1038 1.41733E-02 1.69434E-03-1.14769E-03
 -1      1039 2.10010E-02 1.09278E-03 3.22559E-03
 -1      1040 1.05411E-03 9.97307E-05 3.22189E-03
 -1      1041 2.17726E-03 3.55354E-04-1.35340E-03
 -1      1042 2.43183E-03 1.96315E-04-1.09896E-02
 -1      1043 5.74066E-04 1.11421E-04-1.16484E-02
 -1      1044 1.74518E-02 6.68675E-03-2.79540E-02
 -1      1045 3.88997E-04 1.56202E-03-2.81401E-02
 -1      1046 1.29615E-03 1.74317E-03-3.28502E-02
 -1      1047 1.07997E-03 2.05691E-03-2.99882E-02
 -1      1048 1.36604E-03 1.62400E-03-4.22133E-02
 -1      1049-6.22969E-04 1.32286E-03-3.73516E-02
 -1      1050 1.20441E-02 8.84728E-03-6.44862E-02
 -1      1051 1.41397E-02 8.79095E-03-5.71331E-02
 -1      1052 1.14728E-02 8.67338E-03-5.46328E-02
 -1      1053 5.20674E-03 1.15917E-02-6.79932E-02
 -1      1054 2.62611E-03 1.24957E-02-5.50599E-02
 -1      1055-1.77029E-04 2.33160E-03-6.12404E-02
 -1      1056-6.65991E-04 2.67150E-03-5.59044E-02
 -1      1057-7.31031E-05 2.20210E-03-6.88181E-02
 -1      1058-1.41890E-03 1.38023E-03-5.76422E-02
 -1      1059 7.74765E-03 5.06519E-03-6.86944E-02
 -1      1060 5.87375E-03 5.49528E-03-7.36913E-02
 -1      1061-3.10437E-03 7.44628E-03-8.38816E-02
 -1      1062-6.55184E-03 7.80313E-03-7.27431E-02
 -1      1063-2.01898E-03 1.64238E-03-8.15476E-02
 -1      1064-2.73327E-03 1.82346E-03-7.37144E-02
 -1      1065-1.72302E-03 1.51171E-03-8.52182E-02
 -1      1066-2.68212E-03 8.11974E-04-6.92923E-02
 -1      1067 0.00000E+00 0.00000E+00 0.00000E+00
 -1      1068 0.00000E+00 0.00000E+00 0.00000E+00
 -1      1069 0.00000E+00 0.00000E+00 0.00000E+00
 -1      1070 0.00000E+00 0.00000E+00 0.00000E+00
 -1      1071 0.00000E+00 0.00000E+00 0.00000E+00
 -1      1072 0.00000E+00 0.00000E+00 0.00000E+00
 -1      1073 0.00000E+00 0.00000E+00 0.00000E+00
 -1      1074 0.00000E+00 0.00000E+00 0.00000E+00
 -1      1075 0.00000E+00 0.00000E+00 0.00000E+00
 -1      1076 0.00000E+00 0.00000E+00 0.00000E+00
 -1      1077 0.00000E+00 0.00000E+00 0.00000E+00
 -1      1078 0.00000E+00 0.00000E+00 0.00000E+00
 -1      1079 0.00000E+00 0.00000E+00 0.00000E+00
 -1      1080 0.00000E+00 0.00000E+00 0.00000E+00
 -1      1081 0.00000E+00 0.00000E+00 0.00000E+00
 -1      1082 0.00000E+00 0.00000E+00 0.00000E+00
 -1      1083 0.00000E+00 0.00000E+00 0.00000E+00
 -1      1084 0.00000E+00 0.00000E+00 0.00000E+00
 -1      1085 0.00000E+00 0.00000E+00 0.00000E+00
 -1      1086 0.00000E+00 0.00000E+00 0.00000E+00
 -1      1087 0.00000E+00 0.00000E+00 0.00000E+00
 -1      1088 0.00000E+00 0.00000E+00 0.00000E+00
 -1      1089 0.00000E+00 0.00000E+00 0.00000E+00
 -1      1090 0.00000E+00 0.00000E+00 0.00000E+00
 -1      1091 0.00000E+00 0.00000E+00 0.00000E+00
 -1      1092 0.00000E+00 0.00000E+00 0.00000E+00
 -1      1093 0.00000E+00 0.00000E+00 0.00000E+00
 -1      1094 0.00000E+00 0.00000E+00 0.00000E+00
 -1      1095 0.00000E+00 0.00000E+00 0.00000E+00
 -1      1096 0.00000E+00 0.00000E+00 0.00000E+00
 -1      1097 0.00000E+00 0.00000E+00 0.00000E+00
 -1      1098 0.00000E+00 0.00000E+00 0.00000E+00
 -1      1099 0.00000E+00 0.00000E+00 0.00000E+00
 -1      1100 0.00000E+00 0.00000E+00 0.00000E+00
 -1      1101 0.00000E+00 0.00000E+00 0.00000E+00
 -1      1102 0.00000E+00 0.00000E+00 0.00000E+00
 -1      1103 0.00000E+00 0.00000E+00 0.00000E+00
 -1      1104 0.00000E+00 0.00000E+00 0.00000E+00
 -1      1105 0.00000E+00 0.00000E+00 0.00000E+00
 -1      1106 0.00000E+00 0.00000E+00 0.00000E+00
 -1      1107 0.00000E+00 0.00000E+00 0.00000E+00
 -1      1108 0.00000E+00 0.00000E+00 0.00000E+00
 -1      1109 0.00000E+00 0.00000E+00 0.00000E+00
 -1      1110 0.00000E+00 0.00000E+00 0.00000E+00
 -1      1111 0.00000E+00 0.00000E+00 0.00000E+00
 -1      1112 0.00000E+00 0.00000E+00 0.00000E+00
 -1      1113 0.00000E+00 0.00000E+00 0.00000E+00
 -1      1114 0.00000E+00 0.00000E+00 0.00000E+00
 -1      1115 0.00000E+00 0.00000E+00 0.00000E+00
 -1      1116 0.00000E+00 0.00000E+00 0.00000E+00
 -1      1117 0.00000E+00 0.00000E+00 0.00000E+00
 -1      1118 0.00000E+00 0.00000E+00 0.00000E+00
 -1      1119 0.00000E+00 0.00000E+00 0.00000E+00
 -1      1120 0.00000E+00 0.00000E+00 0.00000E+00
 -1      1121 0.00000E+00 0.00000E+00 0.00000E+00
 -1      1122 0.00000E+00 0.00000E+00 0.00000E+00
 -1      1123 0.00000E+00 0.00000E+00 0.00000E+00
 -1      1124 5.97620E-03-1.17837E-03-7.07445E-02
 -1      1125-9.56655E-03-4.14770E-04-7.84321E-02
 -1      1126-6.06063E-03-9.82504E-04-8.72712E-02
 -1      1127-3.14808E-03-6.27323E-05-8.23788E-02
 -1      1128-2.78003E-03-8.00467E-05-7.11297E-02
 -1      1129-3.34400E-03-9.75649E-05-7.92519E-02
 -1      1130-2.89390E-03-3.43468E-04-8.19869E-02
 -1      1131-6.10645E-03-9.26771E-03-7.34296E-02
 -1      1132-3.08994E-03-8.33061E-03-8.14745E-02
 -1      1133-2.99925E-03-7.78283E-03-7.73757E-02
 -1      1134-6.06798E-03-8.81499E-03-6.95321E-02
 -1      1135 5.63574E-03-5.99636E-03-7.24194E-02
 -1      1136-2.44026E-03-1.41075E-03-7.84639E-02
 -1      1137-2.69354E-03-9.35704E-04-6.86075E-02
 -1      1138-2.30519E-03-2.05420E-03-7.03871E-02
 -1      1139-2.47253E-03-1.67555E-03-7.30937E-02
 -1      1140 2.02421E-03-1.21778E-02-5.91597E-02
 -1      1141 4.65589E-03-1.14680E-02-6.57443E-02
 -1      1142 4.47389E-03-1.12010E-02-5.83792E-02
 -1      1143 1.62355E-03-1.21712E-02-5.30228E-02
 -1      1144 1.07871E-02-8.59445E-03-5.37045E-02
 -1      1145-1.14378E-03-2.04197E-03-6.38921E-02
 -1      1146-1.50903E-03-1.70292E-03-5.65386E-02
 -1      1147-6.55238E-04-2.90091E-03-5.38214E-02
 -1      1148-8.13587E-04-2.19323E-03-5.40066E-02
 -1      1149 9.98455E-03-9.30971E-03-3.65138E-02
 -1      1150 1.22230E-02-8.76101E-03-4.08957E-02
 -1      1151 1.19209E-02-8.87049E-03-3.10558E-02
 -1      1152 9.76527E-03-9.40519E-03-2.86063E-02
 -1      1153 1.93558E-02-6.55122E-03-2.09826E-02
 -1      1154 1.73357E-02-6.75359E-03-3.98178E-02
 -1      1155 1.91777E-02-6.74335E-03-3.60672E-02
 -1      1156 1.74283E-02-6.75824E-03-2.71311E-02
 -1      1157-2.71069E-04-1.38659E-03-3.63319E-02
 -1      1158 1.45416E-03-1.87742E-03-4.11991E-02
 -1      1159 1.04406E-03-2.26361E-03-2.91548E-02
 -1      1160 4.56282E-04-1.61187E-03-2.73464E-02
 -1      1161 1.36243E-02-1.37899E-03-9.43990E-03
 -1      1162 1.60536E-02-1.28145E-03-1.06550E-02
 -1      1163 1.34366E-02-1.75209E-03-1.18100E-03
 -1      1164 2.28030E-02-1.08847E-03-1.08108E-02
 -1      1165 2.04498E-02-1.32403E-03 3.19030E-03
 -1      1166 5.40859E-04-4.64404E-04-1.11772E-02
 -1      1167 2.36230E-03-2.99212E-04-1.04634E-02
 -1      1168 2.06716E-03-3.43801E-04-1.40905E-03
 -1      1169 1.16803E-03-3.33127E-04 3.28117E-03
 -1      1170 1.20139E-02 7.18880E-03 2.61969E-02
 -1      1171 2.15622E-02 5.41989E-03 3.31925E-02
 -1      1172 1.94566E-02 5.40593E-03 3.41103E-02
 -1      1173 1.39485E-02 7.17665E-03 2.07879E-02
 -1      1174 2.16406E-02 5.41513E-03 1.65666E-02
 -1      1175 4.36504E-04 7.81447E-04 1.65708E-02
 -1      1176 2.13998E-03 1.28931E-03 2.10569E-02
 -1      1177 1.56539E-03 1.37012E-03 2.62085E-02
 -1      1178 6.53763E-04 1.28348E-03 3.43964E-02
 -1      1179 7.78074E-03 1.21970E-02 5.03738E-02
 -1      1180 5.28542E-03 1.31492E-02 5.16291E-02
 -1      1181 1.61157E-02 9.27225E-03 4.29653E-02
 -1      1182 1.41398E-02 9.72931E-03 6.09198E-02
 -1      1183-4.63010E-04 1.55687E-03 4.29362E-02
 -1      1184 8.96589E-05 2.73516E-03 5.18837E-02
 -1      1185-5.16376E-04 2.11773E-03 6.14461E-02
 -1      1186-4.13836E-03 1.17248E-02 6.73986E-02
 -1      1187-5.73101E-04 1.13430E-02 7.50940E-02
 -1      1188 3.29926E-04 1.16756E-02 8.15469E-02
 -1      1189-3.63811E-03 1.19176E-02 7.19798E-02
 -1      1190 7.70868E-03 9.19047E-03 8.11382E-02
 -1      1191-1.74709E-03 1.72992E-03 6.42531E-02
 -1      1192-9.80285E-04 2.30099E-03 7.63882E-02
 -1      1193-1.99054E-03 2.58774E-03 7.26589E-02
 -1      1194-2.04852E-03 1.87075E-03 8.19047E-02
 -1      1195-9.65496E-03 5.68161E-03 8.12269E-02
 -1      1196-5.71309E-03 4.75568E-03 9.05629E-02
 -1      1197-9.36061E-03 5.84169E-03 8.35883E-02
 -1      1198 2.95131E-03 4.20056E-03 9.08115E-02
 -1      1199-2.72137E-03 7.91373E-04 7.78924E-02
 -1      1200-2.48948E-03 1.11683E-03 9.17120E-02
 -1      1201-3.16634E-03 1.17573E-03 8.42044E-02
 -1      1202-2.90580E-03 6.82455E-04 9.15317E-02
 -1      1203 3.23705E-03-2.25402E-03 8.90862E-02
 -1      1204 5.55360E-03-2.36602E-03 8.12112E-02
 -1      1205-5.97606E-03-3.08252E-03 9.23104E-02
 -1      1206-9.73035E-03-4.07843E-03 8.30287E-02
 -1      1207-6.32460E-03-3.79067E-03 9.37516E-02
 -1      1208-2.72823E-03-3.35753E-04 8.16683E-02
 -1      1209-2.09574E-03-5.38455E-04 9.49790E-02
 -1      1210-3.06737E-03-8.90781E-04 8.38821E-02
 -1      1211-3.09330E-03-7.44510E-04 8.98473E-02
 -1      1212 1.07374E-02-8.69484E-03 7.51084E-02
 -1      1213-3.70324E-03-1.08580E-02 7.67124E-02
 -1      1214-6.94518E-04-1.02458E-02 7.97342E-02
 -1      1215-3.83475E-03-1.05974E-02 7.23748E-02
 -1      1216 1.18998E-04-1.04724E-02 8.50622E-02
 -1      1217-2.34666E-03-1.46768E-03 7.52732E-02
 -1      1218-1.06611E-03-2.13840E-03 8.61707E-02
 -1      1219-1.64469E-03-2.52795E-03 7.32785E-02
 -1      1220-1.64637E-03-2.10637E-03 7.60015E-02
 -1      1221 1.49066E-02-9.37744E-03 5.12824E-02
 -1      1222 1.70726E-02-9.11972E-03 5.80928E-02
 -1      1223 8.64325E-03-1.17994E-02 5.46421E-02
 -1      1224 5.72688E-03-1.27164E-02 4.99778E-02
 -1      1225 8.78555E-03-1.19691E-02 6.36841E-02
 -1      1226-6.93636E-04-1.90346E-03 5.86042E-02
 -1      1227 8.19003E-04-2.48916E-03 6.43094E-02
 -1      1228 1.81213E-04-2.96944E-03 5.04702E-02
 -1      1229-1.79533E-04-2.31386E-03 5.17490E-02
 -1      1230 2.04998E-02-5.38979E-03 3.53938E-02
 -1      1231 2.25750E-02-5.39631E-03 3.40969E-02
 -1      1232 1.49603E-02-7.05274E-03 2.28567E-02
 -1      1233 1.28039E-02-7.43173E-03 2.06436E-02
 -1      1234 1.30344E-02-7.34140E-03 2.95400E-02
 -1      1235 1.53573E-02-6.67975E-03 3.32885E-02
 -1      1236 1.41623E-04-1.20599E-03 3.44463E-02
 -1      1237 2.08844E-03-1.43056E-03 3.36191E-02
 -1      1238 1.82927E-03-1.66004E-03 2.11750E-02
 -1      1239 1.06703E-03-1.29602E-03 2.09706E-02
 -1      1240 2.32699E-02 9.76551E-04-1.12844E-02
 -1      1241 2.10225E-02 8.82642E-04-1.13425E-02
 -1      1242 1.43452E-02 1.32329E-03-9.84157E-03
 -1      1243 1.62568E-02 1.57988E-03-5.28883E-04
 -1      1244 2.34359E-02 1.04155E-03 6.04862E-03
 -1      1245 3.83565E-04-3.60325E-04 6.37395E-03
 -1      1246 2.54505E-03 1.57995E-04-6.87981E-04
 -1      1247 2.12857E-03 2.85648E-04-9.61840E-03
 -1      1248 1.12982E-03 1.97011E-04-1.15841E-02
 -1      1249 1.22747E-02 8.66637E-03-4.19576E-02
 -1      1250 9.98769E-03 9.15708E-03-3.74311E-02
 -1      1251 9.80276E-03 9.52016E-03-2.94306E-02
 -1      1252 1.20025E-02 8.71737E-03-3.20355E-02
 -1      1253 1.91350E-02 6.58682E-03-3.69282E-02
 -1      1254 1.72793E-02 6.70200E-03-4.07267E-02
 -1      1255 1.93075E-02 6.56197E-03-2.17495E-02
 -1      1256-1.09736E-04 8.80704E-04-2.17318E-02
 -1      1257 1.12496E-03 1.94265E-03-3.75892E-02
 -1      1258 2.47575E-04 1.64187E-03-4.13049E-02
 -1      1259 1.40290E-02 8.61154E-03-4.54123E-02
 -1      1260 2.85165E-03 1.26915E-02-6.21185E-02
 -1      1261 5.18954E-03 1.12028E-02-6.03081E-02
 -1      1262-7.69598E-04 1.95828E-03-5.49228E-02
 -1      1263-1.12174E-03 1.48874E-03-4.55866E-02
 -1      1264-6.92473E-04 2.69057E-03-6.23828E-02
 -1      1265-1.30891E-03 1.89696E-03-6.52895E-02
 -1      1266 5.72536E-03 5.89599E-03-7.89897E-02
 -1      1267 7.97104E-03 4.78684E-03-6.30831E-02
 -1      1268-6.56822E-03 8.29509E-03-7.59449E-02
 -1      1269-2.99506E-03 6.82075E-03-8.03617E-02
 -1      1270-2.48082E-03 1.44513E-03-7.45367E-02
 -1      1271-2.35507E-03 1.10248E-03-6.31621E-02
 -1      1272-2.82143E-03 1.79277E-03-7.62056E-02
 -1      1273-2.54563E-03 1.16049E-03-7.97670E-02
 -1      1274 0.00000E+00 0.00000E+00 0.00000E+00
 -1      1275 0.00000E+00 0.00000E+00 0.00000E+00
 -1      1276 0.00000E+00 0.00000E+00 0.00000E+00
 -1      1277 0.00000E+00 0.00000E+00 0.00000E+00
 -1      1278 0.00000E+00 0.00000E+00 0.00000E+00
 -1      1279 0.00000E+00 0.00000E+00 0.00000E+00
 -1      1280 0.00000E+00 0.00000E+00 0.00000E+00
 -1      1281 0.00000E+00 0.00000E+00 0.00000E+00
 -1      1282 0.00000E+00 0.00000E+00 0.00000E+00
 -1      1283 0.00000E+00 0.00000E+00 0.00000E+00
 -1      1284 0.00000E+00 0.00000E+00 0.00000E+00
 -1      1285 0.00000E+00 0.00000E+00 0.00000E+00
 -1      1286 0.00000E+00 0.00000E+00 0.00000E+00
 -1      1287 0.00000E+00 0.00000E+00 0.00000E+00
 -1      1288 0.00000E+00 0.00000E+00 0.00000E+00
 -1      1289 0.00000E+00 0.00000E+00 0.00000E+00
 -1      1290 0.00000E+00 0.00000E+00 0.00000E+00
 -1      1291 0.00000E+00 0.00000E+00 0.00000E+00
 -1      1292 0.00000E+00 0.00000E+00 0.00000E+00
 -1      1293 0.00000E+00 0.00000E+00 0.00000E+00
 -1      1294 0.00000E+00 0.00000E+00 0.00000E+00
 -1      1295 0.00000E+00 0.00000E+00 0.00000E+00
 -1      1296 0.00000E+00 0.00000E+00 0.00000E+00
 -1      1297 0.00000E+00 0.00000E+00 0.00000E+00
 -1      1298 0.00000E+00 0.00000E+00 0.00000E+00
 -1      1299 0.00000E+00 0.00000E+00 0.00000E+00
 -1      1300 0.00000E+00 0.00000E+00 0.00000E+00
 -1      1301 0.00000E+00 0.00000E+00 0.00000E+00
 -1      1302 0.00000E+00 0.00000E+00 0.00000E+00
 -1      1303 0.00000E+00 0.00000E+00 0.00000E+00
 -1      1304 0.00000E+00 0.00000E+00 0.00000E+00
 -1      1305 0.00000E+00 0.00000E+00 0.00000E+00
 -1      1306 0.00000E+00 0.00000E+00 0.00000E+00
 -1      1307 0.00000E+00 0.00000E+00 0.00000E+00
 -1      1308 0.00000E+00 0.00000E+00 0.00000E+00
 -1      1309 0.00000E+00 0.00000E+00 0.00000E+00
 -1      1310 0.00000E+00 0.00000E+00 0.00000E+00
 -1      1311 0.00000E+00 0.00000E+00 0.00000E+00
 -1      1312 0.00000E+00 0.00000E+00 0.00000E+00
 -1      1313 0.00000E+00 0.00000E+00 0.00000E+00
 -1      1314 0.00000E+00 0.00000E+00 0.00000E+00
 -1      1315 0.00000E+00 0.00000E+00 0.00000E+00
 -1      1316 0.00000E+00 0.00000E+00 0.00000E+00
 -1      1317 0.00000E+00 0.00000E+00 0.00000E+00
 -1      1318 0.00000E+00 0.00000E+00 0.00000E+00
 -1      1319 0.00000E+00 0.00000E+00 0.00000E+00
 -1      1320 0.00000E+00 0.00000E+00 0.00000E+00
 -1      1321 0.00000E+00 0.00000E+00 0.00000E+00
 -1      1322 0.00000E+00 0.00000E+00 0.00000E+00
 -1      1323 0.00000E+00 0.00000E+00 0.00000E+00
 -1      1324 0.00000E+00 0.00000E+00 0.00000E+00
 -1      1325 0.00000E+00 0.00000E+00 0.00000E+00
 -1      1326 0.00000E+00 0.00000E+00 0.00000E+00
 -1      1327 0.00000E+00 0.00000E+00 0.00000E+00
 -1      1328 0.00000E+00 0.00000E+00 0.00000E+00
 -1      1329 0.00000E+00 0.00000E+00 0.00000E+00
 -1      1330 0.00000E+00 0.00000E+00 0.00000E+00
 -1      1331 0.00000E+00 0.00000E+00 0.00000E+00
 -1      1332 0.00000E+00 0.00000E+00 0.00000E+00
 -1      1333 0.00000E+00 0.00000E+00 0.00000E+00
 -1      1334 0.00000E+00 0.00000E+00 0.00000E+00
 -1      1335 0.00000E+00 0.00000E+00 0.00000E+00
 -1      1336 0.00000E+00 0.00000E+00 0.00000E+00
 -1      1337 0.00000E+00 0.00000E+00 0.00000E+00
 -1      1338 0.00000E+00 0.00000E+00 0.00000E+00
 -1      1339 0.00000E+00 0.00000E+00 0.00000E+00
 -1      1340 0.00000E+00 0.00000E+00 0.00000E+00
 -1      1341 0.00000E+00 0.00000E+00 0.00000E+00
 -1      1342 0.00000E+00 0.00000E+00 0.00000E+00
 -1      1343 0.00000E+00 0.00000E+00 0.00000E+00
 -1      1344 0.00000E+00 0.00000E+00 0.00000E+00
 -1      1345 1.03360E-03-1.88490E-03-4.72564E-02
 -1      1346-2.64777E-03-2.90728E-04 7.83530E-02
 -1      1347-2.65299E-03 3.86436E-04 7.80577E-02
 -1      1348-2.25678E-03-1.27210E-03 7.27668E-02
 -1      1349-2.55230E-03-7.35870E-04 7.49138E-02
 -1      1350-2.22500E-03 1.03432E-03-5.96576E-02
 -1      1351-1.43350E-03 1.21049E-03-5.49156E-02
 -1      1352-2.56807E-03-8.21905E-04-6.56752E-02
 -1      1353-2.54703E-03-4.14506E-04-6.63429E-02
 -1      1354-1.55795E-03-1.45939E-03-5.44298E-02
 -1      1355-2.30593E-03-1.16903E-03-5.82006E-02
 -1      1356 3.05153E-04 7.74429E-04 1.55218E-02
 -1      1357 4.77728E-04-8.63714E-05 7.38028E-03
 -1      1358-9.57468E-04-1.50620E-03-4.18390E-02
 -1      1359-3.45261E-04-1.22261E-03-3.51345E-02
 -1      1360-9.64581E-05 9.64688E-04 3.32484E-02
 -1      1361-7.01045E-04 1.36028E-03 4.05430E-02
 -1      1362 1.08540E-04-1.10225E-03 3.41312E-02
 -1      1363-3.59647E-04-1.49555E-03 4.11292E-02
 -1      1364 2.80191E-04 7.55982E-05-1.15764E-02
 -1      1365-1.26742E-04 8.11017E-04-1.93121E-02
 -1      1366-1.94628E-03 1.30966E-03 7.15928E-02
 -1      1367-2.43926E-03 8.16937E-04 7.43159E-02
 -1      1368-1.53233E-03-1.64689E-03 6.28949E-02
 -1      1369-9.94636E-04-1.65983E-03 5.66466E-02
 -1      1370 3.16192E-04-8.73895E-04 1.56583E-02
 -1      1371 2.94414E-04-2.98615E-04 7.53591E-03
 -1      1372-1.12806E-03 1.40897E-03-4.25783E-02
 -1      1373-6.06609E-04 1.22604E-03-3.59174E-02
 -1      1374-6.25282E-03-4.57117E-04-2.60961E-02
 -1      1375 1.88268E-04-8.03382E-04-4.39877E-03
 -1      1376-1.65144E-04-2.02546E-03-8.78113E-03
 -1      1377-1.45595E-02-1.09135E-04 5.31228E-03
 -1      1378 2.08791E-04 1.87527E-03 7.07502E-03
 -1      1379-5.02567E-03-1.65613E-03-2.50058E-02
 -1      1380-4.03249E-03-8.48418E-04-1.28716E-02
 -1      1381-2.36749E-04-2.88861E-03 2.11726E-02
 -1      1382 5.12065E-03 1.82507E-04-5.79356E-02
 -1      1383-1.95075E-03-1.97266E-04 9.74188E-02
 -1      1384 3.16234E-03 3.05049E-03-4.55619E-02
 -1      1385-1.08605E-03 2.46926E-03 1.37244E-02
 -1      1386-5.90052E-03 1.10443E-03 2.90441E-02
 -1      1387 6.02040E-03 1.47268E-03 6.20038E-02
 -1      1388-2.66404E-03-3.27074E-03-2.12270E-02
 -1      1389 2.50572E-05 2.88102E-03-3.60117E-02
 -1      1390 3.25504E-03-3.72155E-03 4.89445E-02
 -1      1391-6.42568E-03-7.39213E-04 2.84086E-02
 -1      1392-2.39064E-03 4.21250E-04-8.31749E-03
 -1      1393-4.38248E-03-3.06037E-03 2.92968E-02
 -1      1394-2.02572E-03-3.69032E-03 1.79845E-02
 -1      1395 5.17535E-04-2.20532E-03 6.42215E-03
 -1      1396-5.19732E-03-1.73071E-03 3.21671E-02
 -1      1397 6.05738E-04-1.72562E-03-1.32502E-02
 -1      1398 1.27706E-03-3.99522E-03 2.64569E-02
 -1      1399 6.14249E-03 2.55927E-03 3.73580E-02
 -1      1400 1.15782E-03-1.63350E-04 5.43888E-03
 -1      1401-2.79382E-03-2.99229E-03-5.98157E-02
 -1      1402-5.98957E-03 2.00331E-03 2.98236E-02
 -1      1403-4.91493E-03-3.63986E-05 1.82699E-02
 -1      1404-5.58642E-03 2.16812E-03-2.78480E-02
 -1      1405-4.22069E-03 3.23212E-03-2.57465E-02
 -1      1406-4.99850E-03 2.49131E-03 6.04858E-02
 -1      1407 5.52613E-03 1.45662E-03-3.21166E-02
 -1      1408 1.26155E-03-3.36508E-04 2.89658E-02
 -1      1409 2.75024E-03 6.37008E-04-1.00594E-02
 -1      1410-1.47855E-03 2.69137E-03-1.59476E-02
 -1      1411 3.03773E-03-3.28873E-03-4.94296E-02
 -1      1412-2.75132E-03 3.33644E-03-1.76823E-02
 -1      1413 5.40000E-04 9.31201E-04-4.63278E-03
 -1      1414 7.41557E-04-5.60135E-04 2.67456E-03
 -1      1415-4.09698E-03 1.35013E-03 1.34859E-02
 -1      1416-6.24105E-03 3.48463E-04 5.47877E-02
 -1      1417-3.28436E-03 2.34528E-03 7.98193E-02
 -1      1418 1.15456E-03-2.49045E-03 7.58231E-03
 -1      1419 2.74697E-03-3.30816E-03-1.92251E-02
 -1      1420 9.27320E-04-3.63020E-04-2.39722E-02
 -1      1421 1.20803E-03 1.22503E-05 1.56476E-02
 -1      1422 4.69455E-03-2.75030E-03 2.48257E-02
 -1      1423-4.70813E-03 1.52626E-03 5.45572E-02
 -1      1424-9.45653E-04-1.44894E-04 1.11748E-03
 -1      1425-4.18332E-04-3.20688E-03-4.20934E-02
 -1      1426 8.23088E-04-1.93579E-03 3.78261E-03
 -1      1427 3.92269E-03 2.25242E-03-1.72349E-02
 -1      1428-2.94372E-04-1.41019E-03 5.88192E-03
 -1      1429 2.37716E-03 3.07088E-03-2.30371E-02
 -1      1430 1.16673E-03 4.07230E-03 4.17015E-02
 -1      1431-6.24465E-03 1.32518E-03-6.57668E-02
 -1      1432-1.52220E-04 2.43901E-03 2.04515E-02
 -1      1433 5.33003E-03 1.13271E-03 2.19837E-02
 -1      1434 4.92329E-03 1.12489E-03 1.43668E-02
 -1      1435 5.52063E-03-1.27458E-03 6.29150E-02
 -1      1436-2.94347E-03-1.69832E-03-3.27773E-02
 -1      1437 2.65354E-03 2.56100E-03-1.52469E-02
 -1      1438 7.21216E-04-1.33080E-03-8.00114E-03
 -1      1439-2.97813E-03-6.09281E-04 9.57293E-03
 -1      1440-3.82821E-04 1.42015E-03 5.91009E-03
 -1      1441-3.41900E-04-2.85405E-03 1.36454E-02
 -1      1442-1.85075E-03 2.39025E-03-7.04059E-03
 -1      1443-2.96273E-03-1.73765E-04 7.45761E-03
 -1      1444 3.61584E-03-2.53503E-03 6.68412E-02
 -1      1445 9.93465E-04 5.01990E-04-1.59281E-03
 -1      1446 7.87538E-04-3.69692E-04-8.48833E-03
 -1      1447 1.41210E-03-2.14917E-03-5.90328E-03
 -1      1448 2.80409E-05 7.16321E-04 1.75196E-03
 -1      1449 4.42430E-03-2.65562E-03-2.98972E-02
 -1      1450 3.02607E-03 3.34269E-03-3.28618E-02
 -1      1451 2.16287E-03 3.17198E-03 1.66459E-02
 -1      1452-3.64224E-03-3.88130E-03 2.07108E-02
 -1      1453 4.51690E-03 2.22893E-03-1.87002E-02
 -1      1454 1.45813E-03 1.68490E-03 7.79083E-03
 -1      1455 5.45584E-05-2.48383E-03-1.61475E-02
 -1      1456 4.58566E-03 2.48628E-04 1.44275E-02
 -1      1457 4.59054E-03 8.65612E-04 3.49650E-03
 -1      1458 3.95433E-04 1.36995E-04 4.37071E-02
 -1      1459-2.24180E-04-1.34016E-03-5.13364E-03
 -1      1460 3.26624E-03-2.32329E-03-1.25350E-02
 -1      1461 1.16431E-03 2.28702E-03-1.23007E-02
 -1      1462-1.27492E-04-1.61884E-03-2.37383E-03
 -1      1463-4.01372E-03 2.79763E-03 2.55208E-02
 -1      1464-3.65244E-03-1.77246E-03 1.75827E-02
 -1      1465-4.20046E-03 3.14918E-03-5.38867E-02
 -1      1466-5.72681E-03-1.34884E-03-5.52011E-02
 -1      1467-5.07800E-03 2.52398E-03-2.24570E-02
 -1      1468-6.42501E-05 1.76450E-03-9.79222E-03
 -1      1469 2.49287E-04-3.47458E-03-3.80528E-02
 -1      1470-4.59467E-03 2.61871E-04 8.12084E-02
 -1      1471 2.17068E-04-8.95192E-04 2.24375E-03
 -1      1472-2.63957E-03 1.16582E-03 1.15651E-02
 -1      1473 5.45732E-03 1.30706E-03 2.65539E-02
 -1      1474-5.35037E-03-2.02505E-03-4.83178E-02
 -1      1475 5.12742E-04 2.67635E-03 3.30225E-02
 -1      1476-5.75981E-03 1.46422E-03-5.73099E-02
 -1      1477-7.66510E-03-1.10201E-03 3.00244E-02
 -1      1478 1.46908E-03-1.54168E-03-1.89708E-02
 -1      1479 6.50968E-03 2.29187E-03 4.98135E-02
 -1      1480 1.12354E-03 9.53479E-04-6.96036E-03
 -1      1481-3.72362E-03-2.15620E-03-2.23268E-02
 -1      1482-1.32851E-03-2.95556E-03-1.33866E-02
 -1      1483-4.18636E-04-7.60628E-04-2.21754E-03
 -1      1484-1.11058E-03 6.38390E-04 3.10698E-03
 -1      1485-2.39420E-03 3.38939E-03 2.16638E-02
 -1      1486-4.37329E-03-6.96449E-04 9.98315E-03
 -1      1487-3.33874E-03 6.51707E-04 1.02011E-02
 -1      1488-7.14761E-04 9.44142E-04 2.45122E-03
 -1      1489-3.12604E-04-1.20206E-03-1.70867E-03
 -1      1490-3.86970E-04 1.04573E-03-5.30516E-03
 -1      1491-6.31332E-03-1.73041E-04 3.78446E-02
 -1      1492 3.10415E-03-3.32868E-03 1.98304E-02
 -1      1493 3.24394E-03 2.78510E-03-2.86801E-02
 -1      1494 3.85000E-03 3.12266E-03 2.76515E-02
 -1      1495 3.20530E-03 8.88617E-04-6.18999E-03
 -1      1496 1.17258E-03-2.31703E-03 8.35561E-03
 -1      1497 6.65688E-04-1.73189E-03 1.53289E-03
 -1      1498 6.69042E-04-2.97877E-03 1.73715E-02
 -1      1499-5.91338E-03-6.25004E-04-5.11069E-02
 -1      1500-1.19041E-02 6.02476E-04-1.74076E-02
 -1      1501-5.86735E-03-1.11442E-03 3.17586E-02
 -1      1502-6.97287E-05 2.16451E-03 8.02087E-02
 -1      1503 3.72018E-03 1.58345E-03 1.05906E-02
 -1      1504-1.22351E-03 2.04053E-03-2.01969E-02
 -1      1505-2.87569E-03-2.50450E-03 9.92759E-03
 -1      1506 4.89294E-03 7.20327E-04-2.65040E-02
 -1      1507-1.85366E-03-2.50708E-03 6.73956E-03
 -1      1508 4.66509E-03 2.94398E-03-4.36379E-02
 -1      1509 5.35205E-03 2.31806E-03-4.83971E-02
 -1      1510-1.72221E-03-3.93372E-03 3.52032E-02
 -1      1511-6.30829E-03-6.80836E-04 5.51246E-02
 -1      1512-1.93587E-03-3.17133E-04-7.93075E-03
 -1      1513-3.64106E-03-5.48706E-05-8.13883E-03
 -1      1514 0.00000E+00 0.00000E+00 0.00000E+00
 -1      1515-2.27199E-03-1.90309E-03-7.96872E-03
 -1      1516-6.72021E-04-1.05120E-03-4.27832E-03
 -1      1517-5.76553E-03 2.01915E-03 5.29845E-02
 -1      1518-4.09880E-03-2.94560E-03-4.56909E-02
 -1      1519-2.63760E-03 2.86593E-03-9.75430E-03
 -1      1520-3.78446E-04-3.09037E-03 3.78031E-02
 -1      1521-1.89998E-03-6.12976E-04 6.19297E-03
 -1      1522 8.93801E-04 3.72102E-04 3.85919E-03
 -1      1523-9.87398E-04 1.92399E-03 6.98492E-03
 -1      1524-6.19876E-03 1.10711E-03 5.41377E-02
 -1      1525-3.30754E-03 3.79116E-03-3.50163E-02
 -1      1526 7.32930E-05 5.47568E-04 1.90114E-03
 -1      1527 2.15606E-03-5.86596E-04 1.08138E-02
 -1      1528-3.52161E-03 3.36632E-03 4.48327E-02
 -1      1529 3.59668E-04 9.51713E-04 5.35378E-03
 -1      1530-4.67109E-03-2.46544E-03-4.31208E-02
 -1      1531 3.97442E-03-2.61304E-03-2.89783E-02
 -1      1532 9.92231E-04 1.55538E-03 1.15871E-02
 -1      1533-1.77623E-03 2.09009E-03-6.15311E-02
 -1      1534-8.07503E-05-5.02112E-04 1.88387E-03
 -1      1535-7.83374E-04 2.61183E-03 1.42037E-02
 -1      1536-6.19501E-03-7.85373E-04-7.92952E-02
 -1      1537 4.02819E-05-4.61767E-04 5.17318E-02
 -1      1538 5.14769E-03 1.27945E-03-5.19241E-02
 -1      1539-2.76807E-03-2.98450E-03 8.60536E-03
 -1      1540 2.81042E-03 2.79915E-03 1.03936E-02
 -1      1541-6.93141E-04-7.18192E-04 4.15816E-03
 -1      1542 5.98785E-04 3.04970E-03-4.66821E-02
 -1      1543-8.27220E-05 2.21493E-03 1.06681E-02
 -1      1544-4.06995E-04 7.27919E-04-1.87564E-03
 -1      1545-4.19673E-03-2.67801E-03 1.03293E-02
 -1      1546-4.56281E-03-2.87945E-03 4.96790E-02
 -1      1547 1.75262E-03 5.40895E-04 6.83774E-03
 -1      1548 1.07695E-03-1.96542E-05 1.51786E-03
 -1      1549 4.37259E-04-1.43851E-03 1.06230E-03
 -1      1550-6.50027E-03 4.02193E-04-3.85474E-02
 -1      1551 1.90591E-03-1.76691E-03 1.45964E-02
 -1      1552-1.64423E-03 2.78272E-03 8.35531E-03
 -1      1553-5.17390E-03 2.96530E-03-3.53861E-02
 -1      1554-2.79013E-03 2.41752E-03-7.30280E-03
 -1      1555-1.28884E-04-3.30506E-03 2.71328E-02
 -1      1556-1.35521E-03-6.35440E-04-5.85248E-03
 -1      1557-4.17551E-03 1.17885E-03 8.36566E-03
 -1      1558 1.49194E-03-3.24485E-03-1.21431E-02
 -1      1559 1.44933E-03-1.03612E-03 7.66217E-03
 -1      1560 2.06309E-04-3.38941E-03-2.47022E-02
 -1      1561-1.44157E-03 9.74539E-04-3.66571E-03
 -1      1562-8.42697E-04 1.11138E-03-3.19417E-03
 -1      1563 5.58937E-03 2.03100E-03-2.82151E-02
 -1      1564 3.32732E-04-1.71786E-03-7.32767E-03
 -1      1565 3.35215E-03-3.44820E-03-2.99872E-02
 -1      1566-6.37482E-04 2.87633E-03 2.65826E-02
 -1      1567 5.88329E-05-6.89227E-04-6.54060E-04
 -1      1568-1.43747E-03 1.69825E-03 7.09735E-03
 -1      1569 4.74935E-03-1.19494E-03-3.35216E-02
 -1      1570 2.03092E-03 1.56241E-03-7.73763E-03
 -1      1571-1.13174E-03 3.55433E-03 2.77564E-02
 -1      1572 2.75643E-03-1.20698E-04 8.54115E-02
 -1      1573 7.73082E-04-2.12601E-03-1.96079E-02
 -1      1574-4.92697E-03-1.98133E-03 6.07004E-02
 -1      1575 2.36755E-03 1.93180E-04 7.57579E-03
 -1      1576-2.30367E-03-3.94145E-03 2.19262E-02
 -1      1577-8.46999E-03 9.40711E-04 7.84300E-02
 -1      1578 4.40260E-03 2.99675E-03-3.42400E-02
 -1      1579 3.52222E-04 1.08866E-03 9.05868E-02
 -1      1580 3.15544E-03 9.08068E-05 9.88974E-03
 -1      1581 3.20913E-03-1.54078E-03 8.51298E-03
 -1      1582-2.30761E-03 7.02511E-04-8.83241E-02
 -1      1583-2.76108E-03 3.48434E-03 3.99489E-02
 -1      1584-4.33019E-03 2.89135E-03 4.36440E-02
 -1      1585 1.30135E-03 1.91836E-03-6.52950E-03
 -1      1586 5.70527E-04 1.67265E-03-5.31787E-03
 -1      1587 1.75118E-03-3.93995E-03-4.61840E-02
 -1      1588 9.62205E-04 7.07905E-05-2.43098E-02
 -1      1589-2.59874E-03-1.15052E-03 1.42416E-02
 -1      1590 2.92339E-03 3.64120E-03 4.51543E-02
 -1      1591 2.44474E-03 2.25797E-04-5.20345E-03
 -1      1592 3.15251E-03 3.50784E-03 2.45469E-02
 -1      1593 2.14412E-03 7.30556E-04-8.21979E-03
 -1      1594 2.18190E-04-3.61197E-03 2.99131E-02
 -1      1595-4.45025E-03 4.38936E-04 8.33148E-03
 -1      1596-2.02408E-03-4.82330E-04 3.27684E-03
 -1      1597 4.70057E-03 9.74459E-04-2.32132E-02
 -1      1598-6.22759E-03 1.85286E-03 3.58204E-02
 -1      1599 1.17074E-03-1.27084E-03 8.80588E-02
 -1      1600 1.66342E-03 8.80257E-04-5.26824E-03
 -1      1601 1.20928E-03-3.61943E-03-2.52309E-02
 -1      1602-5.06325E-03 8.57030E-04-2.96330E-02
 -1      1603 5.39840E-03 2.64746E-03-3.65537E-02
 -1      1604 1.05542E-03-1.31246E-03-4.51555E-03
 -1      1605-7.71183E-04 2.47698E-03 6.50795E-02
 -1      1606-4.42966E-04 1.18423E-03 6.32331E-04
 -1      1607 4.09212E-05 6.80721E-05-4.46207E-04
 -1      1608 9.36897E-04-1.71757E-03 3.05177E-03
 -1      1609 0.00000E+00 0.00000E+00 0.00000E+00
 -1      1610 5.63874E-04 1.69749E-03-1.21165E-02
 -1      1611 6.49875E-03 1.82485E-03 3.06895E-02
 -1      1612 0.00000E+00 0.00000E+00 0.00000E+00
 -1      1613 3.88706E-04 2.29445E-03 1.86769E-02
 -1      1614 4.08146E-04-2.30634E-03-1.52668E-02
 -1      1615-2.22598E-03 2.52590E-03-6.92638E-02
 -1      1616 8.89587E-04-3.82641E-03 4.56265E-02
 -1      1617 2.27440E-04-2.65735E-03-4.91375E-02
 -1      1618-1.11268E-03 1.72635E-03 1.34904E-03
 -1      1619-5.64892E-03-1.27128E-03 5.58103E-02
 -1      1620 3.06758E-03 2.19672E-03 7.18114E-02
 -1      1621 4.70519E-03 2.97568E-03 5.11471E-02
 -1      1622-4.71525E-03 1.32868E-03 7.86267E-02
 -1      1623 3.29326E-03 2.58985E-03 7.87041E-03
 -1      1624-2.85789E-03-4.16433E-03 4.95214E-02
 -1      1625 3.41178E-03 1.00353E-03 8.38610E-02
 -1      1626-1.61179E-03-1.00163E-03 4.46930E-03
 -1      1627-2.50719E-03-1.57654E-03-8.85609E-03
 -1      1628 1.27457E-03 3.25846E-03-3.04222E-02
 -1      1629-1.85600E-03-1.27778E-03-1.19833E-02
 -1      1630-2.09796E-03-2.59140E-03-1.16730E-02
 -1      1631-3.15294E-03 3.44914E-03-4.83986E-02
 -1      1632-3.00015E-03-3.70605E-03-3.28297E-02
 -1      1633 6.51658E-03 1.10246E-03 4.08658E-02
 -1      1634-1.43723E-03-1.53108E-03-6.35155E-03
 -1      1635-2.84333E-04-1.34465E-03-4.10104E-03
 -1      1636-5.73055E-03-1.57672E-03-3.94447E-02
 -1      1637-1.54806E-03-1.77713E-03-2.51593E-03
 -1      1638 5.25530E-03-1.30980E-03 2.14885E-02
 -1      1639-3.44512E-03-1.82707E-03-6.25937E-02
 -1      1640 1.13730E-03-3.37592E-03 1.86335E-02
 -1      1641 2.24152E-03 3.24706E-04 6.68153E-03
 -1      1642-1.88912E-03 4.73233E-04 5.64340E-03
 -1      1643-6.31771E-03-1.06386E-03 4.57748E-02
 -1      1644 1.57326E-03-1.60025E-03 6.84779E-03
 -1      1645-1.99444E-03 3.60440E-03-3.56668E-02
 -1      1646 3.69045E-03 2.69508E-04-1.40249E-02
 -1      1647-2.31676E-03 3.32510E-03-2.31837E-02
 -1      1648-4.90517E-04-3.53720E-03 2.79127E-02
 -1      1649 2.44801E-03 1.82946E-04 5.57008E-03
 -1      1650-2.21608E-03 1.79140E-03 7.53889E-02
 -1      1651 5.70598E-03 6.20669E-04-4.44126E-02
 -1      1652-1.42258E-03-1.39941E-03 1.14490E-02
 -1      1653 5.09100E-03 1.65593E-03-5.46102E-02
 -1      1654 3.58989E-03 3.07345E-03 1.56901E-02
 -1      1655 2.93291E-03 3.01460E-03-2.44328E-02
 -1      1656-7.89448E-04 1.44308E-03 5.46517E-03
 -1      1657 7.16474E-04 2.93732E-03 1.60067E-02
 -1      1658-1.06326E-03 2.24591E-03-4.90265E-02
 -1      1659 3.11106E-03 1.34167E-03-2.81056E-03
 -1      1660 3.46457E-03-2.10947E-03 1.57057E-02
 -1      1661-2.14921E-03 3.72297E-03 4.17826E-02
 -1      1662-5.73288E-03-6.98738E-04-3.03221E-02
 -1      1663 6.29349E-03 3.86505E-04 6.07051E-02
 -1      1664-4.68796E-03-9.91869E-04 6.59537E-02
 -1      1665-8.97005E-03 1.02913E-03 5.16070E-02
 -1      1666-1.96198E-03-3.67113E-03-2.71844E-02
 -1      1667 2.55026E-03 3.34071E-03 6.53347E-02
 -1      1668 0.00000E+00 0.00000E+00 0.00000E+00
 -1      1669 5.62337E-03-2.11482E-03 3.95856E-02
 -1      1670-4.98986E-04-1.84777E-03-5.22342E-03
 -1      1671-2.81153E-03-1.95644E-03 8.31035E-02
 -1      1672 3.35570E-03-9.30507E-04 8.36172E-03
 -1      1673 1.15904E-03-2.75325E-04 2.11891E-03
 -1      1674 4.13150E-04-2.66975E-03 2.49540E-02
 -1      1675 4.66694E-03 2.13600E-03-2.22619E-02
 -1      1676 1.00142E-03 1.46034E-03 5.44349E-03
 -1      1677-2.77329E-04 1.57735E-03 5.73233E-03
 -1      1678 4.99495E-04-3.85945E-03 3.91672E-02
 -1      1679-1.55613E-03 2.51795E-03 2.47104E-02
 -1      1680-2.45738E-03 1.89063E-03-3.45696E-02
 -1      1681-3.90156E-03-1.74729E-03 7.53008E-02
 -1      1682 8.37933E-04-6.07987E-04 9.29818E-02
 -1      1683-3.11543E-03-3.60245E-03-4.03420E-02
 -1      1684 3.61860E-03-1.87800E-03 7.49701E-02
 -1      1685-1.02130E-03-3.53182E-03-2.85754E-02
 -1      1686-5.52805E-03-6.12285E-04-1.81758E-02
 -1      1687-2.48682E-03 1.35981E-03-9.97049E-03
 -1      1688-1.87635E-03-7.16018E-04-5.05894E-03
 -1      1689 2.95480E-03-1.60773E-03-8.30506E-03
 -1      1690-6.64193E-03 8.55971E-04 2.80815E-02
 -1      1691 7.49475E-04 9.63172E-04-3.56464E-03
 -1      1692 6.69599E-06-6.26724E-04-3.98282E-04
 -1      1693 2.14039E-03 3.84039E-03 3.60265E-02
 -1      1694 4.84044E-03-2.77523E-03 4.54493E-02
 -1      1695-2.14461E-03-2.93145E-03-1.23732E-02
 -1      1696-2.18864E-06-2.25052E-03 1.06977E-02
 -1      1697-1.43491E-03-8.94814E-04 5.39712E-03
 -1      1698-1.05083E-03 3.10098E-03-3.27295E-02
 -1      1699 4.06120E-03 2.83369E-03 6.71991E-02
 -1      1700-5.90774E-03 1.45710E-03 6.33394E-02
 -1      1701 8.26006E-04-2.02388E-03-2.54352E-03
 -1      1702 1.81272E-03 7.58265E-04-8.08513E-02
 -1      1703-2.40919E-04 6.21889E-04 2.17061E-03
 -1      1704-6.35107E-03-1.41082E-04 5.59304E-02
 -1      1705 3.97340E-04 2.11901E-03 7.34645E-03
 -1      1706 5.48276E-03-1.27623E-04-2.40676E-02
 -1      1707-1.84905E-03-3.65410E-03-2.44036E-02
 -1      1708 1.72441E-03 3.87346E-03 2.73370E-02
 -1      1709 1.12694E-03 2.98822E-03 6.18775E-02
 -1      1710 1.06112E-04 1.74007E-03-9.11107E-03
 -1      1711-7.53988E-04-3.29894E-03 4.81405E-02
 -1      1712-1.99670E-03-3.60652E-03 2.46096E-02
 -1      1713 1.04180E-03-1.16756E-03-8.36505E-02
 -1      1714 1.27800E-04-2.88552E-03 1.98412E-02
 -1      1715 3.70440E-04-3.79430E-04-1.08530E-03
 -1      1716 3.26765E-03-3.60503E-03 3.02307E-02
 -1      1717-1.75898E-03-1.11800E-03-5.51161E-03
 -1      1718-5.47066E-03-3.75391E-04-8.47843E-03
 -1      1719-1.10261E-02 6.60444E-04-6.06612E-02
 -1      1720 3.53562E-03-1.05014E-03 8.20753E-02
 -1      1721 2.99683E-03-1.41396E-03 8.21443E-02
 -1      1722-3.05998E-03 1.86754E-03 8.70243E-03
 -1      1723-3.83440E-03-3.21033E-03 5.06274E-02
 -1      1724 6.67986E-03 1.38479E-03 1.61112E-02
 -1      1725 1.33656E-03-3.13013E-03 1.18537E-02
 -1      1726-5.55370E-03 1.51221E-03 6.20895E-02
 -1      1727-4.82750E-03 7.05814E-04-1.32090E-02
 -1      1728-4.73679E-04-1.59989E-03 4.47577E-03
 -1      1729-3.23157E-04-2.48393E-03-6.78629E-02
 -1      1730 2.49550E-03-6.86153E-04-1.10778E-02
 -1      1731-1.63585E-03 5.83568E-05-2.85426E-03
 -1      1732 8.15433E-04-8.22278E-04-3.31138E-03
 -1      1733-4.42377E-03 1.14157E-03-7.80922E-02
 -1      1734-2.71992E-03-1.09383E-03-8.50330E-02
 -1      1735 1.41800E-03-6.62894E-04 4.86285E-03
 -1      1736-5.76620E-03-1.16784E-04-5.59133E-02
 -1      1737-8.88356E-03-5.52009E-04-2.62059E-02
 -1      1738-3.83042E-03-2.59345E-03-2.24190E-02
 -1      1739-5.79793E-04-2.82940E-03 7.18450E-02
 -1      1740 1.47722E-03-3.10118E-03-5.79714E-02
 -1      1741-1.74743E-04 1.02055E-03-5.25656E-03
 -1      1742-5.72237E-03 2.54291E-03 4.27713E-02
 -1      1743-9.15176E-04-2.14775E-03 7.35109E-03
 -1      1744 2.17980E-03-2.82511E-03 1.78192E-02
 -1      1745 9.08182E-04-1.28475E-03 7.79272E-03
 -1      1746 3.09857E-03 3.19112E-03-3.79974E-02
 -1      1747-7.43203E-04-1.30947E-03-7.72193E-03
 -1      1748-8.46898E-04-3.64467E-03 4.38143E-02
 -1      1749-4.26526E-04-2.63785E-03 6.70862E-02
 -1      1750 1.09846E-03 1.06409E-03-1.28462E-02
 -1      1751 1.89565E-03-3.95769E-03-2.85321E-02
 -1      1752-3.91815E-03-9.23131E-04-1.47841E-02
 -1      1753-6.12289E-06 4.81617E-04-1.63585E-03
 -1      1754 5.82086E-04 1.82627E-03-7.57604E-02
 -1      1755 6.27242E-04 1.40857E-03-4.76337E-03
 -1      1756 4.16009E-03-3.17465E-03 5.84632E-02
 -1      1757-7.46857E-04 1.56500E-03-3.55122E-03
 -1      1758-7.82439E-04 2.94413E-04-2.63285E-03
 -1      1759-3.89532E-04-2.46063E-04 4.09656E-04
 -1      1760 1.14335E-03-9.65949E-04-3.55134E-03
 -1      1761-3.63824E-03-3.30405E-03-3.74674E-02
 -1      1762-3.96541E-03 1.37432E-03-5.14952E-02
 -1      1763-5.57528E-03-1.61298E-03 4.68209E-02
 -1      1764 4.97010E-03 2.63933E-03 5.68780E-02
 -1      1765-3.36592E-03-2.88624E-04 8.88140E-02
 -1      1766-3.57991E-03-1.91058E-03 3.82242E-02
 -1      1767-3.59781E-03 3.20705E-04 8.99356E-02
 -1      1768-5.99976E-03 2.27004E-03 4.42877E-02
 -1      1769 2.02141E-03-7.09706E-04 5.41455E-03
 -1      1770-1.69194E-03 3.11054E-03-2.48928E-02
 -1      1771 1.48745E-03-9.56916E-05-4.22579E-03
 -1      1772-2.40268E-04 1.22026E-03-8.35478E-02
 -1      1773-2.97607E-03-1.24349E-03 9.08657E-02
 -1      1774 2.20590E-04 5.23375E-04-9.08311E-04
 -1      1775-3.73576E-03 1.04709E-03-8.03745E-02
 -1      1776 1.28908E-03 1.53189E-03-6.02661E-03
 -1      1777 1.14152E-03-1.93817E-03-3.83440E-03
 -1      1778-4.63706E-03 2.36401E-03 2.80882E-02
 -1      1779-3.33814E-03 2.78286E-03 6.92910E-02
 -1      1780-6.11978E-03 1.04332E-03-3.42034E-02
 -1      1781-3.94717E-03 1.86601E-03 7.62616E-02
 -1      1782-2.12027E-03-2.15831E-03-4.91521E-02
 -1      1783-1.83716E-03-2.47075E-03-7.05720E-02
 -1      1784 5.40591E-03-2.18598E-03 5.77447E-02
 -1      1785-5.98988E-03 3.35166E-04 3.43622E-02
 -1      1786-5.02483E-05 2.54407E-03-2.01294E-02
 -1      1787-1.10441E-03 8.72882E-04-5.75250E-03
 -1      1788-2.70726E-03 1.18999E-03 1.83980E-03
 -1      1789 1.98740E-03 3.35558E-03-3.71316E-02
 -1      1790 3.54292E-03 3.01253E-03-4.92247E-02
 -1      1791-8.11544E-04-2.25196E-03 8.11220E-02
 -1      1792-9.20904E-04 2.41023E-03-1.29261E-02
 -1      1793-1.94007E-03-2.16774E-03 7.50622E-02
 -1      1794-6.75366E-03-2.60138E-04 9.00088E-02
 -1      1795 5.69913E-04 2.30845E-03-5.12380E-02
 -1      1796-3.73212E-03 1.50160E-03-7.02033E-02
 -1      1797-6.98769E-04 2.85098E-03-2.33502E-02
 -1      1798 8.54031E-04 1.07820E-03-5.07765E-03
 -1      1799 2.66396E-03-3.66801E-03-4.34471E-02
 -1      1800-1.24230E-03 3.22392E-03 2.43397E-02
 -1      1801-2.82205E-04 1.65184E-03 3.92379E-03
 -1      1802 2.53681E-03-4.02091E-03-3.11104E-02
 -1      1803 2.04022E-03-3.66067E-03 5.09678E-02
 -1      1804-5.49569E-03-1.28751E-03-4.27597E-02
 -1      1805-2.78114E-03 5.64025E-04 5.33840E-03
 -1      1806-2.16120E-03-8.17421E-04 8.25397E-03
 -1      1807 1.33049E-04-7.52601E-04 1.97109E-03
 -1      1808 2.49085E-04-2.64267E-03 7.26257E-02
 -1      1809-4.66996E-03 2.82945E-04-2.11269E-02
 -1      1810-1.63454E-03-2.47120E-03-5.85048E-02
 -1      1811 9.62623E-04-2.52800E-03 9.83185E-03
 -1      1812 0.00000E+00 0.00000E+00 0.00000E+00
 -1      1813-1.71248E-03-2.42693E-03 2.78882E-02
 -1      1814 2.17806E-03-7.47104E-04 1.10936E-02
 -1      1815-6.56591E-05-1.87892E-04-5.12177E-04
 -1      1816-2.98355E-03-3.64277E-03-3.03297E-02
 -1      1817 2.79077E-03-5.90953E-04-1.10927E-02
 -1      1818 1.41719E-03 2.94702E-03 1.43475E-02
 -1      1819 4.93199E-03-1.90523E-03-3.55783E-02
 -1      1820-6.43701E-04 1.72883E-03-7.19057E-02
 -1      1821-1.27936E-03 3.24020E-03-3.51224E-02
 -1      1822-1.40671E-03-1.81512E-03-1.75985E-03
 -1      1823-7.47456E-04-6.71711E-04-1.90267E-03
 -1      1824 1.92189E-04 1.18946E-03-2.19556E-03
 -1      1825-1.00433E-03-8.25333E-04-4.28610E-03
 -1      1826-1.33495E-02 5.50992E-04 3.85426E-02
 -1      1827 6.60530E-03 1.74926E-03 4.56675E-02
 -1      1828-3.61170E-04 1.71825E-03-7.80773E-03
 -1      1829-4.28913E-03 1.67148E-03 7.04895E-02
 -1      1830-3.93502E-03 3.49997E-03-4.05456E-02
 -1      1831-2.08453E-03 2.90915E-03-6.07487E-02
 -1      1832-5.33988E-04 1.83807E-03-1.40206E-02
 -1      1833-1.99722E-03-3.89112E-03 4.31089E-02
 -1      1834-1.49455E-03-2.30374E-03-2.25457E-02
 -1      1835-2.47824E-03 3.18228E-04 3.95866E-03
 -1      1836 1.60665E-03 1.38795E-03-2.10795E-02
 -1      1837 1.77061E-03 2.83839E-03-1.81380E-02
 -1      1838 4.76056E-04 2.99629E-03-4.04276E-02
 -1      1839-5.03609E-03-2.16833E-03-2.64943E-02
 -1      1840 3.81706E-03 1.88964E-03 7.62448E-02
 -1      1841 4.15841E-04 2.88666E-04 9.51237E-02
 -1      1842-2.96630E-03-9.47692E-04-1.95120E-02
 -1      1843-1.33022E-03-2.61756E-03-3.35390E-02
 -1      1844-1.49831E-03-3.33911E-03 6.45395E-02
 -1      1845-3.15931E-03-4.33585E-03 3.15566E-02
 -1      1846-3.80500E-03-3.90564E-03 4.09499E-02
 -1      1847-3.21755E-04-1.06692E-03-4.18362E-03
 -1      1848 4.13318E-03 2.35977E-03 1.89938E-02
 -1      1849 1.82844E-03 8.76043E-04 4.95490E-03
 -1      1850 4.58977E-04-8.23012E-04-1.75056E-03
 -1      1851-2.20237E-04 2.65630E-03 6.75941E-02
 -1      1852 1.08629E-04 2.86522E-03-2.11392E-02
 -1      1853 2.80121E-04 2.13778E-03 1.19889E-02
 -1      1854 4.69717E-04 2.58091E-03 2.57314E-02
 -1      1855-2.89395E-03-1.31855E-03 6.41053E-03
 -1      1856 1.52333E-03 5.98874E-04 4.44489E-03
 -1      1857 9.90602E-04-3.75525E-03-4.12165E-02
 -1      1858 1.27036E-03-3.71253E-03-3.09857E-02
 -1      1859 2.69959E-03-3.81659E-03 4.29439E-02
 -1      1860 0.00000E+00 0.00000E+00 0.00000E+00
 -1      1861-1.37654E-03-2.12453E-03 1.88985E-02
 -1      1862 2.24689E-03-3.31972E-03-1.74488E-02
 -1      1863 1.19869E-03-3.20256E-03 6.28367E-02
 -1      1864 4.86208E-03-2.44662E-03 5.44872E-02
 -1      1865 6.92444E-04-2.79772E-03-1.03060E-02
 -1      1866-3.28897E-03-3.32663E-03-2.98033E-02
 -1      1867-4.64126E-03-1.28656E-04-2.74111E-03
 -1      1868-7.61360E-03 1.26616E-03-3.97717E-02
 -1      1869-6.83744E-03-3.04498E-04-4.15396E-03
 -1      1870-3.10753E-03 8.91315E-04 1.68564E-02
 -1      1871 2.92304E-04-3.46049E-03-3.18774E-02
 -1      1872-9.62115E-04-8.70576E-04 9.40707E-02
 -1      1873-2.78106E-03 1.67278E-03-5.49885E-02
 -1      1874-4.59456E-04-2.82766E-03-1.76071E-02
 -1      1875 0.00000E+00 0.00000E+00 0.00000E+00
 -1      1876 5.59811E-03 1.24646E-03-3.79414E-02
 -1      1877 1.90497E-03 2.70263E-03 7.47104E-02
 -1      1878-1.44826E-03-3.52093E-03-3.93569E-02
 -1      1879 1.71708E-03-3.88274E-04 3.11596E-03
 -1      1880 3.69755E-03 3.70810E-03 3.72736E-02
 -1      1881 2.86368E-03 1.69956E-03-7.22122E-02
 -1      1882-2.86068E-03-1.89723E-03 8.22776E-02
 -1      1883 3.31482E-04 2.48115E-03 7.19197E-02
 -1      1884 1.11634E-03-2.25564E-04 4.60304E-04
 -1      1885-3.68752E-05-2.25854E-04-4.13191E-02
 -1      1886-1.04930E-02 2.32338E-04 1.25055E-02
 -1      1887-7.23875E-04 2.73603E-03 1.94939E-02
 -1      1888 3.35328E-03-2.57873E-03-6.71691E-02
 -1      1889 5.66116E-04 1.31105E-03-9.21614E-03
 -1      1890-4.08435E-03 2.84794E-03 5.74563E-02
 -1      1891-2.58781E-03 2.63890E-03 1.47801E-02
 -1      1892-5.92557E-03 2.52332E-03-3.00778E-02
 -1      1893-4.36968E-03-6.14424E-04-2.24988E-02
 -1      1894-5.09671E-03 2.76683E-03-4.62820E-02
 -1      1895 4.58363E-03-3.25991E-03 4.09676E-02
 -1      1896 1.10892E-03 1.65121E-03-7.79983E-02
 -1      1897 1.79792E-03-1.04040E-03 8.88679E-02
 -1      1898-3.52865E-03-8.65116E-04-8.10155E-02
 -1      1899 1.31395E-03-9.28495E-04 5.10717E-03
 -1      1900 4.61813E-03-1.98019E-03 1.52189E-02
 -1      1901-2.65790E-03 1.56726E-03 8.44926E-02
 -1      1902-2.13213E-03 1.96720E-03-6.87775E-02
 -1      1903-3.03172E-03-1.13177E-03-1.02814E-02
 -1      1904-9.82641E-03 1.20333E-03-5.03956E-02
 -1      1905-3.78133E-03-3.93345E-03 2.29670E-02
 -1      1906 4.31831E-03-1.94703E-03-2.38395E-02
 -1      1907-3.36077E-03-2.34018E-03 6.87740E-02
 -1      1908-2.63208E-03-4.08027E-04-4.15194E-03
 -1      1909-2.07300E-03-2.41654E-03 7.58515E-03
 -1      1910-5.41426E-03-1.75892E-03 5.49548E-02
 -1      1911-1.74180E-03 2.97468E-03 1.77778E-02
 -1      1912 3.24520E-03 1.89978E-03-1.78997E-02
 -1      1913-2.33220E-03-3.65918E-03-1.86737E-02
 -1      1914 3.77065E-03-1.29387E-03-2.10951E-02
 -1      1915 7.92668E-04-7.72248E-04-4.21381E-03
 -1      1916-2.18513E-03-7.74669E-05-2.49245E-03
 -1      1917 1.82898E-04-2.80403E-03 1.43240E-02
 -1      1918 6.63763E-04 2.14466E-04 7.95880E-04
 -1      1919 4.90686E-04 1.34494E-03 5.34160E-03
 -1      1920-4.06961E-03 3.16595E-03 3.83658E-02
 -1      1921-5.95660E-04-2.38888E-03 1.64598E-02
 -1      1922-5.82845E-03 2.18041E-03-4.98931E-02
 -1      1923-5.03722E-03-7.58486E-04-2.72459E-02
 -1      1924-3.96429E-04 1.52618E-03-8.10260E-02
 -1      1925 1.68185E-03 3.62339E-03 5.11283E-02
 -1      1926 2.88424E-03 3.69461E-03 3.34070E-02
 -1      1927 1.16452E-04 2.75056E-03 2.89042E-02
 -1      1928-2.42564E-04 2.31722E-04-4.70113E-04
 -1      1929-2.25218E-04 6.76125E-04-1.82531E-03
 -1      1930-8.20757E-04 8.45413E-04-2.29572E-03
 -1      1931-1.32517E-03 1.80664E-03-2.62637E-03
 -1      1932-3.65634E-03 2.20629E-03 1.74570E-02
 -1      1933-5.69664E-03 4.67588E-04-5.77038E-02
 -1      1934-2.86097E-03 2.08810E-04 9.50272E-02
 -1      1935-1.11137E-03 1.37788E-03-1.32267E-02
 -1      1936-1.66371E-03-3.75992E-03 5.49579E-02
 -1      1937-2.09600E-03 1.30730E-03 1.42390E-02
 -1      1938 4.59951E-05-9.94716E-05-2.84151E-04
 -1      1939-1.19757E-02-1.36701E-03 4.72243E-02
 -1      1940-4.25005E-03-1.39860E-03-7.18447E-02
 -1      1941 3.82688E-03-3.18340E-03-3.68748E-02
 -1      1942-3.14412E-03-1.81280E-03-1.17400E-02
 -1      1943-2.77317E-03-2.37293E-03 6.41769E-02
 -1      1944-2.17170E-03 2.26665E-03 5.03598E-02
 -1      1945-3.81409E-03 1.51828E-03-4.01674E-02
 -1      1946 9.23692E-04 1.69033E-03 1.67310E-02
 -1      1947-4.33038E-03-2.60953E-03-3.12778E-02
 -1      1948-3.63320E-03-1.48958E-03 2.50508E-02
 -1      1949-1.24434E-04 2.90809E-05 4.90083E-05
 -1      1950 1.52002E-04-8.00963E-04-1.48979E-03
 -1      1951 5.00587E-04 5.63859E-04 4.17650E-02
 -1      1952-5.58024E-03 1.14764E-03 2.22096E-02
 -1      1953-4.72442E-05-3.14086E-03-5.27950E-02
 -1      1954 1.67881E-03-3.90366E-03-3.73259E-02
 -1      1955-1.81710E-03-2.57442E-03 1.11785E-02
 -1      1956 4.05185E-03-9.26932E-04-6.88678E-02
 -1      1957 4.79875E-03-2.27835E-03 2.85323E-02
 -1      1958-3.27372E-03 1.79859E-03 3.67564E-02
 -1      1959-2.17141E-03-2.24059E-03 4.20373E-02
 -1      1960-5.14187E-03 1.08234E-03-4.10795E-02
 -1      1961 2.02664E-03-1.13662E-03 1.35456E-02
 -1      1962 4.18516E-03 9.79882E-04-7.07945E-02
 -1      1963-2.83470E-03-2.01689E-03 3.28384E-02
 -1      1964 1.37963E-03 1.43939E-03 4.68966E-03
 -1      1965-7.59375E-03-1.36557E-03-5.79058E-02
 -1      1966 5.84460E-03-5.92209E-04-4.82384E-02
 -1      1967 4.01009E-04 9.92107E-04 2.42651E-03
 -1      1968 2.79290E-03 2.46909E-03-6.46851E-02
 -1      1969-8.97484E-04 2.23356E-03-5.42282E-02
 -1      1970 4.14417E-03 1.41555E-03-6.95134E-02
 -1      1971 1.53487E-03 3.74373E-03 4.48860E-02
 -1      1972-6.83530E-03 6.18541E-04-7.83447E-02
 -1      1973 1.25074E-03-1.30957E-03-1.33987E-02
 -1      1974-4.18384E-03 3.28102E-04 9.44639E-02
 -1      1975 4.73146E-04-1.84357E-03 8.12734E-03
 -1      1976-2.93014E-03-1.29922E-03-7.88230E-02
 -1      1977-5.72499E-03 1.13079E-03 8.67631E-02
 -1      1978-1.78654E-03 5.89021E-04 9.50854E-02
 -1      1979 1.52254E-03-3.04478E-03-1.47208E-02
 -1      1980-1.51644E-03 2.19012E-03-4.05739E-02
 -1      1981-1.74941E-03 2.20157E-03 3.70979E-02
 -1      1982 4.83884E-03-1.48722E-03-5.39633E-02
 -1      1983-4.86356E-03-2.64608E-03-3.64720E-02
 -1      1984-1.68212E-04 2.65420E-03-4.62837E-02
 -1      1985-2.36071E-03 2.01582E-03 3.14416E-02
 -1      1986 1.65272E-04 3.91640E-04 1.79300E-03
 -1      1987-5.69687E-03 9.97557E-04-7.62300E-02
 -1      1988-1.58589E-03 1.83860E-03 8.00522E-02
 -1      1989-1.30897E-02-8.77014E-04-2.55160E-02
 -1      1990-1.43861E-02 2.89544E-05 4.87445E-03
 -1      1991-2.67084E-03 9.29840E-04 9.20453E-02
 -1      1992-3.61107E-03-1.99184E-03 7.47076E-02
 -1      1993-3.38099E-03 1.75924E-03 4.81879E-02
 -1      1994 5.78915E-03-5.60838E-05-4.17095E-02
 -1      1995-1.63990E-03 1.27394E-03 1.02284E-02
 -1      1996-4.99240E-03 1.44190E-03 4.19786E-02
 -1      1997 1.00365E-03 3.09258E-03-2.37344E-02
 -1      1998 1.13668E-03-1.55775E-03 1.08402E-02
 -1      1999-3.13617E-03-7.24745E-04 9.50355E-02
 -1      2000 4.51205E-03 2.51904E-03-5.34753E-02
 -1      2001 4.72366E-03-1.48148E-03 2.17043E-02
 -1      2002 1.00604E-03-2.42479E-03-6.57336E-02
 -1      2003 1.92244E-03 5.73100E-04 8.94792E-02
 -1      2004 1.04537E-03-1.51074E-03-5.37226E-03
 -1      2005 2.33204E-03-5.36106E-04 8.73744E-02
 -1      2006-2.86327E-03 1.05419E-03-2.07963E-02
 -1      2007-7.99478E-04-6.11850E-04 3.85382E-03
 -1      2008-8.01125E-03 1.45394E-04-6.20238E-03
 -1      2009 1.76569E-03 2.82396E-03-1.30855E-02
 -1      2010-4.81127E-03-1.84537E-03 1.75077E-02
 -1      2011 4.76682E-05 5.04310E-04-9.63031E-04
 -1      2012-1.48114E-03-2.24844E-04 1.53679E-03
 -1      2013-2.22415E-03-9.34226E-04 9.31857E-02
 -1      2014 4.54172E-04 2.63311E-03 4.04092E-02
 -1      2015 1.01096E-04 2.72408E-03-4.46090E-02
 -1      2016 1.21920E-03 1.12702E-03 8.27685E-03
 -1      2017-3.61260E-03 1.44571E-03-6.16305E-03
 -1      2018-1.11632E-02 9.17164E-04 3.46676E-02
 -1      2019-4.22251E-03 1.37657E-03-4.54584E-02
 -1      2020 0.00000E+00 0.00000E+00 0.00000E+00
 -1      2021-4.59703E-03 1.68994E-03 1.77650E-02
 -1      2022 1.27017E-03 3.28578E-03-3.83029E-02
 -1      2023 7.88767E-04 1.82146E-03-2.01276E-02
 -1      2024-6.61516E-03 1.21161E-03 4.72742E-02
 -1      2025 3.80541E-03 3.55456E-03 2.59505E-02
 -1      2026-1.00707E-02 1.40582E-03 5.98837E-02
 -1      2027-1.33874E-02-9.44800E-05 6.19045E-03
 -1      2028 2.36706E-03-2.36583E-03 7.96466E-03
 -1      2029-3.44181E-03 1.00838E-03-2.86092E-02
 -1      2030-3.03056E-03-1.57131E-03-1.38156E-02
 -1      2031-4.15529E-03 1.19714E-03-3.23956E-02
 -1      2032-1.37469E-02 3.05499E-04-2.33926E-02
 -1      2033 2.60034E-04-1.73212E-03-7.85342E-02
 -1      2034 4.70659E-04-1.53588E-03 2.32167E-03
 -1      2035 1.61679E-03-1.44236E-04 2.10135E-03
 -1      2036 1.34624E-03 3.98142E-04 4.54864E-03
 -1      2037 2.01859E-03 3.39136E-04 6.95167E-03
 -1      2038-2.05807E-03 1.03869E-03-5.88704E-03
 -1      2039 4.04789E-03-2.61747E-03-4.76860E-02
 -1      2040-2.04430E-03-1.57895E-03 1.88124E-02
 -1      2041-4.97262E-03 1.68341E-03 1.21670E-02
 -1      2042-3.62112E-03-4.23525E-03 3.63506E-02
 -1      2043-7.13803E-04-2.04527E-03-1.18647E-02
 -1      2044-2.60936E-03 2.17594E-03 6.24875E-02
 -1      2045-4.41127E-04 3.11054E-03 5.46775E-02
 -1      2046 6.60460E-03 6.18028E-04 4.11685E-02
 -1      2047-1.48982E-04-1.16849E-03 5.38408E-03
 -1      2048 2.82032E-03 1.48511E-03-1.03438E-02
 -1      2049 9.14934E-05-1.79464E-03-4.40997E-03
 -1      2050 1.45209E-04 3.24517E-03 3.33844E-02
 -1      2051-2.51304E-04 1.30886E-03 5.00140E-03
 -1      2052 1.31257E-03-2.42030E-04-5.90725E-04
 -1      2053 5.32477E-03 2.25276E-03 2.30453E-02
 -1      2054 1.78651E-03-1.31969E-03-2.13041E-02
 -1      2055 1.65627E-03 1.14254E-03 1.14935E-02
 -1      2056 1.38996E-03-3.74343E-03-2.27390E-02
 -1      2057-2.11915E-03 3.31870E-04 9.71155E-02
 -1      2058-5.48243E-03-1.39646E-04-3.64421E-03
 -1      2059-1.96179E-03 2.62566E-03-6.78759E-02
 -1      2060-1.70352E-03-1.58916E-03 1.60056E-02
 -1      2061 6.02649E-03-5.95837E-04 3.65271E-02
 -1      2062-7.73194E-03 1.30145E-03 7.09710E-02
 -1      2063 4.59404E-03-7.47993E-04-2.30196E-02
 -1      2064-5.78598E-03 1.34930E-03-4.87698E-02
 -1      2065 1.96595E-03 2.82085E-03 1.19401E-02
 -1      2066 5.53237E-03 2.86715E-03 4.36364E-02
 -1      2067 9.67977E-04-1.62984E-03 3.87032E-03
 -1      2068 4.08341E-04-2.68728E-03-4.26221E-02
 -1      2069-5.49702E-03-1.41419E-03 3.95361E-02
 -1      2070-2.35713E-03-2.39015E-03 1.71449E-03
 -1      2071-4.38966E-03 2.76189E-03-5.58681E-02
 -1      2072 0.00000E+00 0.00000E+00 0.00000E+00
 -1      2073 3.58021E-06-3.24111E-03-4.63797E-02
 -1      2074 8.48306E-04 1.89674E-03 4.64190E-03
 -1      2075 9.81964E-04 3.64500E-03 2.63307E-02
 -1      2076 2.05384E-03-2.73262E-03 7.38919E-02
 -1      2077 3.94850E-03-3.39575E-03 3.57677E-02
 -1      2078-3.06372E-03 3.26265E-03 4.81455E-02
 -1      2079 2.79686E-03-3.58255E-03-3.12622E-02
 -1      2080 5.97880E-03-1.28304E-03 4.27999E-02
 -1      2081-4.23847E-03 2.36589E-03-1.79848E-02
 -1      2082-6.81625E-04-2.93248E-03-4.05245E-02
 -1      2083-3.89229E-03-2.32776E-03-5.61203E-02
 -1      2084-5.13121E-03 1.25100E-03-7.26534E-02
 -1      2085-1.27820E-03 2.03711E-03 7.44540E-02
 -1      2086-4.38373E-04-1.04601E-03 3.30142E-03
 -1      2087-4.54626E-03 8.09494E-04-8.40335E-02
 -1      2088-2.65545E-03 3.42533E-03-2.82251E-02
 -1      2089-1.36827E-03 7.32007E-04 4.66133E-03
 -1      2090-3.65114E-03 3.41920E-03-2.30565E-02
 -1      2091-2.16163E-03 8.21116E-04 8.24079E-03
 -1      2092-3.19308E-03 2.38134E-04 7.89402E-03
 -1      2093-4.84514E-03-2.14415E-03 3.25965E-02
 -1      2094-4.68684E-03-1.47301E-03 4.78308E-02
 -1      2095-2.67532E-04 2.96997E-03-3.76932E-02
 -1      2096 1.32191E-03-1.65447E-03 8.19738E-02
 -1      2097-3.75461E-03 1.48597E-03 7.72282E-02
 -1      2098 2.45081E-04-1.99781E-03 5.97066E-03
 -1      2099-7.49926E-03 1.31250E-03 6.21274E-02
 -1      2100-1.19816E-02-1.15359E-04 6.69115E-02
 -1      2101 3.47354E-03 1.11806E-04-7.50885E-03
 -1      2102-2.85911E-03-2.56621E-03-1.71850E-02
 -1      2103-3.10448E-03-3.35996E-03-4.93598E-02
 -1      2104-1.40728E-03 3.23663E-03-4.25360E-02
 -1      2105-1.07822E-03 1.23807E-03 6.88656E-03
 -1      2106 9.72643E-04 1.78827E-03 8.53592E-02
 -1      2107-8.20265E-03 1.04283E-03-5.33432E-02
 -1      2108-2.60565E-04-3.22772E-03 5.69638E-02
 -1      2109-6.42179E-03-2.27440E-04-3.72863E-02
 -1      2110 2.39250E-03-2.19741E-03-1.22321E-02
 -1      2111-6.27311E-03-3.93746E-04-2.41528E-02
 -1      2112 1.73793E-03-3.47064E-03 1.96974E-02
 -1      2113-6.21611E-03-7.79333E-04 1.15108E-02
 -1      2114-3.93254E-03-1.52266E-03-1.32733E-02
 -1      2115 6.20461E-03 8.63149E-04 5.76759E-02
 -1      2116-1.77123E-03 2.60428E-03 5.78674E-02
 -1      2117-4.93537E-03-2.95368E-03 2.37958E-02
 -1      2118 0.00000E+00 0.00000E+00 0.00000E+00
 -1      2119-1.41390E-02-3.68198E-04 1.76583E-02
 -1      2120-5.26018E-03-8.59217E-04-6.47073E-02
 -1      2121-7.22707E-03-1.36000E-03-4.31213E-02
 -1      2122 4.35535E-03-1.45055E-03 7.46894E-02
 -1      2123 2.74487E-04-2.69441E-03-3.73007E-02
 -1      2124 7.77748E-04-2.85089E-03 3.80572E-02
 -1      2125-6.49792E-03-7.39998E-04 4.10370E-02
 -1      2126-2.83721E-03 1.08176E-03-8.50678E-02
 -1      2127 1.99854E-03-2.29355E-03 7.44156E-02
 -1      2128 4.55155E-03-7.34847E-04 1.69853E-02
 -1      2129-1.64155E-04-6.35103E-05 6.09235E-02
 -1      2130-5.33429E-03-1.55209E-03 4.74444E-02
 -1      2131-5.22178E-03-1.46083E-03-6.94734E-02
 -1      2132-1.93809E-03 1.29106E-03-8.16980E-02
 -1      2133-1.02232E-03 1.40197E-03 6.95401E-03
 -1      2134-3.46670E-03-1.98062E-03-4.35782E-02
 -1      2135 6.79066E-04-2.62059E-03 7.62301E-02
 -1      2136-8.28442E-04-3.22657E-03 6.48976E-02
 -1      2137-8.17560E-04 3.20476E-03 5.41286E-02
 -1      2138 4.67448E-04-9.69693E-04 5.78372E-03
 -1      2139-6.03188E-03-1.14721E-03-4.53368E-02
 -1      2140-7.08482E-03 1.13995E-03 5.32534E-02
 -1      2141 4.28030E-03 3.82820E-04 7.74397E-02
 -1      2142-8.99489E-03 1.17609E-03 6.05881E-02
 -1      2143-8.80266E-03 1.10306E-03 7.10464E-02
 -1      2144 1.08272E-03 1.51512E-03-8.95905E-03
 -1      2145 1.71826E-03 7.49097E-05-8.28449E-02
 -1      2146 5.54809E-03 2.40998E-04-3.14178E-02
 -1      2147-1.74735E-03-8.77295E-04-6.06843E-03
 -1      2148-2.22230E-03-1.29611E-03 8.98678E-02
 -1      2149 2.06180E-03 7.72889E-04-1.46213E-02
 -1      2150 5.94590E-04 5.01818E-04-2.28253E-03
 -1      2151-3.71161E-03 1.12450E-03-8.97838E-03
 -1      2152-1.38414E-02-3.36469E-04-5.23028E-03
 -1      2153-9.47772E-03 7.89459E-04 3.24146E-02
 -1      2154 1.27936E-03-5.47692E-04-3.22032E-03
 -1      2155 3.72892E-03-2.02298E-03-1.78974E-02
 -1      2156 2.65706E-03-1.47528E-03-1.01030E-02
 -1      2157-5.69280E-03 3.37558E-04 1.15318E-02
 -1      2158-5.13529E-03 1.51526E-03 7.14976E-02
 -1      2159-6.77104E-04 2.47792E-03-4.24973E-02
 -1      2160 2.72421E-04-5.85071E-04 1.55777E-03
 -1      2161-1.26803E-03 2.86243E-03 6.58733E-02
 -1      2162 1.82795E-03-6.78179E-04-8.16995E-02
 -1      2163-5.26880E-03-3.32510E-04 7.31282E-02
 -1      2164 1.94252E-03 1.40225E-03 8.45869E-02
 -1      2165 1.80626E-03 1.95853E-03-7.22097E-02
 -1      2166-4.60710E-03-1.57769E-03 8.31464E-02
 -1      2167-4.90108E-03 8.68015E-04-6.99068E-02
 -1      2168-1.88007E-03 5.61338E-04 6.21870E-03
 -1      2169-8.38616E-03-4.51560E-04 1.24454E-02
 -1      2170-2.33818E-03 2.01757E-03-4.22777E-02
 -1      2171-1.42491E-02-3.15990E-04-1.77852E-02
 -1      2172-2.68598E-03-2.13892E-03-5.59897E-02
 -1      2173-9.95516E-03 1.18973E-03 4.14383E-02
 -1      2174-1.86283E-04-1.48529E-03 3.47689E-03
 -1      2175-9.59258E-03 1.07902E-03 6.91712E-02
 -1      2176 2.18685E-03-8.86690E-04-6.50670E-03
 -1      2177-4.59228E-03 8.21336E-04 2.34883E-02
 -1      2178-3.40669E-03 4.19663E-04-8.24066E-02
 -1      2179-2.81519E-03-1.46757E-03 2.05019E-02
 -1      2180 4.88555E-03-4.20285E-04-6.53090E-02
 -1      2181-7.22112E-04-1.49042E-03 4.48418E-03
 -1      2182-4.03947E-03-5.93273E-04 1.23519E-02
 -1      2183 1.83023E-03-3.09288E-03 6.83934E-02
 -1      2184-9.25007E-04-2.45770E-03 2.55224E-02
 -1      2185 4.26470E-03 1.73545E-03-6.70952E-02
 -1      2186 2.70638E-03 4.42099E-04-8.00158E-02
 -1      2187 1.09168E-03-8.55743E-04-4.09671E-03
 -1      2188-1.09606E-03-3.39438E-03-2.01690E-02
 -1      2189 7.17537E-04 1.35187E-03 8.88297E-02
 -1      2190-6.40991E-03-1.13258E-03-3.10880E-02
 -1      2191-1.80176E-03 2.74195E-03 1.19828E-02
 -1      2192-9.02807E-04 1.77477E-03-1.44468E-02
 -1      2193-8.53174E-04 1.34346E-03-8.95617E-03
 -1      2194-1.42554E-03 1.00493E-03-9.15613E-03
 -1      2195-3.59721E-03 1.62730E-03-6.16819E-02
 -1      2196-5.70195E-04 2.01809E-03-1.24439E-02
 -1      2197-4.44106E-03 1.17293E-03-1.71939E-02
 -1      2198-1.40062E-02-2.06043E-04 3.81845E-02
 -1      2199-1.38526E-02-1.68859E-06-3.57115E-03
 -1      2200-1.24312E-03 2.56407E-03-3.09044E-02
 -1      2201 7.75203E-04-2.74247E-03 7.69053E-03
 -1      2202-8.60071E-04-2.32149E-03-7.15378E-02
 -1      2203 1.08215E-03-3.20833E-03-1.57947E-02
 -1      2204 4.91674E-04-3.14177E-03-1.74761E-02
 -1      2205-9.78375E-03 4.17298E-04 7.70639E-02
 -1      2206-2.52497E-03 1.71597E-03 2.31360E-02
 -1      2207 1.33901E-04 2.55117E-05 2.72963E-04
 -1      2208 1.18331E-03 1.02255E-03-4.28740E-03
 -1      2209-6.29069E-03 1.26779E-05-3.89856E-03
 -1      2210 1.91078E-03-3.86944E-03 3.69183E-02
 -1      2211-1.65086E-03 9.48485E-04 4.91767E-03
 -1      2212 3.94887E-03-3.06754E-03 2.73966E-02
 -1      2213-1.45089E-02-1.57338E-04-7.32343E-03
 -1      2214 8.10104E-05 9.32833E-04-2.60467E-03
 -1      2215 3.45552E-03 3.93223E-05-9.81826E-03
 -1      2216 5.94272E-03 2.00548E-03 5.99590E-02
 -1      2217-1.60567E-04 1.69657E-03 6.83909E-03
 -1      2218-2.24803E-03 1.16465E-03 1.38992E-02
 -1      2219-3.20876E-03 2.95404E-03-6.32196E-02
 -1      2220-2.15574E-03-2.01589E-03-2.91504E-02
 -1      2221-2.11557E-03-2.39944E-03-4.00965E-02
 -1      2222-3.52005E-03 1.72982E-03 5.57457E-02
 -1      2223 1.50758E-03-1.75529E-03-7.61745E-02
 -1      2224-5.37820E-03 1.19299E-03 4.81080E-02
 -1      2225 1.96296E-03 6.92694E-04-1.83095E-02
 -1      2226-2.57933E-04 3.61775E-04-8.72524E-02
 -1      2227-4.39031E-03-1.88946E-03 6.59196E-02
 -1      2228-3.96897E-04 2.95586E-03-3.94591E-02
 -1      2229-7.11546E-03 1.18697E-03-4.99490E-02
 -1      2230 4.28937E-03 2.26528E-03 6.69598E-02
 -1      2231 7.44590E-04 2.50900E-03 4.47118E-02
 -1      2232-2.25124E-04 1.13794E-04 9.59215E-02
 -1      2233-1.82827E-03-1.58326E-03-1.76429E-02
 -1      2234-7.15100E-03 1.28171E-04 8.87466E-02
 -1      2235-1.06775E-03-2.57411E-03-2.38945E-02
 -1      2236-1.35304E-03-3.08354E-04-8.91883E-02
 -1      2237-1.12791E-03-2.93935E-03 7.19850E-02
 -1      2238-3.53698E-03 3.01246E-03 2.89216E-02
 -1      2239-2.38557E-03-3.98891E-03 3.25390E-02
 -1      2240 3.48842E-03-1.99271E-03-1.82657E-02
 -1      2241 1.48964E-04-6.87102E-04-2.52724E-03
 -1      2242-2.83757E-04-1.27040E-05-8.80098E-02
 -1      2243 4.32327E-04-2.26711E-03-1.17211E-02
 -1      2244 9.91421E-04-2.10936E-03-6.88848E-03
 -1      2245-1.06275E-03 2.75865E-03 4.22333E-02
 -1      2246-7.92756E-04 2.78969E-03 2.69283E-02
 -1      2247-2.77989E-03-9.41349E-04-8.56967E-02
 -1      2248-2.43228E-03-2.43489E-03 5.30269E-02
 -1      2249-2.98471E-04 9.89156E-04-3.93548E-03
 -1      2250-3.92082E-04-2.42581E-03-1.10819E-02
 -1      2251 4.04255E-04-2.80622E-03-2.45162E-02
 -1      2252-8.18199E-03 1.09694E-03-6.24060E-02
 -1      2253-2.73494E-03 3.31978E-03 2.41371E-02
 -1      2254-1.05617E-03 9.21150E-04 4.98009E-03
 -1      2255-2.23226E-03 3.52768E-03 5.39663E-02
 -1      2256 3.83562E-03 1.16679E-03-1.78325E-02
 -1      2257-3.80625E-03-9.53605E-04-2.49047E-02
 -1      2258 3.76530E-03-2.64372E-03-2.31512E-02
 -1      2259-9.42158E-03-1.35222E-03-4.10965E-02
 -1      2260-5.46390E-03-1.42113E-03-5.62678E-02
 -1      2261 1.10690E-05-1.23640E-03 1.84160E-03
 -1      2262 3.09481E-04-2.47046E-03 1.49067E-02
 -1      2263-3.17141E-03-6.30309E-05-2.08106E-03
 -1      2264 7.49088E-04-3.07761E-04-1.66939E-03
 -1      2265 7.63420E-04 1.00171E-03 3.59853E-03
 -1      2266-4.17365E-04-1.95361E-03 1.11949E-02
 -1      2267-2.79150E-03 3.18285E-03-1.68012E-02
 -1      2268-6.10247E-04 1.33499E-04-3.60857E-04
 -1      2269-9.60784E-04-1.38929E-05-8.86295E-04
 -1      2270-4.01590E-03-3.12555E-04-4.77590E-03
 -1      2271-1.78161E-03-2.57923E-03 4.74444E-02
 -1      2272-8.47754E-03-1.42571E-03 5.22753E-02
 -1      2273 3.99349E-04 1.98260E-03 1.51723E-02
 -1      2274-3.27750E-04 4.90398E-04 5.42349E-04
 -1      2275 5.69409E-05-4.18765E-04-1.25538E-03
 -1      2276-3.91018E-03 6.95291E-04 1.42099E-02
 -1      2277 2.18379E-03-5.13203E-04 7.44130E-03
 -1      2278 2.34410E-03-7.85331E-04 1.61327E-02
 -1      2279 2.37754E-03-8.63235E-04 9.71972E-03
 -1      2280 5.30607E-03-7.79683E-04 7.37869E-02
 -1      2281-9.51396E-03 1.23569E-03-4.01829E-02
 -1      2282 5.41384E-04 3.26504E-03 2.46720E-02
 -1      2283-5.28147E-03-9.61332E-04 9.00996E-02
 -1      2284 1.35402E-03 2.32362E-03-6.86825E-02
 -1      2285 1.21161E-03 2.49608E-03-5.96005E-02
 -1      2286 4.55602E-03 1.25318E-03-6.35373E-02
 -1      2287-6.15844E-03 1.10631E-03 3.90181E-02
 -1      2288 4.84456E-03-1.04384E-03-5.49704E-02
 -1      2289-2.92070E-03 5.49411E-04 9.43559E-02
 -1      2290-9.99174E-03-8.62326E-04-6.45151E-02
 -1      2291-6.82226E-03-1.48153E-03-5.34093E-02
 -1      2292-1.66169E-03 1.39151E-03-1.89293E-02
 -1      2293-3.93056E-03 1.76667E-03 6.21604E-02
 -1      2294-6.90323E-03 6.72904E-04-2.52054E-02
 -1      2295-1.21853E-02 9.53023E-04-4.58361E-02
 -1      2296-1.07724E-02-9.79564E-04 2.58656E-02
 -1      2297 1.35593E-03-2.19319E-03-7.23050E-02
 -1      2298-8.11363E-04-1.67866E-03-7.53997E-02
 -1      2299 2.21001E-03 3.77378E-04 8.07342E-03
 -1      2300-9.08902E-03 6.19947E-04-2.25407E-02
 -1      2301 1.58496E-03-1.56667E-03-2.47333E-02
 -1      2302 1.11399E-03 2.14224E-03 3.70772E-02
 -1      2303 1.10246E-03-6.77270E-06 9.17808E-02
 -1      2304-1.00729E-03-1.68892E-03-1.26638E-02
 -1      2305-4.81453E-03 9.18556E-05-8.69252E-02
 -1      2306-1.50335E-04-2.17447E-03-9.07900E-03
 -1      2307-1.53039E-03-2.92519E-03 5.93658E-02
 -1      2308 4.48381E-04-2.01572E-03-5.26842E-03
 -1      2309 3.17323E-05-5.06971E-04-7.94576E-04
 -1      2310-3.63212E-03 7.59119E-04-1.30680E-02
 -1      2311-1.27854E-02-7.86357E-04-4.55347E-02
 -1      2312-8.23214E-03-1.18648E-03-6.69165E-02
 -1      2313-5.63543E-03-1.60725E-03-4.81849E-02
 -1      2314-5.76513E-03-1.50325E-03-6.21066E-02
 -1      2315-1.93873E-03 1.54725E-03-2.61890E-02
 -1      2316-2.13566E-03 8.78101E-04-1.39161E-02
 -1      2317-2.72071E-03 2.09227E-03 6.91765E-02
 -1      2318-6.69699E-03 2.66605E-04-1.45292E-02
 -1      2319-6.28720E-03 1.00915E-03-3.69909E-02
 -1      2320-9.81036E-03 1.21127E-03-6.02500E-02
 -1      2321-1.28474E-02 7.85357E-04-2.78325E-02
 -1      2322-9.05886E-03-7.39244E-04 2.24858E-02
 -1      2323-1.23434E-02-9.16039E-05 6.51271E-03
 -1      2324-1.06477E-02-1.53127E-03 4.33771E-02
 -1      2325-1.03122E-02-4.24800E-04 9.66317E-03
 -1      2326-1.30378E-02-6.55682E-04 2.09906E-02
 -1      2327-2.65581E-03-1.99945E-03-7.17847E-02
 -1      2328-1.57917E-04-2.03713E-03-7.19659E-02
 -1      2329 2.06238E-03 7.19678E-04 1.31339E-02
 -1      2330-7.36940E-03-2.59869E-04-7.91002E-02
 -1      2331-1.76269E-03-2.52078E-03 6.62501E-02
 -1      2332-1.09205E-02-1.45738E-03-4.64050E-02
 -1      2333-1.33704E-02-5.26584E-05-3.87513E-02
 -1      2334-6.71570E-03-1.35911E-03-7.14705E-02
 -1      2335-9.02358E-03-1.36904E-03-5.48805E-02
 -1      2336-1.10404E-02-1.11976E-04-6.19104E-02
 -1      2337-1.36930E-02-3.15476E-04-3.16028E-02
 -1      2338-8.08860E-03-1.28858E-03-6.26995E-02
 -1      2339-1.40422E-03 2.08555E-03-2.58611E-02
 -1      2340-2.85159E-03 1.36037E-03-2.92731E-02
 -1      2341-2.78563E-03 7.79801E-04-1.20779E-02
 -1      2342-1.43625E-03 2.21757E-03 6.97433E-02
 -1      2343-8.18910E-03 8.31636E-04-6.99608E-02
 -1      2344-1.12849E-02 1.15082E-03-4.11181E-02
 -1      2345-9.01417E-03-1.41913E-03 3.75987E-02
 -1      2346-9.36692E-03 1.27545E-04-6.41512E-03
 -1      2347-4.21257E-03-1.62942E-03-6.84316E-02
 -1      2348-1.20947E-02-1.24427E-03 3.38260E-02
 -1      2349-9.59962E-03-1.76936E-03 6.26421E-02
 -1      2350-9.28511E-03-5.57711E-04 4.50649E-03
 -1      2351-6.84182E-03-1.64001E-03 7.04837E-02
 -1      2352-2.14799E-03-2.34949E-03-6.51618E-02
 -1      2353-7.08363E-04 2.47884E-03-2.23777E-02
 -1      2354-9.69887E-03-1.37375E-03-5.88696E-02
 -1      2355-8.58922E-03 3.67658E-04-7.41136E-02
 -1      2356-7.32190E-03-1.34986E-03 4.59152E-02
 -1      2357-1.09821E-02 2.04123E-04-5.85781E-03
 -1      2358-8.10076E-03-1.24786E-03 8.00989E-02
 -1      2359-1.09691E-02-1.40750E-03-5.53405E-02
 -1      2360-1.00779E-02 2.48217E-04-6.71444E-02
 -1      2361-6.56741E-03 2.10323E-04-8.27558E-02
 -1      2362-8.95228E-03 6.44813E-04-6.91388E-02
 -1      2363-8.73108E-03-3.09884E-04-7.20931E-02
 -1      2364-7.83199E-03 5.34794E-04-7.57512E-02
 -1      2365 1.53878E-03 1.14644E-03 4.43204E-03
 -1      2366 5.65606E-03 1.81211E-03-4.16277E-02
 -1      2367-8.40273E-04-1.12856E-03 7.41668E-03
 -1      2368-3.31962E-04 2.24404E-03-6.59033E-02
 -1      2369 4.16051E-03 1.68165E-03-1.39660E-02
 -1      2370-1.24538E-03-3.81455E-03 2.81210E-02
 -1      2371-1.15469E-02 3.10729E-04 1.73732E-02
 -1      2372-2.37194E-03 3.58084E-03-4.54393E-02
 -1      2373-3.47366E-03 7.78168E-04-8.71388E-02
 -1      2374 4.48612E-04-1.67334E-03-8.91642E-03
 -1      2375-5.80753E-04 5.20371E-04-4.22357E-02
 -1      2376-8.44716E-03 6.59098E-04 8.28393E-02
 -1      2377-4.73024E-03 1.39048E-03-5.77667E-02
 -1      2378 4.47205E-04 2.16169E-03-1.09812E-02
 -1      2379 5.13805E-04-2.38787E-03-5.10791E-02
 -1      2380-5.09577E-03-1.21924E-03 2.80568E-02
 -1      2381-2.07571E-03 1.42363E-03-7.45981E-02
 -1      2382-2.83203E-04-5.52741E-04 2.17627E-03
 -1      2383 0.00000E+00 0.00000E+00 0.00000E+00
 -1      2384 1.67772E-03 3.47031E-04-3.69706E-03
 -1      2385-1.15352E-03 2.16609E-03-8.64704E-03
 -1      2386-1.70536E-03 2.67867E-03-1.40606E-02
 -1      2387-8.51932E-03-1.17606E-03-3.71916E-02
 -1      2388-5.67746E-04-1.74940E-03-9.36193E-04
 -1      2389-3.63749E-03-9.58850E-04 1.71836E-02
 -1      2390 3.99448E-04 4.76568E-05-6.08995E-05
 -1      2391-1.59367E-03 1.79769E-03 1.67143E-02
 -1      2392 1.07044E-03-3.51429E-03 5.15336E-02
 -1      2393-7.21359E-04-2.35732E-03-1.07056E-02
 -1      2394-4.59944E-03 8.71912E-05 1.49846E-02
 -1      2395 6.75974E-04-2.86230E-03 4.34438E-02
 -1      2396-2.09197E-04 4.02296E-04 1.08115E-03
 -1      2397-3.18022E-04-1.19212E-03 9.12466E-02
 -1      2398 2.76016E-03 1.39372E-03 8.44448E-02
 -1      2399-6.50153E-04 2.13985E-03 1.58650E-02
 -1      2400-3.92514E-03 4.58651E-04 1.61639E-02
 -1      2401-1.37256E-03-1.67116E-03 8.83011E-02
 -1      2402-1.73035E-03-1.76623E-03-1.09285E-02
 -1      2403-2.97737E-03 1.05081E-04-1.83204E-03
 -1      2404-5.70536E-03 8.19884E-04-7.99611E-02
 -1      2405-5.86091E-03 6.45799E-04-8.32832E-02
 -1      2406-4.27700E-03 6.32229E-04-2.35555E-02
 -1      2407-4.38678E-03-1.98216E-03 5.83455E-02
 -1      2408-2.34372E-03-2.20105E-04-5.87273E-03
 -1      2409-1.30004E-03-1.32159E-03 3.83201E-03
 -1      2410-2.32741E-03-6.50079E-04 6.58750E-03
 -1      2411-3.54537E-03 1.49329E-03-5.65600E-02
 -1      2412-2.29795E-03-1.47172E-03-8.29064E-02
 -1      2413 2.04223E-03-2.88671E-03-5.90143E-02
 -1      2414-3.98687E-04-2.60176E-03 7.42316E-02
 -1      2415 1.29709E-03 8.15935E-04 9.09944E-02
 -1      2416 2.95493E-04 1.88447E-03-9.97692E-03
 -1      2417-5.02547E-03-6.61352E-04 6.17953E-03
 -1      2418-1.06104E-02 7.36311E-04 2.49101E-02
 -1      2419-9.68824E-04-3.04411E-03 1.54811E-02
 -1      2420 2.68947E-05 2.26374E-04-7.12508E-04
 -1      2421 0.00000E+00 0.00000E+00 0.00000E+00
 -1      2422-1.30071E-02 4.54318E-04 2.62162E-02
 -1      2423-1.14594E-02-1.35051E-04-3.33864E-03
 -1      2424-1.73832E-05 1.55460E-04-4.93208E-04
 -1      2425-5.91411E-03 7.68328E-04 2.21631E-02
 -1      2426-2.41820E-03-3.00714E-03-6.57460E-03
 -1      2427-1.32296E-03 1.39806E-03 9.00836E-02
 -1      2428-1.91605E-03-2.78533E-03-6.37962E-02
 -1      2429-2.33577E-03 1.86522E-03 8.67817E-02
 -1      2430 3.19092E-04 2.26065E-03-5.57672E-02
 -1      2431 2.15267E-04-3.08180E-03 3.51920E-02
 -1      2432 2.25517E-03 1.20580E-03-7.77537E-02
 -1      2433 0.00000E+00 0.00000E+00 0.00000E+00
 -1      2434 3.37929E-03 3.63657E-03 3.56596E-02
 -1      2435 2.16980E-03-1.14822E-03 1.75523E-02
 -1      2436-2.46467E-03 1.38462E-03 8.90015E-02
 -1      2437 1.91578E-03-1.14214E-03-1.58932E-02
 -1      2438 7.85537E-04 2.27209E-03-6.62031E-02
 -1      2439-5.11346E-05 1.87861E-03 8.56124E-02
 -1      2440 5.15999E-04-7.80774E-04 4.00090E-02
 -1      2441 4.50893E-03 1.47734E-03 7.58385E-02
 -1      2442-3.10489E-03-9.90470E-04 1.37395E-02
 -1      2443 1.55056E-03-1.40078E-03 1.19746E-02
 -1      2444-7.19523E-03-9.09815E-04 8.75018E-02
 -1      2445 2.11097E-03-3.69587E-03 5.44389E-02
 -1      2446-5.77029E-03 2.43478E-03-3.64982E-02
 -1      2447-5.08683E-03 1.80597E-03-6.41615E-02
 -1      2448 5.66742E-05-1.27580E-04 3.26425E-04
 -1      2449-9.19502E-03 8.70018E-04 7.55228E-02
 -1      2450-2.03686E-03-3.55516E-03-3.56749E-02
 -1      2451 6.41410E-04 3.48834E-04-2.02503E-02
 -1      2452 4.65344E-03 9.85165E-04 7.61436E-02
 -1      2453 3.78928E-03 3.41991E-03 5.20264E-02
 -1      2454-8.54832E-03-3.85302E-04-5.44693E-03
 -1      2455-1.93613E-03 2.06065E-03-7.40081E-02
 -1      2456-1.22750E-02-1.24772E-03-4.04251E-02
 -1      2457-4.12532E-03-1.09555E-03-3.10754E-02
 -1      2458-5.50580E-03 2.60907E-03-3.39806E-02
 -1      2459-4.39260E-03 8.05291E-04 9.19957E-02
 -1      2460-2.29782E-03-3.01379E-03-9.79868E-03
 -1      2461-3.10352E-03-1.29888E-03-8.01524E-02
 -1      2462-3.94614E-03 3.54963E-03-3.33794E-02
 -1      2463-1.93229E-03-1.73977E-03 8.94787E-02
 -1      2464-1.20118E-02 1.22801E-03 4.26575E-02
 -1      2465-6.20280E-03 1.77096E-03-4.38198E-02
 -1      2466 3.54996E-04-4.60303E-04 5.11737E-04
 -1      2467 2.16512E-04 4.97805E-05-1.12775E-04
 -1      2468 2.08627E-04 2.67317E-03 3.66978E-02
 -1      2469-6.76852E-03-8.85538E-04 2.04104E-02
 -1      2470-5.95238E-03 7.46788E-04-4.33108E-02
 -1      2471-1.12502E-02-1.23404E-03-3.11054E-02
 -1      2472-2.77294E-03-2.08909E-03 7.14122E-02
 -1      2473 4.36967E-03-2.08891E-03-5.65518E-02
 -1      2474 1.15105E-03-2.38269E-03 4.41749E-02
 -1      2475 5.50592E-04 2.09037E-03 9.00881E-03
 -1      2476-6.05601E-05-2.99874E-03-6.01460E-02
 -1      2477 5.15010E-03-1.66917E-03-3.98272E-02
 -1      2478-8.60183E-03 5.53678E-04-1.53535E-02
 -1      2479 3.03057E-03-2.10178E-03 7.50673E-02
 -1      2480-7.99424E-03-1.76290E-03 6.31180E-02
 -1      2481-1.27163E-02-7.48437E-04-1.31299E-02
 -1      2482-4.22686E-03-1.52220E-04 9.64920E-02
 -1      2483-1.98111E-03 2.56029E-03 1.43889E-02
 -1      2484-6.23774E-03 1.39779E-03 7.49052E-02
 -1      2485 6.22482E-04 2.04313E-03-1.68212E-02
 -1      2486-2.82659E-03 1.50607E-04-8.93488E-02
 -1      2487-3.62754E-03 1.23616E-03-7.63633E-02
 -1      2488-8.26155E-03-7.51516E-04-7.27478E-02
 -1      2489 5.89467E-04 2.60663E-03-1.67761E-02
 -1      2490-6.16580E-03 6.21016E-04-2.34417E-02
 -1      2491-6.98714E-03 6.71046E-04 8.71334E-02
 -1      2492-1.11609E-02-8.73694E-04-1.96090E-02
 -1      2493 6.03702E-03 2.36068E-03 2.18522E-02
 -1      2494-9.89670E-04-8.24205E-04-3.68384E-03
 -1      2495-2.35604E-03 2.08532E-03 4.13564E-02
 -1      2496-3.46866E-03 1.13688E-03 2.36615E-02
 -1      2497-3.45626E-03-1.63601E-03 8.62000E-02
 -1      2498-3.55819E-03-5.47305E-04 4.13737E-03
 -1      2499-2.58934E-03 1.00995E-04-3.93198E-03
 -1      2500-8.37732E-03-7.96985E-04 8.31396E-02
 -1      2501 4.70671E-03 2.30708E-03-6.21804E-02
 -1      2502-1.78229E-03 3.64103E-04-8.91403E-02
 -1      2503 5.04072E-03 7.47823E-05 7.35841E-02
 -1      2504 1.93478E-03 2.51419E-03-5.78462E-02
 -1      2505-3.69636E-03-1.98728E-03 5.33561E-02
 -1      2506-8.30501E-03 2.39534E-04 1.77414E-02
 -1      2507 3.32473E-03-3.39400E-03 1.78537E-02
 -1      2508 7.31887E-04 1.94107E-03-1.03600E-02
 -1      2509-2.78440E-03 1.16903E-03-1.90947E-03
 -1      2510 1.42312E-03-2.07811E-03 3.73574E-02
 -1      2511-3.28082E-03-3.24225E-04-8.87468E-02
 -1      2512-4.08657E-03 1.93237E-04-8.78325E-02
 -1      2513-2.23295E-04-9.26131E-04-2.74317E-02
 -1      2514-8.19768E-03 7.25470E-04-2.93811E-02
 -1      2515 2.70507E-03-2.57240E-03-5.99654E-02
 -1      2516-3.16427E-03-1.87884E-03 4.59675E-02
 -1      2517-9.16993E-04-8.98068E-05-2.21119E-04
 -1      2518 2.64711E-04 2.89589E-03 5.78771E-02
 -1      2519 2.47876E-04-1.50718E-03-8.15970E-02
 -1      2520-8.62113E-04 2.68608E-03 3.41693E-02
 -1      2521-8.90744E-04-7.55852E-04-8.76418E-02
 -1      2522-5.03412E-03 3.67450E-04 7.51431E-03
 -1      2523-6.60453E-03 1.18188E-03-5.84178E-02
 -1      2524 1.46567E-04-9.40139E-04 4.47715E-03
 -1      2525-4.48506E-03-1.00451E-03-7.36652E-02
 -1      2526-4.55963E-03-2.82399E-03 3.45333E-02
 -1      2527-5.55650E-03-4.34444E-04-8.44435E-02
 -1      2528-5.57608E-03-9.37582E-04-1.64882E-02
 -1      2529 4.56594E-03 2.96880E-03 3.43373E-02
 -1      2530 6.30638E-03-1.07939E-04 3.82947E-02
 -1      2531-1.23516E-03 2.36315E-03-7.49284E-02
 -1      2532 5.67809E-03-3.47412E-04 2.28868E-02
 -1      2533-3.35442E-03-3.66040E-03 1.08351E-02
 -1      2534 0.00000E+00 0.00000E+00 0.00000E+00
 -1      2535-5.27284E-03 1.21084E-03 8.21619E-02
 -1      2536 2.84769E-04 9.62195E-04 3.15575E-03
 -1      2537-3.83682E-03 2.46573E-03-1.53826E-02
 -1      2538 6.04162E-03-1.04878E-03 4.88099E-02
 -1      2539-3.86094E-04-2.96368E-03 2.77569E-02
 -1      2540-3.89684E-03-9.53768E-04 9.21095E-02
 -1      2541 2.47193E-04 2.44072E-03-1.49658E-02
 -1      2542-1.03979E-02 1.17178E-03 4.85716E-02
 -1      2543-3.49665E-04-1.91050E-03-8.48738E-03
 -1      2544-2.88193E-03 3.29534E-04 5.53897E-04
 -1      2545-2.90617E-03 5.90491E-04 8.35240E-03
 -1      2546-6.16728E-03-1.72277E-03 6.24748E-02
 -1      2547 2.58818E-03 2.17613E-03 7.87762E-02
 -1      2548-2.34929E-03 1.27015E-03-7.81314E-02
 -1      2549 2.80184E-03-3.12359E-03 6.57465E-02
 -1      2550-6.30134E-03-2.53714E-04-8.40769E-02
 -1      2551-1.40623E-02-1.34959E-04-2.82481E-03
 -1      2552 4.98962E-03-1.76073E-03-4.89931E-02
 -1      2553 1.50319E-03 1.42623E-03-2.58474E-02
 -1      2554-4.62086E-03-1.42028E-03-3.69876E-02
 -1      2555 2.61136E-03-3.81111E-03 2.99098E-02
 -1      2556-1.14870E-03 1.72574E-03 1.14971E-02
 -1      2557-1.37003E-03 9.60875E-04-8.64806E-02
 -1      2558-4.34975E-03-7.06511E-04 9.39477E-02
 -1      2559-3.10326E-03 1.02644E-03-8.62599E-02
 -1      2560-4.66533E-03 1.30137E-03 3.33988E-02
 -1      2561-1.21306E-02 1.28556E-03 5.63036E-02
 -1      2562 2.36927E-03 7.31672E-05 5.37327E-03
 -1      2563-3.96971E-03-1.75585E-03-5.21613E-02
 -1      2564-8.37242E-03 6.44875E-05 8.42590E-02
 -1      2565-3.00901E-03 1.68277E-03-4.86194E-02
 -1      2566-7.37249E-03 1.03781E-03 8.02798E-02
 -1      2567 0.00000E+00 0.00000E+00 0.00000E+00
 -1      2568-1.53163E-04 2.84984E-03 6.02706E-02
 -1      2569-1.97097E-03-6.04358E-05-4.95983E-04
 -1      2570-7.74776E-03 1.23287E-03 4.07429E-02
 -1      2571 4.60961E-04-1.34058E-04 4.04541E-04
 -1      2572 1.04739E-03 8.41634E-04-3.98054E-03
 -1      2573-2.81485E-03-9.38080E-05 9.74112E-02
 -1      2574-1.38933E-02 1.05683E-04 4.46396E-02
 -1      2575 1.29810E-04-2.00502E-03 8.07440E-03
 -1      2576-5.74295E-03 1.54147E-04 6.91973E-02
 -1      2577-3.76201E-03 3.57164E-05-2.41348E-03
 -1      2578-1.56721E-03 2.31791E-03-3.54529E-02
 -1      2579-9.60540E-03-9.35891E-04-1.45103E-02
 -1      2580-4.45186E-03-1.26946E-03 8.85342E-02
 -1      2581 4.19381E-03 7.14371E-05-7.25991E-02
 -1      2582 1.94514E-05 1.51304E-03-6.94025E-03
 -1      2583-5.06356E-05-2.59105E-03-1.62459E-02
 -1      2584-1.33035E-02-6.48822E-04 4.26854E-02
 -1      2585 1.10448E-03 5.16293E-05 2.24844E-02
 -1      2586 7.34559E-04-1.32167E-04-5.99088E-04
 -1      2587 3.54223E-04-4.78079E-04-8.66291E-02
 -1      2588-2.46062E-03 3.75483E-03 3.36436E-02
 -1      2589-7.01331E-03-5.31027E-04 3.51913E-03
 -1      2590-7.42357E-03-1.03871E-03-7.38572E-02
 -1      2591-4.89077E-03-1.06894E-03-7.85471E-02
 -1      2592 0.00000E+00 0.00000E+00 0.00000E+00
 -1      2593-4.31092E-03-1.10976E-03 2.01669E-02
 -1      2594-3.58012E-03 7.18055E-04-2.10183E-02
 -1      2595 1.84492E-04 6.23890E-04 2.24613E-03
 -1      2596 2.66582E-03-1.08990E-03-7.39899E-02
 -1      2597 1.31924E-04 7.18040E-04-8.58365E-02
 -1      2598-2.66158E-03-2.22514E-03 3.87285E-02
 -1      2599-6.17135E-03-1.23552E-03 8.34925E-02
 -1      2600 8.75340E-04-1.98801E-03 1.77987E-02
 -1      2601-9.73283E-03 5.05850E-05 7.74534E-02
 -1      2602-1.85019E-03-1.23155E-03-8.22053E-02
 -1      2603-1.42251E-04 3.32083E-03 4.58835E-02
 -1      2604-2.07470E-03 3.81513E-03 3.02395E-02
 -1      2605 6.83026E-05 1.03004E-03-2.35591E-03
 -1      2606-5.72057E-04 1.68400E-03-7.26383E-03
 -1      2607 5.22182E-04-2.23016E-03-2.09550E-02
 -1      2608-1.97258E-03 3.19766E-03 6.19730E-02
 -1      2609-7.20811E-03 1.05009E-03-7.03672E-02
 -1      2610-3.28026E-03-9.58434E-04-1.90880E-02
 -1      2611-2.60342E-03-1.54106E-03-2.61549E-02
 -1      2612 3.16485E-03-1.62019E-03-1.32673E-02
 -1      2613 1.70264E-05-1.16844E-03 1.11517E-03
 -1      2614 2.60166E-03 3.34990E-03-4.84694E-02
 -1      2615 3.46719E-04 2.77560E-03-5.46101E-02
 -1      2616-5.55474E-04 3.01713E-04 8.77553E-04
 -1      2617 1.21722E-03 2.12178E-03-7.03398E-02
 -1      2618-4.75578E-04 8.88924E-04 3.16232E-03
 -1      2619-5.58207E-05 7.49226E-04 1.11098E-04
 -1      2620 2.96246E-04 2.79393E-03 1.70744E-02
 -1      2621-1.22346E-03-2.61451E-03 3.56704E-02
 -1      2622-1.88482E-03-2.17890E-03-7.05214E-02
 -1      2623-1.02093E-02 8.00357E-04-2.79421E-02
 -1      2624-8.90483E-03 3.78201E-04 7.01607E-03
 -1      2625-6.68741E-03 4.45777E-04 1.87169E-02
 -1      2626 7.31435E-04 4.77088E-04 2.06456E-02
 -1      2627-1.43155E-02-1.70086E-04-1.74095E-02
 -1      2628-1.01077E-03 3.88280E-04 2.01895E-03
 -1      2629-7.68296E-03 1.27220E-04 1.28885E-03
 -1      2630-5.14282E-03-1.72146E-03 7.15368E-02
 -1      2631-6.52074E-03-1.28636E-03 3.79628E-02
 -1      2632-7.98416E-03 1.19436E-04-7.72747E-02
 -1      2633 3.39727E-03-3.55254E-03 6.04332E-02
 -1      2634-2.86849E-03-4.32682E-04 9.66059E-02
 -1      2635-4.11925E-04-1.23929E-03-6.92925E-04
 -1      2636-6.88384E-04 1.96803E-03 9.53023E-03
 -1      2637-1.47307E-03 2.38674E-03 1.90869E-02
 -1      2638 1.18962E-04-2.09847E-03 8.41559E-02
 -1      2639-5.12342E-03 4.70814E-04-1.33169E-02
 -1      2640-5.18748E-03-6.55739E-04 1.52961E-02
 -1      2641-9.58414E-03 3.72479E-04 2.10823E-02
 -1      2642-1.32409E-03-3.05232E-03 1.43085E-02
 -1      2643-4.67319E-05 7.82758E-04 9.39141E-02
 -1      2644-2.48407E-04-3.31088E-03 2.11327E-02
 -1      2645-1.16162E-02 7.92148E-04 6.64643E-02
 -1      2646-1.65097E-03 9.26972E-04 9.36790E-02
 -1      2647-1.05277E-02 1.00849E-03-3.58502E-02
 -1      2648-3.20130E-04-3.63586E-03 3.62241E-02
 -1      2649-7.37247E-03-5.01331E-04-9.33746E-03
 -1      2650-3.90995E-03 1.62097E-03-7.35445E-02
 -1      2651 0.00000E+00 0.00000E+00 0.00000E+00
 -1      2652 6.18780E-03 1.02187E-04 2.82764E-02
 -1      2653-3.20554E-03-3.66082E-03 5.39842E-02
 -1      2654-1.00126E-02-1.94005E-04-1.07034E-03
 -1      2655 6.40529E-03-5.50912E-04 3.47149E-02
 -1      2656 2.27035E-03-3.65800E-03 2.69783E-02
 -1      2657-2.03158E-03-1.90342E-03 8.48757E-02
 -1      2658-1.51401E-04-2.43524E-04-3.06566E-04
 -1      2659 4.82977E-03-2.38275E-03-4.62071E-02
 -1      2660 3.19208E-03-1.82496E-03-6.95899E-02
 -1      2661-4.97694E-03 2.44117E-03-5.71902E-02
 -1      2662-1.04423E-03-2.58649E-03-6.39330E-02
 -1      2663-7.86090E-03-1.47404E-03 7.37022E-02
 -1      2664-5.41952E-03 1.34136E-04 9.39537E-02
 -1      2665-1.41887E-02 1.06287E-04 2.73800E-02
 -1      2666 1.56362E-05 2.29063E-03-2.24571E-02
 -1      2667-6.97624E-03-5.89875E-04-7.89390E-02
 -1      2668-5.65388E-03 5.33651E-04 9.15553E-02
 -1      2669-9.45615E-03-8.83657E-04-2.90221E-02
 -1      2670-3.22943E-03-9.28895E-04 9.35150E-03
 -1      2671-3.15397E-03 1.53645E-03 3.04631E-02
 -1      2672-1.09864E-02-1.21913E-03 6.85018E-02
 -1      2673-5.02463E-03 2.72350E-03-1.30745E-02
 -1      2674-5.15697E-03 1.98374E-04-8.55895E-02
 -1      2675-1.46658E-03-4.42655E-04-2.21905E-03
 -1      2676-2.49337E-03-5.90467E-04-8.83060E-02
 -1      2677-1.07766E-03-1.12806E-03-8.48961E-02
 -1      2678-2.47012E-04 1.51390E-03-5.60162E-03
 -1      2679-4.61836E-03-3.21700E-03 3.83153E-02
 -1      2680-4.39644E-03-8.32212E-04-8.48657E-02
 -1      2681-5.79331E-03-6.29468E-04-2.36683E-02
 -1      2682 6.19272E-03-1.81034E-04 5.76022E-02
 -1      2683-6.09858E-03 4.58808E-05 4.14341E-02
 -1      2684-5.24411E-03 5.39986E-04 1.94314E-02
 -1      2685 2.94976E-03-4.17476E-04-7.62614E-02
 -1      2686-3.70158E-03 4.74672E-04 2.57521E-03
 -1      2687-1.24578E-03 1.47768E-03-7.87575E-02
 -1      2688 1.20218E-03-2.96386E-04-3.12961E-03
 -1      2689 1.39786E-03 1.70206E-03-2.64094E-02
 -1      2690-2.66539E-03 4.12298E-04-8.85908E-02
 -1      2691-5.34456E-03-4.87410E-04 9.37585E-02
 -1      2692-3.60378E-03-9.89253E-04-8.22405E-02
 -1      2693-7.71550E-03 7.47226E-04 2.95087E-02
 -1      2694-3.47319E-03 3.27227E-04 9.67530E-02
 -1      2695-1.43434E-02-1.22792E-04 1.75406E-02
 -1      2696-3.79267E-03-1.35718E-03-7.56527E-02
 -1      2697 0.00000E+00 0.00000E+00 0.00000E+00
 -1      2698 3.95037E-03-1.49391E-03-6.39737E-02
 -1      2699-6.11507E-03-1.49903E-03 7.82159E-02
 -1      2700 2.50894E-04 3.59535E-03 3.72671E-02
 -1      2701 2.07571E-04-6.20789E-04-9.21241E-04
 -1      2702-2.64569E-03-3.62671E-03-4.28286E-02
 -1      2703 1.72481E-05 2.98944E-03 2.51038E-02
 -1      2704 5.92622E-04-6.74103E-04 2.96852E-03
 -1      2705 5.28930E-05 2.51284E-03 1.20971E-02
 -1      2706-1.36612E-02 1.67921E-04-3.61550E-02
 -1      2707 9.26087E-04-2.73152E-04-1.88203E-02
 -1      2708-7.37590E-03 2.10709E-04 1.08917E-02
 -1      2709 0.00000E+00 0.00000E+00 0.00000E+00
 -1      2710-7.42501E-03-8.51455E-04-2.14828E-02
 -1      2711-5.19464E-03-6.01109E-04 2.28344E-02
 -1      2712-6.45661E-03-3.27129E-04 9.14929E-02
 -1      2713-1.19146E-02-1.15242E-03 5.71939E-02
 -1      2714-9.42290E-03-1.50053E-03 7.03602E-02
 -1      2715-9.09783E-03-1.08502E-03 7.69961E-02
 -1      2716-6.62418E-03-6.46483E-04-1.44324E-02
 -1      2717 6.04022E-03-4.46116E-04 6.06671E-02
 -1      2718-1.43242E-02-2.10185E-04-8.54407E-04
 -1      2719 0.00000E+00 0.00000E+00 0.00000E+00
 -1      2720-5.22314E-06-2.36929E-03 1.13143E-02
 -1      2721 1.23362E-03-2.71571E-04-1.21546E-02
 -1      2722-1.41513E-02-2.38666E-04-2.07871E-02
 -1      2723-1.00270E-03-6.83692E-04-4.63856E-02
 -1      2724-5.90702E-03 7.45025E-04 6.59398E-02
 -1      2725-1.24924E-02 3.34945E-04-5.02621E-02
 -1      2726 4.69917E-03-3.38052E-04 7.45244E-02
 -1      2727-4.57741E-03 6.58314E-04 8.04716E-02
 -1      2728-1.16243E-03 7.74876E-04-4.86888E-02
 -1      2729-1.79974E-04-1.04227E-03-3.24529E-02
 -1      2730-1.28824E-02 8.18255E-04 3.50915E-02
 -1      2731-1.27334E-03 1.95541E-05 6.81210E-02
 -1      2732-1.30732E-02-7.96391E-04 3.42821E-02
 -1      2733 4.23815E-04 7.99815E-04 3.63412E-02
 -1      2734-1.38264E-02 1.22526E-04 1.46975E-02
 -1      2735 1.01217E-03-5.64880E-04 2.04926E-02
 -1      2736-1.20464E-02 1.88612E-04 5.65111E-03
 -1      2737 5.60654E-04-6.98183E-04 3.05222E-02
 -1      2738-1.14660E-02-1.47568E-03-3.66917E-02
 -1      2739-1.33807E-02 4.37039E-04-1.49256E-02
 -1      2740-1.15424E-02 4.25985E-04-6.00637E-02
 -1      2741-1.03048E-02 8.44332E-04 7.26426E-02
 -1      2742 1.20675E-04 5.11591E-04-3.48367E-02
 -1      2743-1.13438E-02 9.93898E-04-5.57537E-02
 -1      2744-1.33319E-02-1.30668E-04 7.06260E-03
 -1      2745-9.84411E-04 1.29766E-04-5.02347E-02
 -1      2746-1.25440E-02-4.06616E-04-4.86361E-02
 -1      2747-1.01261E-02-5.53822E-04-6.58735E-02
 -1      2748 7.20739E-04 1.32015E-04-7.03329E-03
 -1      2749-1.36764E-02-6.30310E-04-1.47281E-02
 -1      2750-1.30927E-02 3.77617E-04 5.19756E-02
 -1      2751 2.60223E-05-9.47447E-04 5.25671E-02
 -1      2752 4.53133E-04 6.79899E-04 2.99425E-02
 -1      2753-1.16893E-02 3.76456E-04 6.95702E-02
 -1      2754-1.30447E-02-5.04515E-04 5.65020E-02
 -1      2755-4.19390E-05 5.37223E-04 5.66162E-02
 -1      2756-1.16390E-02-6.10097E-04 6.96846E-02
 -1      2757-1.53088E-04-7.41290E-04-4.04866E-02
 -1      2758 5.56707E-05 8.06450E-04 4.97457E-02
 -1      2759-1.08329E-02-1.62472E-03 5.82081E-02
 -1      2760-5.62692E-04-4.41139E-04-5.31308E-02
 -1      2761 8.14668E-04-3.41945E-04 8.34722E-03
 -1      2762-1.25998E-02-1.05081E-03 3.75518E-02
 -1      2763 4.62279E-04-6.16153E-04-1.30302E-02
 -1      2764-8.64815E-04-9.62186E-04-4.90086E-02
 -1      2765-1.37128E-02-2.58802E-04 4.57784E-03
 -1      2766-2.60981E-04 7.84629E-04-3.36410E-02
 -1      2767-1.16565E-02-5.67777E-04-5.86631E-02
 -1      2768 8.07044E-04 1.82677E-04 1.12554E-02
 -1      2769-1.28761E-02 8.14257E-04 4.87368E-02
 -1      2770-1.27918E-02 3.41564E-04 5.86936E-02
 -1      2771-1.19544E-02-8.41040E-04 6.42153E-02
 -1      2772 4.63905E-04-5.36462E-04 1.07724E-02
 -1      2773-1.36448E-03 8.48042E-05-5.70560E-02
 -1      2774-8.56457E-04-1.34507E-03 5.25725E-02
 -1      2775-9.41230E-04-6.74534E-04 6.21493E-02
 -3
    1PSTEP                         2           1           1          
  100CL  101 1.000000000        2775                     0    1           1
 -4  STRESS      6    1
 -5  SXX         1    4    1    1
 -5  SYY         1    4    2    2
 -5  SZZ         1    4    3    3
 -5  SXY         1    4    1    2
 -5  SYZ         1    4    2    3
 -5  SZX         1    4    3    1
 -1         1-5.65265E-01-2.11584E-01-4.05583E-01-3.80775E-02-3.22539E-02-4.78813E-01
 -1         2-2.12967E+00-3.63818E-01 1.99395E-01 9.00372E-02-3.66177E-03-1.16427E-01
 -1         3-1.76965E+00-3.02897E-01 2.71753E-01-1.68572E-01 2.34766E-02-6.98051E-02
 -1         4-2.64401E+00-4.64331E-01 2.36796E-01-1.09463E-01 8.25543E-03-5.54677E-02
 -1         5-9.32659E-01-2.25414E-01-6.69205E-01-7.96847E-02 6.74983E-02 7.90025E-01
 -1         6-9.46311E-01-4.14545E-01-6.88547E-01 1.40919E-02 1.15830E-01 6.03725E-01
 -1         7-5.10039E-01-1.78879E-01-4.53269E-01-5.08013E-03-1.25046E-01-4.35462E-01
 -1         8-8.78515E-01-9.84854E-02-5.49727E-01-1.09747E-01 2.64850E-02 6.70082E-01
 -1         9 5.24092E-01 6.56249E-02 6.47284E-02-7.74150E-02 2.19780E-03-6.95959E-02
 -1        10 5.18965E-01-1.56733E-01-1.12653E-01-2.85074E-02-3.36471E-03 3.20079E-02
 -1        11-1.07731E+00-1.92642E-01 1.47150E-01 5.43954E-01 8.55043E-02 4.99283E-02
 -1        12 4.75733E-01-1.95328E-01-2.15880E-01 1.66445E-01 5.41499E-02-4.14687E-02
 -1        13 5.14760E-01-2.50353E-01-5.18469E-02-1.19294E-01 1.07941E-01-6.14903E-02
 -1        14-8.36486E-01-2.92833E-01 6.52862E-01 4.41242E-01-4.00617E-03-3.20233E-01
 -1        15-2.27515E+00-4.47243E-01 3.91227E-01 2.86630E-01 3.12193E-02-1.41153E-01
 -1        16 3.01007E-01-9.40733E-02-1.23844E-01 2.58628E-02-4.67422E-02-2.94971E-01
 -1        17-1.10223E+00-2.15117E-01 3.44207E-01-6.88580E-01 1.47043E-01-2.29341E-01
 -1        18 6.73914E-01-7.75642E-02-4.06903E-02 2.22000E-04 1.63509E-03-1.85822E-01
 -1        19-1.01617E+00-1.79309E-01 1.69939E-01-5.28686E-01-9.38047E-02 6.81607E-02
 -1        20-3.69595E-01-1.97623E-01-4.11150E-01 3.93049E-02-5.37099E-02-4.80330E-01
 -1        21-2.27609E+00-6.82877E-01 2.22326E-01-6.29877E-01-1.03742E-02 5.64825E-02
 -1        22-4.89941E-01-7.25573E-01 3.08791E-01-7.41667E-01 5.41846E-02-2.34261E-01
 -1        23-9.66213E-01-3.16557E-02 4.29086E-01 1.47379E-01 1.11718E-01 1.60743E-01
 -1        24-1.82822E+00-5.14103E-01 1.55352E-01-4.77618E-01-4.29003E-02-8.51763E-02
 -1        25-5.00010E-01-1.33557E-01-1.21726E-01-6.49846E-02-1.00929E-01-3.36117E-01
 -1        26-4.36721E-01-6.23761E-02-5.90967E-01-1.63632E-01 2.56088E-01 5.82343E-01
 -1        27-1.75700E+00-2.82336E-01 2.50202E-01-1.93339E-01-1.66017E-02 4.73209E-02
 -1        28 8.24634E-01 2.39180E-02-8.83296E-02-6.88566E-03 4.94995E-02-8.90393E-02
 -1        29-1.99778E+00-3.36665E-01 1.40217E-01-3.44772E-01 1.62963E-02-1.20063E-01
 -1        30-7.07345E-01-1.66338E-01-3.01374E-01-2.82096E-01 1.85506E-01 5.52431E-01
 -1        31 5.50404E-01 1.02682E-01 9.63405E-02 1.10063E-01-1.05437E-02-1.36698E-01
 -1        32 6.30906E-01-5.81018E-03-9.32875E-02 6.77503E-02 5.80223E-02-6.13197E-02
 -1        33-5.50229E-01-5.20703E-01 1.28099E-01-5.94408E-01-1.06024E-01 1.75588E-02
 -1        34-1.31325E+00 7.48947E-02 2.21116E-01 2.23337E-01-1.34856E-01-1.94871E-01
 -1        35 1.24174E-01-7.13932E-01-9.93330E-02 4.00481E-01-1.80750E-02 7.81628E-02
 -1        36-1.41966E+00-1.08838E+00-7.73970E-01-9.72773E-02 2.51320E-01-4.51707E-01
 -1        37-4.27914E-01-7.07081E-02-2.66208E-01-1.05674E-01-1.06501E-01-3.28173E-01
 -1        38-5.70210E-01-2.96354E-01-4.94308E-01-2.44046E-01 3.21887E-01 4.96210E-01
 -1        39-4.61494E-01-2.84326E-01-5.74688E-01-2.20333E-01 2.58543E-01 5.14576E-01
 -1        40-1.34838E+00-6.50042E-01 1.95711E-01-6.52719E-01-7.01044E-02-1.60921E-01
 -1        41-8.98571E-01-5.72273E-01 1.86703E-01-5.80901E-01-1.13578E-01-3.66714E-02
 -1        42-1.22763E+00-8.92780E-01 2.17651E-01-7.15715E-01 2.18096E-02 8.44553E-02
 -1        43-7.28549E-02-7.95060E-01 1.68168E-01-3.59437E-01 4.27316E-02-1.04297E-01
 -1        44-8.90498E-01-4.00629E-02 2.95249E-01-1.32218E-01 1.28434E-01 1.80194E-01
 -1        45-1.28160E+00-4.42964E-01 1.40418E-01-6.31471E-01-3.96597E-02-3.26540E-02
 -1        46-1.22856E-01-6.14800E-01 1.30828E-01-3.58959E-01-1.44769E-01 3.50692E-02
 -1        47-3.45360E-01 1.78433E-02-3.91845E-02-1.35050E-01-4.04298E-03-2.03575E-01
 -1        48 3.48240E-02 8.40497E-02 1.17397E-01 2.03336E-01-8.65886E-02-2.45240E-02
 -1        49-1.03667E+00-7.60477E-01-8.92271E-01 5.50958E-02 2.53253E-01-5.40820E-01
 -1        50 4.21604E-01-3.47490E-03-2.96729E-01 1.73790E-01 5.95787E-02-1.00300E-01
 -1        51-1.02465E+00 1.03268E-01 2.98060E-01-2.28393E-01-2.47721E-01-1.25242E-01
 -1        52-3.52603E-01-2.63591E-02-3.12785E-01-1.72568E-01-2.04615E-01-4.43896E-01
 -1        53-5.85106E-01-2.79573E-01-6.69593E-01-5.21015E-02-4.00135E-03-6.52134E-01
 -1        54-1.28715E-01-2.10784E-01 2.70004E-01-1.48398E-01-7.85737E-02-6.34361E-03
 -1        55-6.34155E-01-4.71650E-01 2.07122E-01-5.48152E-01-2.04572E-01-1.37652E-01
 -1        56-8.02335E-01-6.24754E-01 6.67947E-02-5.74160E-01-6.05275E-02-1.02717E-02
 -1        57-2.92015E-01-3.64667E-02 7.95085E-02-1.83464E-01-6.40194E-02-1.65634E-01
 -1        58-6.57163E-01-4.77874E-01 3.54000E-02-4.87232E-01 9.20401E-02 1.27676E-01
 -1        59-5.31136E-01-1.21268E-01 1.53868E-01-3.57682E-01 1.89025E-01 7.28141E-02
 -1        60-1.71593E-01-2.43980E-01-3.07943E-01-2.50115E-01 2.79431E-01 2.54438E-01
 -1        61-5.80709E-01-7.10213E-01 6.89997E-02-5.17779E-01-9.80784E-03-3.59656E-02
 -1        62-1.51768E-01-2.30968E-01-3.89392E-01-2.16880E-01 3.18572E-01 2.48201E-01
 -1        63 8.32915E-02-7.19423E-02-4.56579E-01 1.65610E-01-6.22724E-02-5.55641E-02
 -1        64 4.29840E-01 1.32236E-01 7.06117E-02 3.14198E-01 1.05969E-01-7.13597E-02
 -1        65-6.00491E-01-6.67346E-02 2.46390E-01-3.93321E-01-2.85831E-01-9.52749E-02
 -1        66 1.64871E-01 1.35039E-01 1.63119E-01 1.10334E-01-1.18019E-01-2.11296E-01
 -1        67 6.11752E-02-4.66369E-01 1.43072E-01-7.57011E-02 9.75040E-02-9.37544E-02
 -1        68-1.41428E-01-4.43366E-02-2.46476E-01 1.01919E-01 9.77644E-02 8.41523E-02
 -1        69-1.73171E-01 1.64565E-01 3.47165E-02 3.78382E-01 1.51612E-01-3.61916E-01
 -1        70-1.96674E-01 4.84483E-02-2.54707E-01 7.82156E-02-1.06417E-01-1.80570E-01
 -1        71 4.73232E-02-2.31543E-01-4.88219E-01-3.41961E-01-3.75593E-01-8.85255E-01
 -1        72 1.07630E-01-5.97973E-04-6.69891E-02-2.16979E-01-7.76769E-02-2.52203E-01
 -1        73-3.53932E-02 2.71365E-02 6.03977E-02-4.22646E-01-1.56941E-01 8.75142E-02
 -1        74-8.55785E-03 4.35989E-02 2.95480E-02-1.98886E-01-8.44478E-02 2.46259E-01
 -1        75 5.55009E-03-1.64311E-02 1.14328E-01-4.11956E-01-4.65767E-02 2.41819E-03
 -1        76-1.01890E-02 1.00213E-01 1.70890E-01-1.84311E-01 1.03992E-01-1.36079E-01
 -1        77-7.38027E-02-5.03466E-02 1.34933E-02-4.92790E-01 1.59413E-01 8.45601E-03
 -1        78-4.63674E-02-1.06844E-01-1.87538E-01-1.81259E-01 1.26101E-01 1.12264E-01
 -1        79 4.15077E-02-3.92535E-03-3.02084E-02-3.27575E-01 1.65396E-01-1.56626E-03
 -1        80 3.94920E-02 1.49899E-01 2.82176E-01 1.69964E-01-1.05877E-02-3.08422E-02
 -1        81-1.87409E-01-4.16218E-02 1.71134E-01 1.94241E-01 8.20032E-02-1.00660E-01
 -1        82 1.02297E-01 2.95115E-02-6.10068E-02-1.89386E-01-2.50689E-01 4.72952E-02
 -1        83 1.05855E-01 1.71023E-02-2.35817E-01 2.67177E-01-1.31549E-01-7.27047E-02
 -1        84 2.92923E-02 5.43501E-03-1.75868E-01-1.64814E-01 2.28447E-01 4.26363E-02
 -1        85-1.62121E-01-7.60511E-02 1.33216E-01-2.28462E-01-2.36133E-01-3.54467E-02
 -1        86-2.39451E-01-1.02273E-01 5.03267E-02-2.59258E-01 2.55869E-01 1.11545E-01
 -1        87 2.33888E-01 4.34262E-02 1.29120E-01-1.67575E-01-4.46719E-02 2.66710E-01
 -1        88 1.12963E-01 1.28363E-01-1.65192E-02-1.68168E-01 1.88848E-01-2.43263E-02
 -1        89 2.90988E-01 4.43532E-01-1.47331E-01-4.89226E-01 7.04800E-02-4.05343E-04
 -1        90 3.03673E-01 2.64059E-01-1.36613E-01-5.61855E-01-2.74896E-02 2.48314E-02
 -1        91 2.08275E-01 3.02235E-02 1.03755E-01-1.91948E-01 6.91187E-02-2.04664E-01
 -1        92-8.14400E-02 2.62910E-02 1.57668E-01 1.89977E-01 1.13797E-01 2.36931E-02
 -1        93 2.11452E-01 5.98049E-02 3.49723E-01-1.45795E-01 1.66129E-01-2.78150E-01
 -1        94-1.14536E-01-1.57384E-01-1.60831E-01 1.41515E-01 4.23356E-02-1.51978E-01
 -1        95 2.07513E-01 2.12790E-01 2.64732E-01-2.25049E-01-2.28585E-01 1.90775E-01
 -1        96 7.93187E-02 3.63270E-01-7.63587E-03-3.75921E-01-1.30152E-01 1.33169E-02
 -1        97 4.23659E-02 2.37868E-01-7.92320E-02-4.42237E-01 1.87988E-01 3.48256E-02
 -1        98-3.57532E-02-1.61774E-01 1.81318E-01 9.86696E-02-1.38229E-02-1.95609E-01
 -1        99 4.48058E-01 1.54460E-01-8.20430E-02-3.61493E-01-2.55089E-01 1.49447E-01
 -1       100 3.93960E-01 1.23461E-01-1.94998E-01-3.68175E-01 2.93004E-01-8.20628E-02
 -1       101-3.30294E-02-2.09872E-01-7.08433E-02 8.10986E-02 8.44514E-02 4.64499E-03
 -1       102-1.75559E-02 2.10531E-01 4.18950E-02-9.51099E-02-1.90897E-01-2.86976E-03
 -1       103 1.12841E-01 2.02682E-02 3.84565E-01 1.68953E-01-2.91892E-02 4.45812E-02
 -1       104 4.52109E-01 4.99037E-02 3.46338E-01-1.59512E-01-9.98247E-02 4.49877E-01
 -1       105 8.25769E-01 1.80236E-02-4.33106E-01-3.24522E-01 2.97572E-01-1.99420E-01
 -1       106 1.29891E+00 7.59620E-01-1.50090E-01-7.19637E-01 9.99683E-02-1.49372E-01
 -1       107 1.06601E+00 5.14408E-01-1.30442E-01-5.84919E-01-2.80374E-02 9.07484E-02
 -1       108 9.22160E-01 4.98015E-02-1.84584E-01-3.90470E-01-2.05404E-01 1.24784E-01
 -1       109 1.93792E-01 4.28200E-01-4.17335E-01-1.26061E-01 3.13223E-02-2.73196E-02
 -1       110 3.99018E-01 1.58383E-01 2.99965E-01-1.79129E-01 1.98501E-01-3.24770E-01
 -1       111 9.51035E-01 6.07795E-01-1.39812E-01-5.60307E-01 1.36198E-01-1.59974E-01
 -1       112 5.65045E-01 2.19462E-01 3.89208E-01-3.00739E-01-3.01365E-01 4.10268E-01
 -1       113 3.30028E-01 1.77137E-01 4.62503E-01-1.52996E-01 2.08196E-01-3.87426E-01
 -1       114-3.82594E-01-1.88677E-01-3.43473E-01 2.11649E-01 6.17179E-02-1.12076E-01
 -1       115 1.09798E-02 4.89229E-01-1.30910E-01-2.23723E-01 1.76687E-01 5.25563E-02
 -1       116-4.06250E-01-1.28496E-01 2.03602E-01 2.60183E-01 3.33195E-02-1.21645E-01
 -1       117-1.22397E-01-1.07843E-02 6.27573E-02 1.79751E-01-1.54625E-01-2.20857E-01
 -1       118 8.70828E-02 5.13613E-02-6.27410E-02 3.63220E-01-1.66956E-01 6.62233E-03
 -1       119-1.74550E-01-2.26122E-02-4.65001E-03 2.07768E-01-7.18797E-02-3.85687E-02
 -1       120 1.11521E+00 9.37987E-01-1.99531E-01-6.98364E-01-4.19599E-02 1.14959E-01
 -1       121 3.11832E-01 2.96684E-02 2.89083E-01-3.85379E-02 2.71817E-02-3.31974E-01
 -1       122 1.26097E+00 1.20482E+00 9.42586E-01 1.59416E-01-1.04532E-01-2.04089E-01
 -1       123 4.51453E-01 6.56171E-02 4.84107E-01-9.88252E-02-1.09901E-01 5.25373E-01
 -1       124 1.58855E+00 6.12144E-01-1.48818E-01-5.89974E-01 4.66952E-02-5.04414E-02
 -1       125 1.44012E+00 7.34324E-01-3.02660E-01-6.84955E-01-4.80331E-04 4.62746E-02
 -1       126 2.39507E-01 7.87810E-01-2.76984E-01-5.76433E-01-8.02473E-02-1.69262E-01
 -1       127 1.53949E+00 3.57674E-01-1.85007E-01-3.96588E-01 1.57841E-02 1.29994E-01
 -1       128 4.71857E-01 4.73356E-02 2.51110E-01-1.33101E-01 1.27668E-01-3.35653E-01
 -1       129-4.86021E-01 3.13602E-03 1.30289E-01 1.62082E-01-3.39604E-02-7.01491E-02
 -1       130 7.07646E-01 1.16088E-01 3.64376E-01-2.38663E-01-2.29686E-01 5.12275E-01
 -1       131-4.22622E-01 9.50589E-02 2.78737E-02 2.75877E-01-6.82132E-02 1.22273E-01
 -1       132 1.20678E+00-7.59493E-02-1.54707E-01-4.53841E-02-1.20315E-01 1.38540E-01
 -1       133 9.66141E-01-1.31756E-02-4.59536E-01-1.17390E-02 1.80734E-01-2.31256E-01
 -1       134-1.48783E-01-2.96831E-02-7.54142E-02 1.47191E-01 1.23421E-02-9.02304E-02
 -1       135 1.84977E+00 5.80011E-01-1.05845E-01-6.93487E-01 9.10387E-03-1.46470E-02
 -1       136-4.91015E-01-3.37401E-02 1.98108E-01 1.64909E-01 6.56020E-02-9.61032E-02
 -1       137-5.81450E-01-1.13774E-02 2.00965E-01 6.95779E-02-6.04344E-02-2.76303E-02
 -1       138 3.10781E-01 6.19462E-01-1.23803E-01-5.01219E-01 1.23098E-01 1.89330E-02
 -1       139 3.89393E-01 2.81078E-01 3.21858E-01 5.04651E-01-2.05513E-01-1.95000E-01
 -1       140-4.63989E-01 3.11810E-01 2.69512E-01 3.17525E-01-1.33304E-01-7.44696E-02
 -1       141 4.80909E-01 2.05817E-01 3.50977E-01-4.85559E-02 7.24643E-02-4.07980E-01
 -1       142 2.51822E+00 5.40448E-01-2.62513E-01-3.68584E-01 1.23551E-02 5.73434E-02
 -1       143 2.09679E+00 2.89860E-01-1.42861E-01-7.17316E-02-4.74865E-02-1.01424E-01
 -1       144 6.40519E-01 3.90243E-01-3.34690E-01-3.46203E-01-1.75150E-02 7.00292E-02
 -1       145 1.91005E+00 3.43298E-01-2.73985E-01-9.22008E-02 6.19420E-02-9.90593E-03
 -1       146 8.76497E-01 2.86438E-01 6.48626E-01-1.31246E-01-1.53874E-01 7.50234E-01
 -1       147 8.23021E-01 1.82086E-01 6.15154E-01-1.90432E-01-8.97125E-02 6.90645E-01
 -1       148 4.30096E-01 1.19859E-01 3.28655E-01-9.86796E-02 3.35318E-02-3.61343E-01
 -1       149-4.94977E-01 8.51649E-02 1.03954E-01 9.35098E-02-3.58741E-02-8.75253E-02
 -1       150-6.23488E-01-9.48472E-02-1.26149E-01 2.44725E-01 3.71253E-02-1.64957E-01
 -1       151-7.70807E-01-1.18860E-01 2.53893E-02 5.91998E-02-7.98818E-03-1.30422E-01
 -1       152 1.94708E+00 3.65970E-01-1.17460E-01-3.17116E-01 6.27214E-03-1.01860E-01
 -1       153 1.24194E+00 2.68809E-02-1.98555E-01 3.96131E-01-1.10301E-01 1.04428E-01
 -1       154-5.57938E-01 1.33562E-01-9.18312E-03 9.34987E-02-3.98948E-02 5.18428E-02
 -1       155 1.17518E+00 4.61823E-02-2.21597E-01 4.45645E-01 1.01072E-01-2.01043E-01
 -1       156 8.15490E-01 5.01831E-01-3.29318E-01-7.97924E-01-8.88621E-02-2.54166E-01
 -1       157 8.52295E-01 1.09463E+00 1.03946E+00-5.22225E-03-5.33926E-02-1.79508E-01
 -1       158 2.08569E+00 4.04577E-01-2.05022E-01 3.23395E-01-4.42979E-02-7.42773E-02
 -1       159 5.96857E-01 2.66600E-01 4.30407E-01 3.91901E-02-7.41266E-02-5.03064E-01
 -1       160 9.48434E-01 1.26840E-01-6.07434E-01-2.66975E-01-1.35685E-01-2.45823E-01
 -1       161 9.33798E-01 1.01376E-01-4.74829E-01-2.71648E-01 8.91672E-02 1.63037E-01
 -1       162 8.73529E-01 1.68339E-01 6.45110E-01 1.36663E-01 1.39997E-01 7.48606E-01
 -1       163 2.33103E+00 3.86074E-01-3.16717E-01 1.05589E-01 1.18342E-02-1.29641E-01
 -1       164 8.45766E-01 8.75715E-02 6.19166E-01 1.82642E-01 1.30256E-01 7.16361E-01
 -1       165 1.91954E+00 2.75956E-01-2.91973E-01-1.26108E-02-1.91402E-02 8.56177E-03
 -1       166-8.40423E-01-6.27579E-02 9.59463E-02-3.29396E-03 4.03359E-02-1.28235E-01
 -1       167 5.39100E-01 3.38169E-01 7.26159E-01 1.90919E-01-9.80348E-02 4.18187E-01
 -1       168-6.54353E-01 7.45161E-02-2.75782E-02-8.55518E-02-2.72256E-03-1.69939E-01
 -1       169 5.52073E-01 1.91606E-01 4.60654E-01 9.67668E-02 4.73578E-03-4.79006E-01
 -1       170 7.40603E-01 3.10454E-01-3.27696E-01 6.37438E-01-1.80456E-01 1.25263E-01
 -1       171 2.32347E+00 4.83566E-01-3.15690E-01 4.04543E-01-2.87718E-02 7.35806E-02
 -1       172 7.98752E-01 4.70851E-01-2.85669E-01 7.49737E-01 8.43125E-02-2.10451E-01
 -1       173-5.95858E-01 3.21695E-01 1.85719E-01-4.20080E-02 6.04039E-02-1.34833E-02
 -1       174-5.20790E-01 1.65699E-01 3.50739E-02-1.49248E-01-8.82171E-02-1.43627E-01
 -1       175 4.15874E-01 6.36618E-02 2.60830E-01 5.05555E-02-6.47972E-02-3.22050E-01
 -1       176 3.47921E-01 4.93236E-03 9.08771E-02 5.29950E-02-2.43649E-02-1.80981E-01
 -1       177 3.52126E-01 5.89006E-01-6.72154E-01 3.30733E-01-7.41781E-02-1.50375E-01
 -1       178 8.03819E-01 2.46211E-01 5.88692E-01 1.91210E-01 2.47497E-01 6.64168E-01
 -1       179-1.94537E-01 1.60833E-01 2.27100E-01-4.67956E-02 7.68754E-02 6.37526E-02
 -1       180 1.70201E+00 7.67867E-01-3.75605E-01 6.94729E-01 6.58221E-02 5.40113E-02
 -1       181 1.95584E+00 5.53300E-01-1.04176E-01 6.54198E-01-2.17318E-02-4.71306E-02
 -1       182 7.21363E-01 8.83562E-02 3.52449E-01 2.21105E-01 1.70776E-01 4.88671E-01
 -1       183-3.23230E-01-6.62177E-02-1.28843E-01-2.07711E-01-2.49420E-02-1.30015E-01
 -1       184 1.60617E+00 6.10595E-01-1.57594E-01 5.96052E-01-6.01684E-02-7.36538E-02
 -1       185-5.01472E-01-5.57421E-02 6.57209E-02-1.87862E-01 1.11636E-02-2.13977E-02
 -1       186 1.35143E+00 9.15838E-01 1.09046E+00 7.31862E-02 1.51528E-01-4.95473E-01
 -1       187 1.53888E+00 3.13581E-01-2.18980E-01 3.73444E-01 2.15442E-02 1.24768E-01
 -1       188 3.37585E-01 6.44857E-01-1.16042E-01 5.26272E-01-1.33780E-01 5.78236E-03
 -1       189-1.99142E-01 6.87735E-02 1.16472E-01-2.56025E-01-6.03748E-03-9.24074E-02
 -1       190 1.38282E+00-1.17635E-01-2.23538E-01 1.05108E-02-1.76154E-01-2.20251E-01
 -1       191 1.19639E+00-1.26972E-01-2.57800E-01 2.69764E-02 1.92803E-01 1.64054E-01
 -1       192-7.74655E-02 6.31736E-02 1.22413E-01-4.09187E-01 1.65677E-01-1.05453E-01
 -1       193 7.04732E-01 2.56436E-01 5.61734E-01 7.71335E-02 1.02639E-01-7.91583E-01
 -1       194 8.85801E-01 6.40055E-01 3.86889E-01-4.83528E-02 2.10950E-01-3.87176E-01
 -1       195 1.08544E+00 6.73106E-01-7.26423E-02 6.00902E-01-8.48273E-02-9.27561E-02
 -1       196 1.68013E-01 1.19182E-02 2.67835E-01 1.75987E-01-1.62865E-01-3.04030E-01
 -1       197 2.24057E-01 8.65514E-02-5.78778E-03 1.17178E-01-5.93027E-02-1.58529E-01
 -1       198 1.14062E+00 6.77613E-01-1.65328E-01 6.49792E-01-1.03954E-01-1.24396E-01
 -1       199 1.71774E-02 5.31753E-01-1.01978E-01 2.10632E-01-1.44534E-01 3.94933E-02
 -1       200 1.03734E+00 5.01055E-01-6.69307E-02 5.49579E-01 3.96539E-02 1.33642E-01
 -1       201 8.79532E-01 7.23813E-02-1.21413E-01 3.66287E-01 1.58793E-01 1.27115E-01
 -1       202 9.86664E-01-1.82862E-02-2.99058E-01 4.05111E-01-3.05484E-01-1.50246E-01
 -1       203 9.26096E-01 8.17396E-01-1.74691E-01 6.51838E-01 6.18662E-02 1.11220E-01
 -1       204 4.42324E-01 2.48141E-02 3.56802E-01 1.57251E-01 1.13379E-01 4.51948E-01
 -1       205 3.95459E-01 3.19561E-01 5.06686E-01 9.87599E-02 2.87627E-01 2.09325E-01
 -1       206 3.64835E-01 3.70615E-01 1.21647E-01 4.61732E-02 2.03037E-01 1.62836E-02
 -1       207-6.66094E-02-3.74674E-02-1.87680E-01-2.25721E-01 9.04264E-02 1.26246E-01
 -1       208 5.58010E-01 2.58069E-01 3.90659E-01 3.14709E-01 3.29736E-01 4.26945E-01
 -1       209-7.59581E-02 7.88381E-02 2.32506E-01-1.69928E-01 7.03933E-03-1.77960E-01
 -1       210-2.55626E-02 6.13764E-01-1.75050E-01 1.99076E-01 1.02519E-01-9.83583E-02
 -1       211-1.73698E-01-3.17453E-01-1.20021E-01-1.80534E-01-2.12064E-01-2.65393E-02
 -1       212 1.98501E-01 6.60139E-02 1.37759E-01 2.20466E-01-1.04889E-01-2.25633E-01
 -1       213 2.19441E-01 1.06646E-01 4.07551E-01 1.75554E-01-2.21858E-01-3.03936E-01
 -1       214 2.64380E-01 1.50651E-01 1.41139E-01 7.33561E-02 3.03647E-01-6.85157E-01
 -1       215 2.75164E-01 4.28094E-01-1.41020E-01 5.02565E-01-6.49054E-02-1.46345E-02
 -1       216 1.21899E-01 3.63721E-01-1.13851E-02 3.59258E-01 1.24835E-01-6.46877E-05
 -1       217 1.63194E-01 1.44816E-01 1.97824E-01 2.45993E-01 1.75016E-01 2.38248E-01
 -1       218 3.21162E-01 2.41055E-01-1.35451E-01 5.51612E-01 1.29328E-02 3.89705E-02
 -1       219 2.54480E-01 2.86821E-01 4.27541E-01 1.38123E-01 1.25800E-01 4.24817E-02
 -1       220-8.71451E-02-8.04686E-02-1.72064E-01-1.45652E-01-8.96489E-02-1.15699E-01
 -1       221 5.53630E-02 9.78423E-02-9.30875E-02 2.40278E-01-2.50167E-03 2.17034E-01
 -1       222-1.13868E-01-3.14795E-02 2.40498E-01-1.96438E-01-1.41691E-01-1.00127E-01
 -1       223 4.40126E-01 1.39445E-01-7.58761E-02 3.47603E-01 2.54189E-01 1.54146E-01
 -1       224 1.17929E-01 2.58632E-01-2.97030E-02 4.10673E-01-2.09553E-01 3.90882E-03
 -1       225-1.25667E-02 1.96193E-01 6.76964E-02 1.17351E-01-2.20178E-01-9.84960E-03
 -1       226-1.76686E-02 5.70610E-03 4.76957E-01 3.68431E-02-1.35984E-02-2.90916E-01
 -1       227-1.29012E-03 2.06685E-01 6.08836E-02 7.25534E-02 1.56757E-01 1.56293E-02
 -1       228-4.85806E-02-5.09411E-02 1.85326E-01-2.31608E-01 5.87733E-02-1.59556E-01
 -1       229 3.85503E-01 1.21258E-01-1.95431E-01 3.62560E-01-2.88850E-01-7.80563E-02
 -1       230-4.02634E-02-4.55558E-02 3.18330E-01-1.41294E-01-3.20481E-02 3.55443E-03
 -1       231-2.21111E-01-1.95298E-01-3.12229E-01-1.66794E-01-1.13425E-01-5.58589E-02
 -1       232-1.71968E-01-6.86896E-02-8.24778E-02 2.47001E-01 7.72388E-02-2.21771E-01
 -1       233-7.84262E-02-2.88733E-02-4.17886E-02 1.57469E-01-3.66649E-02 1.38948E-01
 -1       234-1.22764E-02-8.00840E-03 7.83223E-02 4.23560E-01 1.42103E-01 1.03183E-01
 -1       235-2.03451E-01-1.13349E-01-4.08653E-01 1.91919E-01 2.32535E-01-3.02563E-01
 -1       236-2.92298E-02-8.71678E-02 8.26900E-02 4.11936E-01 7.06609E-02 1.23858E-03
 -1       237-3.23933E-02 1.96783E-01 9.14128E-02 2.70786E-02 5.56807E-02 1.22006E-02
 -1       238-2.45461E-02-1.10066E-02 1.34962E-01 1.41883E-01 7.43003E-02 1.13928E-01
 -1       239 1.27902E-02-2.21585E-02-1.55558E-01-1.91624E-01-5.38286E-02-1.54273E-01
 -1       240-1.29898E-01-1.28509E-01 2.00602E-04 4.77629E-01-1.60335E-01 1.32142E-02
 -1       241-3.75723E-01 2.32145E-02-1.74335E-01 1.55029E-01-2.60526E-01-6.08971E-01
 -1       242-2.58283E-01-1.48675E-01-4.10590E-03 2.60950E-01-2.22911E-01 1.34474E-01
 -1       243 1.04040E-02-1.10215E-01 9.54008E-02-2.08220E-01-5.01800E-02-1.24664E-01
 -1       244-1.51406E-01-1.86158E-02 2.11229E-01-1.36860E-01 3.81292E-02-8.24750E-02
 -1       245 4.21931E-02-4.67564E-02-2.51372E-02 3.22065E-01-1.56472E-01-1.23128E-02
 -1       246 2.60186E-02-1.50393E-02-1.64051E-01 1.48295E-01-2.15676E-01 3.88370E-02
 -1       247 1.20244E-01 2.74770E-02 6.72073E-03 1.66281E-01 2.19310E-01 8.42103E-02
 -1       248-1.86573E-01-9.86462E-02 1.03411E-01 2.40565E-01 2.34585E-01-5.77185E-02
 -1       249-5.25268E-01-4.15304E-01-3.07920E-01 2.34845E-02-1.75144E-01-7.35282E-01
 -1       250-2.69345E-01-1.38525E-02-2.25496E-01 1.60930E-01 1.40000E-01-3.45156E-01
 -1       251-7.09914E-01-4.81754E-01 1.94838E-01 5.39842E-01 2.25487E-01-1.39092E-01
 -1       252-2.19440E-01-2.71814E-01-3.27206E-01 2.43896E-01-2.98188E-01 2.67786E-01
 -1       253-6.37084E-01-7.19339E-01 5.02457E-02 5.24283E-01 1.77085E-02-2.22490E-02
 -1       254-7.80617E-01-5.55189E-01 6.20832E-02 5.40708E-01 8.91260E-02-4.30847E-02
 -1       255-6.66119E-01-4.38785E-01 3.22715E-02 4.69286E-01-8.53909E-02 1.39511E-01
 -1       256-4.13716E-01-3.06670E-01-8.46931E-01 1.07371E-01-5.67514E-02-7.30656E-01
 -1       257-1.99966E-01-3.15675E-01-4.70614E-01 2.35856E-01-3.75946E-01 3.04201E-01
 -1       258-2.15222E-01 1.28401E-02 8.57468E-02 1.15778E-01-1.13706E-03-1.13832E-01
 -1       259 3.70900E-01 9.66267E-02 5.51584E-02-2.08087E-01-2.21179E-02 1.10831E-02
 -1       260 1.90676E-02-3.62578E-01 5.31420E-02 1.12731E-01 1.56169E-01 3.21670E-02
 -1       261 2.82183E-01 1.11032E-01-3.33138E-01-3.31130E-01 1.01742E-01-9.05830E-02
 -1       262 5.43462E-02 3.12544E-02-1.54393E-01-1.34121E-01 2.73737E-03-7.73665E-02
 -1       263-6.33130E-01-5.00868E-02 2.56083E-01 4.00169E-01 3.11652E-01-1.17461E-01
 -1       264-2.57528E-02 1.23174E-01-2.75763E-02-3.23571E-01-8.42099E-02-2.84200E-01
 -1       265-5.40330E-01-1.24445E-01 1.16816E-01 3.46219E-01-1.74700E-01 9.47373E-02
 -1       266 2.55900E-02-4.91654E-01 6.41110E-02 7.81838E-02-1.00372E-01-4.07556E-02
 -1       267-3.90506E-01 5.16644E-02-1.59936E-01 1.68227E-04-1.24247E-01-3.05425E-01
 -1       268-1.18877E+00-4.66410E-01 2.18143E-01 6.15747E-01 9.01718E-02-8.03919E-02
 -1       269-7.83603E-01-5.11342E-01 8.46293E-02 5.85227E-01 1.04527E-01-1.03653E-01
 -1       270-1.43792E+00-8.86304E-01 1.65012E-01 7.63170E-01-4.11726E-02 5.84080E-02
 -1       271-1.28976E+00-5.20937E-01 1.04665E-01 6.02385E-01 5.49168E-02-1.46539E-01
 -1       272-3.39202E-01-2.39594E-01-4.98172E-01 1.02499E-01-3.38631E-01 4.30390E-01
 -1       273-1.13478E+00-7.59367E-01-9.14280E-01 6.75449E-02-1.30501E-01-5.84760E-01
 -1       274-5.00034E-01-3.23610E-02-3.42243E-01 1.33655E-01 1.35051E-01-3.40124E-01
 -1       275-4.55496E-01-3.42190E-01-2.40604E-01 2.87121E-01-3.18416E-01 3.81292E-01
 -1       276 3.47825E-01 4.04632E-02-9.76599E-02-2.05435E-01-9.16296E-02-7.60760E-02
 -1       277 3.46933E-01 5.86231E-02 2.81708E-02-2.47314E-01-6.15539E-02 3.15937E-02
 -1       278-1.00437E+00 9.18175E-02 2.52300E-01 2.07340E-01 2.22133E-01-1.46332E-01
 -1       279 1.23918E-01 5.61656E-02 2.15265E-01-1.41018E-01 1.52417E-02-1.97268E-01
 -1       280-1.57315E-01-5.77311E-01 3.60509E-02 3.32598E-01 1.29773E-01-2.74663E-02
 -1       281-1.10193E+00 4.43848E-02 1.77237E-01 2.39408E-01-1.68620E-01 1.43540E-01
 -1       282-7.26407E-02-8.56410E-01 1.77648E-01 3.77884E-01-3.32201E-02-1.15101E-01
 -1       283-3.12231E-02-2.52115E-01-4.50404E-01-4.09145E-01-1.29773E-01-2.56894E-02
 -1       284-3.02701E-01-1.62071E-01-3.60960E-01 1.15529E-02 1.05338E-01-3.86643E-01
 -1       285-1.77692E+00-3.48504E-01 2.63289E-01 2.91940E-01 6.08094E-02 1.94794E-02
 -1       286-1.72026E+00-4.32631E-01 7.08486E-02 4.52605E-01 2.01871E-02-1.47519E-01
 -1       287-8.06848E-01-9.01072E-02-6.35417E-01 2.55724E-01-2.29557E-01 7.15542E-01
 -1       288-7.37703E-01-8.12018E-02-6.31258E-01 2.47484E-01-2.29558E-01 6.82511E-01
 -1       289-2.38547E+00-6.61429E-01 2.22441E-01 6.17982E-01-3.75696E-03 6.38603E-02
 -1       290-2.07377E+00-3.20167E-01 1.50957E-01 3.25690E-01 7.07745E-04-1.47597E-01
 -1       291-1.19238E+00-7.84700E-01-8.06948E-01 1.29657E-01-1.44477E-01 6.86281E-01
 -1       292 7.87959E-01 4.74899E-02-1.45936E-01-3.99769E-02-1.65815E-02-1.19613E-01
 -1       293 4.87123E-01-1.31339E-02 4.92825E-02-1.48106E-01-1.45551E-02 6.51135E-02
 -1       294-4.59277E-01-1.31805E-01-1.70841E-01 1.10740E-01 1.12867E-01-3.34744E-01
 -1       295 4.47393E-01-1.49565E-01-8.30474E-02-1.04498E-01-5.55677E-02-8.09959E-02
 -1       296-1.34065E+00 5.66011E-02 1.62412E-01-1.65956E-01-1.01621E-01 1.06612E-01
 -1       297-5.14548E-01-7.14609E-01 3.21423E-01 7.55033E-01-7.99075E-02-2.21442E-01
 -1       298-5.43819E-01-4.97001E-01 6.58344E-02 5.51747E-01 8.43448E-02-1.94290E-02
 -1       299-1.33038E+00 1.08169E-01 3.02616E-01-2.48947E-01 1.87060E-01-2.31193E-01
 -1       300 4.12661E-01-1.36964E-01-1.25390E-01-1.96628E-01 4.30529E-02-1.83424E-01
 -1       301 8.90951E-01-1.43950E-01-1.59556E+00 4.97971E-02 2.53710E-01 6.91711E-03
 -1       302-4.64217E-01-5.82550E-02-2.02272E-01-7.72988E-01-7.54812E-02 1.84713E+00
 -1       303-1.35811E+00-6.24390E-01-6.89427E-01 4.63280E-01-2.24716E-01 1.33186E+00
 -1       304 7.69417E-02 2.13238E-01 7.26796E-02 9.95079E-02 1.12061E-01 3.93906E-02
 -1       305 3.00756E-03 1.22474E-02 1.41141E-02 2.40039E-02 4.70544E-03 3.81732E-02
 -1       306-6.22584E-01-7.47679E-01-4.35628E-01-3.48870E-01 7.44279E-01 1.09564E+00
 -1       307 5.72549E-01 1.38310E+00 1.67681E-01 3.99331E-01 2.66731E-01-7.71824E-02
 -1       308 1.13061E+00 5.63191E-01 7.35792E-02 2.12621E-01 2.11539E-01 1.61534E+00
 -1       309-4.98116E-01 4.77354E-02 1.40572E+00-3.04202E-01-8.02310E-02 4.73243E-02
 -1       310 7.94199E-03 9.02554E-02 1.43105E-02 2.64108E-01-3.83193E-01 6.45603E-02
 -1       311 2.82679E-01-3.76757E-02-7.99290E-01-2.05526E-01-8.04681E-02 3.90027E-01
 -1       312-6.16704E-01-5.30035E-02 1.67313E-01-5.30502E-02 2.55021E-01 1.71373E+00
 -1       313 1.27722E+00 1.43406E+00 3.58749E-01-9.83506E-01-4.85530E-01-5.99645E-02
 -1       314-9.23702E-01-3.18643E-01-1.83356E-01-2.14329E-01 8.85872E-01 1.41206E+00
 -1       315-5.85985E-02 1.43595E-01 4.34924E-01 1.31606E-01-2.35769E-01-8.27880E-02
 -1       316 3.11423E-02 1.49609E-02 3.11522E-01 8.42777E-02-4.08648E-01 6.82182E-02
 -1       317 3.02907E-01 1.60768E+00 5.74851E-01-9.00085E-02 9.00935E-01 3.09890E-01
 -1       318 9.34504E-02 3.79020E-01-2.47465E-01-1.18020E-01 8.19324E-02-1.11738E-02
 -1       319 1.48960E-01 1.92706E-02-2.47446E-01-1.49775E-01-1.32465E-01-7.53182E-02
 -1       320 1.06841E+00 5.23664E-01-1.32978E-01 3.61580E-01 6.64288E-01 8.09527E-01
 -1       321 1.23377E+00-2.55069E-01 2.04305E-01-5.16282E-02-1.02314E+00 1.56396E+00
 -1       322 4.22319E-01 4.01870E-01 2.27222E-01-3.27957E-01-6.89321E-01 1.49390E+00
 -1       323 8.89234E-01-2.01867E-01 1.22605E-01 3.95804E-01-2.57670E-01 8.40445E-01
 -1       324 0.00000E+00 0.00000E+00 0.00000E+00 0.00000E+00 0.00000E+00 0.00000E+00
 -1       325-5.24406E-01 1.21699E-04-1.32164E-01-3.49658E-01 6.59826E-01 4.90881E-01
 -1       326 0.00000E+00 0.00000E+00 0.00000E+00 0.00000E+00 0.00000E+00 0.00000E+00
 -1       327 1.96643E-01 4.94803E-01 2.18532E-01 1.37030E-01 3.32833E-02 4.88058E-02
 -1       328-3.81177E-01 8.69723E-01 2.07958E-01-3.24876E-01 6.80096E-01 4.84367E-01
 -1       329-3.65102E-01 2.29288E-01 4.39897E-02 7.61796E-02-7.87195E-01 8.61788E-01
 -1       330-6.26282E-01 1.03175E-01 1.06885E-01-8.20335E-02 1.96629E-02-1.20110E-01
 -1       331-4.29383E-01 1.04259E-01-3.21384E-02 2.19253E-01 1.26495E-01-1.85414E-01
 -1       332 3.09948E-01 4.50756E-01 4.27682E-01 8.85115E-02 7.46267E-02 3.38707E-01
 -1       333 4.13699E-01 3.43854E-01 6.18406E-01-5.24462E-02 1.32351E-01 3.79893E-01
 -1       334-4.03185E-01-8.27647E-03 3.78126E-01 2.08143E-01-2.69361E-02-9.12044E-03
 -1       335 5.23870E-01 3.26872E-01 5.58678E-01-1.39177E-01-3.58978E-01 1.05312E-01
 -1       336-5.00575E-02-1.16752E-02-9.85117E-02 3.26705E-01 1.60132E-01-8.17674E-02
 -1       337-1.50943E+00-1.61091E+00-9.36102E-01 6.24263E-01-1.41007E+00 1.41538E+00
 -1       338-1.18766E-01 1.09344E-01 2.71325E-01 3.00623E-03-2.00398E-01 1.83001E-01
 -1       339 2.73936E-01-1.27631E+00-2.00777E-01 4.73523E-01-9.96558E-01 1.43786E+00
 -1       340-1.43510E+00-4.11716E-01-5.42067E-01 9.18677E-02-3.61601E-01 1.45216E+00
 -1       341 3.18471E-01 2.21507E-01 4.04384E-01 9.74782E-02-1.42458E-01 1.81861E-01
 -1       342-1.45056E-01-8.11192E-02 3.00682E-01 2.22887E-01 6.70242E-02 7.43051E-02
 -1       343 2.33612E-01 4.20984E-02 4.56353E-01-2.13807E-01-1.16916E-01-1.09687E-01
 -1       344-2.65599E-01 1.86395E-02-6.98184E-02-2.64972E-01-9.78321E-02-2.33854E-01
 -1       345-4.20867E-01-8.76715E-02 1.59773E-01-2.36968E-01 3.91037E-02-1.04295E-01
 -1       346 1.30679E-01 4.93597E-01 5.82037E-01 3.55841E-01 2.06762E-01 1.31451E-03
 -1       347-9.15818E-01 1.99345E-01-2.05911E-01-4.58831E-01 9.84678E-01 7.40495E-01
 -1       348 6.90357E-01 4.00774E-01 7.75575E-01-4.70077E-02-2.78641E-01 3.88859E-01
 -1       349 7.73849E-01 3.81793E-01 5.43931E-01 1.57685E-03 6.11765E-02 4.43571E-01
 -1       350-2.59790E+00-9.13060E-01-1.23100E+00-1.23470E+00-1.71735E-02 1.67157E+00
 -1       351-3.70914E-01 4.99257E-01 2.88779E-01-2.72977E-01 1.12615E-01-5.03964E-02
 -1       352-9.64882E-02-8.89008E-02 1.29959E-01 2.85853E-01-9.20444E-02-1.06118E-01
 -1       353 1.28857E+00 1.25799E+00 1.36696E+00-1.68899E-01-6.48806E-03-2.77228E-01
 -1       354-3.82371E-01 7.76368E-01 3.37226E-01-1.11526E-02 6.96709E-02-3.60620E-02
 -1       355-7.37625E-01 7.76060E-02-2.38856E-02-5.40226E-02 2.97248E-02 2.51532E-02
 -1       356-5.07314E-01 7.96382E-02 2.82509E-01 3.87833E-02-7.07875E-02-1.47422E-01
 -1       357-2.12972E-01-2.54132E-01-3.41688E-01 1.67174E-01 1.25071E-01-2.17626E-03
 -1       358-3.85964E-01 4.28303E-01 4.69963E-01 2.10169E-01-1.21333E-01-7.14025E-02
 -1       359 1.12796E+00 7.42693E-01 7.28268E-01-1.62930E-01-2.00843E-01-5.81589E-01
 -1       360 7.26672E-01 6.51771E-01 1.09227E+00 5.26870E-02-2.64558E-01-3.51512E-01
 -1       361 7.62105E-01 2.91695E-01 2.97870E-01-1.07573E-01-2.14686E-01-6.73929E-01
 -1       362-3.31616E-02-1.27082E-01-2.63291E-01 2.60363E-01-1.46396E-01 1.29314E-02
 -1       363 3.12380E-01-3.44187E-02 1.82310E-02 1.88673E-01-1.95829E-01-1.24476E-01
 -1       364 9.78724E-02-9.92383E-02-1.19606E-01-2.85812E-02-1.26406E-01-3.05248E-01
 -1       365-5.14843E-01-4.45407E-01-5.78024E-01 4.17496E-01 2.18436E-01-6.64886E-01
 -1       366 1.14818E-01-1.39803E-01-3.46593E-01-2.80054E-01 1.41417E-01-2.08355E-02
 -1       367 1.59437E+00 9.08564E-01 9.74724E-01-3.94436E-01-8.18266E-03-9.35579E-01
 -1       368 4.13893E-04-8.14290E-02-1.61261E-01-2.18440E-01 8.42387E-02-1.15462E-01
 -1       369 3.00718E-01-1.64549E-01-8.44643E-02-1.55166E-01 1.57401E-01-2.30776E-01
 -1       370-1.67398E-01-3.31628E-02-1.18078E-01-4.40720E-01 2.01163E-01 1.13974E-02
 -1       371 1.84742E-01-6.05056E-02 2.86712E-01-1.19698E-01 1.69760E-01-3.85950E-01
 -1       372 1.23413E+00 1.60171E+00 5.99043E-01 9.44525E-02 2.05653E-01-3.34831E-01
 -1       373 1.66480E+00 1.08215E+00 8.49675E-01 2.63359E-01-1.58819E-01-3.27456E-01
 -1       374 6.20352E-01 7.99752E-01 6.11014E-01-1.85937E-02 1.44468E-01-2.78836E-01
 -1       375-3.61257E-01 3.53701E-01 2.20302E-01-3.87211E-01 8.25036E-02 5.05540E-02
 -1       376-5.05912E-01 1.21825E-01-5.45959E-02-2.22407E-01 2.15614E-02 1.89682E-01
 -1       377-5.29293E-01 2.27546E-01 3.97687E-02-6.98290E-02 2.20266E-02-5.49545E-02
 -1       378-2.22948E-02 5.93067E-02 6.37777E-02 2.54249E-01 9.72113E-02-1.94608E-01
 -1       379-2.53715E-01 2.01112E-02-4.30672E-02 4.62260E-02 1.39938E-01-4.72050E-01
 -1       380-2.00247E-01 1.36928E-01-2.77994E-01 2.87318E-02 5.91011E-02-2.57696E-01
 -1       381-5.46230E-01-2.02232E-01 1.55289E-01-3.56220E-02-8.71557E-02-4.58601E-01
 -1       382 3.98223E-02 2.20538E-02-4.28468E-01 2.38127E-01 1.89611E-01-1.23260E-01
 -1       383-3.43966E-01-6.73923E-02-2.33152E-01-2.24147E-01-4.33117E-02-2.59255E-01
 -1       384-4.08653E-01-4.14159E-01-5.40271E-01 8.19780E-02-3.63452E-01 1.66392E-01
 -1       385 8.17128E-02 1.38542E-01 1.27232E-01-2.29457E-01 1.22852E-01-7.97918E-02
 -1       386-3.54356E-01-2.62077E-01-2.47414E-01 1.39983E-01-2.91891E-01 1.63806E-01
 -1       387-9.61634E-02 8.16675E-03-3.60412E-01-9.02479E-02-2.09037E-02 1.08201E-01
 -1       388 2.78712E-01-2.37454E-01-5.33180E-01-3.85369E-01-1.43668E-01-1.14385E-01
 -1       389-8.52430E-01-8.07889E-01-6.50123E-01-1.72403E-01-3.18560E-01-1.95508E-01
 -1       390 1.55132E-02 1.04838E-02-1.81284E-01 1.70791E-01 7.11385E-02-9.57974E-02
 -1       391 3.45248E-02 4.60466E-02-3.45750E-01 3.14377E-01 2.38041E-02-2.33634E-01
 -1       392-1.81650E-01-1.83883E-01-1.39987E-01 1.89043E-01 4.66797E-01-5.02998E-01
 -1       393 2.70430E-01 6.63430E-03-1.58846E-01 2.75703E-01-8.38868E-02-8.98052E-02
 -1       394 8.70389E-01-2.64489E-02-1.27551E-02 3.69157E-02-6.73103E-02 5.14820E-02
 -1       395-9.82348E-01-9.87570E-01-7.95785E-01 4.24157E-02-8.19774E-02-2.11477E-01
 -1       396-8.23616E-01-1.24332E+00-8.56128E-01-2.49299E-02-7.92692E-02-1.36603E-01
 -1       397-1.41033E-02-4.62077E-01-1.09140E-01-4.72392E-01 6.76848E-02-3.22883E-02
 -1       398 2.58951E-01-6.84421E-01-3.73825E-01-1.95793E-01-4.62686E-02 4.79071E-02
 -1       399-1.54088E-01-2.13380E-01-5.86797E-01 2.63495E-02 8.08228E-02 5.51052E-01
 -1       400-7.22564E-02 1.38159E-01 4.18273E-01 2.67914E-01-1.86234E-01-3.46500E-03
 -1       401-4.99911E-01-3.61930E-01-4.67459E-01-1.34917E-01 2.34200E-01 1.94040E-01
 -1       402-7.67812E-02-1.50639E-01-2.03442E-01-5.34238E-02 2.05606E-01-1.47097E-01
 -1       403 4.38638E-03 4.52752E-01-5.49310E-01 1.40989E-01-1.17405E-01 5.57156E-02
 -1       404-1.06725E-01-1.35990E-01 5.82785E-02 3.41805E-03 4.20012E-02-8.00600E-02
 -1       405-3.72036E-02 1.66388E-01 1.69742E-01 1.31297E-01-2.31102E-01-7.64750E-02
 -1       406-1.90326E-01-4.51954E-02-2.90116E-01-1.03052E-02 5.02760E-02-5.16169E-02
 -1       407 3.75367E-01 3.39488E-01 9.52888E-02-8.05265E-02-8.91235E-03 1.24139E-01
 -1       408-5.17642E-02 9.56705E-03 3.00953E-01 1.11264E-02-1.55691E-01-6.72294E-02
 -1       409 5.06593E-01 6.48552E-01 6.85478E-01 3.54691E-01-6.37846E-02-7.18500E-01
 -1       410 3.72538E-01 3.81190E-01 2.62155E-01-1.93781E-01-2.36482E-02-8.09283E-01
 -1       411 1.60772E-01 1.97758E-01 3.17192E-01 9.21877E-02-1.13267E-01 4.17857E-02
 -1       412-1.58292E-01-2.25411E-01-1.62986E-01 4.40503E-01-3.20184E-01 6.93274E-02
 -1       413 5.05672E-01 5.96069E-02 2.61125E-01-2.97189E-03-1.47656E-01-2.26759E-01
 -1       414 2.59042E-02 1.87796E-01 2.79216E-01-6.45270E-02-2.22257E-01-2.14648E-02
 -1       415-2.62358E-01-6.98464E-01-2.88246E-01 1.38179E-01-5.32511E-01-4.43913E-02
 -1       416-5.41150E-01-3.73424E-01-4.20525E-01 1.15446E-02-1.19969E-01 3.47527E-01
 -1       417 8.26448E-02 2.36392E-01-8.82224E-02 1.65111E-01 5.14653E-01 8.97617E-01
 -1       418 9.51128E-01 2.24933E+00 5.25518E-01 5.97317E-01 5.01177E-01-7.65148E-02
 -1       419-1.68434E-01-2.71251E-01-6.52907E-01 4.14436E-02-3.34608E-01 1.29527E+00
 -1       420-4.28924E-01-5.35642E-01-5.67304E-01-1.75594E-01 4.80744E-01 2.67328E-01
 -1       421-3.41143E-01-3.11843E-01-3.87459E-01 1.67523E-01 2.14168E-01 3.98640E-01
 -1       422 3.88646E-01 1.97925E-02 9.63839E-02 3.67325E-01-1.32724E-01-5.05041E-02
 -1       423-6.36087E-01-4.30739E-01-6.08323E-01-6.49316E-02 2.14712E-01 4.10771E-01
 -1       424-6.52695E-02-1.94464E-01-4.96294E-01-6.32352E-02-5.47055E-01 8.86845E-01
 -1       425-1.07137E+00-6.95701E-01-3.31942E-01 3.05169E-01-2.99168E-01 2.46019E-01
 -1       426 7.45648E-01 5.05354E-01-8.28988E-01-3.75443E-01 1.44991E-02 5.87042E-01
 -1       427 5.89919E-01-1.92477E-02 1.77713E-02-2.43205E-01 8.78184E-02-2.91142E-01
 -1       428 7.17811E-01 6.81141E-02 6.77133E-02-2.25429E-01 3.57843E-02-1.79656E-01
 -1       429 1.34075E-01-3.72386E-02-1.61565E-01-3.06419E-01-5.28407E-03-5.21402E-02
 -1       430-6.03075E-01-4.26536E-01-7.09331E-01 1.61573E-01-2.69726E-01 2.96777E-01
 -1       431 3.29432E-01 8.19516E-01 3.44684E-01-1.69961E-01-6.82345E-01-2.89061E-02
 -1       432 2.74837E-01 1.01804E+00 1.89048E-01 4.35133E-02-6.83388E-01 1.05054E-01
 -1       433 1.26809E-01 3.35745E-01 1.81446E-02-9.39985E-02 1.16704E-01 1.01205E-01
 -1       434-2.11245E-01-7.07881E-02 2.71068E-02 1.06770E-01-1.91803E-01-3.94740E-02
 -1       435-6.57280E-02 9.63964E-02 2.29105E-01-1.55073E-01 7.51404E-02-2.37178E-01
 -1       436-1.78860E-01 6.25009E-03-2.54452E-01-3.03626E-02 2.04189E-02 1.22477E-01
 -1       437-1.52438E-01-1.88889E-01-2.03968E-01 1.25175E-01-4.57629E-02-8.65143E-02
 -1       438-2.94916E-02-8.97950E-02 5.56083E-03 3.88743E-02 1.24580E-02 5.48493E-02
 -1       439-3.35613E-02-3.73123E-02-5.02884E-02-4.53208E-02-2.75408E-01 1.51966E-02
 -1       440 1.59954E-01-1.19396E-02-4.45932E-03-7.77344E-03-7.27824E-02 3.24373E-02
 -1       441 1.25593E-02-2.79046E-01-2.22100E-01-7.12895E-02 7.12076E-02-2.93498E-01
 -1       442 4.80847E-02-1.32073E-02-5.85110E-02-1.07778E-02 4.23298E-02-7.62933E-02
 -1       443-2.04601E-01-1.75915E-01-1.16683E-01-2.24244E-01-4.70017E-02-1.80001E-01
 -1       444-1.69564E-02 8.83540E-01 4.57489E-01-2.27216E-01 6.04672E-01 1.54836E-01
 -1       445 3.38502E-02 1.74444E-02 1.79542E-01-5.16152E-02 1.72105E-01 1.24738E-01
 -1       446 5.17563E-01-1.91296E-01-5.54031E-02 2.27125E-01 2.47282E-02-7.30844E-02
 -1       447-1.05076E+00-9.92608E-01-9.52631E-01-8.52626E-02 5.33441E-03-4.48042E-01
 -1       448 5.97714E-01 5.55853E-02 2.30092E-01 2.61805E-01 5.85556E-02 4.80096E-02
 -1       449-1.24065E+00-9.82771E-01-9.18557E-01 1.01132E-01 5.17157E-02-1.85214E-01
 -1       450 6.18394E-02-2.02804E-02-2.22098E-01 3.00828E-01-3.73550E-02-1.00514E-01
 -1       451 1.13076E-01-3.40119E-01-4.97355E-01 3.78158E-01 1.35693E-01-1.40876E-02
 -1       452 3.50468E-01 1.47244E-02 1.33917E-01 2.16004E-01 4.53878E-02 9.98995E-02
 -1       453-2.53970E+00-1.49579E+00-1.44638E+00-1.67897E-01 1.41165E-01-8.94570E-01
 -1       454-9.87802E-01-8.71741E-01-1.08074E+00-1.10582E-01-2.09641E-01-2.94223E-01
 -1       455-6.28857E-02-2.17343E-01-2.09811E-01 4.48795E-01 1.86263E-01 1.18962E-02
 -1       456 2.36476E-01 4.91161E-02-3.18824E-03-2.83444E-01-2.54961E-02-3.47907E-02
 -1       457 0.00000E+00 0.00000E+00 0.00000E+00 0.00000E+00 0.00000E+00 0.00000E+00
 -1       458 5.25388E-03 3.87342E-02 1.31964E-02-4.06043E-02 1.19501E-03-3.69115E-02
 -1       459 0.00000E+00 0.00000E+00 0.00000E+00 0.00000E+00 0.00000E+00 0.00000E+00
 -1       460 0.00000E+00 0.00000E+00 0.00000E+00 0.00000E+00 0.00000E+00 0.00000E+00
 -1       461-1.22233E+00-1.22723E+00 2.25764E-01-7.11630E-01-2.58980E-01-2.50058E-01
 -1       462-8.34854E-01 1.15647E+00 1.81202E-01-4.66434E-01 8.27967E-01 5.97483E-01
 -1       463 2.29289E+00 1.03563E+00 9.98557E-01 2.21706E-01 3.81415E-01 1.92908E+00
 -1       464-1.16061E+00-1.10183E+00-2.50704E+00-6.47269E-02 3.54090E-01 1.64019E-01
 -1       465 2.01260E-02 5.48481E-02-3.42265E-02-4.90417E-02-3.68243E-02 2.39050E-02
 -1       466 1.98432E+00 2.28894E+00 7.50544E-01-1.51843E+00-7.97394E-01-1.51790E-02
 -1       467-2.71358E+00-1.18989E+00-1.17104E+00 3.78779E-01-6.93866E-01 2.70998E+00
 -1       468-1.82558E+00-1.39571E+00-9.66387E-01 6.28061E-01-1.00344E+00 1.40563E+00
 -1       469 1.60433E-01 4.73463E-01 1.90169E-01-4.50660E-02 3.80669E-01 7.68386E-02
 -1       470-3.11762E-01-2.84716E-01-5.94666E-01-1.43982E-02 5.12091E-01 1.36341E+00
 -1       471-2.56968E+00-1.36871E+00-1.18152E+00-5.14039E-01 9.45622E-01 2.26236E+00
 -1       472-1.04616E-01-3.09998E-01-4.47254E-02-8.27733E-02-3.28245E-01 9.51996E-03
 -1       473-8.42962E-01-6.03566E-01-6.92035E-01-3.53983E-02 1.39404E-02-9.22442E-01
 -1       474-5.84583E-01-5.27773E-01-7.73951E-01-5.18094E-02-8.49600E-02-8.92434E-01
 -1       475-8.57183E-01-2.99794E-01-1.68490E-02-7.94260E-03 1.25789E-02-5.01301E-01
 -1       476-8.49228E-01 1.95045E-02-3.49277E-02-6.00162E-02-1.81662E-02-4.43522E-01
 -1       477-1.26821E+00-1.70269E-01 2.89690E-01 1.54586E-02 3.51268E-02-9.47268E-02
 -1       478-1.19234E+00-1.73000E-01 2.78038E-01-4.46437E-02-5.93288E-02-1.06544E-01
 -1       479-1.51435E+00-2.70040E-01 1.31569E-01-1.07399E-02-2.41895E-02 6.37315E-01
 -1       480-1.48273E+00-1.38199E-03 1.33615E-01 3.55218E-02-4.90720E-02 6.46151E-01
 -1       481-9.73573E-01-3.71813E-01-6.60607E-01-4.32052E-02 7.61000E-02 1.24693E+00
 -1       482-1.19511E+00-6.52417E-01-1.29222E+00-5.54916E-02 9.91064E-02 1.26124E+00
 -1       483-2.60274E-02-2.80008E-01 1.38503E-02-4.91800E-02-6.48023E-02-1.10330E-01
 -1       484-8.80970E-01-2.18164E-01 5.91993E-02 2.77025E-02-1.36413E-02-1.18973E-01
 -1       485-1.21855E+00-2.05367E-01 1.72162E-01-6.79497E-02-4.62301E-02-7.21817E-02
 -1       486-1.53963E-01-8.34761E-02 1.45706E-01 9.93027E-02 4.31869E-02 2.10549E-01
 -1       487 6.19815E-01 1.15953E-01 2.12592E-01-1.47131E-02-4.14916E-02 5.88305E-02
 -1       488-1.14211E+00-2.61619E-01 1.18940E-01 8.29379E-02 6.90547E-02-8.03055E-02
 -1       489-1.14090E+00-2.19926E-01 9.90795E-02-3.19080E-02 8.41818E-02-1.27756E-01
 -1       490 2.87925E-01-2.02669E-01 3.17338E-02 5.77258E-02 1.57621E-02-1.49434E-01
 -1       491-5.47623E-01-4.10024E-01-5.98195E-02 1.91646E-01-2.24398E-01 2.23565E-02
 -1       492-5.69645E-01-3.34542E-01-3.91784E-02-2.11533E-01 1.74896E-01 4.33884E-02
 -1       493-5.98654E-01-2.65984E-01 2.08835E-01-3.39297E-01-1.12770E-01-2.66594E-01
 -1       494-2.71101E-01-1.41364E-01 8.93039E-02 1.01582E-01 1.79783E-01-2.17765E-01
 -1       495 3.21591E-01-1.80367E-01-6.10784E-02-4.31639E-02-6.59132E-02-5.06995E-02
 -1       496 2.83316E-01-3.46521E-02-3.19497E-02-3.77568E-02 2.80784E-02-1.78770E-01
 -1       497-1.30926E+00-1.01095E+00-1.32116E+00-8.37321E-02-1.50724E-01-1.13832E+00
 -1       498-5.82002E-01-3.34463E-01-2.43934E-01-8.02199E-02-1.72264E-01-6.06352E-01
 -1       499-1.11974E+00-2.44097E-01 9.27649E-02-2.81735E-01 1.47772E-01 6.29927E-01
 -1       500-1.39057E+00-2.55728E-01 9.49518E-02-3.75784E-01 1.57210E-01 4.59437E-01
 -1       501-1.09606E+00-2.54493E-01 2.53800E-01-3.01226E-01-4.21728E-02-2.83099E-02
 -1       502-1.03408E+00-1.93155E-01 2.14515E-01-2.15782E-01 1.43947E-02-1.46342E-01
 -1       503-7.70056E-01-2.84909E-01 2.93798E-02-1.32511E-01-1.54010E-01-3.80624E-01
 -1       504-8.47340E-01-2.69363E-01-6.11393E-02-1.24166E-01-9.38933E-02-5.21674E-01
 -1       505-1.14450E+00-4.46399E-01-8.38978E-01-2.22210E-01 3.35624E-01 1.08976E+00
 -1       506-1.13475E+00-3.27469E-01-1.27900E+00-2.47640E-01 3.17947E-01 1.17053E+00
 -1       507 2.77417E-01-2.10288E-01 3.61417E-02 3.95998E-02-2.41429E-02-8.72360E-02
 -1       508-8.20626E-01-2.63251E-01 5.60478E-02-1.24391E-01-1.04381E-01 1.72622E-03
 -1       509-1.00466E+00-3.35819E-01 1.36156E-01-3.21496E-01-7.34985E-02 7.13792E-02
 -1       510 4.24298E-01 1.16231E-01 2.74475E-01 1.49021E-01 1.22835E-01 9.27965E-02
 -1       511 1.29343E-02-1.07039E-01 2.90814E-02-5.25147E-02 2.66872E-02 1.52810E-01
 -1       512-9.93640E-01-2.38676E-01 1.37174E-01-2.07149E-01-2.00056E-03-9.53971E-02
 -1       513-8.49923E-01-2.64627E-01 8.68067E-02-1.91101E-01-2.11199E-02-1.49832E-01
 -1       514 8.30191E-02-1.50873E-01-6.15732E-02 1.48209E-02 9.34005E-02-1.82674E-01
 -1       515-4.75380E-01-7.45248E-02 1.17061E-02 5.51452E-04-1.28431E-01 6.40903E-02
 -1       516-4.08565E-01-4.77039E-01-1.24509E-01-1.62923E-01 1.66085E-01-1.66712E-01
 -1       517-3.38515E-01-5.17829E-01 5.94695E-02-3.00098E-01-2.28304E-01-9.29431E-02
 -1       518-8.03921E-01-5.68827E-02 2.35567E-01 9.43077E-02-1.27939E-02-3.00228E-01
 -1       519 6.44784E-02-2.57449E-01 6.14967E-02 7.31693E-02-7.29978E-02-1.48269E-02
 -1       520 4.28164E-02-1.20343E-01 5.89550E-02 1.63466E-01-5.45444E-04-1.03110E-01
 -1       521-6.53177E-01-5.52304E-01-6.05925E-01-3.43211E-02-2.45132E-01-6.13750E-01
 -1       522-2.79442E-01-1.25074E-01 7.22743E-03-5.25896E-02-7.24996E-02-3.58819E-01
 -1       523-7.49354E-01-3.77396E-01 1.08897E-01-4.01710E-01 2.71345E-01 4.96053E-01
 -1       524-9.45348E-01-4.57416E-01 1.00267E-01-5.24011E-01 2.19358E-01 1.93329E-01
 -1       525-6.39107E-01-4.03975E-01 1.89555E-01-3.89163E-01-1.54096E-02 1.36081E-02
 -1       526-5.63015E-01-2.76926E-01 2.14858E-01-3.63615E-01-9.77665E-02-1.26825E-01
 -1       527-4.85365E-01-2.14922E-01 1.90755E-02-2.18422E-01-1.66394E-01-3.06181E-01
 -1       528-6.20657E-01-2.98817E-01-5.33107E-02-3.96659E-01-3.42859E-01-3.42151E-01
 -1       529-5.70962E-01-3.89007E-01-3.01134E-01-2.56010E-01 4.69518E-01 6.96155E-01
 -1       530-8.10345E-01-6.90103E-01-1.05027E+00-2.05209E-01 5.23623E-01 8.88321E-01
 -1       531-1.18092E-01-3.28776E-01-1.55674E-02 2.73685E-01 1.80853E-01-5.21719E-02
 -1       532-6.24479E-01-2.84610E-01 4.48025E-02-2.62365E-01-7.93245E-02-7.20893E-03
 -1       533-5.99608E-01-4.38612E-01 6.26947E-02-3.59833E-01 1.89709E-02 1.78910E-02
 -1       534-1.37028E-01-1.63208E-01 8.28428E-02-3.43649E-02 1.28631E-01 1.92701E-02
 -1       535 1.13283E-01-5.55495E-02 8.09537E-02 2.93392E-02 1.48946E-01 1.07640E-01
 -1       536-5.85405E-01-2.87621E-01 1.17421E-01-3.17057E-01-4.30836E-02-1.87332E-01
 -1       537-4.34901E-01-2.79558E-01-7.15350E-03-2.51061E-01-9.26213E-02-1.18876E-01
 -1       538 1.84205E-01-7.92111E-02 9.37888E-02 5.00250E-02-8.64247E-03-1.79074E-01
 -1       539-1.87185E-01-8.59627E-02 1.31095E-01 3.31066E-02 1.06354E-02 2.93728E-01
 -1       540-2.18898E-01-4.65884E-01-1.00160E-01-2.43077E-01-6.62005E-02-1.80829E-01
 -1       541-2.26814E-01-5.08079E-01-8.41158E-02-1.07036E-01-1.30552E-01 1.01379E-01
 -1       542-5.96709E-01 4.01506E-02 3.27209E-01-7.56652E-02-2.54560E-01-2.27687E-01
 -1       543 1.25305E-01-8.81090E-02-9.54830E-03 1.12922E-01 3.17787E-03 3.91553E-02
 -1       544-1.97773E-01-2.97582E-02 1.82614E-02 1.26939E-01-9.43397E-02-1.92386E-01
 -1       545-5.84993E-01-3.84076E-01-9.23948E-01-1.40876E-01-5.20451E-01-8.28684E-01
 -1       546-2.73532E-01-7.35490E-02-1.07492E-01-1.07516E-01-1.81003E-01-4.51670E-01
 -1       547-3.09317E-01-3.20675E-01 1.51145E-01-2.97169E-01-1.19032E-01-6.17859E-02
 -1       548-4.89320E-01-4.05091E-01-2.46125E-02-3.01985E-01 2.86009E-01 3.46748E-01
 -1       549-3.92113E-01-3.66698E-01 1.14915E-01-3.75896E-01 1.67162E-01 5.44174E-02
 -1       550-3.33911E-01-1.93300E-01 2.54945E-02-2.01076E-01-1.29312E-01-8.14302E-02
 -1       551-4.98635E-01-2.41799E-01-6.98539E-02-2.46346E-01-2.44526E-01-3.21191E-01
 -1       552-1.18531E-01-2.53786E-01 1.55968E-01-2.25175E-01 8.83866E-02 9.77389E-02
 -1       553-2.64324E-01-4.65949E-01-7.01793E-01-2.50181E-01 4.55943E-01 4.45478E-01
 -1       554-3.74114E-01-3.74758E-01-4.48419E-01-2.38552E-01 3.95729E-01 4.55592E-01
 -1       555-2.66300E-01-2.30956E-01 4.30375E-02-2.19618E-01 6.00089E-02 1.42112E-01
 -1       556 3.70525E-01 2.32162E-03 3.60991E-01 2.38170E-01 3.87407E-02-4.48981E-02
 -1       557-2.06270E-01-2.94423E-01 7.17188E-03-1.55949E-01 1.94340E-02 5.11677E-02
 -1       558-1.02085E-01-7.21421E-02 2.83939E-02-3.72786E-02 3.52969E-02-2.19976E-02
 -1       559 1.58960E-01-1.11296E-01 1.33257E-01-3.33990E-02 1.73008E-02-8.92147E-02
 -1       560-4.11120E-01-4.15030E-01 1.36595E-01-3.74304E-01-1.10889E-01-9.33077E-02
 -1       561-2.94915E-01-2.85704E-01-5.09419E-02-2.19008E-01-1.18718E-01-6.94073E-02
 -1       562-1.40743E-01-1.71850E-01 1.32981E-01 2.00681E-02-3.31721E-02-2.38474E-01
 -1       563-2.17861E-01-1.13481E-02 2.99337E-01-1.38177E-01 2.68823E-01 1.17175E-01
 -1       564-3.17677E-01-2.90089E-01-5.15981E-01-9.57005E-02-2.34624E-01-3.03047E-01
 -1       565-1.11430E-01-4.64883E-01-1.90248E-01-6.75695E-02 1.54108E-01 1.52508E-01
 -1       566-2.03615E-01 4.49682E-02 4.31204E-01-2.21950E-01-3.69723E-01-1.03336E-01
 -1       567-8.75030E-02-4.58538E-02-6.45117E-02 1.22364E-01 1.07806E-01-4.88928E-02
 -1       568-2.77909E-02-3.33485E-02 1.71421E-02 4.88014E-02-1.19546E-01-8.29856E-02
 -1       569-1.66280E-01-4.23230E-01-9.96528E-01-1.14409E-01-3.81400E-01-3.78033E-01
 -1       570-3.40438E-02-1.27602E-01-1.99485E-01-1.25935E-01-1.55262E-01-3.64506E-01
 -1       571-1.71231E-03-4.11066E-02 5.05568E-02-2.05357E-01-1.71746E-01-2.31607E-02
 -1       572 4.20087E-02-5.91904E-02-1.70688E-02-2.29181E-01 9.95371E-02 5.70263E-02
 -1       573 8.85324E-02-5.37371E-02 4.74439E-02-2.34217E-01-9.00600E-02 1.52623E-01
 -1       574-9.93352E-02-1.27282E-02 7.09038E-02-2.16246E-01 7.79035E-02-5.54172E-02
 -1       575-2.02150E-01-7.52438E-02-6.10483E-02-2.41927E-01-2.01816E-01-2.82162E-01
 -1       576-3.55344E-02-3.32490E-02-1.56114E-03-2.04522E-01 1.76906E-01 6.44947E-02
 -1       577-8.19400E-02-1.13393E-01-2.00827E-01-1.53565E-01 9.97558E-02 2.26339E-01
 -1       578-3.44170E-03 2.82556E-02 2.10170E-01-1.16594E-01-1.43498E-01 4.04127E-01
 -1       579-7.16471E-02-1.14801E-03 1.09743E-01-2.38339E-01 1.29683E-01-8.15017E-03
 -1       580 8.80075E-02 5.58653E-02 1.02750E-01 1.96461E-01 6.48584E-02-2.86869E-01
 -1       581-4.77514E-02 1.77489E-02-1.70312E-02-1.28690E-01 1.27821E-01-1.09917E-02
 -1       582-2.60058E-02 3.62375E-03 1.92917E-02 4.13073E-02 7.27287E-02-1.21731E-01
 -1       583 4.31564E-02 1.46547E-02 9.99327E-02 2.76358E-02 2.11329E-02 8.66920E-03
 -1       584-4.23044E-02-4.57325E-02 1.31060E-01-1.59028E-01-1.20073E-01 1.35273E-02
 -1       585-7.44990E-02-1.04803E-02 4.45037E-04-1.19891E-01-1.45001E-01 1.20364E-03
 -1       586 1.72504E-02-1.09507E-01-1.24099E-01 1.19187E-01-1.28458E-01-3.60427E-01
 -1       587-2.16020E-02 1.04942E-01 3.47007E-01-1.27523E-01 4.15250E-01-4.30465E-02
 -1       588-9.61446E-02-1.88108E-01-4.11450E-01-1.50861E-01-3.83012E-01-1.65583E-01
 -1       589-1.87658E-01-1.12974E-01-4.94341E-01-8.16627E-02 3.24100E-01 2.03211E-01
 -1       590 1.22490E-01 6.99026E-02 4.01232E-01-1.25984E-01-3.52028E-01 9.30220E-02
 -1       591-7.74154E-02 1.83301E-02-2.13816E-01 4.90717E-02 1.50649E-01-5.68098E-02
 -1       592 1.23374E-03-4.92145E-02 5.57482E-02 3.78729E-03-1.33090E-01-2.00598E-02
 -1       593 1.83262E-01 1.26340E-01-2.69915E-02-4.48612E-02 3.15560E-02-2.91535E-01
 -1       594 3.11030E-01 3.57139E-01 5.16421E-01-4.61851E-02 1.87067E-01-4.92547E-01
 -1       595 1.46443E-01 3.08970E-01-1.58140E-02-2.85195E-01-1.99366E-01 5.63367E-02
 -1       596 1.08472E-01 2.09559E-01-8.92498E-02-2.51781E-01 1.96183E-01-6.80389E-02
 -1       597 1.06033E-01 1.35699E-01 3.64988E-03-2.36297E-01-1.40609E-03-1.99345E-01
 -1       598 8.41201E-02 2.93538E-01-2.48243E-03-3.19491E-01-3.48074E-02 1.52808E-01
 -1       599 9.10516E-02 2.04904E-01-5.39540E-02-2.53381E-01-1.50330E-01 1.06110E-01
 -1       600 1.32847E-01 2.32643E-01 9.40876E-02-3.56635E-01 3.52898E-01-8.10379E-02
 -1       601 6.71175E-02-1.89437E-02-2.67758E-01-7.39821E-02-2.16853E-02 3.23770E-01
 -1       602 2.14676E-01 2.21670E-01 2.56511E-01-1.18087E-01-2.34439E-01 3.18375E-01
 -1       603 1.32875E-01 1.61479E-01-2.11460E-02-2.22324E-01 1.76140E-01 2.45014E-02
 -1       604 1.15623E-01 1.58912E-01 2.39491E-02 5.91791E-02 3.76899E-02-1.28360E-01
 -1       605 1.36528E-01 2.33482E-01-1.62407E-01-2.13462E-01 1.49711E-01-5.51856E-02
 -1       606-2.31678E-02-2.62657E-03-1.73659E-01 1.29076E-02-1.05524E-01-1.90097E-02
 -1       607-1.01417E-01-8.95691E-02-8.60853E-02 7.39855E-02-1.49579E-01-2.48197E-01
 -1       608 1.21418E-01 2.05100E-01 4.10560E-02-1.54463E-01-9.20414E-02 2.63337E-02
 -1       609 1.94849E-01 1.63679E-01-6.97798E-02-1.91377E-01-9.79068E-02 5.87893E-02
 -1       610-5.07074E-02-1.00619E-02-3.64697E-01 1.88632E-01-1.14469E-01-2.03020E-01
 -1       611 2.39212E-01 2.21772E-01 4.23569E-01-1.25254E-01 3.55405E-01-2.82896E-01
 -1       612 2.11261E-01 1.77030E-02-2.09843E-01-1.53684E-01-3.27648E-01 2.02299E-01
 -1       613 7.84272E-02-6.96402E-02-3.83844E-01-2.01907E-01 3.99085E-01-9.88813E-02
 -1       614 3.15628E-02 2.11651E-01 2.94521E-01-5.72343E-02-2.20319E-01 1.29789E-01
 -1       615 6.50289E-02-1.70556E-02-6.65925E-02-3.11022E-03 1.41850E-01-9.64516E-02
 -1       616 5.91389E-02-6.41609E-02 1.20579E-01 1.17690E-01-1.28324E-01 5.43666E-02
 -1       617 2.94671E-01 3.41554E-01 3.24689E-01-7.12204E-02 2.19807E-01-4.00131E-01
 -1       618 5.95621E-01 6.23422E-01 9.35397E-01-1.05004E-01 3.28628E-01-6.62243E-01
 -1       619 6.02315E-01 4.70007E-01-1.01799E-01-4.16774E-01-2.42936E-01 2.07112E-01
 -1       620 6.85704E-01 4.75993E-01 1.95445E-02-4.67170E-01-3.23190E-01 4.29973E-01
 -1       621 5.56493E-01 3.44377E-01-1.80920E-01-3.51408E-01 9.89062E-02-9.03359E-02
 -1       622 5.66027E-01 3.98903E-01-1.68053E-01-3.43686E-01 5.40268E-03 3.81823E-02
 -1       623 5.31839E-01 2.55603E-01-1.19472E-02-1.90774E-01 2.20143E-01-4.25237E-01
 -1       624 6.21281E-01 2.29052E-01-1.04819E-01-2.55977E-01 1.26617E-01-8.68831E-02
 -1       625 5.64479E-01 3.76076E-01 7.60112E-01-7.21454E-02-3.74753E-01 7.22405E-01
 -1       626 5.06155E-01 3.44872E-01 5.27372E-01-2.27950E-01-4.53017E-01 6.55794E-01
 -1       627 5.84700E-01 3.84404E-01 4.08598E-02-2.97659E-01 1.34952E-01-1.57510E-01
 -1       628 7.97414E-02 1.13274E-01-5.56099E-02 7.09965E-02-1.00299E-01-2.42927E-01
 -1       629 5.28645E-01 2.97153E-01-1.58320E-01-3.14032E-01 9.68554E-02-1.64258E-01
 -1       630 9.77234E-03 1.18589E-01-6.58014E-02-2.04885E-02-1.24234E-01-8.65465E-02
 -1       631-9.79878E-02 9.57017E-03-2.73717E-03 5.87538E-02-1.31179E-01-5.00603E-02
 -1       632 5.35993E-01 4.84588E-01-7.26158E-02-3.41639E-01-2.27299E-02 8.20541E-02
 -1       633 3.62609E-01 2.24554E-01-7.12101E-02-1.82935E-01 1.05391E-02 7.70480E-02
 -1       634-1.03261E-01 1.62487E-01 4.89482E-02 1.91043E-01-4.35372E-02-7.89515E-02
 -1       635 1.84158E-01 3.38500E-01 1.86860E-01-8.46162E-02 1.18325E-01-1.91643E-01
 -1       636 5.54046E-01 7.00959E-02-2.06525E-01-2.26055E-01-1.78254E-01 1.82016E-01
 -1       637 1.58841E-01-2.97799E-02-4.69014E-01-1.43159E-01 3.11079E-01-1.88722E-01
 -1       638 2.53068E-01 2.82283E-01 2.98584E-01 2.45599E-02 7.21013E-02 2.89609E-01
 -1       639 5.41930E-02-3.40664E-02-8.26011E-02 7.21135E-02 5.23190E-02-1.21154E-01
 -1       640-2.22912E-01-4.32842E-02 1.62348E-02 1.66788E-01-1.86989E-02 2.48256E-02
 -1       641 6.86930E-01 4.95804E-01 5.70891E-01-1.20172E-01 2.42689E-01-6.58601E-01
 -1       642 5.08783E-01 3.35842E-01 4.57425E-01-1.98601E-01 2.49031E-01-5.44735E-01
 -1       643 9.93614E-01 3.38912E-01-1.26207E-01-3.98065E-01-2.88232E-01 4.93629E-01
 -1       644 1.23410E+00 4.01865E-01-1.03277E-01-6.29290E-01-3.23868E-01 4.77673E-01
 -1       645 8.09373E-01 2.50522E-01-2.27758E-01-2.96003E-01 3.47284E-02-1.30273E-01
 -1       646 8.91157E-01 3.44152E-01-2.27223E-01-3.99789E-01 4.41597E-02 3.38724E-02
 -1       647 7.45292E-01 2.84655E-01-4.21500E-02-2.30676E-01 2.17228E-01-4.60178E-01
 -1       648 7.57349E-01 2.83933E-01 5.88708E-02-2.83301E-01 1.22532E-01-3.95689E-01
 -1       649 6.26579E-01 3.03565E-01 6.64331E-01-2.59360E-01-3.26943E-01 8.11160E-01
 -1       650 8.85347E-01 4.75099E-01 7.65463E-01-2.10732E-01-3.92101E-01 9.36715E-01
 -1       651-6.67679E-02 8.92604E-02-1.28590E-02 1.68886E-01 1.93199E-02-9.73062E-02
 -1       652 7.17943E-01 3.21382E-01-9.64326E-02-2.58887E-01 3.70573E-02-1.19360E-01
 -1       653 9.22448E-01 3.13482E-01-1.30070E-01-3.47192E-01 3.33448E-02-5.37738E-02
 -1       654 8.27140E-02 7.78669E-02-2.78267E-01 3.04879E-03-7.70305E-02 7.83848E-02
 -1       655-1.04280E-02 2.89163E-02-1.37120E-01-3.74323E-02-2.07348E-01 9.77584E-02
 -1       656 5.12614E-01 3.43033E-01-3.59392E-02-2.25470E-01 5.48996E-02 1.03599E-01
 -1       657 7.36023E-01 2.95225E-01-7.97888E-02-2.32195E-01 9.05302E-02 1.10964E-01
 -1       658-3.09811E-02 2.68608E-01-1.82837E-01 4.66188E-02-2.83053E-02-8.52295E-02
 -1       659 4.34017E-01 4.84205E-01 1.34303E-01-1.27062E-01-1.06754E-01-2.17450E-01
 -1       660 6.12809E-01 1.57565E-01-1.15936E-01 4.46617E-02 3.06066E-02 2.69176E-01
 -1       661 3.18123E-01-2.81474E-02-2.66751E-01 5.17412E-02 1.08057E-01-2.98361E-01
 -1       662 2.98147E-01 5.42684E-01-6.75236E-02-3.68294E-01 1.07862E-01 3.21545E-02
 -1       663-7.53836E-02-2.64961E-02-1.20668E-01 2.05363E-01-2.24206E-02-1.80181E-01
 -1       664-5.10704E-02 1.45510E-01-3.49275E-03 9.28328E-02 1.49391E-02-1.47644E-02
 -1       665 8.65620E-01 7.54650E-01 1.16154E+00-8.85922E-02 8.88199E-02-8.68179E-01
 -1       666 6.75861E-01 5.70773E-01 6.03943E-01-5.78963E-02 1.17457E-01-7.56965E-01
 -1       667 1.41063E+00 2.10491E-01-1.93515E-01-2.26238E-01-8.07842E-02 5.26949E-01
 -1       668 1.55029E+00 2.36137E-01-2.45357E-02-2.15585E-01-4.81348E-02 6.96329E-01
 -1       669 1.00021E+00 1.53989E-01-2.04323E-01-9.02263E-02-5.50428E-02-1.09401E-01
 -1       670 1.26551E+00 2.14327E-01-2.72013E-01-1.75094E-01 5.61668E-02-5.83857E-02
 -1       671 8.27834E-01 3.28229E-01-1.17699E-02-4.79158E-02 1.70876E-02-6.08022E-01
 -1       672 1.09814E+00 2.40296E-01-6.47075E-02-9.35364E-02 1.24913E-01-4.57166E-01
 -1       673 7.67871E-01 3.40790E-01 5.68660E-01-1.05305E-01-2.23330E-01 1.10781E+00
 -1       674 1.17810E+00 6.82522E-01 1.30660E+00-8.86558E-02-2.17137E-01 1.21371E+00
 -1       675 2.88506E-03 2.27980E-01-8.42101E-02 7.68582E-02-7.64438E-02-1.01819E-01
 -1       676 9.96168E-01 2.41631E-01-9.57525E-02-1.46471E-01 1.79275E-02-1.10021E-01
 -1       677 1.11946E+00 2.08471E-01-1.90162E-01-7.10811E-02-7.06425E-02-7.04567E-02
 -1       678 6.46528E-02 1.91852E-01-2.66851E-01-2.29156E-01 3.00885E-02 4.55469E-02
 -1       679 1.38258E-01 1.80184E-02-3.84285E-01-4.99802E-02-4.63740E-02 1.10564E-01
 -1       680 8.63970E-01 2.41560E-01-1.89253E-01-1.70789E-01 5.36592E-02 4.77170E-02
 -1       681 7.08928E-01 2.28881E-01-1.32139E-01-1.57166E-02 1.18188E-01-3.99057E-02
 -1       682-1.36497E-01 2.61210E-01 9.01275E-03-1.68903E-02 5.83388E-02-9.80388E-02
 -1       683 4.56814E-01 4.27541E-01 2.50620E-01-3.75426E-02-2.57038E-01-1.62032E-01
 -1       684 6.58691E-01 3.01105E-01-7.83796E-02 1.03124E-01 1.87019E-01 1.10392E-01
 -1       685 6.27581E-01 1.40473E-01-1.94765E-01 2.76179E-01-2.45413E-02-2.77641E-01
 -1       686 5.84370E-01 3.84040E-01-1.37185E-01-2.95317E-01 2.01747E-01-1.41380E-01
 -1       687-9.37400E-02 1.59973E-01 2.01941E-02 1.26196E-01-4.55935E-02-1.43609E-01
 -1       688-1.98389E-01 1.59317E-01-9.46086E-02-3.53395E-02 4.26114E-02-4.67064E-02
 -1       689 5.85779E-01 4.68414E-01 4.18903E-01 1.02792E-01-1.67399E-01-7.21465E-01
 -1       690 1.10430E+00 9.65555E-01 1.17840E+00 1.28074E-01-9.84727E-02-9.52700E-01
 -1       691 8.78539E-01 3.18480E-01 8.54751E-03 3.48080E-02-2.62219E-02-5.89206E-01
 -1       692 1.12723E+00 2.00990E-01-1.11143E-02 1.02609E-01-1.04663E-01-4.68123E-01
 -1       693 1.03511E+00 1.21370E-01-3.31883E-01 1.35136E-01 4.06535E-03-5.32145E-02
 -1       694 1.25641E+00 1.95561E-01-2.59983E-01 1.71211E-01-3.79137E-02-5.67195E-02
 -1       695 1.46746E+00 1.99784E-01-1.60442E-01 1.46809E-01 8.74650E-02 4.75792E-01
 -1       696 1.52276E+00 1.95066E-01-4.00075E-02 1.55676E-01 3.60033E-02 6.82882E-01
 -1       697 9.97014E-01 2.76316E-01 9.86353E-01 1.76415E-01 1.49706E-01 1.09662E+00
 -1       698 1.13191E+00 4.98912E-01 9.72351E-01 8.31968E-02 1.72014E-01 1.26098E+00
 -1       699-2.61067E-01 1.73989E-01-8.14088E-02 6.10570E-02-3.24668E-02-1.65679E-01
 -1       700 1.09269E+00 2.58900E-01-2.38686E-02 6.66122E-02-1.25952E-01-4.38860E-02
 -1       701 1.35514E+00 3.10792E-01-6.72951E-02 2.08021E-01-5.60025E-02 2.72370E-02
 -1       702 1.15758E-01-4.22102E-02-5.88923E-02-9.84169E-02 4.82930E-02 1.60687E-01
 -1       703-4.69908E-02 2.12218E-02-8.56573E-02 5.77392E-02 2.08157E-02 1.13436E-01
 -1       704 8.30619E-01 1.84894E-01-1.50945E-01 3.14984E-02 3.79753E-02-1.29279E-01
 -1       705 8.99280E-01 2.83417E-01-3.58246E-02 1.02732E-01-1.12823E-02-1.22288E-01
 -1       706-1.08303E-01 2.75586E-01-6.42051E-02-1.51098E-01 1.47090E-01-1.80903E-01
 -1       707 5.67184E-01 9.62147E-02 4.55022E-02-4.75214E-02-1.66251E-01-3.92298E-02
 -1       708 6.77716E-01 3.00843E-01-1.05746E-01 3.58018E-01 7.20465E-02-2.06328E-02
 -1       709 4.47700E-01 4.39853E-01-4.23117E-02 3.19386E-01-2.47791E-01-1.92604E-01
 -1       710 2.99666E-01 1.32833E-01-2.77052E-01-3.92120E-02 7.10894E-02-1.88516E-01
 -1       711-1.91003E-01 1.74901E-01-5.41924E-02 3.64291E-02-4.10682E-02-5.35800E-02
 -1       712-1.96146E-01 1.06541E-01-1.11167E-01-1.43015E-01 2.57377E-02-1.43011E-01
 -1       713 8.74816E-01 4.59468E-01 7.62497E-01-6.97929E-02-1.25885E-01-6.70503E-01
 -1       714 9.06367E-01 5.00581E-01 5.59678E-01-1.52481E-02-1.83637E-01-7.51106E-01
 -1       715 6.98507E-01 2.99994E-01-1.77135E-02 2.12569E-01-2.23423E-01-4.56117E-01
 -1       716 6.72536E-01 2.26178E-01 4.45279E-02 2.40330E-01-1.43744E-01-3.78826E-01
 -1       717 9.19767E-01 2.98115E-01-1.76906E-01 3.34346E-01-2.85073E-02-1.76136E-01
 -1       718 9.10291E-01 3.22366E-01-2.65904E-01 3.68632E-01-2.28394E-02 2.64079E-02
 -1       719 1.03683E+00 3.38543E-01-1.50753E-01 4.17435E-01 2.49877E-01 4.87360E-01
 -1       720 1.36598E+00 4.39668E-01 2.14593E-02 6.43998E-01 2.82967E-01 4.58483E-01
 -1       721 8.77429E-01 4.68483E-01 6.61801E-01 1.29567E-01 4.23449E-01 1.04960E+00
 -1       722 1.04051E+00 5.69311E-01 1.00438E+00 1.19810E-01 3.18613E-01 1.00307E+00
 -1       723-2.07148E-01 1.41937E-01-5.28807E-02-1.60855E-01 6.44196E-02-1.27561E-01
 -1       724 6.78577E-01 3.00799E-01-1.03266E-01 1.86311E-01-9.45709E-02 1.13594E-01
 -1       725 6.47351E-01 4.06748E-01-1.13214E-01 3.10261E-01-3.76517E-02 1.05240E-01
 -1       726-1.70934E-01 4.04858E-03-2.85226E-02-1.31062E-02 8.99389E-02-9.90860E-02
 -1       727-1.03128E-01 1.89001E-01-3.65105E-02-1.09185E-03 1.86316E-02 1.56776E-02
 -1       728 9.17269E-01 3.44627E-01-1.14922E-01 3.31982E-01-1.73020E-02-3.29771E-02
 -1       729 7.38759E-01 3.35889E-01-8.71991E-02 2.68639E-01-5.23972E-02-1.57121E-01
 -1       730-2.15157E-01 1.03945E-01 5.55892E-02-1.96288E-01 4.81198E-02-1.77446E-01
 -1       731 7.00162E-01 1.89034E-02-1.99836E-01 4.38980E-03 4.67338E-02 2.29520E-01
 -1       732 4.38544E-01 5.21644E-01 1.63235E-01 1.71143E-01 1.04367E-01-2.34108E-01
 -1       733 4.33714E-01 4.40776E-01 3.70624E-01 7.25862E-02-2.27739E-01 2.89286E-01
 -1       734 6.52224E-01-2.44245E-03-2.88408E-01 7.44676E-03-1.03937E-01-3.86262E-01
 -1       735-2.15847E-01 9.11026E-02-5.47483E-03-1.28390E-01-1.47285E-02 2.26597E-02
 -1       736 1.11348E-01 7.45683E-02-9.03883E-02-1.77288E-01 4.13663E-02-1.61143E-01
 -1       737 7.03525E-01 6.05388E-01 1.41602E+00 3.04488E-01-4.53963E-01-7.94625E-01
 -1       738 5.72256E-01 3.90786E-01 5.40022E-01 1.62294E-01-3.04282E-01-5.64356E-01
 -1       739 4.93913E-01 2.83463E-01 1.78354E-02 1.87878E-01-2.40495E-01-4.13235E-01
 -1       740 5.23048E-01 2.74019E-01-1.00817E-01 2.65324E-01-1.55689E-01-1.10661E-01
 -1       741 5.89647E-01 3.76270E-01-1.61564E-01 3.43607E-01-9.72861E-02-7.65969E-02
 -1       742 4.94940E-01 3.90299E-01-1.57798E-01 3.55946E-01-1.00096E-02 4.49323E-02
 -1       743 6.27633E-01 4.51878E-01-8.11258E-02 4.18405E-01 1.74888E-01 1.45297E-01
 -1       744 6.51485E-01 4.69371E-01-2.25416E-02 4.53528E-01 2.89425E-01 3.94717E-01
 -1       745 6.06245E-01 4.23756E-01 5.37775E-01 2.81714E-01 5.09016E-01 6.96080E-01
 -1       746 6.87188E-01 4.25262E-01 7.97617E-01 1.81726E-01 3.82814E-01 7.98110E-01
 -1       747-2.34464E-01 1.74325E-01 1.37990E-01-2.48432E-01 9.46700E-02-8.02214E-02
 -1       748 5.40923E-01 3.20427E-01-9.22885E-02 3.01183E-01-1.45834E-02 1.11709E-01
 -1       749 6.27500E-01 5.49730E-01 4.91049E-02 3.71094E-01 2.83804E-02 1.31203E-01
 -1       750 1.29002E-01 8.37863E-02-1.15397E-02 6.57132E-02 8.67205E-02 3.75840E-02
 -1       751 3.88808E-01 2.45754E-01-1.40561E-01 2.14901E-01-1.02055E-01-1.46255E-01
 -1       752-1.15361E-01-3.24378E-02-5.30034E-02-7.39560E-02 1.53996E-01-1.30338E-02
 -1       753 4.26534E-01 3.13668E-01-4.25939E-02 2.20202E-01-1.05484E-01-1.54224E-01
 -1       754-1.07913E-02 1.52752E-01 6.97835E-02-4.83642E-02 4.81783E-02-3.17677E-01
 -1       755 5.09648E-01 6.99638E-02-2.00935E-01 1.12254E-01 1.86323E-01 2.19093E-01
 -1       756 2.92344E-01 3.91497E-01 1.88956E-01 8.23686E-02-8.04338E-02-2.43592E-01
 -1       757 1.60594E-01 5.14276E-01 1.36343E-01 1.82368E-01 1.30012E-02 1.79712E-01
 -1       758 5.61514E-01-4.41918E-02-4.32107E-01 2.07649E-01-3.33509E-01-2.18960E-01
 -1       759-6.32038E-03 5.77484E-02-2.04657E-02-1.23216E-01 1.72999E-02 5.64856E-02
 -1       760 1.17402E-02-5.87937E-02-5.18832E-02-8.12131E-02-6.31792E-02-1.42372E-01
 -1       761 3.83652E-01 4.13708E-01 6.39984E-01 1.35580E-01-2.85332E-01-5.60058E-01
 -1       762 1.32948E-01 9.07387E-02-5.93940E-02 1.12430E-01-7.26955E-02-3.25133E-01
 -1       763 1.34093E-01 2.37046E-01 2.82814E-02 2.56306E-01-2.21293E-01-1.13105E-01
 -1       764 9.60356E-02 2.14491E-01-7.50221E-02 2.45610E-01-1.87115E-01-7.70903E-02
 -1       765 4.75088E-02 1.31407E-01-2.89305E-02 2.54177E-01 6.56328E-02-1.93683E-01
 -1       766 1.40724E-01 3.33704E-01-7.33063E-02 3.11338E-01 5.27938E-02 1.29559E-01
 -1       767 1.33414E-01 2.00175E-01-4.11363E-02 2.24400E-01 1.36315E-01 1.03155E-01
 -1       768 1.56715E-01 4.93206E-01 7.30380E-02 3.82596E-01 2.31092E-01 6.90918E-02
 -1       769 3.39149E-01 3.28515E-01 4.17140E-01 1.72454E-01 4.01051E-01 3.49174E-01
 -1       770 2.17372E-01 1.62062E-01 1.80952E-01 2.04903E-01 1.17200E-01 4.44268E-01
 -1       771-8.37888E-02 6.59458E-02-1.25038E-01-1.86518E-01 6.73191E-02-1.47644E-01
 -1       772 2.01427E-01 9.72242E-02-1.02597E-01 1.46143E-01 8.56001E-02 1.72728E-02
 -1       773 1.18813E-01 1.79327E-01-2.26733E-02 1.58422E-01 8.31311E-02-2.85318E-02
 -1       774-3.28735E-02 1.27181E-01-9.15068E-02 4.32006E-02 7.06758E-02-1.24013E-01
 -1       775 1.35404E-01 2.54066E-01-7.88293E-02 2.21299E-01-1.62706E-01-6.16259E-02
 -1       776 2.91884E-01 1.01025E-01-1.24856E-01 1.39473E-01-5.47550E-02-4.33987E-02
 -1       777 1.39072E-01 1.41725E-01 7.52750E-03 1.97995E-01-1.73277E-01-1.13427E-02
 -1       778-1.46171E-01 1.18218E-01 6.09749E-02-1.93685E-01-9.86798E-02-2.71534E-02
 -1       779 1.64888E-01-4.64030E-02-2.89181E-01 1.47243E-01 3.59355E-01 1.52797E-01
 -1       780 1.91048E-01 2.59772E-01 3.98078E-01 1.21771E-01-3.06563E-01-2.14873E-01
 -1       781 1.95364E-01 1.89308E-01 2.55009E-01 2.02768E-02 1.65004E-01 1.85397E-01
 -1       782 4.53082E-02-5.43111E-02-3.28858E-01 2.20748E-01-3.93666E-01-5.83925E-02
 -1       783 8.38957E-03-5.53891E-02 6.57910E-02-6.48699E-02 8.54678E-02-2.23337E-02
 -1       784 4.21336E-02 4.71378E-03 4.47033E-02-4.30131E-02-1.13365E-01-1.00123E-01
 -1       785 1.49373E-01 2.46018E-01 3.46363E-01 1.20105E-01-6.67930E-02-2.56623E-01
 -1       786-1.99317E-01-3.52772E-02-3.99230E-01 1.57942E-01 1.41906E-01-5.13184E-01
 -1       787-3.52586E-02-6.76581E-02-2.13927E-02 1.92208E-01-1.62061E-01 7.85527E-02
 -1       788-1.42608E-01-4.84480E-02 7.13165E-02 2.25806E-01-6.72942E-02-3.05783E-02
 -1       789-2.75253E-02-1.49561E-01 3.29520E-02 2.37051E-01-1.15476E-01 4.16148E-02
 -1       790 3.12915E-02-1.53156E-01 1.07390E-03 2.34851E-01 3.16321E-02 1.61597E-01
 -1       791-1.96291E-01-1.16763E-01-7.03129E-03 2.62199E-01 2.08517E-01-2.75804E-01
 -1       792 2.24989E-02-4.40816E-02 6.62471E-02 1.95879E-01 1.58221E-01-7.18689E-03
 -1       793-2.25285E-02 1.54933E-01 2.80825E-01 8.20059E-02 1.29712E-01 2.32798E-01
 -1       794-1.12717E-01-1.42146E-02-9.08943E-02 1.12232E-01-4.51975E-02 2.56195E-01
 -1       795 3.55491E-03-1.43687E-01-4.77313E-03-1.02353E-01 2.73678E-02-2.89247E-01
 -1       796-2.36073E-02-1.42238E-02-1.44489E-02 1.05698E-01 1.40668E-01 3.91709E-02
 -1       797-6.33843E-02-7.62072E-02 3.45138E-02 1.23445E-01 1.28139E-01-3.06259E-02
 -1       798 3.75363E-02 1.81639E-02 8.15593E-02-8.90014E-02-3.80723E-02-1.13641E-01
 -1       799-2.61755E-02-3.08882E-02 1.53516E-03 1.62738E-01-1.08942E-01-3.39441E-02
 -1       800-4.21819E-02 5.74031E-02 2.51071E-02-1.45501E-02 1.58469E-02-1.20323E-01
 -1       801-4.48023E-02-1.47509E-02 8.69006E-02 2.14248E-01-1.38418E-01 1.43580E-02
 -1       802-4.36878E-02-1.69970E-02 2.80698E-02-2.04036E-01-1.02576E-01-3.68944E-02
 -1       803-6.07482E-02-1.33129E-01-2.95705E-01 1.12425E-01 3.34157E-01-6.59804E-02
 -1       804-3.56660E-02-7.96778E-03 1.93054E-01 1.10077E-01-3.30461E-01 4.24741E-02
 -1       805 8.03791E-02 9.44817E-02 2.68573E-01 1.13608E-01 3.11924E-01 1.66009E-03
 -1       806-2.86473E-01-2.26146E-01-3.98389E-01 1.31540E-01-2.98368E-01 2.15302E-01
 -1       807 2.93980E-02-2.02049E-03 4.52175E-02-6.79264E-02 8.66391E-02-7.38230E-02
 -1       808-1.24705E-01-3.90192E-02-7.76779E-02 2.02491E-02-8.92200E-02-4.94309E-02
 -1       809-3.72436E-01-1.75640E-01-1.66805E-01 1.18752E-01 1.03874E-01-4.10562E-01
 -1       810-5.39736E-01-4.68035E-01-9.04438E-01 9.93680E-02 2.28284E-01-7.10825E-01
 -1       811-2.70980E-01-3.00458E-01 1.25226E-01 2.52757E-01-8.52338E-02 8.13084E-02
 -1       812-2.78380E-01-3.76758E-01 2.15205E-02 2.44264E-01-2.67073E-01 3.13887E-01
 -1       813-4.58060E-01-4.72197E-01 6.81450E-02 3.78677E-01-1.49879E-01 7.43616E-02
 -1       814-3.78962E-01-1.86010E-01 3.76019E-02 1.77217E-01 9.72494E-02-7.54721E-02
 -1       815-5.49382E-01-2.36095E-01-6.20720E-02 2.15382E-01 2.33934E-01-3.47267E-01
 -1       816-3.55462E-01-3.13376E-01 1.54761E-01 2.96203E-01 1.23066E-01-5.56076E-02
 -1       817-4.42176E-01-4.77002E-01-4.50220E-01 2.53289E-01-4.64418E-01 4.79969E-01
 -1       818-3.52212E-01-6.12777E-01-8.16529E-01 3.00777E-01-5.51832E-01 5.63901E-01
 -1       819 2.62295E-02-1.35645E-01 1.28089E-01-8.96942E-02-6.06091E-02-3.01920E-01
 -1       820-2.93335E-01-2.05096E-01 9.73162E-03 1.72846E-01 1.24932E-01-6.40298E-02
 -1       821-4.10187E-01-3.12271E-01 1.15686E-01 2.84816E-01 1.74565E-01-1.12344E-01
 -1       822-1.22234E-01-4.21364E-02 7.10446E-02-1.53216E-02-1.95554E-02-3.48264E-02
 -1       823-2.47142E-01-2.59642E-01 8.74552E-02 1.91903E-01 4.63088E-05 1.09268E-02
 -1       824-3.58048E-03-8.40089E-02-3.63800E-02 1.56965E-02-1.40993E-01 2.16844E-02
 -1       825-3.09870E-01-2.10487E-01 1.38706E-01 2.58174E-01-5.46960E-02 1.60416E-01
 -1       826 1.81207E-01-1.14377E-01 5.47530E-02-2.21033E-01-3.13860E-02-6.73162E-02
 -1       827-2.55247E-01-3.33170E-01-2.97394E-01 6.96142E-02 1.71053E-01-2.26143E-01
 -1       828-2.65231E-01-4.02917E-02 2.41018E-01 1.36276E-01-2.30034E-01 1.40481E-01
 -1       829-3.31478E-01 6.08064E-02 4.19712E-01 1.86623E-01 3.69885E-01-1.64121E-01
 -1       830-1.99478E-01-3.18098E-01-1.72357E-01 3.57249E-02-6.90285E-02 2.09991E-01
 -1       831 5.70169E-02 1.63873E-02 2.57659E-03-6.20491E-02 8.01617E-02-1.00719E-01
 -1       832 9.41000E-02 7.25710E-02 8.03609E-02-1.44167E-01-4.20064E-02-6.03092E-02
 -1       833-5.81580E-01-3.27078E-01-5.26240E-01-3.01068E-02 1.12104E-01-6.28355E-01
 -1       834-5.94943E-01-3.68913E-01-5.57609E-01 3.20983E-02 2.18051E-01-5.87312E-01
 -1       835-5.01065E-01-2.59546E-01 4.16678E-03 1.99945E-01 1.44030E-01-2.55238E-01
 -1       836-6.28722E-01-2.77929E-01-6.99891E-02 3.26948E-01 3.13956E-01-3.29878E-01
 -1       837-6.94994E-01-4.08901E-01 1.82032E-01 4.15256E-01 1.65645E-02 2.39506E-02
 -1       838-5.67252E-01-2.53759E-01 1.59028E-01 3.45514E-01 9.08163E-02-1.51946E-01
 -1       839-7.82144E-01-4.16334E-01 6.73347E-02 4.07601E-01-2.34536E-01 4.63462E-01
 -1       840-9.08695E-01-4.42648E-01 1.29185E-01 4.91404E-01-2.10582E-01 2.71791E-01
 -1       841-9.60003E-01-7.40821E-01-1.29739E+00 2.18675E-01-6.14719E-01 9.73166E-01
 -1       842-5.48463E-01-3.50705E-01-3.51456E-01 2.49718E-01-4.75242E-01 6.61566E-01
 -1       843-1.48951E-01-1.73300E-01 1.45281E-01-7.96553E-02-1.19531E-02-1.73861E-01
 -1       844-5.24359E-01-3.08231E-01-1.10200E-02 2.57270E-01 1.18018E-01-1.31471E-01
 -1       845-6.77881E-01-3.12270E-01 1.14840E-01 3.21911E-01 3.65165E-02-1.63889E-01
 -1       846 4.20077E-02-2.91348E-02 1.83808E-01 1.21873E-02-1.42479E-01 7.63338E-02
 -1       847-2.65900E-01-2.01910E-01 5.95660E-02 8.96729E-02-9.18739E-02-8.50076E-02
 -1       848-6.33747E-01-4.50629E-01 5.43139E-02 3.58725E-01-9.02572E-03 9.60461E-02
 -1       849-6.20254E-01-2.60210E-01 1.35976E-01 2.77170E-01 7.76031E-02 7.18879E-03
 -1       850 8.08974E-02-2.38876E-01 9.66869E-02-1.71483E-01-1.60640E-01-1.08416E-01
 -1       851-2.88562E-01-4.64217E-01-2.16160E-01 2.62230E-01 8.10845E-02-2.50417E-01
 -1       852-5.43127E-01-7.03558E-02 2.00333E-01 6.20408E-03-7.80554E-02 3.20640E-01
 -1       853-4.44904E-01 5.79665E-02 4.15896E-01 7.16770E-02 2.70198E-01-2.96904E-01
 -1       854-3.36247E-01-6.39712E-01-1.71641E-01 1.27553E-01 1.49121E-01 1.69860E-01
 -1       855 7.20502E-02 9.69168E-02 1.85374E-01-1.68535E-01 2.56591E-02-1.75524E-01
 -1       856 1.45745E-02-8.92314E-02-1.56876E-02-1.44838E-01-3.17545E-02-5.97560E-02
 -1       857-5.82914E-01-4.55219E-01-5.33704E-01 7.49431E-02 1.66093E-01-6.41636E-01
 -1       858-9.06233E-01-7.94566E-01-1.19807E+00 1.04479E-01 1.35366E-01-8.28747E-01
 -1       859-7.94100E-01-2.83981E-01 7.54793E-02 1.10964E-01 1.45067E-01-4.09432E-01
 -1       860-9.00707E-01-2.85199E-01-5.76024E-02 1.12661E-01 7.60382E-02-5.42124E-01
 -1       861-1.17235E+00-2.69302E-01 2.47191E-01 3.14915E-01 6.54616E-02-3.54905E-02
 -1       862-1.02587E+00-1.81754E-01 1.99904E-01 2.11706E-01 5.79620E-03-1.62350E-01
 -1       863-1.24123E+00-2.58567E-01 1.24646E-01 2.86442E-01-1.50831E-01 7.08292E-01
 -1       864-1.56140E+00-2.72027E-01 1.53149E-01 3.76015E-01-2.02790E-01 4.93346E-01
 -1       865-1.00243E+00-3.01718E-01-1.04814E+00 2.84880E-01-2.94145E-01 1.06228E+00
 -1       866-1.23366E+00-5.17660E-01-9.58831E-01 2.27495E-01-3.41845E-01 1.21407E+00
 -1       867-7.37707E-03-1.95679E-01-1.17326E-01-4.28838E-02-6.42316E-02-3.05160E-01
 -1       868-9.11591E-01-3.09581E-01 7.57857E-02 1.94082E-01 3.33555E-02-1.52125E-01
 -1       869-9.83718E-01-2.46239E-01 1.32848E-01 1.98097E-01 1.07394E-02-1.58928E-01
 -1       870-2.09821E-01-9.75068E-02 2.61517E-02-1.53226E-02-4.58776E-02 9.58128E-02
 -1       871-3.28805E-01-9.49527E-02 2.34982E-01 1.99950E-02-1.06476E-01 8.19376E-02
 -1       872-1.10884E+00-3.65715E-01 1.41844E-01 3.60544E-01 7.85894E-02 3.04270E-02
 -1       873-8.06876E-01-1.87489E-01 1.48920E-01 1.38493E-01 1.68484E-01 2.29267E-02
 -1       874 2.47116E-01-2.24508E-01 2.09394E-02 8.48898E-03 5.42052E-02-1.67619E-01
 -1       875-5.20255E-01-5.01085E-01-1.60158E-01 1.72735E-01-1.77317E-01-2.05932E-01
 -1       876-7.48760E-01-2.45100E-01 1.61008E-02-1.32810E-01 1.66435E-01 1.84951E-01
 -1       877-8.87789E-01 1.26809E-02 2.89097E-01-1.24132E-01 6.75370E-02-3.02708E-01
 -1       878-3.54643E-01-5.33666E-01 7.95973E-02 2.91873E-01 2.41093E-01-1.13656E-01
 -1       879 2.71948E-02-5.30750E-02 1.28524E-01-1.59802E-01-1.10481E-02-2.29650E-01
 -1       880 1.47601E-01-1.99424E-01-4.88522E-02-4.86360E-02 6.88972E-02-4.32861E-02
 -1       881-3.86482E-01-3.62946E-01-7.62192E-01 1.44551E-01 3.82725E-02 1.06156E+00
 -1       882-2.85990E+00-1.11406E+00-1.19219E+00 1.70065E-02 4.51561E-02 1.96594E+00
 -1       883 1.17067E+00 5.58174E-01 6.54073E-01-7.28191E-02-3.38625E-01 1.67421E+00
 -1       884-1.84259E+00-9.11370E-01-8.61507E-01 5.20225E-01-4.04448E-01 1.41737E+00
 -1       885-2.48111E-03 7.33131E-02-2.60592E-02-7.18087E-03 1.05156E-01-7.50040E-03
 -1       886-9.64150E-03-1.05846E-01-2.83979E-02 3.76369E-02 1.12359E-01 2.97871E-02
 -1       887-3.50072E-01-1.30492E-01-5.60916E-01-1.27606E-02 4.41360E-01 5.11230E-01
 -1       888-1.07345E+00-1.20285E+00 3.98089E-01-7.30148E-01 1.02819E+00 1.06884E+00
 -1       889 1.70864E-01 6.15903E-01 2.46084E-01 1.74082E-01 8.35373E-01 1.07298E+00
 -1       890-9.53663E-01-2.54309E-01-4.12601E-01-2.80789E-01 7.96911E-01 9.38395E-01
 -1       891-2.86587E-01-5.89658E-02-2.84247E-01 8.88470E-02 5.39140E-01 6.01442E-01
 -1       892-2.52727E+00-1.08338E+00-1.08319E+00-3.95118E-01 1.09669E+00 1.92002E+00
 -1       893-1.14322E+00-2.54958E+00-8.77015E-01 5.50555E-01-4.70520E-01-1.94870E-02
 -1       894-7.08803E-01-2.55754E+00-4.98102E-01 4.20190E-01-4.22718E-01-2.49783E-01
 -1       895-1.88384E-01-4.81628E-01 1.63018E-02 1.12027E-01 6.82175E-02-3.17640E-02
 -1       896 0.00000E+00 0.00000E+00 0.00000E+00 0.00000E+00 0.00000E+00 0.00000E+00
 -1       897 5.49199E-02 1.27646E-01-4.31163E-01-1.67846E-01-4.44926E-01 4.73355E-01
 -1       898-1.48254E+00-1.43723E+00-8.75931E-01 6.28302E-01-1.00699E+00 1.17674E+00
 -1       899 9.41347E-01 4.53479E-01 6.09955E-01 2.29292E-02-2.95490E-01 1.45585E+00
 -1       900-2.53677E+00-1.44708E+00-1.19516E+00 5.13051E-01-7.43454E-01 2.50686E+00
 -1       901-4.24262E-01-3.25437E-01 1.67236E-01 3.31406E-01-2.62079E-01 8.63383E-01
 -1       902-9.39237E-01-1.42994E-01-2.79682E-01 1.31408E-02 7.03231E-01 1.33664E+00
 -1       903-1.58770E-01-5.85386E-01-8.59886E-02 1.72238E-01-6.65106E-01 4.37549E-01
 -1       904 4.11124E-01 3.65122E-01 5.24437E-01 7.15073E-02 6.59958E-02 3.95728E-01
 -1       905-8.78201E-01-1.36293E+00-6.72340E-01 3.77134E-01-7.34452E-01 3.92581E-01
 -1       906 2.25250E-01 2.85205E-01 4.02391E-01 2.05980E-02 4.18726E-01-1.00745E-01
 -1       907 4.31152E-02-4.05226E-02 2.72985E-01 4.15609E-03-1.14643E-01 1.66815E-01
 -1       908 1.95650E-01 2.92040E-01 3.35139E-01 3.68306E-02-3.73972E-02-9.57503E-02
 -1       909-7.72193E-02-2.26835E-01-9.12163E-02-2.89754E-02-1.39622E-01-2.33643E-02
 -1       910 1.52448E-01 4.03395E-01 1.28884E-01-8.03916E-02-2.67476E-02 9.26867E-02
 -1       911 1.44146E-01 1.38135E-01 1.23009E-01 1.32504E-01-2.33036E-01-2.13520E-02
 -1       912 1.98035E-01 4.87763E-01 2.05739E-01 2.86716E-02 5.07671E-01-4.69012E-02
 -1       913 1.52926E-01 4.74259E-01-2.49626E-02 6.39229E-02 9.44459E-01 5.13957E-01
 -1       914-2.84016E-02 4.69509E-02-2.63661E-01-1.03044E-01-3.90481E-01 2.45973E-01
 -1       915 6.82405E-01 6.28781E-01 4.73501E-01 2.67429E-01 1.02612E+00 7.96120E-01
 -1       916-3.72156E-01-3.08800E-01-5.40945E-01 5.33462E-02-8.93418E-01 1.16818E+00
 -1       917 2.92607E+00 1.80526E+00 1.41940E+00 7.63615E-01 1.09121E+00 2.04147E+00
 -1       918 7.78697E-01 3.35151E-01 4.63194E-02-2.36313E-01-9.81955E-01 1.49485E+00
 -1       919 1.86971E+00 5.96788E-01-1.44294E-01 4.66808E-01-9.84353E-02 7.74374E-01
 -1       920-1.17471E+00-1.11808E-01-1.88245E-01-8.78974E-02 4.97326E-01 1.22728E+00
 -1       921 2.90097E+00 1.27041E+00 1.24494E+00 2.11593E-01 2.43086E-01 2.41525E+00
 -1       922 1.45254E-01 5.50029E-01 2.15770E-01 3.63081E-01 4.34521E-01 9.33119E-01
 -1       923 5.62327E-01 1.09349E+00 1.66440E-01 2.75140E-01 4.84986E-01-1.78348E-01
 -1       924 8.59781E-02 6.68380E-01-2.27196E-01 6.12531E-02 2.19780E-01-2.89399E-02
 -1       925 5.74558E-01 6.24674E-01-5.69231E-01 4.07295E-01 8.65589E-02 3.05140E-01
 -1       926-8.33113E-01-5.30844E-01-1.37488E-02 4.85004E-01-7.00064E-01 1.53477E+00
 -1       927-1.54776E+00-1.35539E+00-8.70945E-01 5.72873E-01-1.30955E+00 1.59566E+00
 -1       928-3.07196E+00-8.70927E-01-2.16004E-01 2.62773E-01 6.86301E-01 8.89814E-01
 -1       929-2.23142E-01-4.80377E-01 9.57251E-02-2.74408E-01 5.26577E-01 5.75261E-01
 -1       930-4.14459E-01 9.70740E-02 9.86645E-01-2.80499E-01 4.54857E-01 9.72914E-01
 -1       931-2.37561E-01 8.96075E-03 1.48626E-01-4.30444E-02-6.73236E-01 7.37075E-01
 -1       932-3.77005E-01 8.39733E-02 7.14953E-01-9.13451E-02 4.36193E-02 9.76776E-01
 -1       933 1.91976E-01-1.56902E-02 3.50070E-02 2.08127E-01-2.72220E-01-2.59303E-02
 -1       934-4.87227E-01-8.34533E-01-3.96528E-01 2.01903E-01-7.64397E-01 4.08587E-01
 -1       935 3.28729E+00 1.38391E+00 1.40136E+00-4.33194E-03-2.32752E-01 2.36281E+00
 -1       936 6.96884E-01 4.05667E-01 3.36369E-01-3.55181E-01-1.43011E-01 7.84523E-01
 -1       937 1.27607E+00 3.92739E-01-1.31150E-01-3.08328E-01-4.13496E-01 8.00980E-01
 -1       938 6.46019E-01 3.46790E-01-7.02478E-02-3.41344E-01-2.32779E-01-2.67891E-02
 -1       939-2.15201E-01 1.61036E-03-5.57253E-01-2.80091E-02-3.10405E-01 1.87481E-01
 -1       940 1.14046E-01 3.29485E-01 1.33059E-01-9.12925E-02-1.87547E-01 1.92059E-01
 -1       941 1.83507E-02 8.20810E-02-6.60628E-02 4.02121E-02-1.51640E-02 8.43665E-03
 -1       942-7.26560E-03-8.55662E-02-2.78495E-02-1.03489E-02 7.38366E-02 5.92784E-02
 -1       943 8.55238E-04-2.49124E-01 3.17845E-01-1.60743E-01 3.20903E-01-1.84546E-01
 -1       944-5.64254E-01-4.28218E-01-5.46569E-01-2.76630E-01 9.29239E-01 4.93833E-01
 -1       945-2.10449E+00-4.69625E-01-2.36141E-02 2.26971E-02 9.00706E-03-4.51361E-01
 -1       946-8.88188E-01-3.19027E-01-8.86407E-02-2.60392E-02 5.08058E-02-5.83793E-01
 -1       947-1.96199E+00-1.90473E-01-2.97690E-02-2.57088E-02-1.47048E-02-3.46769E-01
 -1       948-2.93456E+00-5.81029E-01-2.84308E-02-1.67534E-02 2.37455E-03 3.02883E-01
 -1       949-1.20170E+00-2.03150E-01-1.45851E-01-3.95680E-02 2.44022E-02 9.51321E-01
 -1       950-6.08221E-01-1.23193E-01 1.42971E-01 1.95231E-02 5.45381E-02 1.21648E-01
 -1       951-6.73900E-01-2.93297E-01-3.74670E-01 5.96741E-02-4.08906E-02 4.02017E-01
 -1       952-1.83260E-01-9.81952E-02 1.91704E-01 2.50980E-02 3.88773E-03 1.25761E-01
 -1       953-2.32375E-02-5.68244E-01-1.72484E-01 7.22596E-02 6.71714E-02 2.27245E-02
 -1       954-8.86376E-01-2.85779E-01-7.97404E-02-8.83302E-02-1.48661E-01-4.74542E-01
 -1       955-1.84126E+00-5.21172E-01-1.71864E-02-3.47506E-01-1.68715E-01-3.42332E-01
 -1       956-5.68938E-01-1.68146E-01-1.99125E-01-6.63806E-02-6.13888E-02-5.02375E-01
 -1       957-1.46973E-01-9.16866E-02 9.37402E-03-9.64214E-02 7.84246E-02 5.73103E-02
 -1       958-8.95213E-01-3.77619E-01-2.25641E-01-1.18187E-01 1.25819E-01 5.41080E-01
 -1       959 2.96885E-01-4.32245E-03-9.02898E-02 6.16575E-02 9.37414E-03 4.22565E-02
 -1       960-2.83005E-01-3.58548E-01-2.37910E-01 3.09155E-02 1.41396E-01-2.41767E-01
 -1       961-4.70840E-01-1.07665E-01-5.80428E-02-9.64546E-02-1.03639E-01-3.79398E-01
 -1       962-1.14263E+00-4.44723E-01 2.97491E-02-5.97038E-01-7.79432E-02-1.75073E-01
 -1       963-5.41654E-01-1.56478E-01-2.36700E-01-3.14701E-01-3.72535E-01-4.43457E-01
 -1       964-7.65489E-02-1.98489E-01-1.02400E-01-8.77366E-02 1.45052E-01 7.68648E-03
 -1       965-4.56979E-01-3.46923E-01-3.14109E-01-1.31798E-01 2.32603E-01 3.75379E-01
 -1       966-6.36003E-02-1.24359E-01-3.43765E-02 3.72999E-02 6.26201E-02 7.22536E-02
 -1       967-2.34322E-01-2.36926E-01-1.09425E-01-4.62490E-03 5.21370E-02-2.49887E-01
 -1       968 1.34035E-01 2.90237E-02-3.84903E-02 1.54361E-01-3.56336E-02-6.56983E-02
 -1       969-4.60521E-01-2.81487E-01-2.97927E-01-1.83247E-01 1.65794E-01 1.19530E-01
 -1       970 1.01553E-01-1.10611E-01 7.02946E-02-2.56883E-03-1.09387E-02-1.93764E-01
 -1       971-2.15188E-01-1.99386E-01-1.09327E-01 1.31388E-03 1.92897E-02-4.23547E-01
 -1       972 1.99645E-02-1.55413E-01 5.13092E-02-4.62947E-01-9.66589E-02 9.99530E-02
 -1       973-3.18113E-02-8.53742E-02 9.26009E-03-5.70713E-01 3.65957E-01-5.18399E-02
 -1       974-4.55412E-02-3.37929E-02-6.69175E-02-2.59215E-01-7.18108E-02-2.68045E-01
 -1       975-2.34293E-02 6.83950E-02 3.22032E-01 4.41960E-02 1.24306E-01-1.26241E-01
 -1       976 1.55964E-02-2.59976E-02-9.35427E-02-5.65633E-02 9.68361E-02-3.88261E-02
 -1       977-2.71618E-02 2.38415E-03 1.01327E-01 1.16153E-02-5.14462E-02 1.52851E-02
 -1       978-5.24018E-02-1.65034E-01-3.31430E-01-5.22559E-02-2.73361E-01-4.45780E-01
 -1       979 3.19603E-01 4.65922E-01-5.35816E-02-4.76023E-01-1.34249E-01-2.30611E-03
 -1       980 1.51790E-01 1.18142E-01-3.18696E-03-2.19628E-01-1.67410E-01 2.59694E-01
 -1       981 3.49582E-01 2.41428E-01-8.49044E-02-5.73182E-01 1.86143E-01-5.59682E-03
 -1       982 4.64335E-02 2.93029E-02 1.75153E-01 1.07637E-01 1.44616E-01-2.62226E-02
 -1       983 1.90133E-01 8.46101E-02 5.73640E-02-4.54630E-02-6.11232E-02 6.83876E-02
 -1       984 1.48725E-01 7.23866E-02-4.53038E-02-2.32104E-02-1.19525E-01-1.39546E-01
 -1       985 1.51556E-01-8.18824E-02-3.34890E-01 8.92858E-02-2.35639E-01-2.07083E-01
 -1       986 5.30178E-01 2.83093E-01 9.51471E-02-3.54710E-01-3.65919E-01 4.93732E-01
 -1       987 1.14870E+00 8.40489E-01-3.12297E-02-7.39690E-01-1.93825E-01 2.99800E-01
 -1       988 1.14370E+00 4.88453E-01 1.09674E-01-4.86534E-01 2.20971E-01-2.99551E-01
 -1       989 6.07829E-01 2.08767E-01 8.31409E-02-2.23034E-01 2.10270E-01-3.51104E-01
 -1       990 2.43358E-01 9.81785E-02 4.42764E-02 2.93424E-02 1.81392E-02-2.59669E-01
 -1       991 7.58058E-02 1.42521E-01-9.10315E-02-4.91350E-02-1.07743E-01-4.45756E-02
 -1       992 3.58291E-01 2.63959E-01 2.97138E-01-7.91389E-02-2.02022E-01 3.50085E-02
 -1       993-1.28065E-01 5.71180E-02 4.87870E-02-4.45024E-03-1.47969E-01 8.31460E-02
 -1       994 2.15669E-01 2.67788E-01 2.38302E-01 1.03601E-01-1.25071E-01-1.19860E-01
 -1       995 7.45933E-01 2.37224E-01 8.89546E-02-1.96216E-01 2.41380E-01-4.94468E-01
 -1       996 1.49296E+00 5.18795E-01-6.25801E-02-3.97744E-01 2.02289E-01-5.16268E-01
 -1       997 4.93829E-01 5.70966E-02 1.44246E-01-1.83786E-01 1.28372E-01-3.72676E-01
 -1       998-1.02995E-01 7.65131E-02 8.63561E-02 1.62138E-01 2.04689E-02-2.76805E-01
 -1       999 4.42668E-01 2.88923E-01 2.03111E-01-9.71627E-02-1.57220E-01 3.43699E-01
 -1      1000 1.22638E-01 1.45401E-01 1.12014E-02-1.41330E-01-1.19627E-01 3.81192E-02
 -1      1001 3.03785E-01 4.17373E-01-4.08739E-02 2.12405E-02-4.74402E-02-1.93872E-01
 -1      1002 2.58735E+00 4.91991E-01-8.72835E-02-3.56058E-01-1.44343E-02 3.46226E-01
 -1      1003 5.82580E-01 2.76355E-01 1.58100E-01-2.02524E-02 3.70071E-02-5.44872E-01
 -1      1004 1.91415E+00 4.50976E-01 1.33194E-02-1.63968E-01 5.23316E-02-3.81014E-01
 -1      1005 7.89943E-01 1.62348E-01 6.05454E-02-4.27305E-02 1.02437E-01-5.66785E-01
 -1      1006-2.92720E-01 1.59585E-01 8.82564E-02 6.56244E-02-8.51096E-03-1.30465E-01
 -1      1007-3.62885E-04 7.30712E-03 2.24561E-02-1.71911E-01-1.03365E-01 2.39524E-01
 -1      1008-9.70076E-02-1.82302E-02 3.39417E-02-4.32405E-02-4.59619E-02 4.76801E-02
 -1      1009 4.14967E-01 4.94738E-01 1.86220E-01 1.84773E-02-1.01322E-02-1.40965E-01
 -1      1010 6.18447E-01 2.98824E-01 1.28939E-01 3.20384E-02-5.20608E-02-6.04562E-01
 -1      1011 2.10069E+00 5.07600E-01 3.88216E-02 1.92916E-01-1.09602E-01-4.00645E-01
 -1      1012 9.46464E-01 1.38513E-01 1.31479E-01 1.18155E-01 1.05483E-01 9.01071E-01
 -1      1013-1.39043E-01 2.70429E-01 6.86020E-02-7.20501E-02-1.35554E-02-2.13902E-01
 -1      1014 5.70061E-01 3.10355E-01 5.59557E-01 1.57907E-01-7.96629E-02 2.82083E-01
 -1      1015 2.83092E-01 1.77832E-01 4.27130E-02 1.11487E-01 9.20989E-02 1.63459E-01
 -1      1016 1.64221E-03 4.48071E-01 2.93858E-01-5.43010E-02 1.31495E-01-1.16463E-01
 -1      1017 1.54202E+00 5.44710E-01-5.89995E-03 4.12629E-01-2.19443E-01-5.64216E-01
 -1      1018 8.19661E-01 2.48080E-01 1.32578E-01 1.87109E-01-2.53543E-01-4.84894E-01
 -1      1019 1.75849E+00 5.63989E-01 1.45344E-02 5.70954E-01-1.95801E-01-3.26158E-01
 -1      1020 9.75555E-02 2.05859E-01-2.29833E-02-2.51435E-02-9.46661E-02-1.55824E-01
 -1      1021 5.48849E-01 3.53455E-01 1.70970E-01 1.49039E-01 4.82674E-02 1.00038E-01
 -1      1022 2.83111E-01 1.45413E-01-1.37967E-01 1.05460E-01 4.31271E-02-6.84058E-03
 -1      1023 5.74571E-01 3.82797E-01 1.98572E-01-3.27568E-02 9.36770E-02-2.92651E-01
 -1      1024 3.77802E-01 1.14681E-01 1.30148E-01 1.98282E-01-1.87131E-01-4.04800E-01
 -1      1025 1.15077E+00 5.74296E-01 1.79603E-02 5.98420E-01-1.68373E-01-1.06679E-01
 -1      1026 5.61173E-01 4.29987E-01-1.34945E-02 4.48069E-01 5.34901E-01 5.71818E-01
 -1      1027-7.42982E-02 9.92076E-02-4.48573E-02-1.58003E-01 2.37810E-03 2.04747E-02
 -1      1028 1.79956E-01 1.06769E-01 7.39396E-02 8.22892E-02 1.81379E-01 1.78794E-01
 -1      1029 1.09984E-01 1.68539E-01-7.78066E-02 9.61016E-02 1.12186E-01-3.33349E-02
 -1      1030 2.97680E-01 1.71283E-01 1.51677E-01-2.22522E-02 1.60463E-01-4.10627E-01
 -1      1031 3.93379E-01 2.30769E-01-5.18917E-02 5.91654E-01-1.87833E-01-1.06876E-02
 -1      1032 2.01384E-01 5.41808E-02 1.22952E-02 2.61523E-01-7.72091E-02-2.15070E-01
 -1      1033-2.43827E-02-2.86720E-03-1.48708E-01-9.80443E-02 3.23013E-02-1.62092E-01
 -1      1034 1.14016E-02 2.16941E-01 2.23120E-01 5.09134E-02 1.25598E-01-3.38410E-02
 -1      1035-1.30683E-03 6.41447E-02-1.30176E-01 8.60648E-02-4.63774E-02-1.02919E-01
 -1      1036-6.46881E-02-1.05950E-01 7.66346E-02-5.58063E-02 7.21478E-03-3.92663E-01
 -1      1037-5.46618E-02-9.78480E-02 5.04383E-02 4.25228E-01-3.00261E-02-3.34154E-02
 -1      1038-5.93130E-02-1.17839E-02-9.11564E-03 1.88625E-01-2.96817E-02 1.97530E-01
 -1      1039-1.67459E-01-7.28504E-02-2.37435E-03 5.95676E-01-3.82813E-03-2.39735E-03
 -1      1040 7.04736E-02-5.41698E-02-7.75473E-02-1.35016E-01 4.94472E-02-1.39605E-01
 -1      1041-5.60517E-02-3.95634E-02 1.59085E-01 5.68113E-02 1.38374E-02 7.18253E-03
 -1      1042-8.94128E-02-4.49081E-02-5.76752E-02-2.41926E-02-3.71549E-02-1.09517E-01
 -1      1043-7.39527E-02 4.78312E-02 1.40665E-01-7.16468E-02-1.41709E-01-2.23056E-01
 -1      1044-8.91896E-01-3.67212E-01-6.88497E-02 4.85695E-01 2.44347E-01-2.93515E-01
 -1      1045-1.06082E-01-3.53332E-02-8.61923E-02-4.20649E-02 9.11622E-02-2.10834E-01
 -1      1046 4.74354E-03-3.19347E-02 1.63581E-01-2.10347E-02 5.89177E-03-1.52198E-01
 -1      1047-1.73550E-01-9.11386E-02 1.29172E-01 5.87789E-02-1.14652E-01 2.93961E-02
 -1      1048 3.79886E-02-3.44276E-02-6.88647E-02-4.25868E-02-1.02509E-01-2.46849E-02
 -1      1049-5.73927E-02-6.23340E-02 5.13202E-02-7.56297E-02-9.19946E-02-2.63881E-01
 -1      1050-1.11695E+00-4.20428E-01 5.18268E-02 5.31599E-01 1.06103E-01-2.02535E-01
 -1      1051-4.60159E-01-8.46915E-02-2.71317E-02 1.09864E-01 1.11939E-01-3.65588E-01
 -1      1052-1.23563E+00-4.93719E-01-3.57150E-02 7.01246E-01 3.72785E-01-3.83445E-01
 -1      1053-1.48527E+00-7.95675E-01 2.73853E-02 7.26340E-01-1.59329E-01 3.31659E-01
 -1      1054-8.45548E-01-4.16187E-01-7.24073E-04 4.61088E-01-3.63080E-01 5.51051E-01
 -1      1055-1.43897E-01-1.33809E-01 3.13107E-02 4.98365E-02-1.37501E-01-2.79473E-03
 -1      1056-2.48028E-01-9.84933E-02 9.55590E-02 1.30195E-01-2.30969E-01 1.17544E-01
 -1      1057 4.19615E-02-1.30913E-01-9.54413E-02 9.74575E-03-1.26345E-01 4.12717E-02
 -1      1058-4.00582E-01-4.84026E-01-2.73542E-01-2.02984E-01-1.65200E-01-7.97594E-02
 -1      1059-8.38882E-01-2.79840E-01-9.35496E-02 8.98098E-02 1.20891E-01-5.46946E-01
 -1      1060-1.81391E+00-5.13939E-01-6.25410E-02 2.96005E-01 8.65199E-02-4.59165E-01
 -1      1061-2.45057E+00-5.79938E-01 1.04818E-01 5.88261E-01-7.53344E-02 3.68031E-01
 -1      1062-1.31182E+00-2.29442E-01-9.76992E-02 2.86806E-01-2.10205E-01 8.70528E-01
 -1      1063-3.20980E-02-8.28646E-02 2.27150E-02 5.28245E-02-8.34059E-02 8.36006E-03
 -1      1064-2.11140E-01-2.26599E-02 7.02778E-02 1.20745E-01-1.09368E-03 1.65262E-01
 -1      1065 6.96113E-02-1.79938E-02 7.81657E-02 7.48825E-02-1.03304E-01 1.58140E-02
 -1      1066-1.58790E-01-4.81920E-01-1.86371E-01-2.37228E-02-2.13911E-02-1.81824E-01
 -1      1067 1.99764E+00 5.39871E-01-1.58364E-02 2.05484E-01-6.63509E-01 4.23268E-01
 -1      1068 1.74561E+00 5.80302E-01 4.95443E-01 2.52568E-01-1.31761E-03 1.56549E+00
 -1      1069 1.75261E-01 4.21922E-01 1.20035E-01-5.18606E-02 1.18713E-01 4.70575E-02
 -1      1070 2.12625E-01-6.15682E-01-4.54503E-01-7.60510E-02 8.97764E-01 1.00768E+00
 -1      1071 5.40275E-01 1.27455E+00 6.03349E-01 1.40592E+00 4.83926E-01 1.70089E+00
 -1      1072-2.99226E+00-2.35312E+00-1.04547E+00-1.34552E+00 8.17473E-01 4.47816E-01
 -1      1073-6.29090E-01-8.87233E-01 3.30220E-04 3.64182E-01-8.09220E-02 3.27875E-01
 -1      1074-1.67705E+00-6.10942E-01-5.36528E-01 3.21480E-02-2.18612E-01 1.80108E+00
 -1      1075 8.39760E-01-6.48878E-01-4.35604E-01 6.00154E-01-1.11682E+00 6.67467E-01
 -1      1076-9.80345E-01 3.85575E-01-2.85243E-01-2.22608E-01-7.28925E-01 1.27891E+00
 -1      1077 5.19604E-01-4.20748E-01 4.03096E-01-3.95691E-01 3.63953E-01 1.01063E+00
 -1      1078-6.55518E-01-6.24889E-01 3.54284E-01-7.46839E-01 1.51567E-01 7.21903E-01
 -1      1079-1.03480E+00-6.33078E-01-8.94066E-01 2.36590E-01-1.45774E-01 3.81071E-01
 -1      1080-2.63429E-01-5.71531E-01-1.47184E-01 1.31796E-01 1.69715E-02 2.64013E-02
 -1      1081 0.00000E+00 0.00000E+00 0.00000E+00 0.00000E+00 0.00000E+00 0.00000E+00
 -1      1082-6.14349E-02-4.51503E-01 8.57421E-02 8.65455E-02-3.43466E-01 4.43848E-01
 -1      1083-6.40870E-02-5.54909E-01 1.07457E-01-4.57556E-03 4.84402E-01 4.22241E-01
 -1      1084 2.03486E-03-1.55601E-02 1.37973E-02 1.13005E-01-2.12095E-01 9.78126E-02
 -1      1085 6.44531E-02 2.77441E-01 4.29751E-02 3.66724E-02 1.60836E-02 1.62422E-01
 -1      1086 1.78662E-01 1.66011E-01 3.01563E-01 2.52855E-02-1.30042E-01 2.94915E-01
 -1      1087-6.46569E-03-4.32837E-02-1.31053E-02-5.70644E-02-1.75293E-02-4.12679E-02
 -1      1088 3.39039E-01 7.70590E-01 3.32889E-01 2.24089E-03 2.47128E-01-3.30605E-02
 -1      1089 2.20181E-02 1.91706E-01 3.70129E-02-5.70479E-02-1.96579E-01 2.08839E-02
 -1      1090-4.27656E-03 5.75829E-02-4.58051E-02 2.77426E-02-2.64255E-02 1.39830E-01
 -1      1091 2.81135E-01 4.25255E-01 2.25455E-01 1.31725E-01 6.20746E-01 7.99830E-02
 -1      1092 3.10418E-01 7.41177E-02 1.76164E-01 2.66794E-01 8.25877E-01 4.98149E-01
 -1      1093 3.84532E-02 5.83895E-01-7.33663E-01-1.25763E-01-6.37343E-02 3.35030E-01
 -1      1094 1.23779E-01 3.95787E-01-4.31223E-01-2.39345E-01-1.36524E-01-1.45903E-01
 -1      1095-2.58765E-01 1.66353E+00 4.78102E-01 3.45421E-01 6.23964E-01 8.27359E-01
 -1      1096 2.15644E-01 2.14496E-01-3.75946E-01-2.06417E-01-6.85350E-01 9.54435E-01
 -1      1097 9.24587E-01 6.78856E-01-2.10257E-02-4.32739E-01-7.89707E-01 9.54265E-01
 -1      1098 9.72422E-01 2.89407E-01-3.01182E-01 2.33740E-01 9.60639E-01 1.30347E+00
 -1      1099 2.23988E+00 1.55437E+00 1.13827E+00-6.83638E-01-1.14436E+00 2.14090E+00
 -1      1100 2.14913E+00 5.39959E-01-4.60331E-01 2.80870E-01 6.01594E-01 2.92066E-01
 -1      1101 2.20004E+00 1.18294E+00 1.01490E+00-4.56755E-01-6.16383E-01 2.03215E+00
 -1      1102 3.85779E+00 1.67645E+00 1.66027E+00 1.90348E-01 2.46273E-01 2.50006E+00
 -1      1103 4.33560E-01-2.00830E-01 2.33652E-01-3.82992E-01 7.83295E-02 8.97810E-01
 -1      1104 2.02583E-01 1.70032E-01 1.86744E-01 1.90395E-01 6.64377E-01 3.51587E-01
 -1      1105 3.04624E-01 4.59250E-01-6.78208E-01 3.43274E-01-3.95648E-02-1.16167E-02
 -1      1106-5.33711E-01-1.24339E-01-1.29900E-01 1.95160E-01-7.78744E-01 1.10993E+00
 -1      1107 2.57325E-01 2.96129E-01 5.35224E-01-7.49311E-02-3.82217E-01 1.36503E+00
 -1      1108-1.08763E-01-1.61844E-01 1.36989E-01-1.47810E-01 5.70541E-01 4.26894E-01
 -1      1109-5.09481E-01 2.58153E-02 7.44807E-01-1.61114E-01 8.88365E-01 1.18460E+00
 -1      1110-2.74916E+00-3.07308E-01-8.39010E-01 3.21285E-01 4.54548E-01 1.97813E+00
 -1      1111-1.33242E+00-7.85479E-01-1.99219E-01-1.17393E+00 3.00524E-01 1.21910E+00
 -1      1112-6.93966E-02-1.32204E-01-7.90622E-02-5.34131E-02-3.20960E-01 7.17774E-02
 -1      1113-2.52110E-01-3.62852E-01-1.84488E-01 1.21825E-01-3.11276E-01 3.04626E-01
 -1      1114 1.82099E+00 1.30331E-01-1.40389E+00-2.09869E-03 1.14441E-01 1.17530E+00
 -1      1115-4.38563E-01-4.06715E-01-7.55159E-01 7.21245E-02-3.92799E-01 1.45612E+00
 -1      1116 5.52844E-01 2.65919E-01-6.56609E-01-3.73147E-01 1.96898E-01 4.09997E-01
 -1      1117 1.64092E-01 4.98260E-01 4.39467E-01-1.03882E-01-6.73044E-01 5.85861E-01
 -1      1118-2.72761E-01-3.55943E-01-5.42932E-01 9.85891E-03 1.65516E-02 4.08650E-01
 -1      1119-9.36082E-02-3.20163E-01-2.36288E-01 3.58001E-02-3.46634E-01-2.34150E-01
 -1      1120 1.56270E-02 3.53087E-02-7.23806E-02 3.76920E-02-2.15893E-01 5.77653E-03
 -1      1121-8.39256E-02-2.14005E-01-8.93791E-02 2.15426E-02 1.59433E-01 1.57052E-02
 -1      1122-1.45748E-01-4.81913E-01 2.05420E-01 2.30806E-02 5.47913E-03 2.07595E-01
 -1      1123-1.36700E-01-5.62223E-01-1.01848E-01-2.47373E-02 8.37193E-01 4.82689E-01
 -1      1124-6.91604E-01-1.28050E-01-1.56783E-01-2.99353E-02-2.78079E-02-5.36163E-01
 -1      1125-1.27064E+00-7.47269E-02-1.16889E-01-3.74646E-02 2.65564E-02 1.01063E+00
 -1      1126-2.81723E+00-2.69849E-01-1.95212E-02 9.60251E-03-4.27242E-02 2.43432E-01
 -1      1127-1.13652E-01-2.37603E-01-3.53344E-03-5.26891E-02-4.99115E-02-1.96993E-01
 -1      1128-9.59741E-02-2.71167E-01-2.44611E-01 4.44863E-03-5.42345E-02-9.14388E-02
 -1      1129-5.90371E-01-2.40838E-01-9.82640E-02-8.15978E-02-2.77490E-02 3.19624E-01
 -1      1130 5.30465E-02-2.68908E-01-6.12533E-02 1.08120E-01 1.87640E-02-1.66076E-01
 -1      1131-7.85582E-01-5.99033E-02-2.79607E-01-2.91826E-01 2.26743E-01 6.93530E-01
 -1      1132-2.40562E+00-4.29245E-01 5.22610E-03-5.68012E-01-1.01692E-02 3.60864E-01
 -1      1133-2.38615E+00-6.53933E-01 2.52736E-02-5.60947E-01 1.12420E-01 2.82607E-01
 -1      1134-1.25099E+00-2.47793E-01-5.43966E-02-3.12195E-01 2.28127E-01 7.75217E-01
 -1      1135-1.85705E+00-3.33187E-01-4.78732E-02-3.38318E-01-4.76784E-02-4.37525E-01
 -1      1136 1.18237E-01-3.11621E-01-9.28531E-02 1.32267E-01-6.77198E-02-1.60294E-01
 -1      1137-5.71702E-02-4.57563E-01-1.21972E-01-1.23644E-02 1.57078E-02-7.18391E-02
 -1      1138-4.21572E-01-4.74909E-02 4.00158E-02-1.29539E-01 1.16666E-01 2.67566E-01
 -1      1139 1.33604E-01-8.68115E-02-9.99215E-02 3.85246E-02-1.13858E-02-1.89937E-01
 -1      1140-5.30204E-01-2.73431E-01-2.78053E-01-2.86640E-01 3.40873E-01 5.49475E-01
 -1      1141-1.52522E+00-7.43887E-01 1.31478E-02-8.12222E-01 1.32517E-01 3.32835E-01
 -1      1142-1.54573E+00-8.80338E-01 1.44845E-03-7.63348E-01 1.71874E-01 7.44769E-02
 -1      1143-8.67671E-01-3.98504E-01-5.99213E-02-4.40889E-01 3.63423E-01 5.52513E-01
 -1      1144-1.26762E+00-4.89373E-01-8.22845E-02-7.15577E-01-3.50729E-01-3.37429E-01
 -1      1145 2.78635E-02-1.39641E-01-2.26468E-03 1.79039E-01 5.42941E-02-3.78617E-03
 -1      1146-5.79323E-01-5.02769E-01-4.59126E-02 1.03598E-01 1.63351E-01-2.38657E-01
 -1      1147-4.23107E-01-2.92835E-01 2.18487E-02-1.64367E-01 2.01853E-01 7.68787E-02
 -1      1148-1.06685E-01-7.98359E-02-3.34024E-02 9.81346E-02-1.12842E-01-1.29625E-01
 -1      1149-1.57972E-01-2.35580E-01-2.30279E-01-2.49495E-01 2.93939E-01 3.07209E-01
 -1      1150-7.33237E-01-6.98184E-01-3.29035E-02-6.04559E-01 1.43240E-01 4.19802E-02
 -1      1151-8.21937E-01-8.58809E-01-1.41960E-01-7.14068E-01 3.46860E-02-7.17936E-02
 -1      1152-4.43330E-01-3.25350E-01-6.41031E-02-3.36782E-01 2.92662E-01 3.15002E-01
 -1      1153-3.76733E-01-9.34923E-02-1.39483E-01-2.01419E-01-1.74363E-01-3.74000E-01
 -1      1154-8.69290E-01-4.89618E-01 8.10604E-02-6.08352E-01-9.10458E-02 4.44170E-02
 -1      1155-5.16443E-01-1.34444E-01-4.20392E-02-2.71840E-01-1.20288E-01-1.65392E-01
 -1      1156-7.94576E-01-4.16384E-01-3.08401E-02-5.38804E-01-2.46230E-01-3.02032E-01
 -1      1157-2.42077E-01-2.25788E-01 7.28718E-02 1.10541E-02 2.19808E-01-1.59621E-01
 -1      1158-4.25823E-02-6.90817E-02 1.61578E-02-2.48027E-02 1.24581E-01-3.19508E-02
 -1      1159 6.59141E-02 3.20383E-02 1.63708E-01 2.03749E-02 1.16709E-01-6.02092E-02
 -1      1160-7.31384E-02-4.87842E-02 9.60768E-03-5.18706E-02-1.05249E-01-2.13925E-01
 -1      1161 4.13058E-02-1.16275E-01-1.21431E-01-2.36493E-01 1.74986E-01 4.40158E-02
 -1      1162 3.34240E-02-5.48991E-02-2.58711E-02-5.10609E-01 2.03512E-01-3.96741E-02
 -1      1163 2.26269E-02-5.25792E-03 3.44366E-02-2.17014E-01 2.32909E-04 1.97901E-01
 -1      1164-1.65205E-01 4.05662E-02 2.02149E-01-2.63757E-01 1.15386E-01-3.53001E-02
 -1      1165-1.53654E-01-8.06397E-02-8.40372E-02-6.34599E-01-1.50792E-01-3.04820E-02
 -1      1166-1.38007E-01-1.35197E-01 1.82444E-02-4.20253E-02 2.46611E-02-2.94619E-01
 -1      1167-6.04418E-02-2.00987E-02-3.48659E-02-2.53073E-02 1.19916E-01-8.02204E-02
 -1      1168-1.26966E-01-3.85198E-02 5.86709E-02-2.87390E-03-7.35047E-02 5.94707E-02
 -1      1169 3.17585E-02-6.07498E-02 1.62279E-02-1.49963E-02-3.19728E-02-1.06580E-01
 -1      1170 1.14895E-01 3.06539E-01 1.54674E-01-3.10627E-01-3.52640E-01 1.50103E-01
 -1      1171 1.18058E-01-9.28639E-02-2.42758E-01-1.81407E-01-1.19019E-01-1.10413E-01
 -1      1172 1.09311E-01 2.36901E-01-1.52516E-01-5.78075E-01-2.45742E-01-1.39203E-01
 -1      1173 1.60916E-01 5.76298E-01-4.57732E-02-4.77378E-01 1.80497E-01 7.12529E-02
 -1      1174 2.03236E-01 1.58623E-02 1.18861E-03-2.39611E-01 5.61149E-02-2.38570E-01
 -1      1175 1.01207E-01 9.62181E-02 1.43867E-01-2.82126E-02 1.99050E-02-3.10815E-01
 -1      1176 8.75571E-02 1.58668E-01-4.08377E-02-9.82854E-02 5.38833E-02-3.35510E-02
 -1      1177 7.58973E-02 1.48855E-01 5.96204E-02-1.06077E-01-2.03306E-01-4.11783E-02
 -1      1178 5.57852E-02 2.71612E-02-1.53082E-02 5.44979E-02-5.16252E-02-1.23877E-01
 -1      1179 1.49219E+00 1.03715E+00 4.82400E-03-8.90281E-01-1.87170E-01 8.90695E-02
 -1      1180 5.37613E-01 3.90480E-01 2.04006E-01-4.52206E-01-5.09167E-01 5.16737E-01
 -1      1181 3.67079E-01 1.64529E-01 2.36637E-01-1.72849E-01 1.99689E-01-4.01793E-01
 -1      1182 1.23121E+00 5.84696E-01 2.10922E-02-6.26382E-01 2.16500E-01-7.12172E-02
 -1      1183 2.48354E-01 1.53068E-01 1.54191E-01 3.22168E-02-1.49818E-01-4.01183E-01
 -1      1184 1.87796E-01 2.13071E-01 2.95513E-01-1.59177E-01-2.27966E-01 3.97496E-02
 -1      1185-3.44043E-02 1.12082E-01-4.35645E-03 1.32900E-01-1.31844E-02-7.98572E-02
 -1      1186 6.92388E-01 1.06916E-01 1.92030E-01-3.22005E-01-2.35867E-01 5.76914E-01
 -1      1187 1.90948E+00 6.80136E-01-4.12606E-02-8.59256E-01-9.97505E-02 1.78676E-01
 -1      1188 2.06159E+00 7.74030E-01 7.98233E-02-9.05304E-01-2.01349E-01 3.36004E-01
 -1      1189 1.02075E+00 3.06240E-01 4.81731E-02-3.90002E-01-3.81085E-01 6.92752E-01
 -1      1190 1.77995E+00 5.76468E-01 1.16172E-02-5.74918E-01 1.75987E-01-2.92063E-01
 -1      1191 4.52339E-01 4.08789E-01 2.66160E-01 4.36272E-02-7.13827E-04-3.07659E-01
 -1      1192-4.10856E-03-6.39866E-03-1.49442E-01 2.86702E-02-2.09847E-02 9.97126E-03
 -1      1193 4.89274E-01 2.09267E-01 1.48234E-01-1.48049E-01-2.20937E-01 2.21907E-01
 -1      1194-4.87623E-02 1.71159E-01-1.11622E-03 8.20125E-02 3.30566E-02-1.79869E-01
 -1      1195 1.33856E+00 1.96282E-01 7.83211E-02-1.87066E-01-1.75067E-01 8.76153E-01
 -1      1196 3.04967E+00 5.68783E-01 3.19019E-02-3.36111E-01-1.19448E-01 4.40170E-01
 -1      1197 9.44938E-01 2.22901E-01 1.39828E-01-1.31278E-01-1.36099E-01 9.10506E-01
 -1      1198 2.23015E+00 4.20509E-01 6.36522E-02-2.24537E-01 1.49448E-01-4.24979E-01
 -1      1199 6.80742E-01 6.34958E-01 2.28965E-01 1.30347E-01-1.59713E-01-2.45069E-01
 -1      1200 3.39488E-01 1.82136E-01-1.05795E-01-1.41672E-01-3.64806E-02 8.85470E-02
 -1      1201 4.12393E-01 2.56212E-01 2.42954E-01 6.09582E-02-9.30892E-02 3.78376E-01
 -1      1202-1.00474E-01 2.59282E-01 4.45323E-02-9.95160E-02 6.18675E-02-1.50630E-01
 -1      1203 2.07397E+00 2.71491E-01 2.71395E-02 1.50238E-01 2.07276E-02-4.20078E-01
 -1      1204 8.87725E-01 1.61929E-01 9.55165E-02 6.28632E-02-1.23874E-01-5.96101E-01
 -1      1205 2.92705E+00 5.33078E-01 7.83923E-02 3.24188E-01 1.57778E-01 4.43050E-01
 -1      1206 1.32896E+00 1.71827E-01 5.84203E-02 1.35404E-01 1.56832E-01 8.34343E-01
 -1      1207 2.58565E+00 4.86988E-01 1.60713E-02 2.86846E-01 4.60389E-02 3.54248E-01
 -1      1208 2.58268E-01 4.94252E-01 4.58480E-02 2.12160E-02-7.96246E-02-1.68562E-01
 -1      1209 3.18589E-01 7.52341E-02-1.91513E-01-5.28661E-02 5.17817E-02 3.14112E-02
 -1      1210 3.39277E-01 1.23191E-01 1.07729E-01 1.14801E-01 3.87275E-02 2.43348E-01
 -1      1211 8.62402E-02 2.17147E-01 9.91184E-03-2.45893E-02 1.48940E-03-2.44393E-01
 -1      1212 5.00269E-01 3.19291E-02 1.57097E-01 9.50502E-02-8.77459E-02-3.44916E-01
 -1      1213 1.13692E+00 3.59440E-01 2.13546E-01 5.19987E-01 4.63704E-01 8.25669E-01
 -1      1214 2.01153E+00 6.39235E-01 3.61773E-02 9.77563E-01 1.89334E-02 1.28042E-01
 -1      1215 8.23795E-01 2.44873E-01 6.41043E-02 2.15039E-01 2.98737E-01 7.50761E-01
 -1      1216 2.08492E+00 7.75604E-01-1.10355E-02 7.64079E-01 1.39884E-01 2.38042E-01
 -1      1217 3.83363E-01 4.77806E-01 1.74219E-01-4.80068E-02 1.23699E-01-2.20133E-01
 -1      1218-2.45480E-01-2.23834E-02-6.28282E-02-8.79963E-02 1.17694E-01 4.63256E-02
 -1      1219 5.10304E-01 4.60046E-01 4.38262E-01-4.06811E-04 1.67006E-01 2.86057E-01
 -1      1220 2.21781E-01 1.59072E-01 6.36561E-02-5.18071E-02-8.70034E-02-1.63116E-01
 -1      1221 1.13626E+00 5.16712E-01 6.06411E-02 5.95194E-01-2.03793E-01-4.45862E-01
 -1      1222 5.14271E-01 1.86233E-01-9.87443E-02 2.15504E-01-1.73109E-01-1.69882E-01
 -1      1223 1.39042E+00 9.90299E-01 4.74676E-02 8.36479E-01 1.85125E-01 6.44023E-02
 -1      1224 5.19522E-01 2.62632E-01 1.08936E-01 3.88709E-01 3.26251E-01 4.38700E-01
 -1      1225 1.13108E+00 8.17425E-01 3.03073E-02 7.07054E-01 1.74531E-01 2.40348E-01
 -1      1226 2.17446E-01 2.75630E-01 1.31919E-02-4.71421E-02 7.77548E-02-2.17536E-01
 -1      1227-3.98974E-02 1.07910E-01 3.76766E-02 1.80550E-02 1.36044E-01 3.14684E-02
 -1      1228 2.00831E-01 2.38594E-01 1.44535E-01 9.43523E-02 2.44638E-01 1.75322E-01
 -1      1229-3.12830E-02 4.79009E-02 5.40768E-02-6.96185E-02-6.77562E-02-2.30686E-01
 -1      1230 1.31514E-01 2.29047E-01-1.18016E-01 5.99164E-01 2.82887E-01-1.54243E-01
 -1      1231 1.32573E-01-5.38105E-02-1.71339E-01 2.04989E-01 1.05229E-01-7.70383E-02
 -1      1232 1.41552E-01 5.50674E-01-1.05051E-01 5.18365E-01-2.04640E-01 7.17047E-02
 -1      1233 1.78690E-01 1.57467E-01-2.99559E-02 2.57475E-01 1.90141E-01 2.67588E-01
 -1      1234 1.28430E-01 4.19200E-01 1.53023E-01 3.36164E-01 4.14513E-01 1.61861E-01
 -1      1235 3.10936E-01 4.85399E-01-5.35468E-02 5.00805E-01 9.76319E-02-8.44460E-03
 -1      1236 7.88056E-02-4.04684E-02-3.32718E-01-2.84019E-02 2.55567E-01-2.74015E-01
 -1      1237-6.41921E-02 9.41626E-03-8.98573E-02-9.30534E-02 1.18147E-01-1.70556E-01
 -1      1238 1.34614E-01 7.99411E-02-5.03942E-02 2.48387E-02 7.13684E-02 4.56284E-02
 -1      1239-6.91896E-02 2.98411E-02 7.15202E-02-1.48135E-01-8.65039E-02-1.06908E-01
 -1      1240-1.73444E-01 6.74169E-02 2.05762E-01 2.67841E-01-1.07241E-01-3.04180E-02
 -1      1241-1.22535E-01-8.37713E-02 7.99614E-02 5.14588E-01-4.40044E-01-9.63063E-02
 -1      1242 1.65143E-02-1.11120E-01-1.74167E-01 2.41054E-01-2.11792E-01 7.29089E-02
 -1      1243 4.79553E-02-2.04595E-01 7.95231E-02 3.88125E-01 2.82577E-01 1.35539E-01
 -1      1244-1.10593E-01-3.64800E-02-7.09387E-02 2.70385E-01 1.30759E-01-2.95192E-01
 -1      1245-9.23152E-02-2.27368E-01-9.90228E-02-4.86532E-02 7.73816E-02-5.48196E-01
 -1      1246-5.90872E-02-7.69702E-02 1.00135E-01-1.55997E-02 9.83892E-02-2.51469E-02
 -1      1247-1.11975E-01-1.82831E-01-1.52917E-01 9.16975E-02-3.54875E-02-5.37661E-02
 -1      1248 1.04367E-02 1.09369E-01 2.18943E-02-1.43672E-01-1.49020E-01-1.82594E-01
 -1      1249-7.57953E-01-7.20465E-01-4.32855E-02 5.85043E-01-1.02514E-01 3.11176E-02
 -1      1250-2.70148E-01-2.79952E-01-8.52536E-02 2.69326E-01-3.35140E-01 3.51605E-01
 -1      1251-4.13646E-01-3.55266E-01 5.11990E-02 3.06580E-01-2.60412E-01 1.38423E-01
 -1      1252-8.35188E-01-8.96532E-01-1.41708E-01 7.16908E-01 4.25522E-03-9.56256E-02
 -1      1253-4.14999E-01-5.27170E-02 1.31505E-01 2.03649E-01 7.57125E-02-4.89163E-02
 -1      1254-9.14152E-01-4.40131E-01 6.48376E-02 5.79154E-01 1.13074E-01 5.60241E-02
 -1      1255-4.28392E-01-4.93209E-02-8.66588E-02 1.79866E-01 1.60340E-01-3.48159E-01
 -1      1256-4.03903E-01-1.41362E-01-2.71398E-01 6.94596E-02-1.87349E-02-5.22081E-01
 -1      1257-2.24045E-01-1.63723E-01-8.42583E-02 8.05655E-02-1.74369E-01 1.37995E-01
 -1      1258 9.43427E-02 1.70058E-02-1.63203E-01-1.70911E-01 4.68746E-02-5.78983E-02
 -1      1259-5.41236E-01-1.06871E-01-1.43201E-01 3.06601E-01 3.58173E-01-3.75237E-01
 -1      1260-4.87531E-01-2.88622E-01-2.43374E-01 2.96947E-01-3.65463E-01 5.09395E-01
 -1      1261-1.73426E+00-8.94168E-01 2.17259E-02 8.61402E-01-2.31618E-01 1.52489E-01
 -1      1262-1.52713E-01-6.91179E-02-5.31653E-03-1.32565E-01 1.20957E-01-2.26609E-01
 -1      1263-3.10304E-02-1.61268E-01-1.25640E-01-9.36131E-02-2.56410E-02-3.08490E-01
 -1      1264-3.94889E-01-2.84356E-01-2.28359E-01 1.56611E-01-2.25046E-01 3.08724E-01
 -1      1265 4.88294E-02-1.12515E-01 3.48447E-02-1.35643E-01-5.90753E-02-9.79951E-02
 -1      1266-1.99393E+00-4.55277E-01-2.66660E-03 4.07491E-01 2.01661E-01-3.87992E-01
 -1      1267-4.98503E-01-1.47140E-01-2.37179E-01 1.00381E-01 8.60678E-02-4.69526E-01
 -1      1268-8.55338E-01-4.72208E-02-3.57353E-01 3.06509E-01-2.19354E-01 7.77159E-01
 -1      1269-2.86090E+00-6.58795E-01-1.12610E-02 6.48611E-01-1.84827E-01 3.32157E-01
 -1      1270 1.07521E-01-1.42343E-01-2.88790E-02-2.93060E-02-2.66559E-02-2.01128E-01
 -1      1271-2.95891E-01-3.32388E-01-4.18360E-01-7.21672E-02-9.58543E-02-2.19800E-01
 -1      1272-7.18732E-01-2.40760E-01-3.10558E-01-5.72673E-03-6.36640E-02 3.44925E-01
 -1      1273 1.70357E-01-1.91472E-01-3.18887E-03-1.50942E-03 4.35415E-02-1.87938E-01
 -1      1274 2.40086E+00 2.98134E-02 7.15435E-01-1.32177E+00 6.76451E-02 1.58660E+00
 -1      1275 2.78380E-01-3.40630E-01 2.40259E-01-9.09630E-01-3.06166E-02 1.70097E+00
 -1      1276 2.04720E-01 5.80899E-02 1.12368E-01 2.25687E-01-6.28320E-01 7.76310E-01
 -1      1277 5.91855E-01 5.29790E-01 2.53370E-01-1.16751E+00-2.23466E-01 1.52772E+00
 -1      1278 5.94036E-01 5.31971E-01 2.58460E-01-1.16751E+00-2.25902E-01 1.55403E+00
 -1      1279-8.95831E-01-3.60751E-01-3.30720E-01-5.66661E-02-1.20917E-02 1.69836E+00
 -1      1280 6.01238E-02 1.53908E-01 6.42095E-02-1.63201E-02 1.28116E-01 1.26203E-02
 -1      1281 1.35175E-02 8.72122E-03 2.22237E-02 1.64556E-02 7.74320E-02 5.85218E-02
 -1      1282 3.04243E-02 4.03283E-02 4.36299E-03-5.48265E-02 5.25031E-02 3.15283E-02
 -1      1283 0.00000E+00 0.00000E+00 0.00000E+00 0.00000E+00 0.00000E+00 0.00000E+00
 -1      1284-7.85465E-02 1.65893E+00 4.54248E-01 4.32295E-01 9.56229E-01 1.15470E+00
 -1      1285-1.90900E+00 5.15949E-02-5.79790E-01-2.45907E-01 9.12820E-01 1.10458E+00
 -1      1286-6.66047E-01-4.60380E-01 9.18148E-01-5.04382E-01 1.20708E-01-1.41452E-02
 -1      1287 1.11423E+00 4.48684E-01 6.34690E-01 3.69064E-01 8.00847E-01 5.08433E-01
 -1      1288-2.35202E-01-8.53380E-01-6.15780E-01-8.02743E-02 7.66479E-01 4.73350E-01
 -1      1289 5.68111E-03-1.04788E+00-3.30603E-01-2.96877E-01 9.72488E-01 1.21155E+00
 -1      1290-1.37271E+00-1.42882E+00-3.74401E-02-1.05173E+00 6.62922E-01-1.77506E-02
 -1      1291-5.60151E-01 3.57785E-01 1.15340E-01 6.32722E-01 5.37356E-01 1.63688E+00
 -1      1292-7.78918E-01-6.41658E-01-4.99060E-01 4.31092E-01-1.26475E+00 6.86622E-01
 -1      1293-9.90866E-02 1.56689E-01 2.74485E-01 1.13518E-01-7.41469E-01 1.72962E-01
 -1      1294 1.48017E-01 1.78231E-01-1.87435E-01-2.07380E-01 4.87679E-01 1.30295E-01
 -1      1295 7.34147E-03-1.69618E-01 1.46118E-02-2.94067E-02-7.03900E-02 1.36390E-01
 -1      1296-2.92013E-01-5.05574E-01-6.97842E-02 1.29241E-01-9.43295E-02-2.88100E-02
 -1      1297 4.43299E-02 2.08808E-01-8.00600E-04 3.17858E-02 3.46038E-02 2.59217E-02
 -1      1298 1.67786E-01 3.28532E-01 1.48895E-01-6.93073E-02-2.35237E-01 1.39932E-01
 -1      1299 9.76779E-01 5.12666E-01 3.27171E-01-3.98176E-01-4.91266E-01 2.77676E-02
 -1      1300 8.10519E-02 2.52660E-02-7.01516E-01-1.88696E-01-5.20987E-01 6.70848E-01
 -1      1301-1.87149E+00-1.61869E+00-1.04705E+00 6.86567E-01-1.05081E+00 1.28039E+00
 -1      1302 1.85380E-01-6.00885E-01-2.35969E-01-3.86012E-02-1.05048E+00 6.58239E-02
 -1      1303-1.00722E-01 5.53940E-02 2.51394E-01-8.78261E-03 3.47285E-01 4.91195E-01
 -1      1304-3.06381E+00-1.60525E+00-1.40072E+00 5.89383E-01-7.50452E-01 2.47416E+00
 -1      1305-1.20252E+00-4.92086E-01-5.08382E-01 1.29546E-01 4.79087E-02 8.73616E-01
 -1      1306-6.65383E-01-3.09028E-01-7.19099E-02-1.85341E-01 5.18506E-01 6.72707E-01
 -1      1307-2.78805E-01-6.54714E-01 6.90992E-01 3.18779E-01-1.14458E-01 3.14041E-01
 -1      1308 2.98179E-01 8.51147E-01 1.46818E-01 9.03438E-02 1.81439E-02-4.60500E-02
 -1      1309-2.10131E-01-9.68246E-01-1.18634E-01-2.15202E-02-4.35469E-01-2.18251E-01
 -1      1310 7.83143E-02 2.37630E-02 1.06898E-01 3.05010E-02-2.14434E-01-3.10059E-02
 -1      1311 2.27013E-02 6.81207E-02 2.64189E-02-2.00789E-02 6.65182E-02 7.17361E-02
 -1      1312 1.32779E-02 2.44962E-01 7.74718E-02 1.81759E-02 2.25060E-01 1.65880E-01
 -1      1313 2.46836E-01 4.18312E-01-1.17858E-01 2.83755E-01 7.04451E-01 2.67614E-01
 -1      1314 1.20259E+00 1.49170E+00 8.08288E-01 5.03988E-01 1.25803E+00 9.39725E-01
 -1      1315 2.35240E-01 3.64986E-01-2.07251E-01 4.16929E-01 5.66590E-01 1.29815E+00
 -1      1316 2.85323E-01 1.66213E-01-2.92686E-01-1.87646E-01-7.62173E-01 1.12604E+00
 -1      1317-1.52345E+00 4.69694E-01-6.81319E-02 6.44350E-01 2.16437E-01 1.41553E+00
 -1      1318-1.44355E-02 2.02108E-01 4.97929E-02-2.10325E-01-9.24892E-01 3.80055E-01
 -1      1319-1.20508E+00-1.06384E+00-6.20876E-01-1.92551E+00 4.68963E-01 1.61273E+00
 -1      1320 1.27820E+00 1.40719E-01 4.18527E-01 8.18653E-03 7.01658E-01 1.34876E+00
 -1      1321 4.15581E-01 1.07501E+00 1.29506E-01 1.77485E-01-3.37575E-02-3.84165E-02
 -1      1322 2.99378E-01 6.54517E-01 2.08299E-02 1.98983E-01 2.33518E-01 1.84775E-01
 -1      1323 1.32389E-01 3.87420E-01 1.05095E-01 4.35771E-02 3.14165E-02 9.20139E-02
 -1      1324 2.93437E-02 4.96311E-01 2.98015E-01 1.54369E-01 6.26485E-01 7.91625E-01
 -1      1325 5.43543E-01 4.67859E-01 6.13980E-01-1.31800E-01-7.96652E-01 1.62048E+00
 -1      1326-2.53310E+00-1.39450E+00-1.17828E+00 5.64347E-01-1.19769E+00 2.24066E+00
 -1      1327-1.54776E+00-1.35539E+00-8.70945E-01 5.72873E-01-1.30955E+00 1.59566E+00
 -1      1328-1.40613E+00-7.12514E-01 8.46421E-02 3.96405E-01-7.19606E-01 2.23820E-01
 -1      1329-8.35152E-01-1.52077E-01-9.28150E-03-2.14375E-01 2.29967E-01 5.65229E-01
 -1      1330-3.19140E-01-2.48381E-01-5.32190E-02-1.83669E-01 1.04690E+00 1.83919E+00
 -1      1331-5.71739E-02-4.82657E-01-1.75279E+00 1.94369E-01 4.47758E-01 4.98041E-01
 -1      1332 3.04785E-01 3.31755E-01 4.32421E-01 5.09737E-02 1.16856E-01 1.26532E+00
 -1      1333 2.31663E-03-2.03875E-02-5.42125E-03-3.85388E-02-8.00657E-02 7.88700E-03
 -1      1334-2.14929E-01-4.36286E-01-1.95364E-01 7.19173E-02-4.20451E-01 8.81347E-02
 -1      1335 1.43681E+00 4.25700E-01 1.82449E-01-1.72579E-01 1.00607E-01 1.50824E+00
 -1      1336 1.97793E+00 1.58735E-01 7.99983E-01 3.77619E-01-8.11715E-01 1.38701E+00
 -1      1337 7.34653E-01 1.53269E+00 6.00834E-01-7.13713E-01-8.14844E-01 1.42354E+00
 -1      1338 1.00101E+00 1.22095E+00 6.66589E-01-4.64827E-01-7.62925E-01 5.95732E-01
 -1      1339-2.46463E-03-1.58689E-02-1.44833E-01-5.07178E-02-7.53144E-01 4.45204E-01
 -1      1340 2.60344E-01 6.85079E-01 2.42883E-01 1.03403E-01-3.76458E-01 1.10249E-01
 -1      1341-5.01647E-04-3.62801E-02-2.67118E-03-1.41117E-02-1.61551E-02 1.42465E-02
 -1      1342 1.90333E-01 2.64118E-01 2.93882E-01 3.80660E-03-9.30656E-02-5.17171E-02
 -1      1343-4.23117E-03-3.31869E-01 4.32360E-02-5.88239E-02 6.35253E-01 2.08187E-01
 -1      1344 1.07815E-02-5.14324E-01 7.06830E-02 2.96603E-02 7.06786E-01 5.01710E-01
 -1      1345-9.04718E-02-1.17165E-01-3.15051E-01 8.44774E-02 5.76630E-02 2.99187E-02
 -1      1346 1.01833E+00 1.14751E+00 9.08720E-01 1.19066E-01-8.64003E-02 1.68559E-03
 -1      1347 2.22856E-01 6.98237E-01 8.83515E-01 7.16825E-03-6.13437E-04 2.10885E-01
 -1      1348 3.22683E-01 7.11996E-01 5.07838E-01-1.45999E-01 1.63982E-01-1.56843E-01
 -1      1349 1.51465E+00 1.35796E+00 1.26144E+00 8.77149E-02 2.10238E-01-1.96725E-01
 -1      1350-1.22065E+00-1.02229E+00-1.18218E+00 3.18030E-02-1.03043E-01-2.18063E-01
 -1      1351-6.50668E-01-7.15766E-01-7.79615E-01-1.74165E-01-2.79004E-01-1.59803E-01
 -1      1352-6.52112E-01-6.91750E-01-6.56001E-01-6.42619E-02 1.17808E-01 1.58399E-02
 -1      1353-9.77308E-01-1.10085E+00-9.58991E-01 9.58814E-02 4.32071E-02-2.31750E-01
 -1      1354-6.97750E-02-4.12746E-01-3.55527E-01 2.78365E-01 3.55141E-01-1.70744E-01
 -1      1355-1.13164E+00-8.74461E-01-8.78840E-01 2.14611E-01 3.71087E-01-3.06915E-01
 -1      1356 1.09463E-01 3.06429E-01 2.83388E-01 7.42782E-02-1.52843E-01-4.38425E-01
 -1      1357-4.95070E-02-2.78847E-01-5.75108E-01-2.49669E-01-2.54108E-01-6.33579E-01
 -1      1358-5.52583E-01-6.26299E-01-5.70420E-01 3.40049E-02 2.20801E-01-2.07600E-01
 -1      1359-1.25122E-01-2.03487E-01-3.91977E-01 2.02291E-01 2.47940E-01-4.26059E-01
 -1      1360 6.61624E-01 3.31544E-01 1.77800E-02 6.06616E-02-3.14374E-01-3.07237E-01
 -1      1361 3.72999E-01 4.46389E-01 5.02517E-01-1.10566E-02-2.78591E-01-5.39258E-01
 -1      1362-1.17699E-01-4.08644E-02-1.37356E-01-2.01248E-01 3.28778E-01-3.86599E-01
 -1      1363 1.22315E+00 6.59094E-01 9.03523E-01 1.91311E-01 4.11232E-02-6.72569E-01
 -1      1364-8.47942E-02 5.27813E-02 6.75389E-02-1.48986E-01-2.50088E-01-3.93272E-01
 -1      1365-5.19508E-01-3.57972E-01-6.74128E-01 1.98545E-01-1.37023E-01-7.42931E-01
 -1      1366 5.62654E-01 8.67722E-01 7.49964E-01 1.20263E-01-1.79224E-01-1.97344E-01
 -1      1367 5.72952E-01 8.93772E-01 1.11189E+00 1.71847E-01-1.45508E-01-2.61980E-02
 -1      1368 4.09024E-01 4.30841E-01 4.82897E-01-2.01912E-01 3.22838E-01-1.91553E-01
 -1      1369 3.87899E-01 4.52669E-01 3.36858E-01-1.79274E-01 4.34458E-01-9.85096E-02
 -1      1370 1.21688E-01 2.51514E-01 4.19871E-01-4.29480E-02 5.63555E-04-6.20451E-01
 -1      1371-2.24645E-01-1.77476E-01-5.51571E-01 1.85506E-01 9.37323E-02-6.16097E-01
 -1      1372-6.81583E-01-6.10806E-01-7.18775E-01 3.23482E-02-1.70936E-01-3.00555E-01
 -1      1373-8.22990E-01-3.77794E-01-4.94712E-02 6.78080E-02-2.13337E-01-3.98172E-01
 -1      1374 3.47383E-02 7.83677E-02 1.94508E-01 7.73680E-02-8.24363E-02 8.42471E-01
 -1      1375-6.51990E-02 1.84849E-01-3.01575E-02-1.48115E-01 1.91602E-01 7.93874E-02
 -1      1376-4.92442E-02 2.50161E-01 9.38896E-02 4.15831E-02 2.92637E-01 1.56991E-01
 -1      1377-6.10680E-02-8.12289E-03 7.14538E-02-9.59164E-03 1.17458E-02-3.93870E-01
 -1      1378 2.13671E-03-2.78675E-02-1.06056E-01-7.64588E-02-2.13881E-01 9.28780E-02
 -1      1379 3.38825E-01-1.22765E-01-1.44783E-02 1.64138E-01 3.40650E-01 5.48426E-01
 -1      1380 1.30188E+00 7.12179E-01 1.28451E-01 2.96246E-01 2.05265E-01 7.48542E-01
 -1      1381-4.20201E-01-1.97608E-01-7.44563E-02 2.46014E-01-4.00693E-02 1.00123E-01
 -1      1382 4.35450E-01 3.98460E-01 1.10570E-01-2.06891E-02 1.16285E-03 6.88006E-01
 -1      1383-1.27714E+00-3.94786E-01 1.14652E-02-4.06764E-02-3.57906E-02-1.00671E-01
 -1      1384 4.56792E-01 2.20466E-01 7.77427E-03-1.84044E-02 1.44961E-01 3.03425E-01
 -1      1385-9.87652E-02-7.04127E-01-3.21744E-01 1.30485E-01-5.53455E-01 4.46699E-01
 -1      1386-6.44420E-01-1.73128E-01-3.30115E-01 5.74282E-02-8.48983E-02 7.59766E-01
 -1      1387-3.96045E-01-6.08710E-01-1.58609E-01-1.85631E-01 1.93699E-01 7.51406E-01
 -1      1388 6.24598E-01 4.22978E-01-1.95335E-02 3.46288E-01 2.65854E-01 2.75845E-01
 -1      1389 4.42254E-01 2.56734E-01-1.05254E-01 1.43311E-01 7.86607E-02 1.17718E-01
 -1      1390-5.22121E-01-4.95753E-02-1.96688E-02-2.04106E-01-3.09538E-01 4.97579E-01
 -1      1391-4.91560E-01-1.62476E-01 8.67250E-03-1.99306E-02 1.64619E-01 6.40698E-01
 -1      1392 9.19736E-02-8.73120E-02-1.23629E-01 3.21879E-01 8.35792E-02-7.17597E-02
 -1      1393 2.38852E-01 1.66434E-01-6.93178E-02-8.69834E-02 4.02347E-01 4.67754E-01
 -1      1394 1.06319E-01-2.02849E-01 8.22103E-02-5.91738E-02 1.27556E-01 8.35158E-02
 -1      1395 1.07212E-01 6.37755E-01 1.54099E-02-2.14143E-02-1.58053E-01 1.01507E-01
 -1      1396-1.07791E-01-1.37647E-01-1.62848E-01-4.27653E-02 2.93170E-01 6.43245E-01
 -1      1397 7.75431E-02 1.59490E-01 1.70638E-01-6.51677E-02 9.57175E-02 4.83089E-02
 -1      1398-2.77860E-01 1.21604E-01 1.66031E-01-1.10790E-01-2.84452E-01 4.20301E-01
 -1      1399-1.29256E-01 4.57954E-02-1.39951E-01 7.54418E-02 2.07598E-01 6.61617E-01
 -1      1400-8.63619E-04 3.22877E-02 9.26932E-03-4.02381E-02 1.71429E-02-4.09314E-01
 -1      1401 1.68502E-02-2.12143E-01 5.46918E-03 1.05692E-01 1.27339E-01 5.43705E-02
 -1      1402-1.86462E-01-4.57983E-02 2.19875E-01 1.49139E-01-3.30670E-01 6.92426E-01
 -1      1403-5.74181E-01 3.98049E-03-3.05599E-01-9.47246E-02 1.11800E-01 8.70338E-01
 -1      1404 1.67569E-01-4.34909E-02 3.24419E-02-9.47852E-02-2.72253E-01 6.65129E-01
 -1      1405 6.70378E-02-8.75078E-02-4.65267E-02-9.92829E-02-2.33969E-01 3.48334E-01
 -1      1406 6.31269E-01 2.75513E-01-2.80108E-01-9.91147E-03-1.26064E-01 1.67654E-01
 -1      1407-1.24932E-01 4.37382E-02 1.47433E-01 7.15516E-02 3.45359E-01 6.80324E-01
 -1      1408 2.94785E-01 2.97960E-01 1.01038E-01 6.19624E-02-2.73803E-02-3.92898E-01
 -1      1409-4.25882E-01 1.62996E-01-4.49680E-02 2.85817E-02 1.19476E-01 1.00570E+00
 -1      1410-4.29742E-02 3.50198E-01 5.79759E-02-1.62410E-01-2.49021E-01 2.43851E-01
 -1      1411 8.54038E-01 4.46284E-01 1.07770E-02-5.02499E-02-2.00911E-01 2.72949E-01
 -1      1412-1.63574E-02-1.28023E-02 1.17328E-01 7.60395E-02-5.50397E-01 5.34264E-01
 -1      1413 1.79583E-02 1.77675E-01 3.35426E-02 7.75996E-02-9.89767E-02 6.17972E-02
 -1      1414 5.61077E-02 6.18333E-02-6.69927E-02-1.32779E-02 2.86798E-02-2.17899E-02
 -1      1415-1.37282E+00-2.49340E-01-7.89806E-01 4.38873E-02-5.99274E-01 1.16184E+00
 -1      1416 1.83757E-01 2.82013E-01 3.90427E-02 8.32981E-02 5.01731E-02 5.16869E-01
 -1      1417-3.74900E-01-3.82596E-02 8.79188E-03 1.63381E-01-6.84752E-02-3.17609E-02
 -1      1418 6.32011E-02 1.61121E-01-9.95728E-02 2.20238E-03-4.33028E-01 3.68693E-01
 -1      1419-1.62134E-01-3.65740E-01 3.03494E-01 3.12427E-01-5.37812E-01 4.42888E-01
 -1      1420-6.67456E-01-2.91221E-01-1.04845E-01-6.50194E-02 1.75592E-02-3.29447E-01
 -1      1421 1.75087E-01 1.84800E-01 2.17588E-03-1.32200E-01-3.01876E-02-2.51766E-01
 -1      1422-1.72357E-02 3.92931E-03-1.65383E-01-2.03612E-01-7.44017E-02 4.92835E-01
 -1      1423-9.23907E-01-5.27248E-01-3.11811E-01-3.99100E-01-1.00710E-01-1.02265E-01
 -1      1424 2.32476E-02 1.19605E-01 3.17327E-02 9.10449E-02-1.64672E-02 9.33588E-02
 -1      1425-1.19362E-01 5.47007E-02 9.22961E-02 2.87486E-02-3.78133E-02 1.81176E-02
 -1      1426 6.77253E-02 4.11392E-01-7.10597E-02-1.81981E-01-8.02576E-02 4.64026E-02
 -1      1427-1.00797E-01 3.14476E-02-4.95147E-02-1.05312E-01 1.49607E-01 6.65327E-01
 -1      1428-4.31458E-02 7.51918E-02 8.55557E-02 6.03611E-02-1.61715E-01 4.17827E-03
 -1      1429-1.56059E-03-1.64272E-01-1.07390E-01-1.18762E-02 4.10265E-01 3.13711E-01
 -1      1430-5.69018E-01-7.44307E-02-1.76998E-02 1.08622E-01 1.68133E-01-3.95169E-02
 -1      1431 1.02465E+00 3.61310E-01 1.50547E-01 2.36338E-01 9.65451E-02-3.20547E-03
 -1      1432 8.53852E-02-5.99550E-02-9.29065E-02 5.21874E-02-1.68386E-01 1.09712E-01
 -1      1433 6.78349E-01 4.65319E-04 2.15429E-01-6.71021E-02 3.25097E-01 1.22866E+00
 -1      1434 7.64642E-01 2.40684E-01 6.93168E-02 5.71327E-01 1.11071E-01 8.24781E-01
 -1      1435-6.51456E-01-6.01868E-01-1.64705E-01-1.21568E-01-1.19771E-01 6.27777E-01
 -1      1436 2.77534E-01 2.54434E-01 1.73790E-01-2.73612E-01-3.27013E-02-1.20352E-01
 -1      1437-2.23485E-01-1.28347E-01-2.85728E-02-1.12403E-01 5.66331E-01 5.29574E-01
 -1      1438-9.73997E-02-4.70630E-02-3.20398E-02-9.62025E-02 1.00340E-01-1.18463E-01
 -1      1439-1.14272E+00-1.48201E-01-2.31531E-01-2.20592E-01 2.18550E-01 1.28652E+00
 -1      1440 4.24506E-02-7.47161E-02 5.27398E-02 2.88268E-02-2.73141E-01 1.30689E-01
 -1      1441 2.75251E-01-1.91112E-01-1.12776E-01 1.01399E-01 2.31288E-01-1.27338E-02
 -1      1442 3.13718E-01 7.76438E-01-2.08578E-02-3.31366E-01-3.44842E-01 2.77861E-01
 -1      1443-1.34498E+00-7.34765E-01-4.42005E-01-8.22954E-01 5.53301E-01 1.06852E+00
 -1      1444-4.23643E-01-1.69972E-01-6.47137E-02 7.54648E-02-1.45084E-01 3.32476E-01
 -1      1445 1.18297E-01 1.51998E-01 1.72984E-01 1.60261E-01 2.79749E-02 2.85771E-02
 -1      1446-3.64610E-01-2.09661E-01-8.77231E-03-2.17580E-01-5.58555E-02-5.19254E-01
 -1      1447-6.09429E-01-6.39799E-01-4.30013E-01 3.24924E-01-5.43427E-01 6.33805E-01
 -1      1448-2.59887E-01-1.66070E-01-1.19988E-01 1.24293E-01-1.64648E-01 7.36467E-02
 -1      1449-3.08763E-01-1.19618E-01-8.74678E-02 2.24161E-01-2.92113E-01 7.06270E-01
 -1      1450 2.20110E-01 2.89693E-02 1.83230E-01-1.39311E-01 3.27718E-01 3.10696E-01
 -1      1451 2.95767E-01 2.64785E-01 8.77866E-02 2.45769E-01 4.15602E-01 4.64512E-01
 -1      1452-2.58223E-01-2.07858E-01-1.20959E-01-2.18268E-01 4.44157E-01 5.72960E-01
 -1      1453-3.64806E-01-2.81455E-01-1.04438E-01-4.74497E-02 3.50811E-01 9.60917E-01
 -1      1454 5.43216E-01 6.73585E-01 1.07683E-01 3.97826E-01 5.55785E-01 7.55143E-01
 -1      1455 3.74228E-02-6.40430E-02-1.22215E-01-8.57664E-02-2.27341E-01 1.05258E-01
 -1      1456 8.17548E-01 4.25632E-01-2.18813E-02 1.82458E-01 2.30466E-02 8.87637E-01
 -1      1457 9.83140E-01 1.95000E-01-8.89273E-01 4.18602E-01-1.03255E-01 7.87593E-01
 -1      1458 5.17276E-01 5.40434E-01 1.15338E-01-3.56306E-03 2.79557E-02-4.30766E-01
 -1      1459-9.97711E-02-4.52076E-01 5.20783E-02-1.30169E-01-2.05707E-01 9.62985E-02
 -1      1460-2.09514E-01-2.15380E-01 1.84424E-01 3.26021E-01-2.16082E-01 3.20282E-01
 -1      1461 3.60299E-02-2.82857E-01-1.30645E-01-2.33903E-02 4.26638E-01 1.23522E-01
 -1      1462 5.14804E-02 1.55303E-01 6.37003E-03-1.12522E-01 1.24383E-01 9.09368E-02
 -1      1463-1.52067E-01-3.67179E-01 3.93484E-02 1.85852E-01-2.83804E-01 2.98366E-01
 -1      1464-4.05499E-01 1.42916E-01-5.51754E-01 3.04454E-02 1.73970E-01 8.87355E-01
 -1      1465-2.34981E-01-1.81783E-01-7.49529E-02-8.31990E-02-1.56160E-01 3.04906E-01
 -1      1466-1.37084E-01-1.90001E-01 7.46652E-02 1.45439E-03 1.14502E-01 4.07829E-01
 -1      1467 7.77922E-02-4.34841E-03-5.62448E-02-1.13869E-01-2.98713E-01 6.63845E-01
 -1      1468-9.37084E-02 2.05620E-01 5.13063E-02 6.49997E-02-2.55190E-01 2.06570E-02
 -1      1469 2.12351E-01 1.08285E-01-3.29244E-03-3.00659E-02-1.73293E-01 8.77651E-02
 -1      1470 1.31222E-01 2.10756E-01 2.43861E-02-1.65002E-01-2.77343E-02-1.22619E-02
 -1      1471-8.30571E-02 5.18175E-01-7.87352E-02 1.00224E-01-3.10968E-02 1.58136E-01
 -1      1472-4.39348E-01-3.05977E-01-4.59986E-01 2.60131E-01-2.43461E-01 1.06197E+00
 -1      1473 4.78902E-01 1.74035E-01 3.81132E-01-7.99752E-02 3.17081E-01 1.50470E+00
 -1      1474-1.94058E-01-1.47750E-01-3.79901E-02 1.62287E-01 6.88875E-02 5.28310E-01
 -1      1475-1.28269E-01-1.72805E-01-6.10346E-02 1.40660E-01 1.73351E-02-1.09281E-01
 -1      1476-3.61014E-01-5.58003E-01 2.49183E-02 7.40110E-02-1.07081E-01 5.50546E-01
 -1      1477-5.49236E-01-1.91809E-01-1.28740E-01 5.45559E-01 1.30682E-02 5.57718E-04
 -1      1478 9.68986E-03 2.72384E-02 1.27946E-01 9.02218E-04 7.03990E-02-1.65504E-03
 -1      1479-5.53955E-01-3.85970E-01 2.55506E-03-6.07916E-02 1.85135E-01 5.09407E-01
 -1      1480 6.01770E-02-6.34683E-02 9.00495E-02 3.04961E-02-8.76366E-02 3.79185E-02
 -1      1481 8.35813E-01 3.79679E-01-2.82241E-01 2.94220E-01 2.87278E-01 9.16689E-01
 -1      1482-2.85023E-02 1.27486E-01-1.81377E-02 1.21672E-01 3.57948E-01 3.04421E-01
 -1      1483-4.45330E-02-1.72886E-01-2.82891E-02-1.65318E-01-1.40521E-02-4.10856E-02
 -1      1484 2.76955E-01 3.33420E-01-1.15963E-01-3.01025E-01 1.21889E-01-6.71750E-03
 -1      1485-1.60015E-01-2.03669E-01-1.75469E-01 1.30209E-01-3.91186E-01 3.22464E-01
 -1      1486-1.39597E+00-3.07448E-01 5.54228E-02-7.01604E-02 1.15502E-01 3.87275E-01
 -1      1487-1.39387E+00-5.02330E-01-5.04035E-01-3.39988E-02-1.73237E-01 1.04426E+00
 -1      1488-6.04744E-02-5.01227E-01-2.84356E-01-9.79715E-02-2.84993E-02 2.93443E-01
 -1      1489-1.49446E-01-1.46209E-01-4.84495E-02 2.72566E-02 1.52197E-01 1.74476E-01
 -1      1490-3.65448E-02-2.27065E-02-2.15910E-02-1.28809E-02 1.64323E-01 1.07841E-01
 -1      1491-4.44631E-01-2.32649E-02-3.41244E-02-4.09586E-02 1.55215E-01 6.09309E-01
 -1      1492-1.51407E-01 1.34153E-01-1.65896E-01-7.91479E-02-2.83576E-01 3.50459E-01
 -1      1493 2.28743E-01 2.51861E-02-9.75898E-03-4.98246E-02 2.69239E-01 4.05172E-01
 -1      1494 8.01464E-02 3.78046E-02-1.35330E-01 1.47903E-01 2.77184E-01 3.70474E-01
 -1      1495-2.11366E-01-3.30950E-01-6.35807E-02-3.57923E-01 4.15921E-02 8.91908E-01
 -1      1496 4.63901E-01 5.61996E-01 9.46835E-03-5.11717E-01-6.44444E-01 3.83634E-01
 -1      1497 1.70796E-01 2.05084E-01-5.41481E-01-9.39645E-02-8.92666E-02 1.99129E-01
 -1      1498-2.18458E-01 6.66967E-02 3.96330E-02 5.63777E-02-2.93192E-01 2.20550E-01
 -1      1499-4.64491E-02-1.33969E-01-4.04773E-02 5.13954E-02 1.72883E-01 7.26854E-01
 -1      1500 2.93915E-01 4.69696E-03-7.83627E-02 3.95555E-01 1.98120E-01-4.17324E-01
 -1      1501-5.23118E-01-7.96844E-02-8.91216E-02-1.98732E-01 1.49374E-01 8.73303E-01
 -1      1502-1.26192E+00-5.23530E-01-2.71617E-01-4.11206E-02 8.87408E-02-1.48103E-01
 -1      1503 9.68813E-01 2.43630E-01-6.23366E-01 3.84860E-01 1.64159E-01 6.72728E-01
 -1      1504 1.20166E-01-3.32082E-02-6.12113E-02 1.84252E-01 1.50749E-01-1.03419E-01
 -1      1505-6.35002E-01-5.34028E-01-1.63374E-01-4.23505E-01 5.30827E-01 5.30427E-01
 -1      1506-1.04286E+00-7.39322E-02 2.20714E-01-6.09765E-02-8.25062E-02 5.45153E-01
 -1      1507-2.54287E-01-4.32444E-01-2.52942E-02-2.02328E-01 2.45645E-01 3.03135E-01
 -1      1508 3.61673E-02 3.83929E-02-1.25886E-02-8.59025E-02 2.98727E-01 6.20804E-01
 -1      1509 2.45085E-01 2.33166E-01-1.98964E-02 1.67246E-02 1.06798E-01 6.02671E-01
 -1      1510-2.83861E-02 3.05773E-03-2.51439E-01 5.28533E-02 3.67165E-01 1.59821E-01
 -1      1511 6.28411E-01 3.52636E-01-8.76976E-02-6.96244E-02 2.35935E-02 5.65501E-01
 -1      1512 6.57066E-01 2.78459E-01 1.30151E-01 3.44788E-01 4.67416E-01 1.17076E+00
 -1      1513 7.57753E-01-9.77859E-02-3.36128E-01 2.84465E-01-3.65221E-01 6.65274E-01
 -1      1514-2.34885E-01-6.95386E-01-7.91036E-01 9.08658E-02-3.59550E-01 2.43830E-01
 -1      1515 5.29916E-01 4.38161E-01 2.48530E-01 1.77576E-01 2.06211E-01 4.08736E-01
 -1      1516 1.04436E-01 3.26866E-01 8.24756E-02 8.77659E-02 4.48749E-01 2.89184E-01
 -1      1517 5.12316E-01 2.77500E-01-2.09046E-01-1.85313E-01-1.92871E-01 3.66199E-01
 -1      1518-3.97085E-01-2.96709E-01 2.46220E-01 5.10505E-02 1.57042E-01 2.31084E-01
 -1      1519 1.55621E-01 7.67577E-02 9.45632E-02-1.06324E-01-4.51507E-01 3.60554E-01
 -1      1520-5.26861E-01-2.90845E-01-1.51119E-02 2.76834E-01-8.63099E-02-5.49608E-02
 -1      1521-5.88375E-01-3.78480E-01-3.39047E-01-1.94777E-01 3.54042E-01 1.00074E+00
 -1      1522-2.11755E-02-7.98499E-02 5.21055E-02-5.02491E-02-6.52215E-02 1.07054E-01
 -1      1523-3.29719E-01-1.47366E-01-2.75587E-01 6.14728E-02-1.04141E+00 3.86864E-01
 -1      1524 1.67629E-01 1.46382E-01 7.13786E-02 5.10461E-02-5.26919E-02 6.24571E-01
 -1      1525-2.76766E-01 1.13021E-01 2.48795E-01-1.22603E-01-4.41026E-01 3.75836E-01
 -1      1526-3.65723E-02-1.81391E-01-8.45076E-02 2.38119E-02-1.94472E-01 1.11600E-01
 -1      1527 9.21949E-01 2.16989E-01-2.86747E-01-2.31426E-01-4.13480E-01 9.83745E-01
 -1      1528 4.70638E-01 2.62969E-01 1.45359E-01-3.43800E-02-3.58938E-01 3.34765E-01
 -1      1529-6.26841E-02-2.09687E-01 7.07015E-02-1.20368E-01-1.42780E-01 4.73287E-02
 -1      1530-3.40886E-01-9.49515E-02 2.40089E-02-5.80023E-02 2.47564E-01 6.51938E-01
 -1      1531 1.00565E-01 1.83279E-02 1.48439E-01 2.72508E-02-2.46655E-01 6.11869E-01
 -1      1532 1.28952E-01 3.45058E-02-3.11103E-02-4.35010E-02-1.65170E-01 1.07567E-02
 -1      1533 1.13773E+00 3.70565E-01 2.14182E-01 1.35460E-01 1.43545E-01-1.70801E-01
 -1      1534 5.25300E-02 1.50542E-01 1.17545E-01 1.23613E-01-1.88461E-01 1.90358E-02
 -1      1535-9.44731E-02-3.97377E-01-1.15416E-01 8.32233E-02-4.47216E-01 2.38156E-01
 -1      1536 1.40080E+00 4.94192E-01 6.48548E-02-1.24515E-01-4.59781E-02 1.32644E-01
 -1      1537 7.90465E-01 8.30098E-01 1.96711E-01-1.06323E-02-1.55413E-01-4.28744E-01
 -1      1538 5.31412E-01 2.24414E-01 7.65150E-02 7.96774E-02 1.58981E-01 4.83999E-01
 -1      1539 1.13208E-01-6.86115E-01-2.30343E-02-2.38592E-01 5.01324E-01 6.70634E-01
 -1      1540-1.44906E-02 2.47984E-01-2.38106E-01 1.59194E-01 4.19802E-01 3.88294E-01
 -1      1541-9.04782E-02 5.73778E-02 4.56019E-02 1.33951E-01-6.82501E-02-2.69776E-02
 -1      1542 4.64085E-01 1.76500E-01 5.25717E-02 1.07124E-01 2.78814E-01 1.69081E-02
 -1      1543-3.03423E-02-8.67665E-02-4.99161E-02 3.32920E-02-2.08203E-01 2.15619E-01
 -1      1544 6.89688E-03-2.13423E-01 1.15841E-01-5.66578E-02 1.14117E-01 1.70531E-01
 -1      1545-7.08615E-01-4.94418E-01 1.92834E-01-4.01858E-01 1.55198E-01 3.70638E-01
 -1      1546 1.75864E-01 2.28234E-01-1.19838E-01-1.59740E-02 1.95324E-01 4.55255E-01
 -1      1547-1.15644E-01-5.25156E-02-7.60342E-02-1.17206E-01-1.52518E-01 8.66791E-02
 -1      1548-8.73622E-02-1.09860E-02-8.27039E-02-1.69465E-01-6.43992E-02-4.03037E-02
 -1      1549 4.89551E-02 3.21655E-01-2.12259E-01-3.24972E-02-1.05381E-01-7.92135E-02
 -1      1550-1.92271E-01-3.84175E-01 7.76999E-02-1.43545E-01-5.65978E-03 5.96388E-01
 -1      1551 7.10126E-01-2.06464E-01 1.17531E-01-8.09074E-02-7.43347E-01 1.08104E+00
 -1      1552-6.44944E-02-4.44354E-01-1.84224E-01-3.20777E-02-4.68256E-01 3.84569E-01
 -1      1553-1.79222E-01-1.97625E-01-1.15422E-01-1.70870E-01-2.58612E-01 4.67958E-01
 -1      1554 4.44178E-01 1.93124E-01 1.13219E-01-1.93312E-01-2.46071E-01 2.90764E-01
 -1      1555 6.31211E-02 1.62441E-01 1.13410E-01 3.40689E-03-2.07624E-01 1.09116E-01
 -1      1556 9.28275E-01 3.38606E-01-4.67575E-03 3.04212E-02 3.25318E-01 1.04405E+00
 -1      1557-1.09798E+00-6.30834E-01-5.68868E-01 1.86704E-01 1.82312E-01 5.44180E-01
 -1      1558 8.91161E-02-1.64442E-01 1.50983E-01 1.10543E-02-3.59012E-01 2.74754E-01
 -1      1559 6.59408E-02-8.26018E-02 2.19674E-02 1.71971E-01 4.94292E-02-4.51647E-02
 -1      1560 3.41475E-01-6.30562E-02-7.62422E-02-1.14689E-01-2.77007E-01 1.79603E-01
 -1      1561 1.72042E-01 3.34020E-01-4.84129E-01-1.85768E-01-3.03700E-01 5.35950E-01
 -1      1562 1.22628E-01 4.51912E-01 3.49679E-01-5.80053E-02-3.67960E-01 1.30787E-01
 -1      1563-4.86575E-01 7.49045E-02 1.72462E-02-1.41281E-01 2.43703E-01 6.09682E-01
 -1      1564-1.22013E-02-1.22262E-01 3.37605E-02-6.30343E-02 1.12822E-01 5.71142E-02
 -1      1565 2.62972E-01 2.71802E-02 3.76259E-02 1.96072E-01-3.39899E-01 2.49899E-01
 -1      1566 3.12012E-01 1.37127E-01 8.73401E-02-7.15534E-02-2.95079E-01 1.89413E-01
 -1      1567 6.37264E-02 1.23982E-01 1.94647E-01 1.41990E-02 7.48144E-02 1.49667E-01
 -1      1568-5.64394E-01-5.90798E-01-2.00778E-01 2.57920E-01-6.52231E-01 5.09597E-01
 -1      1569-1.13057E-01-1.13256E-01 2.17937E-02 3.45859E-02-1.70781E-01 6.54119E-01
 -1      1570-1.04276E+00-5.51782E-01-2.59163E-01-3.87878E-01 2.85028E-01 8.12111E-01
 -1      1571 2.99243E-01 4.76309E-02 1.40899E-01-7.84389E-02-3.49513E-01 4.19981E-01
 -1      1572-1.44424E+00-5.29590E-01 6.12076E-02-2.06858E-01 3.01294E-02 2.81921E-02
 -1      1573-8.55080E-02 7.93167E-03 1.72415E-03-3.34186E-02 1.11658E-01-3.06493E-02
 -1      1574 1.54162E-01 2.25481E-01 9.41972E-03-1.25806E-01 1.03386E-01 4.72278E-01
 -1      1575 5.92534E-01 1.44603E-01 3.86552E-01 7.29368E-02 2.70206E-01 1.05165E+00
 -1      1576-1.38003E-01-6.99525E-01-1.68510E-01-1.15135E-01 4.59990E-01 4.27414E-01
 -1      1577-1.08909E+00-5.97893E-01-1.67485E-01-1.00918E-01 8.36731E-02 4.09479E-02
 -1      1578 2.11543E-01-3.27190E-02 1.65126E-01-8.83398E-02 2.25125E-01 4.49488E-01
 -1      1579-1.42785E+00-4.81819E-01-2.48183E-01-2.39471E-01-1.77849E-02 1.26919E-01
 -1      1580 8.34570E-01 3.31924E-01 2.14728E-01-2.24171E-01-6.18619E-02 9.82677E-01
 -1      1581 9.47585E-01 4.40815E-01-1.61034E-01-4.26897E-01-1.22419E-01 4.44224E-01
 -1      1582 1.42316E+00 5.94108E-01-4.02877E-03-7.01434E-02-9.61077E-02-1.83839E-01
 -1      1583 2.50345E-01 1.84566E-01 5.94256E-02 7.85442E-02-1.93185E-01 4.13499E-01
 -1      1584 2.22416E-01 4.34629E-02-2.51460E-01 1.67702E-01-1.98130E-01 5.20736E-01
 -1      1585-2.03159E-01-6.23575E-01 2.47803E-01-1.82020E-01 4.86649E-01 4.22336E-01
 -1      1586-3.26139E-02-8.62351E-01-1.35326E-01-7.88297E-02 3.59095E-01 1.39117E-01
 -1      1587 5.11712E-01 1.67831E-01-1.71683E-01-2.18470E-02-3.55303E-01 2.24148E-01
 -1      1588-4.34629E-01-3.26468E-01 1.40595E-01 1.10582E-01 2.41117E-02-3.20918E-01
 -1      1589-1.39077E-01-1.57411E-01-1.76297E-01 1.71415E-01-1.53596E-02-1.12350E-01
 -1      1590-5.07224E-01-1.85386E-01-6.85868E-02-3.61310E-02 2.75797E-01 1.07860E-01
 -1      1591 1.81820E-02-3.44442E-01-3.15484E-01-2.99205E-01-9.43145E-02 1.10859E+00
 -1      1592 1.73924E-01 3.51405E-01-8.55480E-02 1.90301E-01 3.35620E-01 4.78892E-01
 -1      1593-6.63720E-01 9.61090E-02-6.54945E-02 2.32167E-01 3.64145E-01 1.30970E+00
 -1      1594-1.45070E-01 3.97229E-02-1.62362E-01 2.24456E-02-2.77537E-01 2.11149E-01
 -1      1595-5.72003E-02-5.82591E-02-3.75323E-03-1.54739E-01 5.37213E-02 1.66539E-02
 -1      1596 4.59631E-02 6.26671E-02-7.43098E-02 3.97797E-02-1.09064E-01 9.81464E-02
 -1      1597-6.00782E-01-9.48547E-03 5.55453E-02-1.01386E-01 2.31108E-01 6.99263E-01
 -1      1598-1.12834E-01 1.57685E-01-4.74314E-02 4.44299E-02-1.24831E-01 6.34572E-01
 -1      1599-1.18430E+00-4.94690E-01-2.67698E-01-2.27637E-01-3.29798E-02-1.99904E-01
 -1      1600-4.49568E-01-2.23731E-01-1.23132E-01-1.97183E-01 2.43655E-01 8.90773E-01
 -1      1601 2.65668E-01 1.48351E-01 1.93002E-01-1.02768E-01-3.45943E-01 2.96193E-01
 -1      1602 4.16323E-01 2.21483E-01 2.50118E-01 3.90283E-01-1.08521E-01-7.90174E-02
 -1      1603 9.02037E-02 6.68711E-02 1.08581E-01-1.81240E-01 2.61955E-01 7.27814E-01
 -1      1604-1.56343E-01-7.78190E-01-1.78560E-01 1.99239E-01-5.53817E-01 3.82403E-01
 -1      1605-1.12168E+00-4.97180E-01-1.84709E-01-2.33217E-01-8.25643E-02-1.37159E-02
 -1      1606-1.45274E-01-1.12458E-01 2.16305E-02 1.04232E-02 1.96928E-02 7.67135E-02
 -1      1607-3.38548E-02-7.68128E-02 5.61911E-02 5.60639E-02 3.31134E-02 9.61744E-02
 -1      1608 3.36151E-01 6.02963E-02-2.29657E-01-3.60276E-01-2.10227E-01 2.91110E-01
 -1      1609-9.48542E-02-1.94672E-01-3.75905E-01 7.96899E-03-2.54594E-01 3.02835E-02
 -1      1610-7.13552E-02 2.01504E-01-1.37105E-02 1.45864E-01-1.98059E-01-3.33355E-02
 -1      1611 1.76870E-01 1.03407E-01 9.30503E-02 2.21882E-01 1.00034E-01 6.45210E-01
 -1      1612-8.58171E-01-6.94372E-01-1.75025E+00 6.00261E-02-4.29981E-02 3.33446E-01
 -1      1613 6.76112E-02-4.29278E-02 1.28922E-02 3.52109E-03-8.31252E-02 1.01397E-01
 -1      1614-1.94948E-01-6.56726E-02 1.24385E-01-7.23908E-02 1.98978E-01 6.12455E-02
 -1      1615 5.02514E-02-3.60581E-02 4.68623E-02-4.42592E-02-1.85453E-02 4.37774E-02
 -1      1616-4.91699E-01-3.05809E-01 1.89367E-03-5.51257E-02-2.04714E-01-2.72044E-02
 -1      1617 1.81534E-03-3.19531E-02 2.63224E-02 2.81166E-02-9.06846E-03-4.47801E-03
 -1      1618-2.58119E-01-9.84502E-01-1.72730E-01 8.01879E-02-6.44838E-01 7.17916E-02
 -1      1619 7.11232E-01 3.37699E-01-1.18110E-01 3.56505E-02 2.06684E-01 6.83051E-01
 -1      1620-7.05945E-01-3.77152E-01-1.12818E-01-3.44992E-01-1.19033E-01 1.89109E-01
 -1      1621-3.11038E-01-1.45372E-01-2.97019E-01 2.20459E-01 2.08440E-01 4.64888E-01
 -1      1622-8.96270E-01-3.82350E-01-1.33051E-01-2.14257E-01 4.27585E-02-9.02884E-02
 -1      1623 6.56201E-01 4.37056E-01 1.48502E-01 2.73459E-01 1.51054E-01 2.91726E-01
 -1      1624 1.57580E-01 4.51701E-02-1.42131E-01 7.07333E-02 2.54079E-01 3.20576E-01
 -1      1625-1.06316E+00-6.69436E-01-5.43242E-02 1.41417E-01-1.50854E-01-3.24447E-01
 -1      1626-7.68189E-01-6.43548E-01-2.72620E-01-3.17480E-01 4.45725E-01 5.61734E-01
 -1      1627 8.87537E-01 1.54471E-01-2.80733E-02 3.72918E-01 4.87621E-01 7.05663E-01
 -1      1628 2.46133E-01-1.07164E-01-2.87686E-02 5.68651E-02 2.61969E-01 1.53325E-01
 -1      1629 3.10271E-02-5.09593E-02-1.69450E-01-1.26536E-01-8.18257E-02-7.52749E-02
 -1      1630 1.09577E-01 2.63781E-01 2.76485E-02 1.79683E-01 4.60399E-01 4.15684E-01
 -1      1631-6.62097E-01-2.13545E-01-1.63231E-02-4.00445E-02-2.60212E-01 4.00764E-01
 -1      1632-2.77718E-01-6.37444E-02 4.16428E-02 2.81993E-03 2.45892E-01 3.19035E-01
 -1      1633 1.16984E-01-1.41087E-01-8.39879E-02 1.82126E-02 2.56761E-01 9.38541E-01
 -1      1634 9.10887E-01 7.45885E-01 5.67581E-01 4.48657E-01 6.09038E-01 2.58894E-01
 -1      1635 2.55381E-01 4.62521E-02 1.38171E-01 1.78246E-01 4.82568E-01 1.04774E-01
 -1      1636 2.99851E-01-1.24742E-01-8.53615E-02 2.63809E-01 2.28887E-01 5.83632E-01
 -1      1637-8.15609E-02 2.04677E-01-5.39477E-01 1.14929E-01 3.08380E-01 5.36427E-01
 -1      1638 4.37733E-01 2.74255E-01 1.32747E-01-2.05523E-01-3.65106E-01 8.46128E-01
 -1      1639 9.42441E-01 4.65302E-01 1.89188E-01-3.42568E-01-2.87787E-02-2.39551E-01
 -1      1640-5.47071E-02 1.01202E-01-9.56170E-03 7.60804E-02-3.53914E-01 3.23660E-01
 -1      1641-8.33497E-03-4.85210E-01-9.89693E-01-6.59862E-01 6.00865E-01 1.15129E+00
 -1      1642-1.47026E+00-4.04589E-01-7.11547E-01-2.31360E-01 1.77586E-02 9.63618E-01
 -1      1643 2.55558E-01 8.14543E-02-5.32893E-02-8.07889E-02 2.37697E-01 8.69170E-01
 -1      1644 1.64551E-01 5.81714E-01-2.06979E-02-2.29512E-01-4.32189E-01 3.61330E-01
 -1      1645-2.91620E-01-2.15818E-01-1.25180E-01 1.56940E-01-3.99604E-01 4.36829E-01
 -1      1646-8.04379E-01-4.53022E-01-4.66426E-01 6.16248E-02-9.42555E-02 7.24997E-01
 -1      1647-2.01747E-01 1.23694E-01 9.39517E-02 1.37202E-01-3.62800E-01 2.34133E-01
 -1      1648 4.37092E-01 4.34655E-02-9.21769E-02 1.07478E-01 3.05605E-01 1.06874E-01
 -1      1649 7.07364E-01 5.01840E-01 2.37174E-01-2.68087E-01 9.95058E-02 1.12616E+00
 -1      1650-8.33875E-01-4.35318E-01-7.41754E-02-1.89354E-01-8.33012E-02-1.17289E-01
 -1      1651 1.05267E-01 3.37747E-01 9.23342E-02 3.11360E-02 1.18735E-01 8.31017E-01
 -1      1652 6.12782E-02 2.20878E-01 9.03288E-02 1.62954E-01-3.60372E-02 6.51512E-02
 -1      1653 5.54888E-01 3.02462E-01-1.64880E-02 8.67531E-02 4.79617E-02 2.77915E-01
 -1      1654 4.22545E-01 4.59537E-01-4.57776E-03 2.32273E-01 5.34257E-01 3.01018E-01
 -1      1655 1.34371E-01-5.75877E-02 6.69391E-02-1.64614E-01 3.50754E-01 3.04069E-01
 -1      1656-3.84736E-02-5.61454E-01-9.91753E-02 1.60583E-01-4.84089E-01 2.10838E-01
 -1      1657-3.31061E-02 7.21764E-01-2.95308E-01 1.19079E-01 3.33150E-01 1.77150E-01
 -1      1658 4.83392E-01 2.40157E-01 6.35646E-02 1.65463E-01-1.01931E-01-1.00413E-01
 -1      1659-7.97951E-01-7.94137E-01 6.14087E-02-3.91725E-01 7.23101E-01 7.49499E-01
 -1      1660 6.94759E-01 3.62817E-01 1.17293E-01-4.59122E-01-4.50532E-01 4.68366E-01
 -1      1661 4.35635E-01 1.34663E-01-2.42197E-02-1.85501E-01-2.62246E-01 1.49775E-01
 -1      1662 2.88122E-01 9.93015E-02 2.30636E-01 2.42439E-01 2.18378E-01 5.31107E-01
 -1      1663-3.52047E-01-3.50986E-01-1.03367E-01-4.79054E-02-5.54151E-02 5.26958E-01
 -1      1664 7.37362E-01 1.37831E-01 1.77561E-01-4.31856E-02 1.67181E-01 7.20060E-01
 -1      1665-1.07449E+00-3.74843E-01-1.38806E-01-3.69751E-01-8.43110E-03-1.17777E-01
 -1      1666-1.81239E-01-1.19180E-01 2.87045E-02-3.10723E-02 3.37348E-01 1.82694E-01
 -1      1667-8.83345E-01-1.30748E-01-1.20446E-01 1.51965E-01 1.48406E-01 9.18958E-02
 -1      1668-1.85271E-01-5.45617E-02-5.09743E-01 1.60394E-02 4.85250E-02 3.81362E-01
 -1      1669-9.41175E-02-9.60148E-02-1.02779E-01-1.40568E-01-3.05328E-01 5.85969E-01
 -1      1670 4.30743E-02 5.55227E-02 5.94219E-02-7.71470E-02 4.61284E-01 2.56857E-01
 -1      1671 7.10770E-02 1.42175E-01-1.13227E-01-3.69641E-02 5.45548E-04 4.34735E-02
 -1      1672 1.13969E+00 3.62406E-01-6.24356E-02-3.38120E-01-1.02469E-01 1.26470E+00
 -1      1673 1.27402E-01 8.71494E-02 8.93986E-02 1.79626E-02 5.91879E-02-1.18863E-01
 -1      1674 1.52712E-01 2.33345E-01 5.59994E-02 1.48730E-01 2.59855E-01 3.20985E-02
 -1      1675 2.55235E-02-1.21638E-01 2.90364E-02-1.30814E-01 2.69376E-01 7.58256E-01
 -1      1676 2.59610E-01 3.80336E-01 3.52065E-01 1.10319E-01 6.20013E-01 4.99777E-01
 -1      1677-1.01472E-01-3.05656E-01-1.78179E-01 5.96802E-02-4.27205E-01 5.44216E-02
 -1      1678 2.18027E-01 3.33166E-02 2.14293E-01-2.18997E-02-1.84207E-01-2.48141E-01
 -1      1679-7.29190E-02 6.93400E-02 1.34648E-01-1.76025E-02 1.20265E-01-1.31464E-01
 -1      1680 7.12812E-01 2.70594E-01 3.10736E-01 2.54859E-01 3.93350E-02-2.17394E-01
 -1      1681-8.98594E-01-4.23146E-01-8.41693E-02 2.92038E-01 5.65823E-02 2.96771E-02
 -1      1682-1.06719E+00-5.25899E-01-2.01150E-01 2.00593E-01-6.83267E-02-9.28089E-02
 -1      1683-3.85454E-01-2.16896E-01 5.06463E-02 2.07069E-02 2.24686E-01 4.33442E-01
 -1      1684-1.27283E+00-3.42465E-01 2.89251E-01 1.48411E-01-2.20431E-01 2.04991E-01
 -1      1685-3.19513E-01-1.19118E-01 8.36141E-02-1.07619E-01 2.49028E-01 1.50999E-01
 -1      1686 5.43841E-01 2.55616E-02 6.99507E-02 2.95600E-01 6.44826E-02 2.28762E-01
 -1      1687 8.55276E-01 3.76812E-02 6.03874E-02 5.22997E-02-8.03475E-01 9.39699E-01
 -1      1688 1.43007E+00 2.21586E-01 2.19326E-01-8.97777E-02-1.68460E-01 1.01094E+00
 -1      1689-2.72838E-01 9.96389E-02 4.18655E-01-1.02651E-02-1.82982E-01 4.61387E-01
 -1      1690-1.15105E-01-7.38587E-02-5.84885E-02-2.41348E-01 3.23600E-02-6.61952E-02
 -1      1691-7.94530E-01-5.61185E-01-7.38743E-02-3.25511E-01 2.78322E-01 6.51823E-01
 -1      1692 1.48162E-01 3.96089E-01 4.56758E-02-6.60100E-02 1.27251E-02 1.07851E-01
 -1      1693-3.40390E-01-1.38576E-01-8.00270E-02 2.00224E-01 3.21048E-01 3.20158E-01
 -1      1694-1.57931E-01-2.57570E-01-1.34638E-01 3.80706E-02-2.21717E-01 4.93679E-01
 -1      1695 1.39462E-01 6.30881E-01 7.70807E-02 1.70947E-01 3.32666E-01 2.10772E-01
 -1      1696-1.27377E-01 2.60904E-01-3.03559E-01 1.53878E-01-9.25283E-02 6.84751E-02
 -1      1697-1.53471E-01-4.91249E-02 1.22369E-01 9.55222E-02-6.19227E-02-2.81505E-02
 -1      1698-1.67261E-01 4.63625E-04-1.50766E-02 1.88749E-02-2.23558E-01 5.11799E-02
 -1      1699-7.70968E-01-3.53223E-01 1.39814E-01 2.44301E-02 4.01997E-02 1.94091E-01
 -1      1700-9.13407E-01-3.48126E-01-2.27078E-01-3.18845E-01 9.63194E-02-1.32695E-01
 -1      1701 2.56821E-02-3.11760E-01 6.49587E-01 7.16730E-02-1.81825E-01 3.20451E-01
 -1      1702 1.09839E+00 3.75538E-01 1.15394E-01 6.66260E-02-3.12204E-02-1.33151E-01
 -1      1703-1.63276E-01-6.66669E-02-4.49721E-01-2.08544E-02-2.33669E-01 1.93846E-01
 -1      1704 3.72806E-01 3.73401E-01 9.29730E-02 1.07337E-02 8.74873E-03 5.11147E-01
 -1      1705 6.57504E-02 2.85180E-01 4.87739E-02 1.79600E-03 2.78738E-01 9.03760E-02
 -1      1706-3.50268E-03 9.94842E-02 4.67918E-01-1.68260E-01 1.78051E-01 7.31823E-01
 -1      1707-1.05467E-01-1.40170E-01 4.35518E-02 1.62774E-01 4.06407E-01 2.30761E-01
 -1      1708-9.51609E-02 1.22041E-01 3.71288E-02 7.00979E-02 4.13290E-01 2.50608E-01
 -1      1709-3.20011E-01-2.21579E-01 2.55535E-03-3.78810E-02 6.08399E-02 1.36058E-01
 -1      1710 1.55878E-02 4.03307E-02 1.33212E-02 7.63134E-02 3.38925E-01 1.34074E-01
 -1      1711-6.55198E-01-3.47848E-01-1.15171E-01 1.62511E-01-6.14328E-02-4.65724E-01
 -1      1712 1.77258E-01 6.87603E-02 2.51970E-01 8.21240E-03 3.42924E-01 2.70308E-01
 -1      1713 7.93802E-01 5.35556E-01 4.41900E-01-1.85780E-01-1.08507E-01-1.63292E-01
 -1      1714-2.34919E-01 1.61804E-02 6.28793E-02 2.05969E-01-2.05164E-01 1.31524E-01
 -1      1715-8.80075E-02 1.41819E-01 7.16908E-02-1.33537E-01 1.61199E-01 3.13723E-02
 -1      1716 8.60725E-02-2.26615E-02 6.64475E-03-6.02613E-02-2.25005E-01 6.31356E-01
 -1      1717 5.84023E-01 3.07851E-01 4.42921E-01 1.61976E-01 1.88947E-01 8.06490E-01
 -1      1718 2.63161E-01-8.83506E-02-5.78675E-01-7.53376E-02 3.74921E-01 6.15189E-01
 -1      1719 4.72865E-01 2.32734E-01 1.92746E-02 5.50115E-02 6.09173E-02-8.47195E-02
 -1      1720-1.09956E+00-5.61389E-01-6.66369E-02 1.74250E-01-1.27655E-02-3.89279E-01
 -1      1721-1.96253E+00-7.91823E-01-2.15741E-01-1.72943E-01-5.62164E-02-3.64895E-01
 -1      1722-6.24513E-01-3.86416E-01-5.40786E-02 2.72517E-01-2.69939E-01 5.15605E-01
 -1      1723 3.97181E-01 2.26634E-01-1.45249E-02 1.37037E-01 2.54897E-01 5.07317E-01
 -1      1724 6.77297E-03 1.78531E-01 1.27353E-01-1.05030E-02 1.20028E-01 9.58411E-01
 -1      1725 1.26153E-01 1.41502E-01-4.79126E-02-1.51386E-01-4.49645E-01 4.68384E-01
 -1      1726 4.31019E-01 2.23234E-01 1.93127E-01-9.99196E-02-8.91715E-02 7.09086E-01
 -1      1727 5.84187E-01-1.12789E-01-9.98516E-02-1.63742E-01 9.75625E-03 3.92135E-01
 -1      1728-7.92144E-02-3.86597E-01 6.07713E-02-1.17163E-01 3.43694E-01 2.10628E-02
 -1      1729 4.98195E-01 5.56301E-01 1.40003E-01-2.01636E-01 4.08780E-02-4.88848E-03
 -1      1730-4.84952E-01-6.64875E-01-4.87547E-01 3.26981E-01-7.93305E-01 1.10901E+00
 -1      1731-5.42178E-02-4.85516E-02-7.68119E-02 1.12085E-01 6.61611E-02-9.08927E-02
 -1      1732-1.15163E-01-1.25920E-01 3.10298E-02-5.94321E-02 4.86780E-02-1.79678E-01
 -1      1733-2.92680E-01-3.21394E-01-1.09529E-01 1.19013E-01-5.40358E-02 2.42065E-02
 -1      1734-1.34484E-01-3.77693E-01 1.62272E-01-1.45058E-02-4.06483E-02-3.67141E-02
 -1      1735 4.21385E-01 1.74907E-02 8.28379E-02 5.95509E-02 2.61432E-01 1.00338E+00
 -1      1736-4.74756E-01-3.59748E-01-1.40603E-02 8.67911E-02-2.12072E-02 6.38691E-01
 -1      1737 1.44875E-01 1.43871E-01-9.62812E-02-2.73997E-01 3.02967E-02-3.18498E-01
 -1      1738 1.93478E-01-3.14291E-03 1.99183E-02 2.50368E-01 1.57412E-01 4.81448E-01
 -1      1739-1.12950E-01 1.49284E-01-2.52114E-01-1.22539E-02-6.34278E-02-6.02291E-02
 -1      1740 2.88062E-01 3.96779E-01-1.00631E-01-1.71710E-01-5.24885E-02 3.61582E-01
 -1      1741-9.73859E-03 5.81755E-03 1.65835E-02-2.66402E-03-2.15543E-01 2.31010E-02
 -1      1742 1.68069E-01 2.03007E-02-1.13529E-01 1.63581E-01-2.59045E-01 5.14233E-01
 -1      1743-1.38138E-01-7.85235E-01 7.65376E-02 1.93960E-02 4.80495E-01 5.45996E-01
 -1      1744 1.18000E-01 6.29832E-01-2.20859E-01-3.50097E-01-5.52340E-01 3.19530E-01
 -1      1745 1.83080E-01 4.21701E-01 1.05128E-01-1.54870E-01-8.66337E-01 3.77020E-01
 -1      1746 6.11285E-02 1.01925E-01 1.82944E-01 1.52214E-02 3.16871E-01 3.67757E-01
 -1      1747-2.94043E-02-2.53203E-01-9.77641E-02-5.55201E-02-1.63121E-01 9.44918E-02
 -1      1748 7.17292E-01 4.94167E-01 9.28568E-02 3.50536E-01 2.27962E-01 3.85361E-02
 -1      1749-6.71219E-01-2.57810E-01-6.93051E-02 1.37551E-01 3.38565E-02-1.48321E-02
 -1      1750-3.40789E-01-2.95998E-01-4.46675E-02 2.16840E-01-2.05951E-01 2.75229E-02
 -1      1751 1.71345E-01 2.64976E-02 2.38423E-01 9.15745E-02-3.88831E-01 4.12414E-01
 -1      1752 2.00541E-01 1.21156E-01-8.74236E-02-2.89868E-01 3.90012E-02-9.82505E-02
 -1      1753 6.03576E-02 1.50504E-01 1.25645E-01 4.93194E-02-1.76117E-01 1.82894E-02
 -1      1754 1.26081E+00 6.00607E-01 3.32935E-01 1.17474E-01 2.15645E-02-2.90364E-02
 -1      1755-2.64033E-01-2.34725E-01-2.34945E-01-1.11893E-01 4.81626E-01 3.64901E-01
 -1      1756-2.65866E-01-3.14591E-01 8.28980E-02 9.21818E-02-2.13139E-01 4.22086E-01
 -1      1757 3.15594E-01 3.77347E-01 1.78296E-01-3.03661E-01-2.20592E-01 4.50435E-01
 -1      1758-4.30609E-02 9.08489E-03-4.88196E-02 9.53058E-02 3.13194E-02 7.51655E-02
 -1      1759-1.08706E-02 4.71480E-02 3.49409E-02 8.14371E-02-5.67705E-02 5.02513E-02
 -1      1760-6.27007E-01-5.51719E-01-5.89858E-01 2.02182E-01-4.58868E-01 5.48014E-01
 -1      1761-1.14049E-01-1.13294E-01-3.20138E-03 1.19279E-01 2.04282E-01 4.52536E-01
 -1      1762 4.53527E-01 2.51597E-01 1.75312E-01 2.05628E-01-6.16636E-02-1.17965E-01
 -1      1763-4.95637E-02-2.89752E-02-3.37394E-01-1.59547E-01 1.29635E-01 6.44571E-01
 -1      1764-6.75132E-01-2.77574E-01-1.34204E-01-1.51708E-01 1.73217E-01 5.97609E-01
 -1      1765-1.29348E-01 2.43972E-01 6.59666E-02-1.78650E-01 8.09778E-02-8.34184E-02
 -1      1766-3.29821E-01-2.63625E-01-1.20283E-02 2.96737E-01 5.48605E-02-8.05131E-02
 -1      1767 1.66852E-01 2.92004E-01-7.36668E-02 7.48370E-02 2.55396E-03-1.06865E-01
 -1      1768-1.90248E-01 1.01269E-01-3.28239E-01-1.94655E-02-2.65021E-01 4.52742E-01
 -1      1769 1.09627E+00 6.44663E-01 2.92330E-01-2.54865E-01-7.34593E-01 1.14403E+00
 -1      1770-4.31717E-01 1.28070E-01-1.43993E-02-1.38466E-02-3.46207E-01 1.83461E-01
 -1      1771-9.70007E-01-4.22002E-01-4.62754E-01 4.06136E-01-5.87889E-01 9.79444E-01
 -1      1772 1.02905E+00 5.52053E-01 1.95454E-01 2.68505E-01 1.45199E-01-1.44745E-01
 -1      1773-1.06148E+00-3.59245E-01-7.87672E-02 1.83014E-01 1.16208E-01-1.22016E-01
 -1      1774-2.71140E-02 5.09972E-02 3.93441E-02 1.66615E-02-8.77418E-02-3.14286E-02
 -1      1775 1.28265E+00 5.19489E-01 3.82890E-01 1.28603E-01 9.68800E-03-4.96557E-02
 -1      1776-1.58658E-01-2.06591E-01 2.01854E-02-1.46459E-01 7.24880E-01 4.28269E-01
 -1      1777-1.63058E-01-1.76220E-01 2.17370E-01 1.98742E-01-1.63805E-01 1.11735E-01
 -1      1778-5.96291E-01-2.06772E-01-2.60551E-01 3.53056E-01-1.41456E-01 6.65471E-01
 -1      1779 4.20856E-01 1.55538E-01 2.49938E-01 1.22932E-01 3.72564E-02 1.47804E-01
 -1      1780 3.72921E-01-3.22263E-01 9.25217E-02-1.39168E-01-1.40419E-01 6.11997E-01
 -1      1781-3.60862E-01 2.32161E-01 2.21695E-01 3.94951E-02-9.11163E-03 9.24436E-02
 -1      1782 4.31311E-01 3.89380E-01 1.17867E-01-2.59797E-01 3.43165E-02 2.97027E-03
 -1      1783 3.34747E-02 1.50734E-02 1.28660E-01 1.63401E-01-7.29565E-02-6.80329E-02
 -1      1784-2.85938E-01-1.92665E-01-6.49673E-02-1.21663E-01-2.62207E-01 4.90455E-01
 -1      1785-5.35614E-01-1.23789E-01-3.70771E-01-6.97485E-02-8.90840E-02 6.34847E-01
 -1      1786-1.60671E-01 2.86303E-02-4.05479E-02-2.28719E-02-2.26433E-01 1.14354E-01
 -1      1787 3.19796E-01-2.92619E-02 3.57887E-03 2.25843E-01 1.15504E-01-3.69892E-02
 -1      1788-1.05687E+00-1.15902E-01 2.12903E-01-1.31055E-01 1.56504E-01 1.22813E+00
 -1      1789 2.10637E-01-5.34323E-02 1.20613E-01-3.82820E-02 3.59708E-01 2.31362E-01
 -1      1790 5.61666E-01 4.78423E-02-5.67344E-02 5.43283E-02 1.50764E-01 2.89060E-01
 -1      1791-1.25250E+00-5.50648E-01-1.61076E-01 1.03397E-01-8.12123E-02-1.09081E-01
 -1      1792-4.36777E-02 2.32661E-01 1.14552E-01 1.96818E-02-2.56960E-01 5.02662E-02
 -1      1793-1.11461E+00-5.02789E-01-1.10201E-01 3.62688E-01 1.14217E-01-5.82113E-02
 -1      1794-1.26665E+00-3.12724E-01-2.22122E-01-1.28510E-01-3.02162E-02-7.34392E-02
 -1      1795 5.98557E-02 1.37514E-01 3.58229E-02-1.84337E-01 4.97994E-02 9.17112E-02
 -1      1796 1.23522E+00 5.80613E-01-6.15919E-03 2.55718E-01 6.99096E-03-1.16411E-01
 -1      1797-1.93407E-01 3.89929E-02 1.51545E-01 2.27034E-02-2.40037E-01 4.97281E-02
 -1      1798-2.21966E-01-2.53977E-01-1.01460E-02-1.22177E-01 7.76505E-01 6.86557E-01
 -1      1799-1.41178E-02 1.31766E-01 1.81172E-01 6.42045E-02-3.60881E-01 3.79586E-01
 -1      1800 6.60935E-02-1.31767E-02 5.25148E-02-5.10628E-02-3.52805E-01 3.29011E-01
 -1      1801-9.56053E-02 3.75391E-02-1.27476E-01 3.15095E-02-2.49393E-01 1.73463E-01
 -1      1802 3.64928E-01 2.51393E-01 2.74368E-01 1.32983E-01-4.71886E-01 3.86536E-01
 -1      1803-3.57353E-01-1.86039E-01-2.64508E-01 2.99392E-02-1.55214E-01 1.95696E-01
 -1      1804 5.91128E-01 2.41325E-01 1.47786E-01-2.44333E-01 3.46196E-02-2.16891E-01
 -1      1805-5.19311E-01-3.85672E-01-5.07437E-01-4.18421E-02-2.50585E-01 8.89186E-01
 -1      1806-1.95351E-01-3.24433E-02-5.85064E-02 2.38711E-01-1.14070E-02 4.68541E-02
 -1      1807 1.06224E-01 2.33988E-01 6.47776E-02 5.44711E-02-2.06740E-01 1.00130E-01
 -1      1808-1.07353E+00-5.42202E-01-2.93852E-01 1.56639E-01 1.40111E-02-5.24280E-02
 -1      1809 3.63324E-01-1.08014E-02 2.03097E-01-1.34873E-01 1.20043E-01 8.95629E-01
 -1      1810 8.61302E-01 4.49676E-01 3.52925E-01-2.13949E-01-5.12776E-02-1.05154E-01
 -1      1811-1.21874E-01 9.73962E-02 3.45128E-02-6.28995E-02-4.25536E-01 2.85167E-01
 -1      1812-1.08378E-02-4.82940E-02-1.77338E-01-8.81855E-03-4.94719E-02 3.70941E-02
 -1      1813-4.48584E-01-1.46484E-01 7.87303E-03 1.93605E-01-1.03758E-02-1.77921E-01
 -1      1814 4.08543E-02-3.33012E-02-6.47723E-02 1.69356E-02 2.08464E-02 7.43773E-03
 -1      1815 2.22327E-02-5.45384E-02-6.95607E-03-6.38122E-03-1.00110E-01-4.93311E-02
 -1      1816-6.66429E-02-4.07914E-02-5.24270E-02 3.32448E-02 2.65383E-01 2.82931E-01
 -1      1817-2.85934E-01-1.83255E-01-2.81326E-01 2.65688E-02-1.42223E-01 1.08488E+00
 -1      1818 1.43050E-01 4.89065E-01 1.25058E-01 1.43808E-01 4.71094E-01 3.14053E-01
 -1      1819-5.01641E-01 2.68410E-03-4.01859E-02 1.26589E-01-1.61646E-01 6.02058E-01
 -1      1820 1.00062E+00 4.29470E-01 1.91093E-01 2.91655E-01-1.20531E-01-6.80884E-02
 -1      1821-2.85890E-01-2.03372E-01-1.77393E-01 1.57106E-01-3.59183E-01 2.86011E-01
 -1      1822 5.20573E-01 4.78849E-01 2.06260E-01 2.09260E-01 4.11664E-01 1.39234E-01
 -1      1823-2.81430E-01 5.16443E-01-1.15077E-01 6.55238E-02 2.21156E-01 6.89193E-01
 -1      1824-2.87540E-01-8.41374E-01-7.58004E-02-5.93506E-02 1.78664E-01 1.73467E-01
 -1      1825 4.25132E-01 3.41958E-01 1.14793E-01 1.40579E-01 8.22789E-01 8.36180E-01
 -1      1826-3.06179E-01-2.69377E-01 5.09275E-02-1.41472E-01 3.94181E-02-5.47865E-01
 -1      1827-1.46716E-01-2.89161E-01-1.46337E-01-1.16723E-02 1.96916E-01 8.57640E-01
 -1      1828-5.29720E-02-3.63445E-01-8.48933E-02 4.19891E-02 1.21484E-01 6.92070E-02
 -1      1829-1.11914E+00-5.34178E-01 8.10031E-02-2.90202E-01-7.40808E-02-6.95621E-02
 -1      1830-1.75387E-01-1.54230E-01-9.01578E-02 7.92397E-05-2.22281E-01 4.28660E-01
 -1      1831-8.06248E-01-2.19939E-01-1.77846E-01-1.14869E-01 1.66168E-02 2.25771E-01
 -1      1832 1.55475E-01-8.50069E-02-1.93155E-02 9.03362E-02 1.97491E-01-2.65289E-02
 -1      1833 4.56362E-01 1.26428E-01-2.66953E-01 2.45197E-01 3.16654E-01 2.36269E-01
 -1      1834 1.32707E-01 1.40004E-01 8.13235E-02-1.72132E-01-5.10009E-03 5.72688E-02
 -1      1835-6.33796E-02 4.29286E-02 3.29137E-02-1.91241E-01 4.29788E-03 5.56122E-02
 -1      1836-1.57030E-01 9.38119E-02-1.08978E-01-1.77196E-02 3.10333E-02-9.48611E-02
 -1      1837-3.86353E-02-2.00788E-01-1.76045E-02-1.46167E-01 3.23098E-01 2.13923E-01
 -1      1838 5.79131E-01 2.70079E-01-5.20599E-02 1.77288E-01 1.18292E-01 5.86564E-02
 -1      1839 4.54142E-01 1.33362E-01 5.97386E-02 1.81417E-01 2.65853E-01 6.45134E-01
 -1      1840-8.13537E-01-2.89448E-01-4.39754E-02-4.29543E-02 1.75139E-01 9.95069E-02
 -1      1841-1.01513E+00-4.69651E-01-2.73882E-01-1.91485E-01 5.12828E-02-9.07810E-02
 -1      1842 1.12851E-01 2.15898E-01-8.76222E-02-1.69126E-01-5.21190E-02 8.35558E-03
 -1      1843 5.38215E-01 1.89799E-01 6.18934E-02-1.69045E-01-2.33722E-01 2.73047E-02
 -1      1844 7.45566E-01 6.60474E-01 2.51863E-01 1.37604E-01 1.32148E-01 1.04644E-01
 -1      1845 2.39260E-01 3.11017E-02-1.12732E-01 2.87014E-03 3.26025E-01 4.17009E-01
 -1      1846 4.82176E-02 9.24762E-02-1.20627E-01 3.07287E-02 4.08562E-01 3.30383E-01
 -1      1847 1.17750E-01-5.91618E-02-1.42616E-01-7.46512E-02-1.65357E-01 7.19958E-02
 -1      1848 4.21274E-01 1.35921E-01-9.29399E-02 3.78460E-01 1.18815E-01 5.99863E-01
 -1      1849 4.25166E-01 2.67139E-01 3.99596E-01 1.31408E-01 5.68076E-01 8.51497E-01
 -1      1850-1.15239E-01-4.20290E-01-3.15460E-02 3.20569E-02-2.09064E-01 4.18954E-01
 -1      1851 1.01876E-01 3.51465E-02-5.94582E-03 1.04108E-01 1.27643E-02 4.80581E-02
 -1      1852 2.17636E-01-2.05544E-02 1.01878E-01 2.15369E-02 2.69489E-01 1.45067E-01
 -1      1853 8.46669E-02 6.99677E-02-7.29323E-03-1.62632E-02-1.26262E-01 6.75666E-02
 -1      1854 1.69727E-01-9.15555E-02-1.04964E-02-6.15414E-02-5.62822E-02 4.37632E-02
 -1      1855-1.70283E+00-3.37022E-01-7.25689E-01 2.59414E-01-2.91658E-01 1.01567E+00
 -1      1856 4.05764E-01 4.13508E-01-3.62453E-01 6.71171E-01-3.70112E-01 9.55926E-01
 -1      1857 7.36215E-01 1.34251E-01-2.07243E-02-9.30800E-02-3.00721E-01 2.57177E-01
 -1      1858 2.89059E-01 1.52403E-01 1.36749E-01-3.93463E-02-4.31419E-01 2.73027E-01
 -1      1859-2.73595E-01-6.00084E-02-1.89575E-02 3.91585E-02-2.21484E-01 3.68643E-01
 -1      1860 4.37588E-01-1.45669E-01 1.13200E-01-2.94806E-01-2.46888E-01 4.81795E-02
 -1      1861-5.16632E-01 1.72387E-02 9.26257E-02 1.99384E-01-1.23046E-01-7.55264E-02
 -1      1862-2.72144E-01-5.93793E-01 2.92514E-01 4.95085E-01-3.58832E-01 2.99494E-01
 -1      1863-7.47734E-01-2.83073E-01-1.73619E-01 1.61036E-01-3.15040E-02-1.28785E-01
 -1      1864-3.78307E-01-2.33330E-01-1.75362E-01-1.65226E-01-1.64945E-01 3.91202E-01
 -1      1865 1.71756E-01-2.21532E-01 1.06259E-01 2.39060E-02-2.38614E-01 4.34951E-02
 -1      1866 1.57769E-01 4.28873E-02 4.62353E-02 2.56019E-01 1.84840E-01 3.99219E-01
 -1      1867 7.84445E-02 1.37627E-01 7.49962E-02 4.65637E-01 1.35853E-02-1.68667E-01
 -1      1868 1.09324E+00 3.56323E-01 2.29730E-01 4.91158E-01 3.45732E-02-1.38197E-01
 -1      1869 1.84931E-02 1.49692E-02 2.50865E-02-3.21856E-01 1.28344E-02-9.08848E-02
 -1      1870-2.62332E-01-3.24643E-01-1.98979E-01-1.68684E-01-3.67514E-02 3.90591E-02
 -1      1871 2.22494E-01 2.30599E-01 3.46706E-03-1.16649E-01-1.63621E-01 8.39021E-02
 -1      1872-1.42585E+00-6.21413E-01 1.65894E-02 1.41998E-01-4.82271E-02-3.16753E-02
 -1      1873 4.60684E-01 2.82839E-01 1.49144E-01 2.93660E-01-8.20181E-02 1.16584E-01
 -1      1874-2.30118E-01 4.43437E-02 8.94289E-02-3.61633E-02 2.85432E-01 1.25033E-01
 -1      1875 1.49476E-01 6.16562E-01 6.95424E-01-3.64270E-01-3.22073E-01 6.99133E-01
 -1      1876 1.27876E-02 1.57405E-02 1.40574E-01 1.05002E-03 2.25907E-01 6.65223E-01
 -1      1877-1.14815E+00-4.32384E-01 2.59388E-02 1.08673E-01-7.02106E-02-4.14045E-01
 -1      1878-4.69893E-01-2.36230E-01 3.12656E-02-2.12931E-02 2.56601E-01-9.30385E-03
 -1      1879 6.20433E-02 1.06242E-01 4.19271E-02 1.00647E-01 3.79885E-02-5.84721E-02
 -1      1880-3.20095E-01-1.37612E-01 3.31558E-02 6.57354E-02 4.16123E-01 2.54854E-01
 -1      1881 1.10361E+00 4.73540E-01 1.39287E-01 1.28941E-01 3.26520E-03-9.40029E-02
 -1      1882-9.82787E-01-3.51793E-01-1.69570E-01 9.05767E-02-5.67167E-02-1.03811E-01
 -1      1883-1.07461E+00-3.67301E-01-2.04461E-02-2.74675E-01-3.57358E-04-1.03994E-02
 -1      1884-7.43005E-02 5.53109E-02 9.44943E-02 6.34920E-02-1.09683E-02-4.31992E-01
 -1      1885-3.83531E-01-1.38946E-01-2.16412E-01 5.05843E-02 3.64622E-02-4.63090E-01
 -1      1886-4.45013E-04 5.26824E-02 1.99208E-01-3.19037E-01-1.69884E-02-3.54998E-01
 -1      1887 1.20341E-01-2.87987E-01 2.01807E-01 7.11150E-02-4.02883E-01 2.66054E-01
 -1      1888 6.21955E-01 3.59066E-01 2.69690E-01 1.77808E-01-1.94041E-01 8.49804E-02
 -1      1889-1.19847E-01-1.42115E-02 7.79270E-02 1.42431E-02-1.76916E-01 6.60871E-02
 -1      1890 7.71359E-01 2.89982E-01 1.27337E-02 1.61980E-01-2.17567E-01 3.55309E-01
 -1      1891-1.69502E-01-3.66713E-01-1.73442E-01 2.79760E-01-3.07064E-01 6.77778E-01
 -1      1892 8.81409E-02-8.54053E-02-2.24834E-01-4.56589E-02-2.82705E-02 6.89017E-01
 -1      1893 8.01700E-01 3.83499E-01 6.14169E-01 2.96838E-01 4.76675E-01 9.37159E-01
 -1      1894-1.36807E-01-9.57460E-02 3.99533E-02 1.19412E-01-3.21967E-01 3.89853E-01
 -1      1895 5.23759E-02-7.47093E-03 1.90305E-02-6.88960E-02-2.25651E-01 4.82136E-01
 -1      1896 1.30132E+00 6.15232E-01 3.42613E-01 3.25381E-01 1.21234E-01-6.16658E-02
 -1      1897-1.30676E+00-8.38870E-01-5.11149E-01-4.31848E-02-9.23388E-02-1.16868E-01
 -1      1898-5.37448E-01-5.99572E-01-5.76926E-02 1.26338E-01-9.42975E-02 6.04556E-02
 -1      1899 5.49079E-01 5.01064E-01 3.18375E-01-2.47826E-01-5.49239E-01 1.14650E+00
 -1      1900 8.33593E-01 1.49332E-01-1.92460E-01-1.38179E-01-1.99666E-01 1.21479E+00
 -1      1901-1.05138E+00-4.35161E-01-8.21879E-02-1.81140E-01 4.29238E-02-2.42951E-01
 -1      1902 1.12177E+00 5.40272E-01-5.32835E-02 2.82102E-01 6.68822E-02-1.26649E-01
 -1      1903 9.03534E-02 7.04760E-02 8.71324E-02-2.38294E-01-5.64247E-02-1.61379E-01
 -1      1904 9.50810E-01 1.56260E-01 1.71888E-01 1.64058E-01 2.40254E-01 8.15972E-03
 -1      1905-1.12630E-01-6.42667E-02-5.20192E-02-5.63175E-02 5.22336E-01 3.89589E-01
 -1      1906-3.51747E-01-1.84595E-01-3.47251E-01 1.65397E-01-2.82698E-01 1.05937E+00
 -1      1907-1.07287E-01 7.64949E-02-1.75268E-01-3.68723E-01-3.19999E-02 2.86327E-01
 -1      1908 1.61172E-01 1.01774E-02 3.96495E-02-2.63558E-01 4.16933E-02-2.48237E-01
 -1      1909-8.42108E-01-3.96075E-01-8.99980E-02-3.57089E-01 5.98231E-01 4.97962E-01
 -1      1910-6.70283E-01-2.57357E-01-1.81672E-01 2.60362E-01-8.45324E-02-1.07565E-01
 -1      1911 1.02955E-01-1.17491E-01-3.38839E-01-1.10183E-01-6.98136E-01 5.03573E-01
 -1      1912 3.60002E-01 4.99126E-02 1.86193E-02-3.00482E-02 2.71614E-01 5.31619E-01
 -1      1913 6.44995E-02 3.92021E-01 3.65451E-02-4.98170E-02 3.66470E-01 2.88935E-01
 -1      1914-8.83538E-01-3.45483E-01-7.92911E-02 1.51098E-01-2.11890E-01 6.60234E-01
 -1      1915-6.13076E-02 2.07675E-02-1.77508E-01 3.19791E-03 5.73039E-02 1.09625E-02
 -1      1916-2.43569E-01-2.05156E-01-1.26281E-02 3.10133E-01-1.67455E-01 7.73973E-03
 -1      1917-1.04150E-01 1.88671E-01-6.86978E-03 8.60295E-02-8.07694E-02 1.93493E-01
 -1      1918-1.10681E-02 4.87105E-02-5.74499E-02-4.84788E-02-6.89511E-02-3.89888E-02
 -1      1919 1.99110E-02 9.71361E-02 2.57446E-02 8.72133E-02 5.88555E-01 4.63931E-01
 -1      1920 1.72560E-01-5.73820E-02-1.48542E-01-1.52025E-03-3.27949E-01 5.14719E-01
 -1      1921-1.03370E-01 7.66120E-02-7.17976E-02 8.26564E-02-1.67509E-01 5.69456E-02
 -1      1922-1.43470E-01-1.36171E-01-2.95924E-02-1.58373E-02-1.41220E-01 5.79279E-01
 -1      1923 6.65001E-01 4.54912E-01 1.93196E-01-3.60915E-01 1.60207E-02 1.34626E-01
 -1      1924 1.02518E+00 4.61726E-01 1.58680E-01 6.11558E-02 1.26412E-01-1.16956E-01
 -1      1925-6.03630E-01-5.03560E-01-1.18980E-01-9.50821E-02 2.22507E-01 1.93945E-01
 -1      1926-2.74251E-01 4.08103E-02-1.74583E-02 1.35258E-01 2.23136E-01 2.00981E-01
 -1      1927 2.84103E-01 1.68835E-01 1.01077E-02-1.72231E-01-1.85147E-01 1.93508E-01
 -1      1928 4.53701E-02 6.02567E-02 1.52778E-02 3.38728E-02 8.25877E-02 4.91235E-02
 -1      1929 1.39931E-02-1.86877E-01 5.73210E-02 1.10049E-01 1.65581E-01 1.31620E-01
 -1      1930 3.79893E-01 2.88662E-01-8.02832E-02-1.98193E-01-2.86516E-01-3.14000E-02
 -1      1931 4.42478E-01 1.91126E-01-5.16481E-01-2.30636E-01-7.82185E-01 2.47042E-01
 -1      1932-6.50909E-01-1.73437E-01-3.41102E-01 8.05419E-02-2.91865E-02 5.82998E-01
 -1      1933-1.90787E-01-1.80810E-01-8.24097E-02 6.98753E-02-1.63206E-01 5.91014E-01
 -1      1934 3.51979E-04 1.66239E-01-1.61902E-01 1.86023E-02-9.89710E-03-1.55978E-01
 -1      1935 2.10593E-01 1.27749E-01 1.23061E-01 1.26909E-01 8.25459E-02-8.22136E-02
 -1      1936 5.14875E-01 4.49778E-02-1.61034E-01 7.95108E-02 1.19389E-01 5.21855E-02
 -1      1937 2.44800E-01-7.79110E-01-1.40884E-01 2.59963E-01-7.86726E-01 9.47395E-01
 -1      1938 2.66150E-02 8.01442E-02 1.22547E-02-4.61202E-02 3.69609E-02 4.09523E-03
 -1      1939-4.70406E-01-9.46047E-02-4.93808E-02 1.06156E-01-1.61637E-01-2.28591E-01
 -1      1940-2.13753E-01-2.51850E-01 4.61612E-02 1.90281E-01-1.58486E-02 1.93759E-01
 -1      1941 1.88370E-01 8.74359E-02 4.68329E-02 9.14638E-02-1.76133E-01 4.19205E-01
 -1      1942 7.55639E-01 9.80154E-02 3.80834E-02 1.55102E-01 3.22944E-01 1.02225E+00
 -1      1943-1.18438E+00-5.32936E-01 1.64569E-01 3.62760E-01-6.47720E-03-3.37418E-02
 -1      1944-7.03423E-01-4.87193E-01-2.55682E-01-3.44510E-01 6.65799E-02-7.40154E-02
 -1      1945 6.63397E-01 3.69943E-01 5.92547E-02 3.45545E-01 1.18630E-01-1.74859E-01
 -1      1946-6.37889E-02 2.17988E-01-2.99123E-02-5.55612E-02-1.46910E-01-1.06853E-01
 -1      1947 8.54048E-02 9.74032E-02 1.03506E-01 1.78944E-01 2.79374E-01 6.22679E-01
 -1      1948-4.03547E-01-1.74473E-01-1.64938E-01 3.21542E-01-5.28115E-02-2.47501E-01
 -1      1949 2.61399E-02 2.54271E-03 1.78701E-02-6.74790E-02-7.11551E-02 6.19977E-02
 -1      1950 8.83015E-03-2.26519E-01-1.54747E-02 2.88165E-02-1.68940E-01 1.76259E-01
 -1      1951 5.95839E-01 3.42370E-01 3.94749E-01-8.16008E-02 2.54049E-02-4.10151E-01
 -1      1952-9.02551E-01-2.75537E-01-3.92784E-01 1.75231E-01-8.70176E-02 5.10931E-01
 -1      1953 8.05595E-01 3.90880E-01 1.01329E-01-2.46341E-01-1.40817E-01-1.64908E-01
 -1      1954 6.18887E-01-2.43870E-01-6.72891E-02 3.46588E-01-4.83475E-01 4.77337E-01
 -1      1955 3.57919E-02-5.02572E-01-1.90509E-01-8.86806E-02 5.32754E-01 6.73076E-01
 -1      1956 8.99734E-01 3.67925E-01 1.97374E-01-1.04742E-01-5.59476E-02 1.83532E-01
 -1      1957 2.90586E-01-3.41368E-02 1.91361E-01 3.36758E-02-2.52592E-01 9.26112E-01
 -1      1958-4.29603E-01-3.02578E-01-1.33190E-01-2.49151E-01 3.95928E-02-7.37752E-02
 -1      1959-4.95450E-01-4.04815E-01 8.66410E-03 3.07953E-01-5.34692E-02-4.68799E-03
 -1      1960 6.49462E-01 2.33899E-01 6.33366E-02 2.96817E-01 6.83298E-02-2.00516E-01
 -1      1961 1.56073E-01 1.28566E-01 6.29165E-02 1.15509E-01 7.53710E-02 9.02208E-02
 -1      1962 5.24448E-01 4.51376E-01 1.49323E-01 2.35911E-02 1.64760E-01 3.35318E-01
 -1      1963-4.83015E-01-3.32217E-01-6.57983E-02 3.28284E-01-7.27286E-05-5.67468E-02
 -1      1964 3.44514E-01 6.45995E-01 3.68108E-01 1.96441E-01 4.03882E-01 7.37387E-01
 -1      1965 6.61674E-01 2.63984E-01-3.36173E-02-3.88912E-01-2.95379E-02-5.98361E-02
 -1      1966 1.04278E-01 3.58790E-01 6.08475E-02 1.73604E-01-8.75716E-02 5.13421E-01
 -1      1967 4.56101E-02 7.75489E-01 1.67687E-01-1.26812E-01 4.47830E-01-4.07398E-03
 -1      1968 1.14694E+00 4.57469E-01-2.51862E-01 3.61405E-01 2.23156E-01 2.20421E-01
 -1      1969 8.63172E-01 3.32666E-01 2.26731E-01 1.80317E-01 5.97691E-02-1.31071E-01
 -1      1970 6.14546E-01 4.00550E-01 8.33017E-02-4.63156E-02 5.43104E-02 8.22851E-02
 -1      1971-2.01447E-01-1.42027E-01 8.84102E-03 1.43327E-01 3.26059E-01 1.97680E-01
 -1      1972 1.27405E+00 4.71533E-01 1.29521E-01 1.92706E-01 5.94377E-02-4.03279E-02
 -1      1973-1.35965E-01 4.92016E-02 1.58994E-01-1.56302E-01 2.16613E-03-5.37383E-02
 -1      1974-1.53405E+00-4.90526E-01-1.89099E-01-8.84909E-02-5.84943E-02 1.29101E-01
 -1      1975 1.21879E-01-3.48097E-02-4.44030E-02 1.22528E-01 1.64892E-01 1.55684E-02
 -1      1976 1.38197E+00 5.46504E-01 1.75787E-01-2.48541E-01 9.61757E-02-1.78702E-01
 -1      1977-1.34072E+00-5.21770E-01-7.95036E-02-1.41430E-01 1.06958E-01-2.33587E-02
 -1      1978-1.97683E+00-5.94828E-01-4.40834E-02-1.72176E-01-1.14814E-01-2.67155E-01
 -1      1979-2.65189E-01-4.02792E-01 7.99292E-02 2.99469E-01-3.16033E-01 3.10846E-01
 -1      1980 4.80703E-01 3.00679E-01-9.60016E-02 1.27534E-01 5.36205E-03-6.53465E-02
 -1      1981-2.94896E-01-2.68693E-01 6.62130E-02-1.79893E-01 1.30428E-02 1.18722E-01
 -1      1982 2.93216E-01 2.84263E-01 1.84460E-01-3.64481E-02-5.95934E-02 5.01718E-01
 -1      1983 6.51652E-02-1.52210E-02 2.52216E-01 5.69483E-02 4.52351E-01 7.44335E-01
 -1      1984-3.91620E-01-2.13767E-01-1.99677E-01 7.34353E-03-8.75586E-02-1.27554E-02
 -1      1985-4.57770E-01-2.27157E-01 7.85723E-02-2.10268E-01-3.71414E-02-7.85084E-02
 -1      1986 1.62206E-02-8.33058E-02-2.95530E-02 2.07671E-02-1.75014E-01-5.89642E-03
 -1      1987 1.32070E+00 4.10280E-01-8.49734E-02 1.50815E-03 8.38291E-03 3.20684E-02
 -1      1988-1.21326E+00-5.02696E-01-1.65499E-01-1.75617E-01 3.49336E-02-1.84436E-01
 -1      1989 5.32804E-01 7.83343E-02-2.13507E-02-1.53279E-01-1.04949E-01-5.04383E-01
 -1      1990 4.88260E-02 1.16810E-01 7.62048E-02-7.75572E-02-7.17407E-02-3.90642E-01
 -1      1991-1.23138E+00-4.67951E-01-2.49187E-01-2.12347E-01-1.20767E-02-3.06429E-01
 -1      1992 1.31038E-01 3.05840E-01 8.23157E-02-7.35810E-02 5.41258E-02 1.62100E-01
 -1      1993-3.53276E-01-3.61818E-01-1.69408E-01-2.68478E-01-1.47294E-02 8.72029E-02
 -1      1994 4.56460E-02 1.52711E-01 1.29089E-01-9.85532E-02-5.80802E-02 6.99090E-01
 -1      1995-1.94529E-01-2.04979E-01-1.16206E-01-2.53980E-01 1.45035E-01-3.97200E-02
 -1      1996-6.92181E-01-3.86463E-01 8.43827E-02-3.61378E-01-7.47276E-02 3.99317E-02
 -1      1997 1.67467E-01-6.05788E-02 8.03337E-02-3.90703E-02 2.96986E-01 8.93076E-02
 -1      1998 1.50613E-01 5.30681E-02-4.40265E-04 1.19661E-01 1.51476E-01-6.23251E-02
 -1      1999-9.25134E-01-3.81798E-01-3.04388E-01 5.97357E-02-3.12731E-02-1.42210E-01
 -1      2000 7.78662E-01 5.51903E-01-3.25849E-02 3.06299E-01 2.06880E-01 7.27773E-01
 -1      2001 5.32291E-01 1.26110E-01-1.30834E-01-3.04851E-01-2.02664E-01 6.92385E-01
 -1      2002 8.55255E-01 4.50542E-01 1.75152E-01-2.11134E-01 5.81227E-03 1.07369E-01
 -1      2003-1.43066E+00-6.79780E-01 2.89620E-02-2.55277E-01 2.17195E-02-8.26498E-02
 -1      2004-2.49449E-02-6.15766E-02-1.52762E-01-1.15033E-02-3.48131E-01 2.70806E-01
 -1      2005-8.81712E-01-4.70158E-01-3.62560E-01 8.19084E-02-2.69637E-02-8.55137E-02
 -1      2006 2.63896E-01 2.32225E-01 1.53818E-03 2.86252E-01 5.38259E-02 4.42138E-03
 -1      2007-5.99855E-01-5.59806E-01 1.43267E-01-3.12692E-01 4.47984E-01 6.13592E-01
 -1      2008 9.48514E-02-4.46838E-02 1.21169E-01 5.37348E-01 5.89844E-02-4.06899E-02
 -1      2009-1.40756E-01-2.91986E-01 4.75105E-03-1.62511E-01 5.19584E-01 4.77174E-01
 -1      2010-1.07302E+00-3.76057E-01-1.75463E-01-6.27028E-02 2.09852E-01 7.28271E-01
 -1      2011 8.70211E-02 1.08938E-01 1.09982E-01-2.09278E-02-2.14363E-01 1.95189E-01
 -1      2012-4.47620E-03 1.05839E-01-4.67765E-02 1.13793E-01 6.31130E-03 1.33487E-01
 -1      2013-1.49623E+00-6.01952E-01-6.07909E-02 1.76001E-01 1.21261E-01-1.95866E-01
 -1      2014 1.49425E-01 4.70097E-02 1.68572E-01 4.22426E-02 4.06673E-02-1.31523E-01
 -1      2015-2.91351E-01 4.00515E-02-1.65148E-01-5.80853E-02 6.31987E-02-7.19397E-02
 -1      2016 2.62722E-02-1.26898E-01-2.15341E-03-2.03576E-01-1.11586E-01 2.88154E-02
 -1      2017 2.68803E-01 3.27753E-01-1.31037E-01-3.03902E-01 3.04661E-02 6.71422E-01
 -1      2018-5.64487E-01-2.53137E-01-2.31230E-01-4.48222E-01 3.83041E-01-2.63530E-01
 -1      2019 6.53152E-01 2.85458E-01-2.16292E-01 2.35362E-01 1.07449E-01-7.81980E-02
 -1      2020 7.70890E-02 3.35296E-01 3.01800E-01-2.01474E-02-2.36784E-03-7.09520E-03
 -1      2021 1.36262E-01-3.38966E-01-2.35118E-01 2.95024E-01-3.75871E-01 1.11337E+00
 -1      2022 3.40338E-01 1.82019E-01 1.45324E-01 1.28840E-01 2.80755E-01 8.57608E-02
 -1      2023-8.04331E-02-2.58395E-02 1.54649E-01 9.09841E-02-1.07156E-01-9.23793E-02
 -1      2024-1.93910E-01-2.02402E-01 4.64674E-02-2.50332E-01 1.19123E-01-1.69220E-01
 -1      2025-8.16894E-02-5.08919E-02-5.87875E-02 3.04929E-01 3.24920E-01 2.62855E-01
 -1      2026-6.48863E-01-1.70133E-02-5.20281E-02-2.67904E-01 3.81362E-01-1.72696E-01
 -1      2027-9.15907E-02-4.72538E-02 1.46917E-01-1.93211E-01 3.26161E-03-5.96010E-01
 -1      2028 5.27001E-01 4.24759E-01-1.09472E-01-2.60066E-01-2.39604E-01 4.37813E-01
 -1      2029 5.12104E-01 2.35260E-01 2.65841E-01 2.66591E-01-9.75573E-02-7.27940E-02
 -1      2030 5.25182E-01 4.01682E-01-2.17038E-01 2.05479E-01 1.35711E-01 7.62610E-01
 -1      2031 4.52452E-01 3.25066E-01 1.99184E-01 4.13314E-01-4.26401E-02-2.55137E-01
 -1      2032 9.28125E-02 8.94354E-02 2.19807E-03 6.30889E-02-1.23572E-02-3.67300E-01
 -1      2033 1.00917E+00 5.27147E-01 2.47985E-01-1.63098E-01 6.79710E-02-1.10009E-01
 -1      2034-4.78159E-03 5.82895E-01-7.28534E-02-1.28527E-02-2.01882E-01 1.24393E-01
 -1      2035 3.78364E-02 5.52970E-02-3.25800E-01-2.07465E-01-1.28690E-01-6.48270E-03
 -1      2036-9.92609E-02-3.85429E-02-3.23951E-02-1.98732E-01-1.22571E-01 1.28747E-01
 -1      2037 1.29586E-02 2.15594E-02-3.61908E-02-1.37055E-02 7.81783E-03-2.01080E-02
 -1      2038 5.17908E-01 6.11670E-01 4.05349E-01-3.82015E-01-2.58942E-01 6.49776E-01
 -1      2039 4.19418E-01 1.35346E-01 6.39659E-02 5.35950E-02-3.38387E-01 3.75789E-01
 -1      2040-1.70813E-01-3.18595E-02 7.34119E-02 2.66866E-01 6.41919E-03-2.47697E-01
 -1      2041-1.10754E+00-5.00752E-01-2.10728E-01 1.44864E-01-1.65678E-01 7.19120E-01
 -1      2042 2.70423E-02 1.41189E-01-1.94732E-02-4.77373E-02 3.34283E-01 2.96128E-01
 -1      2043 1.20754E-01 2.21013E-02-9.51954E-03-1.65438E-01-1.74925E-01 1.95859E-02
 -1      2044-1.08204E+00-4.25443E-01-1.57252E-01-1.81632E-01 1.41659E-01-4.42569E-02
 -1      2045-7.46525E-01-4.42984E-01 1.71965E-01-1.97953E-01 1.39165E-01-5.21075E-02
 -1      2046-1.72263E-01-2.08405E-01-1.19984E-01 4.72914E-02 1.12294E-01 7.52616E-01
 -1      2047-8.65299E-02 2.37311E-01-9.71437E-02-2.42837E-02-2.16057E-01 1.18747E-01
 -1      2048-2.56362E-01-1.41628E-02-5.43545E-01 2.52153E-01 9.76031E-01 7.83954E-01
 -1      2049 2.72566E-02-2.78267E-01 1.41671E-01-1.88536E-02-2.91316E-01 4.51222E-02
 -1      2050-1.44700E-01-1.43355E-01-3.35560E-01-1.06169E-01 2.11308E-01 3.08283E-02
 -1      2051 5.43333E-02 2.24255E-01-3.31943E-02-5.63006E-02 1.63097E-01 6.87826E-02
 -1      2052-8.96747E-02 1.75289E-02 9.07454E-02-1.71297E-02-1.02481E-02-3.72461E-01
 -1      2053-2.25454E-01-1.79525E-02-5.65599E-01 2.66062E-01 1.53463E-01 8.38274E-01
 -1      2054-1.27992E-01 8.59190E-02 1.08958E-01-2.18889E-02-6.37134E-03-2.94950E-02
 -1      2055-9.50347E-02-1.38033E-02-1.71202E-01-1.88881E-02 2.89391E-02 4.78790E-02
 -1      2056 1.60106E-01 1.47832E-01 1.98878E-01 9.32980E-02-3.99521E-01 1.48910E-01
 -1      2057-1.69549E+00-6.90872E-01 2.99899E-02-5.74195E-02 3.55379E-02-4.14979E-02
 -1      2058 2.29551E-02 2.10577E-02 2.42501E-01-4.63973E-01-1.56236E-04-1.55888E-01
 -1      2059-5.18814E-01 5.16841E-02 5.86101E-02-1.91661E-01 8.41948E-02 1.77297E-01
 -1      2060-2.23136E-03 1.78927E-01-4.75080E-02 1.35677E-01 2.12783E-02 5.37294E-02
 -1      2061 1.89594E-01-1.34740E-01-3.78086E-02-7.68693E-02-1.50450E-01 7.79697E-01
 -1      2062-4.31346E-01-1.27547E-01 4.51320E-02-3.60880E-01 9.50328E-02-5.41388E-02
 -1      2063-6.21269E-01-7.91243E-02-1.90658E-01 1.63336E-01 4.42158E-02 7.88158E-01
 -1      2064 4.55320E-01 2.03188E-01-1.65944E-03 3.45217E-01 8.36807E-02-1.76228E-01
 -1      2065 4.42207E-01 1.50061E-01-1.57436E-01 2.13806E-01 4.15005E-01 6.21342E-01
 -1      2066-5.77220E-01-3.20557E-01-2.22601E-01 2.20106E-01 1.79125E-01 6.28170E-01
 -1      2067 2.15558E-01 2.51272E-01-2.53895E-01-6.58835E-02-3.04597E-01 1.50334E-01
 -1      2068-1.98571E-01 6.12652E-02-1.12274E-01 1.92240E-02-2.22047E-02-3.07456E-02
 -1      2069-4.58658E-01-3.12236E-01 1.04847E-01 4.01438E-01-1.57265E-02-4.83797E-02
 -1      2070-6.30332E-01-1.01394E+00 3.14437E-01-4.69412E-01 2.60791E-01 3.84815E-01
 -1      2071-7.50837E-01-5.56170E-01-1.15324E-01 1.25973E-01-3.91815E-01 4.62415E-01
 -1      2072-6.98928E-01-5.91370E-01-1.41672E+00 1.99802E-01-2.51424E-01 2.42654E-01
 -1      2073-4.14281E-02 1.52980E-01-1.96451E-01-1.51124E-01-9.48888E-02-5.76090E-02
 -1      2074 3.57755E-01 9.18938E-01 9.25065E-02 3.20875E-01 3.76916E-01 2.20591E-01
 -1      2075-3.34483E-01-7.31397E-02-9.71135E-02-6.65852E-02 3.30339E-01 1.37184E-01
 -1      2076-3.42649E-01-4.11901E-01-1.23991E-02 1.08337E-01 1.91227E-02-8.74589E-02
 -1      2077 2.20309E-01 1.27769E-01 1.36706E-01-1.74122E-01-3.98494E-01 5.41876E-01
 -1      2078-7.77616E-02 1.77665E-01 7.81717E-02-9.67057E-02-3.58833E-01 5.47263E-01
 -1      2079 1.59003E-01 1.28141E-01 1.51828E-01-8.19668E-02-5.61715E-01 4.24123E-01
 -1      2080-1.78330E-01-2.20364E-01-1.37039E-01-1.45007E-01-1.20547E-01 7.07709E-01
 -1      2081-1.28969E-01-1.39121E-01-6.14179E-02-1.30059E-01-2.74013E-01 6.92045E-01
 -1      2082 2.70788E-01 2.14866E-01-7.94769E-02-1.43094E-01-4.29533E-03-1.55262E-02
 -1      2083-4.00183E-01-2.45653E-01-3.22473E-01 2.14240E-01 2.15917E-01 6.15756E-01
 -1      2084 9.67133E-01 2.42831E-01 6.45996E-03 3.24660E-01 3.76956E-02-2.32245E-03
 -1      2085-8.68193E-01-2.88049E-01-3.25517E-01-1.51778E-01 5.08922E-03-1.53204E-02
 -1      2086-5.09972E-02-2.10395E-01-7.04957E-02 3.27806E-02 5.13728E-01 2.68336E-01
 -1      2087 1.20426E+00 1.83543E-01 2.02452E-01 2.12428E-01 9.70760E-02 6.02548E-02
 -1      2088-3.23238E-02 1.40121E-01 2.68993E-01 8.37449E-02-5.75259E-01 4.74075E-01
 -1      2089 3.77048E-02 6.22652E-03 8.79097E-03-1.83805E-01 8.41578E-02-9.15324E-02
 -1      2090 1.04998E-01 1.55056E-01 1.38683E-01-9.43565E-02-5.95621E-01 3.40990E-01
 -1      2091-1.80338E-02-8.79123E-02 9.03913E-02-1.27235E-01 4.11476E-02 7.11903E-02
 -1      2092-1.51845E-01-3.11711E-01-1.68132E-01-2.28957E-01-4.75862E-02 6.25717E-03
 -1      2093-4.04293E-01 7.99256E-02-3.35431E-01-2.96729E-01 2.52391E-01 8.14238E-01
 -1      2094-5.84681E-01-4.70224E-01-2.93677E-01 3.86563E-01 7.00919E-02 2.91343E-02
 -1      2095-4.94445E-01-5.33979E-02-4.23752E-02 4.26379E-02 4.33186E-02-1.75441E-01
 -1      2096-1.02204E+00-4.46585E-01-2.85805E-01 1.92027E-02 5.31125E-02-1.82778E-01
 -1      2097-7.71167E-01-3.17953E-01-6.41938E-02-3.98721E-01-8.04124E-02-1.35228E-01
 -1      2098-1.55262E-01 2.14504E-01-2.32262E-01 6.73422E-02-2.09519E-01 1.65399E-01
 -1      2099-9.16314E-01-3.21737E-01-1.39961E-01-4.42755E-01 8.63080E-02 3.28829E-02
 -1      2100-1.93254E-01-2.77286E-01 2.64408E-01-6.79484E-02 6.06000E-03-3.66723E-01
 -1      2101-1.33551E+00-2.97174E-01 1.49078E-01-1.64291E-01 3.50476E-01 1.62155E-01
 -1      2102 3.93717E-01 3.97681E-01 5.49155E-02 4.15303E-01 2.20753E-01 5.11890E-01
 -1      2103-2.37057E-01-1.39451E-01 6.86835E-02 1.30057E-02 6.20554E-02 3.36169E-01
 -1      2104-2.00859E-01-3.29158E-01-2.69048E-01 4.96314E-02-3.41519E-01 1.76593E-01
 -1      2105-4.82013E-02 2.29862E-02-8.98176E-02-7.20740E-02 3.00766E-02 2.22409E-02
 -1      2106-1.41934E+00-8.20285E-01-2.83498E-01-3.18712E-01 8.25254E-03-1.90327E-01
 -1      2107 1.02002E+00 3.29581E-01-4.61532E-02 3.45323E-01 2.45294E-02-5.28447E-02
 -1      2108-5.79670E-01-5.54651E-01-3.30450E-02 2.28086E-01-2.74871E-02-1.46391E-01
 -1      2109-1.46203E-01 2.66774E-02 7.51175E-02-6.34643E-02 4.21765E-02 8.36062E-01
 -1      2110-4.19338E-01-5.21384E-01 2.69428E-01 5.33615E-01-5.44219E-01 3.46396E-01
 -1      2111 2.84091E-01 9.29737E-02 5.46788E-01-3.00882E-01-9.47249E-03 1.01343E+00
 -1      2112 9.93997E-02 2.82523E-01-1.74928E-02-2.96516E-01-4.44532E-01 5.05712E-01
 -1      2113-1.65982E-01-2.68637E-01-6.92701E-02 2.63013E-01-5.05848E-02-6.41058E-02
 -1      2114 2.72393E-01 3.83717E-02-7.41594E-02 1.48615E-01 3.29574E-01 5.48316E-01
 -1      2115-1.51939E-01-2.55719E-01-1.66142E-01-3.56695E-02 3.35711E-02 8.02149E-01
 -1      2116-8.73793E-01-3.97777E-01-6.26212E-02-1.86455E-01 6.32110E-02-1.37261E-01
 -1      2117-5.27500E-01-1.17641E-01-4.05848E-01-5.64510E-02 6.47277E-02 7.33735E-01
 -1      2118-3.53349E-01-1.33498E-01-3.96942E-01-9.94365E-02 4.10488E-01 1.10173E-01
 -1      2119-8.88089E-02-9.07067E-02 3.78871E-03 9.09050E-02 1.35670E-01-3.89600E-01
 -1      2120-8.44892E-01-5.15666E-01-4.15605E-02-8.00380E-02 2.81222E-01 4.84201E-01
 -1      2121 9.89740E-01 3.77214E-01 1.14456E-01-4.65810E-01-2.69656E-02 5.66698E-02
 -1      2122-9.00888E-01-7.33675E-01-4.32341E-02-2.22901E-01-3.01831E-01 1.70228E-01
 -1      2123-2.22169E-01-1.87947E-02-2.63896E-01-2.94584E-02 3.50102E-02 1.18312E-01
 -1      2124 2.59652E-01-1.77496E-02 4.63075E-02-1.22490E-03-2.77711E-02-3.06757E-02
 -1      2125-1.63969E-01 2.19478E-01 2.27062E-02 7.63942E-02 6.20016E-02 6.06904E-01
 -1      2126 1.51554E+00 5.63981E-01 9.85619E-02 1.27581E-01-4.91040E-03-1.75590E-01
 -1      2127-1.22118E+00-7.46253E-01-1.41493E-01 7.67151E-02-1.77703E-01 1.38729E-01
 -1      2128 5.62533E-01 3.06327E-02 7.39433E-02 5.53273E-02-8.51038E-02 9.32902E-01
 -1      2129 3.93505E-02 4.06285E-02 3.33339E-02 6.96993E-02-3.18625E-02-4.24679E-01
 -1      2130-6.49761E-01-1.74163E-01-5.11671E-01 3.36740E-01-7.46562E-02-1.25189E-01
 -1      2131 1.05011E+00 4.20468E-01 5.18042E-02-2.59475E-01-1.09704E-01-1.10167E-01
 -1      2132 1.55459E+00 4.43108E-01 3.38781E-02 8.91140E-02 3.97074E-02-2.57762E-01
 -1      2133-8.19609E-02-5.22775E-01-2.96940E-01 1.03379E-01-4.66011E-01 3.69578E-01
 -1      2134 7.33208E-01 4.53160E-01 8.57637E-02-3.89350E-01 5.66308E-03-1.51117E-01
 -1      2135-1.37430E+00-7.01292E-01-5.20048E-01 9.92153E-02-7.88284E-02-1.63539E-01
 -1      2136-3.36296E-01 4.15430E-02-2.93880E-02-1.32534E-01-5.81531E-02-1.71711E-01
 -1      2137 2.62148E-01 4.34627E-02 1.52233E-01 2.55022E-02-1.07437E-01 5.58959E-02
 -1      2138-1.35328E-01-2.63653E-01-1.61470E-01 1.86376E-01 1.13199E-01-3.49844E-03
 -1      2139-1.26917E-01-3.70510E-01-9.30270E-02 8.55422E-02 1.71063E-01 5.41059E-01
 -1      2140-7.19914E-01-2.38519E-01 4.18151E-02-3.06012E-01 4.22478E-02-1.52867E-01
 -1      2141-8.16636E-01-3.89222E-01-2.01612E-02-1.80278E-01-3.22785E-02 2.21420E-01
 -1      2142-1.02792E+00-1.74302E-01-2.07812E-02-2.32166E-01 9.28805E-02 4.43266E-03
 -1      2143-1.07049E+00-4.63182E-01-1.34322E-01-1.17466E-01 1.54865E-01-4.09274E-02
 -1      2144-2.13945E-01-1.40559E-01-2.63130E-01-7.93869E-02 5.40182E-01 4.59708E-01
 -1      2145 1.61032E+00 7.25572E-01 1.09129E-01 9.34415E-02 5.48499E-02-9.43636E-02
 -1      2146-6.40228E-01 1.53267E-01 1.75711E-01-1.39625E-01-6.99616E-02 9.09584E-01
 -1      2147 1.55927E-01-8.59175E-02-6.21253E-02-2.04203E-01-6.66736E-02-7.26271E-02
 -1      2148-4.19270E-01 3.07679E-01 7.45338E-02-7.76680E-02-2.81510E-02 2.31589E-02
 -1      2149-2.49488E-01-4.80787E-02-1.85188E-01 8.09438E-02-9.58561E-02 2.66205E-02
 -1      2150 3.60682E-02 8.83254E-02 2.85897E-02 8.28927E-02-7.52318E-02 5.94238E-03
 -1      2151 1.25699E+00 2.57631E-01-2.53788E-01-4.66380E-01-3.47987E-01 3.97351E-01
 -1      2152-8.70422E-03 6.38063E-02 3.53306E-02-6.85042E-02-2.64747E-02-3.71636E-01
 -1      2153-4.01572E-01 2.34739E-02-3.13850E-02-5.10980E-01 3.82721E-02-8.86450E-03
 -1      2154-6.08460E-01-1.46242E-01 9.18299E-02 6.82257E-02 5.74820E-02 6.75176E-01
 -1      2155-3.02498E-01 2.13089E-02 2.17406E-01 3.07738E-02-1.58233E-01 7.33177E-01
 -1      2156-1.01197E+00-4.41113E-01-1.38864E-01 4.08101E-01-3.13522E-01 1.50276E+00
 -1      2157 2.32793E-01 1.03470E-01 7.93945E-02-3.16974E-01-6.25713E-02-1.25921E-01
 -1      2158-7.20262E-01-2.89390E-01-1.07174E-01-3.33292E-01 1.37190E-01-6.47588E-02
 -1      2159 4.77425E-01 4.20048E-01-9.81652E-02 1.97440E-01-1.20805E-01 9.98541E-03
 -1      2160-1.70118E-02-2.90894E-01-3.78432E-02 8.05008E-02 1.57722E-01 3.32422E-02
 -1      2161 3.98397E-01 3.71220E-01 1.99827E-02 1.01324E-03-6.97372E-02-2.05491E-03
 -1      2162 9.43181E-01 5.30263E-01 1.67215E-01-4.77439E-02 2.99712E-02-1.02669E-01
 -1      2163 5.27632E-01 4.38950E-01-7.28092E-03-1.48895E-01-8.26977E-02 9.52574E-02
 -1      2164-1.14189E+00-3.83403E-01-3.36430E-01-6.36363E-02 6.35352E-02-2.96810E-02
 -1      2165 7.40581E-01 4.91550E-01 2.40210E-01-2.21398E-02 7.02058E-02-8.03498E-02
 -1      2166-1.14525E+00-4.07013E-01-1.67140E-01 2.34010E-01-1.25972E-01-6.94939E-02
 -1      2167-3.28718E-01-5.29300E-01-2.63700E-01 2.73284E-02-1.10631E-01 2.48217E-01
 -1      2168-2.53049E-01-2.56660E-01-1.60387E-01 1.60807E-01-6.25905E-01 9.33791E-01
 -1      2169-1.27503E-01-6.67603E-02 7.00332E-02 3.24626E-01 5.25943E-02-1.43545E-01
 -1      2170 2.36478E-01 2.85025E-01 1.41453E-01 1.61554E-01 5.84705E-02-9.71167E-02
 -1      2171 2.34207E-01 1.99550E-01 2.96683E-02-1.07377E-01-2.02056E-03-3.56101E-01
 -1      2172 7.35895E-01 3.47821E-01 1.65244E-01-2.65020E-01 7.38890E-02-1.04635E-01
 -1      2173-4.89729E-01-2.71156E-01-3.11102E-01-3.16169E-01 1.67934E-01-2.53207E-01
 -1      2174-8.76050E-02-3.84798E-01-6.29729E-02-7.05368E-02 2.07572E-01 3.11554E-02
 -1      2175-1.08452E+00-4.08306E-01-1.78860E-01-9.07336E-02 3.07837E-01-1.60621E-02
 -1      2176-2.74371E-01-1.24155E-01-2.97128E-01-1.16283E-01-3.49416E-01 1.14154E+00
 -1      2177-1.50439E-01-2.58882E-02-2.14422E-01-4.21523E-01-7.83236E-02-1.81370E-01
 -1      2178-1.34355E-02-3.61757E-01-5.23477E-02 7.93389E-02 8.65240E-02-7.76443E-02
 -1      2179-3.94353E-01-1.75884E-01-8.46650E-02 3.72514E-01-7.13811E-02-3.95383E-01
 -1      2180 6.11119E-01 4.07681E-01 1.22913E-02 1.68966E-01-1.91631E-01 4.13978E-01
 -1      2181-4.53180E-01-2.84767E-01-1.73815E-01-2.50285E-01 5.88518E-01 4.37995E-01
 -1      2182-1.12452E-01-1.84408E-01-4.55644E-02 3.20106E-01-1.54530E-02 3.94419E-02
 -1      2183-1.26058E+00-6.22012E-01-2.85096E-01 1.35659E-01 2.05023E-02-4.29891E-01
 -1      2184-3.84353E-01-2.27681E-01-1.56697E-01 1.07391E-01-2.62937E-02 2.63706E-02
 -1      2185 8.73711E-01 4.38983E-01 2.58783E-01 1.78614E-01-1.06226E-01 2.65042E-01
 -1      2186 1.05246E+00 7.36801E-01 2.37066E-01 5.23175E-02 1.88227E-02-8.87797E-02
 -1      2187-9.34843E-01-2.22325E-01-8.94500E-02 1.57385E-01-3.22911E-01 6.88202E-01
 -1      2188-9.54350E-02 2.64128E-01 1.25492E-01 2.47470E-02 2.16268E-01 1.54185E-01
 -1      2189-1.00261E+00-4.58321E-01-1.87797E-01-1.05250E-01-6.81689E-02-7.35432E-02
 -1      2190 7.54658E-01 2.49194E-01 1.35626E-01-3.91126E-01 1.84483E-03-1.45756E-01
 -1      2191-3.90595E-01-4.26022E-01-4.93965E-01 1.68652E-01-9.65887E-01 4.76815E-01
 -1      2192 8.50856E-02 1.11333E-01 5.13806E-03 1.25859E-01 9.54809E-02-7.50502E-03
 -1      2193 1.70313E-01-1.22388E-01 7.23276E-02 1.67913E-01 9.11444E-02 5.51675E-03
 -1      2194 6.79291E-02-5.72320E-02-1.05120E-01 1.48309E-01 1.51066E-01-1.17257E-01
 -1      2195 1.09530E+00 4.11855E-01 2.12903E-01 2.73458E-01-2.33523E-02-2.46615E-01
 -1      2196-1.22693E-01 5.70460E-02 1.64514E-01-4.53915E-02-2.16941E-01 1.67466E-01
 -1      2197-1.44711E-04-1.69988E-01 1.84044E-01-1.67201E-01-8.32380E-02 8.36446E-01
 -1      2198-3.23227E-01 7.21562E-03 6.13994E-02 3.79450E-02 4.24173E-02-4.85383E-01
 -1      2199 2.51577E-02 5.02120E-02 4.40540E-02 1.15325E-01 6.69551E-02-3.86070E-01
 -1      2200-5.86661E-03-8.04349E-03-1.68492E-01 9.46028E-02 2.63881E-01-1.69423E-01
 -1      2201 5.04493E-02 2.58172E-01 1.13721E-01-5.95007E-02-2.08560E-01 1.91555E-01
 -1      2202-5.00323E-02 8.86513E-03 1.63418E-02 2.30506E-01-6.43109E-02-8.67529E-02
 -1      2203 1.87310E-01-1.52706E-01 1.01362E-01-3.29889E-02-2.51733E-01 1.48997E-01
 -1      2204 1.74402E-01-6.68438E-02 8.04659E-02-9.64068E-02-2.28156E-01-1.70125E-02
 -1      2205-9.80607E-01-5.12676E-01-8.94216E-02 1.12264E-01 1.71115E-01 2.97363E-01
 -1      2206-5.24810E-01-3.40896E-01-1.44452E-01-3.96410E-01-1.21716E-01-3.32802E-01
 -1      2207 2.02515E-02-9.77975E-03 3.02962E-02-3.83706E-02-7.70756E-02 7.45974E-03
 -1      2208-3.05048E-01-7.22911E-01-3.61036E-01-2.79327E-01 6.44116E-01 7.03292E-01
 -1      2209-2.55630E-02 2.13758E-02 2.50630E-02 2.98830E-01 1.77845E-02-7.18209E-02
 -1      2210-2.99010E-01-1.60005E-01-1.61660E-01-9.52574E-02-3.15320E-01 2.37719E-01
 -1      2211-1.10105E+00-2.92749E-02-2.98027E-02-2.81273E-02-1.00678E+00 6.83453E-01
 -1      2212-1.67528E-01-5.74713E-02-5.55456E-02-2.47417E-01-5.30638E-01 7.15984E-01
 -1      2213 1.30226E-01 7.13391E-02 1.59230E-01-5.78773E-02 4.64831E-02-4.47571E-01
 -1      2214-2.79945E-01-8.19278E-01-1.35448E-01-1.74777E-01 6.06198E-01 2.69363E-01
 -1      2215-1.24018E+00-2.15171E-01 7.04920E-02 4.88884E-02-2.44711E-01 1.05016E+00
 -1      2216-2.98546E-01-2.57200E-01-6.26759E-02 6.26668E-02 2.11576E-01 5.28197E-01
 -1      2217-2.10490E-02 2.59517E-01 1.59630E-01-2.43295E-02 2.90000E-01 1.68167E-01
 -1      2218-2.26474E-01-2.00494E-01-4.25341E-02-2.47695E-01-2.24399E-02-1.04190E-02
 -1      2219-5.91476E-01-2.89462E-01 2.27194E-02 1.51949E-02-3.75344E-02 1.73728E-01
 -1      2220 8.80015E-02 2.81612E-01 7.07410E-02-2.44916E-01 2.71695E-02-1.54241E-02
 -1      2221 5.45066E-01 3.46507E-01 2.02048E-01-2.21595E-01-2.94262E-02-1.67523E-01
 -1      2222-7.10920E-01-3.84872E-01-2.90072E-01-2.50526E-01 1.61116E-02-6.42220E-02
 -1      2223 1.32618E+00 8.12442E-01 3.30943E-01-5.94920E-02 2.56295E-02-4.19971E-02
 -1      2224-3.88228E-01-2.43262E-01 9.81831E-02-2.32690E-01-5.94957E-02 1.25964E-03
 -1      2225-3.48353E-01-4.60465E-02 8.79768E-02 5.91546E-02-6.58096E-02-5.94530E-02
 -1      2226 1.65295E+00 8.30317E-01 1.41363E-01 1.45407E-01 4.83913E-02 9.04878E-02
 -1      2227-1.18969E+00-4.53737E-01 2.21582E-01 2.62765E-01 8.34070E-03-4.71009E-02
 -1      2228-5.65318E-01-3.11468E-01-3.89307E-01 1.00121E-01-1.51652E-01 8.42115E-02
 -1      2229 6.00954E-01 3.51213E-01-2.28093E-03 4.70526E-01 1.39174E-02-2.64523E-01
 -1      2230-9.63765E-01-4.68978E-01 7.19542E-02-1.87690E-01 7.28140E-02 2.38764E-01
 -1      2231-1.61691E-01-1.77970E-01 4.41754E-02 1.35524E-01 3.02501E-02-4.16377E-02
 -1      2232-1.20493E+00-5.03491E-01-2.21911E-01-1.05924E-01-5.35349E-02-5.69994E-02
 -1      2233 1.30597E-01 1.24577E-01 1.68280E-02-1.48679E-01-6.84731E-02 4.33207E-02
 -1      2234-1.40875E+00-7.41913E-01-2.47204E-01 2.90708E-02 4.36148E-02-3.64143E-02
 -1      2235 1.79335E-01 3.22745E-03-1.12770E-01-1.18801E-01-2.32205E-01 2.70961E-02
 -1      2236 1.28620E+00 4.11914E-01 1.76879E-01-2.47693E-02 1.34784E-01-7.45959E-02
 -1      2237 6.31263E-02 2.68146E-01 2.46754E-01-1.56144E-01-7.79481E-02-8.23160E-02
 -1      2238 2.02782E-01-1.10143E-02 2.57949E-03 8.75361E-02-4.67502E-01 7.45335E-01
 -1      2239 1.51842E-01-7.36388E-02-8.01245E-02 1.89401E-01 3.87887E-01 4.19710E-01
 -1      2240-1.36760E+00-8.88960E-01-2.03334E-01 4.97566E-01-4.00652E-01 8.06485E-01
 -1      2241-7.23025E-03 1.63297E-01 1.47674E-01-6.87340E-02 1.79726E-01 1.30215E-01
 -1      2242 1.20620E+00 5.54730E-01 2.71751E-01 1.81126E-03 5.56362E-02 4.51017E-02
 -1      2243 7.93392E-02-3.19904E-01 5.40731E-02-1.10890E-01-2.27486E-01 1.09496E-01
 -1      2244-1.60853E-01-6.25131E-01 5.36515E-02 9.78890E-02-2.20317E-01 2.19495E-01
 -1      2245-3.58449E-01-1.84308E-01-8.17096E-02-2.05657E-01 2.94506E-02-8.40778E-02
 -1      2246-3.51310E-01 5.24465E-02 8.70957E-02-1.62836E-02 2.41496E-01 1.51741E-01
 -1      2247 1.98143E+00 7.46964E-01 1.33960E-01-6.23916E-02-5.30480E-02-1.14416E-01
 -1      2248-8.52329E-01-3.76578E-01-2.55697E-01 3.20979E-01-9.85484E-02-2.30044E-01
 -1      2249 2.00612E-01 4.02342E-01 2.75368E-01-6.54589E-02-2.86192E-01 2.36467E-01
 -1      2250-4.99902E-02 1.51426E-01 5.96401E-02-6.61915E-03 3.74301E-01 1.81331E-01
 -1      2251-1.90021E-01-5.38570E-02 3.74973E-02-1.52368E-01 3.00296E-01 9.99888E-02
 -1      2252 7.41206E-01 1.22483E-01 8.99317E-02 2.29138E-01 1.19946E-01-1.04636E-01
 -1      2253-2.49854E-01-1.80824E-01-7.17850E-02 1.84147E-01-2.53668E-01 4.58388E-01
 -1      2254-3.54657E-01-2.78531E-01-3.31634E-01 1.36130E-01-7.42995E-01 8.33826E-01
 -1      2255 2.68769E-01 2.54768E-01-1.04109E-01 3.25952E-02-1.72881E-01 8.91657E-02
 -1      2256 6.22658E-02 1.55470E-01 5.05743E-01 1.08230E-01 4.38093E-01 1.13859E+00
 -1      2257 1.95415E-01 1.68468E-01 6.27271E-02-2.52275E-01 4.60700E-02 3.26023E-02
 -1      2258-1.43807E-01-1.59752E-01 9.98970E-03 3.84215E-01-2.98240E-01 5.32126E-01
 -1      2259 4.91151E-01 2.63926E-02 3.35315E-02-3.33905E-01-1.03454E-01-1.82231E-01
 -1      2260 7.22186E-01 3.96180E-01 2.95090E-01-3.70083E-01 6.34716E-03-5.31474E-02
 -1      2261-1.05896E-02-3.69580E-01 4.99571E-02 5.46304E-02 1.02124E-01 9.05731E-02
 -1      2262 2.92195E-02-3.37872E-02-6.77956E-02 1.41082E-01 2.99943E-01 5.27987E-02
 -1      2263-1.38975E-02 1.02443E-02 6.53991E-02 3.49191E-01-3.27044E-02-2.29570E-01
 -1      2264 8.29391E-02 3.74424E-01 7.97281E-02-1.54579E-01 2.09204E-02-7.73925E-02
 -1      2265-1.07569E-01 7.46318E-01 1.39157E-01-5.75109E-02 5.77200E-01 4.43830E-01
 -1      2266-9.77757E-02 1.52979E-01-1.09744E-01 1.49374E-01-8.68267E-02-8.85351E-02
 -1      2267-1.15861E-02 9.01229E-02 2.68329E-01-4.87083E-02-6.56796E-01 6.01183E-01
 -1      2268-4.23848E-02 3.62698E-02-3.86606E-02 5.56221E-02 1.44851E-02-1.01027E-02
 -1      2269 1.05023E-01 3.08567E-01-3.08968E-02 7.39766E-02-2.61427E-02-7.30624E-02
 -1      2270 2.54688E-02 1.62861E-02-5.64281E-02-4.64253E-01 6.22540E-02-2.17117E-01
 -1      2271-7.02874E-01-3.66101E-01-2.19831E-01 2.79229E-01-3.45524E-02-1.94566E-01
 -1      2272-9.53697E-01-1.74821E-01-1.28404E-01 2.97542E-01-7.79318E-02-1.72155E-01
 -1      2273 4.08182E-01 2.75666E-01-1.21651E-01-1.49038E-01-1.69936E-01-9.79870E-02
 -1      2274 3.77757E-02 1.44236E-01 5.88253E-02-7.90555E-02-5.01989E-02 4.78944E-02
 -1      2275-1.58649E-02-2.03477E-01 4.70861E-02-2.61286E-02-1.99789E-01-2.03747E-02
 -1      2276-8.45867E-01-4.02776E-01-3.48520E-01 2.22430E-01-1.60658E-02 1.06668E+00
 -1      2277-4.30436E-02-1.63490E-01 4.49457E-02 9.91946E-02-3.36746E-02 8.79753E-02
 -1      2278-1.72038E-01-2.62394E-01-2.05371E-01 2.25992E-03 9.23781E-02 8.18600E-02
 -1      2279-1.00816E-01-2.20990E-01-1.34510E-01-1.32748E-02-1.31931E-02 2.05592E-02
 -1      2280-6.87785E-01-5.86451E-01-1.64872E-02-3.27593E-02 5.14161E-02 2.25958E-01
 -1      2281 7.34308E-01 2.50709E-01 3.26383E-01 3.83995E-01 8.44150E-02-1.43563E-01
 -1      2282-2.48857E-01-2.14721E-01-3.77542E-01-1.34327E-01 3.57760E-01 1.21395E-01
 -1      2283-1.58049E+00-3.99583E-01 1.48181E-01 1.31794E-01-5.37634E-02 1.14970E-02
 -1      2284 8.05661E-01 3.60666E-01 2.20674E-01 1.41949E-01-2.13050E-02-8.40490E-02
 -1      2285 8.12424E-01 4.63395E-01-9.80581E-02 1.76393E-01-7.06197E-03 8.74534E-02
 -1      2286 3.07848E-01 3.77057E-01 3.19509E-01 4.21051E-02 1.98996E-01 3.23442E-01
 -1      2287-5.60498E-01-2.04703E-01 7.30044E-02-3.64587E-01-7.74038E-03-1.50824E-01
 -1      2288 2.20760E-01-6.38952E-02 3.14857E-02 8.47851E-02-1.47130E-01 5.61104E-01
 -1      2289-1.31969E+00-6.49904E-01-1.49808E-01-2.16282E-01-1.53288E-01-2.87289E-01
 -1      2290 1.04775E+00 4.83409E-01-5.90850E-02 5.52951E-02-1.89778E-01 2.05831E-01
 -1      2291 4.12299E-01 2.08204E-01-6.37904E-02-3.44395E-01-3.44955E-02-1.41385E-01
 -1      2292 2.11146E-01 1.95811E-01 3.57718E-02 1.88903E-01 8.45179E-02-2.40766E-02
 -1      2293-1.18626E+00-4.66499E-01-1.99177E-01-3.38118E-01 8.00427E-02-2.09729E-01
 -1      2294 3.25345E-01 1.44015E-01 4.49774E-02 3.87411E-01 7.94410E-03-1.70311E-01
 -1      2295 2.74385E-01-3.39338E-02-2.08906E-01 7.53035E-02 1.70015E-01-2.38573E-01
 -1      2296-2.52409E-01 9.23511E-02-5.74565E-02 4.55235E-01-1.26392E-01-1.93083E-01
 -1      2297 7.62989E-01 1.81307E-01 3.12480E-01-1.07365E-02 1.31325E-02-8.47023E-02
 -1      2298 9.61798E-01 4.44503E-01 1.85849E-01-1.57031E-01 4.58992E-02-7.13785E-02
 -1      2299 4.72153E-02-1.58140E-02-1.66279E-03-6.75757E-02 1.97613E-02-3.73614E-03
 -1      2300 3.82093E-01 6.39539E-02 2.98699E-01 3.00243E-01-8.22421E-03-3.05733E-01
 -1      2301-1.25115E-01 6.61293E-02-1.01488E-01 3.19987E-02 3.57212E-02 1.25856E-01
 -1      2302 9.93892E-02-1.49280E-01-1.62249E-02 6.20090E-02 4.52638E-02-6.06530E-02
 -1      2303-1.36279E+00-7.53750E-01-2.35424E-01-8.54122E-03 6.38736E-02-2.09816E-01
 -1      2304 1.76496E-01 1.90225E-02-1.06747E-02-1.34192E-01-1.41799E-01-3.78952E-02
 -1      2305 1.50047E+00 5.06536E-01 5.92402E-02 2.14496E-02 3.37148E-02 8.88253E-02
 -1      2306 9.78800E-02-5.87796E-02-1.58269E-01 4.01168E-02-2.92621E-01-2.61581E-02
 -1      2307-5.28664E-01-3.98826E-01-4.04145E-02 2.25248E-01-1.02491E-01-6.52226E-02
 -1      2308-8.17488E-02-3.98991E-01-4.56759E-02 7.73822E-02-2.97142E-02 2.61488E-01
 -1      2309 5.78309E-02 1.66886E-01 7.55180E-02-3.64385E-02 5.57237E-02 8.95362E-02
 -1      2310 7.74321E-02 7.29076E-02-2.94703E-02 2.03834E-01 3.56916E-02-1.10775E-01
 -1      2311 1.13887E-01 2.19309E-01-2.09028E-01-1.62139E-01 1.41064E-02-4.19391E-01
 -1      2312 9.65391E-01 2.42706E-01 8.65282E-02-1.31340E-01-1.19946E-01-1.71308E-01
 -1      2313 6.17150E-01 3.45774E-01 2.91236E-01-4.46492E-01-1.05241E-02-1.75862E-01
 -1      2314 1.04904E+00 3.78237E-01 2.06190E-01-2.95696E-01-7.70687E-02 1.39036E-02
 -1      2315 3.84396E-01 2.51466E-01 1.66371E-01 2.15832E-01 5.82082E-02-1.08837E-01
 -1      2316 1.49310E-01 1.57638E-01 3.25568E-02 1.28835E-01 5.69923E-02-1.40816E-03
 -1      2317-8.08683E-01-4.52286E-01 1.18431E-01-2.41712E-01 7.10952E-03-1.23150E-01
 -1      2318 3.03507E-01 1.37326E-01 3.58868E-02 4.93721E-01 8.31110E-02-1.43450E-01
 -1      2319 7.85061E-01 2.37995E-01 2.48734E-01 4.03969E-01 1.81546E-02-1.16040E-01
 -1      2320 7.15005E-01 1.06216E-01-8.35025E-03 2.37364E-01 4.03642E-01-2.31585E-02
 -1      2321 3.33967E-01 7.07700E-02-1.57862E-01 2.25334E-01 1.96689E-01-3.39841E-01
 -1      2322-4.95333E-01-4.85782E-02 5.10993E-02 5.12184E-01 9.51152E-02-1.64293E-01
 -1      2323 2.64537E-02 5.23053E-03 1.83164E-03 2.70671E-01-1.52126E-01-5.28822E-01
 -1      2324-7.43262E-01-2.26372E-01-2.21197E-01 3.23140E-01-2.64276E-01-2.00834E-01
 -1      2325-7.42767E-03-7.97671E-02 3.49572E-03 3.91116E-01 6.69906E-03-2.78741E-01
 -1      2326-1.92341E-01 1.12838E-01 1.51698E-01 1.86604E-01 2.58405E-02-4.63985E-01
 -1      2327 1.14508E+00 7.06220E-01 9.76509E-02-3.36879E-01-7.94906E-02-1.40035E-01
 -1      2328 9.88858E-01 5.60978E-01 3.57047E-01-1.02024E-01 5.35706E-02 8.26689E-02
 -1      2329 1.60298E-02-1.05222E-01-9.16968E-03-1.06519E-01-5.82831E-02-5.05811E-03
 -1      2330 1.11556E+00 3.33819E-01 1.69249E-01-1.28175E-01-3.63682E-03-7.55664E-02
 -1      2331-8.64205E-01-6.36641E-01-2.20225E-01 1.81337E-01 1.00167E-03-4.25337E-02
 -1      2332 9.38995E-01 2.39097E-01 9.15117E-02-2.87786E-01-2.82407E-01-8.45846E-02
 -1      2333 6.03202E-01 6.72493E-01-1.63464E-01 1.19623E-01 3.09517E-03-5.23946E-01
 -1      2334 1.05512E+00 4.21720E-01-9.02893E-02-3.16233E-01-6.90092E-02 5.28377E-02
 -1      2335 8.82280E-01 2.44924E-01 2.64854E-01-1.62780E-01-1.34697E-01-1.77218E-01
 -1      2336 4.16966E-02 2.63426E-01-9.09250E-02 2.66697E-01-2.68705E-02-1.43029E-01
 -1      2337 2.67623E-01 1.65033E-02 1.86302E-01-3.36370E-02 7.35713E-02-5.52988E-01
 -1      2338 1.04392E+00 3.60881E-01 1.47685E-01-1.14935E-01-7.33387E-02-8.31123E-02
 -1      2339 6.31093E-01 2.67972E-01 7.71279E-02 2.82138E-01 1.76050E-01-1.88477E-01
 -1      2340 7.13823E-01 2.87262E-01 4.02629E-01 2.89228E-01-1.00722E-01-9.85915E-02
 -1      2341 2.72987E-02-1.64410E-02-1.87526E-01 2.44571E-01 4.14497E-02-6.53777E-02
 -1      2342-7.13826E-01-4.05058E-01-3.12640E-01-1.57729E-01-5.17763E-03-9.50286E-02
 -1      2343 1.14791E+00 4.81491E-01 1.82590E-01-5.98926E-02 8.18047E-02-9.43360E-02
 -1      2344 3.34981E-01-7.49063E-02-2.91997E-01 3.18868E-01 5.46191E-01-2.48563E-01
 -1      2345-4.72349E-01-1.22214E-01-1.43060E-01 4.12306E-01-7.97311E-02-2.47593E-01
 -1      2346 3.20768E-01 1.50315E-02-3.05354E-02 5.50041E-01 9.73765E-03-2.31321E-01
 -1      2347 9.84686E-01 4.45225E-01 2.34428E-01-2.37501E-01-1.06760E-01-1.76034E-01
 -1      2348 4.69904E-03-1.85835E-02 2.63580E-02 2.87248E-01-4.13161E-01-5.01905E-01
 -1      2349-8.54426E-01-2.51818E-01-2.44931E-02 3.28850E-01-1.38333E-01-5.99144E-02
 -1      2350 2.32465E-01-1.63084E-02 8.63633E-02 3.86153E-01 2.46115E-02-1.56519E-01
 -1      2351-6.63238E-01-2.30194E-01-4.55796E-02 3.80198E-01-9.28408E-02-1.52770E-01
 -1      2352 1.13660E+00 5.01533E-01 2.77083E-01-1.62865E-01-1.11253E-01-1.52633E-01
 -1      2353 1.92737E-01-7.47173E-03 2.67248E-02 1.33588E-01 3.12730E-01-1.89476E-02
 -1      2354 7.49706E-01 1.58720E-01 1.09431E-01-2.45338E-01-2.33972E-01-6.64274E-02
 -1      2355 1.33922E+00 4.39925E-01 3.17090E-01-4.32811E-02 2.83600E-02 2.27004E-01
 -1      2356-4.20201E-01-1.43821E-01 2.85815E-02 3.65699E-01-7.87720E-02-1.18533E-01
 -1      2357 9.69821E-02-1.64350E-01-1.42501E-01 5.22306E-01 5.90070E-04-3.68703E-01
 -1      2358-7.42476E-01-1.05501E-01-2.27197E-01 1.71338E-01-1.92010E-01-3.60084E-02
 -1      2359 3.88151E-01-3.66881E-02-4.84151E-01-2.55368E-01-3.90700E-01-2.45499E-04
 -1      2360 7.86134E-01 1.12595E-01-1.31211E-01 1.21960E-01 6.31524E-02 3.92725E-01
 -1      2361 1.24606E+00 5.51277E-01 1.36435E-01 5.40051E-02 5.36708E-02-9.02709E-02
 -1      2362 1.24501E+00 4.03598E-01 2.30435E-01-5.19808E-03 7.83211E-02 2.17332E-01
 -1      2363 1.21944E+00 3.69769E-01 8.18500E-02 7.18627E-02-9.21467E-02 1.19433E-01
 -1      2364 6.93654E-01 1.66876E-02 5.63612E-02 1.47760E-01 9.17307E-02-3.31516E-02
 -1      2365 2.94621E-01 8.10862E-01 1.76200E-01 2.85281E-01 5.52146E-01 6.62382E-01
 -1      2366 2.48184E-01 2.25195E-01-2.19407E-01 1.08159E-01 9.14516E-02 6.11808E-01
 -1      2367-1.17481E-01 6.04026E-02 2.37753E-01 9.40366E-02-1.21299E-01-5.94694E-02
 -1      2368 6.58311E-01 4.18801E-01 2.99246E-01 1.89037E-01 8.67932E-02-1.26046E-01
 -1      2369-1.11541E+00-1.03223E+00 2.09817E-01-5.74214E-01 3.86757E-01 9.86885E-01
 -1      2370 3.87359E-01-2.35302E-02 4.47974E-02-2.73030E-02 2.92807E-01 2.94948E-01
 -1      2371-5.24641E-01-4.72045E-01 7.22942E-02-5.55176E-01 1.06894E-01-3.95392E-01
 -1      2372-6.50136E-01-3.02164E-01 7.03704E-02 1.52813E-01-3.13690E-01 8.75904E-02
 -1      2373 9.58885E-01 2.79767E-01 6.69783E-03-1.04407E-02 1.56657E-02-2.16956E-01
 -1      2374-5.38442E-02-5.61365E-02-2.25534E-03-3.68872E-02 1.54276E-01 4.74796E-03
 -1      2375-7.38808E-01-4.39271E-01-8.96316E-02-5.37963E-03 9.62199E-02-5.41356E-01
 -1      2376-1.13220E+00-2.59797E-01-1.55431E-01-1.13264E-01 1.42072E-01 9.88166E-02
 -1      2377 6.51698E-01 3.18015E-01 2.58235E-01 2.98802E-01-2.77683E-02-1.24919E-01
 -1      2378 9.29803E-02-2.25162E-01-4.91281E-02-1.40171E-02 3.95541E-01 2.26181E-01
 -1      2379-3.76291E-03 1.64895E-01 3.35622E-01 8.33071E-02-2.99423E-02 4.11510E-02
 -1      2380-2.82292E-01-1.17456E-01 7.71020E-02 4.44380E-01-2.82156E-02-1.58656E-01
 -1      2381 1.16688E+00 5.82691E-01 1.11189E-01 3.61946E-01-9.84117E-02-1.27133E-01
 -1      2382-2.11269E-01-1.05782E-01 9.12578E-02-2.15989E-01 4.65337E-01-3.14492E-04
 -1      2383 4.81913E-01 9.88552E-02 6.04541E-01-4.94948E-02 3.87998E-01 2.72414E-01
 -1      2384-8.31037E-02-9.97593E-02-3.23026E-02 9.85883E-02 1.73757E-03-2.59542E-02
 -1      2385 3.05737E-01 3.03535E-01 3.15607E-01-2.79479E-01-3.10208E-01 4.25416E-01
 -1      2386-1.62287E-02 3.48378E-01 2.90797E-01-4.17616E-04-3.77239E-01 2.66039E-01
 -1      2387 8.54213E-01 2.11551E-01 3.40843E-03-4.50468E-01 2.06082E-02-1.96543E-02
 -1      2388-2.93269E-02-1.13148E-01-2.59938E-01-4.08829E-02 3.37964E-01 1.53286E-02
 -1      2389-5.21848E-02-9.15157E-02-5.04480E-02 2.22139E-01 3.10147E-02-1.72213E-02
 -1      2390 4.83314E-03 6.35296E-02 1.41831E-02-1.24684E-01 4.19914E-02-1.93217E-02
 -1      2391-2.17673E-01-9.13536E-02-1.23253E-01-1.94282E-01 8.88523E-02-1.23303E-01
 -1      2392-4.73047E-01-4.55793E-01-1.14832E-01 1.02424E-01-1.24539E-01 6.31343E-02
 -1      2393 1.08374E-01 8.11400E-02-3.54653E-03 1.51649E-01 4.18425E-01 1.75622E-01
 -1      2394-4.36811E-01-3.19219E-01-2.16741E-01-3.60620E-01-5.80854E-02-2.95278E-02
 -1      2395 3.36884E-01 1.72119E-01 7.73328E-02-3.93979E-03 1.04062E-01 5.68065E-02
 -1      2396 7.81353E-02 1.54896E-01 1.18271E-01 1.27662E-02 1.98370E-01 1.13918E-01
 -1      2397-1.15228E+00-4.67839E-01-2.63468E-01 2.49608E-02 1.06585E-01-1.19771E-01
 -1      2398-1.29078E+00-7.48830E-01-8.12773E-02 1.03879E-01 3.93441E-02-1.60020E-01
 -1      2399-3.96090E-02 2.17805E-01 9.01023E-02-9.25869E-02 2.25096E-01 1.09971E-02
 -1      2400-5.04959E-01-3.05380E-01-9.73810E-02-2.79632E-01 1.09143E-02-2.73309E-02
 -1      2401-1.20433E+00-5.48587E-01-2.05131E-02 2.13719E-01 1.23223E-02-1.47298E-01
 -1      2402 1.42791E-01 5.33847E-01 5.67136E-01 1.90684E-01 7.20652E-01 7.40845E-01
 -1      2403 5.62784E-01 1.53877E-01-2.95176E-01 5.35831E-01-6.84989E-01 7.30828E-01
 -1      2404 1.26813E+00 5.11133E-01 4.89999E-02 2.38732E-01 2.99626E-02 1.24876E-01
 -1      2405 1.07348E+00 1.61578E-01 1.17572E-01 2.03650E-01 6.80421E-02-1.50622E-03
 -1      2406 2.22652E-01 1.95849E-01 1.13882E-01 2.35248E-01-6.93097E-02 3.61819E-02
 -1      2407-1.32783E+00-4.91417E-01-1.33949E-01 3.65008E-01 3.82005E-02-2.51648E-01
 -1      2408 8.53562E-01 2.24177E-01-3.87957E-02-1.93073E-01 2.04153E-01 9.78712E-01
 -1      2409-1.40505E+00-4.75897E-01-7.68375E-01-3.58646E-01 3.97195E-01 6.67855E-01
 -1      2410-4.03870E-02 8.18033E-02-1.36812E-03 2.49990E-01-8.53500E-02 3.03925E-02
 -1      2411 5.06991E-01 4.21041E-01 4.93566E-01 3.68707E-01-1.89325E-01-1.36964E-02
 -1      2412-9.07872E-02-2.24414E-01-1.32578E-02 3.76371E-01 1.34228E-01 8.38188E-02
 -1      2413 4.09323E-01 3.88248E-01 7.82235E-02-1.81236E-01-6.03303E-02 1.14323E-01
 -1      2414-9.51514E-02 3.98100E-03 4.52787E-02-2.01041E-01-1.28211E-02-1.07970E-01
 -1      2415-1.15461E+00-6.94608E-01-3.62848E-01 4.38574E-02 9.26042E-02 5.15645E-02
 -1      2416 4.40938E-03 1.58073E-01-2.08970E-01 9.53024E-02-1.44950E-01-1.40426E-02
 -1      2417-9.01041E-02 7.51704E-02 8.76281E-02 3.43758E-01-6.70649E-04 6.70106E-02
 -1      2418-4.92607E-01 1.86660E-03-9.67216E-02-4.95571E-01 8.50106E-02-4.23913E-02
 -1      2419 1.92468E-01-1.66549E-01-1.28618E-01-3.99274E-02 2.92972E-01 2.36843E-01
 -1      2420 4.38058E-02 1.28604E-01 4.61556E-02-8.34177E-03-1.48926E-01-5.81998E-02
 -1      2421 2.75811E-01 3.67485E-01 6.57735E-01-1.12197E-01-2.00264E-01 3.39431E-01
 -1      2422-2.73083E-01 1.75031E-01 1.17997E-01-2.95514E-01 1.18920E-01-4.64936E-01
 -1      2423 2.11573E-01 1.16775E-01 1.74302E-01-6.14699E-01-9.41088E-02-1.74765E-01
 -1      2424 4.85739E-02-3.85528E-02 2.31557E-02-1.15965E-02 5.38863E-02 4.27011E-02
 -1      2425-1.23697E-01-9.86006E-02-1.11852E-01-5.06758E-01-3.14697E-02-2.07011E-01
 -1      2426 5.29465E-01 3.96406E-01 9.61936E-02 2.28595E-01 4.52963E-01 4.42186E-01
 -1      2427-1.18558E+00-5.73452E-01 1.45728E-02-2.43696E-01-1.16626E-03-1.70880E-02
 -1      2428-2.62684E-01-1.43139E-01-7.48638E-02 2.30214E-01-4.88214E-02 1.73037E-02
 -1      2429 1.56227E-02 1.40018E-01-7.55923E-02 3.12210E-02 3.03020E-02-1.21541E-01
 -1      2430-6.92750E-02-9.42594E-02-1.68373E-01-9.09258E-02-3.75309E-02 1.06730E-01
 -1      2431 1.08651E-01 1.94185E-02-5.82360E-02 5.96947E-02 2.46907E-01 6.71013E-02
 -1      2432 9.66297E-01 5.23492E-01-4.11403E-02 2.83676E-01 4.46643E-02-1.33987E-01
 -1      2433-3.29675E-02-2.06944E-01-1.79936E-01-6.99409E-03 2.33261E-01-1.63615E-01
 -1      2434-1.91658E-01 5.45155E-02 2.38344E-03 8.07498E-02 3.59401E-01 3.19793E-01
 -1      2435-6.81632E-01-4.75661E-01-1.48312E-01-6.01473E-02-1.11285E-02-6.14689E-02
 -1      2436-1.24948E+00-6.32331E-01-8.53758E-02-4.42711E-02 1.33076E-01-1.99156E-01
 -1      2437-9.31176E-02 8.51888E-02 7.40974E-02-6.41029E-02 1.18901E-02-5.10809E-02
 -1      2438 7.16885E-01 3.96737E-01 3.50633E-01 1.14586E-01 5.86938E-02-1.89691E-01
 -1      2439-1.30345E+00-5.34691E-01-7.01397E-02-2.73433E-01 4.70205E-02-1.75144E-01
 -1      2440 8.26265E-01 4.36059E-01 2.87331E-01 2.17653E-01 5.22999E-02-4.86360E-01
 -1      2441-9.78521E-01-5.22829E-01 2.43218E-01-1.01302E-01 1.03289E-01 2.56026E-01
 -1      2442-2.35538E-01-3.97140E-01-5.90375E-01-1.28401E-02 2.71994E-01 9.07819E-01
 -1      2443-2.50897E-02-1.26144E-01 1.39461E-01 4.28761E-02 1.88665E-01-1.37917E-03
 -1      2444-1.34379E+00-5.30894E-01-1.80126E-01 5.18921E-02-7.47854E-02-6.63985E-02
 -1      2445-6.23858E-01-1.38156E-01-7.22343E-02 4.32572E-02-3.03011E-01 1.47237E-01
 -1      2446-1.93980E-01-1.94022E-01-2.79469E-01 4.45500E-02-1.41336E-01 5.82591E-01
 -1      2447-6.45562E-01-3.96724E-01-2.10053E-01-1.17277E-01-1.64481E-02 3.81284E-01
 -1      2448 1.23156E-02-2.58381E-02 8.16532E-02-1.95432E-02-1.37558E-02 9.71911E-02
 -1      2449-9.77714E-01-2.84877E-01-7.08146E-02-2.03815E-01 3.05206E-01 1.31252E-01
 -1      2450-8.58556E-02-1.92402E-01-6.55823E-02 1.96140E-02 3.74370E-01 2.64005E-01
 -1      2451-4.02473E-01-2.59781E-01 8.38029E-03 1.64717E-01-5.37234E-02-3.66043E-01
 -1      2452-1.16299E+00-8.92768E-01 1.57154E-02 5.46304E-01-1.29269E-01 2.86533E-01
 -1      2453-4.18426E-01-1.19087E-01-1.27717E-01 2.84007E-01 3.37641E-01 3.23615E-01
 -1      2454 2.08610E-01-2.35244E-02-6.74289E-02-6.80042E-01-6.12062E-02-1.64993E-01
 -1      2455 3.38922E-02-3.14634E-01 7.22149E-02-1.10339E-01-3.56916E-03 1.26869E-02
 -1      2456-4.79683E-02-8.93318E-02-1.90474E-01-5.67703E-02-1.63880E-01-4.39269E-01
 -1      2457 4.18222E-01 2.80207E-01 2.72695E-01-3.87734E-01-3.48079E-03-5.38139E-02
 -1      2458-2.79070E-01-8.87638E-02-1.16968E-01-3.70046E-02-2.22047E-01 6.03785E-01
 -1      2459-1.18442E+00-3.18071E-01-2.16749E-02-2.92580E-01 1.67044E-02-5.72924E-02
 -1      2460 1.81050E-01 2.94016E-01 1.10700E-01 1.22839E-01 2.73650E-01 2.95672E-01
 -1      2461 4.39069E-02-6.72385E-02-8.99121E-02 2.77147E-01 7.49444E-02-3.27587E-02
 -1      2462 1.10160E-02-1.39299E-02 3.33075E-02-4.91658E-02-3.72359E-01 4.11925E-01
 -1      2463-3.57610E-01-6.99716E-02 8.72085E-02-2.69790E-01-1.76680E-02-2.13724E-02
 -1      2464-5.18569E-01-2.60061E-01-8.55901E-02-2.84827E-01 4.09547E-01-3.60366E-01
 -1      2465-1.37722E-01-3.09786E-01-5.64687E-02-8.46173E-02-1.30828E-01 5.48502E-01
 -1      2466-2.94842E-02 9.36639E-03-4.77815E-02 6.52011E-02-4.70261E-02 2.56056E-03
 -1      2467-6.98281E-02-2.48427E-03-4.95554E-02 4.63882E-02-4.29771E-02 1.01229E-02
 -1      2468 1.47601E-01-6.39466E-02 1.14456E-01 5.85682E-02-9.90495E-02-5.53877E-02
 -1      2469-3.15503E-01-1.63414E-01-8.48894E-02 4.14270E-01 2.00267E-02-1.31993E-01
 -1      2470 1.49422E-02-1.47095E-01-8.72877E-02 1.06195E-01-5.10099E-02 7.33691E-01
 -1      2471 6.62635E-01-2.13013E-02-5.99785E-02-2.49827E-01-1.28202E-01-2.78379E-01
 -1      2472-5.18412E-01-3.77662E-01-8.42729E-02 3.12489E-01 1.19488E-01-7.22871E-03
 -1      2473 7.46019E-01 5.75082E-01 2.71578E-01 1.00903E-02-2.52148E-01 6.07101E-01
 -1      2474 1.35974E-01-7.34612E-02-7.36010E-02-2.50467E-02 2.34291E-02 1.76456E-03
 -1      2475 8.64914E-02 5.52741E-02 6.65879E-02 1.18194E-01 3.38612E-01 3.03263E-01
 -1      2476 9.56023E-01 4.91365E-01-5.70892E-02-6.90787E-02-1.59384E-01-1.76144E-01
 -1      2477 5.04751E-02 4.95043E-02 8.87582E-02 3.03457E-03 9.41509E-03 5.27240E-01
 -1      2478 1.71836E-01 4.84220E-02 1.52827E-01 3.41928E-01 1.33413E-02-2.13837E-01
 -1      2479-1.79667E+00-9.24730E-01-8.57162E-03 3.56611E-01-1.14577E-01 3.83177E-01
 -1      2480-7.37042E-01-2.07938E-01-1.14680E-01 3.58842E-01-1.08636E-01-8.85733E-02
 -1      2481-1.24466E-02 3.54667E-02-1.53485E-01-2.57305E-01-2.72399E-01-5.31394E-01
 -1      2482-1.29333E+00-2.20745E-01-1.17696E-01-8.38029E-02 2.01489E-02-1.66512E-02
 -1      2483-4.70488E-01-4.09569E-01-3.13223E-01 2.61152E-01-4.28053E-01 4.37361E-01
 -1      2484-1.42860E+00-4.98458E-01 1.27127E-01-4.70721E-01 1.21034E-01-8.48850E-02
 -1      2485-6.65639E-02 8.71790E-03 3.13420E-02 2.48445E-02-2.42991E-01 7.36341E-02
 -1      2486 1.27059E+00 4.32361E-01 5.81231E-02-1.15877E-02 6.35004E-02-6.98410E-02
 -1      2487 9.90410E-01 3.67553E-01 2.68289E-01 3.43663E-01-1.24196E-01-1.27272E-01
 -1      2488 9.83639E-01 4.37022E-01 9.64881E-02 5.85844E-02-6.72887E-02-1.01943E-01
 -1      2489 1.22823E-02-1.94217E-01-1.09997E-02-3.78538E-03 3.76572E-01 2.31750E-01
 -1      2490 1.69028E-01 7.75606E-02-9.55468E-02 2.78931E-01 2.79907E-02 2.84615E-02
 -1      2491-9.69648E-01-1.29028E-01-1.17439E-01-2.08393E-01 6.01979E-02-1.00138E-01
 -1      2492 3.29952E-01 1.08565E-01 1.21833E-01-4.17498E-01-1.69639E-01-3.84727E-01
 -1      2493 1.17873E-01-3.55514E-01-2.50926E-01 6.25296E-02 3.82392E-01 8.16777E-01
 -1      2494 2.76663E-01 1.71884E-01 4.72848E-02-1.54324E-01-7.18494E-02 1.62753E-02
 -1      2495-4.14784E-01-3.88045E-01-2.50012E-01-2.28645E-01-8.61325E-02-6.66490E-02
 -1      2496-2.98678E-01-2.30857E-01-2.12785E-01-2.62210E-01-1.79295E-02-2.14261E-01
 -1      2497-1.01989E+00-6.10389E-01-1.45007E-01 1.49230E-01 2.28891E-02-6.62772E-02
 -1      2498-6.40933E-02-5.33945E-03 1.89751E-02 2.67506E-01-5.32503E-02-2.35411E-02
 -1      2499-9.84575E-02-8.42638E-03 1.21602E-01 2.73729E-01-8.64212E-02-2.32471E-01
 -1      2500-9.19176E-01-5.49670E-01-7.45940E-02-4.22453E-02-1.50108E-02 1.79833E-01
 -1      2501 1.10017E+00 6.01120E-01-7.00777E-03 9.92686E-02 5.07012E-02 2.96544E-01
 -1      2502 1.26035E+00 5.17734E-01 1.55069E-01-5.64048E-04-5.50708E-02-1.09663E-01
 -1      2503-9.64716E-01-4.60154E-01 6.48951E-02-4.37555E-02-8.37848E-02 2.63918E-01
 -1      2504 6.08360E-01 3.94534E-01 8.86430E-02 2.33427E-01-4.55572E-02 2.51592E-01
 -1      2505-1.11387E+00-5.41575E-01-3.68345E-01 4.36541E-01 1.75213E-02-1.69660E-01
 -1      2506-2.45551E-01-1.37852E-01 2.26827E-01-3.68577E-01-1.84872E-02-1.50091E-01
 -1      2507 8.29418E-01 8.02740E-02 2.32071E-01-1.67119E-01-1.72274E-01 6.46802E-01
 -1      2508 8.02701E-02-5.07188E-01-2.48507E-01 4.54002E-02 3.60346E-01 2.35925E-01
 -1      2509 1.29612E+00 1.03576E+00 1.96378E-01-5.75407E-01-6.82092E-01 6.93708E-01
 -1      2510 1.84628E-01-5.26304E-02 1.63504E-01-1.01859E-02-6.13730E-02-1.12118E-02
 -1      2511 1.11801E+00 3.62857E-01 2.39934E-03-1.43084E-01 1.14382E-01-1.49305E-01
 -1      2512 1.37810E+00 5.18599E-01 1.61633E-01 2.23876E-02-1.52646E-03 1.04068E-01
 -1      2513-4.43074E-01-3.39333E-01-2.83090E-01-6.90373E-02-5.15915E-02-3.36020E-01
 -1      2514 6.68214E-01 1.55492E-01 2.99031E-02 4.08407E-01-5.74112E-02-1.30784E-01
 -1      2515 8.01972E-01 3.16945E-01 2.15737E-01 3.37722E-02-1.90582E-01 1.93332E-01
 -1      2516-7.36832E-01-4.78051E-01-1.72310E-01 3.65169E-01 3.40867E-02-5.67991E-02
 -1      2517-1.26180E-02-6.36036E-02 1.15987E-01-1.46992E-01-2.65318E-03-4.06934E-02
 -1      2518-4.88907E-01-4.41175E-01 2.58320E-03-1.36221E-01 9.67964E-02 1.63144E-01
 -1      2519 1.31466E+00 7.10630E-01 3.12955E-01-6.62383E-02-1.61411E-01 5.89469E-02
 -1      2520-2.88896E-01-1.58179E-01 1.06841E-03-1.23528E-01 1.90923E-01-1.68378E-03
 -1      2521 1.30425E+00 6.29986E-01 3.26518E-01-1.57727E-01-5.43089E-02-2.43158E-01
 -1      2522-1.00722E-01-1.08281E-01 2.92331E-01-2.99185E-01-8.64108E-02-3.99874E-02
 -1      2523 1.21901E+00 4.06502E-01 1.08884E-01 4.25458E-01-8.59875E-03-2.00737E-04
 -1      2524 3.18638E-02 1.99997E-02-2.82495E-01 1.16672E-01 2.38481E-01 4.11516E-02
 -1      2525-4.75245E-01-3.46003E-01-2.42189E-01-8.84746E-02 8.13686E-02 1.20138E-01
 -1      2526-1.26064E-01 5.42222E-02-2.20869E-01 1.48786E-01 1.03925E-01 7.11184E-01
 -1      2527 1.07295E+00 3.31672E-01 8.33604E-02-1.86399E-01 4.57217E-02-3.19648E-03
 -1      2528 4.40321E-01 3.02180E-01 2.88478E-02-3.30146E-01 8.37509E-02-9.20528E-04
 -1      2529 2.62557E-01 3.29757E-02-4.24270E-02 2.15879E-01 1.71096E-01 4.92506E-01
 -1      2530-1.80897E-01-2.75659E-01-1.46337E-02-8.22186E-02 1.39795E-01 6.20378E-01
 -1      2531-1.34245E-01-1.22868E-01-1.28351E-01-1.41319E-01 4.07628E-02-5.01641E-02
 -1      2532 1.22121E+00 2.39807E-01-1.42887E-01-6.86037E-02-5.57111E-02 8.20759E-01
 -1      2533-3.12519E-01-2.57713E-01-2.06711E-01-5.81473E-02 4.51835E-01 7.48694E-01
 -1      2534 6.23010E-02-1.77872E-01 4.42239E-01-1.03341E-01 2.02747E-01 2.33312E-01
 -1      2535-1.26388E+00-5.26165E-01-1.64028E-01-2.08738E-01 7.30084E-02-5.85931E-02
 -1      2536 1.24639E-01 1.73486E-01 1.04741E-01 7.74863E-02 5.15140E-01 1.42806E-01
 -1      2537 1.91799E-01 9.95422E-02-4.29936E-02-2.02088E-01-3.60748E-01 5.80216E-01
 -1      2538-2.20903E-01-2.02988E-01 2.44048E-02 3.94652E-02-8.62080E-02 7.02664E-01
 -1      2539-3.10577E-01-1.54638E-01-6.84976E-02 1.53811E-01-1.17257E-01 2.27551E-03
 -1      2540-1.30582E+00-6.08166E-01-1.08866E-01 3.27075E-02 2.24330E-02 9.17964E-02
 -1      2541 1.94878E-02-4.28606E-01-1.02878E-02 6.50506E-02 2.42572E-01 7.63268E-02
 -1      2542-8.76509E-01-1.68817E-01-1.72140E-01-2.76821E-01 1.73335E-01-1.88575E-01
 -1      2543-5.85526E-02-2.76549E-02 8.76358E-03-8.70000E-02-1.33079E-01 3.03545E-02
 -1      2544 1.28496E-01 9.15051E-02 1.89594E-01-2.12227E-01-8.17211E-02-6.46290E-02
 -1      2545-1.16296E-01-1.38453E-01-6.31693E-05-1.98379E-01-6.98063E-02 1.02918E-01
 -1      2546-9.96599E-01-3.28304E-01-1.20605E-01 2.96295E-01-1.06519E-01-6.96347E-02
 -1      2547-6.95701E-01-4.58588E-01-7.64887E-02-2.62108E-01-4.71543E-02-2.15198E-01
 -1      2548 1.45658E+00 5.08612E-01 6.03464E-02 1.69598E-01-6.61705E-02-1.66760E-01
 -1      2549-1.13418E+00-7.88547E-01 5.31328E-02 4.01433E-01 5.09682E-02-1.98333E-01
 -1      2550 1.10800E+00 1.54324E-01 1.70178E-01-1.92199E-01 5.96248E-02-1.15974E-01
 -1      2551 1.55013E-01 1.47934E-01 3.11040E-02-1.37986E-02-2.21334E-03-4.11308E-01
 -1      2552 6.37774E-01 3.78194E-01 7.05496E-02-3.96951E-02-1.22144E-01 4.96961E-01
 -1      2553-1.34231E-02-3.31811E-02 7.68524E-03-7.07949E-02 9.13335E-02-1.03338E-01
 -1      2554 4.93885E-01 1.36847E-01 2.20044E-01-3.69673E-01-3.35846E-02-2.69552E-01
 -1      2555-1.02669E-01 5.18224E-02-5.75287E-02-6.58854E-02-2.52474E-01 2.52323E-01
 -1      2556-1.83758E-01 6.16537E-02-1.56724E-01-1.98751E-01 7.46323E-02-9.55516E-02
 -1      2557 1.11970E+00 3.58671E-01 2.52228E-01 2.34859E-01 7.04112E-02-1.59002E-01
 -1      2558-1.54203E+00-8.08769E-01-3.35777E-01 1.40544E-01-3.29512E-02 1.33708E-02
 -1      2559-1.84925E-02-2.23102E-01 1.98861E-01-1.38607E-01-4.44390E-02-2.19230E-01
 -1      2560-4.69686E-01-1.54714E-01 1.19452E-01-4.53271E-01 5.19330E-02-2.17387E-01
 -1      2561-3.86490E-01-1.58235E-01 4.59965E-01-3.04990E-01 3.66746E-01-2.54300E-01
 -1      2562 1.67964E+00 5.59081E-01 5.46677E-01-3.82163E-01-3.16749E-01 1.02400E+00
 -1      2563 4.56491E-01 2.70520E-01 6.38446E-02-2.35932E-01 3.52120E-02-7.16994E-02
 -1      2564-1.14646E+00-3.08050E-01-2.83019E-01 5.50724E-02-4.60448E-02 1.65151E-01
 -1      2565 5.98067E-01 4.56974E-01 1.29141E-01 2.49483E-01 9.52550E-03-3.01802E-02
 -1      2566-1.16548E+00-4.65797E-01-1.58540E-01-1.02056E-01-1.72089E-02-2.62401E-02
 -1      2567-8.11586E-01 3.22566E-02-6.68045E-01-2.07022E-01-3.66579E-01 4.72324E-01
 -1      2568 2.18950E-01 3.21703E-02 2.31540E-01 3.10827E-02-1.41280E-01 3.11519E-03
 -1      2569-8.55891E-02 6.42469E-02-3.50174E-02-2.20162E-01 7.05528E-02-1.10786E-01
 -1      2570-4.09878E-01-1.71743E-01-6.95545E-03-3.75201E-01 8.02781E-02-1.88843E-01
 -1      2571-3.39873E-02 5.49923E-02 1.87143E-02 7.36348E-02 2.98257E-02 2.99051E-03
 -1      2572 1.15933E-01 2.16171E-01 1.63172E-01 8.03534E-02-1.22163E-01 8.56326E-02
 -1      2573-1.43384E+00-5.71057E-01-1.46829E-01 3.94452E-02-2.09214E-02-3.56831E-02
 -1      2574-3.07986E-01-1.09855E-01-1.27294E-01-1.01698E-01-4.09779E-02-4.20041E-01
 -1      2575 6.13267E-02-2.53904E-01 7.93376E-02 3.49746E-02 1.98103E-01 1.84683E-01
 -1      2576 4.48637E-01 3.79457E-01 9.08218E-02-9.09272E-02-6.49278E-02 2.64657E-01
 -1      2577-2.07148E-02 2.48644E-02 4.78906E-02 3.65682E-01-3.91458E-03-2.06474E-01
 -1      2578 3.45154E-01 2.99963E-01-6.53806E-02 1.65719E-01-3.78908E-02-8.08103E-02
 -1      2579 3.79238E-01 2.25050E-01 1.71460E-01-4.52643E-01-6.49592E-02-2.86982E-01
 -1      2580-1.04858E+00-3.54236E-01 1.23128E-02 2.17923E-01-5.74578E-02-1.29555E-01
 -1      2581 8.42251E-01 6.52159E-01 2.09696E-01-4.27196E-02-6.09370E-02 6.60342E-02
 -1      2582-1.63339E-01-7.15822E-01-1.48580E-01-1.88350E-01 5.10131E-01 3.00310E-01
 -1      2583-1.07361E-01-1.49063E-01-2.76434E-02-6.21415E-02 2.83715E-01 7.82489E-02
 -1      2584-1.21245E-01-9.12523E-02 4.11341E-01 8.84266E-02 9.78145E-02-5.05976E-01
 -1      2585 1.64338E-01 4.63347E-02-8.09372E-02-5.41632E-02-3.53718E-02-3.31664E-01
 -1      2586-3.16444E-01-1.83715E-01-7.33977E-02-2.49330E-01-4.17574E-02-3.25516E-01
 -1      2587 1.41198E+00 6.15051E-01 2.72515E-01-5.96787E-02 7.51342E-02-1.95402E-01
 -1      2588 1.44278E-01 4.80278E-02 2.78493E-02 3.10181E-02-1.71648E-01 1.78625E-01
 -1      2589-2.95569E-02-6.59382E-02-9.08190E-02 4.79499E-01-4.15064E-03-1.75369E-01
 -1      2590 7.92677E-01 2.91184E-01-5.72019E-02-1.19533E-01-5.11672E-02-9.59691E-02
 -1      2591 9.47002E-01 3.33627E-01-2.71899E-02-3.23070E-01-2.19639E-02-1.10113E-02
 -1      2592-1.77256E-01-2.73215E-01-9.69848E-01-4.15898E-02 1.22857E-01 3.05800E-01
 -1      2593-1.70836E-01-1.83778E-01-4.91645E-02 4.30484E-01 7.94917E-03-1.09200E-01
 -1      2594 1.38441E-01 2.19043E-01 2.31377E-01 1.70053E-01 5.02164E-02-4.49065E-02
 -1      2595 9.52613E-02 2.35616E-01 2.04660E-01-4.37233E-02 4.89509E-01-4.11728E-02
 -1      2596 8.68760E-01 5.95809E-01 1.55854E-01-3.24196E-01 6.78902E-02-9.36771E-02
 -1      2597 9.54012E-01 3.20918E-01 2.16293E-01-1.89557E-02-7.91668E-03-1.57124E-01
 -1      2598-6.99542E-01-5.67000E-01-1.17511E-02 3.94044E-01 2.71127E-02-4.43664E-02
 -1      2599-1.19428E+00-2.87579E-01 8.20725E-02 2.78010E-01-1.53185E-01-1.59009E-01
 -1      2600 2.47327E-01 2.06996E-01 4.51910E-02 4.33729E-02 2.03780E-01-9.24092E-02
 -1      2601-7.36291E-01 1.44429E-01 5.48336E-01-4.22478E-02-5.79540E-03 2.86301E-01
 -1      2602 1.48896E+00 5.14053E-01 5.84128E-02-2.02347E-01-3.95968E-02-8.37146E-02
 -1      2603-7.19468E-01-1.90388E-01 5.59727E-02-2.22886E-01 1.35754E-01-1.61689E-01
 -1      2604 2.04931E-01-1.26917E-01-8.50716E-02 1.77929E-01-2.57697E-01 2.88899E-01
 -1      2605 9.94532E-02 2.95182E-01 1.35785E-01-1.45631E-02-3.85384E-01 4.62573E-02
 -1      2606 2.03359E-02-2.77145E-02 7.60099E-02-2.78236E-02-2.60775E-01 1.71237E-01
 -1      2607-2.83628E-03-1.31799E-02-7.20534E-03 4.93292E-03 2.55247E-01-2.64221E-02
 -1      2608 1.95064E-01 6.34162E-01 1.37717E-01-6.03591E-03-1.15587E-01-1.74578E-01
 -1      2609 9.59454E-01 3.09455E-01-1.61294E-02 2.16037E-01 1.13221E-01-9.92025E-02
 -1      2610-1.44865E-01-3.66698E-02-2.37958E-02-1.23368E-01-2.56253E-02-1.57376E-01
 -1      2611 2.97117E-01 2.53096E-01-6.73873E-02-3.26331E-01 7.23047E-02 2.03276E-02
 -1      2612-4.43857E-01-1.19145E-01 3.06619E-01 1.97536E-01-3.18164E-01 5.85987E-01
 -1      2613 4.54474E-02 3.65999E-02 2.65548E-01-2.61960E-02 2.68659E-01 8.65786E-02
 -1      2614 4.62930E-01 2.17715E-01 1.31166E-02 4.91746E-02 2.81926E-01 3.37315E-01
 -1      2615 7.90442E-01 3.50886E-01-6.20081E-02 6.10461E-02 1.64181E-01-6.19817E-02
 -1      2616 5.41452E-02 9.06034E-02-2.01374E-02-2.08851E-01 4.02494E-02-2.06503E-02
 -1      2617 8.28197E-01 7.00679E-01 3.44405E-01 3.09386E-01-1.07971E-01 8.67101E-02
 -1      2618-7.96080E-03 1.59145E-01-7.12372E-02-7.71698E-02 8.19408E-02 3.46398E-03
 -1      2619 2.18433E-02 5.17861E-02 1.87231E-02-5.68423E-03 9.62783E-02 7.29647E-02
 -1      2620 9.93987E-03 2.13054E-01-2.22459E-01 4.23248E-02 2.11869E-01 2.19797E-01
 -1      2621-4.98109E-01-3.60041E-01-2.85625E-02 3.26348E-01 1.13829E-01-3.63579E-02
 -1      2622 2.16776E-02-1.29572E-01 1.11158E-02 7.73949E-02-9.98798E-02 4.90916E-02
 -1      2623 4.05662E-01-2.55678E-02 5.69775E-02 3.85969E-01 9.19489E-02-1.79678E-01
 -1      2624 2.04159E-01-4.73006E-02 1.47830E-02-4.21816E-01 2.82787E-03-2.65816E-01
 -1      2625-2.97969E-01-1.25860E-01 6.55584E-02-4.70879E-01 6.67997E-02-4.67230E-02
 -1      2626 4.01206E-01 2.83130E-01 3.11044E-01-1.63901E-01 1.96772E-01-3.98318E-01
 -1      2627 1.71273E-02 5.74691E-02-1.15415E-02 5.86123E-02 1.09965E-03-4.85761E-01
 -1      2628 3.97648E-02 1.83763E-01 6.71793E-02-2.69049E-01-1.38763E-02-8.59613E-02
 -1      2629 2.27789E-01-1.06576E-01-3.98651E-01-5.49520E-01-5.36023E-03-3.93896E-02
 -1      2630-9.37236E-01-3.02235E-01-5.70721E-04 3.75620E-01-1.20538E-01-5.20409E-03
 -1      2631-3.12097E-01-2.13793E-01-1.69657E-01 3.83333E-01-9.42353E-02-1.88064E-01
 -1      2632 9.50221E-01 5.71340E-01 1.93032E-01 3.45489E-02-1.98854E-02-7.64883E-02
 -1      2633-1.05525E+00-4.23434E-01-1.03800E-01 2.74423E-02-3.02827E-01 1.36052E-01
 -1      2634-1.33861E+00-7.59588E-01-3.08390E-01-1.47056E-01-1.00506E-01-3.19022E-01
 -1      2635-7.20104E-02 8.47537E-02-1.35189E-01-4.15330E-03 2.77869E-01 1.29144E-01
 -1      2636 1.66039E-02 2.45314E-01 1.32607E-01-5.34178E-02 1.74042E-01 3.00020E-02
 -1      2637-2.10698E-01 1.10155E-01-4.32585E-01-1.99245E-01 1.13329E-01-1.54955E-01
 -1      2638-1.02761E+00-6.73334E-01-2.27837E-01 1.28142E-01-7.96130E-02-9.16175E-02
 -1      2639 3.86489E-01 1.75165E-01-2.13768E-01 4.43740E-01 8.54398E-02-4.43436E-02
 -1      2640-2.23180E-01-2.46193E-01-2.74276E-01 3.12450E-01-4.17828E-02 1.71119E-02
 -1      2641-4.83744E-01 8.33398E-02 9.34385E-02-6.28399E-01-6.19757E-02 3.70704E-02
 -1      2642-6.03006E-02-1.01546E-01-1.18529E-01-5.70720E-02 4.31590E-01 2.42622E-01
 -1      2643-1.32517E+00-5.87795E-01-1.93264E-01 1.10455E-01 7.75906E-02-1.05949E-03
 -1      2644 2.86753E-01-1.04269E-01-2.06956E-01 5.37088E-02 2.05266E-01 1.30297E-01
 -1      2645-6.10790E-01 7.71890E-02-8.44712E-02 6.87261E-02 1.61925E-01-1.17146E-01
 -1      2646-1.08049E+00-4.61311E-01-1.58247E-01-2.19365E-01-8.63440E-02-1.54186E-01
 -1      2647 9.45680E-01 2.09484E-01 3.05373E-01 3.87943E-01 2.99543E-01-1.28741E-01
 -1      2648 2.31894E-01 1.81888E-01-8.82842E-02 4.18695E-02 2.75987E-01 1.86547E-01
 -1      2649 6.64466E-02-2.43440E-01 1.89741E-02-4.33867E-01-9.23579E-02-7.55677E-02
 -1      2650-6.65371E-01-3.32738E-01-1.40912E-01-4.04792E-01 1.84718E-01 3.87475E-02
 -1      2651 2.57256E-02-2.84641E-01 1.00315E-01 2.30441E-02-5.76774E-02 1.98242E-02
 -1      2652 6.61288E-01 9.40014E-02 1.93968E-02 8.99964E-02 2.42984E-01 7.54410E-01
 -1      2653 4.68146E-01 5.46512E-01 9.90691E-02 2.72691E-01 3.52655E-01 3.14791E-01
 -1      2654 3.05568E-01 5.13189E-02-4.31599E-02-6.31928E-01 5.55706E-03-2.03162E-01
 -1      2655-2.85865E-01-3.23699E-01-3.54781E-01-8.15083E-03-6.22836E-02 6.44313E-01
 -1      2656-1.58728E-02 1.08828E-02-1.90472E-01-9.59458E-02-4.24648E-01 3.78478E-01
 -1      2657 3.27029E-01 3.22482E-01 1.85389E-01-2.02221E-01-6.36441E-03-1.70715E-01
 -1      2658-8.86567E-02-9.68001E-02-7.29902E-02-6.26082E-02-2.30526E-02-5.13753E-02
 -1      2659 3.00282E-02 1.43071E-01-5.21522E-02 6.97301E-02-1.98710E-01 5.19053E-01
 -1      2660 3.21522E-01 3.30000E-01 2.07492E-02 1.97469E-02-2.45491E-03 1.57311E-01
 -1      2661-2.50500E-01-2.43609E-01-5.54865E-02 1.10853E-01-2.54932E-01 5.73744E-01
 -1      2662 9.99293E-01 5.27963E-01 4.59872E-01-4.95080E-02-1.09356E-01-2.38302E-01
 -1      2663-1.26301E+00-4.96361E-01-1.51447E-01 1.46969E-01-6.99421E-02-1.72312E-01
 -1      2664-1.47472E+00-5.22941E-01-7.24760E-02-6.46304E-02 4.56706E-02 1.16696E-02
 -1      2665-3.19806E-01-1.22038E-01-1.42388E-02-5.32348E-02-2.15201E-02-3.19604E-01
 -1      2666-3.42415E-01-6.79865E-02 1.07887E-02 1.05296E-01-2.23161E-01 6.12963E-02
 -1      2667 1.48954E+00 7.34165E-01 2.57085E-01 1.13726E-01 2.31870E-03-4.43341E-03
 -1      2668-1.58181E+00-3.93755E-01 1.33380E-01-1.50483E-01-1.64946E-02-6.08438E-02
 -1      2669 7.36063E-01 5.02729E-02 1.07161E-01-4.10331E-01 7.53784E-03-2.48917E-01
 -1      2670-1.66858E-01-1.60924E-01-5.95817E-02 2.90276E-01-8.51677E-03-1.31742E-01
 -1      2671-6.65325E-01-1.65914E-01 4.38413E-03-3.25842E-01 3.07917E-02-2.80557E-01
 -1      2672-9.08988E-01-1.51246E-02 4.89660E-01 5.09762E-01-4.06907E-01 2.01604E-01
 -1      2673 1.01362E+00 3.32773E-01-5.21741E-02-1.10332E-01-2.98567E-02 9.50978E-01
 -1      2674 1.55299E+00 5.52652E-01 3.20196E-02-4.26438E-03-1.81463E-02 1.78711E-02
 -1      2675 4.22532E-02 7.93651E-02 1.53596E-01-1.76385E-01-3.30569E-02-1.28335E-02
 -1      2676 1.52094E+00 6.02102E-01-1.73460E-04-1.42826E-01-1.19421E-02-1.15673E-01
 -1      2677 1.88548E+00 7.42605E-01 3.51545E-02-9.25961E-02-1.64067E-01 3.81834E-02
 -1      2678 3.77142E-02 5.10226E-01 2.01239E-01-6.88735E-02-2.97664E-01 2.32941E-01
 -1      2679 4.11094E-01 1.80253E-01-4.35290E-02-6.17990E-02 1.00317E-01 4.95733E-01
 -1      2680 1.08988E+00 4.22578E-01 2.71864E-01-1.21705E-01-1.79411E-02 2.94408E-02
 -1      2681 4.27819E-01 1.09182E-01-2.41013E-02-1.63648E-01-2.00950E-02 4.68503E-02
 -1      2682-3.91208E-01-2.85728E-01-1.21133E-01 1.79877E-02-4.14759E-02 4.40949E-01
 -1      2683-4.79463E-01-8.09713E-02 7.08863E-03-6.49140E-02 1.92085E-01 5.91647E-01
 -1      2684-4.82510E-01-1.98358E-01-6.26531E-01 1.17397E-01-7.85645E-02 1.00860E+00
 -1      2685 5.29958E-01 1.81299E-01-8.96491E-02 2.21027E-01-4.58395E-02 1.07715E-02
 -1      2686-1.01646E-01-2.09825E-01-2.61943E-01-2.14705E-01 1.27300E-02-1.30817E-01
 -1      2687 1.69913E+00 6.29259E-01 8.39824E-02 1.91534E-01-4.75418E-03-1.90461E-01
 -1      2688-1.10329E-01-9.12935E-02-1.73318E-01-3.10916E-02-3.72458E-02-4.08496E-01
 -1      2689-1.15987E-01 1.59466E-01 5.63031E-02-6.70258E-04 1.74902E-01-4.51592E-02
 -1      2690 1.60058E-01-2.32284E-01 1.17921E-02 9.10234E-02 1.11326E-01-7.34476E-02
 -1      2691-1.48739E+00-3.40430E-01-2.76686E-02 7.43016E-02 4.13438E-02-7.86784E-02
 -1      2692 1.30749E+00 5.41953E-01 1.93305E-01-2.79509E-01 1.22089E-01-1.57348E-01
 -1      2693-4.62510E-01-1.00301E-01-2.76726E-02-5.59503E-01 2.92691E-02 6.43664E-02
 -1      2694-1.19210E+00-4.14817E-01-2.84629E-01-6.24263E-02 5.29678E-02-3.21660E-02
 -1      2695-8.07467E-02-1.49174E-01-2.74715E-02 2.02801E-02-2.46332E-02-4.07422E-01
 -1      2696 1.00469E+00 4.88513E-01 2.69934E-01-2.79009E-01 2.04465E-02-3.09636E-01
 -1      2697 6.97772E-03 4.82971E-02 3.95130E-01-3.67925E-02 3.05781E-01-1.55708E-02
 -1      2698 4.86541E-01 5.16215E-01 1.10170E-01-1.74037E-01 5.32853E-02 5.39678E-01
 -1      2699-1.46867E+00-5.10088E-01-8.57945E-02 1.93339E-01-7.09315E-02-7.73853E-02
 -1      2700-3.45633E-01-7.73538E-02-3.22638E-01-1.09728E-01 1.86337E-01 4.11432E-03
 -1      2701-1.51654E-02-1.78490E-01 5.96803E-02-6.16417E-03-3.30017E-01 3.11187E-02
 -1      2702-4.69346E-01-2.98517E-01 1.45630E-02-1.56110E-01 3.99898E-01 2.94025E-01
 -1      2703-2.99829E-01-1.12106E-01-1.51785E-01-8.65128E-02 3.05762E-01 1.40889E-01
 -1      2704 6.54789E-02 1.17909E-01-2.09778E-01 1.07683E-01 7.69814E-03-6.53285E-02
 -1      2705-8.26089E-02 1.60891E-01 3.20455E-03-6.08171E-02 2.43015E-01 1.28387E-01
 -1      2706 2.83878E-01 1.26458E-01-1.29040E-01 8.88627E-02 4.70561E-02-3.57106E-01
 -1      2707-1.61902E-01-1.20991E-01 6.68720E-02-6.05500E-02 6.89947E-02-4.35131E-01
 -1      2708-7.15239E-02-9.33258E-02-6.83772E-02-2.78838E-01 4.07923E-02-1.82035E-01
 -1      2709-1.55944E-01-1.44062E-01-2.66552E-01-1.18743E-02 5.70359E-02 1.45170E-01
 -1      2710 4.94544E-02-5.50400E-02-2.62266E-02-2.89436E-01-9.69422E-02-2.65700E-01
 -1      2711-1.99151E-02-8.74674E-02-2.48465E-01 1.03123E-01 1.03602E-01 8.85158E-01
 -1      2712-1.18362E+00-2.46192E-01-1.05671E-01-2.70109E-02 4.19020E-02-8.11154E-02
 -1      2713-4.14541E-01-2.45124E-01 1.34231E-01 1.41961E-01-1.95381E-01-2.83182E-01
 -1      2714-1.12103E+00-4.57728E-01-2.25833E-01 1.18912E-02-2.09092E-01 8.59584E-02
 -1      2715-9.92801E-01-2.15681E-01 4.64410E-02 1.94347E-01-2.47453E-01 2.70427E-01
 -1      2716 3.42722E-01 1.99168E-01 9.74621E-02-3.76299E-01-8.15754E-03-2.53301E-01
 -1      2717-5.29365E-01-4.73886E-01-1.33146E-01-2.66122E-02-4.83997E-02 3.89001E-01
 -1      2718-7.35958E-03-1.61363E-02-9.94628E-02 6.22813E-02-1.93528E-02-4.00223E-01
 -1      2719 1.84804E-01 1.07244E-01 3.41357E-01-5.37466E-02-3.71711E-01-8.47104E-02
 -1      2720 8.55398E-02-2.99401E-01 4.62346E-02 1.05835E-02 2.86726E-01 3.10176E-02
 -1      2721-2.86821E-01-1.43256E-01 9.93959E-03 4.10746E-02-3.48174E-02-3.72696E-01
 -1      2722 5.21766E-01 1.87190E-01 1.99165E-01-9.01048E-02 8.02792E-02-6.31305E-01
 -1      2723-6.63541E-01-7.23959E-01-4.24908E-01 6.21848E-03 1.03947E-01-3.67077E-01
 -1      2724 4.09326E-01 3.13297E-01 7.03155E-02 9.73749E-02 4.00404E-02 4.67345E-01
 -1      2725 8.80980E-01 3.97953E-01-1.42051E-01 2.62040E-02 2.38406E-02-3.54025E-01
 -1      2726-6.42175E-01-2.77911E-01 1.14609E-01 2.50142E-02 1.18579E-01 1.44982E-01
 -1      2727-1.05020E-01 2.44295E-01 1.94172E-01 2.02470E-02 1.30005E-01-3.82372E-02
 -1      2728-1.20413E+00-6.50234E-01-2.26028E-01 1.67559E-01-4.62526E-02-3.59249E-01
 -1      2729-6.41058E-01-4.85524E-01-4.21059E-01-1.72744E-01 6.63732E-03-4.53460E-01
 -1      2730-4.99982E-01-3.91915E-01-2.44599E-01-2.69046E-01 2.83688E-01-6.81757E-01
 -1      2731 2.99877E+00 1.18707E+00 1.86791E-01-6.33263E-02-2.96054E-02-4.48856E-01
 -1      2732-4.97079E-01-4.11388E-01 1.26644E-01 3.28273E-01 5.98028E-02-3.92682E-01
 -1      2733 2.76585E-01 2.20527E-01 2.92034E-01-4.32969E-02 7.25551E-02-4.83800E-01
 -1      2734-3.94493E-02 8.82583E-02 6.55732E-02-1.41048E-01-9.86218E-03-5.18909E-01
 -1      2735 2.86000E-01 2.41678E-01 2.67215E-01 1.26958E-01 9.02988E-03-4.64806E-01
 -1      2736-4.44553E-02-2.65260E-01 1.72963E-01-3.97792E-01-6.58279E-03-5.93069E-01
 -1      2737 5.85590E-01 4.62862E-01 3.87912E-01 1.93677E-01 2.62940E-02-6.86930E-01
 -1      2738 6.13253E-02-3.16148E-02-1.60658E-01-2.15052E-01-3.71540E-01-4.52472E-01
 -1      2739 1.75799E-01 1.18931E-01-3.43602E-01 2.76396E-01-1.62814E-02-4.99963E-01
 -1      2740 8.40507E-01 2.14451E-01-1.63930E-01-2.56763E-01-3.52359E-02-1.91699E-01
 -1      2741-1.10960E+00-9.22394E-02 3.79695E-02-4.88598E-02 4.34002E-01 2.28133E-01
 -1      2742-6.82223E-01-3.61354E-01-1.89545E-01 4.83996E-02 2.01837E-02-4.36640E-01
 -1      2743 1.86565E-01-1.21600E-01-4.09835E-01 9.26765E-02 2.93403E-01-3.39366E-01
 -1      2744-1.08596E-01-7.32547E-03-3.32305E-02 1.78964E-02-1.03232E-01-6.62668E-01
 -1      2745-5.95562E-01-6.35267E-01-2.00598E-01 1.77853E-01 1.73123E-03-5.29475E-01
 -1      2746 6.94570E-01 3.26354E-01 8.76128E-02 6.87494E-02 4.61889E-02-5.15381E-01
 -1      2747 1.37224E+00 1.32867E-01-4.54215E-02-1.13942E-01-2.16000E-01 2.52855E-01
 -1      2748-3.25003E-01-1.54048E-01-1.51105E-02 3.37145E-01-2.95844E-02-4.46119E-01
 -1      2749 1.52238E-01 1.27526E-01-1.17710E-01-8.04516E-02-7.18972E-02-5.45328E-01
 -1      2750-3.92047E-01-3.78068E-01-1.12254E-01 6.45318E-02-1.43045E-02-3.06492E-01
 -1      2751 6.80077E-01 6.13728E-01 1.58863E-01 8.32734E-02-1.08364E-01-5.02822E-01
 -1      2752 6.06280E-01 3.36690E-01 3.49361E-01-2.55767E-01-6.54342E-02-5.86442E-01
 -1      2753-3.76398E-01-3.00614E-01-4.36885E-02-4.50653E-02 1.09076E-02-2.45158E-01
 -1      2754-1.11195E+00-4.12923E-01 2.25436E-02 1.70416E-01 3.26604E-02-4.01910E-01
 -1      2755 5.65102E-01 4.57009E-01 1.13349E-01-8.11344E-02 2.51132E-02-4.20663E-01
 -1      2756-1.66194E-01-2.41164E-01 1.29012E-01 2.07224E-02-8.31145E-02 3.68779E-02
 -1      2757-9.75514E-01-5.10617E-01-3.17309E-01-2.70031E-02 7.89731E-02-3.55949E-01
 -1      2758 5.95559E-01 3.46208E-01 3.97650E-01-1.45959E-02-4.25205E-02-4.39327E-01
 -1      2759-6.62600E-01-2.87756E-01 2.49175E-01 2.67456E-01-4.12800E-01-8.07473E-02
 -1      2760-1.07111E+00-5.71631E-01-6.97702E-01-9.56778E-02 6.88458E-02-4.64141E-01
 -1      2761 1.72890E-01 2.11010E-01 2.62373E-01 3.09604E-01-6.05004E-02-5.70139E-01
 -1      2762 1.14514E-01 6.81795E-02 2.35312E-01-3.83324E-02-1.14568E-01-6.73900E-01
 -1      2763-3.95478E-01-1.66185E-01-1.86658E-01-1.81736E-01 1.18260E-02-4.16142E-01
 -1      2764-3.83911E-01-4.44475E-01-5.20204E-01-3.94150E-02 1.06035E-02-5.38588E-01
 -1      2765-1.60111E-01-6.88509E-02 1.97037E-02 4.25853E-02-1.38854E-02-5.30566E-01
 -1      2766-1.14032E+00-9.56018E-01-2.48988E-01 4.73662E-01-2.11115E-01-8.64681E-01
 -1      2767 2.81875E-01-7.27190E-02-1.89349E-01-6.66651E-02-5.79656E-02-2.63695E-01
 -1      2768 1.67959E-01 2.20095E-01 2.45099E-01-1.93582E-01-3.41562E-02-5.39513E-01
 -1      2769-3.00017E-01-2.66605E-01-1.30926E-01-1.86991E-01 9.22218E-02-3.76983E-01
 -1      2770-1.15484E+00-4.19373E-01-3.34152E-01-1.92202E-01-7.06276E-02-3.62317E-01
 -1      2771-4.77675E-01-3.75105E-01-2.28035E-01 2.50862E-01-1.81778E-01-3.20232E-01
 -1      2772 6.79398E-04 1.32712E-01 2.29971E-01 1.80449E-01-1.17763E-02-7.03411E-01
 -1      2773-2.10264E+00-1.02525E+00-6.40702E-01 2.41092E-01-4.05974E-02-6.67840E-01
 -1      2774 8.52817E-01 6.65306E-01 5.34668E-01 3.27868E-01 1.49649E-01-3.92302E-01
 -1      2775 1.42614E+00 9.30754E-01 2.79057E-01 2.20510E-03-1.13826E-01-7.34277E-01
 -3
 9999
