    1C
    1U meshsolid_t.inp                                                  
    1UUSER                                                              
    1UDATE              03.july.2016                                    
    1UTIME              10:44:09                                        
    1UHOST                                                              
    1UPGM               CalculiX                                        
    1UVERSION           Version 2.10                             
    1UCOMPILETIME       Sa 5. MÃ¤r 12:23:33 CET 2016                    
    1UDIR                                                               
    1UDBN                                                               
    1UMAT    1PDMS                                                      
    2C                          3132                                     1
 -1         1 2.63013E+00-4.74999E-01 3.49999E-01
 -1         2 2.63013E+00 4.74999E-01 1.70000E+00
 -1         3 2.63013E+00-4.74999E-01 1.70000E+00
 -1         4 9.21869E+00 9.50000E-01 1.70000E+00
 -1         5 9.21869E+00-4.74999E-01 1.70000E+00
 -1         6 5.98657E+00 4.74999E-01 1.70000E+00
 -1         7 9.21869E+00-9.50000E-01 1.70000E+00
 -1         8 1.25751E+01 4.74999E-01 1.70000E+00
 -1         9 9.21869E+00 4.74999E-01 1.70000E+00
 -1        10 1.25751E+01 4.74999E-01 3.49999E-01
 -1        11 1.25751E+01-4.74999E-01 1.70000E+00
 -1        12 5.98657E+00 4.74999E-01 3.49999E-01
 -1        13 5.98657E+00-4.74999E-01 1.70000E+00
 -1        14 5.98657E+00-4.74999E-01 3.49999E-01
 -1        15 5.98657E+00-9.50000E-01 1.70000E+00
 -1        16 5.98657E+00 9.50000E-01 1.70000E+00
 -1        17 9.21869E+00-4.74999E-01 3.49999E-01
 -1        18 9.21869E+00 4.74999E-01 3.49999E-01
 -1        19 8.69874E+00 3.08900E+00 1.70000E+00
 -1        20 1.14361E+01 5.25114E+00 1.70000E+00
 -1        21 5.89442E+00 1.41328E+00 1.70000E+00
 -1        22 8.33519E+00 3.96668E+00 1.70000E+00
 -1        23 8.15341E+00 4.40553E+00 1.70000E+00
 -1        24 1.14361E+01 5.25114E+00 3.49999E-01
 -1        25 1.17997E+01 4.37345E+00 1.70000E+00
 -1        26 5.34909E+00 2.72980E+00 1.70000E+00
 -1        27 2.24815E+00 1.44535E+00 1.70000E+00
 -1        28 2.61170E+00 5.67665E-01 1.70000E+00
 -1        29 5.71264E+00 1.85212E+00 1.70000E+00
 -1        30 5.71264E+00 1.85212E+00 3.49999E-01
 -1        31 5.89442E+00 1.41328E+00 3.49999E-01
 -1        32 5.34909E+00 2.72980E+00 3.49999E-01
 -1        33 5.16732E+00 3.16865E+00 1.70000E+00
 -1        34 8.69874E+00 3.08900E+00 3.49999E-01
 -1        35 8.88051E+00 2.65016E+00 1.70000E+00
 -1        36 8.15341E+00 4.40553E+00 3.49999E-01
 -1        37 8.33519E+00 3.96668E+00 3.49999E-01
 -1        38 6.18273E+00 6.85448E+00 1.70000E+00
 -1        39 6.85448E+00 6.18273E+00 1.70000E+00
 -1        40 8.55608E+00 9.22784E+00 1.70000E+00
 -1        41 3.89727E+00 4.56902E+00 3.49999E-01
 -1        42 1.52391E+00 2.19566E+00 1.70000E+00
 -1        43 2.19566E+00 1.52391E+00 1.70000E+00
 -1        44 9.22784E+00 8.55608E+00 1.70000E+00
 -1        45 4.56902E+00 3.89727E+00 1.70000E+00
 -1        46 3.56139E+00 4.90489E+00 1.70000E+00
 -1        47 3.89727E+00 4.56902E+00 1.70000E+00
 -1        48 7.19035E+00 5.84685E+00 1.70000E+00
 -1        49 5.84685E+00 7.19035E+00 1.70000E+00
 -1        50 6.18273E+00 6.85448E+00 3.49999E-01
 -1        51 4.90489E+00 3.56139E+00 1.70000E+00
 -1        52 4.90489E+00 3.56139E+00 3.49999E-01
 -1        53 5.84685E+00 7.19035E+00 3.49999E-01
 -1        54 1.44535E+00 2.24815E+00 1.70000E+00
 -1        55 2.65016E+00 8.88051E+00 1.70000E+00
 -1        56 3.96668E+00 8.33519E+00 1.70000E+00
 -1        57 3.08900E+00 8.69874E+00 1.70000E+00
 -1        58 2.72980E+00 5.34909E+00 1.70000E+00
 -1        59 5.67665E-01 2.61170E+00 1.70000E+00
 -1        60 4.37345E+00 1.17997E+01 1.70000E+00
 -1        61 5.25114E+00 1.14361E+01 1.70000E+00
 -1        62 4.37345E+00 1.17997E+01 3.49999E-01
 -1        63 1.85212E+00 5.71264E+00 1.70000E+00
 -1        64 1.44535E+00 2.24815E+00 3.49999E-01
 -1        65 3.96668E+00 8.33519E+00 3.49999E-01
 -1        66 3.16865E+00 5.16732E+00 3.49999E-01
 -1        67 1.85212E+00 5.71264E+00 3.49999E-01
 -1        68 3.08900E+00 8.69874E+00 3.49999E-01
 -1        69 4.40553E+00 8.15341E+00 1.70000E+00
 -1        70 3.16865E+00 5.16732E+00 1.70000E+00
 -1        71 1.41328E+00 5.89442E+00 1.70000E+00
 -1        72-4.74999E-01 9.21869E+00 1.70000E+00
 -1        73 4.74999E-01 1.25751E+01 1.70000E+00
 -1        74 9.50000E-01 9.21869E+00 1.70000E+00
 -1        75 4.74999E-01 5.98657E+00 1.70000E+00
 -1        76-4.74999E-01 1.25751E+01 1.70000E+00
 -1        77-4.74999E-01 1.25751E+01 3.49999E-01
 -1        78-4.74999E-01 2.63013E+00 3.49999E-01
 -1        79-4.74999E-01 5.98657E+00 3.49999E-01
 -1        80-4.74999E-01 2.63013E+00 1.70000E+00
 -1        81 4.74999E-01 2.63013E+00 1.70000E+00
 -1        82 4.74999E-01 9.21869E+00 1.70000E+00
 -1        83 4.74999E-01 9.21869E+00 3.49999E-01
 -1        84 4.74999E-01 5.98657E+00 3.49999E-01
 -1        85 9.50000E-01 5.98657E+00 3.49999E-01
 -1        86-9.50000E-01 5.98657E+00 3.49999E-01
 -1        87-9.50000E-01 5.98657E+00 1.70000E+00
 -1        88-4.74999E-01 5.98657E+00 1.70000E+00
 -1        89 9.50000E-01 9.21869E+00 3.49999E-01
 -1        90 9.50000E-01 5.98657E+00 1.70000E+00
 -1        91-9.50000E-01 9.21869E+00 1.70000E+00
 -1        92-1.44535E+00 2.24815E+00 1.70000E+00
 -1        93-5.67665E-01 2.61170E+00 1.70000E+00
 -1        94-1.85212E+00 5.71264E+00 1.70000E+00
 -1        95-2.65016E+00 8.88051E+00 1.70000E+00
 -1        96-2.72980E+00 5.34909E+00 1.70000E+00
 -1        97-3.96668E+00 8.33519E+00 1.70000E+00
 -1        98-5.25114E+00 1.14361E+01 1.70000E+00
 -1        99-4.40553E+00 8.15341E+00 1.70000E+00
 -1       100-4.37345E+00 1.17997E+01 1.70000E+00
 -1       101-1.44535E+00 2.24815E+00 3.49999E-01
 -1       102-1.85212E+00 5.71264E+00 3.49999E-01
 -1       103-3.08900E+00 8.69874E+00 1.70000E+00
 -1       104-3.08900E+00 8.69874E+00 3.49999E-01
 -1       105-1.41328E+00 5.89442E+00 1.70000E+00
 -1       106-2.72980E+00 5.34909E+00 3.49999E-01
 -1       107-3.96668E+00 8.33519E+00 3.49999E-01
 -1       108-2.65016E+00 8.88051E+00 3.49999E-01
 -1       109-3.16865E+00 5.16732E+00 1.70000E+00
 -1       110-6.85448E+00 6.18273E+00 1.70000E+00
 -1       111-9.22784E+00 8.55608E+00 1.70000E+00
 -1       112-3.56139E+00 4.90489E+00 1.70000E+00
 -1       113-6.18273E+00 6.85448E+00 1.70000E+00
 -1       114-4.56902E+00 3.89727E+00 1.70000E+00
 -1       115-7.19035E+00 5.84685E+00 1.70000E+00
 -1       116-1.52391E+00 2.19566E+00 1.70000E+00
 -1       117-8.55608E+00 9.22784E+00 1.70000E+00
 -1       118-9.22784E+00 8.55608E+00 3.49999E-01
 -1       119-2.19566E+00 1.52391E+00 1.70000E+00
 -1       120-3.89727E+00 4.56902E+00 1.70000E+00
 -1       121-3.89727E+00 4.56902E+00 3.49999E-01
 -1       122-4.90489E+00 3.56139E+00 1.70000E+00
 -1       123-4.56902E+00 3.89727E+00 3.49999E-01
 -1       124-6.18273E+00 6.85448E+00 3.49999E-01
 -1       125-5.84685E+00 7.19035E+00 1.70000E+00
 -1       126-5.84685E+00 7.19035E+00 3.49999E-01
 -1       127-6.85448E+00 6.18273E+00 3.49999E-01
 -1       128-7.19035E+00 5.84685E+00 3.49999E-01
 -1       129-2.61170E+00 5.67665E-01 1.70000E+00
 -1       130-1.14361E+01 5.25114E+00 1.70000E+00
 -1       131-1.17997E+01 4.37345E+00 1.70000E+00
 -1       132-8.33519E+00 3.96668E+00 1.70000E+00
 -1       133-5.16732E+00 3.16865E+00 1.70000E+00
 -1       134-5.34909E+00 2.72980E+00 1.70000E+00
 -1       135-2.24815E+00 1.44535E+00 1.70000E+00
 -1       136-1.14361E+01 5.25114E+00 3.49999E-01
 -1       137-1.17997E+01 4.37345E+00 3.49999E-01
 -1       138-5.34909E+00 2.72980E+00 3.49999E-01
 -1       139-8.33519E+00 3.96668E+00 3.49999E-01
 -1       140-5.71264E+00 1.85212E+00 1.70000E+00
 -1       141-5.71264E+00 1.85212E+00 3.49999E-01
 -1       142-8.88051E+00 2.65016E+00 3.49999E-01
 -1       143-8.69874E+00 3.08900E+00 1.70000E+00
 -1       144-8.15341E+00 4.40553E+00 1.70000E+00
 -1       145-8.15341E+00 4.40553E+00 3.49999E-01
 -1       146-8.88051E+00 2.65016E+00 1.70000E+00
 -1       147-5.89442E+00 1.41328E+00 1.70000E+00
 -1       148-2.63013E+00-4.74999E-01 1.70000E+00
 -1       149-2.63013E+00 4.74999E-01 1.70000E+00
 -1       150-5.98657E+00 4.74999E-01 1.70000E+00
 -1       151-5.98657E+00 9.50000E-01 1.70000E+00
 -1       152-9.21869E+00 4.74999E-01 1.70000E+00
 -1       153-9.21869E+00-4.74999E-01 1.70000E+00
 -1       154-5.98657E+00-4.74999E-01 1.70000E+00
 -1       155-1.25751E+01 4.74999E-01 1.70000E+00
 -1       156-1.25751E+01-4.74999E-01 3.49999E-01
 -1       157-1.25751E+01-4.74999E-01 1.70000E+00
 -1       158-2.63013E+00-4.74999E-01 3.49999E-01
 -1       159-9.21869E+00 4.74999E-01 3.49999E-01
 -1       160-9.21869E+00 9.50000E-01 1.70000E+00
 -1       161-9.21869E+00-4.74999E-01 3.49999E-01
 -1       162-5.98657E+00-9.50000E-01 1.70000E+00
 -1       163-9.21869E+00-9.50000E-01 1.70000E+00
 -1       164-5.98657E+00-9.50000E-01 3.49999E-01
 -1       165-2.61170E+00-5.67665E-01 1.70000E+00
 -1       166-2.24815E+00-1.44535E+00 1.70000E+00
 -1       167-5.89442E+00-1.41328E+00 1.70000E+00
 -1       168-5.71264E+00-1.85212E+00 1.70000E+00
 -1       169-8.33519E+00-3.96668E+00 1.70000E+00
 -1       170-8.88051E+00-2.65016E+00 1.70000E+00
 -1       171-1.17997E+01-4.37345E+00 1.70000E+00
 -1       172-1.14361E+01-5.25114E+00 1.70000E+00
 -1       173-8.33519E+00-3.96668E+00 3.49999E-01
 -1       174-5.34909E+00-2.72980E+00 3.49999E-01
 -1       175-5.34909E+00-2.72980E+00 1.70000E+00
 -1       176-2.24815E+00-1.44535E+00 3.49999E-01
 -1       177-5.71264E+00-1.85212E+00 3.49999E-01
 -1       178-8.69874E+00-3.08900E+00 3.49999E-01
 -1       179-5.16732E+00-3.16865E+00 3.49999E-01
 -1       180-8.69874E+00-3.08900E+00 1.70000E+00
 -1       181-5.89442E+00-1.41328E+00 3.49999E-01
 -1       182-8.15341E+00-4.40553E+00 1.70000E+00
 -1       183-5.16732E+00-3.16865E+00 1.70000E+00
 -1       184-4.90489E+00-3.56139E+00 1.70000E+00
 -1       185-3.89727E+00-4.56902E+00 1.70000E+00
 -1       186-3.56139E+00-4.90489E+00 1.70000E+00
 -1       187-5.84685E+00-7.19035E+00 1.70000E+00
 -1       188-6.85448E+00-6.18273E+00 1.70000E+00
 -1       189-7.19035E+00-5.84685E+00 1.70000E+00
 -1       190-6.18273E+00-6.85448E+00 1.70000E+00
 -1       191-8.55608E+00-9.22784E+00 3.49999E-01
 -1       192-8.55608E+00-9.22784E+00 1.70000E+00
 -1       193-1.52391E+00-2.19566E+00 3.49999E-01
 -1       194-1.52391E+00-2.19566E+00 1.70000E+00
 -1       195-2.19566E+00-1.52391E+00 1.70000E+00
 -1       196-9.22784E+00-8.55608E+00 1.70000E+00
 -1       197-6.85448E+00-6.18273E+00 3.49999E-01
 -1       198-9.22784E+00-8.55608E+00 3.49999E-01
 -1       199-4.90489E+00-3.56139E+00 3.49999E-01
 -1       200-4.56902E+00-3.89727E+00 1.70000E+00
 -1       201-3.89727E+00-4.56902E+00 3.49999E-01
 -1       202-3.56139E+00-4.90489E+00 3.49999E-01
 -1       203-7.19035E+00-5.84685E+00 3.49999E-01
 -1       204-5.67665E-01-2.61170E+00 1.70000E+00
 -1       205-1.85212E+00-5.71264E+00 1.70000E+00
 -1       206-2.72980E+00-5.34909E+00 1.70000E+00
 -1       207-3.08900E+00-8.69874E+00 1.70000E+00
 -1       208-4.37345E+00-1.17997E+01 1.70000E+00
 -1       209-5.25114E+00-1.14361E+01 1.70000E+00
 -1       210-5.67665E-01-2.61170E+00 3.49999E-01
 -1       211-1.44535E+00-2.24815E+00 1.70000E+00
 -1       212-2.72980E+00-5.34909E+00 3.49999E-01
 -1       213-5.25114E+00-1.14361E+01 3.49999E-01
 -1       214-3.16865E+00-5.16732E+00 1.70000E+00
 -1       215-1.41328E+00-5.89442E+00 3.49999E-01
 -1       216-1.41328E+00-5.89442E+00 1.70000E+00
 -1       217-1.85212E+00-5.71264E+00 3.49999E-01
 -1       218-3.96668E+00-8.33519E+00 1.70000E+00
 -1       219-2.65016E+00-8.88051E+00 1.70000E+00
 -1       220-2.65016E+00-8.88051E+00 3.49999E-01
 -1       221-3.16865E+00-5.16732E+00 3.49999E-01
 -1       222-4.40553E+00-8.15341E+00 1.70000E+00
 -1       223-4.74999E-01-2.63013E+00 1.70000E+00
 -1       224-4.74999E-01-5.98657E+00 1.70000E+00
 -1       225-9.50000E-01-9.21869E+00 1.70000E+00
 -1       226 4.74999E-01-2.63013E+00 1.70000E+00
 -1       227 4.74999E-01-9.21869E+00 1.70000E+00
 -1       228 4.74999E-01-1.25751E+01 1.70000E+00
 -1       229 4.74999E-01-5.98657E+00 1.70000E+00
 -1       230-4.74999E-01-1.25751E+01 1.70000E+00
 -1       231-9.50000E-01-5.98657E+00 1.70000E+00
 -1       232-9.50000E-01-5.98657E+00 3.49999E-01
 -1       233 9.50000E-01-5.98657E+00 1.70000E+00
 -1       234 9.50000E-01-5.98657E+00 3.49999E-01
 -1       235-4.74999E-01-9.21869E+00 1.70000E+00
 -1       236 9.50000E-01-9.21869E+00 1.70000E+00
 -1       237 5.67665E-01-2.61170E+00 1.70000E+00
 -1       238 5.25114E+00-1.14361E+01 1.70000E+00
 -1       239 3.08900E+00-8.69874E+00 1.70000E+00
 -1       240 1.85212E+00-5.71264E+00 1.70000E+00
 -1       241 1.44535E+00-2.24815E+00 1.70000E+00
 -1       242 2.65016E+00-8.88051E+00 1.70000E+00
 -1       243 3.96668E+00-8.33519E+00 1.70000E+00
 -1       244 3.96668E+00-8.33519E+00 3.49999E-01
 -1       245 2.72980E+00-5.34909E+00 1.70000E+00
 -1       246 4.37345E+00-1.17997E+01 3.49999E-01
 -1       247 4.37345E+00-1.17997E+01 1.70000E+00
 -1       248 1.85212E+00-5.71264E+00 3.49999E-01
 -1       249 1.41328E+00-5.89442E+00 1.70000E+00
 -1       250 1.41328E+00-5.89442E+00 3.49999E-01
 -1       251 3.16865E+00-5.16732E+00 1.70000E+00
 -1       252 2.72980E+00-5.34909E+00 3.49999E-01
 -1       253 2.65016E+00-8.88051E+00 3.49999E-01
 -1       254 4.40553E+00-8.15341E+00 1.70000E+00
 -1       255 3.16865E+00-5.16732E+00 3.49999E-01
 -1       256 2.19566E+00-1.52391E+00 1.70000E+00
 -1       257 7.19035E+00-5.84685E+00 1.70000E+00
 -1       258 6.85448E+00-6.18273E+00 1.70000E+00
 -1       259 4.56902E+00-3.89727E+00 1.70000E+00
 -1       260 8.55608E+00-9.22784E+00 1.70000E+00
 -1       261 9.22784E+00-8.55608E+00 3.49999E-01
 -1       262 9.22784E+00-8.55608E+00 1.70000E+00
 -1       263 1.52391E+00-2.19566E+00 1.70000E+00
 -1       264 3.89727E+00-4.56902E+00 1.70000E+00
 -1       265 8.55608E+00-9.22784E+00 3.49999E-01
 -1       266 6.18273E+00-6.85448E+00 1.70000E+00
 -1       267 3.89727E+00-4.56902E+00 3.49999E-01
 -1       268 3.56139E+00-4.90489E+00 3.49999E-01
 -1       269 4.90489E+00-3.56139E+00 3.49999E-01
 -1       270 4.90489E+00-3.56139E+00 1.70000E+00
 -1       271 5.84685E+00-7.19035E+00 1.70000E+00
 -1       272 7.19035E+00-5.84685E+00 3.49999E-01
 -1       273 6.85448E+00-6.18273E+00 3.49999E-01
 -1       274 3.56139E+00-4.90489E+00 1.70000E+00
 -1       275 2.61170E+00-5.67665E-01 1.70000E+00
 -1       276 2.24815E+00-1.44535E+00 1.70000E+00
 -1       277 5.71264E+00-1.85212E+00 1.70000E+00
 -1       278 5.16732E+00-3.16865E+00 1.70000E+00
 -1       279 1.17997E+01-4.37345E+00 1.70000E+00
 -1       280 1.14361E+01-5.25114E+00 1.70000E+00
 -1       281 1.14361E+01-5.25114E+00 3.49999E-01
 -1       282 1.17997E+01-4.37345E+00 3.49999E-01
 -1       283 8.69874E+00-3.08900E+00 1.70000E+00
 -1       284 5.71264E+00-1.85212E+00 3.49999E-01
 -1       285 5.34909E+00-2.72980E+00 1.70000E+00
 -1       286 8.33519E+00-3.96668E+00 1.70000E+00
 -1       287 8.33519E+00-3.96668E+00 3.49999E-01
 -1       288 8.15341E+00-4.40553E+00 1.70000E+00
 -1       289 8.88051E+00-2.65016E+00 1.70000E+00
 -1       290 8.69874E+00-3.08900E+00 3.49999E-01
 -1       291 5.16732E+00-3.16865E+00 3.49999E-01
 -1       292 8.88051E+00-2.65016E+00 3.49999E-01
 -1       293 5.89442E+00-1.41328E+00 1.70000E+00
 -1       294 1.66733E+01 3.31653E+00-3.49999E-01
 -1       295 1.70000E+01 0.00000E+00-3.49999E-01
 -1       296-1.66733E+01 3.31653E+00 3.49999E-01
 -1       297 3.31653E+00 1.66733E+01-3.49999E-01
 -1       298 1.41350E+01 9.44469E+00 3.49999E-01
 -1       299 1.41350E+01 9.44469E+00-3.49999E-01
 -1       300-9.44469E+00 1.41350E+01-3.49999E-01
 -1       301 1.57060E+01 6.50562E+00-3.49999E-01
 -1       302 1.20208E+01-1.20208E+01-3.49999E-01
 -1       303 9.44469E+00-1.41350E+01-3.49999E-01
 -1       304 1.20208E+01 1.20208E+01-3.49999E-01
 -1       305 9.44469E+00 1.41350E+01-3.49999E-01
 -1       306 6.50562E+00 1.57060E+01-3.49999E-01
 -1       307-3.31653E+00-1.66733E+01-3.49999E-01
 -1       308-6.50562E+00 1.57060E+01-3.49999E-01
 -1       309-1.20208E+01-1.20208E+01-3.49999E-01
 -1       310-9.44469E+00-1.41350E+01-3.49999E-01
 -1       311-1.20208E+01 1.20208E+01-3.49999E-01
 -1       312-1.41350E+01 9.44469E+00-3.49999E-01
 -1       313-1.41350E+01-9.44469E+00-3.49999E-01
 -1       314-1.57060E+01 6.50562E+00-3.49999E-01
 -1       315-1.66733E+01-3.31653E+00-3.49999E-01
 -1       316-1.66733E+01 3.31653E+00-3.49999E-01
 -1       317 1.57060E+01 6.50562E+00 3.49999E-01
 -1       318 3.31653E+00 1.66733E+01 3.49999E-01
 -1       319-1.41350E+01 9.44469E+00 3.49999E-01
 -1       320-8.69874E+00 3.08900E+00 3.49999E-01
 -1       321-9.21869E+00 9.50000E-01 3.49999E-01
 -1       322-1.57060E+01 6.50562E+00 3.49999E-01
 -1       323-8.88051E+00-2.65016E+00 3.49999E-01
 -1       324-9.21869E+00-9.50000E-01 3.49999E-01
 -1       325-1.66733E+01-3.31653E+00 3.49999E-01
 -1       326-1.41350E+01-9.44469E+00 3.49999E-01
 -1       327-1.20208E+01-1.20208E+01 3.49999E-01
 -1       328-1.17997E+01-4.37345E+00 3.49999E-01
 -1       329-1.25751E+01 4.74999E-01 3.49999E-01
 -1       330-1.70000E+01 0.00000E+00 3.49999E-01
 -1       331-1.20208E+01 1.20208E+01 3.49999E-01
 -1       332-8.15341E+00-4.40553E+00 3.49999E-01
 -1       333-1.14361E+01-5.25114E+00 3.49999E-01
 -1       334-3.96668E+00-8.33519E+00 3.49999E-01
 -1       335-5.25114E+00 1.14361E+01 3.49999E-01
 -1       336-4.40553E+00 8.15341E+00 3.49999E-01
 -1       337-3.56139E+00 4.90489E+00 3.49999E-01
 -1       338-2.61170E+00-5.67665E-01 3.49999E-01
 -1       339-2.61170E+00 5.67665E-01 3.49999E-01
 -1       340-5.89442E+00 1.41328E+00 3.49999E-01
 -1       341-5.98657E+00 9.50000E-01 3.49999E-01
 -1       342-5.98657E+00 4.74999E-01 3.49999E-01
 -1       343-2.19566E+00 1.52391E+00 3.49999E-01
 -1       344-4.90489E+00 3.56139E+00 3.49999E-01
 -1       345-2.24815E+00 1.44535E+00 3.49999E-01
 -1       346-5.16732E+00 3.16865E+00 3.49999E-01
 -1       347-3.16865E+00 5.16732E+00 3.49999E-01
 -1       348-1.52391E+00 2.19566E+00 3.49999E-01
 -1       349-4.74999E-01-2.63013E+00 3.49999E-01
 -1       350-4.74999E-01-5.98657E+00 3.49999E-01
 -1       351-1.44535E+00-2.24815E+00 3.49999E-01
 -1       352-2.19566E+00-1.52391E+00 3.49999E-01
 -1       353-4.56902E+00-3.89727E+00 3.49999E-01
 -1       354-2.63013E+00 4.74999E-01 3.49999E-01
 -1       355-5.98657E+00-4.74999E-01 3.49999E-01
 -1       356-4.40553E+00-8.15341E+00 3.49999E-01
 -1       357-5.84685E+00-7.19035E+00 3.49999E-01
 -1       358-4.74999E-01-9.21869E+00 3.49999E-01
 -1       359-5.67665E-01 2.61170E+00 3.49999E-01
 -1       360-1.41328E+00 5.89442E+00 3.49999E-01
 -1       361 5.67665E-01 2.61170E+00 3.49999E-01
 -1       362 4.74999E-01-2.63013E+00 3.49999E-01
 -1       363 4.74999E-01 2.63013E+00 3.49999E-01
 -1       364 5.67665E-01-2.61170E+00 3.49999E-01
 -1       365 4.74999E-01-5.98657E+00 3.49999E-01
 -1       366 1.41328E+00 5.89442E+00 3.49999E-01
 -1       367 5.34909E+00-2.72980E+00 3.49999E-01
 -1       368 2.19566E+00-1.52391E+00 3.49999E-01
 -1       369 4.56902E+00-3.89727E+00 3.49999E-01
 -1       370 1.52391E+00 2.19566E+00 3.49999E-01
 -1       371 4.40553E+00-8.15341E+00 3.49999E-01
 -1       372 2.72980E+00 5.34909E+00 3.49999E-01
 -1       373 5.84685E+00-7.19035E+00 3.49999E-01
 -1       374 5.89442E+00-1.41328E+00 3.49999E-01
 -1       375 2.61170E+00-5.67665E-01 3.49999E-01
 -1       376 2.24815E+00-1.44535E+00 3.49999E-01
 -1       377 5.98657E+00-9.50000E-01 3.49999E-01
 -1       378 8.55608E+00 9.22784E+00 3.49999E-01
 -1       379 9.44469E+00 1.41350E+01 3.49999E-01
 -1       380 5.25114E+00 1.14361E+01 3.49999E-01
 -1       381 6.50562E+00 1.57060E+01 3.49999E-01
 -1       382 4.74999E-01 1.25751E+01 3.49999E-01
 -1       383 2.65016E+00 8.88051E+00 3.49999E-01
 -1       384-4.74999E-01 9.21869E+00 3.49999E-01
 -1       385-9.50000E-01 9.21869E+00 3.49999E-01
 -1       386-6.50562E+00 1.57060E+01 3.49999E-01
 -1       387-4.37345E+00 1.17997E+01 3.49999E-01
 -1       388-3.31653E+00 1.66733E+01 3.49999E-01
 -1       389-8.55608E+00 9.22784E+00 3.49999E-01
 -1       390-9.44469E+00 1.41350E+01 3.49999E-01
 -1       391 1.20208E+01 1.20208E+01 3.49999E-01
 -1       392 9.22784E+00 8.55608E+00 3.49999E-01
 -1       393 7.19035E+00 5.84685E+00 3.49999E-01
 -1       394 6.85448E+00 6.18273E+00 3.49999E-01
 -1       395 1.66733E+01 3.31653E+00 3.49999E-01
 -1       396 1.17997E+01 4.37345E+00 3.49999E-01
 -1       397 1.70000E+01 0.00000E+00 3.49999E-01
 -1       398 1.25751E+01-4.74999E-01 3.49999E-01
 -1       399 1.57060E+01-6.50562E+00 3.49999E-01
 -1       400 9.21869E+00-9.50000E-01 3.49999E-01
 -1       401 1.20208E+01-1.20208E+01 3.49999E-01
 -1       402 8.15341E+00-4.40553E+00 3.49999E-01
 -1       403 9.44469E+00-1.41350E+01 3.49999E-01
 -1       404 6.18273E+00-6.85448E+00 3.49999E-01
 -1       405 5.25114E+00-1.14361E+01 3.49999E-01
 -1       406 6.50562E+00-1.57060E+01 3.49999E-01
 -1       407 3.08900E+00-8.69874E+00 3.49999E-01
 -1       408 4.74999E-01-1.25751E+01 3.49999E-01
 -1       409 9.50000E-01-9.21869E+00 3.49999E-01
 -1       410 4.74999E-01-9.21869E+00 3.49999E-01
 -1       411 3.31653E+00-1.66733E+01 3.49999E-01
 -1       412-9.50000E-01-9.21869E+00 3.49999E-01
 -1       413-4.37345E+00-1.17997E+01 3.49999E-01
 -1       414-3.08900E+00-8.69874E+00 3.49999E-01
 -1       415-4.74999E-01-1.25751E+01 3.49999E-01
 -1       416-3.31653E+00-1.66733E+01 3.49999E-01
 -1       417-6.18273E+00-6.85448E+00 3.49999E-01
 -1       418 9.21869E+00 9.50000E-01 3.49999E-01
 -1       419 8.88051E+00 2.65016E+00 3.49999E-01
 -1       420 5.98657E+00 9.50000E-01 3.49999E-01
 -1       421 2.61170E+00 5.67665E-01 3.49999E-01
 -1       422 2.63013E+00 4.74999E-01 3.49999E-01
 -1       423 5.16732E+00 3.16865E+00 3.49999E-01
 -1       424 3.56139E+00 4.90489E+00 3.49999E-01
 -1       425 4.40553E+00 8.15341E+00 3.49999E-01
 -1       426 2.19566E+00 1.52391E+00 3.49999E-01
 -1       427 4.56902E+00 3.89727E+00 3.49999E-01
 -1       428 2.24815E+00 1.44535E+00 3.49999E-01
 -1       429 1.52391E+00-2.19566E+00 3.49999E-01
 -1       430 1.44535E+00-2.24815E+00 3.49999E-01
 -1       431 0.00000E+00 1.70000E+01-3.49999E-01
 -1       432 0.00000E+00 1.70000E+01 3.49999E-01
 -1       433-3.31653E+00 1.66733E+01-3.49999E-01
 -1       434 1.66733E+01-3.31653E+00 3.49999E-01
 -1       435-1.70000E+01 0.00000E+00-3.49999E-01
 -1       436 0.00000E+00-1.70000E+01-3.49999E-01
 -1       437 6.50562E+00-1.57060E+01-3.49999E-01
 -1       438 1.66733E+01-3.31653E+00-3.49999E-01
 -1       439 1.57060E+01-6.50562E+00-3.49999E-01
 -1       440 1.41350E+01-9.44469E+00 3.49999E-01
 -1       441 1.41350E+01-9.44469E+00-3.49999E-01
 -1       442-6.50562E+00-1.57060E+01 3.49999E-01
 -1       443-9.44469E+00-1.41350E+01 3.49999E-01
 -1       444-6.50562E+00-1.57060E+01-3.49999E-01
 -1       445 0.00000E+00-1.70000E+01 3.49999E-01
 -1       446-1.57060E+01-6.50562E+00-3.49999E-01
 -1       447-1.57060E+01-6.50562E+00 3.49999E-01
 -1       448 3.31653E+00-1.66733E+01-3.49999E-01
 -1       449 2.63013E+00 4.74999E-01 1.02500E+00
 -1       450 2.63013E+00-4.74999E-01 1.02500E+00
 -1       451 4.30835E+00 4.74999E-01 1.70000E+00
 -1       452 4.30835E+00-4.74999E-01 1.70000E+00
 -1       453 7.60263E+00 9.50000E-01 1.70000E+00
 -1       454 7.60263E+00-9.50000E-01 1.70000E+00
 -1       455 1.08969E+01 4.74999E-01 1.70000E+00
 -1       456 1.08969E+01-4.74999E-01 1.70000E+00
 -1       457 1.25751E+01 4.74999E-01 1.02500E+00
 -1       458 1.25751E+01-4.74999E-01 1.02500E+00
 -1       459 1.08969E+01 4.74999E-01 3.49999E-01
 -1       460 9.21869E+00 4.74999E-01 1.02500E+00
 -1       461 5.98657E+00 4.74999E-01 1.02500E+00
 -1       462 4.30835E+00 4.74999E-01 3.49999E-01
 -1       463 4.30835E+00-4.74999E-01 3.49999E-01
 -1       464 5.98657E+00-4.74999E-01 1.02500E+00
 -1       465 9.21869E+00-4.74999E-01 1.02500E+00
 -1       466 1.08969E+01-4.74999E-01 3.49999E-01
 -1       467 5.98657E+00-9.50000E-01 1.02500E+00
 -1       468 5.98657E+00 9.50000E-01 1.02500E+00
 -1       469 9.21869E+00-9.50000E-01 1.02500E+00
 -1       470 9.21869E+00 9.50000E-01 1.02500E+00
 -1       471 7.60263E+00-9.50000E-01 3.49999E-01
 -1       472 7.60263E+00 9.50000E-01 3.49999E-01
 -1       473 2.24815E+00 1.44535E+00 1.02500E+00
 -1       474 2.61170E+00 5.67665E-01 1.02500E+00
 -1       475 1.02492E+01 3.73123E+00 1.70000E+00
 -1       476 9.88564E+00 4.60891E+00 1.70000E+00
 -1       477 7.38747E+00 2.03172E+00 1.70000E+00
 -1       478 6.66037E+00 3.78709E+00 1.70000E+00
 -1       479 4.16217E+00 1.20989E+00 1.70000E+00
 -1       480 3.79862E+00 2.08757E+00 1.70000E+00
 -1       481 1.14361E+01 5.25114E+00 1.02500E+00
 -1       482 1.17997E+01 4.37345E+00 1.02500E+00
 -1       483 9.88564E+00 4.60891E+00 3.49999E-01
 -1       484 8.33519E+00 3.96668E+00 1.02500E+00
 -1       485 5.34909E+00 2.72980E+00 1.02500E+00
 -1       486 3.79862E+00 2.08757E+00 3.49999E-01
 -1       487 4.16217E+00 1.20989E+00 3.49999E-01
 -1       488 5.71264E+00 1.85212E+00 1.02500E+00
 -1       489 8.69874E+00 3.08900E+00 1.02500E+00
 -1       490 1.02492E+01 3.73123E+00 3.49999E-01
 -1       491 5.89442E+00 1.41328E+00 1.02500E+00
 -1       492 5.16732E+00 3.16865E+00 1.02500E+00
 -1       493 8.88051E+00 2.65016E+00 1.02500E+00
 -1       494 8.15341E+00 4.40553E+00 1.02500E+00
 -1       495 7.38747E+00 2.03172E+00 3.49999E-01
 -1       496 6.66037E+00 3.78709E+00 3.49999E-01
 -1       497 1.52391E+00 2.19566E+00 1.02500E+00
 -1       498 2.19566E+00 1.52391E+00 1.02500E+00
 -1       499 8.04116E+00 7.36940E+00 1.70000E+00
 -1       500 7.36940E+00 8.04116E+00 1.70000E+00
 -1       501 6.04762E+00 4.70412E+00 1.70000E+00
 -1       502 4.70412E+00 6.04762E+00 1.70000E+00
 -1       503 3.38234E+00 2.71059E+00 1.70000E+00
 -1       504 2.71059E+00 3.38234E+00 1.70000E+00
 -1       505 8.55608E+00 9.22784E+00 1.02500E+00
 -1       506 9.22784E+00 8.55608E+00 1.02500E+00
 -1       507 7.36940E+00 8.04116E+00 3.49999E-01
 -1       508 6.18273E+00 6.85448E+00 1.02500E+00
 -1       509 3.89727E+00 4.56902E+00 1.02500E+00
 -1       510 2.71059E+00 3.38234E+00 3.49999E-01
 -1       511 4.56902E+00 3.89727E+00 1.02500E+00
 -1       512 3.38234E+00 2.71059E+00 3.49999E-01
 -1       513 6.85448E+00 6.18273E+00 1.02500E+00
 -1       514 8.04116E+00 7.36940E+00 3.49999E-01
 -1       515 4.90489E+00 3.56139E+00 1.02500E+00
 -1       516 3.56139E+00 4.90489E+00 1.02500E+00
 -1       517 7.19035E+00 5.84685E+00 1.02500E+00
 -1       518 5.84685E+00 7.19035E+00 1.02500E+00
 -1       519 6.04762E+00 4.70412E+00 3.49999E-01
 -1       520 4.70412E+00 6.04762E+00 3.49999E-01
 -1       521 5.67665E-01 2.61170E+00 1.02500E+00
 -1       522 1.44535E+00 2.24815E+00 1.02500E+00
 -1       523 2.03172E+00 7.38747E+00 1.70000E+00
 -1       524 4.60891E+00 9.88564E+00 1.70000E+00
 -1       525 3.73123E+00 1.02492E+01 1.70000E+00
 -1       526 2.08757E+00 3.79862E+00 1.70000E+00
 -1       527 1.20989E+00 4.16217E+00 1.70000E+00
 -1       528 3.78709E+00 6.66037E+00 1.70000E+00
 -1       529 5.25114E+00 1.14361E+01 1.02500E+00
 -1       530 4.37345E+00 1.17997E+01 1.02500E+00
 -1       531 3.73123E+00 1.02492E+01 3.49999E-01
 -1       532 3.08900E+00 8.69874E+00 1.02500E+00
 -1       533 1.85212E+00 5.71264E+00 1.02500E+00
 -1       534 1.20989E+00 4.16217E+00 3.49999E-01
 -1       535 2.72980E+00 5.34909E+00 1.02500E+00
 -1       536 2.08757E+00 3.79862E+00 3.49999E-01
 -1       537 3.96668E+00 8.33519E+00 1.02500E+00
 -1       538 4.60891E+00 9.88564E+00 3.49999E-01
 -1       539 3.16865E+00 5.16732E+00 1.02500E+00
 -1       540 1.41328E+00 5.89442E+00 1.02500E+00
 -1       541 4.40553E+00 8.15341E+00 1.02500E+00
 -1       542 2.65016E+00 8.88051E+00 1.02500E+00
 -1       543 3.78709E+00 6.66037E+00 3.49999E-01
 -1       544 2.03172E+00 7.38747E+00 3.49999E-01
 -1       545-4.74999E-01 2.63013E+00 1.02500E+00
 -1       546 4.74999E-01 2.63013E+00 1.02500E+00
 -1       547-9.50000E-01 7.60263E+00 1.70000E+00
 -1       548 4.74999E-01 1.08969E+01 1.70000E+00
 -1       549-4.74999E-01 1.08969E+01 1.70000E+00
 -1       550 4.74999E-01 4.30835E+00 1.70000E+00
 -1       551-4.74999E-01 4.30835E+00 1.70000E+00
 -1       552 9.50000E-01 7.60263E+00 1.70000E+00
 -1       553 4.74999E-01 1.25751E+01 1.02500E+00
 -1       554-4.74999E-01 1.25751E+01 1.02500E+00
 -1       555-4.74999E-01 1.08969E+01 3.49999E-01
 -1       556-4.74999E-01 9.21869E+00 1.02500E+00
 -1       557-4.74999E-01 5.98657E+00 1.02500E+00
 -1       558-4.74999E-01 4.30835E+00 3.49999E-01
 -1       559 4.74999E-01 5.98657E+00 1.02500E+00
 -1       560 4.74999E-01 4.30835E+00 3.49999E-01
 -1       561 4.74999E-01 9.21869E+00 1.02500E+00
 -1       562 4.74999E-01 1.08969E+01 3.49999E-01
 -1       563 9.50000E-01 5.98657E+00 1.02500E+00
 -1       564-9.50000E-01 5.98657E+00 1.02500E+00
 -1       565 9.50000E-01 9.21869E+00 1.02500E+00
 -1       566-9.50000E-01 9.21869E+00 1.02500E+00
 -1       567 9.50000E-01 7.60263E+00 3.49999E-01
 -1       568-9.50000E-01 7.60263E+00 3.49999E-01
 -1       569-1.44535E+00 2.24815E+00 1.02500E+00
 -1       570-5.67665E-01 2.61170E+00 1.02500E+00
 -1       571-2.03172E+00 7.38747E+00 1.70000E+00
 -1       572-1.20989E+00 4.16217E+00 1.70000E+00
 -1       573-2.08757E+00 3.79862E+00 1.70000E+00
 -1       574-3.73123E+00 1.02492E+01 1.70000E+00
 -1       575-4.60891E+00 9.88564E+00 1.70000E+00
 -1       576-3.78709E+00 6.66037E+00 1.70000E+00
 -1       577-4.37345E+00 1.17997E+01 1.02500E+00
 -1       578-5.25114E+00 1.14361E+01 1.02500E+00
 -1       579-4.60891E+00 9.88564E+00 3.49999E-01
 -1       580-3.96668E+00 8.33519E+00 1.02500E+00
 -1       581-2.72980E+00 5.34909E+00 1.02500E+00
 -1       582-2.08757E+00 3.79862E+00 3.49999E-01
 -1       583-1.85212E+00 5.71264E+00 1.02500E+00
 -1       584-1.20989E+00 4.16217E+00 3.49999E-01
 -1       585-3.08900E+00 8.69874E+00 1.02500E+00
 -1       586-3.73123E+00 1.02492E+01 3.49999E-01
 -1       587-1.41328E+00 5.89442E+00 1.02500E+00
 -1       588-3.16865E+00 5.16732E+00 1.02500E+00
 -1       589-2.65016E+00 8.88051E+00 1.02500E+00
 -1       590-4.40553E+00 8.15341E+00 1.02500E+00
 -1       591-2.03172E+00 7.38747E+00 3.49999E-01
 -1       592-3.78709E+00 6.66037E+00 3.49999E-01
 -1       593-1.52391E+00 2.19566E+00 1.02500E+00
 -1       594-2.19566E+00 1.52391E+00 1.02500E+00
 -1       595-7.36940E+00 8.04116E+00 1.70000E+00
 -1       596-8.04116E+00 7.36940E+00 1.70000E+00
 -1       597-4.70412E+00 6.04762E+00 1.70000E+00
 -1       598-6.04762E+00 4.70412E+00 1.70000E+00
 -1       599-2.71059E+00 3.38234E+00 1.70000E+00
 -1       600-3.38234E+00 2.71059E+00 1.70000E+00
 -1       601-8.55608E+00 9.22784E+00 1.02500E+00
 -1       602-9.22784E+00 8.55608E+00 1.02500E+00
 -1       603-8.04116E+00 7.36940E+00 3.49999E-01
 -1       604-6.85448E+00 6.18273E+00 1.02500E+00
 -1       605-4.56902E+00 3.89727E+00 1.02500E+00
 -1       606-3.38234E+00 2.71059E+00 3.49999E-01
 -1       607-3.89727E+00 4.56902E+00 1.02500E+00
 -1       608-2.71059E+00 3.38234E+00 3.49999E-01
 -1       609-6.18273E+00 6.85448E+00 1.02500E+00
 -1       610-7.36940E+00 8.04116E+00 3.49999E-01
 -1       611-3.56139E+00 4.90489E+00 1.02500E+00
 -1       612-4.90489E+00 3.56139E+00 1.02500E+00
 -1       613-5.84685E+00 7.19035E+00 1.02500E+00
 -1       614-7.19035E+00 5.84685E+00 1.02500E+00
 -1       615-4.70412E+00 6.04762E+00 3.49999E-01
 -1       616-6.04762E+00 4.70412E+00 3.49999E-01
 -1       617-2.24815E+00 1.44535E+00 1.02500E+00
 -1       618-2.61170E+00 5.67665E-01 1.02500E+00
 -1       619-9.88564E+00 4.60891E+00 1.70000E+00
 -1       620-1.02492E+01 3.73123E+00 1.70000E+00
 -1       621-6.66037E+00 3.78709E+00 1.70000E+00
 -1       622-7.38747E+00 2.03172E+00 1.70000E+00
 -1       623-3.79862E+00 2.08757E+00 1.70000E+00
 -1       624-4.16217E+00 1.20989E+00 1.70000E+00
 -1       625-1.14361E+01 5.25114E+00 1.02500E+00
 -1       626-1.17997E+01 4.37345E+00 1.02500E+00
 -1       627-1.02492E+01 3.73123E+00 3.49999E-01
 -1       628-8.69874E+00 3.08900E+00 1.02500E+00
 -1       629-5.71264E+00 1.85212E+00 1.02500E+00
 -1       630-4.16217E+00 1.20989E+00 3.49999E-01
 -1       631-3.79862E+00 2.08757E+00 3.49999E-01
 -1       632-5.34909E+00 2.72980E+00 1.02500E+00
 -1       633-8.33519E+00 3.96668E+00 1.02500E+00
 -1       634-9.88564E+00 4.60891E+00 3.49999E-01
 -1       635-5.16732E+00 3.16865E+00 1.02500E+00
 -1       636-5.89442E+00 1.41328E+00 1.02500E+00
 -1       637-8.15341E+00 4.40553E+00 1.02500E+00
 -1       638-8.88051E+00 2.65016E+00 1.02500E+00
 -1       639-6.66037E+00 3.78709E+00 3.49999E-01
 -1       640-7.38747E+00 2.03172E+00 3.49999E-01
 -1       641-2.63013E+00 4.74999E-01 1.02500E+00
 -1       642-2.63013E+00-4.74999E-01 1.02500E+00
 -1       643-1.08969E+01 4.74999E-01 1.70000E+00
 -1       644-1.08969E+01-4.74999E-01 1.70000E+00
 -1       645-7.60263E+00 9.50000E-01 1.70000E+00
 -1       646-7.60263E+00-9.50000E-01 1.70000E+00
 -1       647-4.30835E+00 4.74999E-01 1.70000E+00
 -1       648-4.30835E+00-4.74999E-01 1.70000E+00
 -1       649-1.25751E+01 4.74999E-01 1.02500E+00
 -1       650-1.25751E+01-4.74999E-01 1.02500E+00
 -1       651-1.08969E+01-4.74999E-01 3.49999E-01
 -1       652-9.21869E+00-4.74999E-01 1.02500E+00
 -1       653-5.98657E+00-4.74999E-01 1.02500E+00
 -1       654-4.30835E+00-4.74999E-01 3.49999E-01
 -1       655-4.30835E+00 4.74999E-01 3.49999E-01
 -1       656-5.98657E+00 4.74999E-01 1.02500E+00
 -1       657-9.21869E+00 4.74999E-01 1.02500E+00
 -1       658-1.08969E+01 4.74999E-01 3.49999E-01
 -1       659-5.98657E+00 9.50000E-01 1.02500E+00
 -1       660-5.98657E+00-9.50000E-01 1.02500E+00
 -1       661-9.21869E+00 9.50000E-01 1.02500E+00
 -1       662-9.21869E+00-9.50000E-01 1.02500E+00
 -1       663-7.60263E+00 9.50000E-01 3.49999E-01
 -1       664-7.60263E+00-9.50000E-01 3.49999E-01
 -1       665-2.61170E+00-5.67665E-01 1.02500E+00
 -1       666-2.24815E+00-1.44535E+00 1.02500E+00
 -1       667-3.79862E+00-2.08757E+00 1.70000E+00
 -1       668-4.16217E+00-1.20989E+00 1.70000E+00
 -1       669-6.66037E+00-3.78709E+00 1.70000E+00
 -1       670-7.38747E+00-2.03172E+00 1.70000E+00
 -1       671-9.88564E+00-4.60891E+00 1.70000E+00
 -1       672-1.02492E+01-3.73123E+00 1.70000E+00
 -1       673-1.17997E+01-4.37345E+00 1.02500E+00
 -1       674-1.14361E+01-5.25114E+00 1.02500E+00
 -1       675-9.88564E+00-4.60891E+00 3.49999E-01
 -1       676-8.33519E+00-3.96668E+00 1.02500E+00
 -1       677-5.34909E+00-2.72980E+00 1.02500E+00
 -1       678-3.79862E+00-2.08757E+00 3.49999E-01
 -1       679-4.16217E+00-1.20989E+00 3.49999E-01
 -1       680-5.71264E+00-1.85212E+00 1.02500E+00
 -1       681-8.69874E+00-3.08900E+00 1.02500E+00
 -1       682-1.02492E+01-3.73123E+00 3.49999E-01
 -1       683-5.89442E+00-1.41328E+00 1.02500E+00
 -1       684-5.16732E+00-3.16865E+00 1.02500E+00
 -1       685-8.88051E+00-2.65016E+00 1.02500E+00
 -1       686-8.15341E+00-4.40553E+00 1.02500E+00
 -1       687-7.38747E+00-2.03172E+00 3.49999E-01
 -1       688-6.66037E+00-3.78709E+00 3.49999E-01
 -1       689-2.19566E+00-1.52391E+00 1.02500E+00
 -1       690-1.52391E+00-2.19566E+00 1.02500E+00
 -1       691-2.71059E+00-3.38234E+00 1.70000E+00
 -1       692-3.38234E+00-2.71059E+00 1.70000E+00
 -1       693-4.70412E+00-6.04762E+00 1.70000E+00
 -1       694-6.04762E+00-4.70412E+00 1.70000E+00
 -1       695-7.36940E+00-8.04116E+00 1.70000E+00
 -1       696-8.04116E+00-7.36940E+00 1.70000E+00
 -1       697-9.22784E+00-8.55608E+00 1.02500E+00
 -1       698-8.55608E+00-9.22784E+00 1.02500E+00
 -1       699-6.18273E+00-6.85448E+00 1.02500E+00
 -1       700-7.36940E+00-8.04116E+00 3.49999E-01
 -1       701-3.89727E+00-4.56902E+00 1.02500E+00
 -1       702-2.71059E+00-3.38234E+00 3.49999E-01
 -1       703-3.38234E+00-2.71059E+00 3.49999E-01
 -1       704-4.56902E+00-3.89727E+00 1.02500E+00
 -1       705-6.85448E+00-6.18273E+00 1.02500E+00
 -1       706-8.04116E+00-7.36940E+00 3.49999E-01
 -1       707-4.90489E+00-3.56139E+00 1.02500E+00
 -1       708-3.56139E+00-4.90489E+00 1.02500E+00
 -1       709-7.19035E+00-5.84685E+00 1.02500E+00
 -1       710-5.84685E+00-7.19035E+00 1.02500E+00
 -1       711-6.04762E+00-4.70412E+00 3.49999E-01
 -1       712-4.70412E+00-6.04762E+00 3.49999E-01
 -1       713-5.67665E-01-2.61170E+00 1.02500E+00
 -1       714-1.44535E+00-2.24815E+00 1.02500E+00
 -1       715-3.78709E+00-6.66037E+00 1.70000E+00
 -1       716-1.20989E+00-4.16217E+00 1.70000E+00
 -1       717-2.08757E+00-3.79862E+00 1.70000E+00
 -1       718-3.73123E+00-1.02492E+01 1.70000E+00
 -1       719-4.60891E+00-9.88564E+00 1.70000E+00
 -1       720-2.03172E+00-7.38747E+00 1.70000E+00
 -1       721-5.25114E+00-1.14361E+01 1.02500E+00
 -1       722-4.37345E+00-1.17997E+01 1.02500E+00
 -1       723-3.08900E+00-8.69874E+00 1.02500E+00
 -1       724-3.73123E+00-1.02492E+01 3.49999E-01
 -1       725-1.85212E+00-5.71264E+00 1.02500E+00
 -1       726-1.20989E+00-4.16217E+00 3.49999E-01
 -1       727-2.08757E+00-3.79862E+00 3.49999E-01
 -1       728-2.72980E+00-5.34909E+00 1.02500E+00
 -1       729-3.96668E+00-8.33519E+00 1.02500E+00
 -1       730-4.60891E+00-9.88564E+00 3.49999E-01
 -1       731-3.16865E+00-5.16732E+00 1.02500E+00
 -1       732-1.41328E+00-5.89442E+00 1.02500E+00
 -1       733-4.40553E+00-8.15341E+00 1.02500E+00
 -1       734-2.65016E+00-8.88051E+00 1.02500E+00
 -1       735-3.78709E+00-6.66037E+00 3.49999E-01
 -1       736-2.03172E+00-7.38747E+00 3.49999E-01
 -1       737 4.74999E-01-2.63013E+00 1.02500E+00
 -1       738-4.74999E-01-2.63013E+00 1.02500E+00
 -1       739-9.50000E-01-7.60263E+00 1.70000E+00
 -1       740 4.74999E-01-4.30835E+00 1.70000E+00
 -1       741-4.74999E-01-4.30835E+00 1.70000E+00
 -1       742 4.74999E-01-1.08969E+01 1.70000E+00
 -1       743-4.74999E-01-1.08969E+01 1.70000E+00
 -1       744 9.50000E-01-7.60263E+00 1.70000E+00
 -1       745-4.74999E-01-1.25751E+01 1.02500E+00
 -1       746 4.74999E-01-1.25751E+01 1.02500E+00
 -1       747 4.74999E-01-9.21869E+00 1.02500E+00
 -1       748 4.74999E-01-1.08969E+01 3.49999E-01
 -1       749 4.74999E-01-5.98657E+00 1.02500E+00
 -1       750 4.74999E-01-4.30835E+00 3.49999E-01
 -1       751-4.74999E-01-4.30835E+00 3.49999E-01
 -1       752-4.74999E-01-5.98657E+00 1.02500E+00
 -1       753-4.74999E-01-9.21869E+00 1.02500E+00
 -1       754-4.74999E-01-1.08969E+01 3.49999E-01
 -1       755-9.50000E-01-5.98657E+00 1.02500E+00
 -1       756 9.50000E-01-5.98657E+00 1.02500E+00
 -1       757-9.50000E-01-9.21869E+00 1.02500E+00
 -1       758 9.50000E-01-9.21869E+00 1.02500E+00
 -1       759-9.50000E-01-7.60263E+00 3.49999E-01
 -1       760 9.50000E-01-7.60263E+00 3.49999E-01
 -1       761 1.44535E+00-2.24815E+00 1.02500E+00
 -1       762 5.67665E-01-2.61170E+00 1.02500E+00
 -1       763 3.78709E+00-6.66037E+00 1.70000E+00
 -1       764 4.60891E+00-9.88564E+00 1.70000E+00
 -1       765 3.73123E+00-1.02492E+01 1.70000E+00
 -1       766 2.08757E+00-3.79862E+00 1.70000E+00
 -1       767 1.20989E+00-4.16217E+00 1.70000E+00
 -1       768 2.03172E+00-7.38747E+00 1.70000E+00
 -1       769 4.37345E+00-1.17997E+01 1.02500E+00
 -1       770 5.25114E+00-1.14361E+01 1.02500E+00
 -1       771 3.96668E+00-8.33519E+00 1.02500E+00
 -1       772 4.60891E+00-9.88564E+00 3.49999E-01
 -1       773 2.72980E+00-5.34909E+00 1.02500E+00
 -1       774 2.08757E+00-3.79862E+00 3.49999E-01
 -1       775 1.20989E+00-4.16217E+00 3.49999E-01
 -1       776 1.85212E+00-5.71264E+00 1.02500E+00
 -1       777 3.08900E+00-8.69874E+00 1.02500E+00
 -1       778 3.73123E+00-1.02492E+01 3.49999E-01
 -1       779 1.41328E+00-5.89442E+00 1.02500E+00
 -1       780 3.16865E+00-5.16732E+00 1.02500E+00
 -1       781 2.65016E+00-8.88051E+00 1.02500E+00
 -1       782 4.40553E+00-8.15341E+00 1.02500E+00
 -1       783 2.03172E+00-7.38747E+00 3.49999E-01
 -1       784 3.78709E+00-6.66037E+00 3.49999E-01
 -1       785 2.19566E+00-1.52391E+00 1.02500E+00
 -1       786 1.52391E+00-2.19566E+00 1.02500E+00
 -1       787 3.38234E+00-2.71059E+00 1.70000E+00
 -1       788 2.71059E+00-3.38234E+00 1.70000E+00
 -1       789 6.04762E+00-4.70412E+00 1.70000E+00
 -1       790 4.70412E+00-6.04762E+00 1.70000E+00
 -1       791 8.04116E+00-7.36940E+00 1.70000E+00
 -1       792 7.36940E+00-8.04116E+00 1.70000E+00
 -1       793 9.22784E+00-8.55608E+00 1.02500E+00
 -1       794 8.55608E+00-9.22784E+00 1.02500E+00
 -1       795 8.04116E+00-7.36940E+00 3.49999E-01
 -1       796 6.85448E+00-6.18273E+00 1.02500E+00
 -1       797 4.56902E+00-3.89727E+00 1.02500E+00
 -1       798 3.38234E+00-2.71059E+00 3.49999E-01
 -1       799 2.71059E+00-3.38234E+00 3.49999E-01
 -1       800 3.89727E+00-4.56902E+00 1.02500E+00
 -1       801 6.18273E+00-6.85448E+00 1.02500E+00
 -1       802 7.36940E+00-8.04116E+00 3.49999E-01
 -1       803 3.56139E+00-4.90489E+00 1.02500E+00
 -1       804 4.90489E+00-3.56139E+00 1.02500E+00
 -1       805 5.84685E+00-7.19035E+00 1.02500E+00
 -1       806 7.19035E+00-5.84685E+00 1.02500E+00
 -1       807 4.70412E+00-6.04762E+00 3.49999E-01
 -1       808 6.04762E+00-4.70412E+00 3.49999E-01
 -1       809 2.61170E+00-5.67665E-01 1.02500E+00
 -1       810 2.24815E+00-1.44535E+00 1.02500E+00
 -1       811 4.16217E+00-1.20989E+00 1.70000E+00
 -1       812 3.79862E+00-2.08757E+00 1.70000E+00
 -1       813 7.38747E+00-2.03172E+00 1.70000E+00
 -1       814 6.66037E+00-3.78709E+00 1.70000E+00
 -1       815 1.02492E+01-3.73123E+00 1.70000E+00
 -1       816 9.88564E+00-4.60891E+00 1.70000E+00
 -1       817 1.17997E+01-4.37345E+00 1.02500E+00
 -1       818 1.14361E+01-5.25114E+00 1.02500E+00
 -1       819 1.02492E+01-3.73123E+00 3.49999E-01
 -1       820 8.69874E+00-3.08900E+00 1.02500E+00
 -1       821 5.71264E+00-1.85212E+00 1.02500E+00
 -1       822 4.16217E+00-1.20989E+00 3.49999E-01
 -1       823 3.79862E+00-2.08757E+00 3.49999E-01
 -1       824 5.34909E+00-2.72980E+00 1.02500E+00
 -1       825 8.33519E+00-3.96668E+00 1.02500E+00
 -1       826 9.88564E+00-4.60891E+00 3.49999E-01
 -1       827 5.16732E+00-3.16865E+00 1.02500E+00
 -1       828 5.89442E+00-1.41328E+00 1.02500E+00
 -1       829 8.15341E+00-4.40553E+00 1.02500E+00
 -1       830 8.88051E+00-2.65016E+00 1.02500E+00
 -1       831 6.66037E+00-3.78709E+00 3.49999E-01
 -1       832 7.38747E+00-2.03172E+00 3.49999E-01
 -1       833 1.68367E+01 1.65826E+00 3.49999E-01
 -1       834 1.68367E+01 1.65826E+00-3.49999E-01
 -1       835-1.68367E+01 1.65826E+00-3.49999E-01
 -1       836-1.68367E+01 1.65826E+00 3.49999E-01
 -1       837 1.65826E+00 1.68367E+01 3.49999E-01
 -1       838 1.65826E+00 1.68367E+01-3.49999E-01
 -1       839 1.30779E+01 1.07327E+01 3.49999E-01
 -1       840 1.30779E+01 1.07327E+01-3.49999E-01
 -1       841 1.61896E+01 4.91108E+00 3.49999E-01
 -1       842 1.61896E+01 4.91108E+00-3.49999E-01
 -1       843-1.07327E+01 1.30779E+01 3.49999E-01
 -1       844-1.07327E+01 1.30779E+01-3.49999E-01
 -1       845-4.91108E+00 1.61896E+01 3.49999E-01
 -1       846-4.91108E+00 1.61896E+01-3.49999E-01
 -1       847 1.30779E+01-1.07327E+01 3.49999E-01
 -1       848 1.30779E+01-1.07327E+01-3.49999E-01
 -1       849 1.68367E+01-1.65826E+00-3.49999E-01
 -1       850 1.61896E+01-4.91108E+00-3.49999E-01
 -1       851 1.49205E+01-7.97515E+00-3.49999E-01
 -1       852 1.49205E+01 7.97515E+00-3.49999E-01
 -1       853 1.07327E+01-1.30779E+01-3.49999E-01
 -1       854 1.07327E+01 1.30779E+01-3.49999E-01
 -1       855 7.97515E+00-1.49205E+01-3.49999E-01
 -1       856 7.97515E+00 1.49205E+01-3.49999E-01
 -1       857 4.91108E+00-1.61896E+01-3.49999E-01
 -1       858 4.91108E+00 1.61896E+01-3.49999E-01
 -1       859 1.65826E+00-1.68367E+01-3.49999E-01
 -1       860-1.65826E+00-1.68367E+01-3.49999E-01
 -1       861-1.65826E+00 1.68367E+01-3.49999E-01
 -1       862-4.91108E+00-1.61896E+01-3.49999E-01
 -1       863-7.97515E+00-1.49205E+01-3.49999E-01
 -1       864-7.97515E+00 1.49205E+01-3.49999E-01
 -1       865-1.07327E+01-1.30779E+01-3.49999E-01
 -1       866-1.30779E+01-1.07327E+01-3.49999E-01
 -1       867-1.30779E+01 1.07327E+01-3.49999E-01
 -1       868-1.49205E+01-7.97515E+00-3.49999E-01
 -1       869-1.49205E+01 7.97515E+00-3.49999E-01
 -1       870-1.61896E+01-4.91108E+00-3.49999E-01
 -1       871-1.61896E+01 4.91108E+00-3.49999E-01
 -1       872-1.68367E+01-1.65826E+00-3.49999E-01
 -1       873 1.49205E+01 7.97515E+00 3.49999E-01
 -1       874 7.97515E+00 1.49205E+01 3.49999E-01
 -1       875 4.91108E+00 1.61896E+01 3.49999E-01
 -1       876 1.07327E+01 1.30779E+01 3.49999E-01
 -1       877-1.49205E+01 7.97515E+00 3.49999E-01
 -1       878-1.30779E+01 1.07327E+01 3.49999E-01
 -1       879-1.61896E+01 4.91108E+00 3.49999E-01
 -1       880-1.30779E+01-1.07327E+01 3.49999E-01
 -1       881-1.49205E+01-7.97515E+00 3.49999E-01
 -1       882-1.61896E+01-4.91108E+00 3.49999E-01
 -1       883-1.68367E+01-1.65826E+00 3.49999E-01
 -1       884-1.07327E+01-1.30779E+01 3.49999E-01
 -1       885-1.65826E+00 1.68367E+01 3.49999E-01
 -1       886-7.97515E+00 1.49205E+01 3.49999E-01
 -1       887 1.68367E+01-1.65826E+00 3.49999E-01
 -1       888 1.61896E+01-4.91108E+00 3.49999E-01
 -1       889 1.49205E+01-7.97515E+00 3.49999E-01
 -1       890 1.07327E+01-1.30779E+01 3.49999E-01
 -1       891 7.97515E+00-1.49205E+01 3.49999E-01
 -1       892 4.91108E+00-1.61896E+01 3.49999E-01
 -1       893 1.65826E+00-1.68367E+01 3.49999E-01
 -1       894-1.65826E+00-1.68367E+01 3.49999E-01
 -1       895-4.91108E+00-1.61896E+01 3.49999E-01
 -1       896-7.97515E+00-1.49205E+01 3.49999E-01
 -1       897 5.14746E+00 4.74999E-01 1.70000E+00
 -1       898 3.46924E+00 4.74999E-01 1.70000E+00
 -1       899 5.14746E+00-4.74999E-01 1.70000E+00
 -1       900 6.79460E+00 9.50000E-01 1.70000E+00
 -1       901 1.00578E+01 4.74999E-01 1.70000E+00
 -1       902 1.17360E+01-4.74999E-01 1.70000E+00
 -1       903 1.00578E+01 4.74999E-01 3.49999E-01
 -1       904 3.46924E+00 4.74999E-01 3.49999E-01
 -1       905 5.14746E+00-4.74999E-01 3.49999E-01
 -1       906 1.17360E+01-4.74999E-01 3.49999E-01
 -1       907 8.41066E+00-9.50000E-01 3.49999E-01
 -1       908 8.41066E+00 9.50000E-01 3.49999E-01
 -1       909 6.79460E+00 9.50000E-01 3.49999E-01
 -1       910 3.38693E+00 8.88779E-01 1.70000E+00
 -1       911 4.93741E+00 1.53101E+00 1.70000E+00
 -1       912 3.02339E+00 1.76646E+00 1.70000E+00
 -1       913 9.11042E+00 4.28780E+00 3.49999E-01
 -1       914 3.02339E+00 1.76646E+00 3.49999E-01
 -1       915 4.93741E+00 1.53101E+00 3.49999E-01
 -1       916 1.10245E+01 4.05234E+00 3.49999E-01
 -1       917 8.13399E+00 2.34094E+00 3.49999E-01
 -1       918 7.40689E+00 4.09631E+00 3.49999E-01
 -1       919 5.91384E+00 3.47787E+00 3.49999E-01
 -1       920 5.27549E+00 6.61899E+00 1.70000E+00
 -1       921 4.13275E+00 5.47625E+00 1.70000E+00
 -1       922 3.97568E+00 3.30393E+00 1.70000E+00
 -1       923 2.11725E+00 2.78900E+00 1.70000E+00
 -1       924 6.77607E+00 7.44782E+00 3.49999E-01
 -1       925 2.11725E+00 2.78900E+00 3.49999E-01
 -1       926 3.97568E+00 3.30393E+00 3.49999E-01
 -1       927 8.63450E+00 7.96274E+00 3.49999E-01
 -1       928 5.47625E+00 4.13275E+00 3.49999E-01
 -1       929 6.61899E+00 5.27549E+00 3.49999E-01
 -1       930 5.27549E+00 6.61899E+00 3.49999E-01
 -1       931 4.13275E+00 5.47625E+00 3.49999E-01
 -1       932 1.72250E+00 6.64094E+00 1.70000E+00
 -1       933 3.41011E+00 9.47398E+00 1.70000E+00
 -1       934 8.88779E-01 3.38693E+00 1.70000E+00
 -1       935 3.47787E+00 5.91384E+00 1.70000E+00
 -1       936 4.09631E+00 7.40689E+00 1.70000E+00
 -1       937 4.05234E+00 1.10245E+01 3.49999E-01
 -1       938 3.41011E+00 9.47398E+00 3.49999E-01
 -1       939 8.88779E-01 3.38693E+00 3.49999E-01
 -1       940 2.40869E+00 4.57385E+00 3.49999E-01
 -1       941 4.93003E+00 1.06609E+01 3.49999E-01
 -1       942 3.47787E+00 5.91384E+00 3.49999E-01
 -1       943 4.09631E+00 7.40689E+00 3.49999E-01
 -1       944 2.34094E+00 8.13399E+00 3.49999E-01
 -1       945 1.72250E+00 6.64094E+00 3.49999E-01
 -1       946-9.50000E-01 6.79460E+00 1.70000E+00
 -1       947 4.74999E-01 5.14746E+00 1.70000E+00
 -1       948-4.74999E-01 3.46924E+00 1.70000E+00
 -1       949 9.50000E-01 8.41066E+00 1.70000E+00
 -1       950-4.74999E-01 1.00578E+01 3.49999E-01
 -1       951-4.74999E-01 3.46924E+00 3.49999E-01
 -1       952 4.74999E-01 5.14746E+00 3.49999E-01
 -1       953 4.74999E-01 1.17360E+01 3.49999E-01
 -1       954 9.50000E-01 6.79460E+00 3.49999E-01
 -1       955 9.50000E-01 8.41066E+00 3.49999E-01
 -1       956-9.50000E-01 8.41066E+00 3.49999E-01
 -1       957-9.50000E-01 6.79460E+00 3.49999E-01
 -1       958-2.34094E+00 8.13399E+00 1.70000E+00
 -1       959-4.09631E+00 7.40689E+00 1.70000E+00
 -1       960-3.47787E+00 5.91384E+00 1.70000E+00
 -1       961-4.93003E+00 1.06609E+01 3.49999E-01
 -1       962-4.28780E+00 9.11042E+00 3.49999E-01
 -1       963-1.76646E+00 3.02339E+00 3.49999E-01
 -1       964-1.53101E+00 4.93741E+00 3.49999E-01
 -1       965-4.05234E+00 1.10245E+01 3.49999E-01
 -1       966-1.72250E+00 6.64094E+00 3.49999E-01
 -1       967-2.34094E+00 8.13399E+00 3.49999E-01
 -1       968-4.09631E+00 7.40689E+00 3.49999E-01
 -1       969-3.47787E+00 5.91384E+00 3.49999E-01
 -1       970-5.27549E+00 6.61899E+00 1.70000E+00
 -1       971-2.11725E+00 2.78900E+00 1.70000E+00
 -1       972-3.30393E+00 3.97568E+00 1.70000E+00
 -1       973-2.78900E+00 2.11725E+00 1.70000E+00
 -1       974-8.63450E+00 7.96274E+00 3.49999E-01
 -1       975-7.44782E+00 6.77607E+00 3.49999E-01
 -1       976-2.78900E+00 2.11725E+00 3.49999E-01
 -1       977-3.30393E+00 3.97568E+00 3.49999E-01
 -1       978-7.96274E+00 8.63450E+00 3.49999E-01
 -1       979-4.13275E+00 5.47625E+00 3.49999E-01
 -1       980-5.27549E+00 6.61899E+00 3.49999E-01
 -1       981-6.61899E+00 5.27549E+00 3.49999E-01
 -1       982-5.47625E+00 4.13275E+00 3.49999E-01
 -1       983-9.47398E+00 3.41011E+00 1.70000E+00
 -1       984-7.40689E+00 4.09631E+00 1.70000E+00
 -1       985-3.02339E+00 1.76646E+00 1.70000E+00
 -1       986-4.57385E+00 2.40869E+00 1.70000E+00
 -1       987-3.38693E+00 8.88779E-01 1.70000E+00
 -1       988-9.47398E+00 3.41011E+00 3.49999E-01
 -1       989-3.38693E+00 8.88779E-01 3.49999E-01
 -1       990-4.57385E+00 2.40869E+00 3.49999E-01
 -1       991-1.06609E+01 4.93003E+00 3.49999E-01
 -1       992-5.91384E+00 3.47787E+00 3.49999E-01
 -1       993-7.40689E+00 4.09631E+00 3.49999E-01
 -1       994-8.13399E+00 2.34094E+00 3.49999E-01
 -1       995-6.64094E+00 1.72250E+00 3.49999E-01
 -1       996-8.41066E+00 9.50000E-01 1.70000E+00
 -1       997-3.46924E+00 4.74999E-01 1.70000E+00
 -1       998-5.14746E+00 4.74999E-01 1.70000E+00
 -1       999-3.46924E+00-4.74999E-01 1.70000E+00
 -1      1000-1.17360E+01-4.74999E-01 3.49999E-01
 -1      1001-1.00578E+01-4.74999E-01 3.49999E-01
 -1      1002-3.46924E+00-4.74999E-01 3.49999E-01
 -1      1003-5.14746E+00 4.74999E-01 3.49999E-01
 -1      1004-1.17360E+01 4.74999E-01 3.49999E-01
 -1      1005-6.79460E+00 9.50000E-01 3.49999E-01
 -1      1006-8.41066E+00 9.50000E-01 3.49999E-01
 -1      1007-8.41066E+00-9.50000E-01 3.49999E-01
 -1      1008-6.79460E+00-9.50000E-01 3.49999E-01
 -1      1009-3.02339E+00-1.76646E+00 1.70000E+00
 -1      1010-4.93741E+00-1.53101E+00 1.70000E+00
 -1      1011-6.64094E+00-1.72250E+00 1.70000E+00
 -1      1012-8.13399E+00-2.34094E+00 1.70000E+00
 -1      1013-1.10245E+01-4.05234E+00 1.70000E+00
 -1      1014-9.11042E+00-4.28780E+00 3.49999E-01
 -1      1015-3.02339E+00-1.76646E+00 3.49999E-01
 -1      1016-4.93741E+00-1.53101E+00 3.49999E-01
 -1      1017-1.10245E+01-4.05234E+00 3.49999E-01
 -1      1018-6.64094E+00-1.72250E+00 3.49999E-01
 -1      1019-8.13399E+00-2.34094E+00 3.49999E-01
 -1      1020-7.40689E+00-4.09631E+00 3.49999E-01
 -1      1021-5.91384E+00-3.47787E+00 3.49999E-01
 -1      1022-3.30393E+00-3.97568E+00 1.70000E+00
 -1      1023-2.11725E+00-2.78900E+00 1.70000E+00
 -1      1024-3.97568E+00-3.30393E+00 1.70000E+00
 -1      1025-5.47625E+00-4.13275E+00 1.70000E+00
 -1      1026-6.61899E+00-5.27549E+00 1.70000E+00
 -1      1027-8.63450E+00-7.96274E+00 1.70000E+00
 -1      1028-7.96274E+00-8.63450E+00 3.49999E-01
 -1      1029-6.77607E+00-7.44782E+00 3.49999E-01
 -1      1030-2.11725E+00-2.78900E+00 3.49999E-01
 -1      1031-3.97568E+00-3.30393E+00 3.49999E-01
 -1      1032-8.63450E+00-7.96274E+00 3.49999E-01
 -1      1033-5.47625E+00-4.13275E+00 3.49999E-01
 -1      1034-6.61899E+00-5.27549E+00 3.49999E-01
 -1      1035-5.27549E+00-6.61899E+00 3.49999E-01
 -1      1036-4.13275E+00-5.47625E+00 3.49999E-01
 -1      1037-4.09631E+00-7.40689E+00 1.70000E+00
 -1      1038-2.40869E+00-4.57385E+00 1.70000E+00
 -1      1039-1.72250E+00-6.64094E+00 1.70000E+00
 -1      1040-3.41011E+00-9.47398E+00 3.49999E-01
 -1      1041-8.88779E-01-3.38693E+00 3.49999E-01
 -1      1042-2.40869E+00-4.57385E+00 3.49999E-01
 -1      1043-4.93003E+00-1.06609E+01 3.49999E-01
 -1      1044-4.09631E+00-7.40689E+00 3.49999E-01
 -1      1045-2.34094E+00-8.13399E+00 3.49999E-01
 -1      1046-1.72250E+00-6.64094E+00 3.49999E-01
 -1      1047-9.50000E-01-8.41066E+00 1.70000E+00
 -1      1048 4.74999E-01-3.46924E+00 1.70000E+00
 -1      1049-4.74999E-01-5.14746E+00 1.70000E+00
 -1      1050 4.74999E-01-1.00578E+01 1.70000E+00
 -1      1051-4.74999E-01-1.17360E+01 1.70000E+00
 -1      1052 4.74999E-01-1.17360E+01 3.49999E-01
 -1      1053 4.74999E-01-1.00578E+01 3.49999E-01
 -1      1054 4.74999E-01-3.46924E+00 3.49999E-01
 -1      1055-4.74999E-01-5.14746E+00 3.49999E-01
 -1      1056-4.74999E-01-1.17360E+01 3.49999E-01
 -1      1057-9.50000E-01-6.79460E+00 3.49999E-01
 -1      1058-9.50000E-01-8.41066E+00 3.49999E-01
 -1      1059 9.50000E-01-8.41066E+00 3.49999E-01
 -1      1060 9.50000E-01-6.79460E+00 3.49999E-01
 -1      1061 3.47787E+00-5.91384E+00 1.70000E+00
 -1      1062 1.76646E+00-3.02339E+00 1.70000E+00
 -1      1063 1.53101E+00-4.93741E+00 1.70000E+00
 -1      1064 1.72250E+00-6.64094E+00 1.70000E+00
 -1      1065 2.34094E+00-8.13399E+00 1.70000E+00
 -1      1066 4.28780E+00-9.11042E+00 3.49999E-01
 -1      1067 1.76646E+00-3.02339E+00 3.49999E-01
 -1      1068 1.53101E+00-4.93741E+00 3.49999E-01
 -1      1069 4.05234E+00-1.10245E+01 3.49999E-01
 -1      1070 1.72250E+00-6.64094E+00 3.49999E-01
 -1      1071 2.34094E+00-8.13399E+00 3.49999E-01
 -1      1072 4.09631E+00-7.40689E+00 3.49999E-01
 -1      1073 3.47787E+00-5.91384E+00 3.49999E-01
 -1      1074 2.78900E+00-2.11725E+00 1.70000E+00
 -1      1075 3.30393E+00-3.97568E+00 1.70000E+00
 -1      1076 5.47625E+00-4.13275E+00 1.70000E+00
 -1      1077 7.44782E+00-6.77607E+00 1.70000E+00
 -1      1078 7.96274E+00-8.63450E+00 1.70000E+00
 -1      1079 7.44782E+00-6.77607E+00 3.49999E-01
 -1      1080 2.78900E+00-2.11725E+00 3.49999E-01
 -1      1081 3.30393E+00-3.97568E+00 3.49999E-01
 -1      1082 7.96274E+00-8.63450E+00 3.49999E-01
 -1      1083 5.27549E+00-6.61899E+00 3.49999E-01
 -1      1084 6.61899E+00-5.27549E+00 3.49999E-01
 -1      1085 5.47625E+00-4.13275E+00 3.49999E-01
 -1      1086 3.38693E+00-8.88779E-01 1.70000E+00
 -1      1087 4.57385E+00-2.40869E+00 1.70000E+00
 -1      1088 6.64094E+00-1.72250E+00 1.70000E+00
 -1      1089 9.47398E+00-3.41011E+00 1.70000E+00
 -1      1090 1.06609E+01-4.93003E+00 1.70000E+00
 -1      1091 9.47398E+00-3.41011E+00 3.49999E-01
 -1      1092 3.38693E+00-8.88779E-01 3.49999E-01
 -1      1093 4.57385E+00-2.40869E+00 3.49999E-01
 -1      1094 1.06609E+01-4.93003E+00 3.49999E-01
 -1      1095 5.91384E+00-3.47787E+00 3.49999E-01
 -1      1096 7.40689E+00-4.09631E+00 3.49999E-01
 -1      1097 8.13399E+00-2.34094E+00 3.49999E-01
 -1      1098 6.64094E+00-1.72250E+00 3.49999E-01
 -1      1099 1.69183E+01 8.29132E-01 3.49999E-01
 -1      1100-1.69183E+01 8.29132E-01-3.49999E-01
 -1      1101 2.48740E+00 1.67550E+01 3.49999E-01
 -1      1102 1.64315E+01 4.11380E+00 3.49999E-01
 -1      1103 1.59478E+01 5.70835E+00-3.49999E-01
 -1      1104-1.00887E+01 1.36065E+01 3.49999E-01
 -1      1105 1.69183E+01-8.29132E-01-3.49999E-01
 -1      1106 1.67550E+01-2.48740E+00-3.49999E-01
 -1      1107 1.59478E+01-5.70835E+00-3.49999E-01
 -1      1108 1.45278E+01-8.70992E+00-3.49999E-01
 -1      1109 1.53132E+01 7.24039E+00-3.49999E-01
 -1      1110 1.13768E+01-1.25493E+01-3.49999E-01
 -1      1111 1.00887E+01-1.36065E+01-3.49999E-01
 -1      1112 1.13768E+01 1.25493E+01-3.49999E-01
 -1      1113 7.24039E+00-1.53132E+01-3.49999E-01
 -1      1114 8.70992E+00 1.45278E+01-3.49999E-01
 -1      1115 4.11380E+00-1.64315E+01-3.49999E-01
 -1      1116 4.11380E+00 1.64315E+01-3.49999E-01
 -1      1117 5.70835E+00 1.59478E+01-3.49999E-01
 -1      1118 8.29132E-01-1.69183E+01-3.49999E-01
 -1      1119-2.48740E+00-1.67550E+01-3.49999E-01
 -1      1120-2.48740E+00 1.67550E+01-3.49999E-01
 -1      1121-8.29132E-01 1.69183E+01-3.49999E-01
 -1      1122-5.70835E+00-1.59478E+01-3.49999E-01
 -1      1123-8.70992E+00-1.45278E+01-3.49999E-01
 -1      1124-8.70992E+00 1.45278E+01-3.49999E-01
 -1      1125-7.24039E+00 1.53132E+01-3.49999E-01
 -1      1126-1.13768E+01-1.25493E+01-3.49999E-01
 -1      1127-1.36065E+01-1.00887E+01-3.49999E-01
 -1      1128-1.36065E+01 1.00887E+01-3.49999E-01
 -1      1129-1.25493E+01 1.13768E+01-3.49999E-01
 -1      1130-1.53132E+01-7.24039E+00-3.49999E-01
 -1      1131-1.45278E+01 8.70992E+00-3.49999E-01
 -1      1132-1.64315E+01-4.11380E+00-3.49999E-01
 -1      1133-1.59478E+01 5.70835E+00-3.49999E-01
 -1      1134-1.67550E+01-2.48740E+00-3.49999E-01
 -1      1135-1.69183E+01-8.29132E-01-3.49999E-01
 -1      1136 1.53132E+01 7.24039E+00 3.49999E-01
 -1      1137 8.70992E+00 1.45278E+01 3.49999E-01
 -1      1138 1.13768E+01 1.25493E+01 3.49999E-01
 -1      1139-1.25493E+01 1.13768E+01 3.49999E-01
 -1      1140-1.59478E+01 5.70835E+00 3.49999E-01
 -1      1141-1.25493E+01-1.13768E+01 3.49999E-01
 -1      1142-1.45278E+01-8.70992E+00 3.49999E-01
 -1      1143-1.59478E+01-5.70835E+00 3.49999E-01
 -1      1144-1.67550E+01-2.48740E+00 3.49999E-01
 -1      1145-1.00887E+01-1.36065E+01 3.49999E-01
 -1      1146-2.48740E+00 1.67550E+01 3.49999E-01
 -1      1147-8.70992E+00 1.45278E+01 3.49999E-01
 -1      1148 1.69183E+01-8.29132E-01 3.49999E-01
 -1      1149 1.64315E+01-4.11380E+00 3.49999E-01
 -1      1150 1.53132E+01-7.24039E+00 3.49999E-01
 -1      1151 1.13768E+01-1.25493E+01 3.49999E-01
 -1      1152 8.70992E+00-1.45278E+01 3.49999E-01
 -1      1153 5.70835E+00-1.59478E+01 3.49999E-01
 -1      1154 2.48740E+00-1.67550E+01 3.49999E-01
 -1      1155-8.29132E-01-1.69183E+01 3.49999E-01
 -1      1156-4.11380E+00-1.64315E+01 3.49999E-01
 -1      1157-7.24039E+00-1.53132E+01 3.49999E-01
 -1      1158 3.46924E+00-4.74999E-01 1.70000E+00
 -1      1159 8.41066E+00 9.50000E-01 1.70000E+00
 -1      1160 8.41066E+00-9.50000E-01 1.70000E+00
 -1      1161 6.79460E+00-9.50000E-01 1.70000E+00
 -1      1162 1.17360E+01 4.74999E-01 1.70000E+00
 -1      1163 1.00578E+01-4.74999E-01 1.70000E+00
 -1      1164 1.17360E+01 4.74999E-01 3.49999E-01
 -1      1165 5.14746E+00 4.74999E-01 3.49999E-01
 -1      1166 3.46924E+00-4.74999E-01 3.49999E-01
 -1      1167 1.00578E+01-4.74999E-01 3.49999E-01
 -1      1168 6.79460E+00-9.50000E-01 3.49999E-01
 -1      1169 1.10245E+01 4.05234E+00 1.70000E+00
 -1      1170 9.47398E+00 3.41011E+00 1.70000E+00
 -1      1171 9.11042E+00 4.28780E+00 1.70000E+00
 -1      1172 1.06609E+01 4.93003E+00 1.70000E+00
 -1      1173 8.13399E+00 2.34094E+00 1.70000E+00
 -1      1174 6.64094E+00 1.72250E+00 1.70000E+00
 -1      1175 5.91384E+00 3.47787E+00 1.70000E+00
 -1      1176 7.40689E+00 4.09631E+00 1.70000E+00
 -1      1177 4.57385E+00 2.40869E+00 1.70000E+00
 -1      1178 1.06609E+01 4.93003E+00 3.49999E-01
 -1      1179 4.57385E+00 2.40869E+00 3.49999E-01
 -1      1180 3.38693E+00 8.88779E-01 3.49999E-01
 -1      1181 9.47398E+00 3.41011E+00 3.49999E-01
 -1      1182 6.64094E+00 1.72250E+00 3.49999E-01
 -1      1183 8.63450E+00 7.96274E+00 1.70000E+00
 -1      1184 7.44782E+00 6.77607E+00 1.70000E+00
 -1      1185 6.77607E+00 7.44782E+00 1.70000E+00
 -1      1186 7.96274E+00 8.63450E+00 1.70000E+00
 -1      1187 6.61899E+00 5.27549E+00 1.70000E+00
 -1      1188 5.47625E+00 4.13275E+00 1.70000E+00
 -1      1189 2.78900E+00 2.11725E+00 1.70000E+00
 -1      1190 3.30393E+00 3.97568E+00 1.70000E+00
 -1      1191 7.96274E+00 8.63450E+00 3.49999E-01
 -1      1192 3.30393E+00 3.97568E+00 3.49999E-01
 -1      1193 2.78900E+00 2.11725E+00 3.49999E-01
 -1      1194 7.44782E+00 6.77607E+00 3.49999E-01
 -1      1195 2.34094E+00 8.13399E+00 1.70000E+00
 -1      1196 4.93003E+00 1.06609E+01 1.70000E+00
 -1      1197 4.28780E+00 9.11042E+00 1.70000E+00
 -1      1198 4.05234E+00 1.10245E+01 1.70000E+00
 -1      1199 2.40869E+00 4.57385E+00 1.70000E+00
 -1      1200 1.76646E+00 3.02339E+00 1.70000E+00
 -1      1201 1.53101E+00 4.93741E+00 1.70000E+00
 -1      1202 1.53101E+00 4.93741E+00 3.49999E-01
 -1      1203 1.76646E+00 3.02339E+00 3.49999E-01
 -1      1204 4.28780E+00 9.11042E+00 3.49999E-01
 -1      1205-9.50000E-01 8.41066E+00 1.70000E+00
 -1      1206 4.74999E-01 1.17360E+01 1.70000E+00
 -1      1207 4.74999E-01 1.00578E+01 1.70000E+00
 -1      1208-4.74999E-01 1.00578E+01 1.70000E+00
 -1      1209-4.74999E-01 1.17360E+01 1.70000E+00
 -1      1210 4.74999E-01 3.46924E+00 1.70000E+00
 -1      1211-4.74999E-01 5.14746E+00 1.70000E+00
 -1      1212 9.50000E-01 6.79460E+00 1.70000E+00
 -1      1213-4.74999E-01 1.17360E+01 3.49999E-01
 -1      1214-4.74999E-01 5.14746E+00 3.49999E-01
 -1      1215 4.74999E-01 3.46924E+00 3.49999E-01
 -1      1216 4.74999E-01 1.00578E+01 3.49999E-01
 -1      1217-1.72250E+00 6.64094E+00 1.70000E+00
 -1      1218-1.53101E+00 4.93741E+00 1.70000E+00
 -1      1219-8.88779E-01 3.38693E+00 1.70000E+00
 -1      1220-1.76646E+00 3.02339E+00 1.70000E+00
 -1      1221-2.40869E+00 4.57385E+00 1.70000E+00
 -1      1222-4.05234E+00 1.10245E+01 1.70000E+00
 -1      1223-3.41011E+00 9.47398E+00 1.70000E+00
 -1      1224-4.28780E+00 9.11042E+00 1.70000E+00
 -1      1225-4.93003E+00 1.06609E+01 1.70000E+00
 -1      1226-2.40869E+00 4.57385E+00 3.49999E-01
 -1      1227-8.88779E-01 3.38693E+00 3.49999E-01
 -1      1228-3.41011E+00 9.47398E+00 3.49999E-01
 -1      1229-7.96274E+00 8.63450E+00 1.70000E+00
 -1      1230-6.77607E+00 7.44782E+00 1.70000E+00
 -1      1231-7.44782E+00 6.77607E+00 1.70000E+00
 -1      1232-8.63450E+00 7.96274E+00 1.70000E+00
 -1      1233-4.13275E+00 5.47625E+00 1.70000E+00
 -1      1234-5.47625E+00 4.13275E+00 1.70000E+00
 -1      1235-6.61899E+00 5.27549E+00 1.70000E+00
 -1      1236-3.97568E+00 3.30393E+00 1.70000E+00
 -1      1237-3.97568E+00 3.30393E+00 3.49999E-01
 -1      1238-2.11725E+00 2.78900E+00 3.49999E-01
 -1      1239-6.77607E+00 7.44782E+00 3.49999E-01
 -1      1240-1.06609E+01 4.93003E+00 1.70000E+00
 -1      1241-9.11042E+00 4.28780E+00 1.70000E+00
 -1      1242-1.10245E+01 4.05234E+00 1.70000E+00
 -1      1243-5.91384E+00 3.47787E+00 1.70000E+00
 -1      1244-6.64094E+00 1.72250E+00 1.70000E+00
 -1      1245-8.13399E+00 2.34094E+00 1.70000E+00
 -1      1246-4.93741E+00 1.53101E+00 1.70000E+00
 -1      1247-1.10245E+01 4.05234E+00 3.49999E-01
 -1      1248-4.93741E+00 1.53101E+00 3.49999E-01
 -1      1249-3.02339E+00 1.76646E+00 3.49999E-01
 -1      1250-9.11042E+00 4.28780E+00 3.49999E-01
 -1      1251-1.17360E+01 4.74999E-01 1.70000E+00
 -1      1252-1.00578E+01 4.74999E-01 1.70000E+00
 -1      1253-1.00578E+01-4.74999E-01 1.70000E+00
 -1      1254-1.17360E+01-4.74999E-01 1.70000E+00
 -1      1255-6.79460E+00 9.50000E-01 1.70000E+00
 -1      1256-6.79460E+00-9.50000E-01 1.70000E+00
 -1      1257-8.41066E+00-9.50000E-01 1.70000E+00
 -1      1258-5.14746E+00-4.74999E-01 1.70000E+00
 -1      1259-5.14746E+00-4.74999E-01 3.49999E-01
 -1      1260-3.46924E+00 4.74999E-01 3.49999E-01
 -1      1261-1.00578E+01 4.74999E-01 3.49999E-01
 -1      1262-4.57385E+00-2.40869E+00 1.70000E+00
 -1      1263-3.38693E+00-8.88779E-01 1.70000E+00
 -1      1264-5.91384E+00-3.47787E+00 1.70000E+00
 -1      1265-7.40689E+00-4.09631E+00 1.70000E+00
 -1      1266-9.11042E+00-4.28780E+00 1.70000E+00
 -1      1267-1.06609E+01-4.93003E+00 1.70000E+00
 -1      1268-9.47398E+00-3.41011E+00 1.70000E+00
 -1      1269-1.06609E+01-4.93003E+00 3.49999E-01
 -1      1270-4.57385E+00-2.40869E+00 3.49999E-01
 -1      1271-3.38693E+00-8.88779E-01 3.49999E-01
 -1      1272-9.47398E+00-3.41011E+00 3.49999E-01
 -1      1273-2.78900E+00-2.11725E+00 1.70000E+00
 -1      1274-4.13275E+00-5.47625E+00 1.70000E+00
 -1      1275-5.27549E+00-6.61899E+00 1.70000E+00
 -1      1276-6.77607E+00-7.44782E+00 1.70000E+00
 -1      1277-7.96274E+00-8.63450E+00 1.70000E+00
 -1      1278-7.44782E+00-6.77607E+00 1.70000E+00
 -1      1279-3.30393E+00-3.97568E+00 3.49999E-01
 -1      1280-2.78900E+00-2.11725E+00 3.49999E-01
 -1      1281-7.44782E+00-6.77607E+00 3.49999E-01
 -1      1282-3.47787E+00-5.91384E+00 1.70000E+00
 -1      1283-8.88779E-01-3.38693E+00 1.70000E+00
 -1      1284-1.53101E+00-4.93741E+00 1.70000E+00
 -1      1285-1.76646E+00-3.02339E+00 1.70000E+00
 -1      1286-4.93003E+00-1.06609E+01 1.70000E+00
 -1      1287-3.41011E+00-9.47398E+00 1.70000E+00
 -1      1288-4.05234E+00-1.10245E+01 1.70000E+00
 -1      1289-4.28780E+00-9.11042E+00 1.70000E+00
 -1      1290-2.34094E+00-8.13399E+00 1.70000E+00
 -1      1291-4.05234E+00-1.10245E+01 3.49999E-01
 -1      1292-1.53101E+00-4.93741E+00 3.49999E-01
 -1      1293-1.76646E+00-3.02339E+00 3.49999E-01
 -1      1294-4.28780E+00-9.11042E+00 3.49999E-01
 -1      1295-3.47787E+00-5.91384E+00 3.49999E-01
 -1      1296-9.50000E-01-6.79460E+00 1.70000E+00
 -1      1297 4.74999E-01-5.14746E+00 1.70000E+00
 -1      1298-4.74999E-01-3.46924E+00 1.70000E+00
 -1      1299 4.74999E-01-1.17360E+01 1.70000E+00
 -1      1300-4.74999E-01-1.00578E+01 1.70000E+00
 -1      1301 9.50000E-01-6.79460E+00 1.70000E+00
 -1      1302 9.50000E-01-8.41066E+00 1.70000E+00
 -1      1303 4.74999E-01-5.14746E+00 3.49999E-01
 -1      1304-4.74999E-01-3.46924E+00 3.49999E-01
 -1      1305-4.74999E-01-1.00578E+01 3.49999E-01
 -1      1306 4.09631E+00-7.40689E+00 1.70000E+00
 -1      1307 4.28780E+00-9.11042E+00 1.70000E+00
 -1      1308 4.93003E+00-1.06609E+01 1.70000E+00
 -1      1309 4.05234E+00-1.10245E+01 1.70000E+00
 -1      1310 3.41011E+00-9.47398E+00 1.70000E+00
 -1      1311 2.40869E+00-4.57385E+00 1.70000E+00
 -1      1312 8.88779E-01-3.38693E+00 1.70000E+00
 -1      1313 4.93003E+00-1.06609E+01 3.49999E-01
 -1      1314 2.40869E+00-4.57385E+00 3.49999E-01
 -1      1315 8.88779E-01-3.38693E+00 3.49999E-01
 -1      1316 3.41011E+00-9.47398E+00 3.49999E-01
 -1      1317 3.97568E+00-3.30393E+00 1.70000E+00
 -1      1318 2.11725E+00-2.78900E+00 1.70000E+00
 -1      1319 6.61899E+00-5.27549E+00 1.70000E+00
 -1      1320 5.27549E+00-6.61899E+00 1.70000E+00
 -1      1321 4.13275E+00-5.47625E+00 1.70000E+00
 -1      1322 8.63450E+00-7.96274E+00 1.70000E+00
 -1      1323 6.77607E+00-7.44782E+00 1.70000E+00
 -1      1324 8.63450E+00-7.96274E+00 3.49999E-01
 -1      1325 3.97568E+00-3.30393E+00 3.49999E-01
 -1      1326 2.11725E+00-2.78900E+00 3.49999E-01
 -1      1327 6.77607E+00-7.44782E+00 3.49999E-01
 -1      1328 4.13275E+00-5.47625E+00 3.49999E-01
 -1      1329 4.93741E+00-1.53101E+00 1.70000E+00
 -1      1330 3.02339E+00-1.76646E+00 1.70000E+00
 -1      1331 8.13399E+00-2.34094E+00 1.70000E+00
 -1      1332 7.40689E+00-4.09631E+00 1.70000E+00
 -1      1333 5.91384E+00-3.47787E+00 1.70000E+00
 -1      1334 1.10245E+01-4.05234E+00 1.70000E+00
 -1      1335 9.11042E+00-4.28780E+00 1.70000E+00
 -1      1336 1.10245E+01-4.05234E+00 3.49999E-01
 -1      1337 4.93741E+00-1.53101E+00 3.49999E-01
 -1      1338 3.02339E+00-1.76646E+00 3.49999E-01
 -1      1339 9.11042E+00-4.28780E+00 3.49999E-01
 -1      1340 1.67550E+01 2.48740E+00 3.49999E-01
 -1      1341 1.67550E+01 2.48740E+00-3.49999E-01
 -1      1342 1.69183E+01 8.29132E-01-3.49999E-01
 -1      1343-1.67550E+01 2.48740E+00-3.49999E-01
 -1      1344-1.67550E+01 2.48740E+00 3.49999E-01
 -1      1345-1.69183E+01 8.29132E-01 3.49999E-01
 -1      1346 8.29132E-01 1.69183E+01 3.49999E-01
 -1      1347 8.29132E-01 1.69183E+01-3.49999E-01
 -1      1348 2.48740E+00 1.67550E+01-3.49999E-01
 -1      1349 1.36065E+01 1.00887E+01 3.49999E-01
 -1      1350 1.25493E+01 1.13768E+01 3.49999E-01
 -1      1351 1.25493E+01 1.13768E+01-3.49999E-01
 -1      1352 1.36065E+01 1.00887E+01-3.49999E-01
 -1      1353 1.59478E+01 5.70835E+00 3.49999E-01
 -1      1354 1.64315E+01 4.11380E+00-3.49999E-01
 -1      1355-1.13768E+01 1.25493E+01 3.49999E-01
 -1      1356-1.13768E+01 1.25493E+01-3.49999E-01
 -1      1357-1.00887E+01 1.36065E+01-3.49999E-01
 -1      1358-4.11380E+00 1.64315E+01 3.49999E-01
 -1      1359-5.70835E+00 1.59478E+01 3.49999E-01
 -1      1360-5.70835E+00 1.59478E+01-3.49999E-01
 -1      1361-4.11380E+00 1.64315E+01-3.49999E-01
 -1      1362 1.25493E+01-1.13768E+01 3.49999E-01
 -1      1363 1.36065E+01-1.00887E+01 3.49999E-01
 -1      1364 1.36065E+01-1.00887E+01-3.49999E-01
 -1      1365 1.25493E+01-1.13768E+01-3.49999E-01
 -1      1366 1.64315E+01-4.11380E+00-3.49999E-01
 -1      1367 1.53132E+01-7.24039E+00-3.49999E-01
 -1      1368 1.45278E+01 8.70992E+00-3.49999E-01
 -1      1369 1.00887E+01 1.36065E+01-3.49999E-01
 -1      1370 8.70992E+00-1.45278E+01-3.49999E-01
 -1      1371 7.24039E+00 1.53132E+01-3.49999E-01
 -1      1372 5.70835E+00-1.59478E+01-3.49999E-01
 -1      1373 2.48740E+00-1.67550E+01-3.49999E-01
 -1      1374-8.29132E-01-1.69183E+01-3.49999E-01
 -1      1375-4.11380E+00-1.64315E+01-3.49999E-01
 -1      1376-7.24039E+00-1.53132E+01-3.49999E-01
 -1      1377-1.00887E+01-1.36065E+01-3.49999E-01
 -1      1378-1.25493E+01-1.13768E+01-3.49999E-01
 -1      1379-1.45278E+01-8.70992E+00-3.49999E-01
 -1      1380-1.53132E+01 7.24039E+00-3.49999E-01
 -1      1381-1.59478E+01-5.70835E+00-3.49999E-01
 -1      1382-1.64315E+01 4.11380E+00-3.49999E-01
 -1      1383 1.45278E+01 8.70992E+00 3.49999E-01
 -1      1384 7.24039E+00 1.53132E+01 3.49999E-01
 -1      1385 5.70835E+00 1.59478E+01 3.49999E-01
 -1      1386 4.11380E+00 1.64315E+01 3.49999E-01
 -1      1387 1.00887E+01 1.36065E+01 3.49999E-01
 -1      1388-1.45278E+01 8.70992E+00 3.49999E-01
 -1      1389-1.53132E+01 7.24039E+00 3.49999E-01
 -1      1390-1.36065E+01 1.00887E+01 3.49999E-01
 -1      1391-1.64315E+01 4.11380E+00 3.49999E-01
 -1      1392-1.36065E+01-1.00887E+01 3.49999E-01
 -1      1393-1.53132E+01-7.24039E+00 3.49999E-01
 -1      1394-1.64315E+01-4.11380E+00 3.49999E-01
 -1      1395-1.69183E+01-8.29132E-01 3.49999E-01
 -1      1396-1.13768E+01-1.25493E+01 3.49999E-01
 -1      1397-8.29132E-01 1.69183E+01 3.49999E-01
 -1      1398-7.24039E+00 1.53132E+01 3.49999E-01
 -1      1399 1.67550E+01-2.48740E+00 3.49999E-01
 -1      1400 1.59478E+01-5.70835E+00 3.49999E-01
 -1      1401 1.45278E+01-8.70992E+00 3.49999E-01
 -1      1402 1.00887E+01-1.36065E+01 3.49999E-01
 -1      1403 7.24039E+00-1.53132E+01 3.49999E-01
 -1      1404 4.11380E+00-1.64315E+01 3.49999E-01
 -1      1405 8.29132E-01-1.69183E+01 3.49999E-01
 -1      1406-2.48740E+00-1.67550E+01 3.49999E-01
 -1      1407-5.70835E+00-1.59478E+01 3.49999E-01
 -1      1408-8.70992E+00-1.45278E+01 3.49999E-01
 -1      1409 2.49233E+00 1.82058E+00 3.49999E-01
 -1      1410 2.58923E+00 1.58663E+00 3.49999E-01
 -1      1411-4.74999E-01-3.04969E+00 3.49999E-01
 -1      1412-7.08946E-01-2.95278E+00 3.49999E-01
 -1      1413 1.82058E+00-2.49233E+00 3.49999E-01
 -1      1414 1.58663E+00-2.58923E+00 3.49999E-01
 -1      1415-2.49233E+00 1.82058E+00 3.49999E-01
 -1      1416-2.58923E+00 1.58663E+00 3.49999E-01
 -1      1417 7.28222E-01 2.99932E+00 3.49999E-01
 -1      1418 4.74999E-01 2.99932E+00 3.49999E-01
 -1      1419-1.60591E+00-2.63577E+00 3.49999E-01
 -1      1420-1.78496E+00-2.45671E+00 3.49999E-01
 -1      1421 1.82058E+00 2.49233E+00 3.49999E-01
 -1      1422 1.58663E+00 2.58923E+00 3.49999E-01
 -1      1423-2.99932E+00-7.28222E-01 3.49999E-01
 -1      1424-2.99932E+00-4.74999E-01 3.49999E-01
 -1      1425 2.99932E+00 7.28222E-01 3.49999E-01
 -1      1426 2.99932E+00 4.74999E-01 3.49999E-01
 -1      1427 2.63577E+00-1.60591E+00 3.49999E-01
 -1      1428 2.45671E+00-1.78496E+00 3.49999E-01
 -1      1429 2.99932E+00-7.28222E-01 3.49999E-01
 -1      1430 2.99932E+00-4.74999E-01 3.49999E-01
 -1      1431-1.82058E+00 2.49233E+00 3.49999E-01
 -1      1432-1.58663E+00 2.58923E+00 3.49999E-01
 -1      1433-2.99932E+00 7.28222E-01 3.49999E-01
 -1      1434-2.99932E+00 4.74999E-01 3.49999E-01
 -1      1435 0.00000E+00-2.63013E+00 3.49999E-01
 -1      1436 7.28222E-01-2.99932E+00 3.49999E-01
 -1      1437 4.74999E-01-2.99932E+00 3.49999E-01
 -1      1438-2.49233E+00-1.82058E+00 3.49999E-01
 -1      1439-2.58923E+00-1.58663E+00 3.49999E-01
 -1      1440 1.85978E+00-1.85978E+00 3.49999E-01
 -1      1441-2.34400E+00 1.67225E+00 3.49999E-01
 -1      1442-2.41018E+00 1.51246E+00 3.49999E-01
 -1      1443-1.67225E+00 2.34400E+00 3.49999E-01
 -1      1444-1.51246E+00 2.41018E+00 3.49999E-01
 -1      1445-1.85978E+00-1.85978E+00 3.49999E-01
 -1      1446-1.52563E+00-2.44196E+00 3.49999E-01
 -1      1447-1.64792E+00-2.31967E+00 3.49999E-01
 -1      1448-2.42992E+00-1.00651E+00 3.49999E-01
 -1      1449-2.34400E+00-1.67225E+00 3.49999E-01
 -1      1450-2.41018E+00-1.51246E+00 3.49999E-01
 -1      1451-1.00651E+00-2.42992E+00 3.49999E-01
 -1      1452-1.85978E+00 1.85978E+00 3.49999E-01
 -1      1453 1.00651E+00-2.42992E+00 3.49999E-01
 -1      1454 2.42992E+00-1.00651E+00 3.49999E-01
 -1      1455-1.00651E+00 2.42992E+00 3.49999E-01
 -1      1456 2.42992E+00 1.00651E+00 3.49999E-01
 -1      1457 2.63013E+00 0.00000E+00 3.49999E-01
 -1      1458 1.67225E+00-2.34400E+00 3.49999E-01
 -1      1459 1.51246E+00-2.41018E+00 3.49999E-01
 -1      1460 2.80551E+00 6.47943E-01 3.49999E-01
 -1      1461 2.80551E+00 4.74999E-01 3.49999E-01
 -1      1462 6.47943E-01 2.80551E+00 3.49999E-01
 -1      1463 4.74999E-01 2.80551E+00 3.49999E-01
 -1      1464 1.00651E+00 2.42992E+00 3.49999E-01
 -1      1465 0.00000E+00 2.63013E+00 3.49999E-01
 -1      1466-1.52391E+00-2.19566E+00 6.87499E-01
 -1      1467 2.61170E+00 5.67665E-01 6.87499E-01
 -1      1468-1.22593E+00 2.33904E+00 3.49999E-01
 -1      1469 4.74999E-01 2.63013E+00 6.87499E-01
 -1      1470-2.19566E+00-1.52391E+00 6.87499E-01
 -1      1471-2.80551E+00-6.47943E-01 3.49999E-01
 -1      1472-2.80551E+00-4.74999E-01 3.49999E-01
 -1      1473-2.63013E+00 0.00000E+00 3.49999E-01
 -1      1474 1.85978E+00 1.85978E+00 3.49999E-01
 -1      1475-7.28222E-01 2.99932E+00 3.49999E-01
 -1      1476-4.74999E-01 2.99932E+00 3.49999E-01
 -1      1477-2.42992E+00 1.00651E+00 3.49999E-01
 -1      1478-2.24815E+00-1.44535E+00 6.87499E-01
 -1      1479 1.67225E+00 2.34400E+00 3.49999E-01
 -1      1480 1.51246E+00 2.41018E+00 3.49999E-01
 -1      1481 2.44196E+00-1.52563E+00 3.49999E-01
 -1      1482 2.31967E+00-1.64792E+00 3.49999E-01
 -1      1483 6.47943E-01-2.80551E+00 3.49999E-01
 -1      1484 4.74999E-01-2.80551E+00 3.49999E-01
 -1      1485 2.80551E+00-6.47943E-01 3.49999E-01
 -1      1486 2.80551E+00-4.74999E-01 3.49999E-01
 -1      1487 1.44535E+00 2.24815E+00 6.87499E-01
 -1      1488-2.19566E+00 1.52391E+00 6.87499E-01
 -1      1489-4.74999E-01-2.83991E+00 3.49999E-01
 -1      1490-6.34778E-01-2.77372E+00 3.49999E-01
 -1      1491 2.34400E+00 1.67225E+00 3.49999E-01
 -1      1492 2.41018E+00 1.51246E+00 3.49999E-01
 -1      1493 5.67665E-01 2.61170E+00 6.87499E-01
 -1      1494 2.63013E+00 4.74999E-01 6.87499E-01
 -1      1495-2.63013E+00-4.74999E-01 6.87499E-01
 -1      1496-1.44535E+00 2.24815E+00 6.87499E-01
 -1      1497-2.61170E+00-5.67665E-01 6.87499E-01
 -1      1498 1.44535E+00-2.24815E+00 6.87499E-01
 -1      1499 1.52391E+00 2.19566E+00 6.87499E-01
 -1      1500-2.24815E+00 1.44535E+00 6.87499E-01
 -1      1501-6.47943E-01 2.80551E+00 3.49999E-01
 -1      1502-4.74999E-01 2.80551E+00 3.49999E-01
 -1      1503-4.74999E-01 2.63013E+00 6.87499E-01
 -1      1504 5.67665E-01-2.61170E+00 6.87499E-01
 -1      1505-2.80551E+00 6.47943E-01 3.49999E-01
 -1      1506-2.80551E+00 4.74999E-01 3.49999E-01
 -1      1507 2.24815E+00 1.44535E+00 6.87499E-01
 -1      1508-5.67665E-01-2.61170E+00 6.87499E-01
 -1      1509-1.44535E+00-2.24815E+00 6.87499E-01
 -1      1510 4.74999E-01-2.63013E+00 6.87499E-01
 -1      1511 2.19566E+00-1.52391E+00 6.87499E-01
 -1      1512 1.52391E+00-2.19566E+00 6.87499E-01
 -1      1513 2.61170E+00-5.67665E-01 6.87499E-01
 -1      1514 2.63013E+00-4.74999E-01 6.87499E-01
 -1      1515-4.74999E-01-2.63013E+00 6.87499E-01
 -1      1516 2.19566E+00 1.52391E+00 6.87499E-01
 -1      1517-1.52391E+00 2.19566E+00 6.87499E-01
 -1      1518-5.67665E-01 2.61170E+00 6.87499E-01
 -1      1519-2.61170E+00 5.67665E-01 6.87499E-01
 -1      1520 2.24815E+00-1.44535E+00 6.87499E-01
 -1      1521-2.63013E+00 4.74999E-01 6.87499E-01
 -1      1522 1.21556E+01 2.41790E+00 3.49999E-01
 -1      1523-6.88558E+00 1.03050E+01 3.49999E-01
 -1      1524-6.88558E+00-1.03050E+01 3.49999E-01
 -1      1525-2.41790E+00-1.21556E+01 3.49999E-01
 -1      1526-3.78002E+00-1.40896E+01 3.49999E-01
 -1      1527 1.44896E+01 1.84565E+00 3.49999E-01
 -1      1528 4.01956E-04 2.02729E-04-3.49999E-01
 -1      1529-4.87957E+00 1.17803E+01-3.49999E-01
 -1      1530-8.94056E+00 1.15508E+01 3.49999E-01
 -1      1531-5.47244E+00 1.37349E+01 3.49999E-01
 -1      1532 1.11346E+01 9.67677E+00 3.49999E-01
 -1      1533 1.06013E+01-7.08348E+00-3.49999E-01
 -1      1534-7.06700E+00 1.24213E+01 3.49999E-01
 -1      1535-1.39901E+01-4.67924E+00 3.49999E-01
 -1      1536 1.25040E+01 2.48724E+00-3.49999E-01
 -1      1537 8.84466E+00-1.01207E+01-3.49999E-01
 -1      1538-1.03076E+00-1.47158E+01 3.49999E-01
 -1      1539-1.06013E+01 7.08348E+00-3.49999E-01
 -1      1540-7.28996E+00-1.26357E+01 3.49999E-01
 -1      1541-1.36384E+01 5.64931E+00 3.49999E-01
 -1      1542 1.42275E+01 3.88062E+00-3.49999E-01
 -1      1543-1.40069E+01 2.78612E+00 3.49999E-01
 -1      1544-1.25040E+01 2.48724E+00-3.49999E-01
 -1      1545-1.47621E+01 0.00000E+00 3.49999E-01
 -1      1546-5.74810E+00-1.38772E+01 3.49999E-01
 -1      1547-1.18745E+01 7.93427E+00 3.49999E-01
 -1      1548-1.18745E+01-7.93427E+00 3.49999E-01
 -1      1549 6.76749E+00-1.34677E+00-3.49999E-01
 -1      1550-4.67814E+00 1.39865E+01-3.49999E-01
 -1      1551-3.29393E-04 1.33365E-04 3.49999E-01
 -1      1552-9.59363E+00 6.41027E+00 3.49999E-01
 -1      1553-1.10559E+01 6.69064E+00 3.49999E-01
 -1      1554 7.93427E+00 1.18745E+01 3.49999E-01
 -1      1555 5.64931E+00 1.36384E+01 3.49999E-01
 -1      1556 1.26804E+01 7.25009E+00 3.49999E-01
 -1      1557 2.78612E+00 1.40069E+01 3.49999E-01
 -1      1558 0.00000E+00 1.47621E+01 3.49999E-01
 -1      1559 1.11346E+01-9.67677E+00 3.49999E-01
 -1      1560 1.28048E+01-7.31661E+00-3.49999E-01
 -1      1561 1.40069E+01-2.78612E+00 3.49999E-01
 -1      1562-4.02237E+00 1.46948E+01 3.49999E-01
 -1      1563 1.36384E+01-5.64931E+00 3.49999E-01
 -1      1564 1.38642E+01-5.51166E+00-3.49999E-01
 -1      1565 7.93427E+00-1.18745E+01 3.49999E-01
 -1      1566 5.64931E+00-1.36384E+01 3.49999E-01
 -1      1567 2.78612E+00-1.40069E+01 3.49999E-01
 -1      1568-1.29804E+01 6.46580E+00-3.49999E-01
 -1      1569 6.84535E+00 1.02448E+01 3.49999E-01
 -1      1570-1.04384E+01-1.04384E+01 3.49999E-01
 -1      1571-8.49763E+00 5.67794E+00 3.49999E-01
 -1      1572 9.84767E+00 1.12318E+01 3.49999E-01
 -1      1573-1.33151E+01 4.15239E+00 3.49999E-01
 -1      1574-9.09408E+00-3.76695E+00-3.49999E-01
 -1      1575 1.44663E+01 1.00618E+00-3.49999E-01
 -1      1576-4.99148E-01 1.24926E+01-3.49999E-01
 -1      1577-9.11439E+00-1.18956E+01 3.49999E-01
 -1      1578 7.29351E+00-1.34064E+01 3.49999E-01
 -1      1579-1.51769E+01 1.60785E+00 3.49999E-01
 -1      1580 1.51183E+01 2.50748E+00-3.49999E-01
 -1      1581-1.72189E+00 6.18754E+00-3.49999E-01
 -1      1582 1.03050E+01 6.88558E+00 3.49999E-01
 -1      1583 1.25916E+00 1.38905E+01 3.49999E-01
 -1      1584-2.41790E+00 1.21556E+01 3.49999E-01
 -1      1585-1.39590E+01 6.98886E+00 3.49999E-01
 -1      1586-1.13164E+01 2.25097E+00 3.49999E-01
 -1      1587-1.21556E+01-2.41790E+00 3.49999E-01
 -1      1588-3.54666E+00-1.28073E+01 3.49999E-01
 -1      1589-1.38541E+01 1.09171E+00 3.49999E-01
 -1      1590-1.41144E+01 4.71693E+00-3.49999E-01
 -1      1591-1.22711E+01 8.45391E+00-3.49999E-01
 -1      1592 1.03050E+01-6.88556E+00 3.49999E-01
 -1      1593 6.50737E+00-1.21776E+01 3.49999E-01
 -1      1594-1.39962E+01-1.22691E-01-3.49999E-01
 -1      1595-2.01236E+00 1.47991E+01 3.49999E-01
 -1      1596 9.25828E+00-1.19379E+01-3.49999E-01
 -1      1597-4.14428E-01-8.45906E+00-3.49999E-01
 -1      1598 1.33151E+01-4.15239E+00 3.49999E-01
 -1      1599 2.74725E+00 1.33613E+01-3.49999E-01
 -1      1600 8.22172E-01-1.25983E+01-3.49999E-01
 -1      1601-1.48711E+01 4.08196E+00 3.49999E-01
 -1      1602 1.47220E+01-4.03059E+00-3.49999E-01
 -1      1603-1.02708E+00 1.46784E+01-3.49999E-01
 -1      1604-8.30517E+00-1.06726E+01 3.49999E-01
 -1      1605 5.92780E+00 6.40085E+00-3.49999E-01
 -1      1606-7.20073E+00 1.25880E+01-3.49999E-01
 -1      1607 2.40375E+00-1.20845E+01 3.49999E-01
 -1      1608 5.92556E+00 8.86823E+00 3.49999E-01
 -1      1609 3.96966E+00 2.26931E+00-3.49999E-01
 -1      1610 1.14978E+01-9.14009E+00-3.49999E-01
 -1      1611 1.40454E+01-6.83142E+00-3.49999E-01
 -1      1612-1.04223E+01-4.34411E-01-3.49999E-01
 -1      1613 4.32252E+00-1.46369E+01 3.49999E-01
 -1      1614 1.06621E+01-8.29832E+00 3.49999E-01
 -1      1615 9.83010E+00-1.13214E+01 3.49999E-01
 -1      1616 1.52471E+01 2.45920E-01 3.49999E-01
 -1      1617 9.80971E+00-8.65224E+00-3.49999E-01
 -1      1618-1.21373E+01 5.46074E-01-3.49999E-01
 -1      1619-1.95297E+00 1.55790E+01-3.49999E-01
 -1      1620-1.23748E+01-5.19734E+00-3.49999E-01
 -1      1621 9.78741E-01-1.49054E+01 3.49999E-01
 -1      1622-6.18275E+00 1.42183E+01-3.49999E-01
 -1      1623 9.20778E+00 1.24963E+01 3.49999E-01
 -1      1624 1.39590E+01-6.98886E+00 3.49999E-01
 -1      1625 4.95837E+00-1.17641E+01-3.49999E-01
 -1      1626 1.31987E+01 1.62638E+00 3.49999E-01
 -1      1627 1.35711E+00 1.53773E+01 3.49999E-01
 -1      1628 2.13481E+00 1.24770E+01 3.49999E-01
 -1      1629 2.12020E+00 5.67566E+00-3.49999E-01
 -1      1630-1.25357E+01 6.62141E+00 3.49999E-01
 -1      1631-1.32426E+01 8.18010E+00 3.49999E-01
 -1      1632-3.05460E+00 1.54647E+01 3.49999E-01
 -1      1633-1.36223E+01-2.44833E-02 3.49999E-01
 -1      1634-1.44557E+01-2.42674E+00 3.49999E-01
 -1      1635-3.31560E+00-1.23647E+01-3.49999E-01
 -1      1636-5.19037E+00 1.48840E+01 3.49999E-01
 -1      1637 3.37581E+00 9.44160E+00-3.49999E-01
 -1      1638 7.29351E+00 1.34064E+01 3.49999E-01
 -1      1639-5.21884E+00 1.25993E+01 3.49999E-01
 -1      1640 1.37008E+01 5.90615E+00-3.49999E-01
 -1      1641-1.34588E+01 1.30161E+00-3.49999E-01
 -1      1642 1.24100E+01-9.64571E+00 3.49999E-01
 -1      1643 1.06680E+01-1.10291E+01-3.49999E-01
 -1      1644 1.59515E+00 1.11663E+01-3.49999E-01
 -1      1645-6.54825E+00-1.15640E+01 3.49999E-01
 -1      1646-1.15946E+00-1.09360E+01-3.49999E-01
 -1      1647-1.31202E+01 3.60361E-01-3.49999E-01
 -1      1648-5.29750E+00 1.85886E+00-3.49999E-01
 -1      1649-1.40802E+01 7.05367E+00-3.49999E-01
 -1      1650 1.39222E+01 4.89972E-01 3.49999E-01
 -1      1651 2.08407E+00 1.04773E+01 3.49999E-01
 -1      1652-1.42169E+01-1.16389E+00 3.49999E-01
 -1      1653-8.54996E+00-1.31229E+01 3.49999E-01
 -1      1654-1.42176E+01-2.65604E+00-3.49999E-01
 -1      1655 8.17535E+00 1.05348E+01 3.49999E-01
 -1      1656-1.19017E+01 7.20151E+00-3.49999E-01
 -1      1657 9.78705E+00-9.78705E+00 3.49999E-01
 -1      1658 1.39901E+01 4.67924E+00 3.49999E-01
 -1      1659-1.52652E-01 3.29097E+00-3.49999E-01
 -1      1660 1.66834E+00-1.32300E+01 3.49999E-01
 -1      1661-9.27090E+00 1.06400E+01-3.49999E-01
 -1      1662-2.57603E+00-1.51518E+01 3.49999E-01
 -1      1663-1.33963E+01-6.60835E+00 3.49999E-01
 -1      1664-9.97517E-01-1.43784E+01-3.49999E-01
 -1      1665 1.49493E+01-5.15119E+00-3.49999E-01
 -1      1666-1.41222E+01 4.76144E+00 3.49999E-01
 -1      1667 7.20950E+00 1.07548E+01-3.49999E-01
 -1      1668 1.38101E+01 2.63432E+00-3.49999E-01
 -1      1669-9.01529E+00-9.01529E+00-3.49999E-01
 -1      1670 1.16335E+01-7.85722E+00-3.49999E-01
 -1      1671 2.96715E+00-1.40863E+01-3.49999E-01
 -1      1672 1.53668E+01 3.64422E+00-3.49999E-01
 -1      1673 1.48757E+01-4.07722E+00 3.49999E-01
 -1      1674 1.25399E+01 8.86630E+00 3.49999E-01
 -1      1675 7.12381E+00-1.14680E+01-3.49999E-01
 -1      1676-4.22014E+00 1.34184E+01 3.49999E-01
 -1      1677-1.12400E+00-1.56623E+01-3.49999E-01
 -1      1678-2.27120E+00 9.56518E+00-3.49999E-01
 -1      1679-1.55551E+00-1.26796E+01-3.49999E-01
 -1      1680 1.49128E+01 4.95909E+00-3.49999E-01
 -1      1681-2.78117E+00 1.27010E+01-3.49999E-01
 -1      1682 1.15716E+01 6.55352E+00 3.49999E-01
 -1      1683-3.92013E+00-1.43578E+01-3.49999E-01
 -1      1684 7.90457E+00-1.30043E+01-3.49999E-01
 -1      1685 1.09312E+00-1.02630E+01-3.49999E-01
 -1      1686 4.15239E+00 1.33151E+01 3.49999E-01
 -1      1687 1.32601E+01 7.55997E+00-3.49999E-01
 -1      1688-1.41409E+01-5.59558E+00-3.49999E-01
 -1      1689 6.14145E-02-1.38841E+01 3.49999E-01
 -1      1690 1.46944E+01 9.63390E-01 3.49999E-01
 -1      1691 1.56800E+01 1.96291E+00 3.49999E-01
 -1      1692-2.09793E+00 1.58140E+01 3.49999E-01
 -1      1693 1.15940E+00 1.27949E+01-3.49999E-01
 -1      1694-1.03701E+01-1.06660E+01-3.49999E-01
 -1      1695-4.08459E+00 1.28200E+01-3.49999E-01
 -1      1696 1.12828E+01 8.03354E+00 3.49999E-01
 -1      1697 9.09116E+00 1.17343E+01-3.49999E-01
 -1      1698 8.92419E+00 5.96296E+00 3.49999E-01
 -1      1699 9.77741E+00 1.25705E+01-3.49999E-01
 -1      1700 1.19090E+01-1.03123E+01-3.49999E-01
 -1      1701-1.16322E+01-2.72008E+00-3.49999E-01
 -1      1702-1.54443E+01-1.93970E+00-3.49999E-01
 -1      1703-1.02174E+01 1.91404E+00-3.49999E-01
 -1      1704-1.18157E+01 7.08172E+00 3.49999E-01
 -1      1705-1.33448E+01 6.42773E+00 3.49999E-01
 -1      1706-1.03896E+01-1.17241E+01 3.49999E-01
 -1      1707 4.29329E+00-1.32173E+01 3.49999E-01
 -1      1708 8.52755E+00-1.33029E+01 3.49999E-01
 -1      1709-4.87065E+00-6.32831E+00-3.49999E-01
 -1      1710 1.59304E+01 1.98758E+00-3.49999E-01
 -1      1711-3.87554E-01-1.20281E+01-3.49999E-01
 -1      1712 5.54502E-02-1.08961E+01-3.49999E-01
 -1      1713 1.10265E+01-1.51067E+00-3.49999E-01
 -1      1714-1.03982E+00-1.35710E+01 3.49999E-01
 -1      1715 4.00582E+00 1.46403E+01-3.49999E-01
 -1      1716-3.76534E+00-1.52864E+01 3.49999E-01
 -1      1717-6.31331E+00 1.45505E+01 3.49999E-01
 -1      1718 1.01289E+00-1.46134E+01-3.49999E-01
 -1      1719-1.02352E+00 1.38393E+01 3.49999E-01
 -1      1720 2.26052E+00 1.22169E+01-3.49999E-01
 -1      1721 5.09754E+00-1.38982E+01-3.49999E-01
 -1      1722-1.07460E-01-1.56738E+01 3.49999E-01
 -1      1723 2.32537E+00-1.53471E+01 3.49999E-01
 -1      1724 1.23160E+01-6.67401E+00 3.49999E-01
 -1      1725-5.60479E+00-9.73593E+00-3.49999E-01
 -1      1726 8.22929E+00 2.67465E+00-3.49999E-01
 -1      1727 8.92417E+00-5.96294E+00 3.49999E-01
 -1      1728-1.33997E+01 8.57932E+00-3.49999E-01
 -1      1729 1.43070E+01-1.13922E+00 3.49999E-01
 -1      1730-5.80798E+00 1.28513E+01-3.49999E-01
 -1      1731 1.05268E+01 2.09392E+00 3.49999E-01
 -1      1732-1.06843E+01 1.02069E+01 3.49999E-01
 -1      1733 3.11582E+00 1.29629E+01 3.49999E-01
 -1      1734-1.27874E+01-5.29677E+00 3.49999E-01
 -1      1735-1.28953E+01-1.49525E+00-3.49999E-01
 -1      1736-1.14159E+01 5.33051E+00-3.49999E-01
 -1      1737 9.77418E+00 9.86094E+00 3.49999E-01
 -1      1738 1.11591E+01 1.10071E+01 3.49999E-01
 -1      1739-6.18804E+00 1.29790E+01 3.49999E-01
 -1      1740 9.59115E+00-1.09065E+01-3.49999E-01
 -1      1741 9.96548E+00 1.27996E+01 3.49999E-01
 -1      1742 8.88639E+00 1.15395E+01 3.49999E-01
 -1      1743-5.00550E+00 1.50658E+01-3.49999E-01
 -1      1744-1.14930E+01 1.67304E+00-3.49999E-01
 -1      1745 1.00547E+01-1.16255E+01-3.49999E-01
 -1      1746 1.21807E+01-1.05353E+01 3.49999E-01
 -1      1747 1.38653E+01 4.86769E+00-3.49999E-01
 -1      1748-6.10378E+00 7.20840E+00-3.49999E-01
 -1      1749-1.13164E+01 1.31343E+00 3.49999E-01
 -1      1750-7.07393E+00-1.39457E+01 3.49999E-01
 -1      1751 4.63102E+00 1.47262E+01 3.49999E-01
 -1      1752-1.45219E+01-5.89887E+00 3.49999E-01
 -1      1753 7.00900E+00-1.39967E+01-3.49999E-01
 -1      1754-2.55650E-01-1.33166E+01-3.49999E-01
 -1      1755-1.11646E+01 8.09961E+00-3.49999E-01
 -1      1756-1.08062E+01-4.31760E+00-3.49999E-01
 -1      1757 1.05265E+01-1.05341E+01 3.49999E-01
 -1      1758 8.41866E+00 1.30992E+01-3.49999E-01
 -1      1759 1.32999E+00 1.48255E+01-3.49999E-01
 -1      1760 1.06420E+01 1.09975E+01-3.49999E-01
 -1      1761 6.22757E+00 1.12589E+00-3.49999E-01
 -1      1762 3.10650E+00 1.09451E+01-3.49999E-01
 -1      1763 4.94029E-01 1.17442E+01-3.49999E-01
 -1      1764 8.67203E+00-1.35732E+01-3.49999E-01
 -1      1765 3.89525E+00-6.78666E-01-3.49999E-01
 -1      1766 4.82693E+00-6.37552E+00-3.49999E-01
 -1      1767 1.46799E+01-1.86440E+00-3.49999E-01
 -1      1768-1.10606E+01-2.86873E+00 3.49999E-01
 -1      1769-6.94829E+00-7.66359E+00-3.49999E-01
 -1      1770 1.31440E+01-8.44264E+00 3.49999E-01
 -1      1771-1.47421E+01 2.82586E+00-3.49999E-01
 -1      1772-1.51838E+01 1.13883E+00-3.49999E-01
 -1      1773-1.01226E+01 7.60453E+00 3.49999E-01
 -1      1774-1.07125E+01-8.93169E+00 3.49999E-01
 -1      1775-1.21831E+01 9.45952E+00 3.49999E-01
 -1      1776-7.77281E+00 5.17659E-01-3.49999E-01
 -1      1777-1.01757E+01 1.66195E+00 3.49999E-01
 -1      1778 1.29635E+01-5.48880E-01-3.49999E-01
 -1      1779 1.39505E+00-1.21555E+01 3.49999E-01
 -1      1780-1.18382E+01 7.90092E+00-3.49999E-01
 -1      1781 7.78813E+00 1.19404E+01-3.49999E-01
 -1      1782 2.78158E+00-1.16423E+01-3.49999E-01
 -1      1783 7.96330E+00-4.69702E+00-3.49999E-01
 -1      1784 6.60427E+00 1.15845E+01 3.49999E-01
 -1      1785-1.24451E+01 9.67453E+00-3.49999E-01
 -1      1786-5.96296E+00 8.92419E+00 3.49999E-01
 -1      1787 1.47902E+01-5.79253E+00 3.49999E-01
 -1      1788-7.36995E+00 1.38266E+01-3.49999E-01
 -1      1789-1.19957E+01-6.53709E+00 3.49999E-01
 -1      1790 1.95264E-02 9.50232E+00-3.49999E-01
 -1      1791-1.54307E+01 2.89518E+00 3.49999E-01
 -1      1792 1.53916E+01-2.79214E+00 3.49999E-01
 -1      1793-8.79115E+00 1.26820E+01-3.49999E-01
 -1      1794 1.50677E+01 5.00607E+00 3.49999E-01
 -1      1795 6.84535E+00-1.02448E+01 3.49999E-01
 -1      1796-1.10841E+00-4.18522E+00-3.49999E-01
 -1      1797-4.70885E+00 1.41566E+01 3.49999E-01
 -1      1798-1.16761E+00 8.01117E+00-3.49999E-01
 -1      1799 1.13588E+00-1.57830E+01-3.49999E-01
 -1      1800-8.46762E+00 1.29843E+01 3.49999E-01
 -1      1801-6.44103E+00 1.14090E+01 3.49999E-01
 -1      1802 5.28238E+00 1.24294E+01-3.49999E-01
 -1      1803 3.80897E+00-1.27933E+01-3.49999E-01
 -1      1804-1.01035E+01-6.75091E+00 3.49999E-01
 -1      1805 1.20845E+01-2.40375E+00 3.49999E-01
 -1      1806-7.96762E+00 1.31141E+01-3.49999E-01
 -1      1807 1.66956E+00 7.91820E+00-3.49999E-01
 -1      1808-2.94707E-01 1.57424E+01-3.49999E-01
 -1      1809-1.50741E+00-1.26477E+01 3.49999E-01
 -1      1810 1.75034E+00 9.54495E+00-3.49999E-01
 -1      1811-4.22862E+00-1.53749E+01-3.49999E-01
 -1      1812 2.55291E-01 8.09650E+00-3.49999E-01
 -1      1813 1.54529E+00-2.64866E+00-3.49999E-01
 -1      1814-4.69918E+00-2.20020E+00-3.49999E-01
 -1      1815 5.21106E+00 1.25805E+01 3.49999E-01
 -1      1816 1.56080E+01-3.42873E+00-3.49999E-01
 -1      1817 8.45366E+00 3.16694E-01-3.49999E-01
 -1      1818 4.14369E+00 1.32459E+01-3.49999E-01
 -1      1819 1.32795E+01 1.47417E+00-3.49999E-01
 -1      1820 6.01793E+00-1.46336E+01-3.49999E-01
 -1      1821 8.74261E-01-1.59097E+01 3.49999E-01
 -1      1822-1.27559E+01 2.04481E+00 3.49999E-01
 -1      1823 3.10072E+00 1.17602E+01 3.49999E-01
 -1      1824-1.41633E+01-1.38443E+00-3.49999E-01
 -1      1825 2.34174E+00 1.32925E+01 3.49999E-01
 -1      1826-9.69940E+00 1.24754E+01 3.49999E-01
 -1      1827 1.14621E+00 1.58879E+01-3.49999E-01
 -1      1828 1.76763E+00-1.35254E+01-3.49999E-01
 -1      1829-1.18330E+01-9.91382E+00 3.49999E-01
 -1      1830 1.47024E+01-2.06209E+00 3.49999E-01
 -1      1831-6.77777E+00 1.00645E+01-3.49999E-01
 -1      1832 2.10323E+00-1.04694E+01 3.49999E-01
 -1      1833-5.79253E+00-9.84949E+00 3.49999E-01
 -1      1834 1.27665E+01-2.58341E+00-3.49999E-01
 -1      1835 1.47718E+01-6.13894E+00-3.49999E-01
 -1      1836 1.14802E+01-4.73547E+00-3.49999E-01
 -1      1837 1.35405E+01 3.97195E-01-3.49999E-01
 -1      1838 1.58022E-01 1.46467E+01-3.49999E-01
 -1      1839 1.56641E+01-3.64765E+00 3.49999E-01
 -1      1840 7.37059E+00 1.10309E+01 3.49999E-01
 -1      1841-1.29275E+01-2.79212E+00-3.49999E-01
 -1      1842 6.58122E+00-1.27103E+01-3.49999E-01
 -1      1843-2.09392E+00-1.05268E+01 3.49999E-01
 -1      1844-1.17370E+01-1.01712E+01-3.49999E-01
 -1      1845-2.43584E+00 1.53584E+00-3.49999E-01
 -1      1846 2.60028E+00 1.00786E+01-3.49999E-01
 -1      1847-3.35725E+00-1.17665E+01 3.49999E-01
 -1      1848-2.36891E+00-1.05831E+00-3.49999E-01
 -1      1849-1.47556E+01 2.35958E+00 3.49999E-01
 -1      1850 1.56466E+01 2.85274E-01-3.49999E-01
 -1      1851-8.18284E+00 1.04829E+01 3.49999E-01
 -1      1852 3.46339E+00-1.24593E+01 3.49999E-01
 -1      1853 8.88255E+00-1.80438E+00-3.49999E-01
 -1      1854-7.88420E+00 1.38667E+01 3.49999E-01
 -1      1855-7.68353E-01-1.27181E+01-3.49999E-01
 -1      1856-3.66184E-01-1.32949E+01 3.49999E-01
 -1      1857 1.17892E+01 1.02140E+01-3.49999E-01
 -1      1858-4.96734E+00-1.49400E+01 3.49999E-01
 -1      1859 4.29189E+00-3.53841E+00-3.49999E-01
 -1      1860-7.74035E+00 3.41255E+00-3.49999E-01
 -1      1861-1.06618E+01 7.69637E-01-3.49999E-01
 -1      1862 2.31959E+00 1.55438E+01-3.49999E-01
 -1      1863 4.99872E+00 1.05082E+01-3.49999E-01
 -1      1864-4.37036E+00 4.73413E+00-3.49999E-01
 -1      1865 2.54162E-03-9.64250E+00-3.49999E-01
 -1      1866 9.01749E+00 9.57869E+00-3.49999E-01
 -1      1867 1.04608E+01-2.08077E+00 3.49999E-01
 -1      1868 1.22368E+01 9.96441E+00 3.49999E-01
 -1      1869 1.28413E+01 5.76318E+00 3.49999E-01
 -1      1870 1.64719E+00 1.72574E+00-3.49999E-01
 -1      1871 1.78341E+00-1.42570E+01 3.49999E-01
 -1      1872 1.82472E+00 1.03702E+01-3.49999E-01
 -1      1873-5.72381E-01-1.02947E+01-3.49999E-01
 -1      1874-8.57494E-01 1.56699E+01 3.49999E-01
 -1      1875 3.11219E-01 1.58799E+01 3.49999E-01
 -1      1876 3.19741E+00-2.23283E+00-3.49999E-01
 -1      1877 2.97075E+00 1.08189E+01 3.49999E-01
 -1      1878 1.00606E+01 5.82173E+00-3.49999E-01
 -1      1879 5.10924E+00-1.96766E+00-3.49999E-01
 -1      1880 8.72214E-01 1.00401E+01-3.49999E-01
 -1      1881-1.76246E+00 1.12573E+01-3.49999E-01
 -1      1882-2.83176E+00-3.06241E+00-3.49999E-01
 -1      1883-9.23615E+00 4.27357E-01-3.49999E-01
 -1      1884 7.45499E-01-1.36221E+01-3.49999E-01
 -1      1885-1.65694E+00 1.24130E+01-3.49999E-01
 -1      1886-1.21826E+01 3.17003E+00 3.49999E-01
 -1      1887-4.94952E+00 1.26575E+01-3.49999E-01
 -1      1888-1.52114E+01 4.17905E+00-3.49999E-01
 -1      1889 6.36231E+00-1.45542E+01 3.49999E-01
 -1      1890 1.61533E+01 3.35187E-01 3.49999E-01
 -1      1891 7.83959E+00 5.00781E+00-3.49999E-01
 -1      1892 8.62829E-01 1.46632E+01 3.49999E-01
 -1      1893 6.00149E+00 3.50168E+00-3.49999E-01
 -1      1894-2.82116E+00 1.58939E+01-3.49999E-01
 -1      1895 7.99972E-01-1.33976E+01 3.49999E-01
 -1      1896-1.03115E+01-1.19080E+01-3.49999E-01
 -1      1897-5.73964E+00-2.79936E-01-3.49999E-01
 -1      1898 6.06988E+00-1.36249E+01-3.49999E-01
 -1      1899 3.45276E-01 1.62558E+01-3.49999E-01
 -1      1900-7.62362E+00 1.30603E+01 3.49999E-01
 -1      1901 6.85404E+00 2.38415E+00-3.49999E-01
 -1      1902 7.85925E+00-1.27430E+01 3.49999E-01
 -1      1903-3.49679E+00 1.25333E+01 3.49999E-01
 -1      1904-1.13490E+00 9.20326E+00-3.49999E-01
 -1      1905 1.27794E+01 3.90926E+00-3.49999E-01
 -1      1906-9.91805E+00-2.16440E+00-3.49999E-01
 -1      1907 5.61496E+00 1.40954E+01-3.49999E-01
 -1      1908 8.45896E+00 1.33895E+01 3.49999E-01
 -1      1909 2.77208E+00 1.53956E+01 3.49999E-01
 -1      1910-2.27064E+00-1.16004E+01-3.49999E-01
 -1      1911 1.16348E-01 5.31007E+00-3.49999E-01
 -1      1912 7.08490E+00 1.78152E-02-3.49999E-01
 -1      1913 1.39959E+01 7.00860E+00 3.49999E-01
 -1      1914-1.40115E+00 1.21555E+01 3.49999E-01
 -1      1915-4.49068E+00-1.55446E+01 3.49999E-01
 -1      1916 8.30179E+00-1.11999E+01-3.49999E-01
 -1      1917-1.90949E+00 1.31538E+01 3.49999E-01
 -1      1918-1.92431E+00 1.37076E+01-3.49999E-01
 -1      1919-3.33817E-01-1.61394E+01-3.49999E-01
 -1      1920-1.36737E+01-5.54295E+00 3.49999E-01
 -1      1921 6.36231E+00 1.45542E+01 3.49999E-01
 -1      1922-1.11163E+01 3.17561E+00-3.49999E-01
 -1      1923 9.96388E+00-9.80489E+00-3.49999E-01
 -1      1924-1.16514E+01 2.51123E+00-3.49999E-01
 -1      1925 8.17535E+00-1.05348E+01 3.49999E-01
 -1      1926 1.34959E+00 9.99889E+00 3.49999E-01
 -1      1927 6.41241E+00-1.31042E+01 3.49999E-01
 -1      1928 1.30261E+01 3.58649E+00 3.49999E-01
 -1      1929-1.01842E+01-3.31436E+00-3.49999E-01
 -1      1930 1.37513E+01-7.90810E+00-3.49999E-01
 -1      1931-1.57699E+01 5.97411E-01 3.49999E-01
 -1      1932-7.83211E+00 1.11850E+01-3.49999E-01
 -1      1933 1.88967E+00-6.72865E-01-3.49999E-01
 -1      1934-8.56198E+00 1.97414E+00-3.49999E-01
 -1      1935-3.79504E-01 6.77558E+00-3.49999E-01
 -1      1936-5.09054E+00-1.53461E+01-3.49999E-01
 -1      1937-8.33686E-01 1.04182E+01-3.49999E-01
 -1      1938 1.33034E+00 1.29566E+01 3.49999E-01
 -1      1939 7.35268E+00 3.72736E+00-3.49999E-01
 -1      1940 1.13723E+01-7.36730E+00 3.49999E-01
 -1      1941-1.20455E+01-3.94611E+00-3.49999E-01
 -1      1942-1.09736E+01 8.91044E+00 3.49999E-01
 -1      1943 4.81955E+00-1.39166E+01 3.49999E-01
 -1      1944-1.14476E+01-1.10115E+01 3.49999E-01
 -1      1945-9.62868E+00-9.62868E+00 3.49999E-01
 -1      1946-1.04773E+01-1.70615E+00 3.49999E-01
 -1      1947 1.40002E+01-2.96111E+00-3.49999E-01
 -1      1948-1.40585E+00 4.48540E+00-3.49999E-01
 -1      1949 6.46987E+00 1.18498E+01-3.49999E-01
 -1      1950-1.19130E+01-3.38391E+00 3.49999E-01
 -1      1951-9.41385E+00 1.01660E+01 3.49999E-01
 -1      1952-7.56171E+00 1.14157E+01 3.49999E-01
 -1      1953-3.30243E+00 7.66398E+00-3.49999E-01
 -1      1954 1.12312E+01-3.12620E+00-3.49999E-01
 -1      1955-3.83614E+00 1.52762E+01-3.49999E-01
 -1      1956 1.59262E+00 8.00665E+00 3.49999E-01
 -1      1957-6.46627E+00 1.14139E+01-3.49999E-01
 -1      1958 1.15924E+01 1.11575E+01-3.49999E-01
 -1      1959 1.26781E+01 9.86576E+00-3.49999E-01
 -1      1960-1.10858E+01-3.44986E+00-3.49999E-01
 -1      1961-1.20131E+00-1.35043E+01-3.49999E-01
 -1      1962 5.53021E+00 2.25818E+00-3.49999E-01
 -1      1963 7.77148E+00 1.44143E+00-3.49999E-01
 -1      1964-4.33256E+00 1.46806E+01-3.49999E-01
 -1      1965-3.35494E+00 6.02357E+00-3.49999E-01
 -1      1966 1.45672E+01-1.55425E-01-3.49999E-01
 -1      1967 1.56407E+01-1.00428E+00-3.49999E-01
 -1      1968-5.25219E-01-2.13261E+00-3.49999E-01
 -1      1969-2.60229E+00-1.12723E+01 3.49999E-01
 -1      1970-2.39770E+00-9.21302E+00-3.49999E-01
 -1      1971 1.00164E+01 5.82291E+00 3.49999E-01
 -1      1972 8.44561E+00 1.06773E+01-3.49999E-01
 -1      1973 2.54580E+00 9.22165E+00-3.49999E-01
 -1      1974 1.37873E+00-8.49244E+00-3.49999E-01
 -1      1975-8.53976E+00 1.04414E+00-3.49999E-01
 -1      1976-1.46969E+01 3.12689E+00 3.49999E-01
 -1      1977-6.82332E-01 1.61739E+00-3.49999E-01
 -1      1978-1.22241E+01-7.70582E+00-3.49999E-01
 -1      1979-1.16023E+01-1.11384E+01-3.49999E-01
 -1      1980-1.89835E+00-9.54362E+00 3.49999E-01
 -1      1981-4.19997E+00-8.25570E+00-3.49999E-01
 -1      1982-1.42266E+00-1.13164E+01 3.49999E-01
 -1      1983-1.53725E+00 2.61085E-01-3.49999E-01
 -1      1984 1.18091E+01-6.19712E+00-3.49999E-01
 -1      1985 1.94019E+00-1.24038E+01-3.49999E-01
 -1      1986 1.29776E+01-4.18549E+00-3.49999E-01
 -1      1987 8.99618E-01 8.92724E+00-3.49999E-01
 -1      1988 9.71415E+00-5.41287E+00-3.49999E-01
 -1      1989 1.21100E+01 6.20633E-01-3.49999E-01
 -1      1990 2.96452E+00-1.11447E+01 3.49999E-01
 -1      1991 1.35523E+00-1.00021E+01 3.49999E-01
 -1      1992 1.00636E+01-2.45336E+00-3.49999E-01
 -1      1993-8.49302E+00 8.32196E+00-3.49999E-01
 -1      1994 1.56287E+01-1.11913E+00 3.49999E-01
 -1      1995-1.28240E+01-8.94435E+00 3.49999E-01
 -1      1996 1.26689E+01-5.35132E+00-3.49999E-01
 -1      1997 3.95916E+00 1.03220E+01-3.49999E-01
 -1      1998 5.22227E+00 8.40000E+00-3.49999E-01
 -1      1999-1.05822E+01 1.15107E+01 3.49999E-01
 -1      2000 8.69164E+00 3.95100E+00-3.49999E-01
 -1      2001-1.30036E+01 1.22097E+00 3.49999E-01
 -1      2002 4.94028E+00-1.50387E+01-3.49999E-01
 -1      2003 1.40947E+01 1.80271E+00-3.49999E-01
 -1      2004 3.37245E+00 1.24197E+01-3.49999E-01
 -1      2005 9.05352E-01-9.32441E+00-3.49999E-01
 -1      2006-6.46496E+00-4.19447E+00-3.49999E-01
 -1      2007-1.00279E+01 2.69883E-01-3.49999E-01
 -1      2008-9.44316E+00 3.41677E+00-3.49999E-01
 -1      2009 5.49007E+00-3.30425E-01-3.49999E-01
 -1      2010-6.14745E+00-1.41522E+01-3.49999E-01
 -1      2011 8.61698E+00-7.06633E+00-3.49999E-01
 -1      2012 1.08189E+01-5.65212E+00-3.49999E-01
 -1      2013-2.76421E+00-1.53158E+01-3.49999E-01
 -1      2014 5.51055E-02 1.03908E+01-3.49999E-01
 -1      2015 1.08180E+00 1.61439E+01 3.49999E-01
 -1      2016-1.16290E+00 1.60572E+01-3.49999E-01
 -1      2017-2.32023E+00 8.36150E+00-3.49999E-01
 -1      2018-2.38810E+00 1.18971E+01-3.49999E-01
 -1      2019 8.35986E-01 7.00444E+00-3.49999E-01
 -1      2020 6.20476E+00 2.22542E-01-3.49999E-01
 -1      2021-8.18375E+00 1.39023E+01-3.49999E-01
 -1      2022 1.29440E+01-3.10623E+00 3.49999E-01
 -1      2023 1.31214E+01-1.64071E+00 3.49999E-01
 -1      2024-8.78087E+00-5.86720E+00 3.49999E-01
 -1      2025 4.01989E+00-1.38512E+01-3.49999E-01
 -1      2026 4.88662E+00-1.28404E+01-3.49999E-01
 -1      2027 3.57493E+00 1.47093E+01 3.49999E-01
 -1      2028-8.69030E+00-1.25592E+01-3.49999E-01
 -1      2029 4.74085E+00 9.91139E-01-3.49999E-01
 -1      2030 4.65964E+00 9.40628E+00-3.49999E-01
 -1      2031 2.45675E+00-1.53720E+01-3.49999E-01
 -1      2032-8.59292E+00 2.94568E+00-3.49999E-01
 -1      2033-9.44053E+00 1.35964E+00-3.49999E-01
 -1      2034-2.09392E+00 1.05268E+01 3.49999E-01
 -1      2035 5.92556E+00-8.86823E+00 3.49999E-01
 -1      2036 7.06205E+00-1.12786E+01 3.49999E-01
 -1      2037 2.13476E+00 9.59655E+00 3.49999E-01
 -1      2038 1.49963E+01 3.40853E+00 3.49999E-01
 -1      2039-1.30103E+01-6.49428E+00-3.49999E-01
 -1      2040-9.81557E+00 1.26170E+01-3.49999E-01
 -1      2041 4.58928E-01 2.17680E+00-3.49999E-01
 -1      2042-1.07294E+00-9.53394E-01-3.49999E-01
 -1      2043-3.01027E+00-5.22035E+00-3.49999E-01
 -1      2044-3.52187E+00 9.01328E+00-3.49999E-01
 -1      2045-3.92885E+00 1.55705E+01 3.49999E-01
 -1      2046 9.30634E-01 7.75519E+00-3.49999E-01
 -1      2047 1.52401E+01-4.95517E+00 3.49999E-01
 -1      2048-1.07360E+01 9.75614E+00-3.49999E-01
 -1      2049-9.44721E-01 5.45143E+00-3.49999E-01
 -1      2050 3.71926E+00 1.23539E+01 3.49999E-01
 -1      2051 2.14114E+00 1.14764E+01 3.49999E-01
 -1      2052-1.09577E+01 3.11717E+00 3.49999E-01
 -1      2053 1.03044E+01 1.97490E-01-3.49999E-01
 -1      2054-3.13218E+00 1.41848E+01-3.49999E-01
 -1      2055-7.64145E+00 1.53087E+00-3.49999E-01
 -1      2056-1.23085E+00 1.04773E+01 3.49999E-01
 -1      2057 3.86988E+00-1.17049E+01-3.49999E-01
 -1      2058 1.13856E+01-3.52145E-01-3.49999E-01
 -1      2059 9.32308E+00-6.11408E-01-3.49999E-01
 -1      2060-1.24593E+01 8.60979E+00 3.49999E-01
 -1      2061-1.55612E+01-2.76862E-01-3.49999E-01
 -1      2062-1.58283E+01 1.97752E+00-3.49999E-01
 -1      2063-1.43788E+01 1.82943E+00-3.49999E-01
 -1      2064-1.42924E+01 9.14327E-01-3.49999E-01
 -1      2065-8.81587E+00 1.16105E+01-3.49999E-01
 -1      2066-1.10307E+01 7.59841E+00 3.49999E-01
 -1      2067-1.36210E+01 2.67020E+00-3.49999E-01
 -1      2068 7.23916E+00-1.44273E+01 3.49999E-01
 -1      2069 1.28973E+01 4.67174E+00 3.49999E-01
 -1      2070 1.18951E+01-8.50614E+00 3.49999E-01
 -1      2071 1.30246E+01-7.42038E+00 3.49999E-01
 -1      2072 1.39581E+01-7.94367E+00 3.49999E-01
 -1      2073 9.05859E+00 5.11874E+00-3.49999E-01
 -1      2074 1.36284E+01-1.97173E+00-3.49999E-01
 -1      2075-9.24244E+00-6.41168E+00-3.49999E-01
 -1      2076-1.01647E+01-2.83885E+00 3.49999E-01
 -1      2077-1.82262E+00-2.23998E+00-3.49999E-01
 -1      2078 2.43471E-01-3.46017E+00-3.49999E-01
 -1      2079 5.69031E+00-9.05035E+00-3.49999E-01
 -1      2080 1.15552E+01-5.48644E+00-3.49999E-01
 -1      2081 2.05724E+00 1.59554E+01 3.49999E-01
 -1      2082 1.25162E+01-5.56674E+00 3.49999E-01
 -1      2083 1.66520E+00 3.56387E+00-3.49999E-01
 -1      2084-1.49659E+01 8.04838E-01 3.49999E-01
 -1      2085 1.06509E+01-8.09263E+00-3.49999E-01
 -1      2086 1.19983E+00-1.14588E+01-3.49999E-01
 -1      2087 1.19731E+01-7.05381E+00-3.49999E-01
 -1      2088-1.57324E+01 2.97420E+00-3.49999E-01
 -1      2089 1.44727E+01-2.40051E-01 3.49999E-01
 -1      2090-1.32491E+01-8.49881E+00-3.49999E-01
 -1      2091 5.01631E-01-2.42436E+00-3.49999E-01
 -1      2092-7.75707E+00 2.46824E+00-3.49999E-01
 -1      2093-1.43123E+01 3.73290E+00-3.49999E-01
 -1      2094 8.10266E+00 7.37723E+00-3.49999E-01
 -1      2095 9.71286E+00-1.24918E+01 3.49999E-01
 -1      2096-4.39957E+00 1.26188E+01 3.49999E-01
 -1      2097 1.56698E+01-2.33457E+00-3.49999E-01
 -1      2098-1.27813E+01 5.09461E+00-3.49999E-01
 -1      2099 1.23313E+00 4.72321E-01-3.49999E-01
 -1      2100-8.81468E+00 1.75335E+00 3.49999E-01
 -1      2101-1.60806E+01-3.28019E-01 3.49999E-01
 -1      2102 7.15961E+00-1.32323E+01-3.49999E-01
 -1      2103 9.00795E+00-6.99596E+00 3.49999E-01
 -1      2104 9.91059E+00-5.64501E+00 3.49999E-01
 -1      2105-1.25280E+01 5.50126E+00 3.49999E-01
 -1      2106 1.22200E+00-1.13164E+01 3.49999E-01
 -1      2107-1.26591E+01-7.29849E+00 3.49999E-01
 -1      2108-9.90443E+00 1.15290E+01-3.49999E-01
 -1      2109-3.35157E-01 5.97394E+00-3.49999E-01
 -1      2110 2.92199E+00 1.17397E+01-3.49999E-01
 -1      2111 6.29623E+00-3.58335E+00-3.49999E-01
 -1      2112-9.40747E+00 2.43348E+00-3.49999E-01
 -1      2113 7.47272E+00 4.99312E+00 3.49999E-01
 -1      2114-1.40157E+01 1.93123E+00 3.49999E-01
 -1      2115-3.85327E+00 2.01332E-01-3.49999E-01
 -1      2116-1.40864E+01 3.96957E+00 3.49999E-01
 -1      2117 1.17800E+01-2.23596E+00-3.49999E-01
 -1      2118-1.58586E+00-1.57048E+01 3.49999E-01
 -1      2119-3.85834E+00-1.05262E+01-3.49999E-01
 -1      2120-9.62155E+00-5.06389E+00-3.49999E-01
 -1      2121 1.18008E+01-6.00912E+00 3.49999E-01
 -1      2122 8.13697E+00-8.51243E-01-3.49999E-01
 -1      2123 9.56066E+00 1.07219E+01-3.49999E-01
 -1      2124-3.78758E-01 2.44192E+00-3.49999E-01
 -1      2125 9.49915E+00-1.88950E+00 3.49999E-01
 -1      2126 7.42840E+00-1.00845E+01-3.49999E-01
 -1      2127 9.12163E+00 1.06191E+01 3.49999E-01
 -1      2128 5.89693E+00-1.05617E+01-3.49999E-01
 -1      2129 1.03788E+01 8.78030E+00 3.49999E-01
 -1      2130-1.50310E+01-5.86558E+00-3.49999E-01
 -1      2131-3.75223E+00-1.18401E+00-3.49999E-01
 -1      2132 1.50225E+01 2.53645E+00 3.49999E-01
 -1      2133 1.75335E+00-8.81468E+00 3.49999E-01
 -1      2134 1.97637E+00 1.30135E+01-3.49999E-01
 -1      2135 3.42422E-01 1.25763E+01-3.49999E-01
 -1      2136 1.17623E+01-9.25224E+00 3.49999E-01
 -1      2137 3.57107E+00 4.25815E+00-3.49999E-01
 -1      2138 4.07139E+00-1.39320E+01 3.49999E-01
 -1      2139 9.95960E+00-1.25544E+01-3.49999E-01
 -1      2140-2.76109E+00 8.98229E+00-3.49999E-01
 -1      2141 1.97375E+00 1.45901E+01 3.49999E-01
 -1      2142 6.62131E+00-7.27309E+00-3.49999E-01
 -1      2143-9.76427E+00 1.16485E+01 3.49999E-01
 -1      2144 1.18884E+01 5.53140E+00-3.49999E-01
 -1      2145-7.94373E+00-4.99053E+00-3.49999E-01
 -1      2146-1.22134E+01 5.87715E+00-3.49999E-01
 -1      2147 1.31758E+00 2.64812E+00-3.49999E-01
 -1      2148 1.07605E+01-5.78576E+00 3.49999E-01
 -1      2149-1.19172E+01 4.16254E+00-3.49999E-01
 -1      2150-3.25718E+00-1.13481E+01-3.49999E-01
 -1      2151 8.79213E+00-3.36803E+00-3.49999E-01
 -1      2152 5.38085E+00 8.05300E+00 3.49999E-01
 -1      2153 1.07346E+01 3.84194E+00-3.49999E-01
 -1      2154 5.05995E+00-1.52453E+01 3.49999E-01
 -1      2155-5.03139E+00-1.42290E+01-3.49999E-01
 -1      2156-1.24759E+01 1.48732E+00-3.49999E-01
 -1      2157-6.61389E+00 1.32990E+01-3.49999E-01
 -1      2158 8.52748E+00-5.81619E+00-3.49999E-01
 -1      2159-1.31970E+01 4.02052E+00-3.49999E-01
 -1      2160 1.49072E+01-2.84036E+00-3.49999E-01
 -1      2161-7.16527E+00-1.42890E+01-3.49999E-01
 -1      2162-9.90119E+00-4.19443E+00-3.49999E-01
 -1      2163-1.13219E+01 6.36616E+00-3.49999E-01
 -1      2164 7.10108E+00-8.65689E+00-3.49999E-01
 -1      2165-1.59200E+01 2.13004E+00 3.49999E-01
 -1      2166-9.89181E+00-5.69036E+00 3.49999E-01
 -1      2167 6.38131E+00-5.51048E+00-3.49999E-01
 -1      2168-1.54956E+01-1.57613E+00 3.49999E-01
 -1      2169 6.48044E+00 4.79185E+00-3.49999E-01
 -1      2170-5.41027E+00 1.04595E+01-3.49999E-01
 -1      2171 5.30512E+00-3.06762E+00-3.49999E-01
 -1      2172 1.00142E+01 1.16765E+01-3.49999E-01
 -1      2173-4.76278E+00-1.39715E+01 3.49999E-01
 -1      2174-6.46287E+00 5.11250E+00-3.49999E-01
 -1      2175-8.59042E+00 3.95301E+00-3.49999E-01
 -1      2176 1.32095E+01-3.33997E+00-3.49999E-01
 -1      2177 8.97816E+00 1.25267E+01-3.49999E-01
 -1      2178-1.03130E+00 1.17732E+01-3.49999E-01
 -1      2179-9.96210E+00 5.72065E+00-3.49999E-01
 -1      2180-1.17702E+01 6.10936E+00 3.49999E-01
 -1      2181 2.91628E+00 3.09256E+00-3.49999E-01
 -1      2182-7.58372E+00-1.06708E+01-3.49999E-01
 -1      2183-6.37077E+00-1.46906E+01 3.49999E-01
 -1      2184-1.13023E+01 1.63810E-02-3.49999E-01
 -1      2185 2.70309E+00-3.75878E+00-3.49999E-01
 -1      2186-8.17034E+00 9.71980E+00-3.49999E-01
 -1      2187-1.15649E+01 9.17731E+00-3.49999E-01
 -1      2188-9.86513E+00 8.64710E+00-3.49999E-01
 -1      2189-1.50553E+01-3.72502E+00 3.49999E-01
 -1      2190-8.17916E+00-1.22089E+01 3.49999E-01
 -1      2191 5.01141E+00 4.60322E+00-3.49999E-01
 -1      2192-1.07238E+01 8.86927E+00-3.49999E-01
 -1      2193-2.99948E+00 1.44022E+01 3.49999E-01
 -1      2194-7.63792E+00 9.63783E+00 3.49999E-01
 -1      2195 1.03998E+01 1.05148E+01 3.49999E-01
 -1      2196 1.06316E+01 1.18680E+01 3.49999E-01
 -1      2197 6.04501E+00-1.16448E+01-3.49999E-01
 -1      2198 4.25358E+00-1.00166E+01-3.49999E-01
 -1      2199 5.82465E-01 2.96955E+00-3.49999E-01
 -1      2200-9.43571E+00 5.46032E+00 3.49999E-01
 -1      2201-1.04491E+01 5.90216E+00 3.49999E-01
 -1      2202-1.29498E+01-4.13308E+00 3.49999E-01
 -1      2203-8.79946E+00-4.64250E+00-3.49999E-01
 -1      2204 2.85369E+00 1.45153E+01-3.49999E-01
 -1      2205 6.62008E+00 7.76924E+00-3.49999E-01
 -1      2206-5.49682E+00 1.36715E+01-3.49999E-01
 -1      2207-1.02524E+01 1.06108E+01-3.49999E-01
 -1      2208-1.38268E+01-7.41349E+00-3.49999E-01
 -1      2209-1.29442E+01 7.57134E+00-3.49999E-01
 -1      2210 8.09066E+00-5.40601E+00 3.49999E-01
 -1      2211-1.19612E+01 3.30840E+00-3.49999E-01
 -1      2212 8.12799E+00-1.04363E+01-3.49999E-01
 -1      2213 6.49030E+00 9.34583E+00-3.49999E-01
 -1      2214 4.20834E+00-2.49691E+00-3.49999E-01
 -1      2215 8.00665E+00 1.59262E+00 3.49999E-01
 -1      2216 9.60489E+00-7.56481E+00-3.49999E-01
 -1      2217 9.39122E+00 5.27621E+00 3.49999E-01
 -1      2218-1.61745E+00 1.12859E+01 3.49999E-01
 -1      2219 3.48649E+00-1.54491E+01 3.49999E-01
 -1      2220 9.20991E+00-2.60775E+00-3.49999E-01
 -1      2221-4.42351E+00-9.45029E+00-3.49999E-01
 -1      2222-9.58872E+00 4.59437E+00-3.49999E-01
 -1      2223-5.64499E+00 9.91060E+00 3.49999E-01
 -1      2224-9.04264E+00-6.96126E+00 3.49999E-01
 -1      2225 3.52798E+00 7.55394E+00-3.49999E-01
 -1      2226 5.01312E+00 1.50909E+01-3.49999E-01
 -1      2227-1.39789E+00-1.17986E+01-3.49999E-01
 -1      2228-2.42242E+00-1.37643E+01 3.49999E-01
 -1      2229 3.92223E+00 3.29417E+00-3.49999E-01
 -1      2230 1.29627E+01 9.57387E+00 3.49999E-01
 -1      2231-1.14843E+01 1.07437E+01-3.49999E-01
 -1      2232-1.45941E+01 5.89256E+00-3.49999E-01
 -1      2233 7.29418E+00 6.26768E+00-3.49999E-01
 -1      2234-1.25637E+01 7.45845E+00 3.49999E-01
 -1      2235-9.81501E+00 2.53208E+00 3.49999E-01
 -1      2236-7.43045E+00-1.11257E+01 3.49999E-01
 -1      2237-2.71949E+00-1.03240E+01-3.49999E-01
 -1      2238 5.82065E-01 6.11227E+00-3.49999E-01
 -1      2239-3.12231E+00-4.41708E-01-3.49999E-01
 -1      2240-1.47939E+01-4.14185E+00-3.49999E-01
 -1      2241-1.10614E+01-1.55916E+00-3.49999E-01
 -1      2242-3.60073E+00-2.27449E+00-3.49999E-01
 -1      2243-7.19333E+00 8.75810E+00-3.49999E-01
 -1      2244-1.19562E+01-8.89794E-01-3.49999E-01
 -1      2245-3.62473E+00 1.16446E+01-3.49999E-01
 -1      2246-1.30692E+01-1.59842E+00 3.49999E-01
 -1      2247-1.05805E+01-9.11203E+00-3.49999E-01
 -1      2248 6.12783E+00 1.04189E+01-3.49999E-01
 -1      2249-3.22604E+00 1.15769E+01 3.49999E-01
 -1      2250 5.23579E+00-1.25760E+01 3.49999E-01
 -1      2251-1.01960E+01-1.30694E+00-3.49999E-01
 -1      2252 1.35458E+01-5.34150E-01 3.49999E-01
 -1      2253-1.60110E+01-1.15834E+00-3.49999E-01
 -1      2254 1.26514E+01-9.39364E+00-3.49999E-01
 -1      2255 6.87383E+00-4.52329E+00-3.49999E-01
 -1      2256 4.39174E+00 4.01116E+00-3.49999E-01
 -1      2257 1.08710E+01 1.18389E+01-3.49999E-01
 -1      2258-2.61023E+00 6.82078E+00-3.49999E-01
 -1      2259 6.11835E+00 8.52157E+00-3.49999E-01
 -1      2260-1.21570E+01 1.21124E+00 3.49999E-01
 -1      2261 9.07600E-01-3.07562E+00-3.49999E-01
 -1      2262-1.15483E+01-6.40647E+00-3.49999E-01
 -1      2263 4.01713E+00-8.11366E+00-3.49999E-01
 -1      2264-5.73325E+00 9.01295E+00-3.49999E-01
 -1      2265-7.97707E+00 8.93902E+00-3.49999E-01
 -1      2266-7.38660E+00 9.53888E+00-3.49999E-01
 -1      2267 1.42132E+01 6.92834E+00-3.49999E-01
 -1      2268-1.07484E+01-2.62779E+00-3.49999E-01
 -1      2269 7.60490E-01 1.09069E+01-3.49999E-01
 -1      2270 1.04493E+01-4.68855E+00-3.49999E-01
 -1      2271-3.50883E+00-1.50379E+01-3.49999E-01
 -1      2272 7.75893E+00 9.62170E+00-3.49999E-01
 -1      2273-9.46121E+00-5.10026E-01-3.49999E-01
 -1      2274 8.80570E-01 1.38408E+01-3.49999E-01
 -1      2275 2.41149E+00-6.30788E+00-3.49999E-01
 -1      2276-1.18299E+01-8.90874E+00-3.49999E-01
 -1      2277-9.22428E+00-1.46572E+00-3.49999E-01
 -1      2278 6.99017E+00-9.15246E+00 3.49999E-01
 -1      2279 5.10505E+00 1.53940E+01 3.49999E-01
 -1      2280 5.79541E+00 4.31217E+00-3.49999E-01
 -1      2281-1.84352E+00 1.39838E+01 3.49999E-01
 -1      2282-1.99208E+00-1.59761E+01-3.49999E-01
 -1      2283-1.96254E+00 1.46430E+01-3.49999E-01
 -1      2284-7.77433E+00-6.44932E+00-3.49999E-01
 -1      2285-8.69389E+00-5.60899E+00-3.49999E-01
 -1      2286-2.74507E+00 1.29508E+01 3.49999E-01
 -1      2287 2.81953E+00 1.00253E+01 3.49999E-01
 -1      2288 1.34824E+01 8.13399E+00 3.49999E-01
 -1      2289 1.20141E+01 5.84925E+00 3.49999E-01
 -1      2290-1.07608E+01 5.79315E+00-3.49999E-01
 -1      2291 9.84657E+00-2.65576E+00 3.49999E-01
 -1      2292 1.46802E+01 3.19879E+00-3.49999E-01
 -1      2293 8.74813E-02 1.36360E+01 3.49999E-01
 -1      2294-8.18251E+00 5.68557E+00-3.49999E-01
 -1      2295 5.56310E+00 9.25100E+00-3.49999E-01
 -1      2296-4.35071E+00 1.08008E+01-3.49999E-01
 -1      2297-1.02221E+01 2.89620E+00-3.49999E-01
 -1      2298-9.50950E+00-1.89156E+00 3.49999E-01
 -1      2299 2.68601E+00 8.18114E+00-3.49999E-01
 -1      2300-2.36917E+00-1.59444E+01 3.49999E-01
 -1      2301-2.71322E+00-2.17753E+00-3.49999E-01
 -1      2302-1.42774E+01-7.15906E+00 3.49999E-01
 -1      2303 7.66567E+00 9.67736E+00 3.49999E-01
 -1      2304 1.00356E+01-8.93163E+00 3.49999E-01
 -1      2305-9.37179E+00-2.89664E+00-3.49999E-01
 -1      2306 4.19340E+00 4.83905E+00-3.49999E-01
 -1      2307-5.11345E-01 4.65149E+00-3.49999E-01
 -1      2308 6.43636E+00 1.46927E+01-3.49999E-01
 -1      2309-1.83923E+00 5.28534E+00-3.49999E-01
 -1      2310 8.94817E+00-1.18241E+01 3.49999E-01
 -1      2311 6.22174E+00 8.08074E+00 3.49999E-01
 -1      2312 1.96551E+00 6.81112E+00-3.49999E-01
 -1      2313 5.71128E+00-1.24804E+01-3.49999E-01
 -1      2314-1.47925E+01 5.70252E+00 3.49999E-01
 -1      2315-7.02651E+00 6.28778E+00-3.49999E-01
 -1      2316-1.03910E+01 3.92639E+00-3.49999E-01
 -1      2317 2.56512E+00 4.05654E+00-3.49999E-01
 -1      2318 1.64244E+00 4.67369E+00-3.49999E-01
 -1      2319 1.09978E+01-3.98623E+00-3.49999E-01
 -1      2320 3.89899E+00-1.61410E+00-3.49999E-01
 -1      2321 3.41952E+00 1.55777E+01-3.49999E-01
 -1      2322-1.15416E+01 1.10886E+01 3.49999E-01
 -1      2323-3.72646E+00 2.93939E+00-3.49999E-01
 -1      2324 5.52129E+00 1.14126E+01-3.49999E-01
 -1      2325 1.04857E+01 9.53695E+00-3.49999E-01
 -1      2326 1.13164E+01-1.45106E+00 3.49999E-01
 -1      2327 1.11308E+01-2.95558E+00 3.49999E-01
 -1      2328 1.15516E+01 1.03345E+01 3.49999E-01
 -1      2329-1.16026E+01 1.01718E+01 3.49999E-01
 -1      2330 1.34943E+01 3.43313E+00-3.49999E-01
 -1      2331 1.85438E+00 1.39912E+01-3.49999E-01
 -1      2332-3.04494E+00 4.73491E+00-3.49999E-01
 -1      2333 1.40032E+01 5.84390E+00 3.49999E-01
 -1      2334 3.29437E+00-1.22186E+01-3.49999E-01
 -1      2335 8.33011E+00-1.21521E+01-3.49999E-01
 -1      2336-8.06943E-01 1.35749E+01-3.49999E-01
 -1      2337-2.45707E-01-1.51006E+01-3.49999E-01
 -1      2338 5.48307E+00 1.45032E+01 3.49999E-01
 -1      2339-1.30237E+00 7.05607E+00-3.49999E-01
 -1      2340 1.31211E+01 2.60720E+00 3.49999E-01
 -1      2341-1.32141E+01-5.59022E+00-3.49999E-01
 -1      2342 5.00989E+00 3.16644E+00-3.49999E-01
 -1      2343 7.58910E+00-3.54070E+00-3.49999E-01
 -1      2344 5.73868E+00-4.57341E+00-3.49999E-01
 -1      2345 4.79967E+00 7.12679E+00-3.49999E-01
 -1      2346 1.35779E+00 0.00000E+00 3.49999E-01
 -1      2347 2.89627E+00 6.40456E-01-3.49999E-01
 -1      2348 2.19603E+00-1.74417E+00-3.49999E-01
 -1      2349 9.07814E+00-4.46936E+00-3.49999E-01
 -1      2350-6.57212E+00-1.48474E+01-3.49999E-01
 -1      2351 7.04656E+00 1.30948E+01-3.49999E-01
 -1      2352-1.10381E+01-7.98325E+00-3.49999E-01
 -1      2353-6.36733E+00 9.64924E-01-3.49999E-01
 -1      2354 8.41241E+00-1.12690E+01 3.49999E-01
 -1      2355 1.33045E+01 9.30198E+00-3.49999E-01
 -1      2356-2.64716E+00-1.36557E+01-3.49999E-01
 -1      2357 7.61067E+00 2.20272E+00-3.49999E-01
 -1      2358 6.94424E+00 1.55416E+00-3.49999E-01
 -1      2359 7.67218E+00 6.11953E-01-3.49999E-01
 -1      2360-4.90783E+00 6.20192E+00-3.49999E-01
 -1      2361 1.37759E+01-3.95404E-01-3.49999E-01
 -1      2362 1.47716E+01-1.00014E+00-3.49999E-01
 -1      2363 7.07650E+00 5.42545E+00-3.49999E-01
 -1      2364-2.60774E-01-1.31083E+00 3.49999E-01
 -1      2365 4.61676E+00-9.00529E+00-3.49999E-01
 -1      2366 1.05190E+01-7.18494E-01-3.49999E-01
 -1      2367 1.20164E+01-3.80094E+00-3.49999E-01
 -1      2368 1.04197E+01 9.51264E+00 3.49999E-01
 -1      2369 1.25801E+01-1.53856E+00-3.49999E-01
 -1      2370-9.60341E-01 9.60341E-01 3.49999E-01
 -1      2371-7.83379E-01-3.16842E+00-3.49999E-01
 -1      2372 1.27863E+01-6.33055E+00-3.49999E-01
 -1      2373 6.63417E-01-1.12682E+00-3.49999E-01
 -1      2374-5.64544E+00-8.29061E+00-3.49999E-01
 -1      2375 6.19468E+00-2.34179E+00-3.49999E-01
 -1      2376-1.23180E+00-1.04741E+01 3.49999E-01
 -1      2377-1.82213E+00-3.39673E+00-3.49999E-01
 -1      2378-1.54211E+00 1.21174E+00-3.49999E-01
 -1      2379-6.77472E-01 6.66734E-01-3.49999E-01
 -1      2380-3.29387E+00-6.86002E+00-3.49999E-01
 -1      2381 8.41273E+00-4.05436E+00-3.49999E-01
 -1      2382-1.19657E+01-1.83530E+00-3.49999E-01
 -1      2383 2.32022E+00 7.49905E+00-3.49999E-01
 -1      2384 1.55417E+01-1.96010E+00 3.49999E-01
 -1      2385 1.08224E+00-3.74979E-01-3.49999E-01
 -1      2386 1.17399E+01 4.39409E+00-3.49999E-01
 -1      2387-2.15253E+00 3.09152E+00-3.49999E-01
 -1      2388 1.12543E+01 7.43816E+00-3.49999E-01
 -1      2389 1.26317E+01 6.50687E+00-3.49999E-01
 -1      2390 1.73024E+00-3.61459E+00-3.49999E-01
 -1      2391 4.32805E+00 1.23008E+01-3.49999E-01
 -1      2392 1.28209E+01 5.59184E+00-3.49999E-01
 -1      2393-1.20821E+01-1.41701E+00 3.49999E-01
 -1      2394-6.81574E+00-2.10501E+00-3.49999E-01
 -1      2395-7.57204E+00 4.61605E+00-3.49999E-01
 -1      2396 5.79087E+00-1.26331E+00-3.49999E-01
 -1      2397 4.80844E+00-1.03478E+00-3.49999E-01
 -1      2398 7.30880E+00 1.41104E+01-3.49999E-01
 -1      2399 5.51744E+00 6.91852E-01-3.49999E-01
 -1      2400 3.02047E+00-1.32507E+00-3.49999E-01
 -1      2401-1.33043E+01-2.77948E+00 3.49999E-01
 -1      2402 4.61962E+00-1.70060E-01-3.49999E-01
 -1      2403 1.28447E+01-2.35071E+00 3.49999E-01
 -1      2404 1.38806E+01-1.96873E+00 3.49999E-01
 -1      2405-7.98215E+00-6.12774E+00 3.49999E-01
 -1      2406 4.37664E+00 7.97394E+00-3.49999E-01
 -1      2407-9.21422E+00-5.13353E+00 3.49999E-01
 -1      2408 3.66441E+00 1.56267E+01 3.49999E-01
 -1      2409-9.09725E+00-1.12285E+01-3.49999E-01
 -1      2410 3.44299E+00-1.56551E+01-3.49999E-01
 -1      2411 1.99830E+00-1.44912E+01-3.49999E-01
 -1      2412-1.22544E+01-6.86466E+00-3.49999E-01
 -1      2413-4.40598E+00-4.01854E+00-3.49999E-01
 -1      2414-7.80639E+00-9.80558E-01-3.49999E-01
 -1      2415-8.84313E+00 9.13894E+00-3.49999E-01
 -1      2416-3.85216E+00 1.36725E+01-3.49999E-01
 -1      2417-2.99906E+00 1.50434E+01-3.49999E-01
 -1      2418-1.48184E+01 2.03226E-01-3.49999E-01
 -1      2419-5.76547E+00-1.19577E+01-3.49999E-01
 -1      2420-8.41326E+00 1.05475E+01-3.49999E-01
 -1      2421-1.50861E+01-4.83102E+00 3.49999E-01
 -1      2422 2.08039E+00-1.07775E+01-3.49999E-01
 -1      2423 4.40593E-01-1.18395E+01-3.49999E-01
 -1      2424 7.38678E+00-2.36566E+00-3.49999E-01
 -1      2425-6.34099E+00 2.91547E+00-3.49999E-01
 -1      2426-4.94298E+00-7.43386E+00-3.49999E-01
 -1      2427 1.22231E+01-1.50607E+00 3.49999E-01
 -1      2428 8.91477E+00 6.38941E+00-3.49999E-01
 -1      2429 1.05633E+01-1.19859E+01 3.49999E-01
 -1      2430-1.31641E+01 4.96836E+00 3.49999E-01
 -1      2431 8.81468E+00-1.58221E+00 3.49999E-01
 -1      2432 9.00274E+00 9.85683E+00 3.49999E-01
 -1      2433 1.47607E+01 6.01438E+00-3.49999E-01
 -1      2434-4.89779E+00-1.06581E+00-3.49999E-01
 -1      2435-7.99213E+00-3.88349E+00-3.49999E-01
 -1      2436-9.41688E+00 7.48097E+00-3.49999E-01
 -1      2437-1.03175E+01 7.90500E+00-3.49999E-01
 -1      2438-1.69918E+00-1.00174E+01-3.49999E-01
 -1      2439 4.77667E+00 1.42683E+01-3.49999E-01
 -1      2440 3.77254E+00 2.66238E-01-3.49999E-01
 -1      2441 2.11510E+00 1.47846E+01-3.49999E-01
 -1      2442-3.70719E+00 3.95918E+00-3.49999E-01
 -1      2443-2.66891E+00 5.50698E+00-3.49999E-01
 -1      2444-1.36080E+01 5.67459E+00-3.49999E-01
 -1      2445-1.39341E+01-6.49594E+00-3.49999E-01
 -1      2446-9.17197E+00 8.51451E+00-3.49999E-01
 -1      2447 3.51700E+00-3.07647E+00-3.49999E-01
 -1      2448 9.53137E+00-6.48233E+00-3.49999E-01
 -1      2449-5.83130E+00 1.07723E+01 3.49999E-01
 -1      2450-7.32381E+00 7.50850E+00-3.49999E-01
 -1      2451 2.82910E+00-3.50477E-01-3.49999E-01
 -1      2452-9.65012E+00-1.10523E+01 3.49999E-01
 -1      2453-8.08389E+00-1.16461E+01-3.49999E-01
 -1      2454-9.43037E+00-1.20579E+01-3.49999E-01
 -1      2455-9.87408E+00-1.12651E+01-3.49999E-01
 -1      2456-9.36390E+00-1.01105E+01-3.49999E-01
 -1      2457-8.49211E+00-2.46991E-01-3.49999E-01
 -1      2458-9.72149E+00 9.65634E+00-3.49999E-01
 -1      2459-3.80598E+00 1.57111E+00-3.49999E-01
 -1      2460-1.16054E+01-4.73086E+00-3.49999E-01
 -1      2461 1.32086E+01-6.46033E+00 3.49999E-01
 -1      2462 9.61641E+00-6.42149E+00 3.49999E-01
 -1      2463 3.70140E+00-5.11877E+00-3.49999E-01
 -1      2464-1.27537E+01-9.44527E+00-3.49999E-01
 -1      2465-1.31690E+01-5.86977E-01-3.49999E-01
 -1      2466-5.97202E+00-1.37271E+00-3.49999E-01
 -1      2467-2.68508E-01 1.17655E+01-3.49999E-01
 -1      2468-3.10991E+00 9.77277E+00-3.49999E-01
 -1      2469 1.08766E+01-1.18572E+01-3.49999E-01
 -1      2470 4.81435E+00 1.38773E+01 3.49999E-01
 -1      2471 2.78649E+00-9.31045E+00-3.49999E-01
 -1      2472-9.46800E+00-6.32633E+00 3.49999E-01
 -1      2473 1.13531E+01-1.11976E+01 3.49999E-01
 -1      2474-1.53713E+01-5.09817E+00-3.49999E-01
 -1      2475-2.87236E+00 1.01508E+01 3.49999E-01
 -1      2476-9.25593E+00 7.27415E+00 3.49999E-01
 -1      2477-1.10000E+01-6.20563E+00 3.49999E-01
 -1      2478-6.20219E+00-8.61503E+00 3.49999E-01
 -1      2479 6.00720E+00 1.07855E+01 3.49999E-01
 -1      2480 8.32360E+00 5.29075E+00 3.49999E-01
 -1      2481 6.35886E+00 1.27247E+01 3.49999E-01
 -1      2482 1.84586E+00-9.30889E+00-3.49999E-01
 -1      2483 3.67395E+00-8.99189E+00-3.49999E-01
 -1      2484 2.68417E+00-2.90961E+00-3.49999E-01
 -1      2485-6.88775E+00-1.16984E+00-3.49999E-01
 -1      2486 5.98182E+00 9.82622E+00 3.49999E-01
 -1      2487 1.34142E+01-8.80847E+00-3.49999E-01
 -1      2488-2.87236E+00-1.01508E+01 3.49999E-01
 -1      2489 1.16253E+01 6.50273E+00-3.49999E-01
 -1      2490-1.36776E+01-3.72018E+00-3.49999E-01
 -1      2491 3.58649E+00-1.16715E+01 3.49999E-01
 -1      2492 4.74710E+00 1.86665E+00-3.49999E-01
 -1      2493-2.42826E+00-1.24814E+01-3.49999E-01
 -1      2494 9.65879E+00 2.87873E+00-3.49999E-01
 -1      2495 5.13956E+00 9.21172E+00 3.49999E-01
 -1      2496 5.07159E+00 1.33377E+01-3.49999E-01
 -1      2497-9.19245E-01 1.47527E+01 3.49999E-01
 -1      2498 5.19666E-01 1.25459E+00 3.49999E-01
 -1      2499 2.84470E+00 1.84255E+00-3.49999E-01
 -1      2500-9.82237E+00-1.26253E+01 3.49999E-01
 -1      2501-5.60546E+00 1.13049E+01-3.49999E-01
 -1      2502 1.55050E+01 4.18616E+00 3.49999E-01
 -1      2503-8.14416E+00-1.14327E+01 3.49999E-01
 -1      2504-1.18340E+01-8.92363E+00 3.49999E-01
 -1      2505-1.30825E+01 2.91988E+00 3.49999E-01
 -1      2506-2.28618E+00-1.88651E-01-3.49999E-01
 -1      2507 3.16699E+00-1.03971E+01-3.49999E-01
 -1      2508-4.43995E+00 2.29440E+00-3.49999E-01
 -1      2509 2.64491E+00-7.93375E+00-3.49999E-01
 -1      2510 2.41454E+00-5.01700E+00-3.49999E-01
 -1      2511-4.88255E-01 8.58902E+00-3.49999E-01
 -1      2512-6.89521E+00 1.37410E+01 3.49999E-01
 -1      2513-1.33394E+01-8.09222E-01 3.49999E-01
 -1      2514 3.11017E+00 8.76800E+00-3.49999E-01
 -1      2515 1.10444E+01 2.41359E+00-3.49999E-01
 -1      2516 7.67240E+00-7.68374E+00-3.49999E-01
 -1      2517-8.37143E+00-7.74361E+00-3.49999E-01
 -1      2518 1.09360E+01-1.00604E+01-3.49999E-01
 -1      2519 1.05847E+01-9.13522E+00-3.49999E-01
 -1      2520 1.32093E+00 1.08459E+01 3.49999E-01
 -1      2521 8.92740E+00-1.00449E+01 3.49999E-01
 -1      2522 9.90458E+00-3.69780E+00-3.49999E-01
 -1      2523-1.75462E+00 1.03324E+01-3.49999E-01
 -1      2524-6.20398E+00 1.06427E+01-3.49999E-01
 -1      2525 6.83254E+00 1.00592E+01-3.49999E-01
 -1      2526-6.90241E+00-1.16361E+01-3.49999E-01
 -1      2527-6.78205E+00 3.89205E+00-3.49999E-01
 -1      2528-1.01438E+01 8.52093E+00 3.49999E-01
 -1      2529-8.15631E+00-2.29888E+00-3.49999E-01
 -1      2530-7.30368E+00-4.40796E+00-3.49999E-01
 -1      2531-1.11684E+01 3.95172E+00-3.49999E-01
 -1      2532-1.13430E+01-1.99945E+00 3.49999E-01
 -1      2533-7.55081E+00-1.75400E+00-3.49999E-01
 -1      2534 5.67654E+00 7.54248E+00-3.49999E-01
 -1      2535-7.59046E+00-8.93786E+00-3.49999E-01
 -1      2536-1.27352E+01-9.84476E+00 3.49999E-01
 -1      2537-1.36610E+01-8.71897E+00 3.49999E-01
 -1      2538-1.14742E+00-6.38691E+00-3.49999E-01
 -1      2539-8.89282E+00-1.11630E+01 3.49999E-01
 -1      2540 8.43739E-01-4.91531E+00-3.49999E-01
 -1      2541 1.17122E+00-1.84900E+00-3.49999E-01
 -1      2542-4.99312E+00-7.47272E+00 3.49999E-01
 -1      2543 3.56968E+00-4.16906E+00-3.49999E-01
 -1      2544 1.27790E+01 2.12641E-01-3.49999E-01
 -1      2545 2.91247E+00-1.03241E+01 3.49999E-01
 -1      2546 4.03001E+00 1.43399E+00-3.49999E-01
 -1      2547-1.10353E+01-7.27330E+00 3.49999E-01
 -1      2548-1.98173E+00-7.70743E+00-3.49999E-01
 -1      2549-1.35139E+01-7.75911E+00 3.49999E-01
 -1      2550-1.74786E+00-5.27508E+00-3.49999E-01
 -1      2551-4.83096E+00-1.03507E+01-3.49999E-01
 -1      2552 7.95681E+00 4.23043E+00-3.49999E-01
 -1      2553 1.11709E+01 5.63839E-01-3.49999E-01
 -1      2554-7.47272E+00-4.99312E+00 3.49999E-01
 -1      2555 4.81095E-01-8.53236E+00-3.49999E-01
 -1      2556-5.26260E+00-1.27049E+01 3.49999E-01
 -1      2557 8.15146E+00-9.51831E+00-3.49999E-01
 -1      2558-8.32520E+00-8.56586E+00-3.49999E-01
 -1      2559 1.16815E+01-3.56249E+00 3.49999E-01
 -1      2560-4.58843E+00 1.52477E+00-3.49999E-01
 -1      2561-9.77863E+00-9.37540E+00-3.49999E-01
 -1      2562 3.01084E+00-5.66385E+00-3.49999E-01
 -1      2563-8.65638E+00-1.35439E+01-3.49999E-01
 -1      2564 1.40272E+01 3.67493E+00 3.49999E-01
 -1      2565 1.33900E+01 7.41197E+00 3.49999E-01
 -1      2566-1.89835E+00 9.54362E+00 3.49999E-01
 -1      2567 5.67122E+00-9.89974E+00 3.49999E-01
 -1      2568-9.49204E+00-1.29459E+01-3.49999E-01
 -1      2569 6.15505E+00-1.13396E+01 3.49999E-01
 -1      2570 5.30753E+00-7.65714E+00-3.49999E-01
 -1      2571-4.12260E-01-5.29875E+00-3.49999E-01
 -1      2572-3.85448E+00-5.91869E+00-3.49999E-01
 -1      2573 3.42595E+00-9.69645E+00-3.49999E-01
 -1      2574 4.45177E+00 1.25554E+01 3.49999E-01
 -1      2575 9.38280E+00 3.15807E-01-3.49999E-01
 -1      2576-1.32498E+01 9.12217E+00 3.49999E-01
 -1      2577 9.83132E+00-1.47691E+00-3.49999E-01
 -1      2578-5.54376E+00 4.22016E+00-3.49999E-01
 -1      2579-1.61888E+01 3.38681E-01-3.49999E-01
 -1      2580-6.41988E+00-1.05725E+01-3.49999E-01
 -1      2581 5.89948E+00-6.47373E+00-3.49999E-01
 -1      2582-2.73534E+00 1.07866E+01-3.49999E-01
 -1      2583 9.82476E+00-7.75844E+00 3.49999E-01
 -1      2584-3.27151E+00-4.11239E+00-3.49999E-01
 -1      2585 8.08727E-01 1.30762E+00-3.49999E-01
 -1      2586 6.61114E+00 4.00934E+00-3.49999E-01
 -1      2587 1.02928E+01 1.43296E+00-3.49999E-01
 -1      2588-9.05834E+00-8.19466E+00-3.49999E-01
 -1      2589-3.77416E+00-3.28479E+00-3.49999E-01
 -1      2590-3.90332E+00-4.84614E+00-3.49999E-01
 -1      2591 9.94035E+00-1.24618E+00 3.49999E-01
 -1      2592 3.12325E+00 6.39058E+00-3.49999E-01
 -1      2593 6.78910E+00 9.28681E+00 3.49999E-01
 -1      2594 2.24122E+00 1.14931E+01-3.49999E-01
 -1      2595 6.78771E+00-4.53540E+00 3.49999E-01
 -1      2596 7.32890E+00-7.58149E-01-3.49999E-01
 -1      2597-9.71564E+00 9.31541E+00 3.49999E-01
 -1      2598-7.37148E-01 1.77963E+00 3.49999E-01
 -1      2599 1.17415E+01 8.78376E+00-3.49999E-01
 -1      2600 3.96542E+00 6.74967E+00-3.49999E-01
 -1      2601 6.76910E+00-1.06646E+01-3.49999E-01
 -1      2602-5.96769E+00 9.82462E+00-3.49999E-01
 -1      2603-6.05113E+00 3.63427E+00-3.49999E-01
 -1      2604-1.00292E+01 1.08032E+01 3.49999E-01
 -1      2605-5.79593E+00-3.00798E+00-3.49999E-01
 -1      2606 3.60459E+00-6.86374E+00-3.49999E-01
 -1      2607 2.14683E+00-9.59585E+00 3.49999E-01
 -1      2608 6.58347E+00-9.52688E+00-3.49999E-01
 -1      2609 2.46053E+00 4.89849E+00-3.49999E-01
 -1      2610-7.45766E+00-1.30096E+01-3.49999E-01
 -1      2611-4.69348E+00-3.13209E+00-3.49999E-01
 -1      2612-4.34229E+00-1.31415E+01-3.49999E-01
 -1      2613 4.92171E+00 7.36586E+00 3.49999E-01
 -1      2614 1.00827E+01 4.72463E+00-3.49999E-01
 -1      2615-2.30741E+00 4.07142E+00-3.49999E-01
 -1      2616-2.88201E+00 2.42073E+00-3.49999E-01
 -1      2617-6.03054E+00-6.80757E+00-3.49999E-01
 -1      2618-4.11269E+00 9.82522E+00-3.49999E-01
 -1      2619-1.29601E+01 3.20438E+00-3.49999E-01
 -1      2620-7.72620E+00-1.33805E+01 3.49999E-01
 -1      2621-1.61931E+01-1.17629E+00 3.49999E-01
 -1      2622-1.52840E+01-7.15841E-01 3.49999E-01
 -1      2623 7.36743E+00-6.27385E+00-3.49999E-01
 -1      2624-7.63590E+00-8.11602E+00-3.49999E-01
 -1      2625-7.68391E+00-7.27591E+00-3.49999E-01
 -1      2626-6.95130E+00-6.77754E+00-3.49999E-01
 -1      2627-4.49305E+00-1.18754E+01-3.49999E-01
 -1      2628-9.97338E+00-7.38815E+00-3.49999E-01
 -1      2629-4.62753E+00 8.82966E+00-3.49999E-01
 -1      2630-3.43764E+00 6.84726E+00-3.49999E-01
 -1      2631 8.05621E+00-8.56335E+00-3.49999E-01
 -1      2632 9.03895E+00-9.19702E+00-3.49999E-01
 -1      2633-4.18995E+00-1.33526E+01 3.49999E-01
 -1      2634-7.47272E+00 4.99312E+00 3.49999E-01
 -1      2635 4.44763E+00-7.27854E+00-3.49999E-01
 -1      2636 2.11749E+00 2.86833E+00-3.49999E-01
 -1      2637-7.60453E+00-9.58605E+00 3.49999E-01
 -1      2638-3.02992E+00-8.22809E+00-3.49999E-01
 -1      2639-1.56256E+01-2.72233E+00 3.49999E-01
 -1      2640-5.29127E+00 2.90859E+00-3.49999E-01
 -1      2641-9.79094E+00 6.63223E+00-3.49999E-01
 -1      2642-3.67158E+00 1.39870E+01 3.49999E-01
 -1      2643 4.45676E+00-1.09505E+01-3.49999E-01
 -1      2644 5.20899E+00-9.88593E+00-3.49999E-01
 -1      2645-7.09582E+00 8.90808E+00 3.49999E-01
 -1      2646 3.02875E+00-8.58991E+00-3.49999E-01
 -1      2647-1.29852E+01-7.33885E+00-3.49999E-01
 -1      2648 1.07700E+01-9.03155E+00 3.49999E-01
 -1      2649-2.25067E+00-4.35432E+00-3.49999E-01
 -1      2650-9.73814E+00-7.68866E+00 3.49999E-01
 -1      2651-1.09332E+01 1.16169E+01-3.49999E-01
 -1      2652-1.16980E+01 9.96942E+00-3.49999E-01
 -1      2653 8.88970E+00 3.15734E+00-3.49999E-01
 -1      2654-8.23642E-01 3.84161E+00-3.49999E-01
 -1      2655 1.09131E+01 5.29010E+00-3.49999E-01
 -1      2656-4.19472E+00-6.92767E+00-3.49999E-01
 -1      2657 7.24937E+00 7.14966E+00-3.49999E-01
 -1      2658-2.29451E+00-6.28834E+00-3.49999E-01
 -1      2659-1.52951E+01-3.09275E+00-3.49999E-01
 -1      2660-2.77015E+00 1.09331E+01 3.49999E-01
 -1      2661-3.38756E+00-9.52841E+00-3.49999E-01
 -1      2662 1.06309E+01 6.64960E+00-3.49999E-01
 -1      2663-3.69174E+00-7.59368E+00-3.49999E-01
 -1      2664-4.78160E+00-9.75020E-02-3.49999E-01
 -1      2665 1.15475E+01-1.12480E+01-3.49999E-01
 -1      2666-3.46727E+00 1.23839E+01-3.49999E-01
 -1      2667-9.07851E+00 5.38854E+00-3.49999E-01
 -1      2668-7.93465E+00-1.24032E+01-3.49999E-01
 -1      2669-1.04357E+01 4.93861E+00-3.49999E-01
 -1      2670-3.57605E+00 1.04730E+01-3.49999E-01
 -1      2671 1.34872E+01 8.94943E+00 3.49999E-01
 -1      2672-1.50788E+01-1.07846E+00-3.49999E-01
 -1      2673 1.22280E+01-8.56873E+00-3.49999E-01
 -1      2674 1.32896E+01-9.28975E+00 3.49999E-01
 -1      2675 5.71685E+00-1.06856E+01 3.49999E-01
 -1      2676 7.74851E+00-9.70149E+00 3.49999E-01
 -1      2677-9.16035E+00-1.03477E+01 3.49999E-01
 -1      2678 5.09594E+00-3.94316E+00-3.49999E-01
 -1      2679-8.25775E+00-9.80696E+00-3.49999E-01
 -1      2680-1.03945E+01-6.00851E+00-3.49999E-01
 -1      2681-7.36267E+00-9.80348E+00-3.49999E-01
 -1      2682-1.45559E-01-4.35764E+00-3.49999E-01
 -1      2683-5.09274E+00 8.72370E+00 3.49999E-01
 -1      2684 7.31248E+00 8.61987E+00-3.49999E-01
 -1      2685-3.70796E+00 5.25703E+00-3.49999E-01
 -1      2686-7.27726E+00 5.44473E+00-3.49999E-01
 -1      2687 1.23472E+01 6.54967E+00 3.49999E-01
 -1      2688 7.23916E+00 1.44273E+01 3.49999E-01
 -1      2689-3.02907E+00-1.46779E+00-3.49999E-01
 -1      2690 1.25419E+01 4.75691E+00-3.49999E-01
 -1      2691 3.82077E+00 1.15297E+01-3.49999E-01
 -1      2692 1.22607E+01 7.44231E+00-3.49999E-01
 -1      2693-1.05666E+01-8.04268E+00 3.49999E-01
 -1      2694 4.90982E+00 5.78740E+00-3.49999E-01
 -1      2695 1.42648E+00 6.15942E+00-3.49999E-01
 -1      2696-1.87665E-01-8.68970E-01-3.49999E-01
 -1      2697-1.35494E+00-2.69546E-01 3.49999E-01
 -1      2698 9.37641E-01-1.13590E+00 3.49999E-01
 -1      2699 1.71407E+00-7.77436E-01 3.49999E-01
 -1      2700 1.39638E+01-1.20805E+00-3.49999E-01
 -1      2701-5.97092E+00 6.15249E+00-3.49999E-01
 -1      2702 6.91910E+00 7.82435E-01-3.49999E-01
 -1      2703-5.46611E+00 6.75233E+00-3.49999E-01
 -1      2704 1.02436E+01 1.03015E+01-3.49999E-01
 -1      2705 5.69805E-01 4.24946E+00-3.49999E-01
 -1      2706 8.88113E-01 5.01279E+00-3.49999E-01
 -1      2707 1.16184E+01 8.89211E+00 3.49999E-01
 -1      2708-2.96108E+00 3.23877E+00-3.49999E-01
 -1      2709 2.30125E+00 1.21708E+00-3.49999E-01
 -1      2710 1.47550E+01 6.43099E+00 3.49999E-01
 -1      2711 1.97849E-02-1.42071E+01-3.49999E-01
 -1      2712 7.98278E-02 1.34348E+01-3.49999E-01
 -1      2713-1.27406E-01-1.47691E+01 3.49999E-01
 -1      2714-1.91322E+00 7.62931E+00-3.49999E-01
 -1      2715-1.11962E+01-5.55570E+00-3.49999E-01
 -1      2716 6.17122E+00 1.27442E+01-3.49999E-01
 -1      2717 1.36335E+01 8.42203E+00-3.49999E-01
 -1      2718-5.33464E+00 7.99079E+00-3.49999E-01
 -1      2719-1.14943E+01-7.25994E+00-3.49999E-01
 -1      2720 1.13255E+01 9.51356E+00-3.49999E-01
 -1      2721 1.25180E+01 9.05802E+00-3.49999E-01
 -1      2722-7.83740E+00-1.37695E+01-3.49999E-01
 -1      2723 1.21315E+01-7.95690E-01-3.49999E-01
 -1      2724-2.22137E+00 7.32930E-01-3.49999E-01
 -1      2725-5.70135E+00 8.07090E+00 3.49999E-01
 -1      2726 9.48029E-01-3.91120E+00-3.49999E-01
 -1      2727-6.27294E+00 1.93910E+00-3.49999E-01
 -1      2728 9.70911E+00 8.06241E+00-3.49999E-01
 -1      2729 3.88501E+00 5.77117E+00-3.49999E-01
 -1      2730 1.18304E+01 7.37222E+00 3.49999E-01
 -1      2731-1.51143E+00 2.26070E+00-3.49999E-01
 -1      2732-3.11590E+00 1.74787E+00-3.49999E-01
 -1      2733 6.33814E+00-6.15180E-01-3.49999E-01
 -1      2734-1.38670E+01-3.65002E+00 3.49999E-01
 -1      2735 1.48040E-01-7.09438E+00-3.49999E-01
 -1      2736-8.36366E+00-1.08868E+01-3.49999E-01
 -1      2737 3.97993E+00-1.48326E+01-3.49999E-01
 -1      2738-5.35665E+00-5.02891E+00-3.49999E-01
 -1      2739-1.45356E+01-7.03130E+00-3.49999E-01
 -1      2740 1.58933E+00-7.25560E+00-3.49999E-01
 -1      2741-9.46215E-01-9.38566E+00-3.49999E-01
 -1      2742-2.02156E+00-1.07957E+01-3.49999E-01
 -1      2743-1.01690E+01-8.28809E+00-3.49999E-01
 -1      2744-1.63008E+01-4.03148E-01-3.49999E-01
 -1      2745 8.39235E+00 5.68680E+00-3.49999E-01
 -1      2746 9.58605E+00 7.60453E+00 3.49999E-01
 -1      2747-8.69431E+00 6.65572E+00-3.49999E-01
 -1      2748 8.58736E+00 8.46662E+00-3.49999E-01
 -1      2749 9.69316E+00 7.04490E+00-3.49999E-01
 -1      2750 8.28410E+00-2.59394E+00-3.49999E-01
 -1      2751-7.10522E+00-3.43338E+00-3.49999E-01
 -1      2752-9.34549E+00-1.32815E+01 3.49999E-01
 -1      2753 1.58419E+00-5.66048E+00-3.49999E-01
 -1      2754 9.34570E+00 8.81252E+00-3.49999E-01
 -1      2755 8.37413E+00 9.18831E+00-3.49999E-01
 -1      2756-8.58459E+00-1.02072E+00-3.49999E-01
 -1      2757-9.67733E+00-5.80679E+00-3.49999E-01
 -1      2758-5.17390E+00-1.12265E+01-3.49999E-01
 -1      2759-1.24333E+01-2.20623E-01-3.49999E-01
 -1      2760 4.82645E+00-5.24358E+00-3.49999E-01
 -1      2761-3.70475E-01 1.10161E+01-3.49999E-01
 -1      2762-2.89566E+00 3.17276E-01-3.49999E-01
 -1      2763-8.59280E+00 6.61095E+00 3.49999E-01
 -1      2764-2.27257E+00-8.43733E+00-3.49999E-01
 -1      2765-5.21284E+00-8.73847E+00 3.49999E-01
 -1      2766-9.01973E-01-7.46580E+00-3.49999E-01
 -1      2767 2.31504E+00-9.98702E+00-3.49999E-01
 -1      2768 1.29581E+01-8.12440E+00-3.49999E-01
 -1      2769-4.52428E+00 6.94492E-01-3.49999E-01
 -1      2770-1.39665E+01-4.64372E+00-3.49999E-01
 -1      2771-1.29373E+01-4.38038E+00-3.49999E-01
 -1      2772-9.96605E+00-6.63183E+00-3.49999E-01
 -1      2773 1.01508E+01 2.87236E+00 3.49999E-01
 -1      2774 1.42762E+00 9.53925E-01 3.49999E-01
 -1      2775 1.62713E+00-6.45791E+00-3.49999E-01
 -1      2776 1.57013E+01 4.32763E+00-3.49999E-01
 -1      2777 1.65816E+00-4.51792E+00-3.49999E-01
 -1      2778 4.00684E+00 8.79113E+00-3.49999E-01
 -1      2779 1.04837E+01 3.03977E+00-3.49999E-01
 -1      2780 9.55085E+00-1.05615E+01 3.49999E-01
 -1      2781-5.33008E+00-3.82840E+00-3.49999E-01
 -1      2782-1.11186E+01-1.23762E+00 3.49999E-01
 -1      2783-8.51562E+00-3.10291E+00-3.49999E-01
 -1      2784 6.28708E+00 7.07839E+00-3.49999E-01
 -1      2785-5.84398E+00-1.20652E+01 3.49999E-01
 -1      2786-6.47719E+00-9.03723E+00-3.49999E-01
 -1      2787 5.88939E+00-7.20844E+00-3.49999E-01
 -1      2788-5.64057E+00-7.99846E+00 3.49999E-01
 -1      2789-5.06409E+00 9.62287E+00-3.49999E-01
 -1      2790 1.04773E+01 1.23085E+00 3.49999E-01
 -1      2791-8.26517E+00-5.22306E+00 3.49999E-01
 -1      2792-4.01898E+00-1.12745E+01-3.49999E-01
 -1      2793 7.73744E+00-5.51267E+00-3.49999E-01
 -1      2794 1.25000E+01-3.85260E+00 3.49999E-01
 -1      2795 1.40774E+01 2.71455E+00 3.49999E-01
 -1      2796 6.32354E+00-9.51348E+00 3.49999E-01
 -1      2797 4.99312E+00-7.47272E+00 3.49999E-01
 -1      2798 8.91924E+00 1.36833E+00-3.49999E-01
 -1      2799-3.96302E+00 8.24904E+00-3.49999E-01
 -1      2800-1.32066E+01 9.37462E+00-3.49999E-01
 -1      2801-4.66512E+00 3.81066E+00-3.49999E-01
 -1      2802-5.96916E+00-1.07954E+01 3.49999E-01
 -1      2803 5.18377E+00 6.48415E+00-3.49999E-01
 -1      2804-4.14051E+00 7.38318E+00-3.49999E-01
 -1      2805 7.25708E+00 8.74682E+00 3.49999E-01
 -1      2806 1.10556E+01 7.16693E+00 3.49999E-01
 -1      2807 3.97184E+00-6.00895E+00-3.49999E-01
 -1      2808-5.57666E+00-2.15725E+00-3.49999E-01
 -1      2809-5.51841E+00-1.31583E+01-3.49999E-01
 -1      2810 2.94815E+00 5.57513E+00-3.49999E-01
 -1      2811-3.45061E+00-1.32531E+01-3.49999E-01
 -1      2812 9.65819E+00 3.85049E+00-3.49999E-01
 -1      2813-6.84824E+00-5.55122E+00-3.49999E-01
 -1      2814 6.61373E+00-6.22887E+00-3.49999E-01
 -1      2815-9.12373E+00-7.34651E+00-3.49999E-01
 -1      2816 9.75641E+00 9.72656E+00-3.49999E-01
 -1      2817 8.95086E+00-8.25476E+00-3.49999E-01
 -1      2818-7.13704E+00-8.86686E+00 3.49999E-01
 -1      2819-8.27463E+00-9.92315E+00 3.49999E-01
 -1      2820-4.13477E+00-5.15553E-01-3.49999E-01
 -1      2821 5.14521E+00-1.06389E+01-3.49999E-01
 -1      2822-9.19567E-01 3.04058E+00-3.49999E-01
 -1      2823 9.01267E+00 2.29595E+00-3.49999E-01
 -1      2824-1.77075E+00-6.91691E+00-3.49999E-01
 -1      2825-1.59422E+01-2.59029E+00-3.49999E-01
 -1      2826 1.07972E+01 6.18140E+00 3.49999E-01
 -1      2827-8.42364E+00 4.81046E+00-3.49999E-01
 -1      2828 8.93086E+00 7.66127E+00-3.49999E-01
 -1      2829-8.70480E+00 4.93913E+00 3.49999E-01
 -1      2830 7.35053E+00 7.88177E+00-3.49999E-01
 -1      2831-4.46301E+00 5.53251E+00-3.49999E-01
 -1      2832 4.67443E+00 1.15205E+01-3.49999E-01
 -1      2833-1.00089E+01-8.59067E+00 3.49999E-01
 -1      2834-1.24928E+00-1.24928E+00 3.49999E-01
 -1      2835-1.83893E+00 3.65806E-01 3.49999E-01
 -1      2836-1.07304E+01-7.28366E+00-3.49999E-01
 -1      2837-1.04515E+01-5.17332E+00-3.49999E-01
 -1      2838-6.32373E+00 8.19388E+00-3.49999E-01
 -1      2839-6.53259E+00 8.26627E+00 3.49999E-01
 -1      2840-7.05965E+00 2.07844E+00-3.49999E-01
 -1      2841 1.07385E+01 8.38592E+00-3.49999E-01
 -1      2842-7.79991E+00 6.74599E+00-3.49999E-01
 -1      2843 4.89178E-01-6.00270E+00-3.49999E-01
 -1      2844-4.61681E+00-5.49278E+00-3.49999E-01
 -1      2845 8.10113E-01-7.69859E+00-3.49999E-01
 -1      2846 8.89876E+00 6.92742E+00 3.49999E-01
 -1      2847-2.90785E-01-6.35811E+00-3.49999E-01
 -1      2848-8.32334E+00 7.45618E+00-3.49999E-01
 -1      2849 4.39496E+00-4.47602E+00-3.49999E-01
 -1      2850-3.28918E+00 9.88943E-01-3.49999E-01
 -1      2851-1.34459E+00-8.54113E+00-3.49999E-01
 -1      2852-1.73407E+00-8.71774E+00 3.49999E-01
 -1      2853-5.15754E+00-9.00012E+00-3.49999E-01
 -1      2854-5.43089E+00 9.31365E-01-3.49999E-01
 -1      2855 1.12121E+01 2.90491E+00 3.49999E-01
 -1      2856 9.07995E-01-6.82358E+00-3.49999E-01
 -1      2857 1.02082E+01 2.25776E+00-3.49999E-01
 -1      2858 1.13151E+01 3.22006E+00-3.49999E-01
 -1      2859 5.65436E+00-8.04017E+00 3.49999E-01
 -1      2860 9.54362E+00 1.89835E+00 3.49999E-01
 -1      2861-4.93863E+00-1.25705E+01-3.49999E-01
 -1      2862 3.45322E+00 5.00821E+00-3.49999E-01
 -1      2863-3.19548E+00-1.35336E+01 3.49999E-01
 -1      2864-6.20375E+00-5.00078E+00-3.49999E-01
 -1      2865-6.49296E+00-9.39673E+00 3.49999E-01
 -1      2866 9.58865E+00 1.76942E+00-3.49999E-01
 -1      2867 1.01199E+01 8.85335E+00-3.49999E-01
 -1      2868 1.14162E+01 8.14054E+00-3.49999E-01
 -1      2869-5.91837E+00 4.10620E-01-3.49999E-01
 -1      2870 1.13783E+01 2.06946E+00 3.49999E-01
 -1      2871 6.21075E+00-8.19050E+00-3.49999E-01
 -1      2872 8.79600E+00 1.64057E+00 3.49999E-01
 -1      2873 1.18142E+01 1.65798E+00-3.49999E-01
 -1      2874 6.54370E+00-8.27352E+00 3.49999E-01
 -1      2875 1.22158E+01 1.41415E+00 3.49999E-01
 -1      2876 1.25130E+01 1.29640E+00-3.49999E-01
 -1      2877-3.91216E-01-1.96669E+00 3.49999E-01
 -1      2878-1.21131E+00-1.73447E+00-3.49999E-01
 -1      2879-1.15408E+00-2.42607E+00-3.49999E-01
 -1      2880 6.30186E-02 1.92826E+00 3.49999E-01
 -1      2881 2.24276E+00 1.81672E+00-3.49999E-01
 -1      2882-2.04868E+00 1.20915E+00-3.49999E-01
 -1      2883 2.08262E+00 0.00000E+00 3.49999E-01
 -1      2884 2.08106E+00 3.94556E-01-3.49999E-01
 -1      2885-1.52994E-01-2.77546E+00-3.49999E-01
 -1      2886 1.63539E+00-1.32504E+00-3.49999E-01
 -1      2887 1.08918E+00 2.04642E+00-3.49999E-01
 -1      2888 8.26168E-01 2.52557E+00-3.49999E-01
 -1      2889-1.74741E+00-6.78668E-01-3.49999E-01
 -1      2890-1.85247E+00-8.18764E-01 3.49999E-01
 -1      2891-2.61933E+00-5.95722E-01-3.49999E-01
 -1      2892 3.89423E-01-2.94647E+00-3.49999E-01
 -1      2893-2.23313E+00-1.71265E+00-3.49999E-01
 -1      2894-2.05441E+00-2.24094E-01 3.49999E-01
 -1      2895 2.24769E+00-1.86188E-01-3.49999E-01
 -1      2896 2.42019E+00 7.44504E-01-3.49999E-01
 -1      2897 7.78876E-01-1.88038E+00 3.49999E-01
 -1      2898-2.18121E+00-6.14430E-01-3.49999E-01
 -1      2899-1.66169E+00 1.05033E+00 3.49999E-01
 -1      2900 1.71291E+00-2.08292E+00-3.49999E-01
 -1      2901-2.40932E+00 2.83077E-01-3.49999E-01
 -1      2902-3.89869E-01 2.13824E+00 3.49999E-01
 -1      2903 4.16269E-01 2.58945E+00-3.49999E-01
 -1      2904-1.80520E+00-1.28260E+00-3.49999E-01
 -1      2905 2.56481E+00 2.65051E-01-3.49999E-01
 -1      2906-1.21782E+00 1.82257E+00 3.49999E-01
 -1      2907 7.15224E-01-2.74338E+00-3.49999E-01
 -1      2908 1.63466E+00 1.03478E+00-3.49999E-01
 -1      2909-4.54823E-01 2.91681E+00-3.49999E-01
 -1      2910 1.31020E+00-2.27131E+00-3.49999E-01
 -1      2911-2.75815E+00 8.48954E-01-3.49999E-01
 -1      2912-9.95626E-01-1.81775E+00 3.49999E-01
 -1      2913-1.42354E+00-2.10020E+00-3.49999E-01
 -1      2914 7.82979E-01 1.92468E+00 3.49999E-01
 -1      2915 2.55596E+00 1.54460E+00-3.49999E-01
 -1      2916 1.97670E+00 6.29110E-01 3.49999E-01
 -1      2917 2.25641E+00 3.52731E-01 3.49999E-01
 -1      2918-7.82507E-01 2.62079E+00-3.49999E-01
 -1      2919-6.68991E-01-2.64505E+00-3.49999E-01
 -1      2920-1.54294E+00 2.89915E+00-3.49999E-01
 -1      2921 1.53923E+00-1.41882E+00 3.49999E-01
 -1      2922 2.19121E+00-1.16609E+00-3.49999E-01
 -1      2923-1.92779E+00 1.28812E+00 3.49999E-01
 -1      2924-1.52274E+00-2.45658E+00-3.49999E-01
 -1      2925 2.25569E+00 1.51531E+00-3.49999E-01
 -1      2926 1.91733E+00 1.31103E+00-3.49999E-01
 -1      2927 1.83966E+00 2.31460E+00-3.49999E-01
 -1      2928 1.32673E+00 1.58635E+00 3.49999E-01
 -1      2929 1.29230E+00 1.93405E+00 3.49999E-01
 -1      2930 2.41990E+00-6.87693E-01-3.49999E-01
 -1      2931 2.12125E+00-4.94386E-01 3.49999E-01
 -1      2932 2.56626E+00-1.45203E+00-3.49999E-01
 -1      2933 3.28442E+00-7.67158E-01-3.49999E-01
 -1      2934 2.84654E+00-7.88529E-01-3.49999E-01
 -1      2935-2.63606E+00 5.33758E-01-3.49999E-01
 -1      2936 1.25139E+00-1.80172E+00 3.49999E-01
 -1      2937 2.04097E-01-2.06271E+00 3.49999E-01
 -1      2938 1.46534E-01-1.72123E+00-3.49999E-01
 -1      2939 5.69013E-01-2.21593E+00 3.49999E-01
 -1      2940-2.23129E+00 4.43842E-01 3.49999E-01
 -1      2941 4.24298E-01 2.18804E+00 3.49999E-01
 -1      2942-1.74561E+00-1.30686E+00 3.49999E-01
 -1      2943-2.16105E+00-1.35644E+00-3.49999E-01
 -1      2944-1.26030E+00 1.72843E+00-3.49999E-01
 -1      2945 1.90336E+00-1.17356E+00 3.49999E-01
 -1      2946 1.35198E+00-2.02337E+00 3.49999E-01
 -1      2947-1.01338E+00 2.17031E+00-3.49999E-01
 -1      2948-1.68618E+00-2.82958E+00 9.48278E-01
 -1      2949-1.29545E+00-2.96040E+00-3.49999E-01
 -1      2950-2.18980E+00 2.40001E+00-3.49999E-01
 -1      2951 1.82573E+00 1.21993E+00 3.49999E-01
 -1      2952-2.37500E-01-2.32311E+00 3.49999E-01
 -1      2953 1.43644E+00 2.25880E+00-3.49999E-01
 -1      2954 1.97376E+00-1.45697E+00-3.49999E-01
 -1      2955 2.02577E+00 1.35358E+00 3.49999E-01
 -1      2956-1.85501E+00 1.77322E+00-3.49999E-01
 -1      2957-1.30169E+00-1.94810E+00 3.49999E-01
 -1      2958-2.26454E+00-2.16055E+00-3.49999E-01
 -1      2959-2.20333E+00-6.06291E-01 3.49999E-01
 -1      2960-2.67631E+00-3.85564E-02-3.49999E-01
 -1      2961-6.93305E-01 2.29441E+00 3.49999E-01
 -1      2962-3.19313E+00-8.08500E-01 9.48278E-01
 -1      2963-2.42992E+00-1.00651E+00 8.54629E-01
 -1      2964-2.42886E+00 4.83135E-01 3.49999E-01
 -1      2965-2.80631E+00-1.67655E+00 9.16972E-01
 -1      2966 1.67655E+00-2.80631E+00 9.16972E-01
 -1      2967-2.07747E+00 1.38813E+00 3.49999E-01
 -1      2968-2.80631E+00 1.67655E+00 9.16972E-01
 -1      2969-2.35146E+00-3.28457E-01 3.49999E-01
 -1      2970 2.77546E+00 1.11110E+00-3.49999E-01
 -1      2971 1.96891E+00-2.64067E+00 9.48279E-01
 -1      2972 1.85978E+00-1.85978E+00 8.54628E-01
 -1      2973 2.88660E+00 1.70980E+00 1.02500E+00
 -1      2974 2.42963E+00 1.00722E+00 8.54088E-01
 -1      2975-2.64067E+00-1.96891E+00 9.48279E-01
 -1      2976-1.87260E+00-2.54435E+00 8.56249E-01
 -1      2977-2.45174E+00 1.12424E+00-3.49999E-01
 -1      2978 2.89585E-01-2.37028E+00 3.49999E-01
 -1      2979 1.13335E+00-2.72309E+00-3.49999E-01
 -1      2980 1.56177E-02 2.84598E+00-3.49999E-01
 -1      2981-2.56565E+00-1.57686E+00 6.92750E-01
 -1      2982-2.26833E+00 1.95526E+00-3.49999E-01
 -1      2983-1.00651E+00-2.42992E+00 8.54629E-01
 -1      2984-2.06705E+00-1.12149E+00 3.49999E-01
 -1      2985 1.00651E+00-2.42992E+00 8.54629E-01
 -1      2986 2.36627E+00-2.37500E-01 3.49999E-01
 -1      2987 3.19313E+00-8.08500E-01 9.48278E-01
 -1      2988-2.64067E+00 1.96891E+00 9.48279E-01
 -1      2989-1.85978E+00 1.85978E+00 8.54628E-01
 -1      2990 2.37276E+00-4.88981E-01 3.49999E-01
 -1      2991 4.74999E-01 3.32118E+00 1.02500E+00
 -1      2992-7.67997E-04 2.63013E+00 8.54088E-01
 -1      2993 4.78543E-01 2.40577E+00 3.49999E-01
 -1      2994 2.28875E+00-2.39028E+00-3.49999E-01
 -1      2995 8.08500E-01 3.19313E+00 9.48278E-01
 -1      2996 2.30196E+00 6.78556E-01 3.49999E-01
 -1      2997 1.86203E+00-1.50515E+00 3.49999E-01
 -1      2998 1.96891E+00 2.64067E+00 9.48279E-01
 -1      2999 3.09711E+00 1.29100E-01-3.49999E-01
 -1      3000-5.83149E-01-2.26082E+00 3.49999E-01
 -1      3001-3.23428E+00-4.74999E-01 9.16972E-01
 -1      3002-4.57422E-01 2.37986E+00 3.49999E-01
 -1      3003 1.00651E+00 2.42992E+00 8.53008E-01
 -1      3004-1.67655E+00 2.80631E+00 9.16972E-01
 -1      3005-2.45080E+00-1.77905E+00 7.06511E-01
 -1      3006 8.08500E-01-3.19313E+00 9.48278E-01
 -1      3007-2.94505E+00-7.05744E-01 7.06511E-01
 -1      3008 2.03702E+00-1.35859E+00 3.49999E-01
 -1      3009-2.40251E+00-5.34079E-01 3.49999E-01
 -1      3010-4.74999E-01 3.23428E+00 9.16972E-01
 -1      3011-1.00580E+00 2.43022E+00 8.54088E-01
 -1      3012-4.74999E-01 2.97379E+00 6.92750E-01
 -1      3013 1.57686E+00-2.56565E+00 6.92750E-01
 -1      3014-2.45080E+00 1.77905E+00 7.06511E-01
 -1      3015-2.43022E+00 1.00580E+00 8.54088E-01
 -1      3016-1.85978E+00-1.85978E+00 8.53007E-01
 -1      3017 3.19313E+00 8.08500E-01 9.48278E-01
 -1      3018 2.94505E+00 7.05744E-01 7.06511E-01
 -1      3019-8.08500E-01 3.19313E+00 9.48278E-01
 -1      3020 1.39026E+00 2.08066E+00 3.49999E-01
 -1      3021 2.42963E+00-1.00722E+00 8.54088E-01
 -1      3022-1.35251E+00 2.02417E+00 3.49999E-01
 -1      3023 2.62286E+00-1.95111E+00 9.16969E-01
 -1      3024 1.77905E+00-2.45080E+00 7.06511E-01
 -1      3025 4.95841E-01-2.41357E+00 3.49999E-01
 -1      3026-4.74999E-01-3.25946E+00 9.48279E-01
 -1      3027 4.74999E-01-3.12326E+00 8.56249E-01
 -1      3028-1.58343E+00-2.58150E+00 7.06511E-01
 -1      3029-1.99420E+00-1.36653E+00 3.49999E-01
 -1      3030-2.63013E+00 7.67997E-04 8.54088E-01
 -1      3031-7.98862E-01-3.16986E+00 9.16969E-01
 -1      3032 1.85978E+00 1.85978E+00 8.53007E-01
 -1      3033 7.05744E-01-2.94505E+00 7.06511E-01
 -1      3034-6.99178E-01-2.92920E+00 6.92748E-01
 -1      3035-1.96891E+00 2.64067E+00 9.48279E-01
 -1      3036-1.77905E+00 2.45080E+00 7.06511E-01
 -1      3037 2.61486E+00 1.59724E+00 7.51011E-01
 -1      3038 4.74999E-01 3.02705E+00 7.51012E-01
 -1      3039 2.41172E+00 4.97114E-01 3.49999E-01
 -1      3040 3.32118E+00 4.74999E-01 1.02500E+00
 -1      3041 2.63013E+00 0.00000E+00 8.53007E-01
 -1      3042-4.32913E-01-2.41732E+00 3.49999E-01
 -1      3043 1.67655E+00 2.80631E+00 9.16972E-01
 -1      3044 7.05744E-01 2.94505E+00 7.06511E-01
 -1      3045 1.57686E+00 2.56565E+00 6.92750E-01
 -1      3046-1.73342E+00-1.98615E+00 6.01503E-01
 -1      3047-7.05744E-01 2.94505E+00 7.06511E-01
 -1      3048 2.43866E+00-1.76691E+00 6.92749E-01
 -1      3049-2.56565E+00 1.57686E+00 6.92750E-01
 -1      3050-3.19313E+00 8.08500E-01 9.48278E-01
 -1      3051 0.00000E+00-2.63013E+00 8.53007E-01
 -1      3052 2.94505E+00-7.05744E-01 7.06511E-01
 -1      3053 2.82958E+00-1.68618E+00 9.48278E-01
 -1      3054 2.58150E+00-1.58343E+00 7.06511E-01
 -1      3055 2.64067E+00 1.96891E+00 9.48279E-01
 -1      3056 2.45080E+00 1.77905E+00 7.06511E-01
 -1      3057 1.77905E+00 2.45080E+00 7.06511E-01
 -1      3058-2.97379E+00-4.74999E-01 6.92750E-01
 -1      3059-3.23428E+00 4.74999E-01 9.16972E-01
 -1      3060 3.23428E+00-4.74999E-01 9.16972E-01
 -1      3061 3.02705E+00 4.74999E-01 7.51012E-01
 -1      3062 2.97379E+00-4.74999E-01 6.92750E-01
 -1      3063-2.94505E+00 7.05744E-01 7.06511E-01
 -1      3064-4.74999E-01-2.99095E+00 7.06512E-01
 -1      3065 4.74999E-01-2.92284E+00 6.37018E-01
 -1      3066-2.97379E+00 4.74999E-01 6.92750E-01
 -1      3067-2.38621E+00 1.59441E+00 2.52758E-02
 -1      3068 1.59441E+00-2.38621E+00-2.14380E-02
 -1      3069 2.42111E+00 4.81593E-01-1.70058E-02
 -1      3070 2.79782E+00 5.56516E-01 1.28764E-02
 -1      3071 5.59878E-01 2.81472E+00 1.19987E-02
 -1      3072 2.09469E+00 1.39963E+00-9.76001E-03
 -1      3073-2.81472E+00-5.59878E-01 1.29834E-03
 -1      3074-2.39687E+00-4.76773E-01-6.59004E-03
 -1      3075 2.81472E+00-5.59878E-01-1.98305E-03
 -1      3076-5.27413E-01 2.65149E+00-4.48659E-02
 -1      3077 1.35198E+00-2.02337E+00-2.73755E-03
 -1      3078-2.42886E+00 4.83135E-01 1.22145E-04
 -1      3079 1.47602E+00-2.20901E+00 1.06473E-01
 -1      3080-2.27347E+00-1.51909E+00-2.35825E-02
 -1      3081-1.51465E+00-2.26683E+00-2.20827E-02
 -1      3082-1.59441E+00 2.38621E+00 1.33164E-02
 -1      3083 5.25065E-01-2.63969E+00-3.16535E-02
 -1      3084 2.41318E+00-4.80015E-01 2.79945E-03
 -1      3085-1.53952E+00 2.30406E+00 1.84972E-01
 -1      3086 2.61530E+00-5.20216E-01 1.18497E-01
 -1      3087 2.38621E+00 1.59441E+00 5.66474E-02
 -1      3088-5.59878E-01-2.81473E+00 4.17304E-04
 -1      3089 2.59977E+00 5.17127E-01 1.24963E-01
 -1      3090 4.81745E-01 2.42187E+00 7.89144E-03
 -1      3091-2.07747E+00 1.38813E+00 2.52413E-02
 -1      3092-1.53952E+00-2.30406E+00 1.77382E-01
 -1      3093-4.74449E-01-2.38519E+00-4.55169E-03
 -1      3094 5.20583E-01 2.61715E+00 1.24292E-01
 -1      3095 2.12777E+00 1.42173E+00 1.88836E-01
 -1      3096-2.61668E+00-1.26716E+00 5.82268E-02
 -1      3097-1.32964E+00-2.63667E+00 3.67243E-02
 -1      3098 2.38621E+00-1.59441E+00-8.15096E-03
 -1      3099 2.03573E+00-1.36024E+00 2.79787E-02
 -1      3100 1.59441E+00 2.38621E+00 6.68800E-05
 -1      3101 2.21863E+00-1.48244E+00 1.17350E-01
 -1      3102-2.60370E+00-5.17908E-01 1.12912E-01
 -1      3103-2.23183E+00 1.49126E+00 1.38214E-01
 -1      3104-2.81472E+00 5.59878E-01 1.28590E-02
 -1      3105 1.39026E+00 2.08066E+00 2.65011E-02
 -1      3106 1.53952E+00 2.30406E+00 1.78222E-01
 -1      3107-1.35251E+00 2.02417E+00 1.02293E-01
 -1      3108-1.39504E+00-2.08782E+00 1.49576E-01
 -1      3109-1.93257E+00-2.17206E+00 6.35468E-02
 -1      3110 1.26716E+00-2.61668E+00 8.70236E-02
 -1      3111 1.69344E-01-2.90241E+00 3.76642E-02
 -1      3112-2.30406E+00-1.53952E+00 1.77450E-01
 -1      3113-2.61803E+00 5.20757E-01 1.25102E-01
 -1      3114-5.16916E-01-2.59871E+00 1.09753E-01
 -1      3115-2.18471E+00 1.97986E+00 8.11245E-02
 -1      3116 2.77607E+00 9.93097E-01 7.60183E-02
 -1      3117 1.69344E-01 2.90241E+00 9.61014E-02
 -1      3118 9.93097E-01 2.77607E+00 7.86688E-02
 -1      3119-2.90241E+00-1.69344E-01 9.33564E-02
 -1      3120 1.97986E+00 2.18471E+00 7.61932E-02
 -1      3121-2.61668E+00 1.26716E+00 9.92666E-02
 -1      3122-9.54248E-01-2.74628E+00 1.13363E-01
 -1      3123 5.40605E-01-2.71782E+00 1.66571E-01
 -1      3124-9.33454E-01 2.80078E+00 1.88275E-02
 -1      3125-5.40605E-01 2.71782E+00 1.61962E-01
 -1      3126 2.77607E+00-9.93097E-01 7.57427E-02
 -1      3127 2.90241E+00-1.69344E-01 9.24829E-02
 -1      3128 2.17206E+00-1.93257E+00 9.07943E-02
 -1      3129-1.74136E+00 2.01072E+00-5.13311E-03
 -1      3130 5.01945E-01-2.52344E+00 1.84225E-01
 -1      3131-4.97835E-01 2.50277E+00 1.72666E-01
 -1      3132-2.11825E+00-1.41537E+00 1.70519E-01
 -3
    3C                          9527                                     1
 -1         1    3    0    1
 -2       106       102       581       964
 -1         2    3    0    1
 -2       509        45       511      1188
 -1         3    3    0    1
 -2      1474      1409      3120      3056
 -1         4    3    0    1
 -2       920       508       929       930
 -1         5    3    0    1
 -2      1954      1805      2117      2327
 -1         6    3    0    1
 -2      2731      2944      3107      3129
 -1         7    3    0    1
 -2       461      1161         6       464
 -1         8    3    0    1
 -2       966       581       960       969
 -1         9    3    0    1
 -2       924       508      1184      1185
 -1        10    3    0    1
 -2       139       993       994      1860
 -1        11    3    0    1
 -2       683       680      1011      1018
 -1        12    3    0    1
 -2        82        72       561       949
 -1        13    3    0    1
 -2      1733      1823      2004      2050
 -1        14    3    0    1
 -2       243       782       771      1306
 -1        15    3    0    1
 -2       775       766       774      3006
 -1        16    3    0    1
 -2       944        68      2225      2299
 -1        17    3    0    1
 -2      2373      1551      2696      2698
 -1        18    3    0    1
 -2       661       152       657       996
 -1        19    3    0    1
 -2       701      1024       185      1022
 -1        20    3    0    1
 -2       637       132       633       984
 -1        21    3    0    1
 -2       652       159      1001      1261
 -1        22    3    0    1
 -2      1973      1846      2037      2287
 -1        23    3    0    1
 -2      1292      1038       728      1284
 -1        24    3    0    1
 -2      1634      1652      1824      2168
 -1        25    3    0    1
 -2      1564      1563      1611      1835
 -1        26    3    0    1
 -2      1045       220      2638      2764
 -1        27    3    0    1
 -2      1316       778      2545      2573
 -1        28    3    0    1
 -2      1911      1214      2049      2307
 -1        29    3    0    1
 -2      1179      1609      2342      2492
 -1        30    3    0    1
 -2       525       524       941      1196
 -1        31    3    0    1
 -2       605       121       607       977
 -1        32    3    0    1
 -2      2332       977      2442      2615
 -1        33    3    0    1
 -2       629      1243       134       632
 -1        34    3    0    1
 -2       763       768      1072      1306
 -1        35    3    0    1
 -2       720      1037      1045      1290
 -1        36    3    0    1
 -2      2201      2163      1539      2290
 -1        37    3    0    1
 -2       581       964      1218      1221
 -1        38    3    0    1
 -2       408       415       745      1056
 -1        39    3    0    1
 -2       478       477       496       918
 -1        40    3    0    1
 -2        73      1209        76       554
 -1        41    3    0    1
 -2      1731      2515      2773      2855
 -1        42    3    0    1
 -2      1951      1661      2415      2458
 -1        43    3    0    1
 -2      2960      1473      3113      3119
 -1        44    3    0    1
 -2      1715      1557      2027      2204
 -1        45    3    0    1
 -2      1863       538      2030      2295
 -1        46    3    0    1
 -2       102       581       583       966
 -1        47    3    0    1
 -2        86        79      1214      2049
 -1        48    3    0    1
 -2       484       494       918      1176
 -1        49    3    0    1
 -2      1909      2027      2204      2321
 -1        50    3    0    1
 -2      1033      2413      2738      2781
 -1        51    3    0    1
 -2        40       505      1183      1186
 -1        52    3    0    1
 -2      3089       421      2996      3039
 -1        53    3    0    1
 -2      1897      1008       164       355
 -1        54    3    0    1
 -2       694      1034       693      1026
 -1        55    3    0    1
 -2       481        24       916      1178
 -1        56    3    0    1
 -2       653       342       656      1003
 -1        57    3    0    1
 -2      1627      1862      2081      2141
 -1        58    3    0    1
 -2      2541      2921      2936      3077
 -1        59    3    0    1
 -2        87       557       564       946
 -1        60    3    0    1
 -2      2178       555      2218      2761
 -1        61    3    0    1
 -2      1543      1771      1976      2093
 -1        62    3    0    1
 -2      1626      1527      1650      2003
 -1        63    3    0    1
 -2       604       124       609       980
 -1        64    3    0    1
 -2       141       138       629      1248
 -1        65    3    0    1
 -2      1034       711      1035      2738
 -1        66    3    0    1
 -2       509       511       928      1188
 -1        67    3    0    1
 -2      1104      1793      1800      1826
 -1        68    3    0    1
 -2      1617      2085      2216      2583
 -1        69    3    0    1
 -2      2379      1977      2498      2585
 -1        70    3    0    1
 -2        75       557       946      1212
 -1        71    3    0    1
 -2       462       915      1165      2029
 -1        72    3    0    1
 -2      1393      1752      2302      2739
 -1        73    3    0    1
 -2      2879      1968      2912      1451
 -1        74    3    0    1
 -2       110       604       609       970
 -1        75    3    0    1
 -2      2989      1452      3014      3036
 -1        76    3    0    1
 -2      1676      1695      1903      2096
 -1        77    3    0    1
 -2       143       638       628      1245
 -1        78    3    0    1
 -2      1679      1525      1809      2227
 -1        79    3    0    1
 -2      1869      2144      2389      2392
 -1        80    3    0    1
 -2       247       238       769      1309
 -1        81    3    0    1
 -2      1641      1589      2063      2064
 -1        82    3    0    1
 -2       992       629      1243      1244
 -1        83    3    0    1
 -2        47        45       509       921
 -1        84    3    0    1
 -2       555       950      1937      2014
 -1        85    3    0    1
 -2        45       509       511       922
 -1        86    3    0    1
 -2       903       459      1167      2053
 -1        87    3    0    1
 -2        34      2000      1726        37
 -1        88    3    0    1
 -2       556        83       955       956
 -1        89    3    0    1
 -2      1004       650       156      1000
 -1        90    3    0    1
 -2       463      1092      1166      1765
 -1        91    3    0    1
 -2       645       646       664      1008
 -1        92    3    0    1
 -2       628       139       633       994
 -1        93    3    0    1
 -2      2886      2954      3099      2997
 -1        94    3    0    1
 -2      1751      1715      2027      2408
 -1        95    3    0    1
 -2       158       338      1472      3102
 -1        96    3    0    1
 -2      2930      3075      3084      3086
 -1        97    3    0    1
 -2       615       597       616       982
 -1        98    3    0    1
 -2         5       460       465      1160
 -1        99    3    0    1
 -2       424       931      2306      2862
 -1       100    3    0    1
 -2      1634      1654      1702      1824
 -1       101    3    0    1
 -2      2330      1668      2564      2795
 -1       102    3    0    1
 -2      1691      1616      1850      1890
 -1       103    3    0    1
 -2       984       633       994      1245
 -1       104    3    0    1
 -2       224      1297       229       749
 -1       105    3    0    1
 -2      1595      1619      1874      2497
 -1       106    3    0    1
 -2      1204       933       532      1197
 -1       107    3    0    1
 -2       329       156      1633      1647
 -1       108    3    0    1
 -2      2077      1030      2377      2924
 -1       109    3    0    1
 -2      1770      1930      2072      2487
 -1       110    3    0    1
 -2       979      1234       597       982
 -1       111    3    0    1
 -2       413      1588      1635      1847
 -1       112    3    0    1
 -2      1591      1775      2060      2187
 -1       113    3    0    1
 -2      1685      1053      1991      2005
 -1       114    3    0    1
 -2       773      1070      1061       776
 -1       115    3    0    1
 -2      1754      1689      1884      1895
 -1       116    3    0    1
 -2       316       296      1343      2088
 -1       117    3    0    1
 -2       142      2008      2032      2112
 -1       118    3    0    1
 -2       597       615       616       981
 -1       119    3    0    1
 -2      1340       833      1691      1710
 -1       120    3    0    1
 -2      1439      1438      3080      3112
 -1       121    3    0    1
 -2        19        22       484      1173
 -1       122    3    0    1
 -2      1073       784      2606      2807
 -1       123    3    0    1
 -2      1543      2063      2067      2114
 -1       124    3    0    1
 -2      1042      2043      2584      2649
 -1       125    3    0    1
 -2      2044       962      2629      2799
 -1       126    3    0    1
 -2      1759      1627      1892      2141
 -1       127    3    0    1
 -2       691       702      2975      2976
 -1       128    3    0    1
 -2       904      1426      1430      3061
 -1       129    3    0    1
 -2      2774      2099      2908      2916
 -1       130    3    0    1
 -2      2935      2762      3078      3104
 -1       131    3    0    1
 -2      1567      1671      1803      2025
 -1       132    3    0    1
 -2      1301      1057       749      1060
 -1       133    3    0    1
 -2      1775      1942      2187      2329
 -1       134    3    0    1
 -2       921       501       928       931
 -1       135    3    0    1
 -2       525       938       531       524
 -1       136    3    0    1
 -2        26        29       488      1174
 -1       137    3    0    1
 -2       731       206       214      1282
 -1       138    3    0    1
 -2      2295      1608      2486      2495
 -1       139    3    0    1
 -2       622       993       984       621
 -1       140    3    0    1
 -2        37        34       484       917
 -1       141    3    0    1
 -2      2973      1180      3037       914
 -1       142    3    0    1
 -2      1716      1662      2013      2271
 -1       143    3    0    1
 -2       328       674       333      1017
 -1       144    3    0    1
 -2       484        34       489       917
 -1       145    3    0    1
 -2       953      1628      1644      1693
 -1       146    3    0    1
 -2        41       427       511       926
 -1       147    3    0    1
 -2       622       993       640       994
 -1       148    3    0    1
 -2       229       756       233      1301
 -1       149    3    0    1
 -2        83       384       556       950
 -1       150    3    0    1
 -2       954      1935      2019      2238
 -1       151    3    0    1
 -2       643       651      1000      1004
 -1       152    3    0    1
 -2       629       632       992      1243
 -1       153    3    0    1
 -2       684       174       179      1021
 -1       154    3    0    1
 -2       750       775      1068      2540
 -1       155    3    0    1
 -2      2215      2798      2823      2872
 -1       156    3    0    1
 -2       759       760      1059      1597
 -1       157    3    0    1
 -2       134       629       632      1246
 -1       158    3    0    1
 -2       351      1446      1447      3092
 -1       159    3    0    1
 -2      1768       682      1929      2076
 -1       160    3    0    1
 -2       510      1193       925      2181
 -1       161    3    0    1
 -2      1182       478       919      1174
 -1       162    3    0    1
 -2      1465        78      1502      3125
 -1       163    3    0    1
 -2       434      1366      1149      1839
 -1       164    3    0    1
 -2       155       650       649      1251
 -1       165    3    0    1
 -2      1062       241      2985      3006
 -1       166    3    0    1
 -2       919       488        32      1182
 -1       167    3    0    1
 -2       484       489       913      1171
 -1       168    3    0    1
 -2      1893       496      1901      1939
 -1       169    3    0    1
 -2      2142       404      2581      2787
 -1       170    3    0    1
 -2      2506      2894      1473      2969
 -1       171    3    0    1
 -2      1768      1946      2268      2532
 -1       172    3    0    1
 -2       591       592      1953      2258
 -1       173    3    0    1
 -2       481       916      1172      1178
 -1       174    3    0    1
 -2      1552      1539      1553      1773
 -1       175    3    0    1
 -2      1940      1533      1984      2087
 -1       176    3    0    1
 -2      2400      1092      2933      3126
 -1       177    3    0    1
 -2       485        26      1174      1175
 -1       178    3    0    1
 -2      1603      1619      1874      2016
 -1       179    3    0    1
 -2      1033       693       711      1036
 -1       180    3    0    1
 -2      1365       848      1700      1746
 -1       181    3    0    1
 -2       120       114       607       972
 -1       182    3    0    1
 -2       580       585       962      1224
 -1       183    3    0    1
 -2       629       992       995      1244
 -1       184    3    0    1
 -2       660       154       653      1256
 -1       185    3    0    1
 -2      2026      1625      2250      2313
 -1       186    3    0    1
 -2      1577      2409      2453      2454
 -1       187    3    0    1
 -2       595       603       974       978
 -1       188    3    0    1
 -2       769       770      1069      1309
 -1       189    3    0    1
 -2       161       159       652      1007
 -1       190    3    0    1
 -2        97       103       585      1224
 -1       191    3    0    1
 -2       601       974      1229      1232
 -1       192    3    0    1
 -2       415      1714      1809      1855
 -1       193    3    0    1
 -2       485      1174       919      1175
 -1       194    3    0    1
 -2      1642      1610      1700      2136
 -1       195    3    0    1
 -2       943       544       944      2225
 -1       196    3    0    1
 -2      1448       338      1471      1497
 -1       197    3    0    1
 -2      1281       203      2284      2405
 -1       198    3    0    1
 -2      1546      1858      2010      2155
 -1       199    3    0    1
 -2      2099      1528      2498      2585
 -1       200    3    0    1
 -2      1012       676      1019      1020
 -1       201    3    0    1
 -2      1893       496      1939      2586
 -1       202    3    0    1
 -2       622       984       994      1245
 -1       203    3    0    1
 -2      1618      1744      1749      1861
 -1       204    3    0    1
 -2       524      1204       938       538
 -1       205    3    0    1
 -2        58        63       533      1201
 -1       206    3    0    1
 -2      1543      1849      2063      2114
 -1       207    3    0    1
 -2      1651      1762      1846      1872
 -1       208    3    0    1
 -2       573      1226      1221       572
 -1       209    3    0    1
 -2       153       662       652      1257
 -1       210    3    0    1
 -2        63        58       533       932
 -1       211    3    0    1
 -2      1929      1768      2076      2268
 -1       212    3    0    1
 -2      1087      1337      1093       811
 -1       213    3    0    1
 -2      2963       666      2965      2981
 -1       214    3    0    1
 -2       505       927      1183      1186
 -1       215    3    0    1
 -2      1642      1559      1700      1746
 -1       216    3    0    1
 -2       533        58       535       932
 -1       217    3    0    1
 -2      1564      1598      1986      1996
 -1       218    3    0    1
 -2      1440      2900      2954      3128
 -1       219    3    0    1
 -2       787      1325      1081       798
 -1       220    3    0    1
 -2       501       921       928      1188
 -1       221    3    0    1
 -2       728       212      1046      1295
 -1       222    3    0    1
 -2      1114      1758      1908      2398
 -1       223    3    0    1
 -2       638       143       146      1245
 -1       224    3    0    1
 -2       384       950      1790      1904
 -1       225    3    0    1
 -2      1444       101      1468      1496
 -1       226    3    0    1
 -2      1537      1657      1923      2632
 -1       227    3    0    1
 -2       949       556       956      1205
 -1       228    3    0    1
 -2      1725       730      2221      2853
 -1       229    3    0    1
 -2       246      1707      2026      2250
 -1       230    3    0    1
 -2      1369      1623      1699      1741
 -1       231    3    0    1
 -2      1671      1567      1852      2334
 -1       232    3    0    1
 -2       676       169       681      1266
 -1       233    3    0    1
 -2      1043       718      1286      1288
 -1       234    3    0    1
 -2       652       662      1007      1257
 -1       235    3    0    1
 -2      2258       966      2339      2714
 -1       236    3    0    1
 -2      1424      1002      1434      3119
 -1       237    3    0    1
 -2      1359      1360      1636      1717
 -1       238    3    0    1
 -2       335       387       577       965
 -1       239    3    0    1
 -2       839      1351       840      1868
 -1       240    3    0    1
 -2       180       681      1266      1268
 -1       241    3    0    1
 -2       595      1239      1230       975
 -1       242    3    0    1
 -2       558      1215       560      2991
 -1       243    3    0    1
 -2       585       104       962      1228
 -1       244    3    0    1
 -2       905       377      1337      2396
 -1       245    3    0    1
 -2       165      1009      1263      2962
 -1       246    3    0    1
 -2       658      1004      1749      1861
 -1       247    3    0    1
 -2       914      2499      2546      2970
 -1       248    3    0    1
 -2      1708      1402      1764      2095
 -1       249    3    0    1
 -2       626       130       131      1242
 -1       250    3    0    1
 -2       701       201       704      1031
 -1       251    3    0    1
 -2        29        26       488       911
 -1       252    3    0    1
 -2       143       132       628      1241
 -1       253    3    0    1
 -2       529        60       530      1198
 -1       254    3    0    1
 -2       774       775      1315      2390
 -1       255    3    0    1
 -2       110       614       604      1235
 -1       256    3    0    1
 -2       471      1168      1912      2596
 -1       257    3    0    1
 -2       640       663      1006      2055
 -1       258    3    0    1
 -2      1747      1640      2333      2433
 -1       259    3    0    1
 -2       576       968       571       592
 -1       260    3    0    1
 -2      1719      1603      1918      2281
 -1       261    3    0    1
 -2       587        94       105      1217
 -1       262    3    0    1
 -2       227       747       753      1047
 -1       263    3    0    1
 -2       110       113       609      1230
 -1       264    3    0    1
 -2       477       917       918      1176
 -1       265    3    0    1
 -2       177       174       680      1018
 -1       266    3    0    1
 -2       159       321      1006      1975
 -1       267    3    0    1
 -2       143       628       983      1241
 -1       268    3    0    1
 -2      1999      2231      2322      2651
 -1       269    3    0    1
 -2      1569      1667      1784      1840
 -1       270    3    0    1
 -2      1413      1440      3024      3048
 -1       271    3    0    1
 -2       121       123       605       982
 -1       272    3    0    1
 -2       540        67       366       945
 -1       273    3    0    1
 -2       983      1250       988       619
 -1       274    3    0    1
 -2      1432      3004      3011      3047
 -1       275    3    0    1
 -2       485        26       488      1174
 -1       276    3    0    1
 -2       355       164       653      1008
 -1       277    3    0    1
 -2       574       586       961       965
 -1       278    3    0    1
 -2       639       621       640       995
 -1       279    3    0    1
 -2       750       751      1304      2682
 -1       280    3    0    1
 -2       599       977       608       606
 -1       281    3    0    1
 -2      1806      1800      1854      2021
 -1       282    3    0    1
 -2       252       773      1070      1073
 -1       283    3    0    1
 -2      2098      1590      2159      2430
 -1       284    3    0    1
 -2       575       962      1223      1224
 -1       285    3    0    1
 -2      1662      1664      1677      2013
 -1       286    3    0    1
 -2       328      1620      2202      2771
 -1       287    3    0    1
 -2        26       492        33      1175
 -1       288    3    0    1
 -2      1621      1689      1718      2711
 -1       289    3    0    1
 -2       384        83       956      1812
 -1       290    3    0    1
 -2       621       993       639       640
 -1       291    3    0    1
 -2      1359       308      1360      1717
 -1       292    3    0    1
 -2      1436      1453      1483      3033
 -1       293    3    0    1
 -2       516        41       424       931
 -1       294    3    0    1
 -2       676       681      1012      1019
 -1       295    3    0    1
 -2       643      1254      1251      1000
 -1       296    3    0    1
 -2      1280      1030      1438      3005
 -1       297    3    0    1
 -2      1770      1930      2071      2072
 -1       298    3    0    1
 -2      1544      1886      2211      2619
 -1       299    3    0    1
 -2       625       991      1240      1242
 -1       300    3    0    1
 -2       551      1214       550       558
 -1       301    3    0    1
 -2      1336      1954      2319      2327
 -1       302    3    0    1
 -2      1019       323      2277      2529
 -1       303    3    0    1
 -2       494        22        23      1176
 -1       304    3    0    1
 -2      1663      2039      2208      2445
 -1       305    3    0    1
 -2       571       591       592       968
 -1       306    3    0    1
 -2      1553      1704      2163      2180
 -1       307    3    0    1
 -2        34       913      1181      2000
 -1       308    3    0    1
 -2       383      1810      1956      2037
 -1       309    3    0    1
 -2      1588       413      1635      2627
 -1       310    3    0    1
 -2       128      2294      2315      2686
 -1       311    3    0    1
 -2      1571       975      2294      2842
 -1       312    3    0    1
 -2      2119       724      2237      2661
 -1       313    3    0    1
 -2      1452      1431      3115      3036
 -1       314    3    0    1
 -2       601       602       974      1232
 -1       315    3    0    1
 -2       462      2029      2402      2440
 -1       316    3    0    1
 -2       392      1866      2432      2754
 -1       317    3    0    1
 -2       509       921       928       931
 -1       318    3    0    1
 -2      1606      1793      1800      1806
 -1       319    3    0    1
 -2       192       697      1027      1277
 -1       320    3    0    1
 -2      1008      1897       164      2485
 -1       321    3    0    1
 -2       201       202      1036      2590
 -1       322    3    0    1
 -2      1863       380      2324      2832
 -1       323    3    0    1
 -2        45       509       921      1188
 -1       324    3    0    1
 -2      1675      1593      1842      1902
 -1       325    3    0    1
 -2       647      1003       655       654
 -1       326    3    0    1
 -2       408      1052      1600      2423
 -1       327    3    0    1
 -2      1721      1707      1943      2026
 -1       328    3    0    1
 -2      1025       693      1036      1274
 -1       329    3    0    1
 -2      1039       728      1295      1282
 -1       330    3    0    1
 -2      1034       711       693      1035
 -1       331    3    0    1
 -2      1546      1750      2010      2183
 -1       332    3    0    1
 -2       648      1259      1258       647
 -1       333    3    0    1
 -2       480      1179      1177       479
 -1       334    3    0    1
 -2      1688      2130      2421      2474
 -1       335    3    0    1
 -2       796      1320       258      1319
 -1       336    3    0    1
 -2       979       121       982      1864
 -1       337    3    0    1
 -2        97       590       580       959
 -1       338    3    0    1
 -2       474      1467      2974      3018
 -1       339    3    0    1
 -2       718      1291      1288      1043
 -1       340    3    0    1
 -2      1387       305      1369      1623
 -1       341    3    0    1
 -2      1689      1754      1856      1895
 -1       342    3    0    1
 -2      2709      2916      2996      3072
 -1       343    3    0    1
 -2       750       740       751      1055
 -1       344    3    0    1
 -2       639      2425      2527      2603
 -1       345    3    0    1
 -2       499      1186      1183       927
 -1       346    3    0    1
 -2       974       595       978      1229
 -1       347    3    0    1
 -2      1664      1714      1961      2228
 -1       348    3    0    1
 -2       471      1098      1168      1549
 -1       349    3    0    1
 -2       489        19      1170      1171
 -1       350    3    0    1
 -2       826       819      1094      2270
 -1       351    3    0    1
 -2      1293      1041      2949      3097
 -1       352    3    0    1
 -2       405       246      1625      2250
 -1       353    3    0    1
 -2       825       820      1097      1331
 -1       354    3    0    1
 -2      1867      2117      2326      2327
 -1       355    3    0    1
 -2      1047       747      1059      1302
 -1       356    3    0    1
 -2      1069       770      1308      1309
 -1       357    3    0    1
 -2      2153       916      2855      2858
 -1       358    3    0    1
 -2       620      1247      1242       991
 -1       359    3    0    1
 -2       814      1098      1095      1088
 -1       360    3    0    1
 -2       944      1807      1810      1973
 -1       361    3    0    1
 -2       511       515       928      1188
 -1       362    3    0    1
 -2      1656      1630      2146      2180
 -1       363    3    0    1
 -2       476       913      1170      1171
 -1       364    3    0    1
 -2      1575      1580      1691      1710
 -1       365    3    0    1
 -2        41       931      2191      2306
 -1       366    3    0    1
 -2      1434      1473      1506      3066
 -1       367    3    0    1
 -2       796      1323       801      1327
 -1       368    3    0    1
 -2       164      1897      2434      2466
 -1       369    3    0    1
 -2      2075      2472      2757      2772
 -1       370    3    0    1
 -2      1064       245       776       240
 -1       371    3    0    1
 -2       718      1291      1043       724
 -1       372    3    0    1
 -2       463       822      1092      1765
 -1       373    3    0    1
 -2       944       544      1807      2383
 -1       374    3    0    1
 -2      2991      2992      3010      3038
 -1       375    3    0    1
 -2       128       975      2315      2842
 -1       376    3    0    1
 -2       840      1351      1857      1868
 -1       377    3    0    1
 -2       631      2323      2616      2732
 -1       378    3    0    1
 -2      1614      1670      1940      2070
 -1       379    3    0    1
 -2       286       283       825      1331
 -1       380    3    0    1
 -2      1575      1650      1837      1966
 -1       381    3    0    1
 -2       816      1094       826       815
 -1       382    3    0    1
 -2      1107       439      1787      1835
 -1       383    3    0    1
 -2      2906      1468      3107      3022
 -1       384    3    0    1
 -2      1000      2184      2244      2759
 -1       385    3    0    1
 -2       861      1120      1619      1692
 -1       386    3    0    1
 -2        41       509       511       928
 -1       387    3    0    1
 -2       537       541       936       943
 -1       388    3    0    1
 -2       645       663       664      1007
 -1       389    3    0    1
 -2        79       557       954       957
 -1       390    3    0    1
 -2       485        32       915      1179
 -1       391    3    0    1
 -2      1103      1680      1794      2433
 -1       392    3    0    1
 -2       386       308      1359      1717
 -1       393    3    0    1
 -2      2978      2939      3025      3130
 -1       394    3    0    1
 -2      1638      1554      1758      1908
 -1       395    3    0    1
 -2      1056       415      1809      2227
 -1       396    3    0    1
 -2      3098      2348      2994      3128
 -1       397    3    0    1
 -2      1425      1456      1460      3018
 -1       398    3    0    1
 -2      2041      2880      2941      3090
 -1       399    3    0    1
 -2      1684      1675      1842      1902
 -1       400    3    0    1
 -2       557       559       954      1212
 -1       401    3    0    1
 -2      1554      1697      1781      2177
 -1       402    3    0    1
 -2      1338       823      2987      3053
 -1       403    3    0    1
 -2       476      1181       483       475
 -1       404    3    0    1
 -2       453       471       472       908
 -1       405    3    0    1
 -2        18       470       418       908
 -1       406    3    0    1
 -2       401       302      2469      2665
 -1       407    3    0    1
 -2       771       244      1071      1072
 -1       408    3    0    1
 -2        63       540        71       932
 -1       409    3    0    1
 -2       273       796       801      1327
 -1       410    3    0    1
 -2       139       320      1250      2175
 -1       411    3    0    1
 -2      1075      1325       797      1081
 -1       412    3    0    1
 -2      1876      1338      2932      3098
 -1       413    3    0    1
 -2       100        98       577      1222
 -1       414    3    0    1
 -2       518        38        49       920
 -1       415    3    0    1
 -2      1677      1722      1919      2337
 -1       416    3    0    1
 -2      1771      1791      1976      2088
 -1       417    3    0    1
 -2      1150      1624      1787      1835
 -1       418    3    0    1
 -2      1406       894      2282      2300
 -1       419    3    0    1
 -2      1590      1601      2093      2116
 -1       420    3    0    1
 -2       676       173      1019      1020
 -1       421    3    0    1
 -2       476      1181       913       483
 -1       422    3    0    1
 -2       502       931       520       501
 -1       423    3    0    1
 -2         5       469         7      1160
 -1       424    3    0    1
 -2       907       460      1159      1160
 -1       425    3    0    1
 -2      3104      2762      3113      3119
 -1       426    3    0    1
 -2        14        12       464      1168
 -1       427    3    0    1
 -2       797       267      1081      1325
 -1       428    3    0    1
 -2      1423      1448      1471      3007
 -1       429    3    0    1
 -2       544       523       943       944
 -1       430    3    0    1
 -2      2895      2905      3069      1457
 -1       431    3    0    1
 -2        58       535       932       935
 -1       432    3    0    1
 -2      1166       904      2440      2999
 -1       433    3    0    1
 -2      1562      1636      1743      1964
 -1       434    3    0    1
 -2      1590      1573      1666      2116
 -1       435    3    0    1
 -2      1614      2304      2519      2648
 -1       436    3    0    1
 -2      2231       311      2322      2651
 -1       437    3    0    1
 -2       197      1281      2284      2626
 -1       438    3    0    1
 -2      1965       969      2258      2630
 -1       439    3    0    1
 -2      1174       485       919       488
 -1       440    3    0    1
 -2       829       286       825      1332
 -1       441    3    0    1
 -2       869      1631      1649      1728
 -1       442    3    0    1
 -2       950       556      1207      1208
 -1       443    3    0    1
 -2      3087      1410      1491      1492
 -1       444    3    0    1
 -2       106       102       964      2309
 -1       445    3    0    1
 -2       953      1628      1693      1938
 -1       446    3    0    1
 -2      1992      1867      2125      2291
 -1       447    3    0    1
 -2      1375      1156      1716      1811
 -1       448    3    0    1
 -2      1430      1166      3061      3062
 -1       449    3    0    1
 -2      1034      1020      2530      2554
 -1       450    3    0    1
 -2        72       556       949      1205
 -1       451    3    0    1
 -2      1018       177      2394      2466
 -1       452    3    0    1
 -2       224       749       752      1049
 -1       453    3    0    1
 -2      2878      2942      1445      3108
 -1       454    3    0    1
 -2       528       943       543       523
 -1       455    3    0    1
 -2       460        17       907       908
 -1       456    3    0    1
 -2      2301      2893      1438      2958
 -1       457    3    0    1
 -2       553      1209      1206        73
 -1       458    3    0    1
 -2      1619      1692      1874      2016
 -1       459    3    0    1
 -2      1851      1932      2266      2420
 -1       460    3    0    1
 -2      1152      1708      1764      2068
 -1       461    3    0    1
 -2        72        82       561      1207
 -1       462    3    0    1
 -2       557        79       559       952
 -1       463    3    0    1
 -2      1155       436      1374      1919
 -1       464    3    0    1
 -2      2883      2895      3069      1457
 -1       465    3    0    1
 -2       107       104       580       967
 -1       466    3    0    1
 -2      2147      1203      1422      3100
 -1       467    3    0    1
 -2      2610      1653      2620      2668
 -1       468    3    0    1
 -2       952      1911      2238      2706
 -1       469    3    0    1
 -2      2013      1677      2118      2282
 -1       470    3    0    1
 -2       604       124       975      1239
 -1       471    3    0    1
 -2       865       884      1145      2500
 -1       472    3    0    1
 -2       532        55       542      1195
 -1       473    3    0    1
 -2      1613      1943      2025      2138
 -1       474    3    0    1
 -2      1810        89      1956      2037
 -1       475    3    0    1
 -2       436       445      1821      1919
 -1       476    3    0    1
 -2      1355       311      1356      2651
 -1       477    3    0    1
 -2      1180       914      2546      2970
 -1       478    3    0    1
 -2      1076       797      1085      1328
 -1       479    3    0    1
 -2       576       968       959       571
 -1       480    3    0    1
 -2       132       633       984      1245
 -1       481    3    0    1
 -2      2891      2239      3073      2960
 -1       482    3    0    1
 -2       108      1678      2468      2475
 -1       483    3    0    1
 -2      1540      2419      2526      2785
 -1       484    3    0    1
 -2      1999      2108      2143      2604
 -1       485    3    0    1
 -2      1018       677      1011      1021
 -1       486    3    0    1
 -2       460         5       465      1163
 -1       487    3    0    1
 -2        17      1817      2059      2122
 -1       488    3    0    1
 -2        14        12      1168      1912
 -1       489    3    0    1
 -2       519       501       520       931
 -1       490    3    0    1
 -2      1010      1270      1016       668
 -1       491    3    0    1
 -2        52      2229      2256      2342
 -1       492    3    0    1
 -2      2886      2921      3077      2997
 -1       493    3    0    1
 -2       528       942       935       932
 -1       494    3    0    1
 -2      1457      1461      1494      3061
 -1       495    3    0    1
 -2      1811      1716      1858      1915
 -1       496    3    0    1
 -2       358       410      1053      1865
 -1       497    3    0    1
 -2       578       961      1222      1225
 -1       498    3    0    1
 -2       653       656       998      1003
 -1       499    3    0    1
 -2       580       585       958       967
 -1       500    3    0    1
 -2      1305      1053      1712      1873
 -1       501    3    0    1
 -2      2972       785      3023      3048
 -1       502    3    0    1
 -2       453       454       471       907
 -1       503    3    0    1
 -2      1127       866      2464      2536
 -1       504    3    0    1
 -2       917       484       918      1176
 -1       505    3    0    1
 -2       371       244      2263      2365
 -1       506    3    0    1
 -2       488       919      1174      1182
 -1       507    3    0    1
 -2        57        55       532      1195
 -1       508    3    0    1
 -2       107       967       968      1953
 -1       509    3    0    1
 -2       528       945       942       932
 -1       510    3    0    1
 -2       509       511       922       926
 -1       511    3    0    1
 -2       917       495      1939      2357
 -1       512    3    0    1
 -2        68        65       532       944
 -1       513    3    0    1
 -2       104       580       585       962
 -1       514    3    0    1
 -2      2203      2120      2285      2407
 -1       515    3    0    1
 -2      1095       821       367       824
 -1       516    3    0    1
 -2      2154       857      2219      2737
 -1       517    3    0    1
 -2      2588       198      2650      2743
 -1       518    3    0    1
 -2      1993       389      2265      2415
 -1       519    3    0    1
 -2       408      1600      1779      1895
 -1       520    3    0    1
 -2       457        10       906      1164
 -1       521    3    0    1
 -2        88        75       557       946
 -1       522    3    0    1
 -2      1724      1560      2071      2087
 -1       523    3    0    1
 -2      1530      1793      1800      2065
 -1       524    3    0    1
 -2       380        62      1802      2832
 -1       525    3    0    1
 -2       813       814       831      1096
 -1       526    3    0    1
 -2      1489      1435      1515      3064
 -1       527    3    0    1
 -2       575      1228       579       574
 -1       528    3    0    1
 -2       488        32        30       915
 -1       529    3    0    1
 -2        61        60       529      1198
 -1       530    3    0    1
 -2      1858      1811      1936      2155
 -1       531    3    0    1
 -2      1389       869       877      1649
 -1       532    3    0    1
 -2      2348      3098      3099      3101
 -1       533    3    0    1
 -2      1967      1148       849      1105
 -1       534    3    0    1
 -2       586       579       961      2296
 -1       535    3    0    1
 -2       633       628      1241      1250
 -1       536    3    0    1
 -2       772      2198      2644      2821
 -1       537    3    0    1
 -2      1597       759      2735      2766
 -1       538    3    0    1
 -2      2124      3076      2947      3131
 -1       539    3    0    1
 -2       501       920       929       930
 -1       540    3    0    1
 -2       663       995      1005      2055
 -1       541    3    0    1
 -2      2389      2489      2687      2692
 -1       542    3    0    1
 -2       517       513       929      1187
 -1       543    3    0    1
 -2       741      1055       751       740
 -1       544    3    0    1
 -2      1049      1303       749      1055
 -1       545    3    0    1
 -2      1842      1684      1902      2102
 -1       546    3    0    1
 -2       333      1789      2262      2477
 -1       547    3    0    1
 -2       287      1096      1097      2343
 -1       548    3    0    1
 -2       754      1056      1711      1712
 -1       549    3    0    1
 -2      1727      1988      2158      2349
 -1       550    3    0    1
 -2       328      1017      1941      1950
 -1       551    3    0    1
 -2       225       753       757      1047
 -1       552    3    0    1
 -2        38       518       508       920
 -1       553    3    0    1
 -2      2347      1180      1425      3070
 -1       554    3    0    1
 -2       532        65       537       944
 -1       555    3    0    1
 -2       765      1313       778       764
 -1       556    3    0    1
 -2      2231      1732      2322      2329
 -1       557    3    0    1
 -2       770       238      1308      1309
 -1       558    3    0    1
 -2       749       752      1049      1055
 -1       559    3    0    1
 -2      1853      2125      2220      2577
 -1       560    3    0    1
 -2      1722      1621      1799      2337
 -1       561    3    0    1
 -2       407       244       777      1066
 -1       562    3    0    1
 -2       537        65       943       944
 -1       563    3    0    1
 -2       431      1397      1121      1808
 -1       564    3    0    1
 -2      1585       877      1631      1649
 -1       565    3    0    1
 -2         8       458        11       902
 -1       566    3    0    1
 -2      1413      3068      1458      3128
 -1       567    3    0    1
 -2      1885      1576      1914      2178
 -1       568    3    0    1
 -2      1028      2535      2558      2624
 -1       569    3    0    1
 -2       724       718       730      1043
 -1       570    3    0    1
 -2       850      1149      1366      1839
 -1       571    3    0    1
 -2      1471      1448      1497      3007
 -1       572    3    0    1
 -2      1998      1608      2295      2495
 -1       573    3    0    1
 -2       484       917      1173      1176
 -1       574    3    0    1
 -2       388      1146      1632      1894
 -1       575    3    0    1
 -2       412      1058      2851      2852
 -1       576    3    0    1
 -2       548      1209      1206       953
 -1       577    3    0    1
 -2       252       780       773      1073
 -1       578    3    0    1
 -2      1557      1599      1733      1825
 -1       579    3    0    1
 -2      1660      1567      1828      1985
 -1       580    3    0    1
 -2      3076      1465      3125      3131
 -1       581    3    0    1
 -2      1790        83      1812      1987
 -1       582    3    0    1
 -2      1004       650      1251       649
 -1       583    3    0    1
 -2       174       677      1018      1021
 -1       584    3    0    1
 -2       239       777      1307      1310
 -1       585    3    0    1
 -2      1204       938      1637      2778
 -1       586    3    0    1
 -2       469         5       465      1160
 -1       587    3    0    1
 -2        10       458       457       906
 -1       588    3    0    1
 -2      1217        96       583        94
 -1       589    3    0    1
 -2        84        79       559       954
 -1       590    3    0    1
 -2       506        40       505      1183
 -1       591    3    0    1
 -2      1150      1367      1611      1835
 -1       592    3    0    1
 -2       168       175       677      1010
 -1       593    3    0    1
 -2       427        41       511       928
 -1       594    3    0    1
 -2       104       107       580       962
 -1       595    3    0    1
 -2       789      1320      1083      1319
 -1       596    3    0    1
 -2       655      1002      2115      1260
 -1       597    3    0    1
 -2      1575      1527      1690      1691
 -1       598    3    0    1
 -2       899       461       464       905
 -1       599    3    0    1
 -2      1438      1420      1445      3046
 -1       600    3    0    1
 -2       621       622       640       995
 -1       601    3    0    1
 -2      1627      1827      2015      2081
 -1       602    3    0    1
 -2       770       405      1069      1313
 -1       603    3    0    1
 -2       533       540       932       945
 -1       604    3    0    1
 -2       951      1418      1476      3117
 -1       605    3    0    1
 -2       621       622       995      1244
 -1       606    3    0    1
 -2      1556      2389      2687      2692
 -1       607    3    0    1
 -2       551      1214      1211       550
 -1       608    3    0    1
 -2       564        79        86       957
 -1       609    3    0    1
 -2        79       557       559       954
 -1       610    3    0    1
 -2      1600      1660      1779      1895
 -1       611    3    0    1
 -2      2009        12      2020      2399
 -1       612    3    0    1
 -2       264       803       800      1321
 -1       613    3    0    1
 -2       287       820       825      1339
 -1       614    3    0    1
 -2      1090      1336      1094       815
 -1       615    3    0    1
 -2      2267      2333      2433      2710
 -1       616    3    0    1
 -2       417       197      1035      2617
 -1       617    3    0    1
 -2      1972      1866      2123      2127
 -1       618    3    0    1
 -2      1770      2487      2673      2768
 -1       619    3    0    1
 -2      1011       669      1021      1264
 -1       620    3    0    1
 -2      1336      1836      2270      2319
 -1       621    3    0    1
 -2       746      1056      1051      1052
 -1       622    3    0    1
 -2      1017       328      1941      2460
 -1       623    3    0    1
 -2       753       757      1047      1058
 -1       624    3    0    1
 -2      1250      2175      2222      2827
 -1       625    3    0    1
 -2       677       680      1010      1016
 -1       626    3    0    1
 -2      1044      2426      2542      2656
 -1       627    3    0    1
 -2      1585      1649      1705      2232
 -1       628    3    0    1
 -2       492       485       919      1175
 -1       629    3    0    1
 -2       623       990       631       630
 -1       630    3    0    1
 -2       226       737      3027      3051
 -1       631    3    0    1
 -2      1742      1697      2123      2127
 -1       632    3    0    1
 -2      1423      3073      1471      3096
 -1       633    3    0    1
 -2      3076      1465      3117      3125
 -1       634    3    0    1
 -2      1157      1376      2161      2350
 -1       635    3    0    1
 -2      1375      1156      1811      1915
 -1       636    3    0    1
 -2      1094       826      1988      2104
 -1       637    3    0    1
 -2      1664      1538      1714      2228
 -1       638    3    0    1
 -2       527       526       940      1199
 -1       639    3    0    1
 -2       217       212       725      1292
 -1       640    3    0    1
 -2       487       462      2440      2546
 -1       641    3    0    1
 -2      1655      1569      1667      2303
 -1       642    3    0    1
 -2       188       699      1276      1278
 -1       643    3    0    1
 -2      1261       658      1861      2007
 -1       644    3    0    1
 -2      3088      1412      1490      3122
 -1       645    3    0    1
 -2      1752       447      2130      2739
 -1       646    3    0    1
 -2      1726       917      1939      2357
 -1       647    3    0    1
 -2      1067      1315      2966      3033
 -1       648    3    0    1
 -2       748       742       754      1056
 -1       649    3    0    1
 -2      2775       234      2843      2856
 -1       650    3    0    1
 -2       747      1300       227       753
 -1       651    3    0    1
 -2      1464      3118      3044      3045
 -1       652    3    0    1
 -2       533       932       942       945
 -1       653    3    0    1
 -2       461        12       905      1165
 -1       654    3    0    1
 -2       907       471      1817      2122
 -1       655    3    0    1
 -2      1994      1729      2089      2362
 -1       656    3    0    1
 -2       715      1044       735       736
 -1       657    3    0    1
 -2       663       645       664      1008
 -1       658    3    0    1
 -2       557       564       946       957
 -1       659    3    0    1
 -2      1563      1564      1665      1787
 -1       660    3    0    1
 -2       691      1279      1031       702
 -1       661    3    0    1
 -2       191       198       697      1032
 -1       662    3    0    1
 -2      2387      1238      2616      2950
 -1       663    3    0    1
 -2        75       557       559       947
 -1       664    3    0    1
 -2      1445      3080      3109      3112
 -1       665    3    0    1
 -2       489       913      1170      1181
 -1       666    3    0    1
 -2      3091      2724      1477      2977
 -1       667    3    0    1
 -2       643      1253      1001      1252
 -1       668    3    0    1
 -2      2031      1671      2219      2410
 -1       669    3    0    1
 -2      1550      1531      1636      2206
 -1       670    3    0    1
 -2      3076      1465      2980      3117
 -1       671    3    0    1
 -2      1643      1615      1740      1745
 -1       672    3    0    1
 -2      1026       699      1035      1275
 -1       673    3    0    1
 -2       717      1042       727       716
 -1       674    3    0    1
 -2      1473      3074      3102      3119
 -1       675    3    0    1
 -2       639       992      2425      2603
 -1       676    3    0    1
 -2      1801      1523      1957      2524
 -1       677    3    0    1
 -2       414       220      1970      2638
 -1       678    3    0    1
 -2       777       781      1065      1071
 -1       679    3    0    1
 -2      1107      1400      1665      1787
 -1       680    3    0    1
 -2      1215      2199      1417      3071
 -1       681    3    0    1
 -2      1477      1416      3121      3049
 -1       682    3    0    1
 -2      1143      1752      2130      2421
 -1       683    3    0    1
 -2      2226      1907      2338      2439
 -1       684    3    0    1
 -2        34        37       913      2000
 -1       685    3    0    1
 -2      1662      1538      1664      2228
 -1       686    3    0    1
 -2       906      1164      1989      2058
 -1       687    3    0    1
 -2       931       520      2191      2694
 -1       688    3    0    1
 -2      1433      1477      3049      3063
 -1       689    3    0    1
 -2         9         5       460       901
 -1       690    3    0    1
 -2       169       676       681      1012
 -1       691    3    0    1
 -2       341       342      1005      2353
 -1       692    3    0    1
 -2      2292      1542      2330      2564
 -1       693    3    0    1
 -2       941       538      1863      2486
 -1       694    3    0    1
 -2       652       657       996      1006
 -1       695    3    0    1
 -2      1715      1751      2027      2470
 -1       696    3    0    1
 -2       188      1275       190       699
 -1       697    3    0    1
 -2       634      2179      2200      2222
 -1       698    3    0    1
 -2      1869      1747      2069      2392
 -1       699    3    0    1
 -2      1782      1607      1985      2334
 -1       700    3    0    1
 -2       168       677       680      1010
 -1       701    3    0    1
 -2       668      1270       679       667
 -1       702    3    0    1
 -2      1122      1407      1936      2183
 -1       703    3    0    1
 -2      2262      2547      2719      2836
 -1       704    3    0    1
 -2      1996       281      2080      2082
 -1       705    3    0    1
 -2      1110       853      2429      2469
 -1       706    3    0    1
 -2      1091      1339      2151      2349
 -1       707    3    0    1
 -2      1561      1834      2022      2403
 -1       708    3    0    1
 -2      1810       383      1973      2037
 -1       709    3    0    1
 -2      3064      1437      1435      3065
 -1       710    3    0    1
 -2       456       906       455       902
 -1       711    3    0    1
 -2       130       626       625      1242
 -1       712    3    0    1
 -2      3086      3075      1485      3126
 -1       713    3    0    1
 -2       124       127       975      2315
 -1       714    3    0    1
 -2       970       604       981      1235
 -1       715    3    0    1
 -2      1658      1542      1680      1794
 -1       716    3    0    1
 -2       605       607       972       977
 -1       717    3    0    1
 -2      1590      1541      1666      2430
 -1       718    3    0    1
 -2       636       629       995      1244
 -1       719    3    0    1
 -2      1587      2382      2393      2532
 -1       720    3    0    1
 -2       600      1237       599       606
 -1       721    3    0    1
 -2       533       942       372       945
 -1       722    3    0    1
 -2       961       574       965      1222
 -1       723    3    0    1
 -2      1732      1951      2207      2604
 -1       724    3    0    1
 -2       486       512      1179      1609
 -1       725    3    0    1
 -2       614       110       115      1235
 -1       726    3    0    1
 -2        96       581      1218      1221
 -1       727    3    0    1
 -2       342       653      1005      1008
 -1       728    3    0    1
 -2       108       104      1228      2140
 -1       729    3    0    1
 -2       140       134       629      1244
 -1       730    3    0    1
 -2       545      2992      1503      3012
 -1       731    3    0    1
 -2       529       937      1196      1198
 -1       732    3    0    1
 -2       857       892      2154      2219
 -1       733    3    0    1
 -2       553      1209        73       554
 -1       734    3    0    1
 -2      1954      1867      1992      2327
 -1       735    3    0    1
 -2      1523      1831      1957      2524
 -1       736    3    0    1
 -2       671      1269       682       675
 -1       737    3    0    1
 -2      2236      2182      2453      2503
 -1       738    3    0    1
 -2       132       628       633      1245
 -1       739    3    0    1
 -2       108      1678      2017      2140
 -1       740    3    0    1
 -2       958       580       967       968
 -1       741    3    0    1
 -2       124       127       604       975
 -1       742    3    0    1
 -2       812      1330      2987      3053
 -1       743    3    0    1
 -2       134       632       986      1246
 -1       744    3    0    1
 -2      3011      3004      3019      3047
 -1       745    3    0    1
 -2       584       582      1226      1948
 -1       746    3    0    1
 -2      1677      1662      2013      2118
 -1       747    3    0    1
 -2      1792      1399      2097      2384
 -1       748    3    0    1
 -2      1771      1543      2067      2093
 -1       749    3    0    1
 -2       986      1248       990       624
 -1       750    3    0    1
 -2      2954      1440      3099      2997
 -1       751    3    0    1
 -2      1411      1054      3027      3064
 -1       752    3    0    1
 -2       612       114       605      1234
 -1       753    3    0    1
 -2       624      1248       990       630
 -1       754    3    0    1
 -2      1250       983       628      1241
 -1       755    3    0    1
 -2       118       601       974       978
 -1       756    3    0    1
 -2       975       604      1230      1231
 -1       757    3    0    1
 -2        64      1464      1480      3106
 -1       758    3    0    1
 -2      1885      1584      1914      1917
 -1       759    3    0    1
 -2      2894      2506      3074      2969
 -1       760    3    0    1
 -2      1070       252      1073      2275
 -1       761    3    0    1
 -2      1569      1667      2248      2479
 -1       762    3    0    1
 -2        98       578      1222      1225
 -1       763    3    0    1
 -2        13       467       464      1161
 -1       764    3    0    1
 -2       529       937       941      1196
 -1       765    3    0    1
 -2       954        79       957      1935
 -1       766    3    0    1
 -2      1846      1651      1872      2037
 -1       767    3    0    1
 -2       897       461       905      1165
 -1       768    3    0    1
 -2       387      1529      1639      2096
 -1       769    3    0    1
 -2      1632      1562      1955      2417
 -1       770    3    0    1
 -2       777      1066      1307      1310
 -1       771    3    0    1
 -2       585       962      1223      1228
 -1       772    3    0    1
 -2      1164       902       457      1162
 -1       773    3    0    1
 -2      2373      2541      2698      2897
 -1       774    3    0    1
 -2      2989       593      1517      3036
 -1       775    3    0    1
 -2       114       605       607       972
 -1       776    3    0    1
 -2       604       110       609      1230
 -1       777    3    0    1
 -2       114       612       122      1234
 -1       778    3    0    1
 -2      1611      1563      1624      1787
 -1       779    3    0    1
 -2       716       726      2948      3031
 -1       780    3    0    1
 -2       509       516       921       931
 -1       781    3    0    1
 -2       578       961       965      1222
 -1       782    3    0    1
 -2      1337      1879      2320      2397
 -1       783    3    0    1
 -2      2972      3023      3024      3048
 -1       784    3    0    1
 -2       525       938       524       933
 -1       785    3    0    1
 -2        79       564       557       957
 -1       786    3    0    1
 -2       575       574       961      1225
 -1       787    3    0    1
 -2       248       773       776      1070
 -1       788    3    0    1
 -2       726       751      1292      1796
 -1       789    3    0    1
 -2       478       477       918      1176
 -1       790    3    0    1
 -2       731       728      1282      1295
 -1       791    3    0    1
 -2       492        26       485      1175
 -1       792    3    0    1
 -2       523       543       544       943
 -1       793    3    0    1
 -2      1270      1010       677      1262
 -1       794    3    0    1
 -2      1095       814      1088      1333
 -1       795    3    0    1
 -2      2028      1577      2500      2752
 -1       796    3    0    1
 -2      1690      1575      1691      1710
 -1       797    3    0    1
 -2      1572      1742      2123      2127
 -1       798    3    0    1
 -2       628       132       633      1241
 -1       799    3    0    1
 -2       121       605       979       982
 -1       800    3    0    1
 -2       348      1443      1452      1517
 -1       801    3    0    1
 -2      1632      1146      1692      1894
 -1       802    3    0    1
 -2      1934      1006      2055      2100
 -1       803    3    0    1
 -2      1000       643      1004      1251
 -1       804    3    0    1
 -2      1559      1610      2519      2648
 -1       805    3    0    1
 -2       708       701      1036      1274
 -1       806    3    0    1
 -2      1655      1554      1742      1972
 -1       807    3    0    1
 -2       696      1032       706       695
 -1       808    3    0    1
 -2      1559      1610      1700      2518
 -1       809    3    0    1
 -2      1844      1829      2276      2464
 -1       810    3    0    1
 -2       914      1410      2915      3116
 -1       811    3    0    1
 -2       697       192       698      1277
 -1       812    3    0    1
 -2       701       185      1025      1274
 -1       813    3    0    1
 -2      1295       221      2043      2572
 -1       814    3    0    1
 -2      1922      2052      2316      2531
 -1       815    3    0    1
 -2      1849      1791      2062      2165
 -1       816    3    0    1
 -2       567       957       547       568
 -1       817    3    0    1
 -2      1688      1535      1752      1920
 -1       818    3    0    1
 -2      1016       181      2434      2466
 -1       819    3    0    1
 -2       204      1283      2983      3031
 -1       820    3    0    1
 -2       434       438      1792      2097
 -1       821    3    0    1
 -2      1030      1420      1438      2976
 -1       822    3    0    1
 -2      3115      1415      3014      3036
 -1       823    3    0    1
 -2       749       752      1057      1296
 -1       824    3    0    1
 -2      1730      1639      1739      1801
 -1       825    3    0    1
 -2       812      1093       811      1087
 -1       826    3    0    1
 -2      2245      2018      2249      2582
 -1       827    3    0    1
 -2       940      2317      2318      2609
 -1       828    3    0    1
 -2       113       613       125       970
 -1       829    3    0    1
 -2      1293      1041      2377      2949
 -1       830    3    0    1
 -2       201       701      1033      1036
 -1       831    3    0    1
 -2       701      1025      1033      1036
 -1       832    3    0    1
 -2       349       210      3114      1490
 -1       833    3    0    1
 -2       821       367      1337       284
 -1       834    3    0    1
 -2      1455      3076      3124      3131
 -1       835    3    0    1
 -2       191       198      1669      1945
 -1       836    3    0    1
 -2       338      1448      3102      3009
 -1       837    3    0    1
 -2       719       718      1040      1287
 -1       838    3    0    1
 -2       752       755      1057      1296
 -1       839    3    0    1
 -2      1261       658      1777      1861
 -1       840    3    0    1
 -2       720      1046       736       715
 -1       841    3    0    1
 -2       616       639      2527      2603
 -1       842    3    0    1
 -2      1533      1670      1940      2085
 -1       843    3    0    1
 -2      2198      1066      2483      2573
 -1       844    3    0    1
 -2       580       104       585       967
 -1       845    3    0    1
 -2       674       171       172      1013
 -1       846    3    0    1
 -2       996       652      1007      1257
 -1       847    3    0    1
 -2      1723      1373      2410      1154
 -1       848    3    0    1
 -2        95       585       589       958
 -1       849    3    0    1
 -2       267       803       268      1328
 -1       850    3    0    1
 -2       784      1072      2606      2635
 -1       851    3    0    1
 -2       669       670      1020      1265
 -1       852    3    0    1
 -2      1607      1782      1985      2086
 -1       853    3    0    1
 -2      2976      1420      3005      3046
 -1       854    3    0    1
 -2       150      1258       154       653
 -1       855    3    0    1
 -2      1451      2879      3097      3108
 -1       856    3    0    1
 -2       553        77       953      1213
 -1       857    3    0    1
 -2      1243       629       134      1244
 -1       858    3    0    1
 -2       708       201       202      1036
 -1       859    3    0    1
 -2       461       899         6       897
 -1       860    3    0    1
 -2      1694      1706      1944      1979
 -1       861    3    0    1
 -2       748      1053      1685      1712
 -1       862    3    0    1
 -2      2940      3078      1473      2964
 -1       863    3    0    1
 -2        28       474      2974      3017
 -1       864    3    0    1
 -2      2152       425      2406      2613
 -1       865    3    0    1
 -2      1135       872      2253      2621
 -1       866    3    0    1
 -2       761      2966      2985      3013
 -1       867    3    0    1
 -2      1424      1473      3119      3058
 -1       868    3    0    1
 -2       102      1581      2309      2443
 -1       869    3    0    1
 -2      1791      1344      2088      2165
 -1       870    3    0    1
 -2       557       946       954       957
 -1       871    3    0    1
 -2       567      1807      2019      2046
 -1       872    3    0    1
 -2      2194      2265      2266      2645
 -1       873    3    0    1
 -2      1570      1694      2247      2561
 -1       874    3    0    1
 -2      1560      1670      2071      2087
 -1       875    3    0    1
 -2      1463      1465      1469      3038
 -1       876    3    0    1
 -2       103        97       585       958
 -1       877    3    0    1
 -2       590       580       959       968
 -1       878    3    0    1
 -2       951      2991      3038      1215
 -1       879    3    0    1
 -2       198      1032      2588      2650
 -1       880    3    0    1
 -2       653       164       660      1008
 -1       881    3    0    1
 -2      1968      2912      1451      3093
 -1       882    3    0    1
 -2       653       150       656      1255
 -1       883    3    0    1
 -2       937       525       941      1196
 -1       884    3    0    1
 -2       471       453       907       908
 -1       885    3    0    1
 -2      1758      1554      1781      2177
 -1       886    3    0    1
 -2       508      1187       513        38
 -1       887    3    0    1
 -2      1771      1849      2062      2063
 -1       888    3    0    1
 -2      1529       387      1695      2096
 -1       889    3    0    1
 -2      3084      2931      1454      2990
 -1       890    3    0    1
 -2       267       797       800      1328
 -1       891    3    0    1
 -2       110       604       970      1235
 -1       892    3    0    1
 -2      1410      3018      3116      1425
 -1       893    3    0    1
 -2      1452      2989      1517      3036
 -1       894    3    0    1
 -2       924        53      2205      2784
 -1       895    3    0    1
 -2       469       465       907      1160
 -1       896    3    0    1
 -2      1664      1538      1677      2337
 -1       897    3    0    1
 -2      2147      2888      3105      3118
 -1       898    3    0    1
 -2       742      1051      1052      1299
 -1       899    3    0    1
 -2      1272       682      1929      2162
 -1       900    3    0    1
 -2       480      1179       479       486
 -1       901    3    0    1
 -2        57        56       532      1197
 -1       902    3    0    1
 -2       915      1179      1962      2492
 -1       903    3    0    1
 -2       579      2296      2618      2789
 -1       904    3    0    1
 -2      1783      2158      2210      2793
 -1       905    3    0    1
 -2       581       966       960       583
 -1       906    3    0    1
 -2       748      1052      2086      2106
 -1       907    3    0    1
 -2       721       208       722      1288
 -1       908    3    0    1
 -2       902      1164       457       906
 -1       909    3    0    1
 -2      1722      1799      1919      2337
 -1       910    3    0    1
 -2       495      1901      1939      2357
 -1       911    3    0    1
 -2        10       906      1164      1989
 -1       912    3    0    1
 -2        41       427       926      2256
 -1       913    3    0    1
 -2      1324      2011      2103      2216
 -1       914    3    0    1
 -2      1098       367       821       284
 -1       915    3    0    1
 -2      1807       955      1956      1987
 -1       916    3    0    1
 -2       454      1168       453       471
 -1       917    3    0    1
 -2       459       455       466       906
 -1       918    3    0    1
 -2       962       585      1223      1224
 -1       919    3    0    1
 -2       559       563       954      1212
 -1       920    3    0    1
 -2        97       580       958       959
 -1       921    3    0    1
 -2       821       824      1329      1337
 -1       922    3    0    1
 -2       748      1052      1056      1712
 -1       923    3    0    1
 -2      1457      1430      3127      3062
 -1       924    3    0    1
 -2      1675      1593      2036      2569
 -1       925    3    0    1
 -2       556       561       949       955
 -1       926    3    0    1
 -2       320       142      2008      2032
 -1       927    3    0    1
 -2      2061      2101      2579      2744
 -1       928    3    0    1
 -2       138       141       629       995
 -1       929    3    0    1
 -2      1566      1721      1820      1943
 -1       930    3    0    1
 -2       461        12       464       905
 -1       931    3    0    1
 -2       620       988       619       983
 -1       932    3    0    1
 -2       106       581       966       969
 -1       933    3    0    1
 -2       299       298      2355      2671
 -1       934    3    0    1
 -2      1623      1699      1741      2172
 -1       935    3    0    1
 -2        27       473      2973      2974
 -1       936    3    0    1
 -2       703      1882      2242      2301
 -1       937    3    0    1
 -2      1811       862      1915      1936
 -1       938    3    0    1
 -2      1453      3083      3123      3130
 -1       939    3    0    1
 -2       206       728      1039      1282
 -1       940    3    0    1
 -2       678      1270      1814      2242
 -1       941    3    0    1
 -2       342      1003      1259      1897
 -1       942    3    0    1
 -2       508        50       929       930
 -1       943    3    0    1
 -2       499      1194      1184       924
 -1       944    3    0    1
 -2       422      1457      1461      1494
 -1       945    3    0    1
 -2      1550      1743      1797      1964
 -1       946    3    0    1
 -2      1858      1683      2155      2173
 -1       947    3    0    1
 -2      1727      1988      2104      2462
 -1       948    3    0    1
 -2        32       915      1179      1962
 -1       949    3    0    1
 -2      1397       431       432      1808
 -1       950    3    0    1
 -2      1474       370      3105      3020
 -1       951    3    0    1
 -2       953      1644      2051      2520
 -1       952    3    0    1
 -2       295      1148       397      1890
 -1       953    3    0    1
 -2      1579      1589      2063      2114
 -1       954    3    0    1
 -2      1526      1662      1716      2271
 -1       955    3    0    1
 -2       850       888      1149      1839
 -1       956    3    0    1
 -2       503       926       512       510
 -1       957    3    0    1
 -2        45      1190        47       509
 -1       958    3    0    1
 -2       992       621       995      1244
 -1       959    3    0    1
 -2        38        39       513      1184
 -1       960    3    0    1
 -2      1580      1672      2038      2132
 -1       961    3    0    1
 -2       489        34       913      1181
 -1       962    3    0    1
 -2      2186      1851      2194      2266
 -1       963    3    0    1
 -2      2871      1327       802      2142
 -1       964    3    0    1
 -2       773       780      1061      1073
 -1       965    3    0    1
 -2      2774      2908      2928      2951
 -1       966    3    0    1
 -2      1685       748      1712      2086
 -1       967    3    0    1
 -2       590        97        99       959
 -1       968    3    0    1
 -2       521      2995      3003      3044
 -1       969    3    0    1
 -2      1035       712      1709      2738
 -1       970    3    0    1
 -2       467        13        15      1161
 -1       971    3    0    1
 -2       547       567       568       956
 -1       972    3    0    1
 -2       127       124       604       981
 -1       973    3    0    1
 -2      1365       847       848      1746
 -1       974    3    0    1
 -2       913       489      1170      1171
 -1       975    3    0    1
 -2       488       919        32       485
 -1       976    3    0    1
 -2       604       124       980       981
 -1       977    3    0    1
 -2       974       118      2436      2476
 -1       978    3    0    1
 -2       404       373      1083      2581
 -1       979    3    0    1
 -2       582       963      2387      2920
 -1       980    3    0    1
 -2        65       532       537      1204
 -1       981    3    0    1
 -2       460        17       465       907
 -1       982    3    0    1
 -2      1579      1849      2062      2165
 -1       983    3    0    1
 -2      3089      3070      1460      1461
 -1       984    3    0    1
 -2       518       508       920       930
 -1       985    3    0    1
 -2       297       318      1101      1909
 -1       986    3    0    1
 -2       600      1237      1236       599
 -1       987    3    0    1
 -2      1585      1568      1649      2209
 -1       988    3    0    1
 -2      3073      3102      2960      3119
 -1       989    3    0    1
 -2      1150      1611      1624      1835
 -1       990    3    0    1
 -2      1596      1745      2095      2139
 -1       991    3    0    1
 -2      1143       446      1381      2130
 -1       992    3    0    1
 -2      1957      1801      2449      2501
 -1       993    3    0    1
 -2       580        97       585      1224
 -1       994    3    0    1
 -2      1534      1606      1730      1957
 -1       995    3    0    1
 -2      3069      2917      1457      3089
 -1       996    3    0    1
 -2       499      1185       924      1184
 -1       997    3    0    1
 -2       557       559       947       952
 -1       998    3    0    1
 -2       791      1324      1082       795
 -1       999    3    0    1
 -2       583        96       581      1218
 -1      1000    3    0    1
 -2       107       590       336       968
 -1      1001    3    0    1
 -2       477      1182       496       495
 -1      1002    3    0    1
 -2      1270      1016       679      1814
 -1      1003    3    0    1
 -2      1448       176      1450      3096
 -1      1004    3    0    1
 -2       936       537       944      1195
 -1      1005    3    0    1
 -2       932       535       942       935
 -1      1006    3    0    1
 -2       933      1204       938       524
 -1      1007    3    0    1
 -2        41       509       928       931
 -1      1008    3    0    1
 -2       455      1164       906       459
 -1      1009    3    0    1
 -2      1537      1925      2557      2212
 -1      1010    3    0    1
 -2        26       485       488       911
 -1      1011    3    0    1
 -2      1646       754      1712      1873
 -1      1012    3    0    1
 -2      2724      2923      3091      1477
 -1      1013    3    0    1
 -2       612       123       344       982
 -1      1014    3    0    1
 -2      2303      1569      2525      2593
 -1      1015    3    0    1
 -2       556        72       561      1207
 -1      1016    3    0    1
 -2      1058       759      1597      2766
 -1      1017    3    0    1
 -2      1762      1877      2110      2594
 -1      1018    3    0    1
 -2       485       488       911       915
 -1      1019    3    0    1
 -2      1590      1601      1888      2093
 -1      1020    3    0    1
 -2      1888      1771      1976      2088
 -1      1021    3    0    1
 -2       956       591       967      1798
 -1      1022    3    0    1
 -2      2182      1604      2637      2819
 -1      1023    3    0    1
 -2      1097       832      2122      2424
 -1      1024    3    0    1
 -2       436      1405      1118      1821
 -1      1025    3    0    1
 -2       835       836      1931      2062
 -1      1026    3    0    1
 -2      1765      1166      2440      2999
 -1      1027    3    0    1
 -2      1640      2267      2333      2433
 -1      1028    3    0    1
 -2        75      1211        88       557
 -1      1029    3    0    1
 -2      1080      1326      1413      3128
 -1      1030    3    0    1
 -2       557        75       559      1212
 -1      1031    3    0    1
 -2      1398      1125      1717      1788
 -1      1032    3    0    1
 -2      1092      1765      2320      2933
 -1      1033    3    0    1
 -2       504      1192      1190       503
 -1      1034    3    0    1
 -2      1600      1052      1779      2423
 -1      1035    3    0    1
 -2       476      1178      1172       475
 -1      1036    3    0    1
 -2      2535      2637      2681      2818
 -1      1037    3    0    1
 -2        50       929       930      1605
 -1      1038    3    0    1
 -2        22       484      1173      1176
 -1      1039    3    0    1
 -2       907       400      1853      2059
 -1      1040    3    0    1
 -2      2886      2699      2921      2945
 -1      1041    3    0    1
 -2      1671      1567      1723      2219
 -1      1042    3    0    1
 -2       508        38       513      1184
 -1      1043    3    0    1
 -2       711      1034      2006      2864
 -1      1044    3    0    1
 -2       432       431      1346      1899
 -1      1045    3    0    1
 -2      2284      1281      2625      2626
 -1      1046    3    0    1
 -2      1557      1686      1715      2027
 -1      1047    3    0    1
 -2       225       235       753      1047
 -1      1048    3    0    1
 -2       581       102       583       964
 -1      1049    3    0    1
 -2      1697      1623      1699      2177
 -1      1050    3    0    1
 -2      2070      1770      2673      2768
 -1      1051    3    0    1
 -2       645      1257      1007       646
 -1      1052    3    0    1
 -2       582      2387      2615      2920
 -1      1053    3    0    1
 -2       821       277       824      1088
 -1      1054    3    0    1
 -2       848       847      1642      1746
 -1      1055    3    0    1
 -2       953       382      1763      2135
 -1      1056    3    0    1
 -2      1409      1193      2881      3120
 -1      1057    3    0    1
 -2      2900      3068      2994      3128
 -1      1058    3    0    1
 -2       813      1098       832       831
 -1      1059    3    0    1
 -2      1791      1391      1888      2088
 -1      1060    3    0    1
 -2       805       266       801      1320
 -1      1061    3    0    1
 -2       283       820       825      1331
 -1      1062    3    0    1
 -2       547       949       956      1205
 -1      1063    3    0    1
 -2      1694      1570      1706      2452
 -1      1064    3    0    1
 -2       746      1056       745      1051
 -1      1065    3    0    1
 -2      1604      2182      2236      2503
 -1      1066    3    0    1
 -2       942       533       372       535
 -1      1067    3    0    1
 -2        95       103       585       958
 -1      1068    3    0    1
 -2      2079      2035      2567      2796
 -1      1069    3    0    1
 -2      1415      1441      1452      3014
 -1      1070    3    0    1
 -2       227      1300       235       753
 -1      1071    3    0    1
 -2      1427      1338      1429      3052
 -1      1072    3    0    1
 -2       773       248       776      1068
 -1      1073    3    0    1
 -2      1451      1419      3122      3028
 -1      1074    3    0    1
 -2       256      1074      2971      2972
 -1      1075    3    0    1
 -2      1906      1929      2076      2268
 -1      1076    3    0    1
 -2       796       806      1084      1319
 -1      1077    3    0    1
 -2       259       797       800      1075
 -1      1078    3    0    1
 -2      1619      1632      1692      1894
 -1      1079    3    0    1
 -2      1146      1120      1692      1894
 -1      1080    3    0    1
 -2      1554      1623      1742      2177
 -1      1081    3    0    1
 -2       152       661       160       996
 -1      1082    3    0    1
 -2       354       339      2964      3113
 -1      1083    3    0    1
 -2      1420      1445      1447      3109
 -1      1084    3    0    1
 -2      1703      1777      1861      2033
 -1      1085    3    0    1
 -2        80      2991      2992      3010
 -1      1086    3    0    1
 -2      1145      1377      2568      2752
 -1      1087    3    0    1
 -2      1657      1559      1923      2648
 -1      1088    3    0    1
 -2       579       574       586       961
 -1      1089    3    0    1
 -2       504      1192       503       510
 -1      1090    3    0    1
 -2      2893      3080      1445      3132
 -1      1091    3    0    1
 -2       771       777      1065      1071
 -1      1092    3    0    1
 -2       555       548       562       953
 -1      1093    3    0    1
 -2       739       744       760      1060
 -1      1094    3    0    1
 -2       741      1055       740      1049
 -1      1095    3    0    1
 -2      1524      1604      2182      2236
 -1      1096    3    0    1
 -2      1588      2633      2811      2863
 -1      1097    3    0    1
 -2      1338      1427      1429      3126
 -1      1098    3    0    1
 -2      1070       773      1061      1073
 -1      1099    3    0    1
 -2       797       267       800      1081
 -1      1100    3    0    1
 -2       793       794      1078      1082
 -1      1101    3    0    1
 -2       798       787       799      1081
 -1      1102    3    0    1
 -2      1561      1834      1947      2022
 -1      1103    3    0    1
 -2       776       245      1063       240
 -1      1104    3    0    1
 -2      1697      1742      1972      2127
 -1      1105    3    0    1
 -2       813      1096      1331      1332
 -1      1106    3    0    1
 -2        83       384       950      1790
 -1      1107    3    0    1
 -2       933      1204       532       938
 -1      1108    3    0    1
 -2       155      1254       650      1251
 -1      1109    3    0    1
 -2      1414      1413      3068      1458
 -1      1110    3    0    1
 -2       937      1762      1823      2691
 -1      1111    3    0    1
 -2       585       103      1223      1224
 -1      1112    3    0    1
 -2        79        84       559       952
 -1      1113    3    0    1
 -2      2885      1435      3093      3114
 -1      1114    3    0    1
 -2       924      2205      2657      2784
 -1      1115    3    0    1
 -2       643      1261      1252      1001
 -1      1116    3    0    1
 -2       681      1014      1268      1272
 -1      1117    3    0    1
 -2       152      1253       652       153
 -1      1118    3    0    1
 -2      1631      1585      2209      2234
 -1      1119    3    0    1
 -2       298      1352       299      2355
 -1      1120    3    0    1
 -2      1615      1596      2095      2310
 -1      1121    3    0    1
 -2       813       814      1096      1332
 -1      1122    3    0    1
 -2      1644       953      1763      2269
 -1      1123    3    0    1
 -2      2346      2099      2774      2916
 -1      1124    3    0    1
 -2       461       899       464         6
 -1      1125    3    0    1
 -2       749       350       752      1055
 -1      1126    3    0    1
 -2      1851       389      1951      2186
 -1      1127    3    0    1
 -2       285       824      1088      1333
 -1      1128    3    0    1
 -2       824      1088      1095       821
 -1      1129    3    0    1
 -2       754       748      1056      1712
 -1      1130    3    0    1
 -2        17        18       460       903
 -1      1131    3    0    1
 -2      1674      2671      2717      2721
 -1      1132    3    0    1
 -2        67       366       945      2695
 -1      1133    3    0    1
 -2      1848      2943      2984      3132
 -1      1134    3    0    1
 -2      2133      1991      2482      2607
 -1      1135    3    0    1
 -2      1602      1598      1947      2176
 -1      1136    3    0    1
 -2       408      1056      1052      1711
 -1      1137    3    0    1
 -2       548      1216      1207       950
 -1      1138    3    0    1
 -2      1405       859      1118      1821
 -1      1139    3    0    1
 -2      1398       308       386      1717
 -1      1140    3    0    1
 -2      1326      1080      1413      3024
 -1      1141    3    0    1
 -2       367       284      1098      2375
 -1      1142    3    0    1
 -2      1548      2276      2352      2504
 -1      1143    3    0    1
 -2       864      1398       886      1788
 -1      1144    3    0    1
 -2       957       567       954      1935
 -1      1145    3    0    1
 -2      2912      2879      1451      3108
 -1      1146    3    0    1
 -2         8       457       902      1162
 -1      1147    3    0    1
 -2       173       178      2435      2783
 -1      1148    3    0    1
 -2       212       725       728      1046
 -1      1149    3    0    1
 -2       484        19       489      1171
 -1      1150    3    0    1
 -2      1061       776       245       773
 -1      1151    3    0    1
 -2      1626      1668      1819      2340
 -1      1152    3    0    1
 -2      3018      1410      1456      3037
 -1      1153    3    0    1
 -2       674       673      1013      1017
 -1      1154    3    0    1
 -2       393       394      2233      2363
 -1      1155    3    0    1
 -2      1418      1476      3117      3012
 -1      1156    3    0    1
 -2       633       628       994      1245
 -1      1157    3    0    1
 -2       328       333      1620      2460
 -1      1158    3    0    1
 -2       820       830      1097      1331
 -1      1159    3    0    1
 -2      1668      2292      2330      2564
 -1      1160    3    0    1
 -2       432      1397      1808      1875
 -1      1161    3    0    1
 -2      1260      1433      1434      3104
 -1      1162    3    0    1
 -2       964       360      2049      2309
 -1      1163    3    0    1
 -2       173       676       681      1014
 -1      1164    3    0    1
 -2       496       919      1893      1901
 -1      1165    3    0    1
 -2      1785      1591      2060      2800
 -1      1166    3    0    1
 -2      2008      2112      2235      2297
 -1      1167    3    0    1
 -2      1590      1573      2159      2430
 -1      1168    3    0    1
 -2      1178      1878      1971      2655
 -1      1169    3    0    1
 -2       902      1164       906       455
 -1      1170    3    0    1
 -2      1807       955      1987      2046
 -1      1171    3    0    1
 -2       340       141      1248      1648
 -1      1172    3    0    1
 -2      1563      1598      1996      2082
 -1      1173    3    0    1
 -2      1697      1572      2123      2172
 -1      1174    3    0    1
 -2       334       723       729      1294
 -1      1175    3    0    1
 -2      1622      1531      1636      1717
 -1      1176    3    0    1
 -2       466      2053      2058      2366
 -1      1177    3    0    1
 -2      1079      1727      2158      2210
 -1      1178    3    0    1
 -2      1810      1872      1926      2037
 -1      1179    3    0    1
 -2       601       111       602      1232
 -1      1180    3    0    1
 -2      1606      1534      1952      1957
 -1      1181    3    0    1
 -2       651      1612      2251      2782
 -1      1182    3    0    1
 -2       534       526       536       940
 -1      1183    3    0    1
 -2      2079      2567      2608      2796
 -1      1184    3    0    1
 -2       375         1      3086      2990
 -1      1185    3    0    1
 -2      1742      1554      1781      1972
 -1      1186    3    0    1
 -2      1966      1616      2089      2362
 -1      1187    3    0    1
 -2      1974      1071      2133      2482
 -1      1188    3    0    1
 -2      2267      1913      2333      2710
 -1      1189    3    0    1
 -2       294      1102      1354      1672
 -1      1190    3    0    1
 -2       718       724       730      1040
 -1      1191    3    0    1
 -2      2226      1751      2279      2408
 -1      1192    3    0    1
 -2      1563      1564      1598      1673
 -1      1193    3    0    1
 -2       552       955       567       547
 -1      1194    3    0    1
 -2       252      2275      2510      2562
 -1      1195    3    0    1
 -2       729       733      1037      1044
 -1      1196    3    0    1
 -2      1752      2130      2445      2739
 -1      1197    3    0    1
 -2      1531      1639      1730      2206
 -1      1198    3    0    1
 -2       175       168       677      1011
 -1      1199    3    0    1
 -2      1707      1803      2025      2138
 -1      1200    3    0    1
 -2      1641      1822      2067      2114
 -1      1201    3    0    1
 -2      1389      1380      1649      2232
 -1      1202    3    0    1
 -2       532        56       537      1197
 -1      1203    3    0    1
 -2      2941      2914      3090      2993
 -1      1204    3    0    1
 -2      1248       986       632      1246
 -1      1205    3    0    1
 -2      1563      1564      1787      1835
 -1      1206    3    0    1
 -2      1583      2134      2274      2331
 -1      1207    3    0    1
 -2       624       990       986       623
 -1      1208    3    0    1
 -2       660       653      1008      1256
 -1      1209    3    0    1
 -2      1440      1428      1482      3048
 -1      1210    3    0    1
 -2      1423      1015      2981      3007
 -1      1211    3    0    1
 -2       178       173       681      1014
 -1      1212    3    0    1
 -2      2306       931      2729      2862
 -1      1213    3    0    1
 -2       191       697      1028      1032
 -1      1214    3    0    1
 -2      2966      1315      3006      3033
 -1      1215    3    0    1
 -2       606      1238       976      2616
 -1      1216    3    0    1
 -2       400      1853      2059      2577
 -1      1217    3    0    1
 -2       295      1099      1342      1890
 -1      1218    3    0    1
 -2       815      1091       819       826
 -1      1219    3    0    1
 -2       286       829       288      1332
 -1      1220    3    0    1
 -2       754      1305      1712      1873
 -1      1221    3    0    1
 -2       658      1749      1777      1861
 -1      1222    3    0    1
 -2      2850      1433      2911      3121
 -1      1223    3    0    1
 -2       297      1348      1862      1909
 -1      1224    3    0    1
 -2      2374       356      2426      2542
 -1      1225    3    0    1
 -2       491       488      1174      1182
 -1      1226    3    0    1
 -2       960       583        96       581
 -1      1227    3    0    1
 -2      1261      1001      1612      2007
 -1      1228    3    0    1
 -2      1628      1599      1720      2134
 -1      1229    3    0    1
 -2       395      1102      1672      2502
 -1      1230    3    0    1
 -2      1977      2370      2378      2379
 -1      1231    3    0    1
 -2      2939      2091      1453      3130
 -1      1232    3    0    1
 -2      1429      1430      2933      3075
 -1      1233    3    0    1
 -2       507       499       514       927
 -1      1234    3    0    1
 -2      1440      1413      3128      3048
 -1      1235    3    0    1
 -2      1701      1768      1950      1960
 -1      1236    3    0    1
 -2       837      1347       838      2015
 -1      1237    3    0    1
 -2       824       278       827      1333
 -1      1238    3    0    1
 -2      1620       333      1734      1789
 -1      1239    3    0    1
 -2       976      1238      3035      3036
 -1      1240    3    0    1
 -2       394      1605      2233      2363
 -1      1241    3    0    1
 -2       190       187       699      1275
 -1      1242    3    0    1
 -2       749       234       756      1060
 -1      1243    3    0    1
 -2      2278      2035      2608      2796
 -1      1244    3    0    1
 -2       854      1387      1369      1741
 -1      1245    3    0    1
 -2       159      1261      1883      2007
 -1      1246    3    0    1
 -2      1554      1655      1840      1972
 -1      1247    3    0    1
 -2       197       417       699      1029
 -1      1248    3    0    1
 -2       369       267       797      1325
 -1      1249    3    0    1
 -2       588       106       347       969
 -1      1250    3    0    1
 -2       986      1248       632       990
 -1      1251    3    0    1
 -2      2222      1250      2827      2829
 -1      1252    3    0    1
 -2      1664      1714      1754      1961
 -1      1253    3    0    1
 -2      1391      1382      1888      2088
 -1      1254    3    0    1
 -2       132       637       144       984
 -1      1255    3    0    1
 -2      2541      2373      2698      2886
 -1      1256    3    0    1
 -2       747      1300      1050       227
 -1      1257    3    0    1
 -2        77      1213      1576      2467
 -1      1258    3    0    1
 -2      1054      1304      3027      3064
 -1      1259    3    0    1
 -2      2914      2887      1464      3105
 -1      1260    3    0    1
 -2       175       677      1010      1262
 -1      1261    3    0    1
 -2      1054      1304      3026      3027
 -1      1262    3    0    1
 -2       610      1993      2450      2848
 -1      1263    3    0    1
 -2      1654      1634      2189      2734
 -1      1264    3    0    1
 -2       321      1006      1975      2100
 -1      1265    3    0    1
 -2       185      1024       704       200
 -1      1266    3    0    1
 -2      2883      2931      3084      2986
 -1      1267    3    0    1
 -2      1891       393      2113      2480
 -1      1268    3    0    1
 -2       297       318      1909      2321
 -1      1269    3    0    1
 -2       206       205       728      1284
 -1      1270    3    0    1
 -2      1803      1671      1852      2334
 -1      1271    3    0    1
 -2       776       245       773      1063
 -1      1272    3    0    1
 -2      1168       471      1549      2596
 -1      1273    3    0    1
 -2      1955      1562      1964      2054
 -1      1274    3    0    1
 -2       763       783       784      1072
 -1      1275    3    0    1
 -2      1178        24      2655      2826
 -1      1276    3    0    1
 -2       218       729      1037      1290
 -1      1277    3    0    1
 -2       606       631      2323      2616
 -1      1278    3    0    1
 -2       930       520      2345      2803
 -1      1279    3    0    1
 -2      1784       380      2324      2479
 -1      1280    3    0    1
 -2       471       472       908      1817
 -1      1281    3    0    1
 -2      1215       558       560      1659
 -1      1282    3    0    1
 -2      1040      1970      2488      2661
 -1      1283    3    0    1
 -2       907       471       908      1817
 -1      1284    3    0    1
 -2       950      1790      1904      1937
 -1      1285    3    0    1
 -2       776      1061       245      1064
 -1      1286    3    0    1
 -2       126       980      2703      2718
 -1      1287    3    0    1
 -2      1993       610      2243      2265
 -1      1288    3    0    1
 -2      1131      1388      1631      1728
 -1      1289    3    0    1
 -2      1862       297      1909      2321
 -1      1290    3    0    1
 -2      2022      1834      2176      2367
 -1      1291    3    0    1
 -2       505       378       927      1191
 -1      1292    3    0    1
 -2       633       637       984       993
 -1      1293    3    0    1
 -2      1665      1107      1787      1835
 -1      1294    3    0    1
 -2       648      1259       647       654
 -1      1295    3    0    1
 -2       384        83       556       956
 -1      1296    3    0    1
 -2      1702      2168      2253      2621
 -1      1297    3    0    1
 -2      1586      1822      1886      1924
 -1      1298    3    0    1
 -2       632       635       992      1243
 -1      1299    3    0    1
 -2       472       908      1963      2215
 -1      1300    3    0    1
 -2        81        80      2991      2992
 -1      1301    3    0    1
 -2      3040      1166      3061       904
 -1      1302    3    0    1
 -2       711       693       712      1036
 -1      1303    3    0    1
 -2       595      1231       975      1230
 -1      1304    3    0    1
 -2      1922      1886      1924      2052
 -1      1305    3    0    1
 -2       273       404      1083      2581
 -1      1306    3    0    1
 -2       531       524       538       941
 -1      1307    3    0    1
 -2       831       808      2111      2255
 -1      1308    3    0    1
 -2      1039      1295      1046       715
 -1      1309    3    0    1
 -2      1815       380      1949      2481
 -1      1310    3    0    1
 -2      1148      1890      1967      1994
 -1      1311    3    0    1
 -2       108      1678      2140      2468
 -1      1312    3    0    1
 -2       937       525      1196      1198
 -1      1313    3    0    1
 -2       380       529       937       941
 -1      1314    3    0    1
 -2       613       113       609       970
 -1      1315    3    0    1
 -2       583       960        96      1217
 -1      1316    3    0    1
 -2       152      1253      1252       652
 -1      1317    3    0    1
 -2       159       652       657      1261
 -1      1318    3    0    1
 -2      1093      1879      2171      2214
 -1      1319    3    0    1
 -2       832       813      1096      1097
 -1      1320    3    0    1
 -2      3059      1002       655      1260
 -1      1321    3    0    1
 -2       591       592       968      1953
 -1      1322    3    0    1
 -2       835      1345      1100      1931
 -1      1323    3    0    1
 -2      1686      1557      1715      1818
 -1      1324    3    0    1
 -2      1057      1301       749      1296
 -1      1325    3    0    1
 -2       676       681      1014      1266
 -1      1326    3    0    1
 -2      2963       665      1497      3007
 -1      1327    3    0    1
 -2       620       619       991      1240
 -1      1328    3    0    1
 -2       676       686      1020      1265
 -1      1329    3    0    1
 -2      1672       395      2038      2132
 -1      1330    3    0    1
 -2      1858      1936      2010      2155
 -1      1331    3    0    1
 -2       708       185       701      1274
 -1      1332    3    0    1
 -2      1096       832      1097      2343
 -1      1333    3    0    1
 -2      1347      1346      1899      2015
 -1      1334    3    0    1
 -2      1768      1929      1960      2268
 -1      1335    3    0    1
 -2       550       952       560       558
 -1      1336    3    0    1
 -2      2105       136      2146      2180
 -1      1337    3    0    1
 -2      2014       562      2269      2761
 -1      1338    3    0    1
 -2       264       259       800      1075
 -1      1339    3    0    1
 -2        57       532       933      1197
 -1      1340    3    0    1
 -2       333      1620      2460      2715
 -1      1341    3    0    1
 -2      1680      1747      2333      2433
 -1      1342    3    0    1
 -2       769       238       770      1309
 -1      1343    3    0    1
 -2      1781      1554      1784      1840
 -1      1344    3    0    1
 -2      1539      1755      2066      2437
 -1      1345    3    0    1
 -2       509        41       511       926
 -1      1346    3    0    1
 -2      1539      1553      1773      2066
 -1      1347    3    0    1
 -2      2179       991      2200      2201
 -1      1348    3    0    1
 -2      1187       508       929       920
 -1      1349    3    0    1
 -2      1516      1474      3032      3056
 -1      1350    3    0    1
 -2       460       470       908      1159
 -1      1351    3    0    1
 -2       553      1209       953      1206
 -1      1352    3    0    1
 -2        20       481      1169      1172
 -1      1353    3    0    1
 -2       432      1346      1875      1899
 -1      1354    3    0    1
 -2      1753       855      1764      2068
 -1      1355    3    0    1
 -2      1367       399       439      1835
 -1      1356    3    0    1
 -2       244       407       777      1071
 -1      1357    3    0    1
 -2        34        37       484       913
 -1      1358    3    0    1
 -2       465       460       907      1160
 -1      1359    3    0    1
 -2       350       365       749      1060
 -1      1360    3    0    1
 -2       723       734      1045      1290
 -1      1361    3    0    1
 -2      1048       740      3026      3027
 -1      1362    3    0    1
 -2      1004      1618      1749      1861
 -1      1363    3    0    1
 -2       461       468       900       909
 -1      1364    3    0    1
 -2       940      2137      2317      2609
 -1      1365    3    0    1
 -2      1767      1561      1830      2404
 -1      1366    3    0    1
 -2       456       906       466       455
 -1      1367    3    0    1
 -2       461      1161       900         6
 -1      1368    3    0    1
 -2      2148      2104      2448      2462
 -1      1369    3    0    1
 -2       502       930       920       501
 -1      1370    3    0    1
 -2      2916      2917      3069      2996
 -1      1371    3    0    1
 -2      1653      2028      2563      2568
 -1      1372    3    0    1
 -2      1156      1716      1811      1915
 -1      1373    3    0    1
 -2      1564      1665      1787      1835
 -1      1374    3    0    1
 -2       795       791       802      1082
 -1      1375    3    0    1
 -2      1437      1411      3027      3064
 -1      1376    3    0    1
 -2      1027       695      1028      1032
 -1      1377    3    0    1
 -2      2246      1587      2382      2393
 -1      1378    3    0    1
 -2      1733      1599      1818      2004
 -1      1379    3    0    1
 -2       916       490      2153      2855
 -1      1380    3    0    1
 -2       595      1232      1229       974
 -1      1381    3    0    1
 -2       407       253      1071      2646
 -1      1382    3    0    1
 -2      1998      1608      2152      2259
 -1      1383    3    0    1
 -2       383       938      1637      1973
 -1      1384    3    0    1
 -2       612       605       982      1234
 -1      1385    3    0    1
 -2      3018      1410      1180      1425
 -1      1386    3    0    1
 -2      1841      1587      2246      2401
 -1      1387    3    0    1
 -2      1913       852      2267      2288
 -1      1388    3    0    1
 -2       868      1393       881      2739
 -1      1389    3    0    1
 -2      1535      2189      2240      2421
 -1      1390    3    0    1
 -2       139       628       633      1250
 -1      1391    3    0    1
 -2      2628      2588      2650      2743
 -1      1392    3    0    1
 -2      1122       442      1407      2183
 -1      1393    3    0    1
 -2      1659       951      1476      3117
 -1      1394    3    0    1
 -2      1164       906       459      2058
 -1      1395    3    0    1
 -2       409      1059      1974      2005
 -1      1396    3    0    1
 -2      2263       371      2570      2635
 -1      1397    3    0    1
 -2       699       710      1035      1275
 -1      1398    3    0    1
 -2       765      1316      1310       764
 -1      1399    3    0    1
 -2      1587      1701      2382      2532
 -1      1400    3    0    1
 -2      1721      1566      1820      1898
 -1      1401    3    0    1
 -2      1369      1387      1623      1741
 -1      1402    3    0    1
 -2      1158         3      3040      3060
 -1      1403    3    0    1
 -2      1586      1703      1744      1924
 -1      1404    3    0    1
 -2      2277       323      2298      2305
 -1      1405    3    0    1
 -2      1684      1578      1902      2102
 -1      1406    3    0    1
 -2      2168      1702      2253      2672
 -1      1407    3    0    1
 -2      1631      1649      1728      2209
 -1      1408    3    0    1
 -2       468        12       420       909
 -1      1409    3    0    1
 -2       904      1426      3070      2999
 -1      1410    3    0    1
 -2      1165       462      2029      2402
 -1      1411    3    0    1
 -2      1051       742      1052      1056
 -1      1412    3    0    1
 -2      2270       819      2319      2522
 -1      1413    3    0    1
 -2      1703      1586      1749      1777
 -1      1414    3    0    1
 -2       393      1891      2113      2363
 -1      1415    3    0    1
 -2       150      1256       653       154
 -1      1416    3    0    1
 -2       850       888      1839      2047
 -1      1417    3    0    1
 -2      1238       606       976      3035
 -1      1418    3    0    1
 -2       150       653       656       998
 -1      1419    3    0    1
 -2       677       168       680      1011
 -1      1420    3    0    1
 -2       681       685      1012      1019
 -1      1421    3    0    1
 -2       424        66      2729      2862
 -1      1422    3    0    1
 -2      1913      1687      2267      2389
 -1      1423    3    0    1
 -2       179      1021      2605      2781
 -1      1424    3    0    1
 -2      1438      1445      1449      3005
 -1      1425    3    0    1
 -2       408       415      1711      1754
 -1      1426    3    0    1
 -2       993       640       994      1860
 -1      1427    3    0    1
 -2      1453       364      1483      1504
 -1      1428    3    0    1
 -2       860       894      1677      2118
 -1      1429    3    0    1
 -2      1542      2038      2502      2564
 -1      1430    3    0    1
 -2       154       660       162      1256
 -1      1431    3    0    1
 -2       546      1469      2992      3038
 -1      1432    3    0    1
 -2      1066       244      2365      2483
 -1      1433    3    0    1
 -2       657       661       996      1006
 -1      1434    3    0    1
 -2      1028      2535      2624      2818
 -1      1435    3    0    1
 -2      1735      1841      2246      2401
 -1      1436    3    0    1
 -2      1098       832       831      2375
 -1      1437    3    0    1
 -2      3001       655      1002       654
 -1      1438    3    0    1
 -2      1610      1642      1700      2254
 -1      1439    3    0    1
 -2      1104      1357      1793      2040
 -1      1440    3    0    1
 -2      1538      1677      1722      2118
 -1      1441    3    0    1
 -2       697      1027      1028      1032
 -1      1442    3    0    1
 -2       629       992       138       995
 -1      1443    3    0    1
 -2       670      1018      1011       669
 -1      1444    3    0    1
 -2      1433      2850      2911      3104
 -1      1445    3    0    1
 -2       169       180       681      1266
 -1      1446    3    0    1
 -2       652       159       657      1006
 -1      1447    3    0    1
 -2       699       197      1034      1035
 -1      1448    3    0    1
 -2      1869      2144      2392      2690
 -1      1449    3    0    1
 -2       670      1018       669       687
 -1      1450    3    0    1
 -2      1577      2409      2452      2539
 -1      1451    3    0    1
 -2       656       659      1005      1255
 -1      1452    3    0    1
 -2      1018      1011       669      1021
 -1      1453    3    0    1
 -2       672      1272      1268       671
 -1      1454    3    0    1
 -2       380      1784      1949      2481
 -1      1455    3    0    1
 -2       670      1012      1020      1265
 -1      1456    3    0    1
 -2      1931       835      2062      2579
 -1      1457    3    0    1
 -2      1706      1896      2454      2500
 -1      1458    3    0    1
 -2       848      1642      1700      1746
 -1      1459    3    0    1
 -2       699       188       705      1278
 -1      1460    3    0    1
 -2      2973        28      2974      3017
 -1      1461    3    0    1
 -2      1269      1013       674      1267
 -1      1462    3    0    1
 -2       185       708       186      1274
 -1      1463    3    0    1
 -2      2144       396      2386      2690
 -1      1464    3    0    1
 -2      2966      1062      2985      3006
 -1      1465    3    0    1
 -2       674       328       673      1017
 -1      1466    3    0    1
 -2       410       358       747      1059
 -1      1467    3    0    1
 -2       415      1711      1754      1855
 -1      1468    3    0    1
 -2      1012       676      1020      1265
 -1      1469    3    0    1
 -2       982       616      1864      2578
 -1      1470    3    0    1
 -2      1531      1622      1636      2206
 -1      1471    3    0    1
 -2       399      1150      1787      1835
 -1      1472    3    0    1
 -2      1013      1269       674      1017
 -1      1473    3    0    1
 -2      1418      3012       951      1476
 -1      1474    3    0    1
 -2       101      3085      1468      3107
 -1      1475    3    0    1
 -2       159       161       652      1001
 -1      1476    3    0    1
 -2       711       712      1035      2738
 -1      1477    3    0    1
 -2      1010      1270       677      1016
 -1      1478    3    0    1
 -2       799       798      1326      2971
 -1      1479    3    0    1
 -2       687       669       688      1018
 -1      1480    3    0    1
 -2       851      1150      1367      1624
 -1      1481    3    0    1
 -2       735       712      1295      2572
 -1      1482    3    0    1
 -2       342       355       653      1008
 -1      1483    3    0    1
 -2       171       674       673      1013
 -1      1484    3    0    1
 -2      1886      2149      2211      2619
 -1      1485    3    0    1
 -2      1677       860      2118      2282
 -1      1486    3    0    1
 -2      1781      1667      1840      1949
 -1      1487    3    0    1
 -2       180       169       681      1012
 -1      1488    3    0    1
 -2       736      1045      2548      2852
 -1      1489    3    0    1
 -2       658      1612      1861      2007
 -1      1490    3    0    1
 -2       166      1009      2962      2963
 -1      1491    3    0    1
 -2       204      1283      1285      2948
 -1      1492    3    0    1
 -2       669       670       687      1020
 -1      1493    3    0    1
 -2      1998      1608      2259      2295
 -1      1494    3    0    1
 -2       676       173       681      1019
 -1      1495    3    0    1
 -2      1948       964      2049      2309
 -1      1496    3    0    1
 -2       169       676      1012      1265
 -1      1497    3    0    1
 -2       692      1031       691      1024
 -1      1498    3    0    1
 -2       735       715       736      1046
 -1      1499    3    0    1
 -2      1448      1439      1450      2981
 -1      1500    3    0    1
 -2      1873      1646      2376      2438
 -1      1501    3    0    1
 -2       993       622       984       994
 -1      1502    3    0    1
 -2      1583      1759      1892      2141
 -1      1503    3    0    1
 -2       696      1281      1278       695
 -1      1504    3    0    1
 -2      2006      1020      2751      2530
 -1      1505    3    0    1
 -2      1038      1292      1042       716
 -1      1506    3    0    1
 -2       700       695       706      1032
 -1      1507    3    0    1
 -2       707       704      1025      1033
 -1      1508    3    0    1
 -2       697       698      1028      1277
 -1      1509    3    0    1
 -2      1027       697      1028      1277
 -1      1510    3    0    1
 -2      1896      1706      2454      2455
 -1      1511    3    0    1
 -2       669       688      1018      1021
 -1      1512    3    0    1
 -2       206       728      1038      1284
 -1      1513    3    0    1
 -2      2612      1588      2633      2811
 -1      1514    3    0    1
 -2      1628      1644      1693      1720
 -1      1515    3    0    1
 -2      1622      1531      1739      2157
 -1      1516    3    0    1
 -2      1857       840      1868      1959
 -1      1517    3    0    1
 -2       190       188       699      1276
 -1      1518    3    0    1
 -2      2010      1750      2161      2183
 -1      1519    3    0    1
 -2      1038      1292       728      1042
 -1      1520    3    0    1
 -2       197       699       705      1281
 -1      1521    3    0    1
 -2       207       218       729      1289
 -1      1522    3    0    1
 -2        31      1962      1761      2492
 -1      1523    3    0    1
 -2       692      1031       703       691
 -1      1524    3    0    1
 -2       693      1026      1035      1275
 -1      1525    3    0    1
 -2      2240      2490      2734      2770
 -1      1526    3    0    1
 -2       718       719       730      1043
 -1      1527    3    0    1
 -2      1448      3073      1471      3102
 -1      1528    3    0    1
 -2       725       205       728      1039
 -1      1529    3    0    1
 -2       694      1034       711       693
 -1      1530    3    0    1
 -2      3067      1845      3091      2977
 -1      1531    3    0    1
 -2      1024       701       704      1031
 -1      1532    3    0    1
 -2      2028      1653      2563      2668
 -1      1533    3    0    1
 -2       699       187       710      1275
 -1      1534    3    0    1
 -2       704       185       200      1025
 -1      1535    3    0    1
 -2      1909      2027      2321      2408
 -1      1536    3    0    1
 -2      1030      1280      2975      2976
 -1      1537    3    0    1
 -2      2104      1988      2448      2462
 -1      1538    3    0    1
 -2       353       201       704      1033
 -1      1539    3    0    1
 -2       720      1044      1037       715
 -1      1540    3    0    1
 -2       695      1027      1028      1277
 -1      1541    3    0    1
 -2       392      1737      2129      2754
 -1      1542    3    0    1
 -2        17       907       908      1817
 -1      1543    3    0    1
 -2       439       399      1787      1835
 -1      1544    3    0    1
 -2      1117      1385      2279      2308
 -1      1545    3    0    1
 -2      1573      2098      2149      2159
 -1      1546    3    0    1
 -2       253       407      2471      2646
 -1      1547    3    0    1
 -2       704       701      1025      1033
 -1      1548    3    0    1
 -2      1803      1707      1852      2138
 -1      1549    3    0    1
 -2       775      1315      2390      2726
 -1      1550    3    0    1
 -2       188       699       705      1026
 -1      1551    3    0    1
 -2      1715      1751      2226      2408
 -1      1552    3    0    1
 -2       196       192       697      1027
 -1      1553    3    0    1
 -2       224      1301      1296       749
 -1      1554    3    0    1
 -2      1843      1969      2237      2742
 -1      1555    3    0    1
 -2       205       206       728      1039
 -1      1556    3    0    1
 -2      1415       976      3014      3036
 -1      1557    3    0    1
 -2      1044       720      1037      1045
 -1      1558    3    0    1
 -2       699       705      1026      1034
 -1      1559    3    0    1
 -2       693       711       712      1035
 -1      1560    3    0    1
 -2       699       197       705      1034
 -1      1561    3    0    1
 -2      2119       730      2221      2551
 -1      1562    3    0    1
 -2       718       719      1043      1286
 -1      1563    3    0    1
 -2      1560      1930      2071      2768
 -1      1564    3    0    1
 -2       992       629       138       632
 -1      1565    3    0    1
 -2       719      1294      1040       730
 -1      1566    3    0    1
 -2       751      1055      1292      1796
 -1      1567    3    0    1
 -2      1033      1025       693      1036
 -1      1568    3    0    1
 -2      2900      3077      3079      1440
 -1      1569    3    0    1
 -2      1523      1831      1851      1932
 -1      1570    3    0    1
 -2       471      1817      1912      2359
 -1      1571    3    0    1
 -2       669       687       688      1020
 -1      1572    3    0    1
 -2      2498      2099      2585      2774
 -1      1573    3    0    1
 -2      2909      1659      1476      3117
 -1      1574    3    0    1
 -2      1603      1558      1719      1838
 -1      1575    3    0    1
 -2      1200        54      3003      3043
 -1      1576    3    0    1
 -2       795      1079      2011      2516
 -1      1577    3    0    1
 -2       725       732      1039      1046
 -1      1578    3    0    1
 -2      1568      1585      1649      1705
 -1      1579    3    0    1
 -2      1018       687      2485      2533
 -1      1580    3    0    1
 -2       743      1305      1300       742
 -1      1581    3    0    1
 -2       914      1193      2499      1409
 -1      1582    3    0    1
 -2      1513       809      3021      3052
 -1      1583    3    0    1
 -2       417       197       699      1035
 -1      1584    3    0    1
 -2      1501      1455      1518      3047
 -1      1585    3    0    1
 -2      1030      1280      1438      3109
 -1      1586    3    0    1
 -2      1433      1434      3104      1505
 -1      1587    3    0    1
 -2      1622      1531      1717      2512
 -1      1588    3    0    1
 -2      1834      1561      2074      2403
 -1      1589    3    0    1
 -2      1279      1882      2584      2589
 -1      1590    3    0    1
 -2      1081      2185      2447      2543
 -1      1591    3    0    1
 -2       205       725       728      1284
 -1      1592    3    0    1
 -2       896      1750      2161      2722
 -1      1593    3    0    1
 -2      1878      1971      2217      2614
 -1      1594    3    0    1
 -2       106       588       581       969
 -1      1595    3    0    1
 -2       755       224       231      1296
 -1      1596    3    0    1
 -2       246      1625      2026      2057
 -1      1597    3    0    1
 -2       320       139       628       994
 -1      1598    3    0    1
 -2      1719      1917      1918      2336
 -1      1599    3    0    1
 -2      1858      1546      2010      2183
 -1      1600    3    0    1
 -2       807       789      1083      1084
 -1      1601    3    0    1
 -2       235       227       753      1047
 -1      1602    3    0    1
 -2      1338      1092      1429      3052
 -1      1603    3    0    1
 -2      2364      1968      2877      2912
 -1      1604    3    0    1
 -2      2333      1794      2433      2710
 -1      1605    3    0    1
 -2       720      1044       736      1045
 -1      1606    3    0    1
 -2       723       334       729      1045
 -1      1607    3    0    1
 -2       224       755       752      1296
 -1      1608    3    0    1
 -2      1057      1301      1296       739
 -1      1609    3    0    1
 -2      2038      1580      2132      2292
 -1      1610    3    0    1
 -2      1473      1434      3119      3066
 -1      1611    3    0    1
 -2      1051       746      1052      1299
 -1      1612    3    0    1
 -2      1238      2920      3082      2950
 -1      1613    3    0    1
 -2      2371      1041      1411      1412
 -1      1614    3    0    1
 -2       228       746      1051      1299
 -1      1615    3    0    1
 -2      2167       272      2623      2793
 -1      1616    3    0    1
 -2      1049      1303      1055       740
 -1      1617    3    0    1
 -2       239       771       777      1065
 -1      1618    3    0    1
 -2       751      1041      1304      1796
 -1      1619    3    0    1
 -2       483      2073      2217      2614
 -1      1620    3    0    1
 -2      1578      1593      1842      1927
 -1      1621    3    0    1
 -2       655       647       654      3001
 -1      1622    3    0    1
 -2       243       239       771      1307
 -1      1623    3    0    1
 -2       358       410       747      1053
 -1      1624    3    0    1
 -2      2620      2563      2610      2722
 -1      1625    3    0    1
 -2      1564      1563      1996      2372
 -1      1626    3    0    1
 -2       961      2170      2223      2449
 -1      1627    3    0    1
 -2      1629       945      2312      2695
 -1      1628    3    0    1
 -2       758       227       236      1302
 -1      1629    3    0    1
 -2      1351      1350      1857      1868
 -1      1630    3    0    1
 -2      1096       825      1097      1331
 -1      1631    3    0    1
 -2      1303      1049       749      1297
 -1      1632    3    0    1
 -2      1794      1353      2433      2710
 -1      1633    3    0    1
 -2       528       945       932       523
 -1      1634    3    0    1
 -2       350       749      1057      1060
 -1      1635    3    0    1
 -2      1085       807      1328      2760
 -1      1636    3    0    1
 -2       756       229       749      1301
 -1      1637    3    0    1
 -2       770      1069      1308      1313
 -1      1638    3    0    1
 -2       743      1056       754       742
 -1      1639    3    0    1
 -2       760      2740      2845      2856
 -1      1640    3    0    1
 -2       230       228       745      1051
 -1      1641    3    0    1
 -2      1095       367      1098      2375
 -1      1642    3    0    1
 -2      1396      1126      1706      1896
 -1      1643    3    0    1
 -2       777      1066      1310      1316
 -1      1644    3    0    1
 -2       358       747       753      1305
 -1      1645    3    0    1
 -2      1141      1844      1944      1979
 -1      1646    3    0    1
 -2       592       969      1965      2630
 -1      1647    3    0    1
 -2       580       958       959       968
 -1      1648    3    0    1
 -2       327      1141      1944      1979
 -1      1649    3    0    1
 -2      3051      3027      3064      3065
 -1      1650    3    0    1
 -2       556        83       950      1216
 -1      1651    3    0    1
 -2      2922      2930      3084      1454
 -1      1652    3    0    1
 -2      2478      1725      2786      2853
 -1      1653    3    0    1
 -2       860       894      1155      1677
 -1      1654    3    0    1
 -2      2223      2264      2602      2789
 -1      1655    3    0    1
 -2      1304      3026      3027      3064
 -1      1656    3    0    1
 -2      1398       864      1125      1788
 -1      1657    3    0    1
 -2       747       358      1058      1059
 -1      1658    3    0    1
 -2       813      1096      1097      1331
 -1      1659    3    0    1
 -2       747       358       753      1058
 -1      1660    3    0    1
 -2      1141       309      1378      1979
 -1      1661    3    0    1
 -2       365       234       749      1060
 -1      1662    3    0    1
 -2       245       780       251      1061
 -1      1663    3    0    1
 -2       780       252       255      1073
 -1      1664    3    0    1
 -2       771       244       777      1071
 -1      1665    3    0    1
 -2       562      1763      2269      2761
 -1      1666    3    0    1
 -2      1824      1652      2246      2513
 -1      1667    3    0    1
 -2       819       815       826      1094
 -1      1668    3    0    1
 -2      1454      1427      3126      3054
 -1      1669    3    0    1
 -2       239       781       242      1065
 -1      1670    3    0    1
 -2      1144       315      1134      2825
 -1      1671    3    0    1
 -2      1857      1532      2704      2720
 -1      1672    3    0    1
 -2       239       243       771      1065
 -1      1673    3    0    1
 -2       663      1005      1008      1776
 -1      1674    3    0    1
 -2       359      1455      3124      3125
 -1      1675    3    0    1
 -2      1313       765      1069      1308
 -1      1676    3    0    1
 -2       773       252      1068      1314
 -1      1677    3    0    1
 -2       771       777      1066      1307
 -1      1678    3    0    1
 -2      1314      1063       773      1311
 -1      1679    3    0    1
 -2      1545      1931      2061      2101
 -1      1680    3    0    1
 -2      1881      1885      1914      2178
 -1      1681    3    0    1
 -2      1481      1454      1520      3054
 -1      1682    3    0    1
 -2      1699       854      2196      2257
 -1      1683    3    0    1
 -2      1572      1760      2172      2196
 -1      1684    3    0    1
 -2       540        63       533       932
 -1      1685    3    0    1
 -2       768      1070      1064       763
 -1      1686    3    0    1
 -2      1530      1851      1932      1952
 -1      1687    3    0    1
 -2       821       367       824      1337
 -1      1688    3    0    1
 -2       566        72        91      1205
 -1      1689    3    0    1
 -2      1454      3099      3101      3008
 -1      1690    3    0    1
 -2       789      1085       808       807
 -1      1691    3    0    1
 -2      1063      1314       773      1068
 -1      1692    3    0    1
 -2      1941       328      1950      2202
 -1      1693    3    0    1
 -2      2995      1200      3003      3043
 -1      1694    3    0    1
 -2      1336      1954      2327      2559
 -1      1695    3    0    1
 -2      1075      1325      1081       787
 -1      1696    3    0    1
 -2      2709      2908      2916      3072
 -1      1697    3    0    1
 -2       779       776      1064      1070
 -1      1698    3    0    1
 -2      1566      1820      1889      2154
 -1      1699    3    0    1
 -2       244       771       777      1066
 -1      1700    3    0    1
 -2       796       273      1083      1084
 -1      1701    3    0    1
 -2       780       245       773      1061
 -1      1702    3    0    1
 -2        56       532       537      1195
 -1      1703    3    0    1
 -2      1729      1767      2404      2700
 -1      1704    3    0    1
 -2      1844      1694      1944      1979
 -1      1705    3    0    1
 -2      1559      1642      1700      2136
 -1      1706    3    0    1
 -2      1779      1607      2086      2106
 -1      1707    3    0    1
 -2      3073      1424      1471      1472
 -1      1708    3    0    1
 -2       788      1081       799       787
 -1      1709    3    0    1
 -2      1180      2973      3037      3017
 -1      1710    3    0    1
 -2      1841      1941      2202      2771
 -1      1711    3    0    1
 -2      1606      1534      1739      2157
 -1      1712    3    0    1
 -2       509        41       926      1192
 -1      1713    3    0    1
 -2       763       768       783      1072
 -1      1714    3    0    1
 -2      1413      1440      1458      3024
 -1      1715    3    0    1
 -2      1661      1951      2186      2420
 -1      1716    3    0    1
 -2       793       261      1082      1324
 -1      1717    3    0    1
 -2      1627      1759      1862      2441
 -1      1718    3    0    1
 -2      1863       538      1997      2030
 -1      1719    3    0    1
 -2       803       264       274      1321
 -1      1720    3    0    1
 -2      1053       748      1685      1991
 -1      1721    3    0    1
 -2       458        10       398       906
 -1      1722    3    0    1
 -2       818       279       817      1334
 -1      1723    3    0    1
 -2      1324      1078       793      1322
 -1      1724    3    0    1
 -2      1750      2010      2161      2610
 -1      1725    3    0    1
 -2      1707       246      1803      1852
 -1      1726    3    0    1
 -2       796      1323       258       801
 -1      1727    3    0    1
 -2        87        88       557       946
 -1      1728    3    0    1
 -2       824       827      1095      1333
 -1      1729    3    0    1
 -2        36        37       918      2552
 -1      1730    3    0    1
 -2       815      1336      1094       819
 -1      1731    3    0    1
 -2       814      1098      1088       813
 -1      1732    3    0    1
 -2       797       800      1075      1081
 -1      1733    3    0    1
 -2       797      1321      1076       259
 -1      1734    3    0    1
 -2      1554      1638      1758      1781
 -1      1735    3    0    1
 -2       258      1323       266       801
 -1      1736    3    0    1
 -2       797      1321       259       800
 -1      1737    3    0    1
 -2       893      1723      1799      1821
 -1      1738    3    0    1
 -2       260       793       794      1078
 -1      1739    3    0    1
 -2       277       821       824      1329
 -1      1740    3    0    1
 -2       792      1082       802       791
 -1      1741    3    0    1
 -2      1706      1694      1896      1979
 -1      1742    3    0    1
 -2        56       537       936      1195
 -1      1743    3    0    1
 -2       789       790       807      1083
 -1      1744    3    0    1
 -2       368      3101      2997      3008
 -1      1745    3    0    1
 -2      1165        12      2009      2399
 -1      1746    3    0    1
 -2      2671      2355      2717      2721
 -1      1747    3    0    1
 -2       796       273       801      1083
 -1      1748    3    0    1
 -2       273       404       801      1083
 -1      1749    3    0    1
 -2       156      1735      2246      2513
 -1      1750    3    0    1
 -2       820       287       825      1097
 -1      1751    3    0    1
 -2      1078      1324      1082       791
 -1      1752    3    0    1
 -2       829       825      1096      1332
 -1      1753    3    0    1
 -2       173      1014      1574      2203
 -1      1754    3    0    1
 -2       812      1093       823       811
 -1      1755    3    0    1
 -2       796      1323      1077       258
 -1      1756    3    0    1
 -2      1659       951      2909      1476
 -1      1757    3    0    1
 -2       258      1320       801       266
 -1      1758    3    0    1
 -2       789       807       808      1084
 -1      1759    3    0    1
 -2       285       277       824      1329
 -1      1760    3    0    1
 -2       878      1775      1785      2329
 -1      1761    3    0    1
 -2       821      1088      1095      1098
 -1      1762    3    0    1
 -2      1646      1056      1982      2227
 -1      1763    3    0    1
 -2      2724      3078      1477      2977
 -1      1764    3    0    1
 -2      1574       173      2435      2783
 -1      1765    3    0    1
 -2       460        17       903      1167
 -1      1766    3    0    1
 -2       142       994      1934      2032
 -1      1767    3    0    1
 -2       308      1360      1717      1743
 -1      1768    3    0    1
 -2       754      1646      1982      2376
 -1      1769    3    0    1
 -2      1088       824      1095      1333
 -1      1770    3    0    1
 -2       279       818       280      1334
 -1      1771    3    0    1
 -2       119       594      2988      2989
 -1      1772    3    0    1
 -2      1703      1586      1777      2235
 -1      1773    3    0    1
 -2      1528      1551      2373      2385
 -1      1774    3    0    1
 -2      1862      1909      2204      2321
 -1      1775    3    0    1
 -2       555      1216       950      2014
 -1      1776    3    0    1
 -2      1718      1871      1884      1895
 -1      1777    3    0    1
 -2      1336      1090       818      1334
 -1      1778    3    0    1
 -2      1101      1348      1862      2081
 -1      1779    3    0    1
 -2      1653      2028      2190      2668
 -1      1780    3    0    1
 -2       926      1192      2137      2229
 -1      1781    3    0    1
 -2       404       273       801      1327
 -1      1782    3    0    1
 -2      1580       395      1691      1710
 -1      1783    3    0    1
 -2       821      1095       367      1098
 -1      1784    3    0    1
 -2       457       458       902       906
 -1      1785    3    0    1
 -2      1701      1587      1841      1950
 -1      1786    3    0    1
 -2      2173      2556      2612      2809
 -1      1787    3    0    1
 -2      1259       654      2434      2664
 -1      1788    3    0    1
 -2       471       832      1549      2596
 -1      1789    3    0    1
 -2      1570      1694      1844      2247
 -1      1790    3    0    1
 -2      1683      1526      1716      2271
 -1      1791    3    0    1
 -2      1567      1660      1828      1871
 -1      1792    3    0    1
 -2      1774      2247      2276      2352
 -1      1793    3    0    1
 -2       825       286      1331      1332
 -1      1794    3    0    1
 -2       968       980      2718      2804
 -1      1795    3    0    1
 -2      2034      1881      2218      2523
 -1      1796    3    0    1
 -2       792      1327      1323       791
 -1      1797    3    0    1
 -2      1381      1143      2130      2474
 -1      1798    3    0    1
 -2      1954       819      2319      2327
 -1      1799    3    0    1
 -2       955      1807      1956      2046
 -1      1800    3    0    1
 -2      1701      1768      2268      2532
 -1      1801    3    0    1
 -2       267       369       797      1085
 -1      1802    3    0    1
 -2       471       472      1817      2359
 -1      1803    3    0    1
 -2      1096       825      1331      1332
 -1      1804    3    0    1
 -2        46       509       516       921
 -1      1805    3    0    1
 -2      1701      1841      1941      1950
 -1      1806    3    0    1
 -2      1655      1667      1840      1972
 -1      1807    3    0    1
 -2       816      1091      1089       815
 -1      1808    3    0    1
 -2      1100       835      1931      2579
 -1      1809    3    0    1
 -2       862       895      1156      1915
 -1      1810    3    0    1
 -2      1360       845      1359      1743
 -1      1811    3    0    1
 -2       290       287       820      1097
 -1      1812    3    0    1
 -2       825       287      1096      1097
 -1      1813    3    0    1
 -2       813       831       832      1096
 -1      1814    3    0    1
 -2      1098       832      2375      2424
 -1      1815    3    0    1
 -2      2332       347      2443      2685
 -1      1816    3    0    1
 -2      1006       663      1776      1975
 -1      1817    3    0    1
 -2      1106       434      1399      2097
 -1      1818    3    0    1
 -2       283       286       825      1335
 -1      1819    3    0    1
 -2      1793      1530      1800      1826
 -1      1820    3    0    1
 -2      1006       663      1975      2055
 -1      1821    3    0    1
 -2      1694      1706      1896      2455
 -1      1822    3    0    1
 -2      1567      1671      1985      2334
 -1      1823    3    0    1
 -2      1729      2252      2361      2700
 -1      1824    3    0    1
 -2      1559      1700      2473      2518
 -1      1825    3    0    1
 -2      1139       878      2231      2329
 -1      1826    3    0    1
 -2       870      1143      1381      2474
 -1      1827    3    0    1
 -2       604       609       970       980
 -1      1828    3    0    1
 -2      2042      2834      2889      2904
 -1      1829    3    0    1
 -2      2889      2890      2904      2942
 -1      1830    3    0    1
 -2       870      1394       882      2421
 -1      1831    3    0    1
 -2        18        17       460       908
 -1      1832    3    0    1
 -2      1773      1539      2066      2437
 -1      1833    3    0    1
 -2       300       390      1793      1800
 -1      1834    3    0    1
 -2       556        83       561       955
 -1      1835    3    0    1
 -2      1372      1820      2002      2154
 -1      1836    3    0    1
 -2       663       640       995      2055
 -1      1837    3    0    1
 -2       104       108      2017      2140
 -1      1838    3    0    1
 -2       104       108       967      2017
 -1      1839    3    0    1
 -2       484        37       917       918
 -1      1840    3    0    1
 -2       531       937      1762      1877
 -1      1841    3    0    1
 -2      1621      1718      1799      2337
 -1      1842    3    0    1
 -2       861      1146      1120      1692
 -1      1843    3    0    1
 -2       797       804      1076      1085
 -1      1844    3    0    1
 -2       609       613       970       980
 -1      1845    3    0    1
 -2       508        50       513       929
 -1      1846    3    0    1
 -2      1387       854       876      1741
 -1      1847    3    0    1
 -2       501       519       520       930
 -1      1848    3    0    1
 -2       794       261       265      1082
 -1      1849    3    0    1
 -2       538       531       941      1997
 -1      1850    3    0    1
 -2      1828      1718      1871      1884
 -1      1851    3    0    1
 -2      1565      2310      2335      2354
 -1      1852    3    0    1
 -2      1838      1827      1875      1892
 -1      1853    3    0    1
 -2       937       380       941      2832
 -1      1854    3    0    1
 -2      1452      3115      3014      3036
 -1      1855    3    0    1
 -2       759       739       760      1060
 -1      1856    3    0    1
 -2       943       523       936       944
 -1      1857    3    0    1
 -2       136      1736      2098      2105
 -1      1858    3    0    1
 -2      1675      2197      2569      2601
 -1      1859    3    0    1
 -2        92       569      3004      3011
 -1      1860    3    0    1
 -2       111       601      1229      1232
 -1      1861    3    0    1
 -2       724      1291      2119      2150
 -1      1862    3    0    1
 -2       500      1191       499       507
 -1      1863    3    0    1
 -2       514       507       927      2094
 -1      1864    3    0    1
 -2       407      1066      1316      2483
 -1      1865    3    0    1
 -2      2091      2910      3077      1453
 -1      1866    3    0    1
 -2      2036      2126      2212      2601
 -1      1867    3    0    1
 -2        83       950      1216      1790
 -1      1868    3    0    1
 -2      2189      1132      2240      2421
 -1      1869    3    0    1
 -2      2272      1866      2432      2755
 -1      1870    3    0    1
 -2       663      1005      1776      2055
 -1      1871    3    0    1
 -2      1587      1735      2246      2382
 -1      1872    3    0    1
 -2      2633      1526      2811      2863
 -1      1873    3    0    1
 -2      1943      1707      2025      2138
 -1      1874    3    0    1
 -2      1652      1824      2168      2672
 -1      1875    3    0    1
 -2      1575      1527      1580      2003
 -1      1876    3    0    1
 -2      1781      1554      1840      1972
 -1      1877    3    0    1
 -2       438       434      1792      1816
 -1      1878    3    0    1
 -2      2289      1682      2489      2826
 -1      1879    3    0    1
 -2       460         5      1159      1160
 -1      1880    3    0    1
 -2       212       217       725      1046
 -1      1881    3    0    1
 -2      1565      1675      1916      2335
 -1      1882    3    0    1
 -2       586      1228      2468      2475
 -1      1883    3    0    1
 -2      1738      1760      1857      2328
 -1      1884    3    0    1
 -2      1640      1869      2389      2392
 -1      1885    3    0    1
 -2      1155      1374      1677      1919
 -1      1886    3    0    1
 -2       201       701       704      1033
 -1      1887    3    0    1
 -2      3010      2992      3012      3038
 -1      1888    3    0    1
 -2      1036       221      1295      2572
 -1      1889    3    0    1
 -2       585       589       958       967
 -1      1890    3    0    1
 -2      2163      1553      2180      2201
 -1      1891    3    0    1
 -2       955       567       547       956
 -1      1892    3    0    1
 -2       561       565       949       955
 -1      1893    3    0    1
 -2      1179      1609      2229      2342
 -1      1894    3    0    1
 -2       580       107       967       968
 -1      1895    3    0    1
 -2       747       358      1053      1305
 -1      1896    3    0    1
 -2      1651      1644      1872      2520
 -1      1897    3    0    1
 -2      1325      1075       797      1317
 -1      1898    3    0    1
 -2      1113       406      1403      1889
 -1      1899    3    0    1
 -2       735      1295      2380      2572
 -1      1900    3    0    1
 -2      1468      1432      1496      3011
 -1      1901    3    0    1
 -2       535       932       942       533
 -1      1902    3    0    1
 -2       655      1002       654      2115
 -1      1903    3    0    1
 -2      1525      1635      1910      2493
 -1      1904    3    0    1
 -2       797       267      1085      1328
 -1      1905    3    0    1
 -2       950      1790      1937      2014
 -1      1906    3    0    1
 -2      1321       797      1076      1328
 -1      1907    3    0    1
 -2       796      1320       801       258
 -1      1908    3    0    1
 -2      2610      1750      2620      2722
 -1      1909    3    0    1
 -2       773       776      1063      1068
 -1      1910    3    0    1
 -2      1413      1326      2994      3128
 -1      1911    3    0    1
 -2      1626        10      1819      1837
 -1      1912    3    0    1
 -2       788      1081       787      1075
 -1      1913    3    0    1
 -2       945       372       533        67
 -1      1914    3    0    1
 -2      1767      1729      1830      2362
 -1      1915    3    0    1
 -2       414       334       723      1045
 -1      1916    3    0    1
 -2       391       304      1350      1958
 -1      1917    3    0    1
 -2       610       978      2243      2265
 -1      1918    3    0    1
 -2      2883      2346      2884      2895
 -1      1919    3    0    1
 -2       299      1368      2671      2717
 -1      1920    3    0    1
 -2       538      1204      1997      2030
 -1      1921    3    0    1
 -2       950       555      1937      2056
 -1      1922    3    0    1
 -2       747       753      1047      1058
 -1      1923    3    0    1
 -2      1320       796      1083      1319
 -1      1924    3    0    1
 -2       705       709      1026      1034
 -1      1925    3    0    1
 -2       321       159      1883      1975
 -1      1926    3    0    1
 -2      1858      1811      1915      1936
 -1      1927    3    0    1
 -2      1946      2241      2268      2532
 -1      1928    3    0    1
 -2      2158      1783      2210      2349
 -1      1929    3    0    1
 -2      2193      1595      2283      2417
 -1      1930    3    0    1
 -2      1526      1683      1716      1858
 -1      1931    3    0    1
 -2      1203       939       536      2083
 -1      1932    3    0    1
 -2       538       941      1863      1997
 -1      1933    3    0    1
 -2       346       992      2603      2640
 -1      1934    3    0    1
 -2       702       703      1280      1882
 -1      1935    3    0    1
 -2      1575      1527      1650      1690
 -1      1936    3    0    1
 -2       471       832      1098      1549
 -1      1937    3    0    1
 -2       597       598       616       982
 -1      1938    3    0    1
 -2       544       944      2225      2383
 -1      1939    3    0    1
 -2      2498      1977      2598      2880
 -1      1940    3    0    1
 -2      1536      1626      1819      2340
 -1      1941    3    0    1
 -2      1544      1886      1924      2211
 -1      1942    3    0    1
 -2      1743      1562      1964      2045
 -1      1943    3    0    1
 -2       329      1647      2001      2156
 -1      1944    3    0    1
 -2       717      1042       716      1038
 -1      1945    3    0    1
 -2       218       733       222      1037
 -1      1946    3    0    1
 -2      1617       261      2583      2817
 -1      1947    3    0    1
 -2      1261       321      1883      2033
 -1      1948    3    0    1
 -2       915      1165      2029      2399
 -1      1949    3    0    1
 -2      1118       436      1821      1919
 -1      1950    3    0    1
 -2       136       991      1736      2290
 -1      1951    3    0    1
 -2       650      1000      1251      1254
 -1      1952    3    0    1
 -2       627       619       634       991
 -1      1953    3    0    1
 -2        30        32      1901      1962
 -1      1954    3    0    1
 -2      1239      1748      2315      2450
 -1      1955    3    0    1
 -2       782       243       254      1306
 -1      1956    3    0    1
 -2       650      1004       156       649
 -1      1957    3    0    1
 -2      1527      1575      1580      1691
 -1      1958    3    0    1
 -2       681      1014      1266      1268
 -1      1959    3    0    1
 -2      1686      1818      2496      2574
 -1      1960    3    0    1
 -2      2129       392      2728      2746
 -1      1961    3    0    1
 -2      1370      1152      1764      2068
 -1      1962    3    0    1
 -2      1372      1153      1820      2154
 -1      1963    3    0    1
 -2       977      1237      2442      2708
 -1      1964    3    0    1
 -2       677       175      1011      1264
 -1      1965    3    0    1
 -2       443       310      1145      2752
 -1      1966    3    0    1
 -2      1587      1841      1950      2401
 -1      1967    3    0    1
 -2       137       136      1736      2098
 -1      1968    3    0    1
 -2       462      2029      2440      2546
 -1      1969    3    0    1
 -2      1565      1593      1675      1902
 -1      1970    3    0    1
 -2      1595      1619      1692      1874
 -1      1971    3    0    1
 -2      1530      1661      2065      2420
 -1      1972    3    0    1
 -2       842       841      1103      1794
 -1      1973    3    0    1
 -2      2877      1968      2938      3093
 -1      1974    3    0    1
 -2      1101      1862      1909      2081
 -1      1975    3    0    1
 -2       156      1633      1647      2465
 -1      1976    3    0    1
 -2      1774      2247      2743      2833
 -1      1977    3    0    1
 -2       601       974       978      1229
 -1      1978    3    0    1
 -2      2054      1562      2193      2417
 -1      1979    3    0    1
 -2      1389       314      1380      2232
 -1      1980    3    0    1
 -2        17       460       465      1167
 -1      1981    3    0    1
 -2      1702      1634      2168      2639
 -1      1982    3    0    1
 -2      1661      1530      2108      2143
 -1      1983    3    0    1
 -2       452       905       463       451
 -1      1984    3    0    1
 -2       406       437      1820      1889
 -1      1985    3    0    1
 -2       452       905       451       899
 -1      1986    3    0    1
 -2      1072       371      2263      2635
 -1      1987    3    0    1
 -2         6       899       464        13
 -1      1988    3    0    1
 -2         5         9       460      1159
 -1      1989    3    0    1
 -2       453       909       472       471
 -1      1990    3    0    1
 -2         6      1161        13       464
 -1      1991    3    0    1
 -2       482       481       916      1169
 -1      1992    3    0    1
 -2         6       468        16       900
 -1      1993    3    0    1
 -2       468         6       461       900
 -1      1994    3    0    1
 -2       458         8       457       902
 -1      1995    3    0    1
 -2         5       460       901      1163
 -1      1996    3    0    1
 -2      3071      1462      1463      3094
 -1      1997    3    0    1
 -2       467       464      1161      1168
 -1      1998    3    0    1
 -2      1618      1004      1749      2260
 -1      1999    3    0    1
 -2      1572      1738      1760      2196
 -1      2000    3    0    1
 -2        14        12      1912      2020
 -1      2001    3    0    1
 -2       456      1167      1163       455
 -1      2002    3    0    1
 -2       475      1181       483       490
 -1      2003    3    0    1
 -2       453       909       471      1168
 -1      2004    3    0    1
 -2      1431      1238      3082      2950
 -1      2005    3    0    1
 -2      1715      1686      1818      2439
 -1      2006    3    0    1
 -2        12        14       464       905
 -1      2007    3    0    1
 -2       141       138      1248      1648
 -1      2008    3    0    1
 -2      1990      1782      2422      2507
 -1      2009    3    0    1
 -2      3080      2893      1445      3109
 -1      2010    3    0    1
 -2      3086      3084      1457      3127
 -1      2011    3    0    1
 -2       462       451       463       905
 -1      2012    3    0    1
 -2       461       899       897       905
 -1      2013    3    0    1
 -2       472       908      1817      2359
 -1      2014    3    0    1
 -2      1616      1575      1690      1850
 -1      2015    3    0    1
 -2      1768      1017      1950      1960
 -1      2016    3    0    1
 -2       451      1165       905       462
 -1      2017    3    0    1
 -2       899       451       897       905
 -1      2018    3    0    1
 -2       451      1165       897       905
 -1      2019    3    0    1
 -2       920       501       929      1187
 -1      2020    3    0    1
 -2       499      1185       500       924
 -1      2021    3    0    1
 -2       795      1324      2011      2103
 -1      2022    3    0    1
 -2       532       542       944      1195
 -1      2023    3    0    1
 -2       469        17       400       907
 -1      2024    3    0    1
 -2        17       469       465       907
 -1      2025    3    0    1
 -2       916       475      1169      1172
 -1      2026    3    0    1
 -2       470        18       460       908
 -1      2027    3    0    1
 -2        12       468       461       909
 -1      2028    3    0    1
 -2       481       916      1169      1172
 -1      2029    3    0    1
 -2        34       484       489       913
 -1      2030    3    0    1
 -2       482        20       481      1169
 -1      2031    3    0    1
 -2       523       936       944      1195
 -1      2032    3    0    1
 -2        56        57       532      1195
 -1      2033    3    0    1
 -2        22        19       484      1171
 -1      2034    3    0    1
 -2       394        50       513      1194
 -1      2035    3    0    1
 -2      1989      2873      2875      2876
 -1      2036    3    0    1
 -2      3004      1227       582      3019
 -1      2037    3    0    1
 -2       395       294      1580      1672
 -1      2038    3    0    1
 -2      1754       408      1856      1895
 -1      2039    3    0    1
 -2      1151       853       890      2429
 -1      2040    3    0    1
 -2      1613      1721      1943      2002
 -1      2041    3    0    1
 -2       482        24       396       916
 -1      2042    3    0    1
 -2        24       482       481       916
 -1      2043    3    0    1
 -2      1971      1878      2662      2826
 -1      2044    3    0    1
 -2       493       489       917      1173
 -1      2045    3    0    1
 -2        38      1187       513        39
 -1      2046    3    0    1
 -2        50       394       513       929
 -1      2047    3    0    1
 -2      3079      3068      1440      1458
 -1      2048    3    0    1
 -2       102       360       964      2309
 -1      2049    3    0    1
 -2       493        34       419       917
 -1      2050    3    0    1
 -2        34       493       489       917
 -1      2051    3    0    1
 -2      1531      1550      1676      2206
 -1      2052    3    0    1
 -2       477       495       496       918
 -1      2053    3    0    1
 -2        36        37       484       918
 -1      2054    3    0    1
 -2        36       484       494       918
 -1      2055    3    0    1
 -2      1549      1098      2375      2424
 -1      2056    3    0    1
 -2       495       477       917       918
 -1      2057    3    0    1
 -2       478       919      1174      1175
 -1      2058    3    0    1
 -2       492        32       423       919
 -1      2059    3    0    1
 -2        32       492       485       919
 -1      2060    3    0    1
 -2        46        47       509       921
 -1      2061    3    0    1
 -2       473      2973      2974      3037
 -1      2062    3    0    1
 -2       979       121      1864      2685
 -1      2063    3    0    1
 -2       507      1194       514       499
 -1      2064    3    0    1
 -2       537       532       944      1195
 -1      2065    3    0    1
 -2      1695       387      2245      2666
 -1      2066    3    0    1
 -2       499       500       507       924
 -1      2067    3    0    1
 -2      1579      1772      1931      2062
 -1      2068    3    0    1
 -2      1578      1753      1927      2102
 -1      2069    3    0    1
 -2      1777      1261      1861      2033
 -1      2070    3    0    1
 -2       881       868      2208      2549
 -1      2071    3    0    1
 -2       508        38      1184      1185
 -1      2072    3    0    1
 -2      1166      1765      2933      2999
 -1      2073    3    0    1
 -2       537       532      1197      1204
 -1      2074    3    0    1
 -2      1460      1456      1467      3018
 -1      2075    3    0    1
 -2      1346      1875      1899      2015
 -1      2076    3    0    1
 -2      2347       904      3070      2999
 -1      2077    3    0    1
 -2        45      1190       509       922
 -1      2078    3    0    1
 -2       957        86      1581      2339
 -1      2079    3    0    1
 -2       506       378       392       927
 -1      2080    3    0    1
 -2       378       506       505       927
 -1      2081    3    0    1
 -2       500      1191      1186       499
 -1      2082    3    0    1
 -2       523       945       544       543
 -1      2083    3    0    1
 -2       655       630      2115      2769
 -1      2084    3    0    1
 -2       502       931       501       921
 -1      2085    3    0    1
 -2        52       427       511       928
 -1      2086    3    0    1
 -2        52       511       515       928
 -1      2087    3    0    1
 -2       508      1187       929       513
 -1      2088    3    0    1
 -2       502       930       501       520
 -1      2089    3    0    1
 -2       394       393       513       929
 -1      2090    3    0    1
 -2       513       393       517       929
 -1      2091    3    0    1
 -2        50       518        53       930
 -1      2092    3    0    1
 -2       518        50       508       930
 -1      2093    3    0    1
 -2       519       501       929       930
 -1      2094    3    0    1
 -2        41       516       509       931
 -1      2095    3    0    1
 -2       501       519       928       931
 -1      2096    3    0    1
 -2       527      1202      1201       940
 -1      2097    3    0    1
 -2       940       527      1199      1201
 -1      2098    3    0    1
 -2      2709      2996      2896      1456
 -1      2099    3    0    1
 -2       539        58        70       935
 -1      2100    3    0    1
 -2        58       539       535       935
 -1      2101    3    0    1
 -2       528       943       523       936
 -1      2102    3    0    1
 -2        56       541        69       936
 -1      2103    3    0    1
 -2       541        56       537       936
 -1      2104    3    0    1
 -2       539       535       935       942
 -1      2105    3    0    1
 -2        62       380       529       937
 -1      2106    3    0    1
 -2        62       529       530       937
 -1      2107    3    0    1
 -2      1538      1664      1689      2713
 -1      2108    3    0    1
 -2       524       531       538       938
 -1      2109    3    0    1
 -2       556       566       956      1205
 -1      2110    3    0    1
 -2       529       530       937      1198
 -1      2111    3    0    1
 -2        72       566       556      1205
 -1      2112    3    0    1
 -2      2886      3077      1440      2997
 -1      2113    3    0    1
 -2      1396       327      1944      1979
 -1      2114    3    0    1
 -2      1203      2995      3044      3043
 -1      2115    3    0    1
 -2       534       527       526       940
 -1      2116    3    0    1
 -2      1014      2120      2203      2407
 -1      2117    3    0    1
 -2      2370      1983      2835      2899
 -1      2118    3    0    1
 -2       531       525       524       941
 -1      2119    3    0    1
 -2       525       531       937       941
 -1      2120    3    0    1
 -2       945       528       942       543
 -1      2121    3    0    1
 -2      1542      1680      1794      2502
 -1      2122    3    0    1
 -2      1525      1679      1809      2493
 -1      2123    3    0    1
 -2        97       580       585       958
 -1      2124    3    0    1
 -2        66       535       539       942
 -1      2125    3    0    1
 -2        66       372       535       942
 -1      2126    3    0    1
 -2      1878      1178      1971      2614
 -1      2127    3    0    1
 -2      1182       496       495      1901
 -1      2128    3    0    1
 -2       541        65       425       943
 -1      2129    3    0    1
 -2        65       541       537       943
 -1      2130    3    0    1
 -2       936       537       943       944
 -1      2131    3    0    1
 -2        68       542       383       944
 -1      2132    3    0    1
 -2      1627      1827      1875      2015
 -1      2133    3    0    1
 -2       542        68       532       944
 -1      2134    3    0    1
 -2        67       540       533       945
 -1      2135    3    0    1
 -2       528       945       523       543
 -1      2136    3    0    1
 -2        72       556       561       949
 -1      2137    3    0    1
 -2       358      1058      1059      1597
 -1      2138    3    0    1
 -2       552       955       547       949
 -1      2139    3    0    1
 -2        74       561       565       949
 -1      2140    3    0    1
 -2        74        82       561       949
 -1      2141    3    0    1
 -2       571       576       966      1217
 -1      2142    3    0    1
 -2       307      1375      1716      2271
 -1      2143    3    0    1
 -2       595      1232       974       596
 -1      2144    3    0    1
 -2       114       120       607      1233
 -1      2145    3    0    1
 -2       548       549       555       950
 -1      2146    3    0    1
 -2       555      1216       562       548
 -1      2147    3    0    1
 -2      1891        36      2073      2480
 -1      2148    3    0    1
 -2       966       576       960      1217
 -1      2149    3    0    1
 -2       556        72      1207      1208
 -1      2150    3    0    1
 -2      1617       261      2304      2583
 -1      2151    3    0    1
 -2        83       556       561      1216
 -1      2152    3    0    1
 -2      3004       569      1496      3011
 -1      2153    3    0    1
 -2      2129      2325      2841      2867
 -1      2154    3    0    1
 -2      2275       783      2509      2606
 -1      2155    3    0    1
 -2        75      1211       557       947
 -1      2156    3    0    1
 -2       549      1213       548       555
 -1      2157    3    0    1
 -2        77       382       553       953
 -1      2158    3    0    1
 -2       549      1213      1209       548
 -1      2159    3    0    1
 -2       832      1098      1549      2424
 -1      2160    3    0    1
 -2       552       547       567       954
 -1      2161    3    0    1
 -2       547      1212       954       552
 -1      2162    3    0    1
 -2       567       957       954       547
 -1      2163    3    0    1
 -2       547       957       954       946
 -1      2164    3    0    1
 -2        84       563        85       954
 -1      2165    3    0    1
 -2       563        84       559       954
 -1      2166    3    0    1
 -2       547      1212       946       954
 -1      2167    3    0    1
 -2       581       588       960       969
 -1      2168    3    0    1
 -2       565        83        89       955
 -1      2169    3    0    1
 -2        83       565       561       955
 -1      2170    3    0    1
 -2       949       556       955       956
 -1      2171    3    0    1
 -2       955       547       949       956
 -1      2172    3    0    1
 -2       384       566       385       956
 -1      2173    3    0    1
 -2       566       384       556       956
 -1      2174    3    0    1
 -2       652       159      1006      1007
 -1      2175    3    0    1
 -2       567       568      1812      1935
 -1      2176    3    0    1
 -2      1547      1656      2066      1704
 -1      2177    3    0    1
 -2        96       588       109       960
 -1      2178    3    0    1
 -2       588        96       581       960
 -1      2179    3    0    1
 -2       575       574       579       961
 -1      2180    3    0    1
 -2      1661      1951      2207      2458
 -1      2181    3    0    1
 -2      1654      1735      1824      2246
 -1      2182    3    0    1
 -2       583       581       964      1218
 -1      2183    3    0    1
 -2      1762      1651      1846      1877
 -1      2184    3    0    1
 -2       850      1366      1816      1839
 -1      2185    3    0    1
 -2      1554      1623      1758      1908
 -1      2186    3    0    1
 -2       595      1231       596       975
 -1      2187    3    0    1
 -2      1827       838      2015      2081
 -1      2188    3    0    1
 -2      1912       472      2359      2702
 -1      2189    3    0    1
 -2       581       106       964      1226
 -1      2190    3    0    1
 -2      1455      3124      3125      3131
 -1      2191    3    0    1
 -2      1440      1482      1511      3048
 -1      2192    3    0    1
 -2      1851      1523      1932      1952
 -1      2193    3    0    1
 -2      2348      1876      3098      2994
 -1      2194    3    0    1
 -2       368      1440      1482      1511
 -1      2195    3    0    1
 -2       577       578       965      1222
 -1      2196    3    0    1
 -2       335       577       578       965
 -1      2197    3    0    1
 -2       335       578       961       965
 -1      2198    3    0    1
 -2       102       106       581       966
 -1      2199    3    0    1
 -2      1978      1548      2276      2352
 -1      2200    3    0    1
 -2       113       110       609       970
 -1      2201    3    0    1
 -2       114       605       972      1236
 -1      2202    3    0    1
 -2       591       571       592       966
 -1      2203    3    0    1
 -2       576       969       966       960
 -1      2204    3    0    1
 -2       571       576       592       966
 -1      2205    3    0    1
 -2       102       587       360       966
 -1      2206    3    0    1
 -2       587       102       583       966
 -1      2207    3    0    1
 -2       576       969       592       966
 -1      2208    3    0    1
 -2       589       104       108       967
 -1      2209    3    0    1
 -2       104       589       585       967
 -1      2210    3    0    1
 -2      1569      1655      1667      1840
 -1      2211    3    0    1
 -2       590       107       580       968
 -1      2212    3    0    1
 -2       958       571       959       968
 -1      2213    3    0    1
 -2       571       967       591       968
 -1      2214    3    0    1
 -2       967       571       958       968
 -1      2215    3    0    1
 -2       607       611       979      1233
 -1      2216    3    0    1
 -2       152      1257       153       652
 -1      2217    3    0    1
 -2      1803      1707      2025      2026
 -1      2218    3    0    1
 -2       596       595       603       974
 -1      2219    3    0    1
 -2       605       114      1233      1234
 -1      2220    3    0    1
 -2      1748       124      2315      2701
 -1      2221    3    0    1
 -2       118       601       602       974
 -1      2222    3    0    1
 -2       121       605       607       979
 -1      2223    3    0    1
 -2      1579      1772      2062      2063
 -1      2224    3    0    1
 -2       579       961      2170      2223
 -1      2225    3    0    1
 -2       155      1254       157       650
 -1      2226    3    0    1
 -2       595       596       603       975
 -1      2227    3    0    1
 -2       603      1239       610       595
 -1      2228    3    0    1
 -2      2376      1843      2438      2742
 -1      2229    3    0    1
 -2       983      1250       628       988
 -1      2230    3    0    1
 -2       604       110      1230      1231
 -1      2231    3    0    1
 -2      2974      2973      3017      3037
 -1      2232    3    0    1
 -2      1660      1600      1884      1895
 -1      2233    3    0    1
 -2      3014       976      3035      3036
 -1      2234    3    0    1
 -2       124       604       609      1239
 -1      2235    3    0    1
 -2      1573      1590      1666      2430
 -1      2236    3    0    1
 -2      2012      1984      2121      2148
 -1      2237    3    0    1
 -2       395       294      1340      1710
 -1      2238    3    0    1
 -2       603       595       610       978
 -1      2239    3    0    1
 -2       118       389       601       978
 -1      2240    3    0    1
 -2       134       140       629      1246
 -1      2241    3    0    1
 -2       620       988       627       619
 -1      2242    3    0    1
 -2        78      1465      1502      1503
 -1      2243    3    0    1
 -2       991       620      1240      1242
 -1      2244    3    0    1
 -2       121       611       337       979
 -1      2245    3    0    1
 -2       611       121       607       979
 -1      2246    3    0    1
 -2       604       614       981      1235
 -1      2247    3    0    1
 -2       613       124       126       980
 -1      2248    3    0    1
 -2       124       613       609       980
 -1      2249    3    0    1
 -2       598       597       616       981
 -1      2250    3    0    1
 -2       970       604       980       981
 -1      2251    3    0    1
 -2       597      1235       981       598
 -1      2252    3    0    1
 -2       127       614       128       981
 -1      2253    3    0    1
 -2       614       127       604       981
 -1      2254    3    0    1
 -2       398      1778      2369      2723
 -1      2255    3    0    1
 -2       597       980       615       981
 -1      2256    3    0    1
 -2       980       597       970       981
 -1      2257    3    0    1
 -2       597      1235       970       981
 -1      2258    3    0    1
 -2       123       612       605       982
 -1      2259    3    0    1
 -2       597       615       979       982
 -1      2260    3    0    1
 -2      1153       406      1820      1889
 -1      2261    3    0    1
 -2      1615      1596      1745      2095
 -1      2262    3    0    1
 -2      1125      1622      1717      1788
 -1      2263    3    0    1
 -2       377        14      1168      2733
 -1      2264    3    0    1
 -2       658      1261      1612      2007
 -1      2265    3    0    1
 -2       619       627       634       988
 -1      2266    3    0    1
 -2      1004       650      1000      1251
 -1      2267    3    0    1
 -2      1035       357      2426      2542
 -1      2268    3    0    1
 -2      1983      2697      2835      2894
 -1      2269    3    0    1
 -2      1859       291      2171      2214
 -1      2270    3    0    1
 -2       643      1254      1000       644
 -1      2271    3    0    1
 -2       139       320       628      1250
 -1      2272    3    0    1
 -2      1473      3119      3058      3066
 -1      2273    3    0    1
 -2      1202       940       534      2318
 -1      2274    3    0    1
 -2       531       937       941      1997
 -1      2275    3    0    1
 -2      2468      2475      2582      2670
 -1      2276    3    0    1
 -2       624       990       623       630
 -1      2277    3    0    1
 -2       627       620       619       991
 -1      2278    3    0    1
 -2       620      1247       991       627
 -1      2279    3    0    1
 -2      1630      1656      2209      2234
 -1      2280    3    0    1
 -2       173       178       681      1019
 -1      2281    3    0    1
 -2       152       652       657       996
 -1      2282    3    0    1
 -2       138       635       346       992
 -1      2283    3    0    1
 -2       635       138       632       992
 -1      2284    3    0    1
 -2       637       139       145       993
 -1      2285    3    0    1
 -2       139       637       633       993
 -1      2286    3    0    1
 -2       622       993       621       640
 -1      2287    3    0    1
 -2       929       519      1605      2169
 -1      2288    3    0    1
 -2       633       139       993       994
 -1      2289    3    0    1
 -2       984       633       993       994
 -1      2290    3    0    1
 -2       142       320       628       994
 -1      2291    3    0    1
 -2       142       628       638       994
 -1      2292    3    0    1
 -2       636       141       340       995
 -1      2293    3    0    1
 -2       141       636       629       995
 -1      2294    3    0    1
 -2       621       639       992       995
 -1      2295    3    0    1
 -2       643      1253       644      1001
 -1      2296    3    0    1
 -2       644       643       651      1000
 -1      2297    3    0    1
 -2       342       653       656      1005
 -1      2298    3    0    1
 -2       652       152       657      1252
 -1      2299    3    0    1
 -2      1005      1256       645      1008
 -1      2300    3    0    1
 -2       643       644       651      1001
 -1      2301    3    0    1
 -2      1001       652      1252      1253
 -1      2302    3    0    1
 -2       651      1261       658       643
 -1      2303    3    0    1
 -2      1636      1622      1717      1743
 -1      2304    3    0    1
 -2       928        41       931      2191
 -1      2305    3    0    1
 -2      2988      2989      3014      3035
 -1      2306    3    0    1
 -2      1595      1603      1619      2497
 -1      2307    3    0    1
 -2      1433      1477      3121      3049
 -1      2308    3    0    1
 -2      3003      1464      3044      3045
 -1      2309    3    0    1
 -2      1464        64      1480      1487
 -1      2310    3    0    1
 -2      1270       679       678      1814
 -1      2311    3    0    1
 -2      1472       158      1473      1495
 -1      2312    3    0    1
 -2       150      1258       653       998
 -1      2313    3    0    1
 -2        50       394       929      1605
 -1      2314    3    0    1
 -2       651       643       658      1004
 -1      2315    3    0    1
 -2       156       329       649      1004
 -1      2316    3    0    1
 -2      1011      1021       677      1264
 -1      2317    3    0    1
 -2       677       174       680      1016
 -1      2318    3    0    1
 -2       677      1018      1011       680
 -1      2319    3    0    1
 -2       684       677      1021      1264
 -1      2320    3    0    1
 -2       341       342       656      1005
 -1      2321    3    0    1
 -2       341       656       659      1005
 -1      2322    3    0    1
 -2       661       159       321      1006
 -1      2323    3    0    1
 -2       159       661       657      1006
 -1      2324    3    0    1
 -2      1014       675      1272      2162
 -1      2325    3    0    1
 -2       646       645       664      1007
 -1      2326    3    0    1
 -2       996       652      1006      1007
 -1      2327    3    0    1
 -2       152      1257       652       996
 -1      2328    3    0    1
 -2       161       662       324      1007
 -1      2329    3    0    1
 -2       662       161       652      1007
 -1      2330    3    0    1
 -2       645      1006       663      1007
 -1      2331    3    0    1
 -2      1006       645       996      1007
 -1      2332    3    0    1
 -2       645      1257       996      1007
 -1      2333    3    0    1
 -2       645       663      1005      1008
 -1      2334    3    0    1
 -2       680       167       683      1011
 -1      2335    3    0    1
 -2       168       167       680      1011
 -1      2336    3    0    1
 -2       170       681       685      1012
 -1      2337    3    0    1
 -2       170       180       681      1012
 -1      2338    3    0    1
 -2       172       674      1013      1267
 -1      2339    3    0    1
 -2      2763       603      2842      2848
 -1      2340    3    0    1
 -2       695      1278      1276      1029
 -1      2341    3    0    1
 -2       619      1250       988       634
 -1      2342    3    0    1
 -2       674       333      1017      1269
 -1      2343    3    0    1
 -2      1775      1785      2060      2576
 -1      2344    3    0    1
 -2      1060       234      2775      2856
 -1      2345    3    0    1
 -2       695      1278      1029      1281
 -1      2346    3    0    1
 -2       174       177       680      1016
 -1      2347    3    0    1
 -2      2141      2204      2331      2441
 -1      2348    3    0    1
 -2      2911      2762      2935      3104
 -1      2349    3    0    1
 -2       681       178      1014      1272
 -1      2350    3    0    1
 -2      2850      2762      2911      3104
 -1      2351    3    0    1
 -2       174       677       680      1018
 -1      2352    3    0    1
 -2       701      1024       704       185
 -1      2353    3    0    1
 -2       177       683       181      1018
 -1      2354    3    0    1
 -2       683       177       680      1018
 -1      2355    3    0    1
 -2      1782      1990      2057      2507
 -1      2356    3    0    1
 -2       685       178       323      1019
 -1      2357    3    0    1
 -2       178       685       681      1019
 -1      2358    3    0    1
 -2       410       409      2005      2555
 -1      2359    3    0    1
 -2       173       686       332      1020
 -1      2360    3    0    1
 -2      1577      1706      2452      2455
 -1      2361    3    0    1
 -2       686       173       676      1020
 -1      2362    3    0    1
 -2       670      1019       687      1020
 -1      2363    3    0    1
 -2      1019       670      1012      1020
 -1      2364    3    0    1
 -2       174       684       677      1021
 -1      2365    3    0    1
 -2       694      1033      1025       693
 -1      2366    3    0    1
 -2      1616      1850      1890      1994
 -1      2367    3    0    1
 -2       704       701       185      1025
 -1      2368    3    0    1
 -2       438       434      1816      1839
 -1      2369    3    0    1
 -2       694      1033       693       711
 -1      2370    3    0    1
 -2       704       184       707      1025
 -1      2371    3    0    1
 -2       200       184       704      1025
 -1      2372    3    0    1
 -2       188       709       189      1026
 -1      2373    3    0    1
 -2       709       188       705      1026
 -1      2374    3    0    1
 -2       137      1886      2149      2211
 -1      2375    3    0    1
 -2       206       731       728      1282
 -1      2376    3    0    1
 -2      2395       145      2634      2827
 -1      2377    3    0    1
 -2      1000       156      2244      2393
 -1      2378    3    0    1
 -2       696      1032       695      1027
 -1      2379    3    0    1
 -2       191       697       698      1028
 -1      2380    3    0    1
 -2      1093      1337      1879      2320
 -1      2381    3    0    1
 -2       696      1281       695       706
 -1      2382    3    0    1
 -2       715      1295      1046       735
 -1      2383    3    0    1
 -2       701       201      1031      1279
 -1      2384    3    0    1
 -2      1751      1715      2439      2470
 -1      2385    3    0    1
 -2      1714      1809      1961      2228
 -1      2386    3    0    1
 -2      2882      2724      3091      2977
 -1      2387    3    0    1
 -2       723      1040      1289      1294
 -1      2388    3    0    1
 -2       201       353       704      1031
 -1      2389    3    0    1
 -2      1651      1846      1877      2287
 -1      2390    3    0    1
 -2       702       691       703      1031
 -1      2391    3    0    1
 -2       701      1024      1022      1031
 -1      2392    3    0    1
 -2      1260       989      1433      3104
 -1      2393    3    0    1
 -2      2911      2935      3078      3104
 -1      2394    3    0    1
 -2        12        14      2009      2020
 -1      2395    3    0    1
 -2       647       648       654      3001
 -1      2396    3    0    1
 -2      1024       691      1022      1031
 -1      2397    3    0    1
 -2       691      1279      1022      1031
 -1      2398    3    0    1
 -2       695       700      1028      1032
 -1      2399    3    0    1
 -2      1607      1852      2334      2491
 -1      2400    3    0    1
 -2       199       353       704      1033
 -1      2401    3    0    1
 -2       199       704       707      1033
 -1      2402    3    0    1
 -2       760      1059      1597      2555
 -1      2403    3    0    1
 -2      1416      1442      1477      3121
 -1      2404    3    0    1
 -2      1058       759      1059      1597
 -1      2405    3    0    1
 -2       709       197       203      1034
 -1      2406    3    0    1
 -2       197       709       705      1034
 -1      2407    3    0    1
 -2       188      1275       699      1026
 -1      2408    3    0    1
 -2      1026       699      1034      1035
 -1      2409    3    0    1
 -2      1034       693      1026      1035
 -1      2410    3    0    1
 -2       357       699       710      1035
 -1      2411    3    0    1
 -2       357       417       699      1035
 -1      2412    3    0    1
 -2       201       708       701      1036
 -1      2413    3    0    1
 -2       733       218       729      1037
 -1      2414    3    0    1
 -2      1065       771      1071      1072
 -1      2415    3    0    1
 -2       720      1046       715      1039
 -1      2416    3    0    1
 -2       205       732       216      1039
 -1      2417    3    0    1
 -2       732       205       725      1039
 -1      2418    3    0    1
 -2      2067      1543      2505      2619
 -1      2419    3    0    1
 -2       870       882      1143      2474
 -1      2420    3    0    1
 -2       719       718       730      1040
 -1      2421    3    0    1
 -2      1827      1347      1899      2015
 -1      2422    3    0    1
 -2       747      1300       753      1305
 -1      2423    3    0    1
 -2       726       716       727      1042
 -1      2424    3    0    1
 -2      1627      1862      2141      2441
 -1      2425    3    0    1
 -2      1577      1706      2454      2500
 -1      2426    3    0    1
 -2        37       917       918      1939
 -1      2427    3    0    1
 -2      2585      2774      2908      2928
 -1      2428    3    0    1
 -2      1477      2911      2977      3113
 -1      2429    3    0    1
 -2        62       380      1802      1815
 -1      2430    3    0    1
 -2       733       334       356      1044
 -1      2431    3    0    1
 -2       334       733       729      1044
 -1      2432    3    0    1
 -2       720      1044       715       736
 -1      2433    3    0    1
 -2       383       938      1973      2287
 -1      2434    3    0    1
 -2      1095      2111      2171      2375
 -1      2435    3    0    1
 -2       729       334      1044      1045
 -1      2436    3    0    1
 -2      1037       729      1044      1045
 -1      2437    3    0    1
 -2       220       414       723      1045
 -1      2438    3    0    1
 -2       220       723       734      1045
 -1      2439    3    0    1
 -2        42       497      2998      3032
 -1      2440    3    0    1
 -2       217       215       725      1046
 -1      2441    3    0    1
 -2       725       215       732      1046
 -1      2442    3    0    1
 -2      2226      1907      2308      2338
 -1      2443    3    0    1
 -2       756       749      1060      1301
 -1      2444    3    0    1
 -2       768      1065      1072      1306
 -1      2445    3    0    1
 -2       745       228       746      1051
 -1      2446    3    0    1
 -2      1881      1937      2056      2523
 -1      2447    3    0    1
 -2      1974       409      2005      2133
 -1      2448    3    0    1
 -2       248       252       773      1070
 -1      2449    3    0    1
 -2      1532      1857      1868      2720
 -1      2450    3    0    1
 -2       743      1056       742      1051
 -1      2451    3    0    1
 -2       746      1056       408       745
 -1      2452    3    0    1
 -2       350       749       752      1057
 -1      2453    3    0    1
 -2      1065       771      1072      1306
 -1      2454    3    0    1
 -2       960       583       966      1217
 -1      2455    3    0    1
 -2       743      1305       742       754
 -1      2456    3    0    1
 -2      1850      1105      1890      1967
 -1      2457    3    0    1
 -2       771       782      1072      1306
 -1      2458    3    0    1
 -2      1351       839      1350      1868
 -1      2459    3    0    1
 -2      1792      1830      2097      2160
 -1      2460    3    0    1
 -2      1059       409      1974      2133
 -1      2461    3    0    1
 -2       394       929      1605      2363
 -1      2462    3    0    1
 -2      1616      1690      1966      2089
 -1      2463    3    0    1
 -2       550       952       558      1214
 -1      2464    3    0    1
 -2      2041      2124      2880      3090
 -1      2465    3    0    1
 -2      2004      1818      2050      2391
 -1      2466    3    0    1
 -2      2883      2884      2917      3069
 -1      2467    3    0    1
 -2       224      1297       749      1049
 -1      2468    3    0    1
 -2      2137        41      2256      2306
 -1      2469    3    0    1
 -2       742       748      1052      1056
 -1      2470    3    0    1
 -2      1056       746       408      1052
 -1      2471    3    0    1
 -2       266       805       271      1320
 -1      2472    3    0    1
 -2       771       239       777      1307
 -1      2473    3    0    1
 -2       232       350       752      1057
 -1      2474    3    0    1
 -2       232       752       755      1057
 -1      2475    3    0    1
 -2       757       358       412      1058
 -1      2476    3    0    1
 -2       358       757       753      1058
 -1      2477    3    0    1
 -2       747       758      1059      1302
 -1      2478    3    0    1
 -2       744       739       760      1059
 -1      2479    3    0    1
 -2      1047       747      1058      1059
 -1      2480    3    0    1
 -2       739      1302      1059       744
 -1      2481    3    0    1
 -2       739       759       760      1059
 -1      2482    3    0    1
 -2       409       747       758      1059
 -1      2483    3    0    1
 -2       409       410       747      1059
 -1      2484    3    0    1
 -2       739      1058       759      1059
 -1      2485    3    0    1
 -2      1058       739      1047      1059
 -1      2486    3    0    1
 -2       739      1302      1047      1059
 -1      2487    3    0    1
 -2       739       759      1057      1060
 -1      2488    3    0    1
 -2       198      1669      1945      2561
 -1      2489    3    0    1
 -2       583        96      1218        94
 -1      2490    3    0    1
 -2      1941      1701      1950      1960
 -1      2491    3    0    1
 -2      1628      1693      1938      2134
 -1      2492    3    0    1
 -2       779       240       249      1064
 -1      2493    3    0    1
 -2       240       779       776      1064
 -1      2494    3    0    1
 -2       768      1070       763       783
 -1      2495    3    0    1
 -2       781       239       777      1065
 -1      2496    3    0    1
 -2       252       255      1073      2562
 -1      2497    3    0    1
 -2        86       360       957      1581
 -1      2498    3    0    1
 -2       416       307      1156      1716
 -1      2499    3    0    1
 -2       796      1320      1083       801
 -1      2500    3    0    1
 -2      1790      1216      1880      2014
 -1      2501    3    0    1
 -2       245       773      1063      1311
 -1      2502    3    0    1
 -2       789      1083      1084      1319
 -1      2503    3    0    1
 -2       926       512       510      2181
 -1      2504    3    0    1
 -2       791       795       802      1327
 -1      2505    3    0    1
 -2       252       248       773      1068
 -1      2506    3    0    1
 -2      1166       904      2999      3127
 -1      2507    3    0    1
 -2       777       407      1066      1316
 -1      2508    3    0    1
 -2       512       926      1179      1609
 -1      2509    3    0    1
 -2      1704      1656      2163      2180
 -1      2510    3    0    1
 -2       201      2413      2584      2590
 -1      2511    3    0    1
 -2       409      1991      2005      2482
 -1      2512    3    0    1
 -2      1452       343      3091      2967
 -1      2513    3    0    1
 -2      1599      1686      1733      1818
 -1      2514    3    0    1
 -2       246       770       405      1069
 -1      2515    3    0    1
 -2       770       246       769      1069
 -1      2516    3    0    1
 -2       765      1069      1308      1309
 -1      2517    3    0    1
 -2       808      1084      2255      2595
 -1      2518    3    0    1
 -2       783       763       784      1070
 -1      2519    3    0    1
 -2       776      1061      1064      1070
 -1      2520    3    0    1
 -2       763      1073      1070      1061
 -1      2521    3    0    1
 -2       248       779       250      1070
 -1      2522    3    0    1
 -2       779       248       776      1070
 -1      2523    3    0    1
 -2      1061       763      1064      1070
 -1      2524    3    0    1
 -2       763      1073       784      1070
 -1      2525    3    0    1
 -2       407       253       777      1071
 -1      2526    3    0    1
 -2       777       253       781      1071
 -1      2527    3    0    1
 -2      2380       736      2548      2824
 -1      2528    3    0    1
 -2       244       782       371      1072
 -1      2529    3    0    1
 -2       782       244       771      1072
 -1      2530    3    0    1
 -2       768      1071       783      1072
 -1      2531    3    0    1
 -2      1071       768      1065      1072
 -1      2532    3    0    1
 -2       387      1529      2245      2296
 -1      2533    3    0    1
 -2      1078      1324       793      1082
 -1      2534    3    0    1
 -2       259      1321       264       800
 -1      2535    3    0    1
 -2      1834      1947      2022      2176
 -1      2536    3    0    1
 -2       259       804       270      1076
 -1      2537    3    0    1
 -2       804       259       797      1076
 -1      2538    3    0    1
 -2       789      1085       807      1328
 -1      2539    3    0    1
 -2       260      1322       262       793
 -1      2540    3    0    1
 -2       792      1082       791      1078
 -1      2541    3    0    1
 -2      1423      1015      1439      2981
 -1      2542    3    0    1
 -2      1030       702      1280      1882
 -1      2543    3    0    1
 -2       764      1313       778       772
 -1      2544    3    0    1
 -2       285       824      1087      1329
 -1      2545    3    0    1
 -2       847      1365      1362      1746
 -1      2546    3    0    1
 -2       803       267       800      1328
 -1      2547    3    0    1
 -2       702       703      1882      2589
 -1      2548    3    0    1
 -2      3076      2124      1465      3131
 -1      2549    3    0    1
 -2       825       820      1335      1339
 -1      2550    3    0    1
 -2      1661      1530      2065      2108
 -1      2551    3    0    1
 -2      1793      1606      1952      2065
 -1      2552    3    0    1
 -2      2451      3084      3086      3127
 -1      2553    3    0    1
 -2       786       263      2971      2972
 -1      2554    3    0    1
 -2      1730      1639      1801      2501
 -1      2555    3    0    1
 -2      2834      2042      2878      2904
 -1      2556    3    0    1
 -2       261       794       793      1082
 -1      2557    3    0    1
 -2      1795      2128      2567      2796
 -1      2558    3    0    1
 -2       736      2380      2658      2824
 -1      2559    3    0    1
 -2       260      1322       793      1078
 -1      2560    3    0    1
 -2      1644      1651      2051      2520
 -1      2561    3    0    1
 -2       805       801      1083      1320
 -1      2562    3    0    1
 -2       821       828      1088      1098
 -1      2563    3    0    1
 -2       404       373       801      1083
 -1      2564    3    0    1
 -2       801       373       805      1083
 -1      2565    3    0    1
 -2       272       796       806      1084
 -1      2566    3    0    1
 -2       272       273       796      1084
 -1      2567    3    0    1
 -2       790      1328       789       807
 -1      2568    3    0    1
 -2       369       269       797      1085
 -1      2569    3    0    1
 -2       797       269       804      1085
 -1      2570    3    0    1
 -2       277       285       824      1088
 -1      2571    3    0    1
 -2       277       828       293      1088
 -1      2572    3    0    1
 -2       828       277       821      1088
 -1      2573    3    0    1
 -2      1339      1089       820      1335
 -1      2574    3    0    1
 -2      1771      1888      1976      2093
 -1      2575    3    0    1
 -2      1089      1339      1091       816
 -1      2576    3    0    1
 -2       816      1094       815      1090
 -1      2577    3    0    1
 -2       816      1339      1091       826
 -1      2578    3    0    1
 -2      2057      1782      2334      2491
 -1      2579    3    0    1
 -2      1001       324      1946      2251
 -1      2580    3    0    1
 -2        83       955       956      1812
 -1      2581    3    0    1
 -2       845      1360       846      1743
 -1      2582    3    0    1
 -2      1812       567      1935      2019
 -1      2583    3    0    1
 -2      1534      1730      1739      1957
 -1      2584    3    0    1
 -2       816      1091       815       826
 -1      2585    3    0    1
 -2       465       460      1163      1167
 -1      2586    3    0    1
 -2       822       811       823      1093
 -1      2587    3    0    1
 -2      2125       292      2220      2291
 -1      2588    3    0    1
 -2       568      1798      1935      2339
 -1      2589    3    0    1
 -2      1624      1611      1930      2071
 -1      2590    3    0    1
 -2      1660      1884      1871      1895
 -1      2591    3    0    1
 -2      1522      1536      1905      1928
 -1      2592    3    0    1
 -2      1458      1440      1512      3024
 -1      2593    3    0    1
 -2      1427      1454      1481      3054
 -1      2594    3    0    1
 -2       658       651      1004      2184
 -1      2595    3    0    1
 -2      1098       814      1095       831
 -1      2596    3    0    1
 -2       851       889      1150      1624
 -1      2597    3    0    1
 -2       291       824       827      1095
 -1      2598    3    0    1
 -2       291       367       824      1095
 -1      2599    3    0    1
 -2      1406       860      1119      2282
 -1      2600    3    0    1
 -2       309      1396      1126      1979
 -1      2601    3    0    1
 -2       829       287       402      1096
 -1      2602    3    0    1
 -2       287       829       825      1096
 -1      2603    3    0    1
 -2       851      1367      1611      1624
 -1      2604    3    0    1
 -2       290       830       292      1097
 -1      2605    3    0    1
 -2       830       290       820      1097
 -1      2606    3    0    1
 -2       828       284       374      1098
 -1      2607    3    0    1
 -2       284       828       821      1098
 -1      2608    3    0    1
 -2       814      1098       813       831
 -1      2609    3    0    1
 -2       964        86      1214      2049
 -1      2610    3    0    1
 -2      1141      1378      1844      1979
 -1      2611    3    0    1
 -2      1664      1538      2337      2713
 -1      2612    3    0    1
 -2      1793      1800      1806      2021
 -1      2613    3    0    1
 -2      1653      1408      2563      2620
 -1      2614    3    0    1
 -2       419       917      2823      2872
 -1      2615    3    0    1
 -2       978       610      1993      2265
 -1      2616    3    0    1
 -2       379       305      1623      1908
 -1      2617    3    0    1
 -2       909        12      1761      2020
 -1      2618    3    0    1
 -2      1834      1805      2022      2403
 -1      2619    3    0    1
 -2      1594      1824      2465      2513
 -1      2620    3    0    1
 -2        40       506        44      1183
 -1      2621    3    0    1
 -2        39       517        48      1187
 -1      2622    3    0    1
 -2       506       505       927      1183
 -1      2623    3    0    1
 -2      1732      2048      2207      2458
 -1      2624    3    0    1
 -2      1753      1578      1889      2068
 -1      2625    3    0    1
 -2       797      1321       800      1328
 -1      2626    3    0    1
 -2      2699      1933      2931      2945
 -1      2627    3    0    1
 -2       402      1096      1783      2210
 -1      2628    3    0    1
 -2      1528      1551      2379      2697
 -1      2629    3    0    1
 -2      1826      1999      2108      2143
 -1      2630    3    0    1
 -2      1181       476       913      1170
 -1      2631    3    0    1
 -2        89        83      1880      1987
 -1      2632    3    0    1
 -2      1593      1578      1842      1902
 -1      2633    3    0    1
 -2        20       482        25      1169
 -1      2634    3    0    1
 -2      1457      1494      3041      3061
 -1      2635    3    0    1
 -2      1390      1785      2576      2800
 -1      2636    3    0    1
 -2      1359       845      1636      1743
 -1      2637    3    0    1
 -2        12       905      1165      2009
 -1      2638    3    0    1
 -2      1739      1730      1801      1957
 -1      2639    3    0    1
 -2      1676      1639      1887      2096
 -1      2640    3    0    1
 -2      2126      2164      2278      2557
 -1      2641    3    0    1
 -2       405      1625      2197      2313
 -1      2642    3    0    1
 -2      2600       520      2694      2803
 -1      2643    3    0    1
 -2      2022      1805      2367      2559
 -1      2644    3    0    1
 -2      1349      2230      2355      2671
 -1      2645    3    0    1
 -2      1907      1921      2308      2338
 -1      2646    3    0    1
 -2       489       484       917      1173
 -1      2647    3    0    1
 -2       811      1337      1093       822
 -1      2648    3    0    1
 -2      1641      1822      2001      2156
 -1      2649    3    0    1
 -2       403      1152      1708      1764
 -1      2650    3    0    1
 -2       512       503       510      3055
 -1      2651    3    0    1
 -2       822      1337      2320      2397
 -1      2652    3    0    1
 -2      1656      1630      1704      2234
 -1      2653    3    0    1
 -2      1650      2089      2252      2361
 -1      2654    3    0    1
 -2       420        31       909      1761
 -1      2655    3    0    1
 -2      1830      1792      2097      2384
 -1      2656    3    0    1
 -2      2078      1304      2371      2682
 -1      2657    3    0    1
 -2      1118       859      1799      1821
 -1      2658    3    0    1
 -2      2296       586      2618      2670
 -1      2659    3    0    1
 -2      1269      1017       682      1756
 -1      2660    3    0    1
 -2      1538      1722      2337      2713
 -1      2661    3    0    1
 -2      2243      1786      2264      2602
 -1      2662    3    0    1
 -2      2740      1070      2775      2856
 -1      2663    3    0    1
 -2       191      1669      2558      2679
 -1      2664    3    0    1
 -2      1970      1980      2237      2438
 -1      2665    3    0    1
 -2       367      1093      1337      1879
 -1      2666    3    0    1
 -2      1269       682       675      1756
 -1      2667    3    0    1
 -2      1337      1087       824      1329
 -1      2668    3    0    1
 -2      1087      1337       824      1093
 -1      2669    3    0    1
 -2      1703      1777      2112      2235
 -1      2670    3    0    1
 -2      2242      1015      2301      2689
 -1      2671    3    0    1
 -2       651      1000      1004      2184
 -1      2672    3    0    1
 -2      1697      1742      1781      1972
 -1      2673    3    0    1
 -2      1622       308      1717      1743
 -1      2674    3    0    1
 -2      2294      1571      2667      2827
 -1      2675    3    0    1
 -2      1584      1681      1903      2286
 -1      2676    3    0    1
 -2      1905       396      1928      2069
 -1      2677    3    0    1
 -2      2412      1548      1789      2107
 -1      2678    3    0    1
 -2      2151       292      1091      2220
 -1      2679    3    0    1
 -2      1151      1110      2429      2469
 -1      2680    3    0    1
 -2      1631      1591      1728      2060
 -1      2681    3    0    1
 -2       792      1327       791       802
 -1      2682    3    0    1
 -2      1318       256      1074      2971
 -1      2683    3    0    1
 -2       766      1314       775       774
 -1      2684    3    0    1
 -2       909        31      1182      1761
 -1      2685    3    0    1
 -2      1034      1020      2006      2530
 -1      2686    3    0    1
 -2      1600       408      1754      1884
 -1      2687    3    0    1
 -2      2245       965      2296      2670
 -1      2688    3    0    1
 -2      1474      1499      3032      3057
 -1      2689    3    0    1
 -2      1614      1533      1940      2085
 -1      2690    3    0    1
 -2       919      1893      1901      1962
 -1      2691    3    0    1
 -2      1638      1758      2351      2398
 -1      2692    3    0    1
 -2      1524      1833      2580      2865
 -1      2693    3    0    1
 -2      2309      1226      2332      2615
 -1      2694    3    0    1
 -2      1820      1721      2002      2154
 -1      2695    3    0    1
 -2       471      1912      2122      2596
 -1      2696    3    0    1
 -2       408      1754      1884      1895
 -1      2697    3    0    1
 -2      1423      1439      1448      2981
 -1      2698    3    0    1
 -2       104       107      2044      2799
 -1      2699    3    0    1
 -2      1592      1533      2216      2448
 -1      2700    3    0    1
 -2      1650      1626      1819      1837
 -1      2701    3    0    1
 -2      2193      1918      2281      2286
 -1      2702    3    0    1
 -2      1388       312       319      1728
 -1      2703    3    0    1
 -2      1534      1606      1900      2157
 -1      2704    3    0    1
 -2       255       252      2510      2562
 -1      2705    3    0    1
 -2       890      1402      2095      2139
 -1      2706    3    0    1
 -2      1931      1772      2084      2418
 -1      2707    3    0    1
 -2        79        84       952      1911
 -1      2708    3    0    1
 -2      1132      2240      2421      2474
 -1      2709    3    0    1
 -2      1760      1738      2195      2328
 -1      2710    3    0    1
 -2      1689      1621      1718      1895
 -1      2711    3    0    1
 -2      1749      1703      1777      1861
 -1      2712    3    0    1
 -2        32       423      1893      2342
 -1      2713    3    0    1
 -2      1762       937      1823      1877
 -1      2714    3    0    1
 -2      1085      2678      2760      2849
 -1      2715    3    0    1
 -2       261      1617      2632      2817
 -1      2716    3    0    1
 -2       583       587       966      1217
 -1      2717    3    0    1
 -2      1523      1831      1932      1957
 -1      2718    3    0    1
 -2      1108      1401      2072      2487
 -1      2719    3    0    1
 -2       527      1202       940       534
 -1      2720    3    0    1
 -2      1570      1945      2456      2561
 -1      2721    3    0    1
 -2      1789      2262      2477      2547
 -1      2722    3    0    1
 -2       358      1597      1865      2741
 -1      2723    3    0    1
 -2      1589      1633      1647      2001
 -1      2724    3    0    1
 -2       904      2347      2440      2999
 -1      2725    3    0    1
 -2      1673      1602      1947      2160
 -1      2726    3    0    1
 -2       438       434      1106      2097
 -1      2727    3    0    1
 -2       409      2005      2133      2482
 -1      2728    3    0    1
 -2      2050        62      2391      2574
 -1      2729    3    0    1
 -2      1827      1627      1875      1892
 -1      2730    3    0    1
 -2      1770      2070      2071      2768
 -1      2731    3    0    1
 -2       850      1602      1665      2047
 -1      2732    3    0    1
 -2      1697      1554      1742      2177
 -1      2733    3    0    1
 -2       740      1303      1055       750
 -1      2734    3    0    1
 -2       410      1053      1865      2005
 -1      2735    3    0    1
 -2      2190      2236      2453      2503
 -1      2736    3    0    1
 -2      2370      1983      2379      2697
 -1      2737    3    0    1
 -2      1948      1226      2309      2615
 -1      2738    3    0    1
 -2      1599      1628      1825      2134
 -1      2739    3    0    1
 -2       909       471      1168      1912
 -1      2740    3    0    1
 -2      1546      1858      2155      2173
 -1      2741    3    0    1
 -2       859       893      1154      1723
 -1      2742    3    0    1
 -2        65       425       943      2406
 -1      2743    3    0    1
 -2       716      1292      1042       726
 -1      2744    3    0    1
 -2       667       678      2962      2965
 -1      2745    3    0    1
 -2       574      1228       579       586
 -1      2746    3    0    1
 -2       903      2053      2575      2587
 -1      2747    3    0    1
 -2      1568      1585      1705      2209
 -1      2748    3    0    1
 -2       117       111       601      1229
 -1      2749    3    0    1
 -2       246      1707      1803      2026
 -1      2750    3    0    1
 -2       318      1909      2321      2408
 -1      2751    3    0    1
 -2      1707      1943      2026      2250
 -1      2752    3    0    1
 -2      1968      2878      2879      2912
 -1      2753    3    0    1
 -2      2091      2541      2897      3077
 -1      2754    3    0    1
 -2       567       568       956      1812
 -1      2755    3    0    1
 -2      1800      1793      1952      2065
 -1      2756    3    0    1
 -2      1570      1829      1844      1944
 -1      2757    3    0    1
 -2      1582      1971      2662      2826
 -1      2758    3    0    1
 -2      1829      1141      1844      1944
 -1      2759    3    0    1
 -2       282       281      1996      2082
 -1      2760    3    0    1
 -2      2043       202      2584      2590
 -1      2761    3    0    1
 -2      2382      2241      2393      2532
 -1      2762    3    0    1
 -2       416       307      1716      2013
 -1      2763    3    0    1
 -2      1407       862      1122      1936
 -1      2764    3    0    1
 -2      1989        10      2544      2876
 -1      2765    3    0    1
 -2       124      1239      1748      2315
 -1      2766    3    0    1
 -2      1955      1562      2054      2417
 -1      2767    3    0    1
 -2      2974      3017      3018      3037
 -1      2768    3    0    1
 -2       682      1756      1929      2162
 -1      2769    3    0    1
 -2       749       224       752      1296
 -1      2770    3    0    1
 -2       861       885      1692      2016
 -1      2771    3    0    1
 -2       321       159      1261      1883
 -1      2772    3    0    1
 -2      1294      1040       730      2221
 -1      2773    3    0    1
 -2      1861      1261      2007      2033
 -1      2774    3    0    1
 -2       419      1181      2494      2653
 -1      2775    3    0    1
 -2      1664      1538      1689      1714
 -1      2776    3    0    1
 -2      1622      1717      1788      2512
 -1      2777    3    0    1
 -2       132       143       628      1245
 -1      2778    3    0    1
 -2      1735       156      2244      2465
 -1      2779    3    0    1
 -2      1594      1633      1652      2513
 -1      2780    3    0    1
 -2      1567      1613      2219      2737
 -1      2781    3    0    1
 -2      1476      1465      3117      3012
 -1      2782    3    0    1
 -2       406      1372      1153      1820
 -1      2783    3    0    1
 -2       142       320       994      2032
 -1      2784    3    0    1
 -2      2932      2922      3098      3126
 -1      2785    3    0    1
 -2       873       852      1913      2288
 -1      2786    3    0    1
 -2       355       342      1259      1897
 -1      2787    3    0    1
 -2       941       380      1863      2832
 -1      2788    3    0    1
 -2       904       462      1166      2440
 -1      2789    3    0    1
 -2       495       472      1963      2215
 -1      2790    3    0    1
 -2       751       726      1041      1796
 -1      2791    3    0    1
 -2      2145       332      2203      2791
 -1      2792    3    0    1
 -2      1658      1542      1794      2502
 -1      2793    3    0    1
 -2       315       325      2639      2825
 -1      2794    3    0    1
 -2       425      1998      2152      2406
 -1      2795    3    0    1
 -2       739      1301       744      1060
 -1      2796    3    0    1
 -2       248       252      1070      2275
 -1      2797    3    0    1
 -2       592      1965      2360      2630
 -1      2798    3    0    1
 -2      2006       688      2605      2751
 -1      2799    3    0    1
 -2       667      1270       679       678
 -1      2800    3    0    1
 -2      1698      2073      2217      2480
 -1      2801    3    0    1
 -2       860       894      2118      2282
 -1      2802    3    0    1
 -2      1665      1602      1673      2047
 -1      2803    3    0    1
 -2        79       952      1214      1911
 -1      2804    3    0    1
 -2      1529      1695      1887      2096
 -1      2805    3    0    1
 -2      1032      2517      2558      2588
 -1      2806    3    0    1
 -2      2061      1545      2101      2622
 -1      2807    3    0    1
 -2      1799      1118      1821      1919
 -1      2808    3    0    1
 -2       248       252      2275      2510
 -1      2809    3    0    1
 -2       462       487       915      2029
 -1      2810    3    0    1
 -2       473      2974      1507      3037
 -1      2811    3    0    1
 -2      1670      1533      1940      2087
 -1      2812    3    0    1
 -2      1598      1564      1602      1673
 -1      2813    3    0    1
 -2      1767      1729      2362      2700
 -1      2814    3    0    1
 -2      1907      1555      1921      2338
 -1      2815    3    0    1
 -2       918        37      1939      2552
 -1      2816    3    0    1
 -2      2989      1452      1488      3014
 -1      2817    3    0    1
 -2       869      1131      1631      1728
 -1      2818    3    0    1
 -2      1982      1646      2227      2742
 -1      2819    3    0    1
 -2      1578      1684      1753      2102
 -1      2820    3    0    1
 -2      1775      1591      1785      2187
 -1      2821    3    0    1
 -2      1402       403      1708      1764
 -1      2822    3    0    1
 -2       859      1405       893      1821
 -1      2823    3    0    1
 -2       586       961       965      2296
 -1      2824    3    0    1
 -2      1350      1738      1958      2328
 -1      2825    3    0    1
 -2       701      1025      1036      1274
 -1      2826    3    0    1
 -2      1764      1596      2095      2139
 -1      2827    3    0    1
 -2       909       472       471      1912
 -1      2828    3    0    1
 -2      2338      1751      2439      2470
 -1      2829    3    0    1
 -2      1094      1988      2012      2104
 -1      2830    3    0    1
 -2      1775      1785      2329      2652
 -1      2831    3    0    1
 -2      1261       651       658      1612
 -1      2832    3    0    1
 -2      1679      1961      2228      2356
 -1      2833    3    0    1
 -2      1812       567      2019      2046
 -1      2834    3    0    1
 -2      1341       833      1340      1710
 -1      2835    3    0    1
 -2       107       104      1953      2799
 -1      2836    3    0    1
 -2      1966      2089      2361      2362
 -1      2837    3    0    1
 -2        65       943      2225      2406
 -1      2838    3    0    1
 -2        53       924      2205      2311
 -1      2839    3    0    1
 -2       699       197      1029      1281
 -1      2840    3    0    1
 -2      1327       802      2142      2516
 -1      2841    3    0    1
 -2      1837      1650      2252      2361
 -1      2842    3    0    1
 -2       312      1388      1131      1728
 -1      2843    3    0    1
 -2      2103      1592      2216      2462
 -1      2844    3    0    1
 -2      1645      2419      2526      2580
 -1      2845    3    0    1
 -2        50       924      1194      2657
 -1      2846    3    0    1
 -2      1931      1579      2062      2165
 -1      2847    3    0    1
 -2       159       161      1001      2007
 -1      2848    3    0    1
 -2       385       950      1937      2056
 -1      2849    3    0    1
 -2      1592      2148      2448      2462
 -1      2850    3    0    1
 -2       822      1092      1765      2320
 -1      2851    3    0    1
 -2      1143       882      2421      2474
 -1      2852    3    0    1
 -2      1315      2966       774      1067
 -1      2853    3    0    1
 -2      2008      1250      2175      2222
 -1      2854    3    0    1
 -2      2182      1524      2236      2580
 -1      2855    3    0    1
 -2      1553      1539      1656      2066
 -1      2856    3    0    1
 -2      1808      1397      1874      1875
 -1      2857    3    0    1
 -2      2486      2213      2525      2593
 -1      2858    3    0    1
 -2      2823      2798      2866      2872
 -1      2859    3    0    1
 -2      1367      1150      1611      1624
 -1      2860    3    0    1
 -2      1921      1385      2308      2338
 -1      2861    3    0    1
 -2       360       102      1581      2309
 -1      2862    3    0    1
 -2      1558      1603      1808      1838
 -1      2863    3    0    1
 -2       860      1155      1374      1677
 -1      2864    3    0    1
 -2      1069      2057      2507      2643
 -1      2865    3    0    1
 -2       929      2113      2169      2363
 -1      2866    3    0    1
 -2       907       460       908      1159
 -1      2867    3    0    1
 -2       453       907       908      1159
 -1      2868    3    0    1
 -2       453      1160       907      1159
 -1      2869    3    0    1
 -2       453      1160       454       907
 -1      2870    3    0    1
 -2       460         4       470      1159
 -1      2871    3    0    1
 -2         9         4       460      1159
 -1      2872    3    0    1
 -2       454      1168      1161       453
 -1      2873    3    0    1
 -2       456      1167       455       466
 -1      2874    3    0    1
 -2       395      1340      1691      1710
 -1      2875    3    0    1
 -2      1853       907      1097      2431
 -1      2876    3    0    1
 -2      2228      1679      2356      2493
 -1      2877    3    0    1
 -2      1035      1709      2617      2738
 -1      2878    3    0    1
 -2       902      1164       455      1162
 -1      2879    3    0    1
 -2      1951      1732      2458      2597
 -1      2880    3    0    1
 -2      1166      3040      3061      3060
 -1      2881    3    0    1
 -2      1430      1457      1486      3062
 -1      2882    3    0    1
 -2      3021      1454      3052      3054
 -1      2883    3    0    1
 -2      1983      2506      2835      2901
 -1      2884    3    0    1
 -2      3015      2968      3049      3063
 -1      2885    3    0    1
 -2      1486      1457      1514      3062
 -1      2886    3    0    1
 -2       449      3040      3041      3061
 -1      2887    3    0    1
 -2       455       459       466      1167
 -1      2888    3    0    1
 -2       460       901      1163      1167
 -1      2889    3    0    1
 -2       455       903       459      1167
 -1      2890    3    0    1
 -2       903       455       901      1167
 -1      2891    3    0    1
 -2       455      1163       901      1167
 -1      2892    3    0    1
 -2       901       460       903      1167
 -1      2893    3    0    1
 -2       461      1161       464      1168
 -1      2894    3    0    1
 -2       461        12       909      1168
 -1      2895    3    0    1
 -2        12       461       464      1168
 -1      2896    3    0    1
 -2       900       461       909      1168
 -1      2897    3    0    1
 -2      1161       461       900      1168
 -1      2898    3    0    1
 -2        14       467       377      1168
 -1      2899    3    0    1
 -2       467        14       464      1168
 -1      2900    3    0    1
 -2        19       484       489      1173
 -1      2901    3    0    1
 -2       453      1161       900      1168
 -1      2902    3    0    1
 -2       909       453       900      1168
 -1      2903    3    0    1
 -2       476      1178       475       483
 -1      2904    3    0    1
 -2        26       485       911      1177
 -1      2905    3    0    1
 -2        62       380       937      2832
 -1      2906    3    0    1
 -2        19       493        35      1173
 -1      2907    3    0    1
 -2       493        19       489      1173
 -1      2908    3    0    1
 -2       478      1182       496       477
 -1      2909    3    0    1
 -2       488        21       491      1174
 -1      2910    3    0    1
 -2        29        21       488      1174
 -1      2911    3    0    1
 -2       478      1182       919       496
 -1      2912    3    0    1
 -2        22       494       484      1176
 -1      2913    3    0    1
 -2       917       477      1173      1176
 -1      2914    3    0    1
 -2      1706      1396      1944      1979
 -1      2915    3    0    1
 -2       313      1392      1127      2464
 -1      2916    3    0    1
 -2      1572      1760      2123      2172
 -1      2917    3    0    1
 -2      2095       890      2139      2429
 -1      2918    3    0    1
 -2       543       942      2592      2729
 -1      2919    3    0    1
 -2      1992      1867      2291      2327
 -1      2920    3    0    1
 -2       244      2263      2365      2483
 -1      2921    3    0    1
 -2       483       475       490      1178
 -1      2922    3    0    1
 -2       916       475      1172      1178
 -1      2923    3    0    1
 -2       490       475       916      1178
 -1      2924    3    0    1
 -2      1742      1655      1972      2127
 -1      2925    3    0    1
 -2       485       911      1177      1179
 -1      2926    3    0    1
 -2       911       485       915      1179
 -1      2927    3    0    1
 -2      1809      1679      1961      2228
 -1      2928    3    0    1
 -2       991      1736      2290      2669
 -1      2929    3    0    1
 -2       486       479       487      1179
 -1      2930    3    0    1
 -2      2073      1698      2428      2745
 -1      2931    3    0    1
 -2       479       915       487      1179
 -1      2932    3    0    1
 -2       911       479      1177      1179
 -1      2933    3    0    1
 -2       915       479       911      1179
 -1      2934    3    0    1
 -2      1588       413      2612      2633
 -1      2935    3    0    1
 -2       476      1181       475      1170
 -1      2936    3    0    1
 -2        32      1182       488        30
 -1      2937    3    0    1
 -2        30       491        31      1182
 -1      2938    3    0    1
 -2       491        30       488      1182
 -1      2939    3    0    1
 -2       478      1182       477      1174
 -1      2940    3    0    1
 -2       517        39       513      1187
 -1      2941    3    0    1
 -2       508      1187        38       920
 -1      2942    3    0    1
 -2       921       509       928      1188
 -1      2943    3    0    1
 -2       515        45        51      1188
 -1      2944    3    0    1
 -2        45       515       511      1188
 -1      2945    3    0    1
 -2      1547      1591      1755      1780
 -1      2946    3    0    1
 -2      1758      1638      1908      2398
 -1      2947    3    0    1
 -2       981       993      2174      2527
 -1      2948    3    0    1
 -2       505       927      1186      1191
 -1      2949    3    0    1
 -2      1807       944      1810      1956
 -1      2950    3    0    1
 -2      1137       305       379      1908
 -1      2951    3    0    1
 -2      1734      1620      1789      2039
 -1      2952    3    0    1
 -2      1400      1665      1787      2047
 -1      2953    3    0    1
 -2       499      1186       927      1191
 -1      2954    3    0    1
 -2       507       499       927      1191
 -1      2955    3    0    1
 -2      1146       861       885      1692
 -1      2956    3    0    1
 -2      1539      2201      2290      2641
 -1      2957    3    0    1
 -2       503       926       510      1192
 -1      2958    3    0    1
 -2      1190       509       922      1192
 -1      2959    3    0    1
 -2       922       509       926      1192
 -1      2960    3    0    1
 -2       778      1316      2198      2573
 -1      2961    3    0    1
 -2       926       503       922      1192
 -1      2962    3    0    1
 -2       503      1190       922      1192
 -1      2963    3    0    1
 -2         3         2      3040      3041
 -1      2964    3    0    1
 -2      2578       346      2603      2640
 -1      2965    3    0    1
 -2       508       924      1184      1194
 -1      2966    3    0    1
 -2       513       508      1184      1194
 -1      2967    3    0    1
 -2        50       508       513      1194
 -1      2968    3    0    1
 -2      1800      1606      1900      1952
 -1      2969    3    0    1
 -2       992      2425      2603      2640
 -1      2970    3    0    1
 -2      2164      2035      2278      2874
 -1      2971    3    0    1
 -2       487       915      2029      2492
 -1      2972    3    0    1
 -2       507      1194       499       924
 -1      2973    3    0    1
 -2       508        50       924      1194
 -1      2974    3    0    1
 -2        61       529      1196      1198
 -1      2975    3    0    1
 -2      2075      2024      2284      2285
 -1      2976    3    0    1
 -2      1551      2370      2379      2697
 -1      2977    3    0    1
 -2      1464      1422      3118      3045
 -1      2978    3    0    1
 -2      2927      2636      3100      3120
 -1      2979    3    0    1
 -2        58       533       535      1201
 -1      2980    3    0    1
 -2       535       940      1199      1201
 -1      2981    3    0    1
 -2        58       535      1199      1201
 -1      2982    3    0    1
 -2       533       372       535      1202
 -1      2983    3    0    1
 -2      1456      3069      3089      2996
 -1      2984    3    0    1
 -2      1400       850      1107      2047
 -1      2985    3    0    1
 -2      1565      1916      2036      2354
 -1      2986    3    0    1
 -2      2310      1916      2335      2354
 -1      2987    3    0    1
 -2       535       940      1201      1202
 -1      2988    3    0    1
 -2       533       535      1201      1202
 -1      2989    3    0    1
 -2       403       303      1152      1764
 -1      2990    3    0    1
 -2      2170      2449      2501      2524
 -1      2991    3    0    1
 -2       535       372       940      1202
 -1      2992    3    0    1
 -2        65        68       532      1204
 -1      2993    3    0    1
 -2       933      1204       524      1197
 -1      2994    3    0    1
 -2       532        68       938      1204
 -1      2995    3    0    1
 -2       548      1208       549       950
 -1      2996    3    0    1
 -2       548      1208       950      1207
 -1      2997    3    0    1
 -2       546        81      2991      2992
 -1      2998    3    0    1
 -2       142       988      2008      2112
 -1      2999    3    0    1
 -2       946       557       954      1212
 -1      3000    3    0    1
 -2       563        75        90      1212
 -1      3001    3    0    1
 -2        75       563       559      1212
 -1      3002    3    0    1
 -2       548      1209       953      1213
 -1      3003    3    0    1
 -2       555       548       953      1213
 -1      3004    3    0    1
 -2       553      1209       554      1213
 -1      3005    3    0    1
 -2      1209       553       953      1213
 -1      3006    3    0    1
 -2        77       553       554      1213
 -1      3007    3    0    1
 -2       557        79       952      1214
 -1      3008    3    0    1
 -2      1211       557       947      1214
 -1      3009    3    0    1
 -2       947       557       952      1214
 -1      3010    3    0    1
 -2       320       139      2032      2175
 -1      3011    3    0    1
 -2       909      1912      2020      2702
 -1      3012    3    0    1
 -2       952       550       947      1214
 -1      3013    3    0    1
 -2       550      1211       947      1214
 -1      3014    3    0    1
 -2      1522      1536      1626      2875
 -1      3015    3    0    1
 -2      1755      2066      2437      2528
 -1      3016    3    0    1
 -2       556       950      1207      1216
 -1      3017    3    0    1
 -2       561       556      1207      1216
 -1      3018    3    0    1
 -2       555      1216       548       950
 -1      3019    3    0    1
 -2      1671      1567      1803      1852
 -1      3020    3    0    1
 -2        94       587       583      1217
 -1      3021    3    0    1
 -2      2370      2378      2899      2906
 -1      3022    3    0    1
 -2       964       572      1218      1221
 -1      3023    3    0    1
 -2       573      1226       572       582
 -1      3024    3    0    1
 -2       577        98       578      1222
 -1      3025    3    0    1
 -2      1228       575       962      1223
 -1      3026    3    0    1
 -2       575      1228       962       579
 -1      3027    3    0    1
 -2       961       574      1222      1225
 -1      3028    3    0    1
 -2      1643      1740      1757      1923
 -1      3029    3    0    1
 -2       392       378      1866      2754
 -1      3030    3    0    1
 -2       466      1713      2058      2326
 -1      3031    3    0    1
 -2       581       964      1221      1226
 -1      3032    3    0    1
 -2      1700      1365      1746      2665
 -1      3033    3    0    1
 -2      1639      1531      1730      1739
 -1      3034    3    0    1
 -2      1577      1653      2028      2190
 -1      3035    3    0    1
 -2       582       572       584      1226
 -1      3036    3    0    1
 -2       964       572      1221      1226
 -1      3037    3    0    1
 -2       584       572       964      1226
 -1      3038    3    0    1
 -2       360      1581      2049      2309
 -1      3039    3    0    1
 -2      1530      1826      2065      2143
 -1      3040    3    0    1
 -2       305      1137      1114      1908
 -1      3041    3    0    1
 -2      1962        31      1182        30
 -1      3042    3    0    1
 -2       466       459       906      2058
 -1      3043    3    0    1
 -2       575      1228       574      1223
 -1      3044    3    0    1
 -2      2236      1645      2526      2580
 -1      3045    3    0    1
 -2       605       607       979      1233
 -1      3046    3    0    1
 -2       605       114       607      1233
 -1      3047    3    0    1
 -2       979      1234      1233       597
 -1      3048    3    0    1
 -2       979      1234       605      1233
 -1      3049    3    0    1
 -2      1234       979       605       982
 -1      3050    3    0    1
 -2       597      1234       598       982
 -1      3051    3    0    1
 -2       607       112       611      1233
 -1      3052    3    0    1
 -2       120       112       607      1233
 -1      3053    3    0    1
 -2       173       332      1014      2203
 -1      3054    3    0    1
 -2      1657      1923      2519      2648
 -1      3055    3    0    1
 -2      3104      3113      1505      1506
 -1      3056    3    0    1
 -2      1390       878      1775      1785
 -1      3057    3    0    1
 -2       123       121       605      1237
 -1      3058    3    0    1
 -2       605       121       977      1237
 -1      3059    3    0    1
 -2      1737      2123      2195      2704
 -1      3060    3    0    1
 -2      1810        89      1880      1987
 -1      3061    3    0    1
 -2       599       977       606      1237
 -1      3062    3    0    1
 -2       605       972      1236      1237
 -1      3063    3    0    1
 -2       972       605       977      1237
 -1      3064    3    0    1
 -2       977       599       972      1237
 -1      3065    3    0    1
 -2       599      1236       972      1237
 -1      3066    3    0    1
 -2      1107       399      1400      1787
 -1      3067    3    0    1
 -2       356      1044      1981      2426
 -1      3068    3    0    1
 -2       604       975      1230      1239
 -1      3069    3    0    1
 -2       609       604      1230      1239
 -1      3070    3    0    1
 -2      1886      1922      2531      2052
 -1      3071    3    0    1
 -2      1548      2352      2547      2693
 -1      3072    3    0    1
 -2       603      1239       595       975
 -1      3073    3    0    1
 -2       130       625      1240      1242
 -1      3074    3    0    1
 -2       628       638       994      1245
 -1      3075    3    0    1
 -2       632       133       635      1243
 -1      3076    3    0    1
 -2       134       133       632      1243
 -1      3077    3    0    1
 -2       140       636       147      1244
 -1      3078    3    0    1
 -2       636       140       629      1244
 -1      3079    3    0    1
 -2       621       992      1243      1244
 -1      3080    3    0    1
 -2      1625       405      2250      2313
 -1      3081    3    0    1
 -2      1543      2067      2093      2619
 -1      3082    3    0    1
 -2       625       991      1242      1247
 -1      3083    3    0    1
 -2       626       625      1242      1247
 -1      3084    3    0    1
 -2       136       626       137      1247
 -1      3085    3    0    1
 -2       625       136       991      1247
 -1      3086    3    0    1
 -2       626       136       625      1247
 -1      3087    3    0    1
 -2      1053      1305      1865      1873
 -1      3088    3    0    1
 -2      1662      1526      2228      2271
 -1      3089    3    0    1
 -2       629       632      1246      1248
 -1      3090    3    0    1
 -2       629       138       632      1248
 -1      3091    3    0    1
 -2       531       938      1637      1997
 -1      3092    3    0    1
 -2       986      1248       624      1246
 -1      3093    3    0    1
 -2       632       138       990      1248
 -1      3094    3    0    1
 -2      1473       158      3102      2969
 -1      3095    3    0    1
 -2      1531      1550      1636      1797
 -1      3096    3    0    1
 -2      1152       303      1370      1764
 -1      3097    3    0    1
 -2       983      1250       619      1241
 -1      3098    3    0    1
 -2       628       320       988      1250
 -1      3099    3    0    1
 -2       662       153       163      1257
 -1      3100    3    0    1
 -2       653       656      1005      1255
 -1      3101    3    0    1
 -2       150      1256      1255       653
 -1      3102    3    0    1
 -2      1256      1005       653      1008
 -1      3103    3    0    1
 -2       645      1256       646      1008
 -1      3104    3    0    1
 -2      1005      1256      1255       645
 -1      3105    3    0    1
 -2      1005      1256       653      1255
 -1      3106    3    0    1
 -2       659       150       151      1255
 -1      3107    3    0    1
 -2       150       659       656      1255
 -1      3108    3    0    1
 -2      1589      1641      1647      2064
 -1      3109    3    0    1
 -2      3079      3068      1458      1459
 -1      3110    3    0    1
 -2       355       342       653      1259
 -1      3111    3    0    1
 -2       653       342      1003      1259
 -1      3112    3    0    1
 -2       839      1868      1959      2230
 -1      3113    3    0    1
 -2      2137        41      2306      2862
 -1      3114    3    0    1
 -2       647      1003       654      1259
 -1      3115    3    0    1
 -2      1258       653       998      1259
 -1      3116    3    0    1
 -2       998       653      1003      1259
 -1      3117    3    0    1
 -2      1003       647       998      1259
 -1      3118    3    0    1
 -2       647      1258       998      1259
 -1      3119    3    0    1
 -2       652      1001      1252      1261
 -1      3120    3    0    1
 -2       657       652      1252      1261
 -1      3121    3    0    1
 -2      1353       317      2433      2710
 -1      3122    3    0    1
 -2       651      1261       643      1001
 -1      3123    3    0    1
 -2       668      1270      1016       679
 -1      3124    3    0    1
 -2      1271      1015      1423      3007
 -1      3125    3    0    1
 -2       175       684       183      1264
 -1      3126    3    0    1
 -2       684       175       677      1264
 -1      3127    3    0    1
 -2       686       169       182      1265
 -1      3128    3    0    1
 -2       169       686       676      1265
 -1      3129    3    0    1
 -2       677       174      1016      1270
 -1      3130    3    0    1
 -2       672      1269       682       671
 -1      3131    3    0    1
 -2      1013      1269      1017       672
 -1      3132    3    0    1
 -2       672      1269      1017       682
 -1      3133    3    0    1
 -2      1014       671      1266      1268
 -1      3134    3    0    1
 -2       672      1272       671       682
 -1      3135    3    0    1
 -2      1605       929      2169      2363
 -1      3136    3    0    1
 -2       156      1633      2465      2513
 -1      3137    3    0    1
 -2      1741      1572      2172      2196
 -1      3138    3    0    1
 -2       868       881      2208      2302
 -1      3139    3    0    1
 -2       859      1154      1373      1723
 -1      3140    3    0    1
 -2       672      1269       671      1267
 -1      3141    3    0    1
 -2      1013      1269       672      1267
 -1      3142    3    0    1
 -2       514      2094      2657      2830
 -1      3143    3    0    1
 -2      1401      1770      2487      2674
 -1      3144    3    0    1
 -2       668      1270       667      1262
 -1      3145    3    0    1
 -2      1010      1270       668      1262
 -1      3146    3    0    1
 -2       989      2850      1433      3104
 -1      3147    3    0    1
 -2      1260      2762      2850      3104
 -1      3148    3    0    1
 -2       711      2006      2781      2864
 -1      3149    3    0    1
 -2      1626      1668      2340      2795
 -1      3150    3    0    1
 -2       682       671       675      1272
 -1      3151    3    0    1
 -2      1014       671      1268      1272
 -1      3152    3    0    1
 -2      2019       954      2238      2695
 -1      3153    3    0    1
 -2       675       671      1014      1272
 -1      3154    3    0    1
 -2       699      1029      1276      1278
 -1      3155    3    0    1
 -2       227       747      1047      1302
 -1      3156    3    0    1
 -2      1373      1723      2410      2031
 -1      3157    3    0    1
 -2       434      1792      1816      1839
 -1      3158    3    0    1
 -2      1932      1606      1952      1957
 -1      3159    3    0    1
 -2      1022       701      1031      1279
 -1      3160    3    0    1
 -2      1657      1923      2304      2519
 -1      3161    3    0    1
 -2        84        79       954      1935
 -1      3162    3    0    1
 -2       993       639       640      1860
 -1      3163    3    0    1
 -2      3012      1418       951      3038
 -1      3164    3    0    1
 -2       702      1030      2975      2976
 -1      3165    3    0    1
 -2       487       479      2973      3017
 -1      3166    3    0    1
 -2       699      1029      1278      1281
 -1      3167    3    0    1
 -2       705       699      1278      1281
 -1      3168    3    0    1
 -2       300      1104      1357      1793
 -1      3169    3    0    1
 -2      1687      1913      2288      2565
 -1      3170    3    0    1
 -2      1663      1920      2341      2445
 -1      3171    3    0    1
 -2       695       700       706      1281
 -1      3172    3    0    1
 -2       700       695      1029      1281
 -1      3173    3    0    1
 -2      2924      2879      3081      3097
 -1      3174    3    0    1
 -2      3074      1848      1448      3102
 -1      3175    3    0    1
 -2       719      1294      1289      1040
 -1      3176    3    0    1
 -2      1040       719      1287      1289
 -1      3177    3    0    1
 -2       218       207       729      1290
 -1      3178    3    0    1
 -2       207       723       729      1290
 -1      3179    3    0    1
 -2       209       208       721      1288
 -1      3180    3    0    1
 -2       721      1043      1286      1288
 -1      3181    3    0    1
 -2       209       721      1286      1288
 -1      3182    3    0    1
 -2       723       207       729      1289
 -1      3183    3    0    1
 -2       723      1040      1287      1289
 -1      3184    3    0    1
 -2       207       723      1287      1289
 -1      3185    3    0    1
 -2       729       723      1045      1290
 -1      3186    3    0    1
 -2      1037       729      1045      1290
 -1      3187    3    0    1
 -2       734       207       219      1290
 -1      3188    3    0    1
 -2       207       734       723      1290
 -1      3189    3    0    1
 -2      1545      1594      1633      1652
 -1      3190    3    0    1
 -2       721      1043      1288      1291
 -1      3191    3    0    1
 -2       722       721      1288      1291
 -1      3192    3    0    1
 -2      1228       579       586      2618
 -1      3193    3    0    1
 -2      1181        34      2000      2653
 -1      3194    3    0    1
 -2       213       722       413      1291
 -1      3195    3    0    1
 -2       721       213      1043      1291
 -1      3196    3    0    1
 -2       722       213       721      1291
 -1      3197    3    0    1
 -2      1740      1916      2310      2354
 -1      3198    3    0    1
 -2       725       728      1284      1292
 -1      3199    3    0    1
 -2       725       212       728      1292
 -1      3200    3    0    1
 -2      1336       282      2319      2559
 -1      3201    3    0    1
 -2      1038      1292       716      1284
 -1      3202    3    0    1
 -2       728       212      1042      1292
 -1      3203    3    0    1
 -2      1473       354      2964      3113
 -1      3204    3    0    1
 -2       729       723      1289      1294
 -1      3205    3    0    1
 -2       334       414       723      1294
 -1      3206    3    0    1
 -2       723       414      1040      1294
 -1      3207    3    0    1
 -2       728      1046      1039      1295
 -1      3208    3    0    1
 -2      1046       728      1039       725
 -1      3209    3    0    1
 -2       212       731       221      1295
 -1      3210    3    0    1
 -2       731       212       728      1295
 -1      3211    3    0    1
 -2      1039      1295       715      1282
 -1      3212    3    0    1
 -2       243       771      1065      1306
 -1      3213    3    0    1
 -2      1057      1301       739      1060
 -1      3214    3    0    1
 -2       224      1301       749       229
 -1      3215    3    0    1
 -2       227       758       747      1302
 -1      3216    3    0    1
 -2       213      2419      2627      2861
 -1      3217    3    0    1
 -2      1724      1984      2087      2121
 -1      3218    3    0    1
 -2       365       350       749      1303
 -1      3219    3    0    1
 -2       749       350      1055      1303
 -1      3220    3    0    1
 -2       854      1369      1699      1741
 -1      3221    3    0    1
 -2      2478      1769      2786      2818
 -1      3222    3    0    1
 -2      1049      1303       740      1297
 -1      3223    3    0    1
 -2      1454      1429      1485      3052
 -1      3224    3    0    1
 -2      1427      1429      3126      3052
 -1      3225    3    0    1
 -2       742       748       754      1305
 -1      3226    3    0    1
 -2      1300       747      1050      1305
 -1      3227    3    0    1
 -2       742      1053       748      1305
 -1      3228    3    0    1
 -2      1053       742      1050      1305
 -1      3229    3    0    1
 -2       742      1300      1050      1305
 -1      3230    3    0    1
 -2      1050       747      1053      1305
 -1      3231    3    0    1
 -2      1083       796      1084      1319
 -1      3232    3    0    1
 -2       765      1313      1069       778
 -1      3233    3    0    1
 -2       259       797      1075      1317
 -1      3234    3    0    1
 -2      1066       764      1307      1310
 -1      3235    3    0    1
 -2       765      1316       764       778
 -1      3236    3    0    1
 -2       767      1314       775       766
 -1      3237    3    0    1
 -2      1063      1314      1068       767
 -1      3238    3    0    1
 -2       767      1314      1068       775
 -1      3239    3    0    1
 -2       104       107       962      2044
 -1      3240    3    0    1
 -2       994      1934      2055      2100
 -1      3241    3    0    1
 -2      2286      2054      2416      2642
 -1      3242    3    0    1
 -2      1624      1611      1787      1835
 -1      3243    3    0    1
 -2      1672      1580      2038      2292
 -1      3244    3    0    1
 -2      1068      2510      2753      2777
 -1      3245    3    0    1
 -2       282       281      1336      1836
 -1      3246    3    0    1
 -2      1613      1721      2002      2737
 -1      3247    3    0    1
 -2       765      1313       764      1308
 -1      3248    3    0    1
 -2      1182       909      1761      2358
 -1      3249    3    0    1
 -2       767      1314       766      1311
 -1      3250    3    0    1
 -2      1063      1314       767      1311
 -1      3251    3    0    1
 -2      2923      1452      3091      2967
 -1      3252    3    0    1
 -2      1445      3080      3112      3132
 -1      3253    3    0    1
 -2       366        67      1202      1629
 -1      3254    3    0    1
 -2      1771      1543      2063      2067
 -1      3255    3    0    1
 -2      1867      1713      2577      2591
 -1      3256    3    0    1
 -2       778       764       772      1316
 -1      3257    3    0    1
 -2      1066       764      1310      1316
 -1      3258    3    0    1
 -2       772       764      1066      1316
 -1      3259    3    0    1
 -2       789      1320       790      1083
 -1      3260    3    0    1
 -2       796       257       806      1319
 -1      3261    3    0    1
 -2       258       257       796      1319
 -1      3262    3    0    1
 -2       790      1328      1321       789
 -1      3263    3    0    1
 -2       803       800      1321      1328
 -1      3264    3    0    1
 -2      2158      1079      2210      2623
 -1      3265    3    0    1
 -2      1969      1843      2237      2488
 -1      3266    3    0    1
 -2      2130      1143      2421      2474
 -1      3267    3    0    1
 -2      2355       299      2671      2717
 -1      3268    3    0    1
 -2      1712      1053      1865      1873
 -1      3269    3    0    1
 -2       944      1807      1973      2299
 -1      3270    3    0    1
 -2      1340       294      1341      1710
 -1      3271    3    0    1
 -2      1078      1324       791      1322
 -1      3272    3    0    1
 -2      1075      1325       787      1317
 -1      3273    3    0    1
 -2      2453      2409      2539      2736
 -1      3274    3    0    1
 -2       463       462      1166      3040
 -1      3275    3    0    1
 -2      1326      1080      2994      3128
 -1      3276    3    0    1
 -2       985      2968      3015      3050
 -1      3277    3    0    1
 -2       263       256      2971      2972
 -1      3278    3    0    1
 -2        78       359      3125      3131
 -1      3279    3    0    1
 -2      1323       796      1077      1327
 -1      3280    3    0    1
 -2       796       273      1079      1327
 -1      3281    3    0    1
 -2       791      1079       795      1327
 -1      3282    3    0    1
 -2      1079       791      1077      1327
 -1      3283    3    0    1
 -2       791      1323      1077      1327
 -1      3284    3    0    1
 -2      1077       796      1079      1327
 -1      3285    3    0    1
 -2       789      1321      1076      1328
 -1      3286    3    0    1
 -2      1085       789      1076      1328
 -1      3287    3    0    1
 -2       830       283       289      1331
 -1      3288    3    0    1
 -2       283       830       820      1331
 -1      3289    3    0    1
 -2       285       278       824      1333
 -1      3290    3    0    1
 -2      1090      1336       818      1094
 -1      3291    3    0    1
 -2       280       818      1090      1334
 -1      3292    3    0    1
 -2       820       283       825      1335
 -1      3293    3    0    1
 -2      1089      1339       820      1091
 -1      3294    3    0    1
 -2       283       820      1089      1335
 -1      3295    3    0    1
 -2      1606      1788      1806      1900
 -1      3296    3    0    1
 -2      1796      1292      2550      2571
 -1      3297    3    0    1
 -2      1809      1679      2228      2493
 -1      3298    3    0    1
 -2       817       818      1334      1336
 -1      3299    3    0    1
 -2       282       281       817      1336
 -1      3300    3    0    1
 -2      1090      1336       815      1334
 -1      3301    3    0    1
 -2       818       281      1094      1336
 -1      3302    3    0    1
 -2       817       281       818      1336
 -1      3303    3    0    1
 -2      1363      1364      1642      2254
 -1      3304    3    0    1
 -2      1087      1337       811      1329
 -1      3305    3    0    1
 -2       824       367      1093      1337
 -1      3306    3    0    1
 -2       380      1802      2324      2832
 -1      3307    3    0    1
 -2       287       290       820      1339
 -1      3308    3    0    1
 -2      1089      1339       816      1335
 -1      3309    3    0    1
 -2       820       290      1091      1339
 -1      3310    3    0    1
 -2      1916      1925      2036      2354
 -1      3311    3    0    1
 -2       404      2142      2581      2814
 -1      3312    3    0    1
 -2      2022      1947      1598      2176
 -1      3313    3    0    1
 -2      1953       104      2044      2799
 -1      3314    3    0    1
 -2       138       990      1248      1648
 -1      3315    3    0    1
 -2      2082      1724      2121      2372
 -1      3316    3    0    1
 -2       398       906      1989      2544
 -1      3317    3    0    1
 -2      1646       754      1711      1712
 -1      3318    3    0    1
 -2       360       102       966      1581
 -1      3319    3    0    1
 -2      1111      1764      2095      2139
 -1      3320    3    0    1
 -2      1071      1059      1974      2133
 -1      3321    3    0    1
 -2      1551      1528      2099      2385
 -1      3322    3    0    1
 -2        32        30       915      1962
 -1      3323    3    0    1
 -2      2012      1984      2080      2121
 -1      3324    3    0    1
 -2      1526      1683      1858      2173
 -1      3325    3    0    1
 -2      1980      1843      2237      2438
 -1      3326    3    0    1
 -2      1079       795      2011      2103
 -1      3327    3    0    1
 -2      1151       401      2469      2473
 -1      3328    3    0    1
 -2      1638      1908      2398      2688
 -1      3329    3    0    1
 -2       284       367      1337      1879
 -1      3330    3    0    1
 -2      1693       382      1938      2274
 -1      3331    3    0    1
 -2      1940      1724      2071      2087
 -1      3332    3    0    1
 -2      1883       321      1975      2033
 -1      3333    3    0    1
 -2        17       907      1817      2122
 -1      3334    3    0    1
 -2        12       909      1912      2020
 -1      3335    3    0    1
 -2      1372       406       437      1820
 -1      3336    3    0    1
 -2      2548      1045      2764      2852
 -1      3337    3    0    1
 -2        89        83      1216      1880
 -1      3338    3    0    1
 -2       324      2251      2277      2298
 -1      3339    3    0    1
 -2       442      1376      1157      2350
 -1      3340    3    0    1
 -2      1670      1940      2071      2087
 -1      3341    3    0    1
 -2      1923      1559      2519      2648
 -1      3342    3    0    1
 -2      2197      2128      2569      2601
 -1      3343    3    0    1
 -2      1802      1815      2481      2716
 -1      3344    3    0    1
 -2      1751      2226      2338      2439
 -1      3345    3    0    1
 -2       300       390      1104      1793
 -1      3346    3    0    1
 -2       842      1103      1680      1794
 -1      3347    3    0    1
 -2      1995      2090      2537      2549
 -1      3348    3    0    1
 -2      1703      1586      1744      1749
 -1      3349    3    0    1
 -2      1857      1350      1958      2328
 -1      3350    3    0    1
 -2       246      1803      1852      2057
 -1      3351    3    0    1
 -2      1671      1723      2031      2219
 -1      3352    3    0    1
 -2      1900      1534      2157      2512
 -1      3353    3    0    1
 -2      1913      1640      2267      2333
 -1      3354    3    0    1
 -2       439       399      1107      1787
 -1      3355    3    0    1
 -2      1052      1056      1712      2423
 -1      3356    3    0    1
 -2      1695      1676      1903      2416
 -1      3357    3    0    1
 -2       877       869      1631      1649
 -1      3358    3    0    1
 -2      2174       993      2395      2527
 -1      3359    3    0    1
 -2       145      2634      2827      2829
 -1      3360    3    0    1
 -2      1637       531      1846      2287
 -1      3361    3    0    1
 -2      1820      1566      1889      1898
 -1      3362    3    0    1
 -2      1576        77      1885      1914
 -1      3363    3    0    1
 -2       950      1216      1790      2014
 -1      3364    3    0    1
 -2      1612       651      2241      2782
 -1      3365    3    0    1
 -2      2873      1536      2875      2876
 -1      3366    3    0    1
 -2      1805      1954      2367      2559
 -1      3367    3    0    1
 -2      1588      1525      1635      1847
 -1      3368    3    0    1
 -2      1586      1703      1924      2297
 -1      3369    3    0    1
 -2      1638      1758      1781      2351
 -1      3370    3    0    1
 -2      2052       627      2297      2316
 -1      3371    3    0    1
 -2       859       893      1799      1821
 -1      3372    3    0    1
 -2       531      1637      1846      1997
 -1      3373    3    0    1
 -2      1032      1028      2517      2624
 -1      3374    3    0    1
 -2      1702       883      2168      2621
 -1      3375    3    0    1
 -2       405      2197      2250      2313
 -1      3376    3    0    1
 -2       907        17      2059      2122
 -1      3377    3    0    1
 -2      1402       303       403      1764
 -1      3378    3    0    1
 -2      1918      2054      2193      2283
 -1      3379    3    0    1
 -2      1096      1783      2255      2343
 -1      3380    3    0    1
 -2       126       124      1239      1748
 -1      3381    3    0    1
 -2       174       179      2605      2611
 -1      3382    3    0    1
 -2      1962       915        31        30
 -1      3383    3    0    1
 -2       371       244      1072      2263
 -1      3384    3    0    1
 -2      1996      1563      2082      2372
 -1      3385    3    0    1
 -2      2027      1715      2321      2408
 -1      3386    3    0    1
 -2      1017      1756      1941      1960
 -1      3387    3    0    1
 -2        84      1911      2109      2238
 -1      3388    3    0    1
 -2      1707      1721      2025      2026
 -1      3389    3    0    1
 -2      1408      2563      2620      2722
 -1      3390    3    0    1
 -2      1104      1793      1826      2040
 -1      3391    3    0    1
 -2      1409      3120      3056      3057
 -1      3392    3    0    1
 -2       295       397      1099      1890
 -1      3393    3    0    1
 -2      1824      1735      2465      2513
 -1      3394    3    0    1
 -2       507      1191      2094      2830
 -1      3395    3    0    1
 -2      1388      1631      1728      2576
 -1      3396    3    0    1
 -2        34       419       917      1726
 -1      3397    3    0    1
 -2       608       977      1226      2615
 -1      3398    3    0    1
 -2      1249       631      2616      2732
 -1      3399    3    0    1
 -2      1793       300      1800      2021
 -1      3400    3    0    1
 -2       759      2548      2766      2851
 -1      3401    3    0    1
 -2       886       864      1788      1854
 -1      3402    3    0    1
 -2      2909      1475      3124      3125
 -1      3403    3    0    1
 -2      1600       408      1884      1895
 -1      3404    3    0    1
 -2      1606      1534      1730      1739
 -1      3405    3    0    1
 -2      1754       415      1855      1856
 -1      3406    3    0    1
 -2       994      1934      2032      2092
 -1      3407    3    0    1
 -2      1673       850      2047      1602
 -1      3408    3    0    1
 -2       377       374      1337      2396
 -1      3409    3    0    1
 -2       418        18       908      1817
 -1      3410    3    0    1
 -2      2172      1699      2196      2257
 -1      3411    3    0    1
 -2       631       606       976      2616
 -1      3412    3    0    1
 -2      2099      1551      2346      2498
 -1      3413    3    0    1
 -2       297      1101      1348      1909
 -1      3414    3    0    1
 -2      1056       754      1646      1982
 -1      3415    3    0    1
 -2      1071       783      2509      2740
 -1      3416    3    0    1
 -2      1905      1658      1928      2330
 -1      3417    3    0    1
 -2       833      1341       834      1710
 -1      3418    3    0    1
 -2       369      1085      2760      2849
 -1      3419    3    0    1
 -2      1017       682      1756      1960
 -1      3420    3    0    1
 -2      1204      1637      1997      2030
 -1      3421    3    0    1
 -2      1559      1610      2518      2519
 -1      3422    3    0    1
 -2      1786      2243      2838      2839
 -1      3423    3    0    1
 -2      1647       156      2465      2759
 -1      3424    3    0    1
 -2      1554      1697      1742      1781
 -1      3425    3    0    1
 -2      2264      2718      2725      2838
 -1      3426    3    0    1
 -2      1667      1781      1840      1972
 -1      3427    3    0    1
 -2      1346       431      1347      1899
 -1      3428    3    0    1
 -2       520       519       931      2191
 -1      3429    3    0    1
 -2      1792       438      1816      2097
 -1      3430    3    0    1
 -2      1886      1586      1924      2052
 -1      3431    3    0    1
 -2      1771      1791      1849      1976
 -1      3432    3    0    1
 -2      1053      1685      1865      2005
 -1      3433    3    0    1
 -2       284       374      1098      2375
 -1      3434    3    0    1
 -2      1904       385      1937      2056
 -1      3435    3    0    1
 -2       942      2592      2729      2810
 -1      3436    3    0    1
 -2       700      1028      2624      2818
 -1      3437    3    0    1
 -2      2773      2515      2779      2855
 -1      3438    3    0    1
 -2      1129      1139      2231      2322
 -1      3439    3    0    1
 -2      2345       520      2600      2803
 -1      3440    3    0    1
 -2      1998       425      2152      2495
 -1      3441    3    0    1
 -2      2163      2201      1539      1553
 -1      3442    3    0    1
 -2        53        50       930      1605
 -1      3443    3    0    1
 -2      1452      1441      1488      3014
 -1      3444    3    0    1
 -2       305      1114      1758      1908
 -1      3445    3    0    1
 -2        12       909      1168      1912
 -1      3446    3    0    1
 -2      2460      1269      2715      2837
 -1      3447    3    0    1
 -2      1530      1661      1851      1951
 -1      3448    3    0    1
 -2       568       591       956      1798
 -1      3449    3    0    1
 -2      1056      1646      1711      2227
 -1      3450    3    0    1
 -2      1601      1590      1666      2116
 -1      3451    3    0    1
 -2      1885      1881      1914      2018
 -1      3452    3    0    1
 -2      1204      1637      2030      2778
 -1      3453    3    0    1
 -2       819      1336      2319      2327
 -1      3454    3    0    1
 -2      1867      1713      1954      1992
 -1      3455    3    0    1
 -2      1789      1620      2262      2412
 -1      3456    3    0    1
 -2      1805      1834      2022      2367
 -1      3457    3    0    1
 -2       930        53      2534      2613
 -1      3458    3    0    1
 -2      3088      1412      1489      1490
 -1      3459    3    0    1
 -2       335      1529      2296      2501
 -1      3460    3    0    1
 -2      1884      1660      1871      1828
 -1      3461    3    0    1
 -2      1822      1544      1886      1924
 -1      3462    3    0    1
 -2      1650      1575      1819      2003
 -1      3463    3    0    1
 -2      1530      2065      2108      2143
 -1      3464    3    0    1
 -2       838       837      2015      2081
 -1      3465    3    0    1
 -2       281      1094      1336      1836
 -1      3466    3    0    1
 -2       754      1056      1646      1711
 -1      3467    3    0    1
 -2      2681      2786      2818      2865
 -1      3468    3    0    1
 -2      2041      2880      2914      2941
 -1      3469    3    0    1
 -2       333       328      1620      1734
 -1      3470    3    0    1
 -2      1552      1571      2747      2763
 -1      3471    3    0    1
 -2      1539      1553      2201      2641
 -1      3472    3    0    1
 -2      1924      2156      1822      1544
 -1      3473    3    0    1
 -2      1999      2108      2207      2651
 -1      3474    3    0    1
 -2      1681      1584      1903      2666
 -1      3475    3    0    1
 -2      1932      1530      1952      2065
 -1      3476    3    0    1
 -2      1576        77      1914      2178
 -1      3477    3    0    1
 -2      1525      1635      1847      1910
 -1      3478    3    0    1
 -2       404       373      2581      2787
 -1      3479    3    0    1
 -2       330       435      1100      2579
 -1      3480    3    0    1
 -2        32       423       919      1893
 -1      3481    3    0    1
 -2      1774      2352      2693      2743
 -1      3482    3    0    1
 -2      1627      1759      1827      1862
 -1      3483    3    0    1
 -2       128       981      2634      2686
 -1      3484    3    0    1
 -2       834       833      1710      1890
 -1      3485    3    0    1
 -2      1564      1598      1602      1986
 -1      3486    3    0    1
 -2      1784      1781      1840      1949
 -1      3487    3    0    1
 -2      1126      1396      1706      1979
 -1      3488    3    0    1
 -2       520       930      2694      2803
 -1      3489    3    0    1
 -2      2306       931      2694      2729
 -1      3490    3    0    1
 -2       273      1084      2167      2581
 -1      3491    3    0    1
 -2      1621      1722      1799      1821
 -1      3492    3    0    1
 -2      1527      1575      1650      2003
 -1      3493    3    0    1
 -2      1923      1617      2304      2519
 -1      3494    3    0    1
 -2       953       562      1763      2269
 -1      3495    3    0    1
 -2      1390       867       878      1785
 -1      3496    3    0    1
 -2      1602      1564      1665      1673
 -1      3497    3    0    1
 -2      1538      1662      1664      2118
 -1      3498    3    0    1
 -2      1636      1562      1797      1964
 -1      3499    3    0    1
 -2       965       586      2296      2670
 -1      3500    3    0    1
 -2      1816      1673       850      1839
 -1      3501    3    0    1
 -2      1193       510       512      2181
 -1      3502    3    0    1
 -2      1575      1616      1690      1966
 -1      3503    3    0    1
 -2       496       918      1939      2586
 -1      3504    3    0    1
 -2       748       754      1305      1712
 -1      3505    3    0    1
 -2      1399       434      1792      2097
 -1      3506    3    0    1
 -2       531       538       938      1997
 -1      3507    3    0    1
 -2      1550      1531      1676      1797
 -1      3508    3    0    1
 -2       926      1179      1609      2229
 -1      3509    3    0    1
 -2      1552      2179      2200      2201
 -1      3510    3    0    1
 -2      1402      1111      1764      2095
 -1      3511    3    0    1
 -2       391      1350      1738      1958
 -1      3512    3    0    1
 -2      1599      1628      1733      1825
 -1      3513    3    0    1
 -2      1759      1583      2274      2331
 -1      3514    3    0    1
 -2       955       567       956      1812
 -1      3515    3    0    1
 -2      2074      2023      2403      2404
 -1      3516    3    0    1
 -2      1785       867      2329      2652
 -1      3517    3    0    1
 -2       610      1993      2243      2450
 -1      3518    3    0    1
 -2      1676      1550      1797      2416
 -1      3519    3    0    1
 -2      2687      1556      2692      2730
 -1      3520    3    0    1
 -2      1544      2067      2505      2619
 -1      3521    3    0    1
 -2      1706      1577      2454      2455
 -1      3522    3    0    1
 -2      2456       191      2677      2819
 -1      3523    3    0    1
 -2      1661      1530      1851      2420
 -1      3524    3    0    1
 -2      1639      1529      1887      2096
 -1      3525    3    0    1
 -2      1740      1537      1916      2354
 -1      3526    3    0    1
 -2      1622      1531      2157      2206
 -1      3527    3    0    1
 -2       360        86       964      2049
 -1      3528    3    0    1
 -2      1716      1683      1811      1858
 -1      3529    3    0    1
 -2      1092      1338       823      2987
 -1      3530    3    0    1
 -2       347       106      2332      2443
 -1      3531    3    0    1
 -2      1909      1862      2204      2441
 -1      3532    3    0    1
 -2        10      1626      1650      1837
 -1      3533    3    0    1
 -2      1872      1651      1926      2037
 -1      3534    3    0    1
 -2      1803      1567      2025      2138
 -1      3535    3    0    1
 -2      1610      1559      1700      2136
 -1      3536    3    0    1
 -2      1045      2380      2638      2663
 -1      3537    3    0    1
 -2      1786      2264      2725      2838
 -1      3538    3    0    1
 -2       907      1853      1097      2122
 -1      3539    3    0    1
 -2      1980      1970      2237      2488
 -1      3540    3    0    1
 -2      1216       555       562      2014
 -1      3541    3    0    1
 -2       139      1860      2175      2395
 -1      3542    3    0    1
 -2      1544      1822      1886      2505
 -1      3543    3    0    1
 -2       415      1714      1855      1856
 -1      3544    3    0    1
 -2      2173      1683      2612      2633
 -1      3545    3    0    1
 -2      1800      1806      1854      1900
 -1      3546    3    0    1
 -2       294       395      1580      1710
 -1      3547    3    0    1
 -2      2294       128      2634      2686
 -1      3548    3    0    1
 -2      2905      2896      3069      3070
 -1      3549    3    0    1
 -2       446      1393      1130      2739
 -1      3550    3    0    1
 -2       396        24      2144      2386
 -1      3551    3    0    1
 -2      1860       994      2032      2092
 -1      3552    3    0    1
 -2       867      1390      1128      1785
 -1      3553    3    0    1
 -2      1596      1708      2095      2310
 -1      3554    3    0    1
 -2       654      1016      1259      2434
 -1      3555    3    0    1
 -2       314      1389       322      2232
 -1      3556    3    0    1
 -2       383      1973      2037      2287
 -1      3557    3    0    1
 -2       408       415      1056      1711
 -1      3558    3    0    1
 -2      1724      1560      2372      2461
 -1      3559    3    0    1
 -2       906       466      2058      2326
 -1      3560    3    0    1
 -2       462       487      2029      2546
 -1      3561    3    0    1
 -2      1636      1550      1743      1797
 -1      3562    3    0    1
 -2      1757      1643      1923      2518
 -1      3563    3    0    1
 -2      1491      1474      1516      3056
 -1      3564    3    0    1
 -2      1659       951      2654      2822
 -1      3565    3    0    1
 -2      1239       126      1748      2725
 -1      3566    3    0    1
 -2      1228       108      2468      2475
 -1      3567    3    0    1
 -2       383       944      1810      1973
 -1      3568    3    0    1
 -2      1385      2279      2308      2338
 -1      3569    3    0    1
 -2      1556      1687      2288      2565
 -1      3570    3    0    1
 -2      1654      1841      2401      2490
 -1      3571    3    0    1
 -2      1735      1587      1841      2382
 -1      3572    3    0    1
 -2      1665      1563      1673      1564
 -1      3573    3    0    1
 -2      1695      1676      1887      2096
 -1      3574    3    0    1
 -2      1727      2103      2448      2462
 -1      3575    3    0    1
 -2      3072      2908      1870      2926
 -1      3576    3    0    1
 -2      1353      1103      1794      2433
 -1      3577    3    0    1
 -2      1779      1052      2086      2423
 -1      3578    3    0    1
 -2      1806      1788      1854      1900
 -1      3579    3    0    1
 -2      1920      1688      2341      2445
 -1      3580    3    0    1
 -2       329      1618      1647      2156
 -1      3581    3    0    1
 -2      1079      1727      2011      2158
 -1      3582    3    0    1
 -2       281      1094      1836      2012
 -1      3583    3    0    1
 -2      2170      2223      2524      2602
 -1      3584    3    0    1
 -2      1599      1628      1720      1733
 -1      3585    3    0    1
 -2       463       905      1337      2397
 -1      3586    3    0    1
 -2      2054      2193      2283      2417
 -1      3587    3    0    1
 -2      1657      1559      1757      1923
 -1      3588    3    0    1
 -2      1630      1656      1704      2180
 -1      3589    3    0    1
 -2       387      1529      1695      2245
 -1      3590    3    0    1
 -2      1937      1881      2056      2218
 -1      3591    3    0    1
 -2      1890      1850      1967      1994
 -1      3592    3    0    1
 -2      1402      1111      2095      2139
 -1      3593    3    0    1
 -2       121       123       982      1864
 -1      3594    3    0    1
 -2      1615      1643      1740      1757
 -1      3595    3    0    1
 -2      1851       389      2186      2194
 -1      3596    3    0    1
 -2      2033      2100      2112      2235
 -1      3597    3    0    1
 -2      1539      1773      2436      2437
 -1      3598    3    0    1
 -2      1094      1336      1836      2270
 -1      3599    3    0    1
 -2      1963       495      2357      2358
 -1      3600    3    0    1
 -2      1182       919       496      1901
 -1      3601    3    0    1
 -2      1784       380      1949      2324
 -1      3602    3    0    1
 -2      1681      1584      1885      1917
 -1      3603    3    0    1
 -2      1548      1978      2107      2412
 -1      3604    3    0    1
 -2      1719      1603      1838      2336
 -1      3605    3    0    1
 -2       988      2008      2235      2297
 -1      3606    3    0    1
 -2      1910      1847      1969      2150
 -1      3607    3    0    1
 -2      1574      1014      2162      2203
 -1      3608    3    0    1
 -2      1611      1563      1787      1835
 -1      3609    3    0    1
 -2      1533      1592      1940      2148
 -1      3610    3    0    1
 -2        30        32      1182      1901
 -1      3611    3    0    1
 -2      1674      2599      2707      2721
 -1      3612    3    0    1
 -2      1778       398      2023      2252
 -1      3613    3    0    1
 -2      1522      1536      2515      2858
 -1      3614    3    0    1
 -2       994       320      1860      2032
 -1      3615    3    0    1
 -2       955      1812      1987      2046
 -1      3616    3    0    1
 -2        79        86       957      1935
 -1      3617    3    0    1
 -2      1046       736      2380      2658
 -1      3618    3    0    1
 -2      1465      1418      3117      3012
 -1      3619    3    0    1
 -2       393       394      1194      2233
 -1      3620    3    0    1
 -2      1906      1946      2076      2298
 -1      3621    3    0    1
 -2      1644       953      1693      1763
 -1      3622    3    0    1
 -2       512       926      1609      2229
 -1      3623    3    0    1
 -2       567       955      1956      2046
 -1      3624    3    0    1
 -2      1663      1734      1789      2039
 -1      3625    3    0    1
 -2       374       284      1337      2396
 -1      3626    3    0    1
 -2      2225       543      2592      2600
 -1      3627    3    0    1
 -2        89      1810      1926      2037
 -1      3628    3    0    1
 -2      1878      1698      2073      2217
 -1      3629    3    0    1
 -2       142       988      2112      2235
 -1      3630    3    0    1
 -2       835       836      2062      2165
 -1      3631    3    0    1
 -2      1675      1565      1916      2036
 -1      3632    3    0    1
 -2      1984      1724      2087      2372
 -1      3633    3    0    1
 -2      1914      1881      2178      2218
 -1      3634    3    0    1
 -2      2023      1834      2074      2403
 -1      3635    3    0    1
 -2       558      1215       951      1659
 -1      3636    3    0    1
 -2       981       127      2174      2315
 -1      3637    3    0    1
 -2       395      1580      1691      2132
 -1      3638    3    0    1
 -2      1735       156      2465      2513
 -1      3639    3    0    1
 -2      1906      2277      2298      2305
 -1      3640    3    0    1
 -2      2123      1760      2195      2704
 -1      3641    3    0    1
 -2      1808      1558      1838      1875
 -1      3642    3    0    1
 -2      1522      1536      1928      2340
 -1      3643    3    0    1
 -2      1734      1620      2039      2341
 -1      3644    3    0    1
 -2      1678       108      2017      2566
 -1      3645    3    0    1
 -2       964       584      1948      2307
 -1      3646    3    0    1
 -2       819      1954      1992      2327
 -1      3647    3    0    1
 -2      1599      1557      1686      1818
 -1      3648    3    0    1
 -2      2587       418      2790      2860
 -1      3649    3    0    1
 -2        89       955      1810      1956
 -1      3650    3    0    1
 -2      1668      1626      1819      2003
 -1      3651    3    0    1
 -2      1148      1967       849      1994
 -1      3652    3    0    1
 -2      1955      1743      1964      2045
 -1      3653    3    0    1
 -2      1600      1779      1985      2086
 -1      3654    3    0    1
 -2      1990       778      2507      2545
 -1      3655    3    0    1
 -2       869      1389      1380      1649
 -1      3656    3    0    1
 -2      1723      1621      1799      1821
 -1      3657    3    0    1
 -2       328      1620      1734      2202
 -1      3658    3    0    1
 -2      1752      1688      2130      2421
 -1      3659    3    0    1
 -2       346       992      2578      2603
 -1      3660    3    0    1
 -2       327       309      1141      1979
 -1      3661    3    0    1
 -2      1525      1910      1969      1982
 -1      3662    3    0    1
 -2       884       865      1896      2500
 -1      3663    3    0    1
 -2      1759      1827      1838      1892
 -1      3664    3    0    1
 -2      1179        32      1962      2342
 -1      3665    3    0    1
 -2       294       395      1102      1672
 -1      3666    3    0    1
 -2      1457         1      1486      1514
 -1      3667    3    0    1
 -2      1566      1721      1943      2026
 -1      3668    3    0    1
 -2      1951      1661      2186      2415
 -1      3669    3    0    1
 -2      2139      1745      2429      2469
 -1      3670    3    0    1
 -2      1328      1073      2463      2807
 -1      3671    3    0    1
 -2       751      1055      2571      2682
 -1      3672    3    0    1
 -2       982       979      1864      2831
 -1      3673    3    0    1
 -2        86       360      1581      2049
 -1      3674    3    0    1
 -2      2094      1194      2233      2428
 -1      3675    3    0    1
 -2      2628      2650      2693      2743
 -1      3676    3    0    1
 -2      2223      1786      2264      2683
 -1      3677    3    0    1
 -2      1735      1824      2246      2513
 -1      3678    3    0    1
 -2      2052      1247      2316      2531
 -1      3679    3    0    1
 -2       567       954      1935      2019
 -1      3680    3    0    1
 -2       472       471      1912      2359
 -1      3681    3    0    1
 -2      1418      1463      1465      3117
 -1      3682    3    0    1
 -2       928       919      1893      2280
 -1      3683    3    0    1
 -2      1827      1808      1875      1899
 -1      3684    3    0    1
 -2       754      1305      1873      2376
 -1      3685    3    0    1
 -2      1946      1906      2076      2268
 -1      3686    3    0    1
 -2       332      2145      2435      2530
 -1      3687    3    0    1
 -2      2029       915      2399      2492
 -1      3688    3    0    1
 -2       711      1033      1036      2738
 -1      3689    3    0    1
 -2      1950      1841      2202      2401
 -1      3690    3    0    1
 -2       121       337      2332      2685
 -1      3691    3    0    1
 -2       389      2186      2194      2265
 -1      3692    3    0    1
 -2      2125      1867      2577      2591
 -1      3693    3    0    1
 -2       415      1711      1855      2227
 -1      3694    3    0    1
 -2      1616      1575      1850      1966
 -1      3695    3    0    1
 -2      1720      1823      2051      2110
 -1      3696    3    0    1
 -2      2093      1590      2116      2159
 -1      3697    3    0    1
 -2      1405       436       445      1821
 -1      3698    3    0    1
 -2      1838      2274      2293      2712
 -1      3699    3    0    1
 -2       953       382      1693      1763
 -1      3700    3    0    1
 -2      1352      1349      1959      2230
 -1      3701    3    0    1
 -2      1800      1606      1806      1900
 -1      3702    3    0    1
 -2       198      2650      2743      2833
 -1      3703    3    0    1
 -2       440      1364      1363      2674
 -1      3704    3    0    1
 -2       977       121      2332      2442
 -1      3705    3    0    1
 -2       178      1014      1272      1574
 -1      3706    3    0    1
 -2       320       139      1860      2032
 -1      3707    3    0    1
 -2      2471       253      2482      2607
 -1      3708    3    0    1
 -2       399      1367      1150      1835
 -1      3709    3    0    1
 -2      1105      1148      1890      1967
 -1      3710    3    0    1
 -2      1693      1628      1720      2134
 -1      3711    3    0    1
 -2       319      1388      1728      2576
 -1      3712    3    0    1
 -2      1834      2023      2074      2369
 -1      3713    3    0    1
 -2       826      1094      1988      2270
 -1      3714    3    0    1
 -2      1623      1554      1758      2177
 -1      3715    3    0    1
 -2      1534      1739      2157      2512
 -1      3716    3    0    1
 -2      1438      3080      1449      3109
 -1      3717    3    0    1
 -2      1541      2098      2105      2430
 -1      3718    3    0    1
 -2      1710      1691      1850      1890
 -1      3719    3    0    1
 -2      2231      1732      2329      2652
 -1      3720    3    0    1
 -2      1052       408      1600      1779
 -1      3721    3    0    1
 -2      1326       799      2390      2484
 -1      3722    3    0    1
 -2      1981      2765      1294       356
 -1      3723    3    0    1
 -2      1294      1981      2221      2853
 -1      3724    3    0    1
 -2      1577      2190      2453      2503
 -1      3725    3    0    1
 -2       124       127      2315      2701
 -1      3726    3    0    1
 -2       392       927      2748      2828
 -1      3727    3    0    1
 -2       823      1093      2214      2320
 -1      3728    3    0    1
 -2      1853       907      2059      2122
 -1      3729    3    0    1
 -2      1586      1922      1924      2052
 -1      3730    3    0    1
 -2      1607      1852      1985      2334
 -1      3731    3    0    1
 -2      1708      1578      1764      2068
 -1      3732    3    0    1
 -2      1978      1548      2352      2719
 -1      3733    3    0    1
 -2      1269      2166      2680      2837
 -1      3734    3    0    1
 -2      1743      1636      1797      1964
 -1      3735    3    0    1
 -2       308      1398      1125      1717
 -1      3736    3    0    1
 -2       367      1093      1879      2171
 -1      3737    3    0    1
 -2      1046       215      2538      2658
 -1      3738    3    0    1
 -2      1847      1525      1910      1969
 -1      3739    3    0    1
 -2      2241       651      2244      2782
 -1      3740    3    0    1
 -2       308      1125      1622      1717
 -1      3741    3    0    1
 -2      1863      2248      2479      2486
 -1      3742    3    0    1
 -2       915       420      1165      2399
 -1      3743    3    0    1
 -2       974       118       978      1993
 -1      3744    3    0    1
 -2      2243      1786      2645      2839
 -1      3745    3    0    1
 -2      1567      1671      2138      2737
 -1      3746    3    0    1
 -2       955       567      1812      2046
 -1      3747    3    0    1
 -2       679       678      1814      2131
 -1      3748    3    0    1
 -2       310       443      2563      2752
 -1      3749    3    0    1
 -2       372      1629      2592      2810
 -1      3750    3    0    1
 -2      2323       631      2459      2732
 -1      3751    3    0    1
 -2      1665      1563      1787      2047
 -1      3752    3    0    1
 -2      2128      1795      2567      2675
 -1      3753    3    0    1
 -2      1157      2161      2183      2350
 -1      3754    3    0    1
 -2       398      1778      2023      2369
 -1      3755    3    0    1
 -2      1216        83      1790      1880
 -1      3756    3    0    1
 -2      1337       284      1879      2396
 -1      3757    3    0    1
 -2      1842      1593      2197      2313
 -1      3758    3    0    1
 -2       926       510      1192      2181
 -1      3759    3    0    1
 -2      1548      1978      1995      2107
 -1      3760    3    0    1
 -2      1935        84      2109      2238
 -1      3761    3    0    1
 -2      1756       682      1929      1960
 -1      3762    3    0    1
 -2      1096      1783      2343      2381
 -1      3763    3    0    1
 -2      2414      1007      2457      2756
 -1      3764    3    0    1
 -2       281      2080      2121      2148
 -1      3765    3    0    1
 -2      1809       415      1855      2227
 -1      3766    3    0    1
 -2      2563      1653      2568      2752
 -1      3767    3    0    1
 -2      2082      1724      2372      2461
 -1      3768    3    0    1
 -2      2008       320      2032      2175
 -1      3769    3    0    1
 -2      1606      1932      1952      2065
 -1      3770    3    0    1
 -2      1572      1623      1697      1742
 -1      3771    3    0    1
 -2      1269       333      2460      2715
 -1      3772    3    0    1
 -2      1661      1851      1951      2420
 -1      3773    3    0    1
 -2      1562      1964      2054      2642
 -1      3774    3    0    1
 -2      1560      1724      2071      2461
 -1      3775    3    0    1
 -2       651      1261      1001      1612
 -1      3776    3    0    1
 -2        37      1726      1939      2000
 -1      3777    3    0    1
 -2      1587      1701      1768      1950
 -1      3778    3    0    1
 -2      1345       835       836      1931
 -1      3779    3    0    1
 -2       383       944      1973      2299
 -1      3780    3    0    1
 -2      1578      1753      1764      2068
 -1      3781    3    0    1
 -2      2725      1786      2838      2839
 -1      3782    3    0    1
 -2      2188       118      2436      2446
 -1      3783    3    0    1
 -2      1626      1650      1819      2003
 -1      3784    3    0    1
 -2       961      2170      2449      2501
 -1      3785    3    0    1
 -2      2213      1608      2259      2593
 -1      3786    3    0    1
 -2        83       955      1812      1987
 -1      3787    3    0    1
 -2      1853      1097      2122      2424
 -1      3788    3    0    1
 -2       387       965      2245      2249
 -1      3789    3    0    1
 -2      1053      1685      1712      1865
 -1      3790    3    0    1
 -2      1779      1607      1985      2086
 -1      3791    3    0    1
 -2       142      1934      2100      2112
 -1      3792    3    0    1
 -2      1113      1753      1889      2068
 -1      3793    3    0    1
 -2       833      1691      1710      1890
 -1      3794    3    0    1
 -2      1557      1599      1686      1733
 -1      3795    3    0    1
 -2      1977      2370      2498      2598
 -1      3796    3    0    1
 -2       867      2231      2329      2652
 -1      3797    3    0    1
 -2       104      1953      2044      2140
 -1      3798    3    0    1
 -2       284       367      1879      2375
 -1      3799    3    0    1
 -2       957       360       966      1581
 -1      3800    3    0    1
 -2      2494       419      2653      2823
 -1      3801    3    0    1
 -2      1343      2062      2088      2165
 -1      3802    3    0    1
 -2       567       544      1807      1956
 -1      3803    3    0    1
 -2       831       832      1096      2343
 -1      3804    3    0    1
 -2       798      1876      2214      2447
 -1      3805    3    0    1
 -2      1805      2117      2326      2427
 -1      3806    3    0    1
 -2      1313      1069      2198      2643
 -1      3807    3    0    1
 -2      1615      1596      1740      1745
 -1      3808    3    0    1
 -2      1008       164      2466      2485
 -1      3809    3    0    1
 -2      2449      1957      2501      2524
 -1      3810    3    0    1
 -2      1595      1619      1632      1692
 -1      3811    3    0    1
 -2      1547      1656      1704      2234
 -1      3812    3    0    1
 -2      1818      1686      2050      2574
 -1      3813    3    0    1
 -2      1564      1563      2372      2461
 -1      3814    3    0    1
 -2      2697      2889      2890      2894
 -1      3815    3    0    1
 -2      1674      2355      2671      2721
 -1      3816    3    0    1
 -2      1228       108      2140      2468
 -1      3817    3    0    1
 -2       303      1402      1111      1764
 -1      3818    3    0    1
 -2      1525      1588      1635      2493
 -1      3819    3    0    1
 -2      1842      1898      1927      2313
 -1      3820    3    0    1
 -2      2042      2364      2834      2912
 -1      3821    3    0    1
 -2       394       393       929      2363
 -1      3822    3    0    1
 -2      1774      1548      2352      2504
 -1      3823    3    0    1
 -2      1098       374      1168      1549
 -1      3824    3    0    1
 -2      1615      1643      1757      2429
 -1      3825    3    0    1
 -2       374       377      1168      1549
 -1      3826    3    0    1
 -2      2146      1736      2163      2180
 -1      3827    3    0    1
 -2      1360      1636      1717      1743
 -1      3828    3    0    1
 -2      1604      1524      2182      2637
 -1      3829    3    0    1
 -2       857      1372      2002      2154
 -1      3830    3    0    1
 -2      1660      1600      1828      1884
 -1      3831    3    0    1
 -2      1031      1279      2413      2589
 -1      3832    3    0    1
 -2      1156       307      1375      1716
 -1      3833    3    0    1
 -2       634       627       991      2316
 -1      3834    3    0    1
 -2       847      1364       848      1642
 -1      3835    3    0    1
 -2      1096       831      2255      2595
 -1      3836    3    0    1
 -2      1658      1905      1928      2069
 -1      3837    3    0    1
 -2       350      2571      2843      2847
 -1      3838    3    0    1
 -2      1684      1578      1753      1764
 -1      3839    3    0    1
 -2      1053       748      1305      1712
 -1      3840    3    0    1
 -2      1762       531      1846      1997
 -1      3841    3    0    1
 -2       688      1021      2006      2605
 -1      3842    3    0    1
 -2       404       273      1327      2142
 -1      3843    3    0    1
 -2        17       400       907      2059
 -1      3844    3    0    1
 -2      1628      1720      1733      1823
 -1      3845    3    0    1
 -2      1660      1600      1779      1985
 -1      3846    3    0    1
 -2      2582      2475      2660      2670
 -1      3847    3    0    1
 -2      1760      1738      1857      1958
 -1      3848    3    0    1
 -2      1656      1780      2209      2234
 -1      3849    3    0    1
 -2       855      1403       891      2068
 -1      3850    3    0    1
 -2      1807       567      1956      2046
 -1      3851    3    0    1
 -2       378       392      1866      2432
 -1      3852    3    0    1
 -2      1343       835      2062      2165
 -1      3853    3    0    1
 -2      1946      2241      2532      2782
 -1      3854    3    0    1
 -2      1759      1627      1827      1892
 -1      3855    3    0    1
 -2      1724      1560      2087      2372
 -1      3856    3    0    1
 -2       831       808      2255      2595
 -1      3857    3    0    1
 -2       380      1863      2479       941
 -1      3858    3    0    1
 -2       706      1281      2284      2405
 -1      3859    3    0    1
 -2       592       968      1953      2630
 -1      3860    3    0    1
 -2      2098       137      2105      2430
 -1      3861    3    0    1
 -2      1180       904      2347      2440
 -1      3862    3    0    1
 -2      1093       291      1859      2214
 -1      3863    3    0    1
 -2      1849      1579      2062      2063
 -1      3864    3    0    1
 -2      1102      1354      1672      2502
 -1      3865    3    0    1
 -2      1540      2610      2620      2668
 -1      3866    3    0    1
 -2       784      1766      2606      2807
 -1      3867    3    0    1
 -2      2259      1608      2311      2593
 -1      3868    3    0    1
 -2       712       711      1036      2738
 -1      3869    3    0    1
 -2      1364       847      1363      1642
 -1      3870    3    0    1
 -2       410       358      1059      1597
 -1      3871    3    0    1
 -2       993      1860      2395      2527
 -1      3872    3    0    1
 -2      1951      1732      2207      2458
 -1      3873    3    0    1
 -2      2028      1577      2454      2500
 -1      3874    3    0    1
 -2      1677      1155      1722      2118
 -1      3875    3    0    1
 -2      1934       142      2032      2112
 -1      3876    3    0    1
 -2      1403      1113      1889      2068
 -1      3877    3    0    1
 -2      2182      2236      2453      2526
 -1      3878    3    0    1
 -2       519       928       931      2191
 -1      3879    3    0    1
 -2      1539      1553      1656      2163
 -1      3880    3    0    1
 -2      1600      1779      2086      2423
 -1      3881    3    0    1
 -2      1841      2202      2490      2771
 -1      3882    3    0    1
 -2      1344      1343      2088      2165
 -1      3883    3    0    1
 -2      1563      1665      1673      2047
 -1      3884    3    0    1
 -2       568      1798      1812      1935
 -1      3885    3    0    1
 -2      2693      1774      2743      2833
 -1      3886    3    0    1
 -2      1096      1783      2210      2595
 -1      3887    3    0    1
 -2       358       412      1058      1597
 -1      3888    3    0    1
 -2       441       440      2487      2674
 -1      3889    3    0    1
 -2       931       520      2694      2729
 -1      3890    3    0    1
 -2      3068      1414      1459      3110
 -1      3891    3    0    1
 -2      1771      1543      1849      2063
 -1      3892    3    0    1
 -2      1628      1644      1720      2051
 -1      3893    3    0    1
 -2      1593      1565      1675      2036
 -1      3894    3    0    1
 -2      1731      2515      2855      2870
 -1      3895    3    0    1
 -2       962      1228      2044      2618
 -1      3896    3    0    1
 -2      1755      1547      1780      2066
 -1      3897    3    0    1
 -2      1389       877      1585      1649
 -1      3898    3    0    1
 -2      1808      1603      1874      2016
 -1      3899    3    0    1
 -2      1547      1591      2060      2187
 -1      3900    3    0    1
 -2      1600       408      1711      1754
 -1      3901    3    0    1
 -2       390      1104      1793      1800
 -1      3902    3    0    1
 -2       350      1055      1303      2571
 -1      3903    3    0    1
 -2       215       217      2550      2658
 -1      3904    3    0    1
 -2      1181      2494      2653      2812
 -1      3905    3    0    1
 -2      1132      2189      2240      2659
 -1      3906    3    0    1
 -2      1730      1606      1739      2157
 -1      3907    3    0    1
 -2      1585      1389      1649      2232
 -1      3908    3    0    1
 -2       323      1019      2277      2298
 -1      3909    3    0    1
 -2       246      1625      2057      2643
 -1      3910    3    0    1
 -2      2179      2200      2222      2667
 -1      3911    3    0    1
 -2       748      1712      2086      2423
 -1      3912    3    0    1
 -2       851       889      1624      2072
 -1      3913    3    0    1
 -2       519       919       928      2280
 -1      3914    3    0    1
 -2       988       627      2008      2297
 -1      3915    3    0    1
 -2      1816      1792      2097      2160
 -1      3916    3    0    1
 -2       203      2145      2405      2791
 -1      3917    3    0    1
 -2      1598      1602      1986      2176
 -1      3918    3    0    1
 -2      1823      1720      2004      2110
 -1      3919    3    0    1
 -2      2499       914      1409      1410
 -1      3920    3    0    1
 -2       976      1415      2982      3115
 -1      3921    3    0    1
 -2       213      1043      2758      2802
 -1      3922    3    0    1
 -2      1563      2082      2372      2461
 -1      3923    3    0    1
 -2      1608      2213      2486      2593
 -1      3924    3    0    1
 -2      1747      1658      1869      2069
 -1      3925    3    0    1
 -2      1695      1903      2096      2666
 -1      3926    3    0    1
 -2      1339       826      1988      2349
 -1      3927    3    0    1
 -2      1586      1744      1822      1924
 -1      3928    3    0    1
 -2       869      1388       877      1631
 -1      3929    3    0    1
 -2        12       420      1761      2399
 -1      3930    3    0    1
 -2      1703      1777      2033      2112
 -1      3931    3    0    1
 -2        10      1837      2252      2544
 -1      3932    3    0    1
 -2      1879       367      2171      2375
 -1      3933    3    0    1
 -2       926       427      2229      2256
 -1      3934    3    0    1
 -2        31       420       915      2399
 -1      3935    3    0    1
 -2       990      1248      1648      2508
 -1      3936    3    0    1
 -2       802      2142      2164      2871
 -1      3937    3    0    1
 -2      1761        31      2492      2399
 -1      3938    3    0    1
 -2      2435      1019      2751      2783
 -1      3939    3    0    1
 -2       311      1129      2231      2322
 -1      3940    3    0    1
 -2      2128       405      2197      2675
 -1      3941    3    0    1
 -2      1786      2264      2683      2725
 -1      3942    3    0    1
 -2      1795      2126      2601      2608
 -1      3943    3    0    1
 -2      2035      2164      2608      2871
 -1      3944    3    0    1
 -2       483       913      2073      2614
 -1      3945    3    0    1
 -2      1536      1522      1626      2340
 -1      3946    3    0    1
 -2      1774      1945      2247      2561
 -1      3947    3    0    1
 -2      1951      1661      2207      2604
 -1      3948    3    0    1
 -2      1227       584      2654      2920
 -1      3949    3    0    1
 -2      2120      2285      2407      2757
 -1      3950    3    0    1
 -2       415      1056      1711      2227
 -1      3951    3    0    1
 -2      2054      1681      2286      2416
 -1      3952    3    0    1
 -2      2380      1044      2656      2663
 -1      3953    3    0    1
 -2      1360      1359      1636      1743
 -1      3954    3    0    1
 -2      1350       304      1351      1958
 -1      3955    3    0    1
 -2      1213        77      1576      2178
 -1      3956    3    0    1
 -2      1782      1607      2334      2491
 -1      3957    3    0    1
 -2       857       892      1153      2154
 -1      3958    3    0    1
 -2      2137      1192      2181      2229
 -1      3959    3    0    1
 -2       429      3079      1458      1459
 -1      3960    3    0    1
 -2      1021      1033      2006      2781
 -1      3961    3    0    1
 -2      1672      1542      2038      2502
 -1      3962    3    0    1
 -2      1721      1566      1898      2026
 -1      3963    3    0    1
 -2       750      1068      1303      2540
 -1      3964    3    0    1
 -2      1933      2346      2883      2895
 -1      3965    3    0    1
 -2      1558      1808      1874      1875
 -1      3966    3    0    1
 -2      1377       865      2500      2568
 -1      3967    3    0    1
 -2      1924      2156      1744      1822
 -1      3968    3    0    1
 -2      1591      1775      1785      2060
 -1      3969    3    0    1
 -2      1785      1775      2187      2652
 -1      3970    3    0    1
 -2      1727      2158      2210      2349
 -1      3971    3    0    1
 -2      1347       837      1346      2015
 -1      3972    3    0    1
 -2      2463       255      2510      2562
 -1      3973    3    0    1
 -2      1018      1008      2466      2485
 -1      3974    3    0    1
 -2      1535      1688      1752      2421
 -1      3975    3    0    1
 -2      1796      1041      2371      2377
 -1      3976    3    0    1
 -2       838      1347      1827      2015
 -1      3977    3    0    1
 -2      1753      1820      1889      1898
 -1      3978    3    0    1
 -2      1971      1178      2655      2826
 -1      3979    3    0    1
 -2      1384      1921      2308      2688
 -1      3980    3    0    1
 -2      2023      2369      2403      2427
 -1      3981    3    0    1
 -2      1822      1641      2001      2114
 -1      3982    3    0    1
 -2        12       420       909      1761
 -1      3983    3    0    1
 -2      1720      1599      1733      2004
 -1      3984    3    0    1
 -2       139      1860      2032      2175
 -1      3985    3    0    1
 -2      1388       869      1131      1631
 -1      3986    3    0    1
 -2       664       663      1008      1776
 -1      3987    3    0    1
 -2      1082       802      2164      2278
 -1      3988    3    0    1
 -2      1658      1747      1905      2069
 -1      3989    3    0    1
 -2      1962      1179      2342      2492
 -1      3990    3    0    1
 -2      1042      1292      2550      2649
 -1      3991    3    0    1
 -2      2174       616      2527      2578
 -1      3992    3    0    1
 -2       610      2450      2838      2839
 -1      3993    3    0    1
 -2      2224      1804      2628      2650
 -1      3994    3    0    1
 -2      1034      2617      2813      2864
 -1      3995    3    0    1
 -2      1126      1706      1896      1979
 -1      3996    3    0    1
 -2      1533      1592      1614      1940
 -1      3997    3    0    1
 -2       250       248      1070      2775
 -1      3998    3    0    1
 -2       388       433      1120      1894
 -1      3999    3    0    1
 -2      1967      1767      1994      2362
 -1      4000    3    0    1
 -2      1103       841      1353      1794
 -1      4001    3    0    1
 -2      1916      1537      1925      2354
 -1      4002    3    0    1
 -2       534       536       939      2083
 -1      4003    3    0    1
 -2      2044      1228      2468      2618
 -1      4004    3    0    1
 -2      1348      1101      1862      1909
 -1      4005    3    0    1
 -2      1578      1684      1708      1764
 -1      4006    3    0    1
 -2      1407      1858      1936      2183
 -1      4007    3    0    1
 -2       335       387      1529      1639
 -1      4008    3    0    1
 -2      1832      1990      2422      2545
 -1      4009    3    0    1
 -2      1969      2150      2237      2742
 -1      4010    3    0    1
 -2       882       870      2421      2474
 -1      4011    3    0    1
 -2        31      1962      1182      1761
 -1      4012    3    0    1
 -2       159      1001      1261      2007
 -1      4013    3    0    1
 -2      1813      1326      2390      2484
 -1      4014    3    0    1
 -2      1794      1680      2333      2433
 -1      4015    3    0    1
 -2      1720      1733      1823      2004
 -1      4016    3    0    1
 -2       408       415      1754      1856
 -1      4017    3    0    1
 -2       938      1637      1973      2287
 -1      4018    3    0    1
 -2      1725      2765       730      2853
 -1      4019    3    0    1
 -2       388       433      1894      2045
 -1      4020    3    0    1
 -2       784       783      2275      2606
 -1      4021    3    0    1
 -2      1575      1650      1819      1837
 -1      4022    3    0    1
 -2       944       383      1810      1956
 -1      4023    3    0    1
 -2      1547      1755      1942      2066
 -1      4024    3    0    1
 -2      1714      1689      1754      1856
 -1      4025    3    0    1
 -2      1568      1630      1656      2209
 -1      4026    3    0    1
 -2       631      2323      2459      2508
 -1      4027    3    0    1
 -2      1044      1981      2426      2663
 -1      4028    3    0    1
 -2       831       832      2343      2424
 -1      4029    3    0    1
 -2      1885      1681      1917      1918
 -1      4030    3    0    1
 -2      1542      1658      1680      1747
 -1      4031    3    0    1
 -2      1641      1544      1822      2156
 -1      4032    3    0    1
 -2       678       679      1271      2131
 -1      4033    3    0    1
 -2       305      1387       379      1623
 -1      4034    3    0    1
 -2        18        17       908      1817
 -1      4035    3    0    1
 -2      1016       177      2466      2808
 -1      4036    3    0    1
 -2      1045      1044      2380      2663
 -1      4037    3    0    1
 -2       178       173      1014      1574
 -1      4038    3    0    1
 -2      1992      2125      2220      2291
 -1      4039    3    0    1
 -2       965       387      2245      2296
 -1      4040    3    0    1
 -2      1634      1654      2246      2401
 -1      4041    3    0    1
 -2      2388      1682      2489      2730
 -1      4042    3    0    1
 -2      1042       212      2043      2550
 -1      4043    3    0    1
 -2       159      1006      1883      1975
 -1      4044    3    0    1
 -2      1820      1566      1943      2154
 -1      4045    3    0    1
 -2       291       269      1859      2171
 -1      4046    3    0    1
 -2      2240      1535      2421      2770
 -1      4047    3    0    1
 -2       772      1066      2035      2365
 -1      4048    3    0    1
 -2      2044      1228      2140      2468
 -1      4049    3    0    1
 -2      1697      1572      1742      2123
 -1      4050    3    0    1
 -2       859       893      1723      1799
 -1      4051    3    0    1
 -2        79      1214      2049      2109
 -1      4052    3    0    1
 -2      1721      1613      1943      2025
 -1      4053    3    0    1
 -2      1744      1703      1749      1861
 -1      4054    3    0    1
 -2      1567      1803      1852      2138
 -1      4055    3    0    1
 -2       320       139       994      1860
 -1      4056    3    0    1
 -2      1679      1809      1855      2227
 -1      4057    3    0    1
 -2      1639      1529      1730      1887
 -1      4058    3    0    1
 -2      1396       309       327      1979
 -1      4059    3    0    1
 -2      3078      2762      2960      3113
 -1      4060    3    0    1
 -2      1580      1527      1691      2132
 -1      4061    3    0    1
 -2      1656      1553      1704      2163
 -1      4062    3    0    1
 -2      1850      1616      1967      1994
 -1      4063    3    0    1
 -2      1846      1651      2037      2287
 -1      4064    3    0    1
 -2      1148       849       887      1994
 -1      4065    3    0    1
 -2       543       544      2225      2383
 -1      4066    3    0    1
 -2      1632      1894      1955      2045
 -1      4067    3    0    1
 -2       726      1041      1796      2377
 -1      4068    3    0    1
 -2      1390       312      1128      2800
 -1      4069    3    0    1
 -2      1786      2223      2264      2602
 -1      4070    3    0    1
 -2      1350      1857      1868      2328
 -1      4071    3    0    1
 -2      2039      1663      2341      2445
 -1      4072    3    0    1
 -2      1738      1572      1760      2195
 -1      4073    3    0    1
 -2       846       845      1743      2045
 -1      4074    3    0    1
 -2       291       367      1095      2171
 -1      4075    3    0    1
 -2      1350      1351      1857      1958
 -1      4076    3    0    1
 -2      1949      1784      2324      2479
 -1      4077    3    0    1
 -2      1850      1616      1966      1967
 -1      4078    3    0    1
 -2      2024      2284      2285      2405
 -1      4079    3    0    1
 -2      2089      1729      2252      2361
 -1      4080    3    0    1
 -2       955        89      1810      1987
 -1      4081    3    0    1
 -2       682      1272      1929      2076
 -1      4082    3    0    1
 -2      1984      1996      2082      2372
 -1      4083    3    0    1
 -2      2593      2259      2684      2805
 -1      4084    3    0    1
 -2      1916      1596      2310      2335
 -1      4085    3    0    1
 -2      1600      1660      1828      1985
 -1      4086    3    0    1
 -2      1675      1565      1684      2335
 -1      4087    3    0    1
 -2       118      2188      2528      2597
 -1      4088    3    0    1
 -2      1593      1842      1927      2313
 -1      4089    3    0    1
 -2      2043      1042      2550      2649
 -1      4090    3    0    1
 -2      1798       568      1812      2511
 -1      4091    3    0    1
 -2      1726       917      1963      2823
 -1      4092    3    0    1
 -2      1366       438      1816      1839
 -1      4093    3    0    1
 -2      1366       434       438      1839
 -1      4094    3    0    1
 -2       903       459      2053      2790
 -1      4095    3    0    1
 -2       232      2538      2550      2571
 -1      4096    3    0    1
 -2       664       663      1776      2457
 -1      4097    3    0    1
 -2      1014      2120      2162      2203
 -1      4098    3    0    1
 -2       431       432      1808      1899
 -1      4099    3    0    1
 -2      1808       432      1875      1899
 -1      4100    3    0    1
 -2      1619       861      1692      2016
 -1      4101    3    0    1
 -2      2933      1430      3127      3075
 -1      4102    3    0    1
 -2      2073      1878      2217      2614
 -1      4103    3    0    1
 -2      1804      2628      2650      2693
 -1      4104    3    0    1
 -2      1214        79      1911      2109
 -1      4105    3    0    1
 -2      2219      1115      2410      2737
 -1      4106    3    0    1
 -2       555      1937      2218      2761
 -1      4107    3    0    1
 -2      1084      1083      2167      2581
 -1      4108    3    0    1
 -2      1860       639      2425      2527
 -1      4109    3    0    1
 -2      1667      1784      1949      2248
 -1      4110    3    0    1
 -2       866      1141      1378      1844
 -1      4111    3    0    1
 -2      2374       356      2542      2788
 -1      4112    3    0    1
 -2        85        84       954      2238
 -1      4113    3    0    1
 -2       866       880      1141      1844
 -1      4114    3    0    1
 -2      1141       880      1829      1844
 -1      4115    3    0    1
 -2      2515      1731      2779      2857
 -1      4116    3    0    1
 -2      1595      1619      2283      2417
 -1      4117    3    0    1
 -2      1690      1575      1710      1850
 -1      4118    3    0    1
 -2      1969      1910      2150      2742
 -1      4119    3    0    1
 -2      1976      1543      2093      2116
 -1      4120    3    0    1
 -2       858      1385       875      2279
 -1      4121    3    0    1
 -2       358      1053      1305      1865
 -1      4122    3    0    1
 -2       836      1931      2062      2165
 -1      4123    3    0    1
 -2      1775      1942      2060      2187
 -1      4124    3    0    1
 -2       418       903      2587      2790
 -1      4125    3    0    1
 -2      1643      1757      2429      2473
 -1      4126    3    0    1
 -2      1691      1690      1710      1850
 -1      4127    3    0    1
 -2      2391        62      2691      2832
 -1      4128    3    0    1
 -2      1867      1992      2125      2577
 -1      4129    3    0    1
 -2      1616      1690      1691      1850
 -1      4130    3    0    1
 -2      1863       380      2479      2324
 -1      4131    3    0    1
 -2       380      1802      1949      2324
 -1      4132    3    0    1
 -2       341       342      2353      2869
 -1      4133    3    0    1
 -2       366        67      1629      2695
 -1      4134    3    0    1
 -2       558      1659      2654      2705
 -1      4135    3    0    1
 -2      1592      2103      2216      2583
 -1      4136    3    0    1
 -2      2117      1805      2326      2327
 -1      4137    3    0    1
 -2      1721      1943      2002      2154
 -1      4138    3    0    1
 -2      1834      1561      1947      2074
 -1      4139    3    0    1
 -2        83      1790      1880      1987
 -1      4140    3    0    1
 -2      1167       400      2059      2591
 -1      4141    3    0    1
 -2      1791      1888      1976      2088
 -1      4142    3    0    1
 -2      1601      1976      2093      2116
 -1      4143    3    0    1
 -2      2728      1582      2746      2749
 -1      4144    3    0    1
 -2      1261      1883      2007      2033
 -1      4145    3    0    1
 -2      1017      1941      1950      1960
 -1      4146    3    0    1
 -2      1596      1615      1740      2310
 -1      4147    3    0    1
 -2      2048      1732      2231      2652
 -1      4148    3    0    1
 -2      2463      1073      2562      2807
 -1      4149    3    0    1
 -2      1616      1967      1994      2362
 -1      4150    3    0    1
 -2       840       839      1868      1959
 -1      4151    3    0    1
 -2      1564      1563      1598      1996
 -1      4152    3    0    1
 -2       961       335       965      2296
 -1      4153    3    0    1
 -2       862      1375      1811      1915
 -1      4154    3    0    1
 -2       862      1156      1375      1915
 -1      4155    3    0    1
 -2      1939       918      2552      2586
 -1      4156    3    0    1
 -2      1705      1541      2232      2444
 -1      4157    3    0    1
 -2      1783      2210      2595      2793
 -1      4158    3    0    1
 -2      1614      1610      1670      2070
 -1      4159    3    0    1
 -2       682      1768      1929      1960
 -1      4160    3    0    1
 -2      1588      1635      2493      2811
 -1      4161    3    0    1
 -2      1826      2108      2065      2143
 -1      4162    3    0    1
 -2      1681      1917      1918      2286
 -1      4163    3    0    1
 -2      1803      1852      2057      2334
 -1      4164    3    0    1
 -2      2156      1744      1822      2260
 -1      4165    3    0    1
 -2      1770      1930      2487      2768
 -1      4166    3    0    1
 -2       378      2272      2432      2755
 -1      4167    3    0    1
 -2      1641      1589      2001      2114
 -1      4168    3    0    1
 -2      1550      1676      1695      2416
 -1      4169    3    0    1
 -2      1760      1572      2123      2195
 -1      4170    3    0    1
 -2       346       138       992      2640
 -1      4171    3    0    1
 -2      1015      1280      2242      2301
 -1      4172    3    0    1
 -2      1738      1857      1958      2328
 -1      4173    3    0    1
 -2       603       974       978      1993
 -1      4174    3    0    1
 -2       382      1693      1763      2135
 -1      4175    3    0    1
 -2      2063      1641      2067      2114
 -1      4176    3    0    1
 -2       838      1827      1862      2081
 -1      4177    3    0    1
 -2       883       872      1702      2825
 -1      4178    3    0    1
 -2      1653      2190      2620      2668
 -1      4179    3    0    1
 -2       269       369      1325      1859
 -1      4180    3    0    1
 -2      1648       990      2508      2640
 -1      4181    3    0    1
 -2      1093       269      1325      1859
 -1      4182    3    0    1
 -2      1717      1398      1788      2512
 -1      4183    3    0    1
 -2       687       664      2485      2533
 -1      4184    3    0    1
 -2       291       269      1093      1859
 -1      4185    3    0    1
 -2      1934      2033      2100      2112
 -1      4186    3    0    1
 -2      2748       378      2754      2755
 -1      4187    3    0    1
 -2      1804      2547      2628      2693
 -1      4188    3    0    1
 -2      2202      2401      2490      2734
 -1      4189    3    0    1
 -2       822       463      1337      2397
 -1      4190    3    0    1
 -2      1658      1747      1869      2333
 -1      4191    3    0    1
 -2       145       139      1250      2175
 -1      4192    3    0    1
 -2       320       988      1250      2175
 -1      4193    3    0    1
 -2       988       320      2008      2175
 -1      4194    3    0    1
 -2      1869      1640      1913      2333
 -1      4195    3    0    1
 -2      1814       679      2131      2434
 -1      4196    3    0    1
 -2       979      1965      2685      2831
 -1      4197    3    0    1
 -2      1953       591      2258      2714
 -1      4198    3    0    1
 -2       380      1802      1815      1949
 -1      4199    3    0    1
 -2      1658      1680      1747      2333
 -1      4200    3    0    1
 -2      1543      1771      1849      1976
 -1      4201    3    0    1
 -2      1828      1567      1871      2411
 -1      4202    3    0    1
 -2      1690      1650      1966      2089
 -1      4203    3    0    1
 -2      2277       323      2305      2529
 -1      4204    3    0    1
 -2        62      1802      2391      2574
 -1      4205    3    0    1
 -2       832      1097      2343      2424
 -1      4206    3    0    1
 -2      2012      1094      2104      2148
 -1      4207    3    0    1
 -2       994       142      1934      2100
 -1      4208    3    0    1
 -2        65        68      1204      2778
 -1      4209    3    0    1
 -2      1706       884      1896      2500
 -1      4210    3    0    1
 -2      1921      1638      2398      2688
 -1      4211    3    0    1
 -2      1610      1614      1670      2085
 -1      4212    3    0    1
 -2       433      1361      1894      2045
 -1      4213    3    0    1
 -2       104       967      1953      2017
 -1      4214    3    0    1
 -2      1594      1652      1824      2513
 -1      4215    3    0    1
 -2      1827      1808      1838      1875
 -1      4216    3    0    1
 -2       290      2151      2343      2750
 -1      4217    3    0    1
 -2      1601      1791      1888      1976
 -1      4218    3    0    1
 -2       463       822      1765      2397
 -1      4219    3    0    1
 -2      2028      1577      2453      2454
 -1      4220    3    0    1
 -2       413      2612      2633      2861
 -1      4221    3    0    1
 -2       823       798      1080      1876
 -1      4222    3    0    1
 -2      1727      1339      1988      2349
 -1      4223    3    0    1
 -2       823      1080      1338      1876
 -1      4224    3    0    1
 -2      1684      1578      1708      1902
 -1      4225    3    0    1
 -2      1877      2051      2110      2594
 -1      4226    3    0    1
 -2      1644      1720      2051      2594
 -1      4227    3    0    1
 -2      2054      1918      2193      2286
 -1      4228    3    0    1
 -2      1817       908      1963      2359
 -1      4229    3    0    1
 -2      1641      1589      1647      2001
 -1      4230    3    0    1
 -2      1606      1788      1900      2157
 -1      4231    3    0    1
 -2      1633       329      1647      2001
 -1      4232    3    0    1
 -2      1280       703      2242      2301
 -1      4233    3    0    1
 -2       220      1040      1970      2488
 -1      4234    3    0    1
 -2      1573      2098      2159      2430
 -1      4235    3    0    1
 -2      1807       544      2312      2383
 -1      4236    3    0    1
 -2       419       917      1726      2823
 -1      4237    3    0    1
 -2      1558      1838      1875      1892
 -1      4238    3    0    1
 -2      1933      2895      2931      3084
 -1      4239    3    0    1
 -2      2535      1028      2637      2818
 -1      4240    3    0    1
 -2       965      2245      2249      2670
 -1      4241    3    0    1
 -2        79        86      1935      2109
 -1      4242    3    0    1
 -2      2090      1995      2107      2549
 -1      4243    3    0    1
 -2      3088      2885      3093      3114
 -1      4244    3    0    1
 -2       640       995      2055      2840
 -1      4245    3    0    1
 -2       651      1000      2184      2244
 -1      4246    3    0    1
 -2      2186      2194      2265      2266
 -1      4247    3    0    1
 -2      1724      1984      2121      2372
 -1      4248    3    0    1
 -2      1107       850      1665      2047
 -1      4249    3    0    1
 -2       850      1400       888      2047
 -1      4250    3    0    1
 -2      1676      1550      1695      1887
 -1      4251    3    0    1
 -2       863      1157      1376      2161
 -1      4252    3    0    1
 -2      1639      1531      1676      1887
 -1      4253    3    0    1
 -2      1590      1601      1666      1888
 -1      4254    3    0    1
 -2       217       215      1046      2658
 -1      4255    3    0    1
 -2       871      1391      1382      1888
 -1      4256    3    0    1
 -2      1391      1601      1791      1888
 -1      4257    3    0    1
 -2      1391       871       879      1888
 -1      4258    3    0    1
 -2      1391       879      1601      1888
 -1      4259    3    0    1
 -2      1098      1549      2375      2396
 -1      4260    3    0    1
 -2       437       406      1113      1889
 -1      4261    3    0    1
 -2      1113      1753      1820      1889
 -1      4262    3    0    1
 -2       437      1113      1820      1889
 -1      4263    3    0    1
 -2       295      1342      1850      1890
 -1      4264    3    0    1
 -2       833      1342      1099      1890
 -1      4265    3    0    1
 -2      1148       295      1105      1890
 -1      4266    3    0    1
 -2      1105       295      1850      1890
 -1      4267    3    0    1
 -2      1342      1710      1850      1890
 -1      4268    3    0    1
 -2      1342       833       834      1890
 -1      4269    3    0    1
 -2      1342       834      1710      1890
 -1      4270    3    0    1
 -2      1718      1621      1871      1895
 -1      4271    3    0    1
 -2      1689      1718      1884      1895
 -1      4272    3    0    1
 -2       388      1120      1146      1894
 -1      4273    3    0    1
 -2      1120      1619      1692      1894
 -1      4274    3    0    1
 -2      1849      1579      2063      2114
 -1      4275    3    0    1
 -2       124       980       981      2701
 -1      4276    3    0    1
 -2      1705      1630      2209      2234
 -1      4277    3    0    1
 -2      1589      1641      2063      2114
 -1      4278    3    0    1
 -2       748      1052      1712      2423
 -1      4279    3    0    1
 -2      1228       104      2044      2140
 -1      4280    3    0    1
 -2      1722      1799      1821      1919
 -1      4281    3    0    1
 -2      2279      2308      2226      1117
 -1      4282    3    0    1
 -2      1862      1909      2081      2141
 -1      4283    3    0    1
 -2      1573       137      2098      2430
 -1      4284    3    0    1
 -2      1565      1675      1684      1902
 -1      4285    3    0    1
 -2      1067      1813      2979      3110
 -1      4286    3    0    1
 -2      1402       853      1111      2139
 -1      4287    3    0    1
 -2       919       423       928      1893
 -1      4288    3    0    1
 -2      1917      1719      1918      2281
 -1      4289    3    0    1
 -2       423        52       928      1893
 -1      4290    3    0    1
 -2      1876      1338      2320      2400
 -1      4291    3    0    1
 -2      1338      1092      2320      2400
 -1      4292    3    0    1
 -2      1007       664      2414      2457
 -1      4293    3    0    1
 -2      1706      1694      2452      2455
 -1      4294    3    0    1
 -2      1396       865      1126      1896
 -1      4295    3    0    1
 -2       663       664      1007      2457
 -1      4296    3    0    1
 -2       865      1396       884      1896
 -1      4297    3    0    1
 -2       884      1396      1706      1896
 -1      4298    3    0    1
 -2      1548      1995      2276      2504
 -1      4299    3    0    1
 -2      1069      1990      2057      2491
 -1      4300    3    0    1
 -2      1867      1954      2117      2327
 -1      4301    3    0    1
 -2      2517       706      2624      2625
 -1      4302    3    0    1
 -2       974       118      1993      2446
 -1      4303    3    0    1
 -2       164       355      1259      1897
 -1      4304    3    0    1
 -2      1653      1577      2028      2752
 -1      4305    3    0    1
 -2      1916      1565      2335      2354
 -1      4306    3    0    1
 -2      1540      2453      2526      2668
 -1      4307    3    0    1
 -2       145       139      2175      2395
 -1      4308    3    0    1
 -2      1671      2025      2138      2737
 -1      4309    3    0    1
 -2       538      2030      2295      2495
 -1      4310    3    0    1
 -2        32       919      1182      1901
 -1      4311    3    0    1
 -2       994       640      1006      2055
 -1      4312    3    0    1
 -2      1652      1634      1824      2246
 -1      4313    3    0    1
 -2       382       953      1693      1938
 -1      4314    3    0    1
 -2      1788      1900      2157      2512
 -1      4315    3    0    1
 -2      1034       711      2738      2864
 -1      4316    3    0    1
 -2       384       385       950      1904
 -1      4317    3    0    1
 -2       463       462       905      2402
 -1      4318    3    0    1
 -2      1599      1557      1818      2204
 -1      4319    3    0    1
 -2      1304       751      1796      2682
 -1      4320    3    0    1
 -2      2294      2395      2634      2827
 -1      4321    3    0    1
 -2      1809      1679      1855      1961
 -1      4322    3    0    1
 -2       955      1810      1956      1987
 -1      4323    3    0    1
 -2      2179      1552      2200      2667
 -1      4324    3    0    1
 -2      1722      1621      2337      2713
 -1      4325    3    0    1
 -2      1838      1759      1892      2274
 -1      4326    3    0    1
 -2       703       702      1031      2589
 -1      4327    3    0    1
 -2       627       634      2222      2316
 -1      4328    3    0    1
 -2      1602      1598      1673      1947
 -1      4329    3    0    1
 -2        83        89       955      1987
 -1      4330    3    0    1
 -2      2454      2028      2500      2568
 -1      4331    3    0    1
 -2      1561      1767      1830      1947
 -1      4332    3    0    1
 -2      1810      1807      1956      1987
 -1      4333    3    0    1
 -2      1759      1583      1892      2274
 -1      4334    3    0    1
 -2      1693      1938      2134      2274
 -1      4335    3    0    1
 -2       311      1139      1129      2322
 -1      4336    3    0    1
 -2      2248      1569      2479      2486
 -1      4337    3    0    1
 -2      2164      2126      2278      2608
 -1      4338    3    0    1
 -2       507       514      2657      2830
 -1      4339    3    0    1
 -2      1044       735       736      2380
 -1      4340    3    0    1
 -2       862       895      1915      1936
 -1      4341    3    0    1
 -2      1772      1579      1931      2084
 -1      4342    3    0    1
 -2      1559      1757      1923      2518
 -1      4343    3    0    1
 -2      1647      1641      2001      2156
 -1      4344    3    0    1
 -2      2070      1670      2071      2768
 -1      4345    3    0    1
 -2      2262      1789      2412      2719
 -1      4346    3    0    1
 -2       862      1407       895      1936
 -1      4347    3    0    1
 -2      1866      1737      2432      2754
 -1      4348    3    0    1
 -2      1525      1910      2227      2493
 -1      4349    3    0    1
 -2      1905       396      2069      2690
 -1      4350    3    0    1
 -2      1686      1733      1818      2050
 -1      4351    3    0    1
 -2      1002      1271      2131      2239
 -1      4352    3    0    1
 -2      1667      1784      1840      1949
 -1      4353    3    0    1
 -2      1701      1768      1960      2268
 -1      4354    3    0    1
 -2      1583      1759      2141      2331
 -1      4355    3    0    1
 -2        89      1810      1880      1926
 -1      4356    3    0    1
 -2       924       507      2205      2311
 -1      4357    3    0    1
 -2      1216        89      1880      1926
 -1      4358    3    0    1
 -2      1802        62      1815      2574
 -1      4359    3    0    1
 -2      1654      1735      2246      2401
 -1      4360    3    0    1
 -2      1751      2226      2279      2338
 -1      4361    3    0    1
 -2        77      1885      1914      1917
 -1      4362    3    0    1
 -2       253      2471      2482      2646
 -1      4363    3    0    1
 -2      2308      2279      2226      2338
 -1      4364    3    0    1
 -2      2274       382      2293      2712
 -1      4365    3    0    1
 -2      1155      1677      1722      1919
 -1      4366    3    0    1
 -2      1934      1006      1975      2055
 -1      4367    3    0    1
 -2       663      1776      1975      2055
 -1      4368    3    0    1
 -2       544       944      1807      1956
 -1      4369    3    0    1
 -2      2069      1869      2392      2690
 -1      4370    3    0    1
 -2      1888      1601      1976      2093
 -1      4371    3    0    1
 -2       445      1722      1821      1919
 -1      4372    3    0    1
 -2       445       436      1155      1919
 -1      4373    3    0    1
 -2       445      1155      1722      1919
 -1      4374    3    0    1
 -2      1823      1762      2110      2691
 -1      4375    3    0    1
 -2       401      2469      2473      2665
 -1      4376    3    0    1
 -2      1747      1640      1869      2333
 -1      4377    3    0    1
 -2       106       964      1226      2309
 -1      4378    3    0    1
 -2      1259       164      1897      2434
 -1      4379    3    0    1
 -2      1525      1910      1982      2227
 -1      4380    3    0    1
 -2      1568      2098      2105      2444
 -1      4381    3    0    1
 -2      1226       964      1948      2309
 -1      4382    3    0    1
 -2      1271      1015      2131      2689
 -1      4383    3    0    1
 -2      1567      1723      1871      2411
 -1      4384    3    0    1
 -2       459      1164      2553      2790
 -1      4385    3    0    1
 -2      1788      1806      1854      2021
 -1      4386    3    0    1
 -2      1132      1394      2189      2659
 -1      4387    3    0    1
 -2        12        14       905      2009
 -1      4388    3    0    1
 -2       864      1788      1854      2021
 -1      4389    3    0    1
 -2      1608      1998      2152      2495
 -1      4390    3    0    1
 -2      1608      2152      2259      2311
 -1      4391    3    0    1
 -2      2151      1091      2349      2522
 -1      4392    3    0    1
 -2      1735      2246      2382      2393
 -1      4393    3    0    1
 -2       213      2556      2785      2861
 -1      4394    3    0    1
 -2      1092       822       823      2320
 -1      4395    3    0    1
 -2      1810      1872      1880      1926
 -1      4396    3    0    1
 -2      1566      1889      1898      1927
 -1      4397    3    0    1
 -2      2213      2248      2486      2525
 -1      4398    3    0    1
 -2      1578      1753      1889      1927
 -1      4399    3    0    1
 -2      1889      1753      1898      1927
 -1      4400    3    0    1
 -2      2100       142      2112      2235
 -1      4401    3    0    1
 -2       246      1069      2057      2491
 -1      4402    3    0    1
 -2       974      1993      2436      2446
 -1      4403    3    0    1
 -2      1679      1525      2227      2493
 -1      4404    3    0    1
 -2      2187      1775      2329      2652
 -1      4405    3    0    1
 -2      1583      1825      2134      2331
 -1      4406    3    0    1
 -2      1714      1809      1855      1961
 -1      4407    3    0    1
 -2       832       471      2122      2596
 -1      4408    3    0    1
 -2       808      1084      2167      2255
 -1      4409    3    0    1
 -2      1995      2090      2276      2464
 -1      4410    3    0    1
 -2       608       582      2387      2615
 -1      4411    3    0    1
 -2      1802      1815      1949      2481
 -1      4412    3    0    1
 -2        36       913      2000      2073
 -1      4413    3    0    1
 -2      2053       459      2058      2553
 -1      4414    3    0    1
 -2      1791      1771      1849      2062
 -1      4415    3    0    1
 -2      1898      1842      1927      2102
 -1      4416    3    0    1
 -2      1361       846      1955      2045
 -1      4417    3    0    1
 -2      1778      1837      2252      2361
 -1      4418    3    0    1
 -2      1783       402      2210      2349
 -1      4419    3    0    1
 -2      2117      1805      2369      2427
 -1      4420    3    0    1
 -2      1411      1435      1437      3111
 -1      4421    3    0    1
 -2      1006      1934      1975      2100
 -1      4422    3    0    1
 -2      1006       994      2055      2100
 -1      4423    3    0    1
 -2      1934       994      2055      2092
 -1      4424    3    0    1
 -2      2144      2289      2389      2489
 -1      4425    3    0    1
 -2      2304      1657      2519      2648
 -1      4426    3    0    1
 -2       664      1776      2414      2457
 -1      4427    3    0    1
 -2       335       961      2449      2501
 -1      4428    3    0    1
 -2      2141      1909      2204      2441
 -1      4429    3    0    1
 -2      1759      2141      2331      2441
 -1      4430    3    0    1
 -2      1984      1940      2121      2148
 -1      4431    3    0    1
 -2       567       957       568      1935
 -1      4432    3    0    1
 -2      1291      2119      2150      2792
 -1      4433    3    0    1
 -2      1535      2202      2490      2734
 -1      4434    3    0    1
 -2       895      1407      1858      1936
 -1      4435    3    0    1
 -2       895      1858      1915      1936
 -1      4436    3    0    1
 -2      1598      1986      1996      2082
 -1      4437    3    0    1
 -2       369      1859      2678      2849
 -1      4438    3    0    1
 -2      1875      1827      1899      2015
 -1      4439    3    0    1
 -2       385       950      1904      1937
 -1      4440    3    0    1
 -2      1984      1996      2080      2082
 -1      4441    3    0    1
 -2       496       495      1901      1939
 -1      4442    3    0    1
 -2       495       496       918      1939
 -1      4443    3    0    1
 -2      1182      1761      1901      2358
 -1      4444    3    0    1
 -2       917       495       918      1939
 -1      4445    3    0    1
 -2        34        37      1726      1939
 -1      4446    3    0    1
 -2        37        34       917      1939
 -1      4447    3    0    1
 -2       917        34      1726      1939
 -1      4448    3    0    1
 -2       978       389      2194      2265
 -1      4449    3    0    1
 -2      1903      2286      2416      2642
 -1      4450    3    0    1
 -2      1676      1903      2416      2642
 -1      4451    3    0    1
 -2      1563      1611      1624      2461
 -1      4452    3    0    1
 -2       976      1249      2616      2732
 -1      4453    3    0    1
 -2      1681      1584      1917      2286
 -1      4454    3    0    1
 -2      1603      1719      1918      2336
 -1      4455    3    0    1
 -2      1073       255      2463      2562
 -1      4456    3    0    1
 -2      1694      1570      1844      1944
 -1      4457    3    0    1
 -2      1570      1694      1706      1944
 -1      4458    3    0    1
 -2      1981       356      2374      2765
 -1      4459    3    0    1
 -2      2101      2061      2253      2744
 -1      4460    3    0    1
 -2      2239      1424      3073      3119
 -1      4461    3    0    1
 -2      2910      3068      3077      3079
 -1      4462    3    0    1
 -2      2374      2478      2786      2853
 -1      4463    3    0    1
 -2      1725      2478      2765      2853
 -1      4464    3    0    1
 -2      2089      1729      2361      2362
 -1      4465    3    0    1
 -2      1694      1570      2456      2561
 -1      4466    3    0    1
 -2       118      1773      2188      2436
 -1      4467    3    0    1
 -2      1651      1644      2051      2594
 -1      4468    3    0    1
 -2      1729      2361      2362      2700
 -1      4469    3    0    1
 -2      1702      1634      2639      2659
 -1      4470    3    0    1
 -2       678      1814      2131      2242
 -1      4471    3    0    1
 -2      1598      1561      1673      1947
 -1      4472    3    0    1
 -2      2186      1851      2266      2420
 -1      4473    3    0    1
 -2       687      1018      2394      2533
 -1      4474    3    0    1
 -2      1917      1885      1918      2336
 -1      4475    3    0    1
 -2       964       584      1226      1948
 -1      4476    3    0    1
 -2      1918      1917      2281      2286
 -1      4477    3    0    1
 -2      1959      1352      2230      2355
 -1      4478    3    0    1
 -2      1556      1687      2389      2692
 -1      4479    3    0    1
 -2      1783      1096      2255      2595
 -1      4480    3    0    1
 -2      1945       198      2561      2833
 -1      4481    3    0    1
 -2      2144      1869      2389      2289
 -1      4482    3    0    1
 -2       520       543      2345      2600
 -1      4483    3    0    1
 -2      1745      2095      2139      2429
 -1      4484    3    0    1
 -2       420        31      1761      2399
 -1      4485    3    0    1
 -2      1818      1733      2004      2050
 -1      4486    3    0    1
 -2      1606      1534      1900      1952
 -1      4487    3    0    1
 -2      1793      1606      1800      1952
 -1      4488    3    0    1
 -2      1400      1107      1665      2047
 -1      4489    3    0    1
 -2      1650      1575      1690      1966
 -1      4490    3    0    1
 -2       783      1071      1974      2740
 -1      4491    3    0    1
 -2       783       760      1070      2740
 -1      4492    3    0    1
 -2      1633      1594      1647      2465
 -1      4493    3    0    1
 -2      1767      1830      1994      2362
 -1      4494    3    0    1
 -2       967       591       968      1953
 -1      4495    3    0    1
 -2       177       174      2605      2808
 -1      4496    3    0    1
 -2      1584      1681      1885      2018
 -1      4497    3    0    1
 -2       107       104       967      1953
 -1      4498    3    0    1
 -2      1636      1562      1743      2045
 -1      4499    3    0    1
 -2      1894      1361      1955      2045
 -1      4500    3    0    1
 -2      1673      1816       850      1602
 -1      4501    3    0    1
 -2       846      1743      1955      2045
 -1      4502    3    0    1
 -2      1673       850      1839      2047
 -1      4503    3    0    1
 -2      1361       845       846      2045
 -1      4504    3    0    1
 -2      1587      1735      1841      2246
 -1      4505    3    0    1
 -2       845      1361      1358      2045
 -1      4506    3    0    1
 -2      1632       388      1894      2045
 -1      4507    3    0    1
 -2       388      1361       433      2045
 -1      4508    3    0    1
 -2      1925      1916      2036      2212
 -1      4509    3    0    1
 -2       630       631       989      2459
 -1      4510    3    0    1
 -2      1562      1632      1955      2045
 -1      4511    3    0    1
 -2      1523      1932      1952      1957
 -1      4512    3    0    1
 -2      1534      1739      1801      1957
 -1      4513    3    0    1
 -2      1534      1801      1952      1957
 -1      4514    3    0    1
 -2      1801      1523      1952      1957
 -1      4515    3    0    1
 -2      1970      2237      2488      2661
 -1      4516    3    0    1
 -2      1946      1906      2241      2251
 -1      4517    3    0    1
 -2      2048      1732      2207      2231
 -1      4518    3    0    1
 -2      1961      1664      2228      2356
 -1      4519    3    0    1
 -2      1352       839       840      1959
 -1      4520    3    0    1
 -2        34       419      1726      2653
 -1      4521    3    0    1
 -2       839      1352      1349      1959
 -1      4522    3    0    1
 -2      2548       736      2766      2824
 -1      4523    3    0    1
 -2      1732      1999      2207      2231
 -1      4524    3    0    1
 -2       682      1017      1768      1960
 -1      4525    3    0    1
 -2      1855      1754      1856      1961
 -1      4526    3    0    1
 -2      1714      1855      1856      1961
 -1      4527    3    0    1
 -2      1754      1714      1856      1961
 -1      4528    3    0    1
 -2       495      1182      1901      2358
 -1      4529    3    0    1
 -2       495      1901      2357      2358
 -1      4530    3    0    1
 -2       854      1112      2196      2257
 -1      4531    3    0    1
 -2      1760      1738      1958      2257
 -1      4532    3    0    1
 -2      1192       926      2181      2229
 -1      4533    3    0    1
 -2       512      1609      2181      2229
 -1      4534    3    0    1
 -2      1760      2172      2196      2257
 -1      4535    3    0    1
 -2       427        52       926      2229
 -1      4536    3    0    1
 -2       926       512      2181      2229
 -1      4537    3    0    1
 -2        32       919      1901      1962
 -1      4538    3    0    1
 -2       919        32      1893      1962
 -1      4539    3    0    1
 -2      1182        30      1901      1962
 -1      4540    3    0    1
 -2      1761      1182      1901      1962
 -1      4541    3    0    1
 -2      1293      1041       727      2377
 -1      4542    3    0    1
 -2      1995      2464      2504      2536
 -1      4543    3    0    1
 -2      1548      2412      1789      2719
 -1      4544    3    0    1
 -2       395      1672      2038      2502
 -1      4545    3    0    1
 -2      1667      1569      2248      2525
 -1      4546    3    0    1
 -2       337       347      2332      2685
 -1      4547    3    0    1
 -2      1399       887      2097      2384
 -1      4548    3    0    1
 -2       337       121       979      2685
 -1      4549    3    0    1
 -2       981      2174      2634      2686
 -1      4550    3    0    1
 -2      1650      1966      2089      2361
 -1      4551    3    0    1
 -2       127       124       981      2701
 -1      4552    3    0    1
 -2      1324      2216      2583      2817
 -1      4553    3    0    1
 -2       937       941      1863      2832
 -1      4554    3    0    1
 -2       961       579      2170      2296
 -1      4555    3    0    1
 -2      1573      2116      2159      2619
 -1      4556    3    0    1
 -2        62       937      2691      2832
 -1      4557    3    0    1
 -2      2174      2395      2634      2686
 -1      4558    3    0    1
 -2      2113      1891      2169      2363
 -1      4559    3    0    1
 -2      1352      1349      2230      2355
 -1      4560    3    0    1
 -2      1043       730      2119      2551
 -1      4561    3    0    1
 -2       872      1395       883      2621
 -1      4562    3    0    1
 -2       994       640      2055      2092
 -1      4563    3    0    1
 -2      2061      2418      2622      2672
 -1      4564    3    0    1
 -2      1314       255      2510      2543
 -1      4565    3    0    1
 -2       941       937      1863      1997
 -1      4566    3    0    1
 -2       640       994      1860      2092
 -1      4567    3    0    1
 -2      2198      1069      2507      2643
 -1      4568    3    0    1
 -2      1700      2473      2518      2665
 -1      4569    3    0    1
 -2      1713       466      2591      2326
 -1      4570    3    0    1
 -2       221       212      1295      2043
 -1      4571    3    0    1
 -2      2899      2724      2923      3091
 -1      4572    3    0    1
 -2       334       356      1044      1981
 -1      4573    3    0    1
 -2       367      1095      2171      2375
 -1      4574    3    0    1
 -2      1634      1654      1824      2246
 -1      4575    3    0    1
 -2      1543      2116      2505      2619
 -1      4576    3    0    1
 -2      1886      1544      2505      2619
 -1      4577    3    0    1
 -2      1831      1851      1932      2266
 -1      4578    3    0    1
 -2      1769      2374      2478      2786
 -1      4579    3    0    1
 -2       104       962      1228      2044
 -1      4580    3    0    1
 -2      1883       161      2273      2457
 -1      4581    3    0    1
 -2      2370      1983      2697      2835
 -1      4582    3    0    1
 -2      1836       281      2012      2080
 -1      4583    3    0    1
 -2      2966      1315       774      3006
 -1      4584    3    0    1
 -2       373      1083      2570      2797
 -1      4585    3    0    1
 -2      2053      1167      2059      2366
 -1      4586    3    0    1
 -2       459       466      2053      2058
 -1      4587    3    0    1
 -2      1836       282      1986      2367
 -1      4588    3    0    1
 -2      1542      1658      1747      2330
 -1      4589    3    0    1
 -2      1662      2013      2118      2282
 -1      4590    3    0    1
 -2      2697      2042      2834      2890
 -1      4591    3    0    1
 -2      2284       706      2517      2625
 -1      4592    3    0    1
 -2      1829      1774      2247      2276
 -1      4593    3    0    1
 -2      1844      1829      2247      2276
 -1      4594    3    0    1
 -2      1059       783      1071      1974
 -1      4595    3    0    1
 -2       384        83      1812      2511
 -1      4596    3    0    1
 -2      2182      1604      2679      2736
 -1      4597    3    0    1
 -2       760       783      1059      1974
 -1      4598    3    0    1
 -2      1566      2026      2250      2313
 -1      4599    3    0    1
 -2      1822      1544      2067      2505
 -1      4600    3    0    1
 -2      3105       370      3106      3020
 -1      4601    3    0    1
 -2       751      1055      1796      2571
 -1      4602    3    0    1
 -2       282      1836      1986      1996
 -1      4603    3    0    1
 -2       356      1044      2426      2542
 -1      4604    3    0    1
 -2       282       281      1836      1996
 -1      4605    3    0    1
 -2      1829      1570      1844      2247
 -1      4606    3    0    1
 -2       389       978      1993      2265
 -1      4607    3    0    1
 -2      1671      2219      2410      2737
 -1      4608    3    0    1
 -2       402       287      1339      2381
 -1      4609    3    0    1
 -2       287       402      1096      2381
 -1      4610    3    0    1
 -2      1339      2151      2349      2381
 -1      4611    3    0    1
 -2       905      2009      2396      2397
 -1      4612    3    0    1
 -2       639       640      1860      2425
 -1      4613    3    0    1
 -2      2151       292      2220      2750
 -1      4614    3    0    1
 -2       519       496       919      2280
 -1      4615    3    0    1
 -2      1031      1270      2242      2589
 -1      4616    3    0    1
 -2      2225        65      2406      2778
 -1      4617    3    0    1
 -2       356       334      1294      1981
 -1      4618    3    0    1
 -2      1567      1671      1828      1985
 -1      4619    3    0    1
 -2      1607      1660      1779      1985
 -1      4620    3    0    1
 -2      1567      1607      1852      1985
 -1      4621    3    0    1
 -2      1607      1567      1660      1985
 -1      4622    3    0    1
 -2       937       531      1762      1997
 -1      4623    3    0    1
 -2      1664      1662      1677      2118
 -1      4624    3    0    1
 -2       137       136      2098      2105
 -1      4625    3    0    1
 -2      1250       988      2008      2175
 -1      4626    3    0    1
 -2       992       138      2425      2640
 -1      4627    3    0    1
 -2       181       177      1018      2466
 -1      4628    3    0    1
 -2      1639      1531      1887      2206
 -1      4629    3    0    1
 -2       495       917      2215      2357
 -1      4630    3    0    1
 -2      2059       400      2577      2591
 -1      4631    3    0    1
 -2      2506      1983      2835      2894
 -1      4632    3    0    1
 -2       121      2332      2442      2685
 -1      4633    3    0    1
 -2       608       977      2615      2708
 -1      4634    3    0    1
 -2       917      1963      2215      2357
 -1      4635    3    0    1
 -2      1603      1595      1619      2283
 -1      4636    3    0    1
 -2        10       398       906      1989
 -1      4637    3    0    1
 -2      2319       282      2367      2559
 -1      4638    3    0    1
 -2      1923      1559      2518      2519
 -1      4639    3    0    1
 -2      1755      1547      1942      2187
 -1      4640    3    0    1
 -2       610       603       978      1993
 -1      4641    3    0    1
 -2      1953       968      2799      2804
 -1      4642    3    0    1
 -2      1656      2146      2163      2180
 -1      4643    3    0    1
 -2      1247       991       627      2316
 -1      4644    3    0    1
 -2      1879       284      2375      2396
 -1      4645    3    0    1
 -2       292       290      1097      2750
 -1      4646    3    0    1
 -2       138       990      1648      2640
 -1      4647    3    0    1
 -2      1591      1547      1755      2187
 -1      4648    3    0    1
 -2       118       389       978      1993
 -1      4649    3    0    1
 -2      1630      2105      2146      2180
 -1      4650    3    0    1
 -2      2374      1981      2765      2853
 -1      4651    3    0    1
 -2       713       204      2983      3031
 -1      4652    3    0    1
 -2      1337      1093       822      2320
 -1      4653    3    0    1
 -2      1881      2056      2218      2523
 -1      4654    3    0    1
 -2      1533      1940      1984      2148
 -1      4655    3    0    1
 -2      2039      1789      2107      2412
 -1      4656    3    0    1
 -2       938      1204      1637      1997
 -1      4657    3    0    1
 -2      1204       938       538      1997
 -1      4658    3    0    1
 -2      1953       104      2017      2140
 -1      4659    3    0    1
 -2      1723       859      1799      2031
 -1      4660    3    0    1
 -2      1596      1708      1764      2095
 -1      4661    3    0    1
 -2      1809      1525      1982      2227
 -1      4662    3    0    1
 -2      1531      1676      1887      2206
 -1      4663    3    0    1
 -2       908       472      1963      2359
 -1      4664    3    0    1
 -2       831      1096      2255      2343
 -1      4665    3    0    1
 -2       428       426      3087      3095
 -1      4666    3    0    1
 -2      1536      1905      1928      2330
 -1      4667    3    0    1
 -2      1654      2240      2490      2734
 -1      4668    3    0    1
 -2       802       795      1082      2516
 -1      4669    3    0    1
 -2      1373       859      1723      2031
 -1      4670    3    0    1
 -2      1620      1789      2039      2412
 -1      4671    3    0    1
 -2      1730      1639      1887      2206
 -1      4672    3    0    1
 -2      2030      1998      2295      2495
 -1      4673    3    0    1
 -2      2044       962      2618      2629
 -1      4674    3    0    1
 -2       968       107      1953      2799
 -1      4675    3    0    1
 -2      1139       311       331      2322
 -1      4676    3    0    1
 -2        37        36       913      2000
 -1      4677    3    0    1
 -2       292      1853      2125      2220
 -1      4678    3    0    1
 -2       334      1044      2638      2663
 -1      4679    3    0    1
 -2      1650      1837      1966      2361
 -1      4680    3    0    1
 -2        53      2152      2534      2613
 -1      4681    3    0    1
 -2      2117      1713      2326      2427
 -1      4682    3    0    1
 -2      1683      1811      1858      2155
 -1      4683    3    0    1
 -2      1640      1913      2267      2389
 -1      4684    3    0    1
 -2      1640      1869      1913      2389
 -1      4685    3    0    1
 -2      1628       953      1644      2051
 -1      4686    3    0    1
 -2      1628      1720      1823      2051
 -1      4687    3    0    1
 -2      1067       774      1315      2390
 -1      4688    3    0    1
 -2      1593      1675      1842      2197
 -1      4689    3    0    1
 -2       410       409      1053      2005
 -1      4690    3    0    1
 -2      1053       409      1991      2005
 -1      4691    3    0    1
 -2      2401      1654      2490      2734
 -1      4692    3    0    1
 -2      1817       418      2575      2798
 -1      4693    3    0    1
 -2      2395       139       993       145
 -1      4694    3    0    1
 -2      2289      1869      2389      2687
 -1      4695    3    0    1
 -2      2066      1773      2437      2528
 -1      4696    3    0    1
 -2      2439      1907      2470      2496
 -1      4697    3    0    1
 -2      1568      1630      2105      2146
 -1      4698    3    0    1
 -2      1707      1721      1943      2025
 -1      4699    3    0    1
 -2      1556      2389      2565      2687
 -1      4700    3    0    1
 -2      2389      1869      2565      2687
 -1      4701    3    0    1
 -2      1072      2263      2509      2606
 -1      4702    3    0    1
 -2       443      1653      2563      2752
 -1      4703    3    0    1
 -2      1028       191      1032      2558
 -1      4704    3    0    1
 -2      1072      2263      2606      2635
 -1      4705    3    0    1
 -2      1922      2052      2297      2316
 -1      4706    3    0    1
 -2      1630      1568      1656      2146
 -1      4707    3    0    1
 -2      1020       332      2435      2530
 -1      4708    3    0    1
 -2       688       711      1034      2006
 -1      4709    3    0    1
 -2       711       688      1021      2006
 -1      4710    3    0    1
 -2      1020       688      1034      2006
 -1      4711    3    0    1
 -2       711      1021      1033      2006
 -1      4712    3    0    1
 -2      2098      1568      2105      2146
 -1      4713    3    0    1
 -2      1608      2213      2295      2486
 -1      4714    3    0    1
 -2      1882       703      2242      2589
 -1      4715    3    0    1
 -2        77      1576      2135      2467
 -1      4716    3    0    1
 -2      1805      1834      2117      2369
 -1      4717    3    0    1
 -2       320       142       988      2008
 -1      4718    3    0    1
 -2      1765       822      2320      2397
 -1      4719    3    0    1
 -2      1337       905      2396      2397
 -1      4720    3    0    1
 -2      2294      2747      2763      2842
 -1      4721    3    0    1
 -2      1723      1671      2411      1567
 -1      4722    3    0    1
 -2      1834      2023      2369      2403
 -1      4723    3    0    1
 -2        14       377       905      2009
 -1      4724    3    0    1
 -2      1612       658      1861      2184
 -1      4725    3    0    1
 -2      1851      1530      1932      2420
 -1      4726    3    0    1
 -2       651       658      1612      2184
 -1      4727    3    0    1
 -2       137      1573      2098      2149
 -1      4728    3    0    1
 -2      1817       471      1912      2122
 -1      4729    3    0    1
 -2      1397      1808      1874      2016
 -1      4730    3    0    1
 -2      1397      1121      1808      2016
 -1      4731    3    0    1
 -2      1692       885      1874      2016
 -1      4732    3    0    1
 -2      1397       861      1121      2016
 -1      4733    3    0    1
 -2       885      1397      1874      2016
 -1      4734    3    0    1
 -2       861      1397       885      2016
 -1      4735    3    0    1
 -2       967       956      1798      2017
 -1      4736    3    0    1
 -2      1798       956      1904      2017
 -1      4737    3    0    1
 -2      1030      2077      1420      2924
 -1      4738    3    0    1
 -2       845      1636      1743      2045
 -1      4739    3    0    1
 -2      1562      1955      1964      2045
 -1      4740    3    0    1
 -2      1361       388      1358      2045
 -1      4741    3    0    1
 -2        68        65      2514      2778
 -1      4742    3    0    1
 -2      1193       925      2181      2636
 -1      4743    3    0    1
 -2       357      2426      2542      2788
 -1      4744    3    0    1
 -2      1584      1885      1914      2018
 -1      4745    3    0    1
 -2       944      1807      2299      2383
 -1      4746    3    0    1
 -2      1827      1627      1862      2081
 -1      4747    3    0    1
 -2       544       567      1807      2019
 -1      4748    3    0    1
 -2       567       945       954      2019
 -1      4749    3    0    1
 -2      1313       405      2643      2821
 -1      4750    3    0    1
 -2       567       544       945      2019
 -1      4751    3    0    1
 -2       886       864      1854      2021
 -1      4752    3    0    1
 -2       300       390      1800      2021
 -1      4753    3    0    1
 -2      1147       300      1124      2021
 -1      4754    3    0    1
 -2       864      1147      1124      2021
 -1      4755    3    0    1
 -2      1800      1147      1854      2021
 -1      4756    3    0    1
 -2       300      1147       390      2021
 -1      4757    3    0    1
 -2      1147       864       886      2021
 -1      4758    3    0    1
 -2      1147       886      1854      2021
 -1      4759    3    0    1
 -2       390      1147      1800      2021
 -1      4760    3    0    1
 -2      1561      2074      2403      2404
 -1      4761    3    0    1
 -2       894      1155      1677      2118
 -1      4762    3    0    1
 -2      1538      1664      1677      2118
 -1      4763    3    0    1
 -2      1830      1767      2097      2160
 -1      4764    3    0    1
 -2      1894      1632      1955      2417
 -1      4765    3    0    1
 -2       302      1151       401      2469
 -1      4766    3    0    1
 -2       213      1043      1291      2758
 -1      4767    3    0    1
 -2      1067      1315      2261      2390
 -1      4768    3    0    1
 -2      1988      1727      2448      2462
 -1      4769    3    0    1
 -2      1001       651      1612      2251
 -1      4770    3    0    1
 -2       178      1574      2305      2783
 -1      4771    3    0    1
 -2       178      1019      2435      2783
 -1      4772    3    0    1
 -2      1552      1773      2476      2641
 -1      4773    3    0    1
 -2      2075      2024      2285      2757
 -1      4774    3    0    1
 -2      1540      2526      2610      2668
 -1      4775    3    0    1
 -2      1019      2529      2751      2783
 -1      4776    3    0    1
 -2      1098       374      1549      2396
 -1      4777    3    0    1
 -2       284       374      2375      2396
 -1      4778    3    0    1
 -2       420        12      1165      2399
 -1      4779    3    0    1
 -2      1014      1272      1574      2162
 -1      4780    3    0    1
 -2       675       682      1272      2162
 -1      4781    3    0    1
 -2       682       675      1756      2162
 -1      4782    3    0    1
 -2      1542      1658      2330      2564
 -1      4783    3    0    1
 -2      1750      1157      2161      2183
 -1      4784    3    0    1
 -2      1723      2031      2219      2410
 -1      4785    3    0    1
 -2      2248      1569      2486      2525
 -1      4786    3    0    1
 -2      1577      2409      2454      2455
 -1      4787    3    0    1
 -2      1936      1858      2010      2183
 -1      4788    3    0    1
 -2      1056      1809      1982      2227
 -1      4789    3    0    1
 -2       675      1014      2120      2162
 -1      4790    3    0    1
 -2       292      2151      1091       290
 -1      4791    3    0    1
 -2      1542      1672      2038      2292
 -1      4792    3    0    1
 -2      1411      1054      1437      3027
 -1      4793    3    0    1
 -2      1799      1723      2031      2411
 -1      4794    3    0    1
 -2      1621      1718      1871      2411
 -1      4795    3    0    1
 -2      1718      1828      1871      2411
 -1      4796    3    0    1
 -2      1723      1621      1871      2411
 -1      4797    3    0    1
 -2      2489      1682      2662      2826
 -1      4798    3    0    1
 -2       472       909      2358      2702
 -1      4799    3    0    1
 -2        37        36      2000      2552
 -1      4800    3    0    1
 -2       321      1261      1777      2033
 -1      4801    3    0    1
 -2       220      1970      2638      2764
 -1      4802    3    0    1
 -2       712      1036      2572      2844
 -1      4803    3    0    1
 -2      1145      1377      2500      2568
 -1      4804    3    0    1
 -2      1801      1957      2449      2524
 -1      4805    3    0    1
 -2      1803       246      2026      2057
 -1      4806    3    0    1
 -2       837      1348      1101      2081
 -1      4807    3    0    1
 -2       281      1094      2012      2148
 -1      4808    3    0    1
 -2       823       822      1093      2320
 -1      4809    3    0    1
 -2       853      1402       890      2139
 -1      4810    3    0    1
 -2      1846      1810      1973      2037
 -1      4811    3    0    1
 -2      1810      1846      1872      2037
 -1      4812    3    0    1
 -2      1357       843       844      2040
 -1      4813    3    0    1
 -2       843      1826      1999      2040
 -1      4814    3    0    1
 -2       843      1357      1104      2040
 -1      4815    3    0    1
 -2       843      1104      1826      2040
 -1      4816    3    0    1
 -2      1579      1772      2064      2084
 -1      4817    3    0    1
 -2      1589      1579      2064      2084
 -1      4818    3    0    1
 -2      1545      1589      2064      2084
 -1      4819    3    0    1
 -2      1995      1978      2090      2107
 -1      4820    3    0    1
 -2       913       483      2073      2217
 -1      4821    3    0    1
 -2      1041      1304      1796      2371
 -1      4822    3    0    1
 -2       486       914      1193      2499
 -1      4823    3    0    1
 -2      1239      2725      2838      2839
 -1      4824    3    0    1
 -2       244       371      1066      2365
 -1      4825    3    0    1
 -2      1713       466      2058      2366
 -1      4826    3    0    1
 -2      1530      1661      1951      2604
 -1      4827    3    0    1
 -2      1008       664      1776      2414
 -1      4828    3    0    1
 -2      2151       287      2343      2381
 -1      4829    3    0    1
 -2      1937      2178      2218      2761
 -1      4830    3    0    1
 -2      1085      2111      2344      2678
 -1      4831    3    0    1
 -2      1291      1043      2119      2551
 -1      4832    3    0    1
 -2      2728       392      2748      2828
 -1      4833    3    0    1
 -2       688       687      1018      2394
 -1      4834    3    0    1
 -2      2225       944      2299      2383
 -1      4835    3    0    1
 -2       402      1339      2349      2381
 -1      4836    3    0    1
 -2      1096       402      1783      2381
 -1      4837    3    0    1
 -2       712      1036      1295      2572
 -1      4838    3    0    1
 -2      2111      1095      2171      2678
 -1      4839    3    0    1
 -2       687      2394      2529      2533
 -1      4840    3    0    1
 -2      1443      1431      1452      3036
 -1      4841    3    0    1
 -2      1019       687      2529      2533
 -1      4842    3    0    1
 -2       118       389      1993      2415
 -1      4843    3    0    1
 -2       287      1096      2343      2381
 -1      4844    3    0    1
 -2      1339       287      2151      2381
 -1      4845    3    0    1
 -2       255       268      2463      2543
 -1      4846    3    0    1
 -2       250       234      1068      2540
 -1      4847    3    0    1
 -2       212       221      1042      2043
 -1      4848    3    0    1
 -2      1528      2379      2498      2585
 -1      4849    3    0    1
 -2      1409      1421      3120      3057
 -1      4850    3    0    1
 -2      1066      1316      2483      2573
 -1      4851    3    0    1
 -2      1783       402      2349      2381
 -1      4852    3    0    1
 -2        86        79      2049      2109
 -1      4853    3    0    1
 -2       978      2243      2265      2645
 -1      4854    3    0    1
 -2      2255      1783      2595      2793
 -1      4855    3    0    1
 -2       853      2139      2429      2469
 -1      4856    3    0    1
 -2      1204       425      1998      2495
 -1      4857    3    0    1
 -2      1537      1925      2354      2521
 -1      4858    3    0    1
 -2      1021      2006      2605      2781
 -1      4859    3    0    1
 -2      1473      3104      3113      3119
 -1      4860    3    0    1
 -2      1619      1603      1874      2497
 -1      4861    3    0    1
 -2      1784      1781      1949      2481
 -1      4862    3    0    1
 -2      1781      1554      2351      2481
 -1      4863    3    0    1
 -2       538      1204      2030      2495
 -1      4864    3    0    1
 -2      1204      1998      2030      2495
 -1      4865    3    0    1
 -2       459       466      1167      2053
 -1      4866    3    0    1
 -2       312       319      1728      2576
 -1      4867    3    0    1
 -2      1728      1631      2060      2576
 -1      4868    3    0    1
 -2      1867      1713      1992      2577
 -1      4869    3    0    1
 -2      2125      1992      2220      2577
 -1      4870    3    0    1
 -2      1773      2188      2436      2437
 -1      4871    3    0    1
 -2       332      2145      2530      2554
 -1      4872    3    0    1
 -2      2253      1135      2621      2744
 -1      4873    3    0    1
 -2      1775      1390      1785      2576
 -1      4874    3    0    1
 -2      1531      1622      1739      2512
 -1      4875    3    0    1
 -2      1238       976      2616      2950
 -1      4876    3    0    1
 -2       281      1836      1996      2080
 -1      4877    3    0    1
 -2      1614      1617      2304      2583
 -1      4878    3    0    1
 -2      1348       837       838      2081
 -1      4879    3    0    1
 -2      1983      2042      2697      2889
 -1      4880    3    0    1
 -2      1348       838      1862      2081
 -1      4881    3    0    1
 -2      1713      1867      2117      2326
 -1      4882    3    0    1
 -2      1344       835      1343      2165
 -1      4883    3    0    1
 -2      2773      2494      2779      2857
 -1      4884    3    0    1
 -2       400        17      1167      2059
 -1      4885    3    0    1
 -2       835      1344       836      2165
 -1      4886    3    0    1
 -2      2224      2628      2772      2815
 -1      4887    3    0    1
 -2      1069       246      2057      2643
 -1      4888    3    0    1
 -2      1578      1842      1902      2102
 -1      4889    3    0    1
 -2      1842      1578      1927      2102
 -1      4890    3    0    1
 -2      2182      2236      2526      2580
 -1      4891    3    0    1
 -2       202       201      2584      2590
 -1      4892    3    0    1
 -2      1753      1898      1927      2102
 -1      4893    3    0    1
 -2       297       318      2321      2408
 -1      4894    3    0    1
 -2      1594      1545      1633      2064
 -1      4895    3    0    1
 -2      1633      1589      1647      2064
 -1      4896    3    0    1
 -2      1594      1633      1647      2064
 -1      4897    3    0    1
 -2      1579      1772      2063      2064
 -1      4898    3    0    1
 -2      1589      1579      2063      2064
 -1      4899    3    0    1
 -2      1670      1614      1940      2085
 -1      4900    3    0    1
 -2      1545      1589      1633      2064
 -1      4901    3    0    1
 -2      1793      1530      1826      2065
 -1      4902    3    0    1
 -2      1793      1826      2040      2065
 -1      4903    3    0    1
 -2        84        79      1935      2109
 -1      4904    3    0    1
 -2      2029       487      2492      2546
 -1      4905    3    0    1
 -2        79        84      1911      2109
 -1      4906    3    0    1
 -2      1530      1800      1952      2065
 -1      4907    3    0    1
 -2      1214      1911      2049      2109
 -1      4908    3    0    1
 -2      1553      1656      1704      2066
 -1      4909    3    0    1
 -2      1656      1547      2066      1780
 -1      4910    3    0    1
 -2      1656      1539      1755      2066
 -1      4911    3    0    1
 -2      1656      1755      1780      2066
 -1      4912    3    0    1
 -2      2364      2373      2696      2698
 -1      4913    3    0    1
 -2      1544      1641      1822      2067
 -1      4914    3    0    1
 -2      1656      1547      1780      2234
 -1      4915    3    0    1
 -2       855       891      1152      2068
 -1      4916    3    0    1
 -2      1113       855      1753      2068
 -1      4917    3    0    1
 -2      1403       855      1113      2068
 -1      4918    3    0    1
 -2       855      1152      1370      2068
 -1      4919    3    0    1
 -2       855      1370      1764      2068
 -1      4920    3    0    1
 -2      1629       366      2695      2706
 -1      4921    3    0    1
 -2       938       531      1637      2287
 -1      4922    3    0    1
 -2      1642      1363      2254      2674
 -1      4923    3    0    1
 -2      1930      1624      2071      2072
 -1      4924    3    0    1
 -2      1670      1940      2070      2071
 -1      4925    3    0    1
 -2      1791      1771      2062      2088
 -1      4926    3    0    1
 -2      1611      1560      1930      2071
 -1      4927    3    0    1
 -2      1611      1624      1930      2072
 -1      4928    3    0    1
 -2      1611       851      1624      2072
 -1      4929    3    0    1
 -2      1108       851      1930      2072
 -1      4930    3    0    1
 -2      1401       851      1108      2072
 -1      4931    3    0    1
 -2       851      1401       889      2072
 -1      4932    3    0    1
 -2       851      1611      1930      2072
 -1      4933    3    0    1
 -2      1551      2099      2346      2385
 -1      4934    3    0    1
 -2       498      3032      3055      3056
 -1      4935    3    0    1
 -2      1721      1820      1943      2154
 -1      4936    3    0    1
 -2       857      1153      1372      2154
 -1      4937    3    0    1
 -2      1213      1914      2178      2218
 -1      4938    3    0    1
 -2      1194      1698      2428      2846
 -1      4939    3    0    1
 -2      1059      1974      2005      2555
 -1      4940    3    0    1
 -2       136      1736      2105      2146
 -1      4941    3    0    1
 -2       883      1702      2168      2825
 -1      4942    3    0    1
 -2       281      2080      2082      2121
 -1      4943    3    0    1
 -2      1239       603       610      2450
 -1      4944    3    0    1
 -2      1537      1916      1925      2212
 -1      4945    3    0    1
 -2      1028      1032      2517      2558
 -1      4946    3    0    1
 -2      1151       302      1110      2469
 -1      4947    3    0    1
 -2      2245      1903      2249      2666
 -1      4948    3    0    1
 -2      1055      1292      1796      2571
 -1      4949    3    0    1
 -2      1940      1724      2087      2121
 -1      4950    3    0    1
 -2      2080      1984      2082      2121
 -1      4951    3    0    1
 -2      1984      1940      2087      2121
 -1      4952    3    0    1
 -2       543       544       943      2225
 -1      4953    3    0    1
 -2      1736      2098      2105      2146
 -1      4954    3    0    1
 -2      1736       137      2098      2149
 -1      4955    3    0    1
 -2      1566      1898      2026      2313
 -1      4956    3    0    1
 -2       191       198      1032      2558
 -1      4957    3    0    1
 -2      1984      2082      2121      2372
 -1      4958    3    0    1
 -2      3114      3088      1489      1490
 -1      4959    3    0    1
 -2      3070      2905      2999      3127
 -1      4960    3    0    1
 -2      1853      1097      2424      2750
 -1      4961    3    0    1
 -2      1864       979      2685      2831
 -1      4962    3    0    1
 -2       750       775      2540      2726
 -1      4963    3    0    1
 -2       760      1060      2740      2856
 -1      4964    3    0    1
 -2      1194       507       514      2657
 -1      4965    3    0    1
 -2      1942      1547      2060      2187
 -1      4966    3    0    1
 -2      1978      1548      1995      2276
 -1      4967    3    0    1
 -2      1674      1687      2288      2692
 -1      4968    3    0    1
 -2       925      1193      3055      3057
 -1      4969    3    0    1
 -2      2035      2079      2365      2859
 -1      4970    3    0    1
 -2      1304      1796      2371      2682
 -1      4971    3    0    1
 -2      2108      1826      2065      2040
 -1      4972    3    0    1
 -2      1613      2154      2219      2737
 -1      4973    3    0    1
 -2       819      1336      2270      2319
 -1      4974    3    0    1
 -2      1592      1533      2012      2148
 -1      4975    3    0    1
 -2      2080      2012      2121      2148
 -1      4976    3    0    1
 -2       866      1844      2464      2536
 -1      4977    3    0    1
 -2      1567      1671      2025      2138
 -1      4978    3    0    1
 -2      1191       507      2684      2830
 -1      4979    3    0    1
 -2       953      1213      2467      2761
 -1      4980    3    0    1
 -2       281      2012      2080      2148
 -1      4981    3    0    1
 -2      1028       191      2535      2637
 -1      4982    3    0    1
 -2      1540      2190      2453      2668
 -1      4983    3    0    1
 -2       296       316      1382      2088
 -1      4984    3    0    1
 -2      1344       296      1791      2088
 -1      4985    3    0    1
 -2      1343       296      1344      2088
 -1      4986    3    0    1
 -2       296      1391      1791      2088
 -1      4987    3    0    1
 -2       296      1382      1391      2088
 -1      4988    3    0    1
 -2      1891       393      2480      2745
 -1      4989    3    0    1
 -2      2168      2253      2621      2622
 -1      4990    3    0    1
 -2      1631      1591      2060      2209
 -1      4991    3    0    1
 -2      2535      2637      2679      2681
 -1      4992    3    0    1
 -2      1591      1631      1728      2209
 -1      4993    3    0    1
 -2      1630      1568      1705      2209
 -1      4994    3    0    1
 -2      1826      1999      2040      2108
 -1      4995    3    0    1
 -2      2677      2456      2679      2736
 -1      4996    3    0    1
 -2      1631      1585      1649      2209
 -1      4997    3    0    1
 -2      1988       826      2270      2349
 -1      4998    3    0    1
 -2      1066       371      2035      2365
 -1      4999    3    0    1
 -2       772      2035      2079      2365
 -1      5000    3    0    1
 -2      2628      1804      2772      2836
 -1      5001    3    0    1
 -2       268       267      2463      2543
 -1      5002    3    0    1
 -2       918       496      2169      2586
 -1      5003    3    0    1
 -2      2129      1532      2325      2368
 -1      5004    3    0    1
 -2      2370      1983      2378      2379
 -1      5005    3    0    1
 -2      1713      1867      1954      2117
 -1      5006    3    0    1
 -2       212       217      1046      2658
 -1      5007    3    0    1
 -2      1636      1622      1743      2206
 -1      5008    3    0    1
 -2      1591      1547      2060      2234
 -1      5009    3    0    1
 -2      1676      1550      1887      2206
 -1      5010    3    0    1
 -2      1531      1730      1739      2206
 -1      5011    3    0    1
 -2      1550      1636      1743      2206
 -1      5012    3    0    1
 -2       927       507      1191      2094
 -1      5013    3    0    1
 -2       890       853      2139      2429
 -1      5014    3    0    1
 -2      1643      1615      1745      2429
 -1      5015    3    0    1
 -2      1591      2060      2209      2234
 -1      5016    3    0    1
 -2      1745      1615      2095      2429
 -1      5017    3    0    1
 -2      1399       849      1106      2097
 -1      5018    3    0    1
 -2       849      1399       887      2097
 -1      5019    3    0    1
 -2      1635      1847      1910      2150
 -1      5020    3    0    1
 -2       954        84      1935      2238
 -1      5021    3    0    1
 -2      1052      1779      2086      2106
 -1      5022    3    0    1
 -2       748      1685      1991      2106
 -1      5023    3    0    1
 -2      2108      1999      2207      2604
 -1      5024    3    0    1
 -2      1685       748      2086      2106
 -1      5025    3    0    1
 -2       865      1145      1377      2500
 -1      5026    3    0    1
 -2       321      1975      2033      2100
 -1      5027    3    0    1
 -2      1777       321      2033      2100
 -1      5028    3    0    1
 -2      1536      1522      2873      2875
 -1      5029    3    0    1
 -2      1975      1934      2033      2100
 -1      5030    3    0    1
 -2       418       903      2575      2587
 -1      5031    3    0    1
 -2       751       750      1055      2682
 -1      5032    3    0    1
 -2      1547      1591      1780      2234
 -1      5033    3    0    1
 -2      1727      1079      2011      2103
 -1      5034    3    0    1
 -2      1638      1555      2351      2481
 -1      5035    3    0    1
 -2      1698      1878      1971      2217
 -1      5036    3    0    1
 -2      1617      1614      2085      2583
 -1      5037    3    0    1
 -2      1339      1727      1988      2104
 -1      5038    3    0    1
 -2       826      1339      1988      2104
 -1      5039    3    0    1
 -2      1568      1630      1705      2105
 -1      5040    3    0    1
 -2       866       880      1844      2536
 -1      5041    3    0    1
 -2      1853       292      2125      2431
 -1      5042    3    0    1
 -2       400       907      1853      2431
 -1      5043    3    0    1
 -2      1097       292      1853      2431
 -1      5044    3    0    1
 -2      1685      1832      1991      2106
 -1      5045    3    0    1
 -2      1052       748      2086      2423
 -1      5046    3    0    1
 -2      1052       408      1711      2423
 -1      5047    3    0    1
 -2       408      1600      1711      2423
 -1      5048    3    0    1
 -2      1762      1651      1877      2594
 -1      5049    3    0    1
 -2      3078      2911      3104      3113
 -1      5050    3    0    1
 -2      1789      1663      2039      2107
 -1      5051    3    0    1
 -2      1379      1142      2537      2549
 -1      5052    3    0    1
 -2      1663      2208      2302      2445
 -1      5053    3    0    1
 -2      2394      1018      2485      2533
 -1      5054    3    0    1
 -2      1007      1019      2529      2533
 -1      5055    3    0    1
 -2      1813      1067      2261      2390
 -1      5056    3    0    1
 -2      1581        86      2049      2109
 -1      5057    3    0    1
 -2        86      1581      1935      2109
 -1      5058    3    0    1
 -2      1823      1762      1877      2110
 -1      5059    3    0    1
 -2      1640      1747      1869      2392
 -1      5060    3    0    1
 -2      2650      2693      2743      2833
 -1      5061    3    0    1
 -2      1823      1877      2051      2110
 -1      5062    3    0    1
 -2      1818      2439      2470      2496
 -1      5063    3    0    1
 -2       413      1588      2612      2627
 -1      5064    3    0    1
 -2      2176      2022      2367      2794
 -1      5065    3    0    1
 -2      2061      2101      2253      2622
 -1      5066    3    0    1
 -2      1363      1364      2254      2674
 -1      5067    3    0    1
 -2      2167       808      2255      2344
 -1      5068    3    0    1
 -2      1751      1715      2226      2439
 -1      5069    3    0    1
 -2      1646       754      1873      2376
 -1      5070    3    0    1
 -2      1623      1697      1699      2172
 -1      5071    3    0    1
 -2      1623      1572      1697      2172
 -1      5072    3    0    1
 -2      1986      1598      2176      2794
 -1      5073    3    0    1
 -2      1750       896      2620      2722
 -1      5074    3    0    1
 -2       831       808      1095      2111
 -1      5075    3    0    1
 -2       808      1085      1095      2111
 -1      5076    3    0    1
 -2      2142      1079      2516      2623
 -1      5077    3    0    1
 -2       282      1986      2367      2794
 -1      5078    3    0    1
 -2      1269      1017      1756      2460
 -1      5079    3    0    1
 -2      2469      1643      2473      2665
 -1      5080    3    0    1
 -2       333       328      1017      2460
 -1      5081    3    0    1
 -2      1748       126      2718      2725
 -1      5082    3    0    1
 -2      2018      2249      2582      2660
 -1      5083    3    0    1
 -2      1685      1832      2106      2422
 -1      5084    3    0    1
 -2      1866       378      2432      2755
 -1      5085    3    0    1
 -2      1911       560      2307      2705
 -1      5086    3    0    1
 -2      1735       156      2246      2393
 -1      5087    3    0    1
 -2      1700      1746      2473      2665
 -1      5088    3    0    1
 -2      1795      2278      2608      2796
 -1      5089    3    0    1
 -2       655       989      1260      2115
 -1      5090    3    0    1
 -2       126       336      2718      2725
 -1      5091    3    0    1
 -2       655       630       989      2115
 -1      5092    3    0    1
 -2      2683      2264      2718      2725
 -1      5093    3    0    1
 -2      1580       395      1672      2132
 -1      5094    3    0    1
 -2      1663      1734      2039      2341
 -1      5095    3    0    1
 -2      1772      2064      2084      2418
 -1      5096    3    0    1
 -2      1594      1545      2064      2418
 -1      5097    3    0    1
 -2      1250       988       634      2222
 -1      5098    3    0    1
 -2      2468       586      2475      2670
 -1      5099    3    0    1
 -2       730       724      1043      2119
 -1      5100    3    0    1
 -2      1291      1043       724      2119
 -1      5101    3    0    1
 -2      2035       772      2079      2567
 -1      5102    3    0    1
 -2       988      1250      2008      2222
 -1      5103    3    0    1
 -2      1857      1532      1868      2328
 -1      5104    3    0    1
 -2      1939        37      2000      2552
 -1      5105    3    0    1
 -2      1325      1081      2447      2543
 -1      5106    3    0    1
 -2      1394      1132      2189      2421
 -1      5107    3    0    1
 -2      2000        36      2073      2552
 -1      5108    3    0    1
 -2      1879      1337      2396      2397
 -1      5109    3    0    1
 -2       630      1248      2560      2769
 -1      5110    3    0    1
 -2      1410      2499      2915      3087
 -1      5111    3    0    1
 -2       832       471       907      2122
 -1      5112    3    0    1
 -2       832       907      1097      2122
 -1      5113    3    0    1
 -2       863      1408       896      2722
 -1      5114    3    0    1
 -2      1477      1433      1505      3063
 -1      5115    3    0    1
 -2       543       943      2345      2600
 -1      5116    3    0    1
 -2       631      1249      2459      2732
 -1      5117    3    0    1
 -2       141       995      2425      2727
 -1      5118    3    0    1
 -2      2345       943      2406      2600
 -1      5119    3    0    1
 -2      3077      2921      1440      2997
 -1      5120    3    0    1
 -2       204      1283      2948      2983
 -1      5121    3    0    1
 -2      2477      1269      2680      2837
 -1      5122    3    0    1
 -2       937      1863      1997      2832
 -1      5123    3    0    1
 -2      1668      2330      2340      2795
 -1      5124    3    0    1
 -2      2421      1688      2474      2770
 -1      5125    3    0    1
 -2       282      1836      2319      2367
 -1      5126    3    0    1
 -2      1581        86      1935      2339
 -1      5127    3    0    1
 -2      1740      1615      1757      2780
 -1      5128    3    0    1
 -2      1795      1925      2036      2126
 -1      5129    3    0    1
 -2      1697      1972      2123      2127
 -1      5130    3    0    1
 -2      2916      3072      1456      2996
 -1      5131    3    0    1
 -2      2471       407      2483      2646
 -1      5132    3    0    1
 -2      1831      1523      1851      2266
 -1      5133    3    0    1
 -2      2570      2787      2859      2871
 -1      5134    3    0    1
 -2       631       990      2323      2508
 -1      5135    3    0    1
 -2      1896      2454      2500      2568
 -1      5136    3    0    1
 -2       865      1896      2500      2568
 -1      5137    3    0    1
 -2      1851      1523      2194      2266
 -1      5138    3    0    1
 -2       447       446      1143      2130
 -1      5139    3    0    1
 -2       447      1143      1752      2130
 -1      5140    3    0    1
 -2       783      1070      2275      2740
 -1      5141    3    0    1
 -2      2429      1151      2469      2473
 -1      5142    3    0    1
 -2      1747      1905      2069      2690
 -1      5143    3    0    1
 -2      1015       678      1271      2131
 -1      5144    3    0    1
 -2       852       873      1913      2267
 -1      5145    3    0    1
 -2      1653      2028      2568      2752
 -1      5146    3    0    1
 -2      2198      1313      2643      2821
 -1      5147    3    0    1
 -2       592      1953      2258      2630
 -1      5148    3    0    1
 -2        83      1790      1812      2511
 -1      5149    3    0    1
 -2      1825      1628      1938      2134
 -1      5150    3    0    1
 -2      1583      1825      1938      2134
 -1      5151    3    0    1
 -2      1604      2182      2503      2736
 -1      5152    3    0    1
 -2       355       342      1897      2869
 -1      5153    3    0    1
 -2       603      2450      2842      2848
 -1      5154    3    0    1
 -2      2116      2093      2159      2619
 -1      5155    3    0    1
 -2       374      1098      2375      2396
 -1      5156    3    0    1
 -2      1316      2471      2545      2607
 -1      5157    3    0    1
 -2      2273       324      2277      2756
 -1      5158    3    0    1
 -2       783       784      1072      2509
 -1      5159    3    0    1
 -2      2048      1942      2187      2192
 -1      5160    3    0    1
 -2      2112      1703      2235      2297
 -1      5161    3    0    1
 -2      1980      2741      2851      2852
 -1      5162    3    0    1
 -2      1942      1755      2187      2192
 -1      5163    3    0    1
 -2       534      1202      2318      2706
 -1      5164    3    0    1
 -2       534      2318      2705      2706
 -1      5165    3    0    1
 -2      1932      1530      2065      2420
 -1      5166    3    0    1
 -2       952       560       558      2307
 -1      5167    3    0    1
 -2       273      1079      2142      2814
 -1      5168    3    0    1
 -2      1951      1851      2186      2420
 -1      5169    3    0    1
 -2      2219      1115       411      2410
 -1      5170    3    0    1
 -2      1551      1528      2373      2696
 -1      5171    3    0    1
 -2       424        41      1192      2137
 -1      5172    3    0    1
 -2      1864       982      2578      2801
 -1      5173    3    0    1
 -2       940       424      1192      2137
 -1      5174    3    0    1
 -2       560       952      1911      2307
 -1      5175    3    0    1
 -2      2419      1540      2526      2610
 -1      5176    3    0    1
 -2        66       424       940      2137
 -1      5177    3    0    1
 -2      1683      2612      2633      2811
 -1      5178    3    0    1
 -2       315      2639      2659      2825
 -1      5179    3    0    1
 -2      1780      1591      2209      2234
 -1      5180    3    0    1
 -2      1392      1127      2464      2536
 -1      5181    3    0    1
 -2       273      1079      1327      2142
 -1      5182    3    0    1
 -2      1981       334      2638      2663
 -1      5183    3    0    1
 -2      2253      2101      2621      2622
 -1      5184    3    0    1
 -2      1702      1634      1824      2168
 -1      5185    3    0    1
 -2      2062      1791      2088      2165
 -1      5186    3    0    1
 -2      2352      1548      2547      2719
 -1      5187    3    0    1
 -2       373       404      1327      2142
 -1      5188    3    0    1
 -2      2517      1028      2558      2624
 -1      5189    3    0    1
 -2      1841      2202      2401      2490
 -1      5190    3    0    1
 -2      1943      1613      2002      2154
 -1      5191    3    0    1
 -2      1820      1153      1889      2154
 -1      5192    3    0    1
 -2       712      1709      2572      2656
 -1      5193    3    0    1
 -2      2891      3073      3074      2960
 -1      5194    3    0    1
 -2      2101      2253      2621      2744
 -1      5195    3    0    1
 -2      1093      1879      2214      2320
 -1      5196    3    0    1
 -2      2193      2054      2286      2642
 -1      5197    3    0    1
 -2      1762       937      1997      2691
 -1      5198    3    0    1
 -2      1709      1035      2426      2656
 -1      5199    3    0    1
 -2       409      1059      2005      2555
 -1      5200    3    0    1
 -2      1557      1715      1818      2204
 -1      5201    3    0    1
 -2      1409      1474      1491      3056
 -1      5202    3    0    1
 -2      2636      1421      3100      3120
 -1      5203    3    0    1
 -2      1533      1984      2012      2148
 -1      5204    3    0    1
 -2      1602      1673      1816      2160
 -1      5205    3    0    1
 -2      1830      1561      1947      2160
 -1      5206    3    0    1
 -2      1767      1830      1947      2160
 -1      5207    3    0    1
 -2      1561      1673      1947      2160
 -1      5208    3    0    1
 -2      1573       137      1886      2149
 -1      5209    3    0    1
 -2      1847      1291      1969      2150
 -1      5210    3    0    1
 -2      1291       724      1969      2150
 -1      5211    3    0    1
 -2        84       952      1911      2238
 -1      5212    3    0    1
 -2       290      1091      1339      2151
 -1      5213    3    0    1
 -2       307      1716      2013      2271
 -1      5214    3    0    1
 -2      1716      1375      1811      2271
 -1      5215    3    0    1
 -2       442      1157      2183      2350
 -1      5216    3    0    1
 -2       287       290      1339      2151
 -1      5217    3    0    1
 -2       808      2111      2255      2344
 -1      5218    3    0    1
 -2      1555      1815      2496      2716
 -1      5219    3    0    1
 -2      1614      1533      2085      2583
 -1      5220    3    0    1
 -2      1963       495      2215      2357
 -1      5221    3    0    1
 -2      1683      1716      1811      2271
 -1      5222    3    0    1
 -2      1002       654      2115      2820
 -1      5223    3    0    1
 -2       562       555       953      2761
 -1      5224    3    0    1
 -2       808      1085      2111      2344
 -1      5225    3    0    1
 -2      1949      1802      2481      2716
 -1      5226    3    0    1
 -2       917      1726      1963      2357
 -1      5227    3    0    1
 -2       377      1168      1549      2733
 -1      5228    3    0    1
 -2      1588      1635      2612      2627
 -1      5229    3    0    1
 -2      1070       248      2275      2775
 -1      5230    3    0    1
 -2      1238       606       608      2616
 -1      5231    3    0    1
 -2      2142       802      2164      2516
 -1      5232    3    0    1
 -2       538      2295      2486      2495
 -1      5233    3    0    1
 -2       106       102      2309      2443
 -1      5234    3    0    1
 -2      1633      1594      2465      2513
 -1      5235    3    0    1
 -2      1886      1922      1924      2211
 -1      5236    3    0    1
 -2       706      1032      2517      2624
 -1      5237    3    0    1
 -2       178       173      1574      2783
 -1      5238    3    0    1
 -2      1590      1573      2116      2159
 -1      5239    3    0    1
 -2      1886      1573      2149      2159
 -1      5240    3    0    1
 -2      2413      1279      2584      2589
 -1      5241    3    0    1
 -2      2450      1239      2838      2839
 -1      5242    3    0    1
 -2      3113       339      1505      1506
 -1      5243    3    0    1
 -2      2834      2042      2889      2890
 -1      5244    3    0    1
 -2      1816      1673      1839      2160
 -1      5245    3    0    1
 -2      1792      1816      1839      2160
 -1      5246    3    0    1
 -2      1792      1561      1830      2160
 -1      5247    3    0    1
 -2      1673      1561      1792      2160
 -1      5248    3    0    1
 -2      1673      1792      1839      2160
 -1      5249    3    0    1
 -2      2038      1542      2292      2564
 -1      5250    3    0    1
 -2      2035      2079      2608      2796
 -1      5251    3    0    1
 -2      1658      1542      2502      2564
 -1      5252    3    0    1
 -2      1658      1928      2330      2564
 -1      5253    3    0    1
 -2      1157       896      1750      2161
 -1      5254    3    0    1
 -2       863       896      1157      2161
 -1      5255    3    0    1
 -2      1574      1272      1929      2162
 -1      5256    3    0    1
 -2       136      1736      2146      2180
 -1      5257    3    0    1
 -2      2456      2677      2679      2819
 -1      5258    3    0    1
 -2      2058       906      2326      2723
 -1      5259    3    0    1
 -2      1551      2373      2385      2698
 -1      5260    3    0    1
 -2      1841      1941      1950      2202
 -1      5261    3    0    1
 -2       977       608       606      2708
 -1      5262    3    0    1
 -2        86       957      1935      2339
 -1      5263    3    0    1
 -2      1954      1805      2327      2559
 -1      5264    3    0    1
 -2       197      1029      1281      2626
 -1      5265    3    0    1
 -2       880      1829      1844      2536
 -1      5266    3    0    1
 -2      1928      2330      2564      2795
 -1      5267    3    0    1
 -2       908       418      2798      2872
 -1      5268    3    0    1
 -2      1732      1999      2231      2322
 -1      5269    3    0    1
 -2      2098      1541      2105      2444
 -1      5270    3    0    1
 -2       966       957      1581      2339
 -1      5271    3    0    1
 -2      1747      1658      1905      2330
 -1      5272    3    0    1
 -2       807       808      1084      2167
 -1      5273    3    0    1
 -2        52       427      2191      2256
 -1      5274    3    0    1
 -2      2137       926      2229      2256
 -1      5275    3    0    1
 -2      1635      1847      2150      2792
 -1      5276    3    0    1
 -2       700      1028      1032      2624
 -1      5277    3    0    1
 -2      2493      1588      2811      2863
 -1      5278    3    0    1
 -2      1678      2468      2475      2582
 -1      5279    3    0    1
 -2      1083       807      1084      2167
 -1      5280    3    0    1
 -2       700       706      1281      2625
 -1      5281    3    0    1
 -2       706       700      1032      2624
 -1      5282    3    0    1
 -2       706       700      2624      2625
 -1      5283    3    0    1
 -2       272       273      1084      2167
 -1      5284    3    0    1
 -2      2230      1674      2355      2671
 -1      5285    3    0    1
 -2      2034      1881      2523      2582
 -1      5286    3    0    1
 -2       427        52      2229      2256
 -1      5287    3    0    1
 -2       405      1069      1313      2643
 -1      5288    3    0    1
 -2      1585      1705      2209      2234
 -1      5289    3    0    1
 -2      1537      1657      2521      2780
 -1      5290    3    0    1
 -2      1891       918      2113      2169
 -1      5291    3    0    1
 -2       496       519       929      2169
 -1      5292    3    0    1
 -2       918       496       929      2169
 -1      5293    3    0    1
 -2       918       929      2113      2169
 -1      5294    3    0    1
 -2       324       161      1007      2756
 -1      5295    3    0    1
 -2       367       291      1093      2171
 -1      5296    3    0    1
 -2      1669       191      2456      2679
 -1      5297    3    0    1
 -2      1601      1666      1888      2314
 -1      5298    3    0    1
 -2      1572      1623      1741      2172
 -1      5299    3    0    1
 -2      1056      1052      1711      2423
 -1      5300    3    0    1
 -2      2128      1795      2608      2796
 -1      5301    3    0    1
 -2      1941       328      2202      2771
 -1      5302    3    0    1
 -2      3071      1462      3094      3118
 -1      5303    3    0    1
 -2      1623      1758       305      2177
 -1      5304    3    0    1
 -2       374       377      1549      2396
 -1      5305    3    0    1
 -2      2599      1674      2692      2721
 -1      5306    3    0    1
 -2      1947      2022      1598      1561
 -1      5307    3    0    1
 -2      1878      1698      1971      2428
 -1      5308    3    0    1
 -2      1623      1697      1742      2177
 -1      5309    3    0    1
 -2      1758      1623       305      1908
 -1      5310    3    0    1
 -2       305      1369      1623      2177
 -1      5311    3    0    1
 -2      1623      1369      1699      2177
 -1      5312    3    0    1
 -2      2267      1687      2288      2717
 -1      5313    3    0    1
 -2      1773      2188      2437      2528
 -1      5314    3    0    1
 -2      1773       118      2188      2528
 -1      5315    3    0    1
 -2      1592      1533      1614      2583
 -1      5316    3    0    1
 -2      2170      2223      2449      2524
 -1      5317    3    0    1
 -2      1946      1001      2251      2782
 -1      5318    3    0    1
 -2        77      1213      1914      2178
 -1      5319    3    0    1
 -2        36      1891      2113      2480
 -1      5320    3    0    1
 -2       675      1756      2162      2837
 -1      5321    3    0    1
 -2       108       967      2017      2566
 -1      5322    3    0    1
 -2       335       387       965      2296
 -1      5323    3    0    1
 -2       387       335      1529      2296
 -1      5324    3    0    1
 -2      1562      2054      2193      2642
 -1      5325    3    0    1
 -2       121       977      1237      2442
 -1      5326    3    0    1
 -2       905      1165      2009      2402
 -1      5327    3    0    1
 -2      1349       839      1959      2230
 -1      5328    3    0    1
 -2      1408       863      1123      2722
 -1      5329    3    0    1
 -2      1794       841      2502      2776
 -1      5330    3    0    1
 -2       952      1214      1911      2307
 -1      5331    3    0    1
 -2       866      1392       880      2536
 -1      5332    3    0    1
 -2       945      2019      2312      2695
 -1      5333    3    0    1
 -2       444       442      1122      2183
 -1      5334    3    0    1
 -2      1004      1618      1861      2184
 -1      5335    3    0    1
 -2       658      1004      1861      2184
 -1      5336    3    0    1
 -2        67       945      1629      2695
 -1      5337    3    0    1
 -2      2394      1018      2466      2485
 -1      5338    3    0    1
 -2      2515      1522      2855      2870
 -1      5339    3    0    1
 -2      1988      1727      2158      2448
 -1      5340    3    0    1
 -2      1620       333      1789      2262
 -1      5341    3    0    1
 -2      1303      2540      2571      2682
 -1      5342    3    0    1
 -2      1687      1556      2288      2692
 -1      5343    3    0    1
 -2      1316      2471      2483      2573
 -1      5344    3    0    1
 -2      2011      2103      2216      2448
 -1      5345    3    0    1
 -2      1135      1395      2621      2744
 -1      5346    3    0    1
 -2      1727      2011      2158      2448
 -1      5347    3    0    1
 -2       265      1082      2557      2676
 -1      5348    3    0    1
 -2      2011      1727      2103      2448
 -1      5349    3    0    1
 -2       956      1798      1904      2511
 -1      5350    3    0    1
 -2       774       799      1314      2185
 -1      5351    3    0    1
 -2       799      1081      1314      2185
 -1      5352    3    0    1
 -2      1774      1945      2561      2833
 -1      5353    3    0    1
 -2      2086      1685      2106      2422
 -1      5354    3    0    1
 -2       127      2174      2315      2701
 -1      5355    3    0    1
 -2       703      1031      2242      2589
 -1      5356    3    0    1
 -2      1612       651      2184      2241
 -1      5357    3    0    1
 -2       703       678      1280      2242
 -1      5358    3    0    1
 -2       118       974      2436      2446
 -1      5359    3    0    1
 -2      2000        34      1726      2653
 -1      5360    3    0    1
 -2       108      1678      2475      2566
 -1      5361    3    0    1
 -2      2169       519      2191      2280
 -1      5362    3    0    1
 -2       519       928      2191      2280
 -1      5363    3    0    1
 -2      1738      1760      2196      2257
 -1      5364    3    0    1
 -2       427        41       928      2191
 -1      5365    3    0    1
 -2        52       427       928      2191
 -1      5366    3    0    1
 -2      2111       831      2255      2343
 -1      5367    3    0    1
 -2       407       244      2483      2646
 -1      5368    3    0    1
 -2       651      2184      2241      2244
 -1      5369    3    0    1
 -2      2123      1572      2127      2195
 -1      5370    3    0    1
 -2      1737      2123      2127      2195
 -1      5371    3    0    1
 -2       102       966      1581      2258
 -1      5372    3    0    1
 -2       854       876      1741      2196
 -1      5373    3    0    1
 -2      2567      2128      2608      2796
 -1      5374    3    0    1
 -2      1699      1741      2172      2196
 -1      5375    3    0    1
 -2      1699       854      1741      2196
 -1      5376    3    0    1
 -2      1913      1687      2389      2565
 -1      5377    3    0    1
 -2      1928      1536      2330      2340
 -1      5378    3    0    1
 -2      1138       854      1112      2196
 -1      5379    3    0    1
 -2       854      1138       876      2196
 -1      5380    3    0    1
 -2      1324      1082      2516      2631
 -1      5381    3    0    1
 -2      1239      1748      2450      2838
 -1      5382    3    0    1
 -2       592       591       966      2258
 -1      5383    3    0    1
 -2      2194       978      2265      2645
 -1      5384    3    0    1
 -2       909       472      1912      2702
 -1      5385    3    0    1
 -2      1066       772      1316      2198
 -1      5386    3    0    1
 -2       832       831      2375      2424
 -1      5387    3    0    1
 -2       772       778      1316      2198
 -1      5388    3    0    1
 -2      2128      2567      2608      2644
 -1      5389    3    0    1
 -2      2898      2894      3074      2959
 -1      5390    3    0    1
 -2       615       616      2360      2831
 -1      5391    3    0    1
 -2      2857      2587      2860      2866
 -1      5392    3    0    1
 -2      1313       778       772      2198
 -1      5393    3    0    1
 -2       978       610      2243      2645
 -1      5394    3    0    1
 -2      1313      1069       778      2198
 -1      5395    3    0    1
 -2      1945      1570      2247      2561
 -1      5396    3    0    1
 -2       772      2198      2365      2644
 -1      5397    3    0    1
 -2       772      2079      2567      2644
 -1      5398    3    0    1
 -2       616      2527      2578      2603
 -1      5399    3    0    1
 -2      1056      1711      1712      2423
 -1      5400    3    0    1
 -2      1553      1552      2201      2641
 -1      5401    3    0    1
 -2      1765       463      2397      2402
 -1      5402    3    0    1
 -2      1552      2179      2641      2667
 -1      5403    3    0    1
 -2      1862      1909      2141      2441
 -1      5404    3    0    1
 -2       962       579      2618      2789
 -1      5405    3    0    1
 -2      1649      1568      1705      2444
 -1      5406    3    0    1
 -2      1590      1541      2232      1666
 -1      5407    3    0    1
 -2      1909      1557      2141      2204
 -1      5408    3    0    1
 -2      1557      1909      2027      2204
 -1      5409    3    0    1
 -2      1593      1675      2197      2569
 -1      5410    3    0    1
 -2       291      1093      2171      2214
 -1      5411    3    0    1
 -2      2060      1631      2209      2234
 -1      5412    3    0    1
 -2      2027      1715      2204      2321
 -1      5413    3    0    1
 -2       823       798      1876      2214
 -1      5414    3    0    1
 -2      2001       329      2156      2260
 -1      5415    3    0    1
 -2      1739      1730      2157      2206
 -1      5416    3    0    1
 -2      1531      1739      2157      2206
 -1      5417    3    0    1
 -2      2419      2556      2785      2809
 -1      5418    3    0    1
 -2      1018      1021      2394      2605
 -1      5419    3    0    1
 -2      1651      1762      1872      2594
 -1      5420    3    0    1
 -2      1634      1654      2189      2659
 -1      5421    3    0    1
 -2      1655      1667      2272      2303
 -1      5422    3    0    1
 -2       202       221      1036      2572
 -1      5423    3    0    1
 -2      2367      2022      2559      2794
 -1      5424    3    0    1
 -2      2051      1720      2110      2594
 -1      5425    3    0    1
 -2      1777      2033      2112      2235
 -1      5426    3    0    1
 -2      2033      1777      2100      2235
 -1      5427    3    0    1
 -2      1886      2052      2531      1247
 -1      5428    3    0    1
 -2      1916      1675      2036      2212
 -1      5429    3    0    1
 -2      1925      2036      2126      2212
 -1      5430    3    0    1
 -2      1931      1772      2418      2579
 -1      5431    3    0    1
 -2       654      2434      2664      2820
 -1      5432    3    0    1
 -2      1822      2001      2156      2260
 -1      5433    3    0    1
 -2      1903       387      2245      2249
 -1      5434    3    0    1
 -2      1970       414      2638      2661
 -1      5435    3    0    1
 -2      1001       324      2251      2273
 -1      5436    3    0    1
 -2      1721      1613      2025      2737
 -1      5437    3    0    1
 -2      1325      1093      1859      2214
 -1      5438    3    0    1
 -2       798       823      1093      2214
 -1      5439    3    0    1
 -2       798      1093      1325      2214
 -1      5440    3    0    1
 -2      2489      2687      2692      2730
 -1      5441    3    0    1
 -2       702      1279      1882      2584
 -1      5442    3    0    1
 -2      1279       201      2413      2584
 -1      5443    3    0    1
 -2       400      2125      2577      2591
 -1      5444    3    0    1
 -2      1914      1584      2018      2218
 -1      5445    3    0    1
 -2      1881      1914      2018      2218
 -1      5446    3    0    1
 -2       555      1213      2178      2218
 -1      5447    3    0    1
 -2       412      1058      1597      2851
 -1      5448    3    0    1
 -2       555      1937      2056      2218
 -1      5449    3    0    1
 -2      1881      1937      2178      2218
 -1      5450    3    0    1
 -2      1718      1621      1799      2411
 -1      5451    3    0    1
 -2       202      2043      2572      2590
 -1      5452    3    0    1
 -2      1671      1567      1828      2411
 -1      5453    3    0    1
 -2      1404       857      1115      2219
 -1      5454    3    0    1
 -2       857      1404       892      2219
 -1      5455    3    0    1
 -2      1621      1723      1799      2411
 -1      5456    3    0    1
 -2      1671      1723      2411      2031
 -1      5457    3    0    1
 -2       272       273      2167      2814
 -1      5458    3    0    1
 -2        36      1891      2073      2552
 -1      5459    3    0    1
 -2       730       724      2119      2221
 -1      5460    3    0    1
 -2       724       730      1040      2221
 -1      5461    3    0    1
 -2       510      1192      2181      2317
 -1      5462    3    0    1
 -2       627       988      2008      2222
 -1      5463    3    0    1
 -2       627       634       988      2222
 -1      5464    3    0    1
 -2      1192      2137      2181      2317
 -1      5465    3    0    1
 -2       634      2179      2222      2669
 -1      5466    3    0    1
 -2      2190      2028      2453      2668
 -1      5467    3    0    1
 -2       634      2222      2316      2669
 -1      5468    3    0    1
 -2      1250       634      2200      2222
 -1      5469    3    0    1
 -2      1608      2213      2259      2295
 -1      5470    3    0    1
 -2      2197      1593      2250      2313
 -1      5471    3    0    1
 -2      2120       675      2166      2407
 -1      5472    3    0    1
 -2       558       584       964      2307
 -1      5473    3    0    1
 -2      1178      2153      2614      2655
 -1      5474    3    0    1
 -2      1291       413      2758      2792
 -1      5475    3    0    1
 -2      2419       213      2627      2758
 -1      5476    3    0    1
 -2      1933      2346      2385      2699
 -1      5477    3    0    1
 -2        65       943       944      2225
 -1      5478    3    0    1
 -2       964      1948      2049      2307
 -1      5479    3    0    1
 -2      1214       964      2049      2307
 -1      5480    3    0    1
 -2      2118      1662      2282      2300
 -1      5481    3    0    1
 -2       894      2118      2282      2300
 -1      5482    3    0    1
 -2        68        65       944      2225
 -1      5483    3    0    1
 -2      1178       916      2153      2655
 -1      5484    3    0    1
 -2       952       558      1214      2307
 -1      5485    3    0    1
 -2      1119      1406      2282      2300
 -1      5486    3    0    1
 -2      1662      2013      2282      2300
 -1      5487    3    0    1
 -2       250       234      2753      2775
 -1      5488    3    0    1
 -2      1336       282      1836      2319
 -1      5489    3    0    1
 -2      1732      2048      2329      2652
 -1      5490    3    0    1
 -2       419        34      1181      2653
 -1      5491    3    0    1
 -2      1548      1774      2352      2693
 -1      5492    3    0    1
 -2      1680      1658      1794      2333
 -1      5493    3    0    1
 -2      1139       867      1129      2231
 -1      5494    3    0    1
 -2       373      1083      2581      2787
 -1      5495    3    0    1
 -2       520      2600      2694      2729
 -1      5496    3    0    1
 -2       106       347       969      2443
 -1      5497    3    0    1
 -2       867      1139       878      2231
 -1      5498    3    0    1
 -2      1541      1585      1705      2232
 -1      5499    3    0    1
 -2       124       975      1239      2315
 -1      5500    3    0    1
 -2       988      2008      2112      2235
 -1      5501    3    0    1
 -2      1946      1906      2251      2298
 -1      5502    3    0    1
 -2       324      1946      2251      2298
 -1      5503    3    0    1
 -2      1007       324      2277      2298
 -1      5504    3    0    1
 -2      1878      1582      1971      2662
 -1      5505    3    0    1
 -2       520       543      2600      2729
 -1      5506    3    0    1
 -2      1003      1259      1897      2664
 -1      5507    3    0    1
 -2        84        85       952      2238
 -1      5508    3    0    1
 -2      1445      1470      3005      3016
 -1      5509    3    0    1
 -2      1818      2050      2391      2574
 -1      5510    3    0    1
 -2      1054      1315      2261      1436
 -1      5511    3    0    1
 -2      1848      3073      3096      3102
 -1      5512    3    0    1
 -2       423        52      1893      2342
 -1      5513    3    0    1
 -2      2018      1881      2218      2660
 -1      5514    3    0    1
 -2        32      1893      1962      2342
 -1      5515    3    0    1
 -2      1782      1607      1990      2422
 -1      5516    3    0    1
 -2      1607      1782      2086      2422
 -1      5517    3    0    1
 -2      1607      2086      2106      2422
 -1      5518    3    0    1
 -2      1903      1695      2416      2666
 -1      5519    3    0    1
 -2       678       703      1270      2242
 -1      5520    3    0    1
 -2       678      1015      1280      2242
 -1      5521    3    0    1
 -2       703      1031      1270      2242
 -1      5522    3    0    1
 -2       244       407      2509      2646
 -1      5523    3    0    1
 -2       407      1071      2509      2646
 -1      5524    3    0    1
 -2       244      2263      2483      2646
 -1      5525    3    0    1
 -2      2263       244      2509      2646
 -1      5526    3    0    1
 -2       181       164      2434      2466
 -1      5527    3    0    1
 -2       941      1863      2479      2486
 -1      5528    3    0    1
 -2      1907      1555      2470      2496
 -1      5529    3    0    1
 -2      1571      2200      2667      2829
 -1      5530    3    0    1
 -2      1943      1566      2026      2250
 -1      5531    3    0    1
 -2       870      1132      2421      2474
 -1      5532    3    0    1
 -2      1745      1643      2429      2469
 -1      5533    3    0    1
 -2      1541      1585      2232      2314
 -1      5534    3    0    1
 -2      1191       378      2748      2755
 -1      5535    3    0    1
 -2       322       314      2232      2314
 -1      5536    3    0    1
 -2      1625       246      2026      2250
 -1      5537    3    0    1
 -2      1005      1776      2055      2353
 -1      5538    3    0    1
 -2      2230      1959      2355      2721
 -1      5539    3    0    1
 -2       356      1981      2374      2426
 -1      5540    3    0    1
 -2      1774      1570      1829      2247
 -1      5541    3    0    1
 -2      1570      1774      1945      2247
 -1      5542    3    0    1
 -2      1678      2034      2475      2566
 -1      5543    3    0    1
 -2      2735       365      2843      2847
 -1      5544    3    0    1
 -2      1666      1541      2232      2314
 -1      5545    3    0    1
 -2      1593       405      2197      2250
 -1      5546    3    0    1
 -2      1389       322      2232      2314
 -1      5547    3    0    1
 -2      1585      1389      2232      2314
 -1      5548    3    0    1
 -2      1590      1666      2232      2314
 -1      5549    3    0    1
 -2      1938      1583      2134      2274
 -1      5550    3    0    1
 -2      1650        10      1837      2252
 -1      5551    3    0    1
 -2      1616      1966      1967      2362
 -1      5552    3    0    1
 -2       220      1970      1980      2488
 -1      5553    3    0    1
 -2       724      1969      2150      2488
 -1      5554    3    0    1
 -2      2237       724      2150      2488
 -1      5555    3    0    1
 -2      1364       848      1642      2254
 -1      5556    3    0    1
 -2      1642       848      1700      2254
 -1      5557    3    0    1
 -2      1770      2254      2487      2674
 -1      5558    3    0    1
 -2      1642      1610      2136      2254
 -1      5559    3    0    1
 -2      1770      1642      2254      2674
 -1      5560    3    0    1
 -2      1843      1980      2237      2488
 -1      5561    3    0    1
 -2      2150      1969      2237      2488
 -1      5562    3    0    1
 -2       724      2237      2150      2119
 -1      5563    3    0    1
 -2      1974      1071      2482      2509
 -1      5564    3    0    1
 -2        41       926      1192      2256
 -1      5565    3    0    1
 -2      1192       926      2137      2256
 -1      5566    3    0    1
 -2        41      1192      2137      2256
 -1      5567    3    0    1
 -2      2090      2208      2549      2647
 -1      5568    3    0    1
 -2      1860       640      2092      2425
 -1      5569    3    0    1
 -2      1738       391      1958      2257
 -1      5570    3    0    1
 -2       391       304      1958      2257
 -1      5571    3    0    1
 -2      1112      1138      2196      2257
 -1      5572    3    0    1
 -2       391      1738      2196      2257
 -1      5573    3    0    1
 -2       304      1138      1112      2257
 -1      5574    3    0    1
 -2      1138       391      2196      2257
 -1      5575    3    0    1
 -2      1138       304       391      2257
 -1      5576    3    0    1
 -2       102       106       966      2258
 -1      5577    3    0    1
 -2      1526      1683      2173      2633
 -1      5578    3    0    1
 -2       969       592       966      2258
 -1      5579    3    0    1
 -2       966       106       969      2258
 -1      5580    3    0    1
 -2       329      1004      1618      2260
 -1      5581    3    0    1
 -2       329      1618      2156      2260
 -1      5582    3    0    1
 -2      1744      1618      1749      2260
 -1      5583    3    0    1
 -2      1744      1586      1822      2260
 -1      5584    3    0    1
 -2      1586      1744      1749      2260
 -1      5585    3    0    1
 -2      1618      1744      2156      2260
 -1      5586    3    0    1
 -2      2541      2091      2897      2938
 -1      5587    3    0    1
 -2      1411      2371      2885      1304
 -1      5588    3    0    1
 -2      2893      2301      1438      3080
 -1      5589    3    0    1
 -2      2301      1015      1438      1439
 -1      5590    3    0    1
 -2      1054      1315      2078      2261
 -1      5591    3    0    1
 -2      2904      2942      2984      3132
 -1      5592    3    0    1
 -2      2880      2124      2902      1465
 -1      5593    3    0    1
 -2       963      1432      2920      3124
 -1      5594    3    0    1
 -2      1015      2301      2689      1439
 -1      5595    3    0    1
 -2      1933      2699      2886      2945
 -1      5596    3    0    1
 -2      2879      3081      3097      3108
 -1      5597    3    0    1
 -2      1029       700      1769      2478
 -1      5598    3    0    1
 -2       298      1349      2355      2671
 -1      5599    3    0    1
 -2       736       759      2548      2766
 -1      5600    3    0    1
 -2      2409      1577      2453      2539
 -1      5601    3    0    1
 -2      1559      1700      1746      2473
 -1      5602    3    0    1
 -2      1643      2429      2469      2473
 -1      5603    3    0    1
 -2      2515      1731      2773      2779
 -1      5604    3    0    1
 -2       164      1897      2466      2485
 -1      5605    3    0    1
 -2       324      2251      2273      2277
 -1      5606    3    0    1
 -2      1978      1995      2090      2276
 -1      5607    3    0    1
 -2       466      1167      2053      2366
 -1      5608    3    0    1
 -2      1136       852      1109      2267
 -1      5609    3    0    1
 -2      1016       679      1814      2434
 -1      5610    3    0    1
 -2       873      1136      1913      2267
 -1      5611    3    0    1
 -2       852      1136       873      2267
 -1      5612    3    0    1
 -2      1365      1362      1746      2665
 -1      5613    3    0    1
 -2      1906      1946      2241      2268
 -1      5614    3    0    1
 -2      1768      1946      2076      2268
 -1      5615    3    0    1
 -2      2556      2173      2612      2633
 -1      5616    3    0    1
 -2       562      1880      2014      2269
 -1      5617    3    0    1
 -2      1880       562      2014      1216
 -1      5618    3    0    1
 -2      1033       711      2006      2781
 -1      5619    3    0    1
 -2      1336      1094       819      2270
 -1      5620    3    0    1
 -2      1876       823      2214      2320
 -1      5621    3    0    1
 -2      1094      1836      2012      2270
 -1      5622    3    0    1
 -2      1988      1094      2012      2270
 -1      5623    3    0    1
 -2      1921      1638      2351      2398
 -1      5624    3    0    1
 -2      1921      1907      2308      2398
 -1      5625    3    0    1
 -2      1376       442       444      2350
 -1      5626    3    0    1
 -2      1122       444      2183      2350
 -1      5627    3    0    1
 -2       444       442      2183      2350
 -1      5628    3    0    1
 -2      2010      1936      2183      2350
 -1      5629    3    0    1
 -2      1936      1122      2183      2350
 -1      5630    3    0    1
 -2      2161      2010      2183      2350
 -1      5631    3    0    1
 -2      1655      1667      1972      2272
 -1      5632    3    0    1
 -2       347       969      1965      2685
 -1      5633    3    0    1
 -2       969       979      1965      2685
 -1      5634    3    0    1
 -2       347       337       979      2685
 -1      5635    3    0    1
 -2       347      1965      2443      2685
 -1      5636    3    0    1
 -2       937      1997      2691      2832
 -1      5637    3    0    1
 -2      1864       121      2442      2685
 -1      5638    3    0    1
 -2      1117       858      2226      2279
 -1      5639    3    0    1
 -2      1385       858      1117      2279
 -1      5640    3    0    1
 -2      1612      1001      2251      2273
 -1      5641    3    0    1
 -2      2166      2120      2407      2757
 -1      5642    3    0    1
 -2      1001      1612      2007      2273
 -1      5643    3    0    1
 -2       161      1001      2007      2273
 -1      5644    3    0    1
 -2       159       161      2007      2273
 -1      5645    3    0    1
 -2       161       159      1883      2273
 -1      5646    3    0    1
 -2      1883       159      2007      2273
 -1      5647    3    0    1
 -2       191      1028      2535      2558
 -1      5648    3    0    1
 -2       161       324      1001      2273
 -1      5649    3    0    1
 -2      1696      2388      2806      2841
 -1      5650    3    0    1
 -2      1068       234      1303      2540
 -1      5651    3    0    1
 -2      1392       313       326      2464
 -1      5652    3    0    1
 -2      2409      2456      2677      2736
 -1      5653    3    0    1
 -2       784       783      1070      2275
 -1      5654    3    0    1
 -2       252       248      1068      2510
 -1      5655    3    0    1
 -2      1316       253      2471      2607
 -1      5656    3    0    1
 -2       730      1725      2221      2551
 -1      5657    3    0    1
 -2      1073       784      1070      2275
 -1      5658    3    0    1
 -2      1604      2539      2677      2736
 -1      5659    3    0    1
 -2      1003       342      2854      2869
 -1      5660    3    0    1
 -2       925      1409      1421      3120
 -1      5661    3    0    1
 -2      2453      1577      2503      2539
 -1      5662    3    0    1
 -2       385       384       956      2511
 -1      5663    3    0    1
 -2       956       568      1798      2511
 -1      5664    3    0    1
 -2       568       956      1812      2511
 -1      5665    3    0    1
 -2       358       412      1597      2741
 -1      5666    3    0    1
 -2       384       385      1904      2511
 -1      5667    3    0    1
 -2       212      1042      1292      2550
 -1      5668    3    0    1
 -2      1739      1622      2157      2512
 -1      5669    3    0    1
 -2       385       956      1904      2511
 -1      5670    3    0    1
 -2      1747      2069      2392      2690
 -1      5671    3    0    1
 -2       860      1406       894      2282
 -1      5672    3    0    1
 -2      2064      1545      2084      2418
 -1      5673    3    0    1
 -2      1918      2193      2281      2283
 -1      5674    3    0    1
 -2      1603      1918      2281      2283
 -1      5675    3    0    1
 -2      1595      1603      2281      2283
 -1      5676    3    0    1
 -2      2193      1595      2281      2283
 -1      5677    3    0    1
 -2      1228       962       579      2618
 -1      5678    3    0    1
 -2      1643      1757      2473      2518
 -1      5679    3    0    1
 -2      1757      1559      2473      2518
 -1      5680    3    0    1
 -2      2116      1573      2505      2619
 -1      5681    3    0    1
 -2      1886      1573      2159      2619
 -1      5682    3    0    1
 -2      2149      1886      2159      2619
 -1      5683    3    0    1
 -2      1644       953      2269      2520
 -1      5684    3    0    1
 -2      1084      2167      2255      2793
 -1      5685    3    0    1
 -2      1228       586      2468      2618
 -1      5686    3    0    1
 -2       586       579      2296      2618
 -1      5687    3    0    1
 -2      2637      2681      2818      2865
 -1      5688    3    0    1
 -2      2494       490      2773      2779
 -1      5689    3    0    1
 -2       203       197      1281      2284
 -1      5690    3    0    1
 -2      1688      1535      1920      2770
 -1      5691    3    0    1
 -2      1619      1632      1894      2417
 -1      5692    3    0    1
 -2      1681      1918      2054      2286
 -1      5693    3    0    1
 -2      1762       531      1877      2287
 -1      5694    3    0    1
 -2       531      1762      1846      2287
 -1      5695    3    0    1
 -2      1846      1762      1877      2287
 -1      5696    3    0    1
 -2      1637      1846      1973      2287
 -1      5697    3    0    1
 -2      1687      1913      2267      2288
 -1      5698    3    0    1
 -2      1315      2078      2261      2726
 -1      5699    3    0    1
 -2      2264      2629      2683      2718
 -1      5700    3    0    1
 -2      2168      2253      2622      2672
 -1      5701    3    0    1
 -2      1591      1728      2060      2800
 -1      5702    3    0    1
 -2      1728       312      2576      2800
 -1      5703    3    0    1
 -2      2180      2163      2201      2290
 -1      5704    3    0    1
 -2      1736      2163      2180      2290
 -1      5705    3    0    1
 -2       136      1736      2180      2290
 -1      5706    3    0    1
 -2       991       136      2201      2290
 -1      5707    3    0    1
 -2       136      2180      2201      2290
 -1      5708    3    0    1
 -2       292      1091      2220      2291
 -1      5709    3    0    1
 -2      1621      1689      2711      2713
 -1      5710    3    0    1
 -2      1558      1838      1892      2293
 -1      5711    3    0    1
 -2      1892      1838      2274      2293
 -1      5712    3    0    1
 -2      1583      1892      2274      2293
 -1      5713    3    0    1
 -2      1938      1583      2274      2293
 -1      5714    3    0    1
 -2       382      1938      2274      2293
 -1      5715    3    0    1
 -2      1677      1538      1722      2337
 -1      5716    3    0    1
 -2      1838      2293      2336      2712
 -1      5717    3    0    1
 -2      2563      1653      2610      2668
 -1      5718    3    0    1
 -2      2179       991      2201      2669
 -1      5719    3    0    1
 -2      2189      1535      2240      2734
 -1      5720    3    0    1
 -2      1634      1654      2401      2734
 -1      5721    3    0    1
 -2       975       128      1571      2294
 -1      5722    3    0    1
 -2       378       927      1191      2748
 -1      5723    3    0    1
 -2      1907      1921      2351      2398
 -1      5724    3    0    1
 -2      1654      2189      2240      2734
 -1      5725    3    0    1
 -2      1922      1586      1924      2297
 -1      5726    3    0    1
 -2      1586      1922      2052      2297
 -1      5727    3    0    1
 -2      1703      1586      2235      2297
 -1      5728    3    0    1
 -2       627       988      2235      2297
 -1      5729    3    0    1
 -2      2052       627      2235      2297
 -1      5730    3    0    1
 -2      1586      2052      2235      2297
 -1      5731    3    0    1
 -2      1019      1007      2277      2298
 -1      5732    3    0    1
 -2      2251      1906      2277      2298
 -1      5733    3    0    1
 -2       383        68       944      2299
 -1      5734    3    0    1
 -2      1014       675      2120      2407
 -1      5735    3    0    1
 -2       416       307      2013      2300
 -1      5736    3    0    1
 -2      1716       416      2013      2300
 -1      5737    3    0    1
 -2      1662      1716      2013      2300
 -1      5738    3    0    1
 -2      2013      1119      2282      2300
 -1      5739    3    0    1
 -2      1406       307       416      2300
 -1      5740    3    0    1
 -2       307      1119      2013      2300
 -1      5741    3    0    1
 -2       307      1406      1119      2300
 -1      5742    3    0    1
 -2       703      1280      1882      2301
 -1      5743    3    0    1
 -2      1456      1425      1460      3116
 -1      5744    3    0    1
 -2      1280      1030      1882      2301
 -1      5745    3    0    1
 -2       396      1905      2386      2690
 -1      5746    3    0    1
 -2      1271      2689      1423      3096
 -1      5747    3    0    1
 -2       760       783      1974      2740
 -1      5748    3    0    1
 -2      1993       118      2415      2446
 -1      5749    3    0    1
 -2      1194      2094      2233      2657
 -1      5750    3    0    1
 -2      1866      1737      2123      2432
 -1      5751    3    0    1
 -2      1737       392      2432      2754
 -1      5752    3    0    1
 -2       783      2275      2509      2740
 -1      5753    3    0    1
 -2      1651      1872      1926      2520
 -1      5754    3    0    1
 -2       953       562      2269      2520
 -1      5755    3    0    1
 -2      2076      1906      2298      2305
 -1      5756    3    0    1
 -2      1473      3078      2960      3113
 -1      5757    3    0    1
 -2        66       424      2137      2862
 -1      5758    3    0    1
 -2      1766       784      2606      2635
 -1      5759    3    0    1
 -2      1272      1574      1929      2305
 -1      5760    3    0    1
 -2      1272       178      1574      2305
 -1      5761    3    0    1
 -2       377       905      2009      2396
 -1      5762    3    0    1
 -2       139      2395       993      1860
 -1      5763    3    0    1
 -2      1929      1906      2076      2305
 -1      5764    3    0    1
 -2      1272      1929      2076      2305
 -1      5765    3    0    1
 -2       323      2076      2298      2305
 -1      5766    3    0    1
 -2       323      1272      2076      2305
 -1      5767    3    0    1
 -2       323       178      1272      2305
 -1      5768    3    0    1
 -2        41       424       931      2306
 -1      5769    3    0    1
 -2      1415      3067      2982      3115
 -1      5770    3    0    1
 -2       427      2191      2256      2306
 -1      5771    3    0    1
 -2        41       427      2256      2306
 -1      5772    3    0    1
 -2       427        41      2191      2306
 -1      5773    3    0    1
 -2       342       341      2854      2869
 -1      5774    3    0    1
 -2      2905      2347      3070      2999
 -1      5775    3    0    1
 -2      1044      1045      2638      2663
 -1      5776    3    0    1
 -2       558       964      1214      2307
 -1      5777    3    0    1
 -2        12      1761      2020      2399
 -1      5778    3    0    1
 -2      1384       306      1371      2308
 -1      5779    3    0    1
 -2      1805      1834      2369      2403
 -1      5780    3    0    1
 -2       306      1384       381      2308
 -1      5781    3    0    1
 -2       381      1384      1921      2308
 -1      5782    3    0    1
 -2       306      1385      1117      2308
 -1      5783    3    0    1
 -2      1385       306       381      2308
 -1      5784    3    0    1
 -2      1385       381      1921      2308
 -1      5785    3    0    1
 -2       957       568      1935      2339
 -1      5786    3    0    1
 -2      1596      1740      1916      2310
 -1      5787    3    0    1
 -2      2213      2272      2525      2593
 -1      5788    3    0    1
 -2      1807       544      2019      2312
 -1      5789    3    0    1
 -2       544       945      2019      2312
 -1      5790    3    0    1
 -2      2042      2364      2696      2697
 -1      5791    3    0    1
 -2      1968      2042      2364      2696
 -1      5792    3    0    1
 -2      2364      1551      2696      2697
 -1      5793    3    0    1
 -2      1551      1528      2696      2697
 -1      5794    3    0    1
 -2       430      1453      1459      1498
 -1      5795    3    0    1
 -2      1898      1566      1927      2313
 -1      5796    3    0    1
 -2      1593      1927      2250      2313
 -1      5797    3    0    1
 -2      1927      1566      2250      2313
 -1      5798    3    0    1
 -2      1666      1590      1888      2314
 -1      5799    3    0    1
 -2       879      1601      1888      2314
 -1      5800    3    0    1
 -2       871       879      1888      2314
 -1      5801    3    0    1
 -2      1140       314       322      2314
 -1      5802    3    0    1
 -2       314      1133      2232      2314
 -1      5803    3    0    1
 -2       314      1140      1133      2314
 -1      5804    3    0    1
 -2      1888      1590      2232      2314
 -1      5805    3    0    1
 -2      1133      1888      2232      2314
 -1      5806    3    0    1
 -2      1140       871      1133      2314
 -1      5807    3    0    1
 -2      1133       871      1888      2314
 -1      5808    3    0    1
 -2       871      1140       879      2314
 -1      5809    3    0    1
 -2       127       128       975      2315
 -1      5810    3    0    1
 -2       627      2008      2297      2316
 -1      5811    3    0    1
 -2      2008       627      2222      2316
 -1      5812    3    0    1
 -2      1247       627      2052      2316
 -1      5813    3    0    1
 -2      1192       940      2137      2317
 -1      5814    3    0    1
 -2       510       536       940      2317
 -1      5815    3    0    1
 -2       510       940      1192      2317
 -1      5816    3    0    1
 -2       952        85      1202      2706
 -1      5817    3    0    1
 -2       560       534      2705      2706
 -1      5818    3    0    1
 -2       536       940      2317      2318
 -1      5819    3    0    1
 -2      2083       536      2317      2318
 -1      5820    3    0    1
 -2       534       536      2083      2318
 -1      5821    3    0    1
 -2       536       534       940      2318
 -1      5822    3    0    1
 -2        85       952      2238      2706
 -1      5823    3    0    1
 -2       952       560      2705      2706
 -1      5824    3    0    1
 -2       560       952      1202      2706
 -1      5825    3    0    1
 -2       366        85      2695      2706
 -1      5826    3    0    1
 -2      1911       952      2705      2706
 -1      5827    3    0    1
 -2        85      2238      2695      2706
 -1      5828    3    0    1
 -2      1338       823      1876      2320
 -1      5829    3    0    1
 -2      1587      1701      1841      2382
 -1      5830    3    0    1
 -2      1338      1092       823      2320
 -1      5831    3    0    1
 -2        65       425      2406      2778
 -1      5832    3    0    1
 -2      2233       393      2363      2745
 -1      5833    3    0    1
 -2      2452      2409      2455      2456
 -1      5834    3    0    1
 -2       993       639      1860      2527
 -1      5835    3    0    1
 -2       159       161      1883      2457
 -1      5836    3    0    1
 -2       616       981      2174      2527
 -1      5837    3    0    1
 -2       762      2985      3006      3033
 -1      5838    3    0    1
 -2      2048      2187      2329      2652
 -1      5839    3    0    1
 -2       333      1017      1269      2460
 -1      5840    3    0    1
 -2      2860      2823      2866      2872
 -1      5841    3    0    1
 -2      1563      1564      1611      2461
 -1      5842    3    0    1
 -2      1543      2093      2116      2619
 -1      5843    3    0    1
 -2      2395      2294      2634      2686
 -1      5844    3    0    1
 -2      1226       106      2309      2443
 -1      5845    3    0    1
 -2      2388      2489      2692      2730
 -1      5846    3    0    1
 -2      1756      1017      1941      2460
 -1      5847    3    0    1
 -2       606       990      1237      2323
 -1      5848    3    0    1
 -2       328      1620      1941      2460
 -1      5849    3    0    1
 -2       606       631       990      2323
 -1      5850    3    0    1
 -2      2307       558      2654      2705
 -1      5851    3    0    1
 -2       560       558      2307      2705
 -1      5852    3    0    1
 -2       558       560      1659      2705
 -1      5853    3    0    1
 -2      2489      1682      2687      2730
 -1      5854    3    0    1
 -2      1908       874      2398      2688
 -1      5855    3    0    1
 -2      1802        62      2391      2832
 -1      5856    3    0    1
 -2       945       954      2019      2695
 -1      5857    3    0    1
 -2      1045       220      2764      2852
 -1      5858    3    0    1
 -2       819      1992      2291      2327
 -1      5859    3    0    1
 -2      1139      2231      2322      2329
 -1      5860    3    0    1
 -2      1942      1732      2048      2329
 -1      5861    3    0    1
 -2      1942      2048      2187      2329
 -1      5862    3    0    1
 -2       878       867      2231      2329
 -1      5863    3    0    1
 -2       867       878      1785      2329
 -1      5864    3    0    1
 -2      1524      2580      2681      2865
 -1      5865    3    0    1
 -2      1557      2141      2204      2331
 -1      5866    3    0    1
 -2      1599      1557      2204      2331
 -1      5867    3    0    1
 -2      1825      1599      2134      2331
 -1      5868    3    0    1
 -2      1557      1599      1825      2331
 -1      5869    3    0    1
 -2      1825      1583      2141      2331
 -1      5870    3    0    1
 -2      1557      1825      2141      2331
 -1      5871    3    0    1
 -2       981       127      2315      2686
 -1      5872    3    0    1
 -2       128       127       981      2686
 -1      5873    3    0    1
 -2      1649      1705      2232      2444
 -1      5874    3    0    1
 -2       969       347      1965      2443
 -1      5875    3    0    1
 -2       127       128      2315      2686
 -1      5876    3    0    1
 -2       943      2225      2406      2600
 -1      5877    3    0    1
 -2       977       337      1226      2332
 -1      5878    3    0    1
 -2      1441       343      1442      3103
 -1      5879    3    0    1
 -2       347       106      1226      2332
 -1      5880    3    0    1
 -2       337       347      1226      2332
 -1      5881    3    0    1
 -2       121       337       977      2332
 -1      5882    3    0    1
 -2      1030      1293      2377      2924
 -1      5883    3    0    1
 -2      1852      1567      1985      2334
 -1      5884    3    0    1
 -2      1684      1565      1902      2335
 -1      5885    3    0    1
 -2      1596      1708      2310      2335
 -1      5886    3    0    1
 -2      1708      1596      1764      2335
 -1      5887    3    0    1
 -2      1684      1708      1764      2335
 -1      5888    3    0    1
 -2      1708      1684      1902      2335
 -1      5889    3    0    1
 -2      1902      1565      2310      2335
 -1      5890    3    0    1
 -2      1708      1902      2310      2335
 -1      5891    3    0    1
 -2      1838      1719      2293      1558
 -1      5892    3    0    1
 -2        77      1885      1917      2336
 -1      5893    3    0    1
 -2        77      1576      1885      2336
 -1      5894    3    0    1
 -2      1718      1621      2711      2713
 -1      5895    3    0    1
 -2      1689      1664      2711      2713
 -1      5896    3    0    1
 -2      1621      1718      2337      2713
 -1      5897    3    0    1
 -2        77      1719      2293      2336
 -1      5898    3    0    1
 -2      1719      1838      2293      2336
 -1      5899    3    0    1
 -2      1719        77      1917      2336
 -1      5900    3    0    1
 -2       966       591      2339      2714
 -1      5901    3    0    1
 -2       591       966      2258      2714
 -1      5902    3    0    1
 -2      2262       333      2477      2715
 -1      5903    3    0    1
 -2       966      1581      2258      2339
 -1      5904    3    0    1
 -2      2262      2477      2680      2715
 -1      5905    3    0    1
 -2      1620       333      2262      2715
 -1      5906    3    0    1
 -2       568       957       966      2339
 -1      5907    3    0    1
 -2       591       568       966      2339
 -1      5908    3    0    1
 -2      1869      1913      2389      2565
 -1      5909    3    0    1
 -2      1687      1556      2389      2565
 -1      5910    3    0    1
 -2      1536      1668      2330      2340
 -1      5911    3    0    1
 -2      1668      1536      1819      2340
 -1      5912    3    0    1
 -2      1607      1782      1990      2491
 -1      5913    3    0    1
 -2      1990      1782      2057      2491
 -1      5914    3    0    1
 -2       915       487      1179      2492
 -1      5915    3    0    1
 -2      1535      1734      1920      2341
 -1      5916    3    0    1
 -2      1734      1663      1920      2341
 -1      5917    3    0    1
 -2      2191        52      2256      2342
 -1      5918    3    0    1
 -2        52       928      1893      2342
 -1      5919    3    0    1
 -2      1893       928      2280      2342
 -1      5920    3    0    1
 -2       928      2191      2280      2342
 -1      5921    3    0    1
 -2       928        52      2191      2342
 -1      5922    3    0    1
 -2       926      1179      2229      2342
 -1      5923    3    0    1
 -2        52       926      2229      2342
 -1      5924    3    0    1
 -2       423        32      1179      2342
 -1      5925    3    0    1
 -2        52       423      1179      2342
 -1      5926    3    0    1
 -2       926        52      1179      2342
 -1      5927    3    0    1
 -2       688       687      2394      2751
 -1      5928    3    0    1
 -2       287       290      2151      2343
 -1      5929    3    0    1
 -2       290       287      1097      2343
 -1      5930    3    0    1
 -2       639       992       995      2425
 -1      5931    3    0    1
 -2      1213       555      2178      2761
 -1      5932    3    0    1
 -2      2115       654      2664      2820
 -1      5933    3    0    1
 -2      2145      2530      2554      2813
 -1      5934    3    0    1
 -2       197      2617      2626      2813
 -1      5935    3    0    1
 -2      2530      1034      2554      2813
 -1      5936    3    0    1
 -2       712      1035      1709      2656
 -1      5937    3    0    1
 -2       490       483      1178      2614
 -1      5938    3    0    1
 -2      1569      2486      2525      2593
 -1      5939    3    0    1
 -2      2272      2303      2525      2593
 -1      5940    3    0    1
 -2      1041      1293       727      2948
 -1      5941    3    0    1
 -2      2464      1829      2504      2536
 -1      5942    3    0    1
 -2      1609       512      2181      2499
 -1      5943    3    0    1
 -2       488        32       915       485
 -1      5944    3    0    1
 -2      1066       772      2198      2365
 -1      5945    3    0    1
 -2      2024      2075      2224      2472
 -1      5946    3    0    1
 -2      1970      1980      2851      2852
 -1      5947    3    0    1
 -2      1759      1627      2141      2441
 -1      5948    3    0    1
 -2      2077      1030      1420      3109
 -1      5949    3    0    1
 -2       584       582      2654      2920
 -1      5950    3    0    1
 -2      1092      1166      1765      2933
 -1      5951    3    0    1
 -2      1937      1904      2056      2523
 -1      5952    3    0    1
 -2       402      1339      2210      2349
 -1      5953    3    0    1
 -2      1339      1727      2210      2349
 -1      5954    3    0    1
 -2      1555      1907      1921      2351
 -1      5955    3    0    1
 -2      1554      1638      1781      2351
 -1      5956    3    0    1
 -2      2185      1314      2510      2543
 -1      5957    3    0    1
 -2      2005      1974      2133      2482
 -1      5958    3    0    1
 -2      1638      1555      1921      2351
 -1      5959    3    0    1
 -2      1991      1685      2005      2482
 -1      5960    3    0    1
 -2      2637      2679      2681      2819
 -1      5961    3    0    1
 -2      1737      2325      2368      2816
 -1      5962    3    0    1
 -2      2540      1303      2571      2843
 -1      5963    3    0    1
 -2      1582      2388      2662      2749
 -1      5964    3    0    1
 -2      2388      1582      2728      2749
 -1      5965    3    0    1
 -2      2515      1731      2587      2870
 -1      5966    3    0    1
 -2       340       341      1005      2353
 -1      5967    3    0    1
 -2       995       340      1005      2353
 -1      5968    3    0    1
 -2      1390      1128      1785      2800
 -1      5969    3    0    1
 -2      1352       298      1349      2355
 -1      5970    3    0    1
 -2      2253      2061      2622      2672
 -1      5971    3    0    1
 -2      1824      1702      2168      2672
 -1      5972    3    0    1
 -2      1662      2013      2271      2356
 -1      5973    3    0    1
 -2      2228      1662      2271      2356
 -1      5974    3    0    1
 -2      1526      2228      2271      2356
 -1      5975    3    0    1
 -2      1683      1526      2271      2356
 -1      5976    3    0    1
 -2      1664      1662      2228      2356
 -1      5977    3    0    1
 -2      1662      1664      2013      2356
 -1      5978    3    0    1
 -2      1444       101      3085      1468
 -1      5979    3    0    1
 -2      2073      1891      2480      2745
 -1      5980    3    0    1
 -2       472       495      1963      2358
 -1      5981    3    0    1
 -2       472       909      1182      2358
 -1      5982    3    0    1
 -2       495       472      1182      2358
 -1      5983    3    0    1
 -2      1548      1789      2547      2719
 -1      5984    3    0    1
 -2       980      2360      2701      2703
 -1      5985    3    0    1
 -2      1963       472      2358      2702
 -1      5986    3    0    1
 -2       472      1963      2359      2702
 -1      5987    3    0    1
 -2      2195      1760      2328      2704
 -1      5988    3    0    1
 -2      1761       909      2020      2702
 -1      5989    3    0    1
 -2       909      1761      2358      2702
 -1      5990    3    0    1
 -2       507      2205      2311      2805
 -1      5991    3    0    1
 -2       969       592      2258      2630
 -1      5992    3    0    1
 -2       507      1191      2684      2805
 -1      5993    3    0    1
 -2       418      2575      2798      2866
 -1      5994    3    0    1
 -2       592       615       980      2360
 -1      5995    3    0    1
 -2       968       592       980      2360
 -1      5996    3    0    1
 -2      1830      1729      1994      2362
 -1      5997    3    0    1
 -2      1616      1994      2089      2362
 -1      5998    3    0    1
 -2       929       393      2113      2363
 -1      5999    3    0    1
 -2       679       668       667      2962
 -1      6000    3    0    1
 -2       759      1057      2735      2766
 -1      6001    3    0    1
 -2      1248      2560      2769      2854
 -1      6002    3    0    1
 -2      1326      1813      3068      2994
 -1      6003    3    0    1
 -2      2023      2074      2369      2700
 -1      6004    3    0    1
 -2      1767      2074      2404      2700
 -1      6005    3    0    1
 -2      2346      1551      2385      2698
 -1      6006    3    0    1
 -2      2124      2947      2961      3131
 -1      6007    3    0    1
 -2      1327      2859      2871      2874
 -1      6008    3    0    1
 -2      2168      1702      2639      2825
 -1      6009    3    0    1
 -2      2369      1805      2403      2427
 -1      6010    3    0    1
 -2      1667      1784      2248      2479
 -1      6011    3    0    1
 -2      1784      1949      2248      2479
 -1      6012    3    0    1
 -2      1805      1954      2117      2367
 -1      6013    3    0    1
 -2      1834      1805      2117      2367
 -1      6014    3    0    1
 -2      1248      1648      2508      2560
 -1      6015    3    0    1
 -2      1698      1878      2073      2428
 -1      6016    3    0    1
 -2       377      1549      2396      2733
 -1      6017    3    0    1
 -2      1554      1638      2351      2481
 -1      6018    3    0    1
 -2      1551      2364      2696      2698
 -1      6019    3    0    1
 -2       615       979       982      2831
 -1      6020    3    0    1
 -2       679      2131      2434      2820
 -1      6021    3    0    1
 -2      1778      2023      2369      2700
 -1      6022    3    0    1
 -2      2679      2182      2681      2819
 -1      6023    3    0    1
 -2       512      1193      2181      2499
 -1      6024    3    0    1
 -2       486       512      1609      2499
 -1      6025    3    0    1
 -2      2954      2348      3098      3099
 -1      6026    3    0    1
 -2       918      2169      2552      2586
 -1      6027    3    0    1
 -2       736       735      1046      2380
 -1      6028    3    0    1
 -2       962      2618      2629      2789
 -1      6029    3    0    1
 -2       939      1215      2199      1417
 -1      6030    3    0    1
 -2      2170       579      2223      2789
 -1      6031    3    0    1
 -2      2023      1778      2252      2700
 -1      6032    3    0    1
 -2      2252      1778      2361      2700
 -1      6033    3    0    1
 -2      2074      2023      2404      2700
 -1      6034    3    0    1
 -2      2099      2346      2385      2884
 -1      6035    3    0    1
 -2      1667      1569      1784      2479
 -1      6036    3    0    1
 -2      1095       831      2111      2375
 -1      6037    3    0    1
 -2      1095      1098       831      2375
 -1      6038    3    0    1
 -2       727       726      1796      2377
 -1      6039    3    0    1
 -2       726       727      1041      2377
 -1      6040    3    0    1
 -2       968      1953      2630      2804
 -1      6041    3    0    1
 -2      1030       702      1882      2377
 -1      6042    3    0    1
 -2       727      1030      1293      2377
 -1      6043    3    0    1
 -2       727       702      1030      2377
 -1      6044    3    0    1
 -2      1166      1092      1429      2933
 -1      6045    3    0    1
 -2      1085      1095      2111      2678
 -1      6046    3    0    1
 -2      1044       736      1045      2380
 -1      6047    3    0    1
 -2       778      2507      2545      2573
 -1      6048    3    0    1
 -2      2023       398      2369      2427
 -1      6049    3    0    1
 -2      1295      1046       735      2380
 -1      6050    3    0    1
 -2       466      1713      2591      2366
 -1      6051    3    0    1
 -2       392      2728      2748      2754
 -1      6052    3    0    1
 -2       881      2208      2302      2549
 -1      6053    3    0    1
 -2      1878      1971      2655      2826
 -1      6054    3    0    1
 -2      1654      1634      1702      2659
 -1      6055    3    0    1
 -2      1036       712      2738      2844
 -1      6056    3    0    1
 -2       995       340      2353      2727
 -1      6057    3    0    1
 -2      1767      1830      2097      2384
 -1      6058    3    0    1
 -2      1830      1767      1994      2384
 -1      6059    3    0    1
 -2       887       849      2097      2384
 -1      6060    3    0    1
 -2       849       887      1994      2384
 -1      6061    3    0    1
 -2      1767      1967      1994      2384
 -1      6062    3    0    1
 -2      1967       849      1994      2384
 -1      6063    3    0    1
 -2      1967      1767      2097      2384
 -1      6064    3    0    1
 -2       849      1967      2097      2384
 -1      6065    3    0    1
 -2       795       802      1327      2516
 -1      6066    3    0    1
 -2      1226       977      2332      2615
 -1      6067    3    0    1
 -2      1060      1070      2740      2856
 -1      6068    3    0    1
 -2        24       396       916      2386
 -1      6069    3    0    1
 -2      1897      1259      2434      2664
 -1      6070    3    0    1
 -2       582       608      1226      2615
 -1      6071    3    0    1
 -2       582      1226      1948      2615
 -1      6072    3    0    1
 -2        24       916      1178      2386
 -1      6073    3    0    1
 -2      2380       735      2572      2656
 -1      6074    3    0    1
 -2       234      1060      2843      2856
 -1      6075    3    0    1
 -2       106      1226      2332      2443
 -1      6076    3    0    1
 -2      1226      2309      2332      2443
 -1      6077    3    0    1
 -2      2009       377      2396      2733
 -1      6078    3    0    1
 -2      1549      1168      2596      2733
 -1      6079    3    0    1
 -2      1878      1178      2614      2655
 -1      6080    3    0    1
 -2      2153       916      2386      2655
 -1      6081    3    0    1
 -2      2698      2541      2886      2921
 -1      6082    3    0    1
 -2      2476      1552      2747      2763
 -1      6083    3    0    1
 -2      1168      1912      2596      2733
 -1      6084    3    0    1
 -2      1178        24      2386      2655
 -1      6085    3    0    1
 -2        24      2144      2386      2655
 -1      6086    3    0    1
 -2       916      1178      2386      2655
 -1      6087    3    0    1
 -2       582       963      1238      2387
 -1      6088    3    0    1
 -2       608       582      1238      2387
 -1      6089    3    0    1
 -2      1776      1008      2414      2485
 -1      6090    3    0    1
 -2      1326      1067      1813      2390
 -1      6091    3    0    1
 -2      2587      1731      2790      2870
 -1      6092    3    0    1
 -2       774       799      2185      2390
 -1      6093    3    0    1
 -2      1426      3070      2999      3127
 -1      6094    3    0    1
 -2       774      1067      1326      2390
 -1      6095    3    0    1
 -2       799       774      1326      2390
 -1      6096    3    0    1
 -2       312       319      2576      2800
 -1      6097    3    0    1
 -2       156      1735      2244      2393
 -1      6098    3    0    1
 -2       664      2414      2485      2533
 -1      6099    3    0    1
 -2      2244      1735      2382      2393
 -1      6100    3    0    1
 -2      2241      2244      2382      2393
 -1      6101    3    0    1
 -2       412      1597      2741      2851
 -1      6102    3    0    1
 -2      1059       410      1597      2555
 -1      6103    3    0    1
 -2       688      1018      1021      2394
 -1      6104    3    0    1
 -2      1073      2275      2562      2606
 -1      6105    3    0    1
 -2      1646      2376      2438      2742
 -1      6106    3    0    1
 -2       310      2563      2568      2752
 -1      6107    3    0    1
 -2       783       784      2509      2606
 -1      6108    3    0    1
 -2      1073       784      2275      2606
 -1      6109    3    0    1
 -2       784      1072      2509      2606
 -1      6110    3    0    1
 -2       389      2186      2265      2415
 -1      6111    3    0    1
 -2       389      1951      2186      2415
 -1      6112    3    0    1
 -2      1576      1213      2178      2467
 -1      6113    3    0    1
 -2      1763       953      2135      2467
 -1      6114    3    0    1
 -2      1137      1114      1908      2398
 -1      6115    3    0    1
 -2      1271      2131      2239      2689
 -1      6116    3    0    1
 -2      1137       856      1114      2398
 -1      6117    3    0    1
 -2       874      1137      1908      2398
 -1      6118    3    0    1
 -2       856      1137       874      2398
 -1      6119    3    0    1
 -2       165       166      2962      2963
 -1      6120    3    0    1
 -2      2378      2899      2923      3091
 -1      6121    3    0    1
 -2       101       348      3107      3022
 -1      6122    3    0    1
 -2      3098      1428      1481      1482
 -1      6123    3    0    1
 -2      1669       191      1945      2456
 -1      6124    3    0    1
 -2       141       340       995      2727
 -1      6125    3    0    1
 -2       161       159      1007      2457
 -1      6126    3    0    1
 -2      1852       246      2057      2491
 -1      6127    3    0    1
 -2      1852      2057      2334      2491
 -1      6128    3    0    1
 -2      1735      1654      1841      2401
 -1      6129    3    0    1
 -2      1165       905       462      2402
 -1      6130    3    0    1
 -2      1165      2029      2399      2402
 -1      6131    3    0    1
 -2      2009      1165      2399      2402
 -1      6132    3    0    1
 -2       905      2009      2397      2402
 -1      6133    3    0    1
 -2       463       905      2397      2402
 -1      6134    3    0    1
 -2      1729      1767      1830      2404
 -1      6135    3    0    1
 -2      1561      1767      1947      2404
 -1      6136    3    0    1
 -2      1561      1947      2074      2404
 -1      6137    3    0    1
 -2      1947      1767      2074      2404
 -1      6138    3    0    1
 -2      2224       706      2284      2405
 -1      6139    3    0    1
 -2       203      2145      2284      2405
 -1      6140    3    0    1
 -2      1847      1635      2627      2792
 -1      6141    3    0    1
 -2      2075      2224      2284      2405
 -1      6142    3    0    1
 -2      2024      2075      2284      2405
 -1      6143    3    0    1
 -2      2075      2024      2224      2405
 -1      6144    3    0    1
 -2      2284      2145      2285      2405
 -1      6145    3    0    1
 -2      2843      1060      2735      2856
 -1      6146    3    0    1
 -2      2798       418      2860      2872
 -1      6147    3    0    1
 -2      1070      1060      2775      2856
 -1      6148    3    0    1
 -2      1522      2515      2855      2858
 -1      6149    3    0    1
 -2       875       858      2279      2408
 -1      6150    3    0    1
 -2       858      2226      2279      2408
 -1      6151    3    0    1
 -2       297      1386       318      2408
 -1      6152    3    0    1
 -2      1386       297      1116      2408
 -1      6153    3    0    1
 -2      1715      2226      2321      2408
 -1      6154    3    0    1
 -2      1116       297      2321      2408
 -1      6155    3    0    1
 -2      1386       858       875      2408
 -1      6156    3    0    1
 -2       858      1386      1116      2408
 -1      6157    3    0    1
 -2       858      1116      2321      2408
 -1      6158    3    0    1
 -2      2226       858      2321      2408
 -1      6159    3    0    1
 -2      1270       174      1814      2611
 -1      6160    3    0    1
 -2       448       411      1115      2410
 -1      6161    3    0    1
 -2      1115      2219       411      1404
 -1      6162    3    0    1
 -2      1373       411       448      2410
 -1      6163    3    0    1
 -2       411      1723      2219      2410
 -1      6164    3    0    1
 -2       411      1373      1154      2410
 -1      6165    3    0    1
 -2       411      1154      1723      2410
 -1      6166    3    0    1
 -2       177      2394      2466      2808
 -1      6167    3    0    1
 -2      1393       447      1752      2739
 -1      6168    3    0    1
 -2      1036       202      2572      2590
 -1      6169    3    0    1
 -2      1731      2773      2779      2857
 -1      6170    3    0    1
 -2       201       353      1031      2413
 -1      6171    3    0    1
 -2      2208      2302      2445      2739
 -1      6172    3    0    1
 -2       778      2198      2507      2573
 -1      6173    3    0    1
 -2      1316      1066      2198      2573
 -1      6174    3    0    1
 -2      2216      1617      2583      2817
 -1      6175    3    0    1
 -2      1974      1071      2509      2740
 -1      6176    3    0    1
 -2       201      1031      1279      2413
 -1      6177    3    0    1
 -2      2394       177      2605      2808
 -1      6178    3    0    1
 -2      2208       868      2302      2739
 -1      6179    3    0    1
 -2      1681      1903      2286      2416
 -1      6180    3    0    1
 -2      1069      2198      2507       778
 -1      6181    3    0    1
 -2       951      1227      2654      2822
 -1      6182    3    0    1
 -2      1619      1595      1632      2417
 -1      6183    3    0    1
 -2      1562      1632      2193      2417
 -1      6184    3    0    1
 -2      1632      1595      2193      2417
 -1      6185    3    0    1
 -2      1931      1545      2061      2418
 -1      6186    3    0    1
 -2      1545      1931      2084      2418
 -1      6187    3    0    1
 -2      2345       930      2534      2613
 -1      6188    3    0    1
 -2      2170       961      2296      2501
 -1      6189    3    0    1
 -2       330      1100      1345      2579
 -1      6190    3    0    1
 -2      1999      2040      2108      2651
 -1      6191    3    0    1
 -2       330      1345      1931      2579
 -1      6192    3    0    1
 -2      2010      1546      2155      2809
 -1      6193    3    0    1
 -2      1999      1732      2207      2604
 -1      6194    3    0    1
 -2      2521       265      2557      2676
 -1      6195    3    0    1
 -2       533       372      1202        67
 -1      6196    3    0    1
 -2       261      1617      2304      2632
 -1      6197    3    0    1
 -2       265      1537      2557      2632
 -1      6198    3    0    1
 -2       265      1537      2521      2557
 -1      6199    3    0    1
 -2      1394       870      1132      2421
 -1      6200    3    0    1
 -2      1681      1903      2416      2666
 -1      6201    3    0    1
 -2      1832      1607      2106      2422
 -1      6202    3    0    1
 -2       272      2210      2623      2793
 -1      6203    3    0    1
 -2      1607      1832      1990      2422
 -1      6204    3    0    1
 -2      1060       760      2735      2856
 -1      6205    3    0    1
 -2      1020      2006      2751       688
 -1      6206    3    0    1
 -2       831      2111      2375      2424
 -1      6207    3    0    1
 -2      2111       831      2343      2424
 -1      6208    3    0    1
 -2      2208      1663      2549      2647
 -1      6209    3    0    1
 -2       975       128      2294      2842
 -1      6210    3    0    1
 -2       992       138       995      2425
 -1      6211    3    0    1
 -2      1097      2343      2424      2750
 -1      6212    3    0    1
 -2       640       639       995      2425
 -1      6213    3    0    1
 -2      2200      1250      2222      2829
 -1      6214    3    0    1
 -2      1345      1100      1931      2579
 -1      6215    3    0    1
 -2      2174       981      2315      2686
 -1      6216    3    0    1
 -2      1071       783      1072      2509
 -1      6217    3    0    1
 -2      1571      2294      2763      2842
 -1      6218    3    0    1
 -2       378      1866      2754      2755
 -1      6219    3    0    1
 -2      1552      2179      2201      2641
 -1      6220    3    0    1
 -2       138       141       995      2425
 -1      6221    3    0    1
 -2       267       369      2760      2849
 -1      6222    3    0    1
 -2      1931      2061      2101      2579
 -1      6223    3    0    1
 -2      1044      2380      2656       735
 -1      6224    3    0    1
 -2       514      1194      2094      2428
 -1      6225    3    0    1
 -2      1250       145      2827      2829
 -1      6226    3    0    1
 -2       543      2592      2600      2729
 -1      6227    3    0    1
 -2       350       232      2571      2847
 -1      6228    3    0    1
 -2      1303       365      2571      2843
 -1      6229    3    0    1
 -2      1686      1818      2439      2470
 -1      6230    3    0    1
 -2       853      1151      1110      2429
 -1      6231    3    0    1
 -2      1715      1686      2439      2470
 -1      6232    3    0    1
 -2      2123      1737      2127      2432
 -1      6233    3    0    1
 -2      1866      2123      2127      2432
 -1      6234    3    0    1
 -2      1972      1866      2127      2432
 -1      6235    3    0    1
 -2      1655      1972      2127      2432
 -1      6236    3    0    1
 -2      2272      1655      2303      2432
 -1      6237    3    0    1
 -2       378      2272      2303      2432
 -1      6238    3    0    1
 -2      1972      1655      2272      2432
 -1      6239    3    0    1
 -2      1866      1972      2272      2432
 -1      6240    3    0    1
 -2      1689      1754      1884      2711
 -1      6241    3    0    1
 -2      1353       301      1103      2433
 -1      6242    3    0    1
 -2       301      1353       317      2433
 -1      6243    3    0    1
 -2      1718      1689      1884      2711
 -1      6244    3    0    1
 -2      1016       164      1259      2434
 -1      6245    3    0    1
 -2       654       679      1016      2434
 -1      6246    3    0    1
 -2       181       164      1016      2434
 -1      6247    3    0    1
 -2      2500      1145      2568      2752
 -1      6248    3    0    1
 -2       332       173      1020      2435
 -1      6249    3    0    1
 -2      1574       173      2203      2435
 -1      6250    3    0    1
 -2       332      2145      2203      2435
 -1      6251    3    0    1
 -2       173       332      2203      2435
 -1      6252    3    0    1
 -2        50       394      1605      2784
 -1      6253    3    0    1
 -2      1774      2247      2352      2743
 -1      6254    3    0    1
 -2      1646      1982      2376      2742
 -1      6255    3    0    1
 -2      1910      1982      2227      2742
 -1      6256    3    0    1
 -2      1843      2237      2438      2742
 -1      6257    3    0    1
 -2      1969      1843      1982      2742
 -1      6258    3    0    1
 -2      1910      1969      1982      2742
 -1      6259    3    0    1
 -2      1669       198      2588      2743
 -1      6260    3    0    1
 -2      1980       412      2376      2438
 -1      6261    3    0    1
 -2      1843      1980      2376      2438
 -1      6262    3    0    1
 -2       463       462      2402      2440
 -1      6263    3    0    1
 -2      1765       463      2402      2440
 -1      6264    3    0    1
 -2      1532      1857      2704      2328
 -1      6265    3    0    1
 -2      2409      1577      2452      2455
 -1      6266    3    0    1
 -2       462       463      1166      2440
 -1      6267    3    0    1
 -2      1166       463      1765      2440
 -1      6268    3    0    1
 -2       462       904      1180      2440
 -1      6269    3    0    1
 -2       487       462      1180      2440
 -1      6270    3    0    1
 -2      1833      1524      2580      2802
 -1      6271    3    0    1
 -2      1168        14      1912      2733
 -1      6272    3    0    1
 -2      1912        14      2020      2733
 -1      6273    3    0    1
 -2       413       213      2627      2861
 -1      6274    3    0    1
 -2      1041      1304      2371      1411
 -1      6275    3    0    1
 -2      2061      1931      2418      2579
 -1      6276    3    0    1
 -2       121       123      1864      2442
 -1      6277    3    0    1
 -2       123       121      1237      2442
 -1      6278    3    0    1
 -2       969      1965      2258      2443
 -1      6279    3    0    1
 -2       106       969      2258      2443
 -1      6280    3    0    1
 -2      1581       102      2258      2443
 -1      6281    3    0    1
 -2       102       106      2258      2443
 -1      6282    3    0    1
 -2      1541      1590      2232      2444
 -1      6283    3    0    1
 -2      2098      1590      2430      2444
 -1      6284    3    0    1
 -2      1541      2098      2430      2444
 -1      6285    3    0    1
 -2      1590      1541      2430      2444
 -1      6286    3    0    1
 -2      1705      1568      2105      2444
 -1      6287    3    0    1
 -2      1541      1705      2105      2444
 -1      6288    3    0    1
 -2      2428      1698      2749      2846
 -1      6289    3    0    1
 -2      1688      1752      2130      2445
 -1      6290    3    0    1
 -2      1752      1688      1920      2445
 -1      6291    3    0    1
 -2      1752      1663      2302      2445
 -1      6292    3    0    1
 -2      1663      1752      1920      2445
 -1      6293    3    0    1
 -2      1837      1778      2252      2544
 -1      6294    3    0    1
 -2      1325      1081       798      2447
 -1      6295    3    0    1
 -2      1859      1325      2214      2447
 -1      6296    3    0    1
 -2      1325       798      2214      2447
 -1      6297    3    0    1
 -2       799       798      1081      2447
 -1      6298    3    0    1
 -2       799      1081      2185      2447
 -1      6299    3    0    1
 -2      1533      1592      2012      2448
 -1      6300    3    0    1
 -2      1988      2012      2104      2448
 -1      6301    3    0    1
 -2      2104      2012      2148      2448
 -1      6302    3    0    1
 -2      2012      1592      2148      2448
 -1      6303    3    0    1
 -2      1788      1854      1900      2512
 -1      6304    3    0    1
 -2       953       555      1213      2761
 -1      6305    3    0    1
 -2       232      2538      2571      2847
 -1      6306    3    0    1
 -2      1007       161      2457      2756
 -1      6307    3    0    1
 -2       603      1239       975      2450
 -1      6308    3    0    1
 -2       975      1239      2315      2450
 -1      6309    3    0    1
 -2      2200      2222      2667      2829
 -1      6310    3    0    1
 -2      1571      2667      2827      2829
 -1      6311    3    0    1
 -2       378       392       927      2748
 -1      6312    3    0    1
 -2      2919      3088      3093      3114
 -1      6313    3    0    1
 -2      1451       210      3114      3000
 -1      6314    3    0    1
 -2      2952      2877      3093      3000
 -1      6315    3    0    1
 -2      2028      1577      2190      2453
 -1      6316    3    0    1
 -2      1829      1774      2276      2504
 -1      6317    3    0    1
 -2      2276      1774      2352      2504
 -1      6318    3    0    1
 -2       252      1073      2275      2562
 -1      6319    3    0    1
 -2      1529      1639      1730      2501
 -1      6320    3    0    1
 -2      1529       335      1639      2501
 -1      6321    3    0    1
 -2      2278      2126      2557      2676
 -1      6322    3    0    1
 -2      1730      1801      1957      2501
 -1      6323    3    0    1
 -2       961       335      2296      2501
 -1      6324    3    0    1
 -2      1694      2452      2455      2456
 -1      6325    3    0    1
 -2      1694      1570      2452      2456
 -1      6326    3    0    1
 -2      1748      1239      2725      2838
 -1      6327    3    0    1
 -2      1907      1555      2496      2716
 -1      6328    3    0    1
 -2       269      1859      2171      2678
 -1      6329    3    0    1
 -2      1006      1883      1975      2457
 -1      6330    3    0    1
 -2      1776      1006      1975      2457
 -1      6331    3    0    1
 -2       663      1006      1776      2457
 -1      6332    3    0    1
 -2      1006       663      1007      2457
 -1      6333    3    0    1
 -2      2718      1748      2725      2838
 -1      6334    3    0    1
 -2       159      1006      1007      2457
 -1      6335    3    0    1
 -2      1006       159      1883      2457
 -1      6336    3    0    1
 -2      2024      2075      2472      2757
 -1      6337    3    0    1
 -2      1663      2039      2107      2647
 -1      6338    3    0    1
 -2        14       377      2009      2733
 -1      6339    3    0    1
 -2      1249       989       631      2459
 -1      6340    3    0    1
 -2       156      1000      2244      2759
 -1      6341    3    0    1
 -2       942       372      2592      2810
 -1      6342    3    0    1
 -2      1618       329      1647      2759
 -1      6343    3    0    1
 -2      1393       446       447      2739
 -1      6344    3    0    1
 -2      1611      1560      2071      2461
 -1      6345    3    0    1
 -2      1624      1611      2071      2461
 -1      6346    3    0    1
 -2      1611      1564      2372      2461
 -1      6347    3    0    1
 -2      1560      1611      2372      2461
 -1      6348    3    0    1
 -2      2216      1592      2448      2462
 -1      6349    3    0    1
 -2      2103      2216      2448      2462
 -1      6350    3    0    1
 -2       398       906      2544      2723
 -1      6351    3    0    1
 -2      1270      2242      2589      2611
 -1      6352    3    0    1
 -2       268       267      1328      2463
 -1      6353    3    0    1
 -2      1778       398      2252      2544
 -1      6354    3    0    1
 -2       398        10      2252      2544
 -1      6355    3    0    1
 -2       956       384      1812      2511
 -1      6356    3    0    1
 -2      1790       384      1904      2511
 -1      6357    3    0    1
 -2        83       384      1790      2511
 -1      6358    3    0    1
 -2      2535       191      2558      2679
 -1      6359    3    0    1
 -2      1613      2002      2154      2737
 -1      6360    3    0    1
 -2       191      2535      2637      2679
 -1      6361    3    0    1
 -2       255       268      1328      2463
 -1      6362    3    0    1
 -2      1073       255      1328      2463
 -1      6363    3    0    1
 -2      1092      1429      2933      3126
 -1      6364    3    0    1
 -2        41       424      2306      2862
 -1      6365    3    0    1
 -2      1193      2181      2499      2636
 -1      6366    3    0    1
 -2      1877      1651      2051      2594
 -1      6367    3    0    1
 -2       164       181      1008      2466
 -1      6368    3    0    1
 -2       177       181      1016      2466
 -1      6369    3    0    1
 -2      1008       181      1018      2466
 -1      6370    3    0    1
 -2      3114      3088      1490      3122
 -1      6371    3    0    1
 -2        77       953      1213      2467
 -1      6372    3    0    1
 -2      1465      3090      2980      3117
 -1      6373    3    0    1
 -2      3068      2900      3077      3079
 -1      6374    3    0    1
 -2       382        77      2135      2467
 -1      6375    3    0    1
 -2        77       382       953      2467
 -1      6376    3    0    1
 -2       953       382      2135      2467
 -1      6377    3    0    1
 -2      2325      1737      2704      2816
 -1      6378    3    0    1
 -2       118      1773      2436      2476
 -1      6379    3    0    1
 -2      1797      1676      2416      2642
 -1      6380    3    0    1
 -2      1191       927      2094      2748
 -1      6381    3    0    1
 -2       324      1007      2277      2756
 -1      6382    3    0    1
 -2      1686      1715      2027      2470
 -1      6383    3    0    1
 -2      1907      2338      2439      2470
 -1      6384    3    0    1
 -2      1907      1555      2338      2470
 -1      6385    3    0    1
 -2      1558      1603      1719      2497
 -1      6386    3    0    1
 -2      1808      1558      1874      2497
 -1      6387    3    0    1
 -2      1603      1808      1874      2497
 -1      6388    3    0    1
 -2      1719      1603      2281      2497
 -1      6389    3    0    1
 -2       799      2185      2390      2484
 -1      6390    3    0    1
 -2      2185       799      2447      2484
 -1      6391    3    0    1
 -2       426      3087      3095      1474
 -1      6392    3    0    1
 -2       252      1068      1314      2510
 -1      6393    3    0    1
 -2      2198      1066      2365      2483
 -1      6394    3    0    1
 -2      1945      1669      2456      2561
 -1      6395    3    0    1
 -2       253       407      1316      2471
 -1      6396    3    0    1
 -2       407      1316      2471      2483
 -1      6397    3    0    1
 -2       387      1903      2245      2666
 -1      6398    3    0    1
 -2      2018      2245      2249      2666
 -1      6399    3    0    1
 -2      1533      1592      2216      2583
 -1      6400    3    0    1
 -2      2103      1324      2216      2583
 -1      6401    3    0    1
 -2      2085      1533      2216      2583
 -1      6402    3    0    1
 -2      1737      2123      2704      2816
 -1      6403    3    0    1
 -2      2634      1571      2827      2829
 -1      6404    3    0    1
 -2      2182      1524      2580      2681
 -1      6405    3    0    1
 -2      1083       373      2570      2787
 -1      6406    3    0    1
 -2      1083      1766      2581      2787
 -1      6407    3    0    1
 -2       315      1394      1132      2659
 -1      6408    3    0    1
 -2      2189      1654      2240      2659
 -1      6409    3    0    1
 -2       373       404      2142      2787
 -1      6410    3    0    1
 -2      2629      2264      2683      2789
 -1      6411    3    0    1
 -2      1833      1725      2478      2765
 -1      6412    3    0    1
 -2      1796       751      2571      2682
 -1      6413    3    0    1
 -2      1844      1829      2464      2536
 -1      6414    3    0    1
 -2      1995      1392      2464      2536
 -1      6415    3    0    1
 -2      1930      1108      2072      2487
 -1      6416    3    0    1
 -2      1003       655      2664      2769
 -1      6417    3    0    1
 -2      1863      2248      2324      2479
 -1      6418    3    0    1
 -2      2248      1949      2324      2479
 -1      6419    3    0    1
 -2        36       913      2073      2480
 -1      6420    3    0    1
 -2      2073       913      2217      2480
 -1      6421    3    0    1
 -2       232       350      1057      2847
 -1      6422    3    0    1
 -2      1554      1781      1784      2481
 -1      6423    3    0    1
 -2      1687      1674      2288      2717
 -1      6424    3    0    1
 -2      1949      1781      2351      2481
 -1      6425    3    0    1
 -2      1368      1383      2671      2717
 -1      6426    3    0    1
 -2      1603      1558      1808      2497
 -1      6427    3    0    1
 -2      1670      2070      2673      2768
 -1      6428    3    0    1
 -2      2035      2164      2278      2608
 -1      6429    3    0    1
 -2      1071       253      2133      2482
 -1      6430    3    0    1
 -2       371      2570      2635      2797
 -1      6431    3    0    1
 -2      1991       409      2133      2482
 -1      6432    3    0    1
 -2      2107      2039      2412      2647
 -1      6433    3    0    1
 -2       407       244      1066      2483
 -1      6434    3    0    1
 -2       798       799      1326      2484
 -1      6435    3    0    1
 -2       536       534       939      2995
 -1      6436    3    0    1
 -2       798      1876      2447      2484
 -1      6437    3    0    1
 -2       799       798      2447      2484
 -1      6438    3    0    1
 -2       798      1080      1876      2484
 -1      6439    3    0    1
 -2      1080       798      1326      2484
 -1      6440    3    0    1
 -2      2419      1645      2526      2785
 -1      6441    3    0    1
 -2      1008       664      2414      2485
 -1      6442    3    0    1
 -2       664      1008      1018      2485
 -1      6443    3    0    1
 -2       687       664      1018      2485
 -1      6444    3    0    1
 -2      1863       538      2295      2486
 -1      6445    3    0    1
 -2      2213      2248      2295      2486
 -1      6446    3    0    1
 -2      2248      1863      2295      2486
 -1      6447    3    0    1
 -2       440      1401      2487      2674
 -1      6448    3    0    1
 -2       441       440      1108      2487
 -1      6449    3    0    1
 -2       775       774      1315      3006
 -1      6450    3    0    1
 -2      1108       440      1401      2487
 -1      6451    3    0    1
 -2      1401      1770      2072      2487
 -1      6452    3    0    1
 -2      1044       334      1981      2663
 -1      6453    3    0    1
 -2      1620       328      1941      2771
 -1      6454    3    0    1
 -2      2490      2202      2770      2771
 -1      6455    3    0    1
 -2      1734      1620      2341      2771
 -1      6456    3    0    1
 -2      2413       201      2738      2844
 -1      6457    3    0    1
 -2      1305      1873      2376      2741
 -1      6458    3    0    1
 -2       760      1597      2735      2845
 -1      6459    3    0    1
 -2      1980       412      2438      2741
 -1      6460    3    0    1
 -2      1970      1980      2438      2741
 -1      6461    3    0    1
 -2      1597       760      2555      2845
 -1      6462    3    0    1
 -2      2531      1886       137      2211
 -1      6463    3    0    1
 -2       915        31      2399      2492
 -1      6464    3    0    1
 -2      1524      2182      2637      2681
 -1      6465    3    0    1
 -2       487       486      1179      2492
 -1      6466    3    0    1
 -2      1179       486      1609      2492
 -1      6467    3    0    1
 -2       915      1962        31      2492
 -1      6468    3    0    1
 -2      1525      1809      2228      2493
 -1      6469    3    0    1
 -2      2631       265      2632      2817
 -1      6470    3    0    1
 -2      1324       795      2011      2516
 -1      6471    3    0    1
 -2       107       962      2044      2799
 -1      6472    3    0    1
 -2      1324      1082       795      2516
 -1      6473    3    0    1
 -2      2578       344      2640      2801
 -1      6474    3    0    1
 -2      1548      1978      2412      2719
 -1      6475    3    0    1
 -2      2515      2779      2855      2858
 -1      6476    3    0    1
 -2      1977      2598      2902      2947
 -1      6477    3    0    1
 -2      1669       198      2558      2588
 -1      6478    3    0    1
 -2       916      2153      2386      2858
 -1      6479    3    0    1
 -2       852      2267      2288      2717
 -1      6480    3    0    1
 -2      1686      1818      2470      2496
 -1      6481    3    0    1
 -2       418        18      1817      2575
 -1      6482    3    0    1
 -2      1555      1815      2470      2496
 -1      6483    3    0    1
 -2      1815      1686      2470      2496
 -1      6484    3    0    1
 -2      1603      1595      2281      2497
 -1      6485    3    0    1
 -2      2499       914      1410      2915
 -1      6486    3    0    1
 -2      1551      1528      2379      2498
 -1      6487    3    0    1
 -2      1528      1551      2099      2498
 -1      6488    3    0    1
 -2      2370      1551      2379      2498
 -1      6489    3    0    1
 -2      1977      2370      2379      2498
 -1      6490    3    0    1
 -2      1408      1123      2563      2722
 -1      6491    3    0    1
 -2       248       250      2753      2775
 -1      6492    3    0    1
 -2      2275       248      2753      2775
 -1      6493    3    0    1
 -2       896      1408      2620      2722
 -1      6494    3    0    1
 -2       712      1709      2738      2844
 -1      6495    3    0    1
 -2      1709       712      2572      2844
 -1      6496    3    0    1
 -2       519       496      2280      2586
 -1      6497    3    0    1
 -2       512       486      1193      2499
 -1      6498    3    0    1
 -2      1801       335      2449      2501
 -1      6499    3    0    1
 -2      1639       335      1801      2501
 -1      6500    3    0    1
 -2      1542      1672      1680      2502
 -1      6501    3    0    1
 -2      2540      1068      2753      2777
 -1      6502    3    0    1
 -2       931      2191      2306      2694
 -1      6503    3    0    1
 -2      2276      1995      2464      2504
 -1      6504    3    0    1
 -2      1829      2276      2464      2504
 -1      6505    3    0    1
 -2      2067      1543      2114      2505
 -1      6506    3    0    1
 -2      1822      2067      2114      2505
 -1      6507    3    0    1
 -2      1750      1540      2610      2620
 -1      6508    3    0    1
 -2       398      2369      2427      2723
 -1      6509    3    0    1
 -2      2369      2117      2427      2723
 -1      6510    3    0    1
 -2       610      1239      2450      2839
 -1      6511    3    0    1
 -2       640      2092      2425      2840
 -1      6512    3    0    1
 -2       336      2683      2718      2725
 -1      6513    3    0    1
 -2      2567      2079      2608      2644
 -1      6514    3    0    1
 -2      1990      1069      2057      2507
 -1      6515    3    0    1
 -2       778      1069      1990      2507
 -1      6516    3    0    1
 -2       990      1237      2323      2508
 -1      6517    3    0    1
 -2      1772      1931      2062      2579
 -1      6518    3    0    1
 -2       330      1931      2101      2579
 -1      6519    3    0    1
 -2       393      1891      2363      2745
 -1      6520    3    0    1
 -2       346       344       990      2508
 -1      6521    3    0    1
 -2      1773      1539      2436      2641
 -1      6522    3    0    1
 -2       990       344      1237      2508
 -1      6523    3    0    1
 -2       244      1072      2263      2509
 -1      6524    3    0    1
 -2       244      1071      1072      2509
 -1      6525    3    0    1
 -2      2039      1663      2208      2647
 -1      6526    3    0    1
 -2      1978      2107      2412      2647
 -1      6527    3    0    1
 -2       244       407      1071      2509
 -1      6528    3    0    1
 -2      2241      2393      2532      2782
 -1      6529    3    0    1
 -2        10      1819      1837      2544
 -1      6530    3    0    1
 -2        10       398      1989      2544
 -1      6531    3    0    1
 -2      2385      2346      2698      2699
 -1      6532    3    0    1
 -2      1456      1492      1507      3037
 -1      6533    3    0    1
 -2       255       252      1314      2510
 -1      6534    3    0    1
 -2      1398       886      1788      2512
 -1      6535    3    0    1
 -2      1788       886      1854      2512
 -1      6536    3    0    1
 -2      1622      1788      2157      2512
 -1      6537    3    0    1
 -2        68        65      2225      2514
 -1      6538    3    0    1
 -2        68      2225      2299      2514
 -1      6539    3    0    1
 -2      2215       908      2798      2872
 -1      6540    3    0    1
 -2      1637       383      1973      2514
 -1      6541    3    0    1
 -2       383        68      2299      2514
 -1      6542    3    0    1
 -2      1973       383      2299      2514
 -1      6543    3    0    1
 -2       938       383      1637      2514
 -1      6544    3    0    1
 -2        68       383       938      2514
 -1      6545    3    0    1
 -2      1060      2843      2735       365
 -1      6546    3    0    1
 -2       332      2145      2554      2791
 -1      6547    3    0    1
 -2      1020       332      2530      2554
 -1      6548    3    0    1
 -2      2346      2099      2498      2774
 -1      6549    3    0    1
 -2       158       338      3102      3009
 -1      6550    3    0    1
 -2      1079      1327      2142      2516
 -1      6551    3    0    1
 -2      1079       795      1327      2516
 -1      6552    3    0    1
 -2      1617      1923      2304      2632
 -1      6553    3    0    1
 -2       198       191      1669      2558
 -1      6554    3    0    1
 -2      1281       706      2284      2625
 -1      6555    3    0    1
 -2       700      1769      2624      2625
 -1      6556    3    0    1
 -2       706      1032      2224      2517
 -1      6557    3    0    1
 -2      1617      1614      2304      2519
 -1      6558    3    0    1
 -2      1614      1617      2085      2519
 -1      6559    3    0    1
 -2      1796       727      2377      2649
 -1      6560    3    0    1
 -2      1292      1796      2550      2649
 -1      6561    3    0    1
 -2       562      1880      2269      2520
 -1      6562    3    0    1
 -2       562      1216      1880      2520
 -1      6563    3    0    1
 -2      1880      1216      1926      2520
 -1      6564    3    0    1
 -2      1872      1880      1926      2520
 -1      6565    3    0    1
 -2      1872      1644      2269      2520
 -1      6566    3    0    1
 -2      1880      1872      2269      2520
 -1      6567    3    0    1
 -2       826      2270      2349      2522
 -1      6568    3    0    1
 -2       826       819      2270      2522
 -1      6569    3    0    1
 -2      1091       819       826      2522
 -1      6570    3    0    1
 -2       819      1954      2319      2522
 -1      6571    3    0    1
 -2      1954       819      1992      2522
 -1      6572    3    0    1
 -2      1091      2151      2220      2522
 -1      6573    3    0    1
 -2      1339       826      2349      2522
 -1      6574    3    0    1
 -2      1091      1339      2349      2522
 -1      6575    3    0    1
 -2      1339      1091       826      2522
 -1      6576    3    0    1
 -2      1992       819      2291      2522
 -1      6577    3    0    1
 -2      2220      1992      2291      2522
 -1      6578    3    0    1
 -2      1091      2220      2291      2522
 -1      6579    3    0    1
 -2       819      1091      2291      2522
 -1      6580    3    0    1
 -2      2056      2034      2218      2523
 -1      6581    3    0    1
 -2      2223      1523      2449      2524
 -1      6582    3    0    1
 -2      1523      1801      2449      2524
 -1      6583    3    0    1
 -2      1644      1651      1872      2594
 -1      6584    3    0    1
 -2      1667      2272      2303      2525
 -1      6585    3    0    1
 -2      1569      1667      2303      2525
 -1      6586    3    0    1
 -2       273      1083      1084      2581
 -1      6587    3    0    1
 -2       807      1083      1766      2581
 -1      6588    3    0    1
 -2       424        41      2137      2862
 -1      6589    3    0    1
 -2       199       353      2413      2611
 -1      6590    3    0    1
 -2      2413      1031      2589      2611
 -1      6591    3    0    1
 -2      1031      1270      2589      2611
 -1      6592    3    0    1
 -2       353      1031      2413      2611
 -1      6593    3    0    1
 -2      1001       651      2251      2782
 -1      6594    3    0    1
 -2      1270      1814      2242      2611
 -1      6595    3    0    1
 -2      2190      1540      2453      2526
 -1      6596    3    0    1
 -2      2236      2190      2453      2526
 -1      6597    3    0    1
 -2      1645      1540      2236      2526
 -1      6598    3    0    1
 -2      1083       807      2167      2581
 -1      6599    3    0    1
 -2      1540      2190      2236      2526
 -1      6600    3    0    1
 -2       981       639       993      2527
 -1      6601    3    0    1
 -2       616       639       981      2527
 -1      6602    3    0    1
 -2      1755      1942      2066      2528
 -1      6603    3    0    1
 -2      1942      1755      2192      2528
 -1      6604    3    0    1
 -2       787       798       799      2971
 -1      6605    3    0    1
 -2      2188      2192      2437      2528
 -1      6606    3    0    1
 -2       421       422      3089      1461
 -1      6607    3    0    1
 -2      2192      1755      2437      2528
 -1      6608    3    0    1
 -2      2028      2500      2568      2752
 -1      6609    3    0    1
 -2      1605       394      2233      2784
 -1      6610    3    0    1
 -2       586      2468      2618      2670
 -1      6611    3    0    1
 -2      1736       137      2149      2531
 -1      6612    3    0    1
 -2      1922      1886      2531      2211
 -1      6613    3    0    1
 -2      2531      1886      1247       137
 -1      6614    3    0    1
 -2      2149       137      2211      2531
 -1      6615    3    0    1
 -2       991       136      1736      2531
 -1      6616    3    0    1
 -2       136       991      1247      2531
 -1      6617    3    0    1
 -2       136       137      1736      2531
 -1      6618    3    0    1
 -2       137       136      1247      2531
 -1      6619    3    0    1
 -2      1701      1587      1768      2532
 -1      6620    3    0    1
 -2      2241      1701      2268      2532
 -1      6621    3    0    1
 -2      1701      2241      2382      2532
 -1      6622    3    0    1
 -2       490      1181      2494      2773
 -1      6623    3    0    1
 -2       664      1007      2414      2533
 -1      6624    3    0    1
 -2      1007       687      1019      2533
 -1      6625    3    0    1
 -2       664       687      1007      2533
 -1      6626    3    0    1
 -2      1645      1540      2526      2785
 -1      6627    3    0    1
 -2      2152      1998      2259      2534
 -1      6628    3    0    1
 -2      2205        53      2311      2534
 -1      6629    3    0    1
 -2      2259      2205      2311      2534
 -1      6630    3    0    1
 -2      2152      2259      2311      2534
 -1      6631    3    0    1
 -2        53      2152      2311      2534
 -1      6632    3    0    1
 -2       340       141      1648      2727
 -1      6633    3    0    1
 -2      1731      2587      2790      2860
 -1      6634    3    0    1
 -2       772      1313      2198      2821
 -1      6635    3    0    1
 -2      1766      1083      2570      2787
 -1      6636    3    0    1
 -2       334       414      1981      2638
 -1      6637    3    0    1
 -2      1392       866      1127      2536
 -1      6638    3    0    1
 -2      2189      1394      2639      2659
 -1      6639    3    0    1
 -2      1392      1995      2464      2537
 -1      6640    3    0    1
 -2       326      1392      2464      2537
 -1      6641    3    0    1
 -2      1995      2090      2464      2537
 -1      6642    3    0    1
 -2       313       326      2464      2537
 -1      6643    3    0    1
 -2       326       313      1142      2537
 -1      6644    3    0    1
 -2      1142       313      1379      2537
 -1      6645    3    0    1
 -2      2090       313      2464      2537
 -1      6646    3    0    1
 -2      1379       313      2090      2537
 -1      6647    3    0    1
 -2      1379      2090      2208      2549
 -1      6648    3    0    1
 -2      2090      1379      2537      2549
 -1      6649    3    0    1
 -2       267      1081      1325      2543
 -1      6650    3    0    1
 -2      2904      2893      1445      3132
 -1      6651    3    0    1
 -2       369      1325      1859      2543
 -1      6652    3    0    1
 -2       369       267      1325      2543
 -1      6653    3    0    1
 -2      1769      1029      2617      2626
 -1      6654    3    0    1
 -2      1081      1314      2185      2543
 -1      6655    3    0    1
 -2       255      2463      2510      2543
 -1      6656    3    0    1
 -2      1859      1325      2447      2543
 -1      6657    3    0    1
 -2      2208      1663      2302      2549
 -1      6658    3    0    1
 -2       435       330      1135      2744
 -1      6659    3    0    1
 -2       215       232      1057      2538
 -1      6660    3    0    1
 -2       357      1029      1769      2788
 -1      6661    3    0    1
 -2      1046       215      1057      2538
 -1      6662    3    0    1
 -2       267       268      1081      2543
 -1      6663    3    0    1
 -2      1081       268      1314      2543
 -1      6664    3    0    1
 -2       268       255      1314      2543
 -1      6665    3    0    1
 -2      2422      1990      2507      2545
 -1      6666    3    0    1
 -2      2126      1795      2278      2608
 -1      6667    3    0    1
 -2      2798      2860      2866      2872
 -1      6668    3    0    1
 -2      1609       486      2499      2546
 -1      6669    3    0    1
 -2       486      1609      2492      2546
 -1      6670    3    0    1
 -2       487       486      2492      2546
 -1      6671    3    0    1
 -2      1870      2927      2953      3105
 -1      6672    3    0    1
 -2      1180       487      2440      2546
 -1      6673    3    0    1
 -2      2347      1180      2440      2546
 -1      6674    3    0    1
 -2      1180       486       487      2546
 -1      6675    3    0    1
 -2      2147      2953      3100      3105
 -1      6676    3    0    1
 -2      1180       914       486      2546
 -1      6677    3    0    1
 -2       486       914      2499      2546
 -1      6678    3    0    1
 -2      1532      2325      2704      2720
 -1      6679    3    0    1
 -2      1991      2482      2607      2767
 -1      6680    3    0    1
 -2      1991      1685      2482      2767
 -1      6681    3    0    1
 -2      2482      2471      2607      2767
 -1      6682    3    0    1
 -2       868       881      1142      2549
 -1      6683    3    0    1
 -2       868      1142      1379      2549
 -1      6684    3    0    1
 -2       868      1379      2208      2549
 -1      6685    3    0    1
 -2       217       212      1292      2550
 -1      6686    3    0    1
 -2       325       315      2639      2659
 -1      6687    3    0    1
 -2      1394       315       325      2659
 -1      6688    3    0    1
 -2       215       232      2538      2550
 -1      6689    3    0    1
 -2       507      1194       924      2657
 -1      6690    3    0    1
 -2       215       217      1292      2550
 -1      6691    3    0    1
 -2      1725       730      1833      2551
 -1      6692    3    0    1
 -2       930      1605      2694      2803
 -1      6693    3    0    1
 -2       730      1043      1833      2551
 -1      6694    3    0    1
 -2      1891       918        36      2113
 -1      6695    3    0    1
 -2      1891       918      2169      2552
 -1      6696    3    0    1
 -2       918      1891        36      2552
 -1      6697    3    0    1
 -2      1164      1989      2058      2553
 -1      6698    3    0    1
 -2       459      1164      2058      2553
 -1      6699    3    0    1
 -2      2024      2285      2407      2791
 -1      6700    3    0    1
 -2       272      2167      2623      2814
 -1      6701    3    0    1
 -2      1847      1291      2150      2792
 -1      6702    3    0    1
 -2       413      2627      2758      2792
 -1      6703    3    0    1
 -2      2119      1291      2551      2792
 -1      6704    3    0    1
 -2       413      1847      2627      2792
 -1      6705    3    0    1
 -2       409       410      1059      2555
 -1      6706    3    0    1
 -2      1865       410      2005      2555
 -1      6707    3    0    1
 -2      2539      2409      2677      2736
 -1      6708    3    0    1
 -2      1604      2677      2679      2736
 -1      6709    3    0    1
 -2      1604      2503      2539      2736
 -1      6710    3    0    1
 -2      1671      1567      2219      2737
 -1      6711    3    0    1
 -2       410      1597      1865       358
 -1      6712    3    0    1
 -2      1597       410      1865      2555
 -1      6713    3    0    1
 -2       857      1115      2219      2737
 -1      6714    3    0    1
 -2      2471      1316      2545      2573
 -1      6715    3    0    1
 -2       221       202      2043      2572
 -1      6716    3    0    1
 -2      1167      2059      2366      2591
 -1      6717    3    0    1
 -2       466      1167      2366      2591
 -1      6718    3    0    1
 -2       943       543      2345      2613
 -1      6719    3    0    1
 -2       943      2345      2406      2613
 -1      6720    3    0    1
 -2       520       930      2345      2613
 -1      6721    3    0    1
 -2       425       943      2406      2613
 -1      6722    3    0    1
 -2      1923      1657      2304      2632
 -1      6723    3    0    1
 -2      1537       265      2521      2632
 -1      6724    3    0    1
 -2      1925      1537      2557      2521
 -1      6725    3    0    1
 -2       930      2345      2534      2803
 -1      6726    3    0    1
 -2       265      2557      2631      2632
 -1      6727    3    0    1
 -2      1657      1537      2521      2632
 -1      6728    3    0    1
 -2       191      1945      2456      2677
 -1      6729    3    0    1
 -2      1570      2452      2456      2677
 -1      6730    3    0    1
 -2      1954      1336      2319      2559
 -1      6731    3    0    1
 -2      1954      2319      2367      2559
 -1      6732    3    0    1
 -2      2473      1643      2518      2665
 -1      6733    3    0    1
 -2       630       631      2459      2560
 -1      6734    3    0    1
 -2      2459       631      2508      2560
 -1      6735    3    0    1
 -2       990      1248      2508      2560
 -1      6736    3    0    1
 -2      1248       990       630      2560
 -1      6737    3    0    1
 -2       631       990      2508      2560
 -1      6738    3    0    1
 -2       990       631       630      2560
 -1      6739    3    0    1
 -2      2490      1535      2734      2770
 -1      6740    3    0    1
 -2       253      2133      2482      2607
 -1      6741    3    0    1
 -2      1598      1986      2082      2794
 -1      6742    3    0    1
 -2      1778       398      2544      2723
 -1      6743    3    0    1
 -2       310      1408      1123      2563
 -1      6744    3    0    1
 -2      1698      2073      2480      2745
 -1      6745    3    0    1
 -2      1408       310       443      2563
 -1      6746    3    0    1
 -2       405      1593      2197      2569
 -1      6747    3    0    1
 -2       282      2367      2559      2794
 -1      6748    3    0    1
 -2      1408       443      1653      2563
 -1      6749    3    0    1
 -2       903      2053      2587      2790
 -1      6750    3    0    1
 -2      2056      2034      2523      2566
 -1      6751    3    0    1
 -2      2034      1678      2523      2566
 -1      6752    3    0    1
 -2       967       956      2017      2566
 -1      6753    3    0    1
 -2      1904       385      2056      2566
 -1      6754    3    0    1
 -2      1904      2056      2523      2566
 -1      6755    3    0    1
 -2       956      1904      2017      2566
 -1      6756    3    0    1
 -2       956       385      1904      2566
 -1      6757    3    0    1
 -2      1904      1678      2017      2566
 -1      6758    3    0    1
 -2      1678      1904      2523      2566
 -1      6759    3    0    1
 -2       250       234      2540      2753
 -1      6760    3    0    1
 -2       201      2413      2590      2844
 -1      6761    3    0    1
 -2      1354       841       842      2776
 -1      6762    3    0    1
 -2      1036       201      2590      2844
 -1      6763    3    0    1
 -2      1672      1680      2502      2776
 -1      6764    3    0    1
 -2      2263       371      2365      2570
 -1      6765    3    0    1
 -2      1731      2773      2857      2860
 -1      6766    3    0    1
 -2       357      2374      2426      2788
 -1      6767    3    0    1
 -2      2498      2585      2914      2928
 -1      6768    3    0    1
 -2       759      1057      2766      2824
 -1      6769    3    0    1
 -2      2374      2478      2765      2788
 -1      6770    3    0    1
 -2       603       974      1993      2848
 -1      6771    3    0    1
 -2      2182      2453      2503      2736
 -1      6772    3    0    1
 -2      2079      2035      2608      2871
 -1      6773    3    0    1
 -2      1613      1567      2138      2737
 -1      6774    3    0    1
 -2      2002       857      2154      2737
 -1      6775    3    0    1
 -2      2503      2453      2539      2736
 -1      6776    3    0    1
 -2      2025      1613      2138      2737
 -1      6777    3    0    1
 -2       336       962      2629      2683
 -1      6778    3    0    1
 -2       201      1036      2738      2844
 -1      6779    3    0    1
 -2       365       350      1303      2571
 -1      6780    3    0    1
 -2      2550       232      1292       215
 -1      6781    3    0    1
 -2       350       232      1055      2571
 -1      6782    3    0    1
 -2      1055       232      1292      2571
 -1      6783    3    0    1
 -2       232      2550      1292      2571
 -1      6784    3    0    1
 -2      1815      1686      2496      2574
 -1      6785    3    0    1
 -2      1802      1815      2496      2574
 -1      6786    3    0    1
 -2      1818      2391      2496      2574
 -1      6787    3    0    1
 -2      2391      1802      2496      2574
 -1      6788    3    0    1
 -2      1866      1737      2754      2816
 -1      6789    3    0    1
 -2       198      1032      2558      2588
 -1      6790    3    0    1
 -2       265       261      2632      2817
 -1      6791    3    0    1
 -2        18        17      1817      2575
 -1      6792    3    0    1
 -2      1817        17      2059      2575
 -1      6793    3    0    1
 -2      1167      2053      2059      2575
 -1      6794    3    0    1
 -2      1167       903      2053      2575
 -1      6795    3    0    1
 -2        17        18       903      2575
 -1      6796    3    0    1
 -2        17      1167      2059      2575
 -1      6797    3    0    1
 -2        17       903      1167      2575
 -1      6798    3    0    1
 -2        18       418       903      2575
 -1      6799    3    0    1
 -2       123      1864      2442      2801
 -1      6800    3    0    1
 -2       123       982      1864      2801
 -1      6801    3    0    1
 -2       982       344      2578      2801
 -1      6802    3    0    1
 -2       123       344       982      2801
 -1      6803    3    0    1
 -2      2125      1853      2431      2577
 -1      6804    3    0    1
 -2      1853       400      2431      2577
 -1      6805    3    0    1
 -2       991       634      2316      2669
 -1      6806    3    0    1
 -2       945      1629      2312      2592
 -1      6807    3    0    1
 -2       400      2125      2431      2577
 -1      6808    3    0    1
 -2      1552      1539      1773      2641
 -1      6809    3    0    1
 -2      1773      2436      2476      2641
 -1      6810    3    0    1
 -2      1661      1530      2143      2604
 -1      6811    3    0    1
 -2      2419      1645      2785      2802
 -1      6812    3    0    1
 -2      2190      1540      2620      2668
 -1      6813    3    0    1
 -2       982       346       992      2578
 -1      6814    3    0    1
 -2       344       346       982      2578
 -1      6815    3    0    1
 -2      1524      1645      2236      2580
 -1      6816    3    0    1
 -2      1605        53      2534      2803
 -1      6817    3    0    1
 -2       980      2703      2718      2804
 -1      6818    3    0    1
 -2       930        53      1605      2803
 -1      6819    3    0    1
 -2      2426      2374      2542      2788
 -1      6820    3    0    1
 -2       356      2374      2765      2788
 -1      6821    3    0    1
 -2      1678      2034      2523      2582
 -1      6822    3    0    1
 -2      2034      1678      2475      2582
 -1      6823    3    0    1
 -2      1748       126      2703      2718
 -1      6824    3    0    1
 -2      1040       724      2221      2661
 -1      6825    3    0    1
 -2       724      2119      2221      2661
 -1      6826    3    0    1
 -2      2237       724      2488      2661
 -1      6827    3    0    1
 -2       221      1042      2043      2584
 -1      6828    3    0    1
 -2       202       221      2043      2584
 -1      6829    3    0    1
 -2       202       201      1279      2584
 -1      6830    3    0    1
 -2      1042       202      1279      2584
 -1      6831    3    0    1
 -2       221       202      1042      2584
 -1      6832    3    0    1
 -2      1070      2275      2740      2775
 -1      6833    3    0    1
 -2       496       519      2169      2586
 -1      6834    3    0    1
 -2      2169       519      2280      2586
 -1      6835    3    0    1
 -2       919      1893      2280      2586
 -1      6836    3    0    1
 -2       496       919      2280      2586
 -1      6837    3    0    1
 -2       919       496      1893      2586
 -1      6838    3    0    1
 -2       962       107      2629      2799
 -1      6839    3    0    1
 -2       107       336      2629      2799
 -1      6840    3    0    1
 -2      2205       507      2684      2805
 -1      6841    3    0    1
 -2      2145      2285      2405      2791
 -1      6842    3    0    1
 -2      2285      2024      2405      2791
 -1      6843    3    0    1
 -2      2311      2205      2684      2805
 -1      6844    3    0    1
 -2       336       107       968      2799
 -1      6845    3    0    1
 -2      2629       336      2718      2799
 -1      6846    3    0    1
 -2      2145       203      2554      2791
 -1      6847    3    0    1
 -2      1785      2060      2576      2800
 -1      6848    3    0    1
 -2      2060      1728      2576      2800
 -1      6849    3    0    1
 -2      1279      1031       702      2589
 -1      6850    3    0    1
 -2      1279       702      1882      2589
 -1      6851    3    0    1
 -2       913      2073      2614      2812
 -1      6852    3    0    1
 -2      2228      1525      2493      2863
 -1      6853    3    0    1
 -2      1526      2228      2356      2863
 -1      6854    3    0    1
 -2        66       372       942      2810
 -1      6855    3    0    1
 -2      1393       868      1130      2739
 -1      6856    3    0    1
 -2       868       881      2302      2739
 -1      6857    3    0    1
 -2       447       446      2130      2739
 -1      6858    3    0    1
 -2      1713      1867      2326      2591
 -1      6859    3    0    1
 -2      2366      2059      2577      2591
 -1      6860    3    0    1
 -2      1713      2366      2577      2591
 -1      6861    3    0    1
 -2      1675      2036      2212      2601
 -1      6862    3    0    1
 -2      2036      1795      2126      2601
 -1      6863    3    0    1
 -2       942       372       945      2592
 -1      6864    3    0    1
 -2       942       945       543      2592
 -1      6865    3    0    1
 -2      2225       543      2383      2592
 -1      6866    3    0    1
 -2        67       372      1629      2592
 -1      6867    3    0    1
 -2       372        67       945      2592
 -1      6868    3    0    1
 -2       945        67      1629      2592
 -1      6869    3    0    1
 -2       544       945      2312      2592
 -1      6870    3    0    1
 -2       945       544       543      2592
 -1      6871    3    0    1
 -2       544      2312      2383      2592
 -1      6872    3    0    1
 -2       543       544      2383      2592
 -1      6873    3    0    1
 -2       832      2122      2424      2596
 -1      6874    3    0    1
 -2      1549       832      2424      2596
 -1      6875    3    0    1
 -2       389      1951      2415      2597
 -1      6876    3    0    1
 -2      2415      1951      2458      2597
 -1      6877    3    0    1
 -2       118       389      2415      2597
 -1      6878    3    0    1
 -2      2188      2192      2528      2597
 -1      6879    3    0    1
 -2      1732      1942      2048      2597
 -1      6880    3    0    1
 -2      1732      2048      2458      2597
 -1      6881    3    0    1
 -2       118      2415      2446      2597
 -1      6882    3    0    1
 -2      2188       118      2446      2597
 -1      6883    3    0    1
 -2      2048      1942      2192      2597
 -1      6884    3    0    1
 -2      2192      1942      2528      2597
 -1      6885    3    0    1
 -2      2192      2188      2458      2597
 -1      6886    3    0    1
 -2      2188      2415      2458      2597
 -1      6887    3    0    1
 -2      2048      2192      2458      2597
 -1      6888    3    0    1
 -2      2415      2188      2446      2597
 -1      6889    3    0    1
 -2      2294       128      2315      2842
 -1      6890    3    0    1
 -2      2387       608      2615      2708
 -1      6891    3    0    1
 -2      1237      2323      2442      2708
 -1      6892    3    0    1
 -2       943       543      2225      2600
 -1      6893    3    0    1
 -2      1556      1674      2692      2730
 -1      6894    3    0    1
 -2      2036      1675      2569      2601
 -1      6895    3    0    1
 -2      1795      2036      2569      2601
 -1      6896    3    0    1
 -2      1523      1831      2524      2602
 -1      6897    3    0    1
 -2      2223      1523      2524      2602
 -1      6898    3    0    1
 -2      1523      1786      1831      2602
 -1      6899    3    0    1
 -2      1786      1523      2223      2602
 -1      6900    3    0    1
 -2      2201      2179      2290      2641
 -1      6901    3    0    1
 -2      1539      1552      1553      2641
 -1      6902    3    0    1
 -2      1550      1797      2416      2642
 -1      6903    3    0    1
 -2      2578       992       616      2603
 -1      6904    3    0    1
 -2       639       616       992      2603
 -1      6905    3    0    1
 -2       992      2578       616       982
 -1      6906    3    0    1
 -2      2108      1661      2143      2604
 -1      6907    3    0    1
 -2      1661      2108      2207      2604
 -1      6908    3    0    1
 -2      1018       174      1021      2605
 -1      6909    3    0    1
 -2      1181       490      2494      2812
 -1      6910    3    0    1
 -2       174       179      1021      2605
 -1      6911    3    0    1
 -2      2000      1181      2653      2812
 -1      6912    3    0    1
 -2       177      1018      2394      2605
 -1      6913    3    0    1
 -2       177       174      1018      2605
 -1      6914    3    0    1
 -2      2155      2173      2612      2809
 -1      6915    3    0    1
 -2      1683      2155      2173      2612
 -1      6916    3    0    1
 -2       913      1181      2000      2812
 -1      6917    3    0    1
 -2      2241      1946      2251      2782
 -1      6918    3    0    1
 -2       174      1814      2611      2808
 -1      6919    3    0    1
 -2      1930      1770      2071      2768
 -1      6920    3    0    1
 -2      2459       630      2560      2769
 -1      6921    3    0    1
 -2      1670      1560      2071      2768
 -1      6922    3    0    1
 -2      2128      1795      2601      2608
 -1      6923    3    0    1
 -2      2587      1731      2857      2860
 -1      6924    3    0    1
 -2      1072       371      2635      2797
 -1      6925    3    0    1
 -2       341      2353      2854      2869
 -1      6926    3    0    1
 -2       372       940      1202      2609
 -1      6927    3    0    1
 -2      1202       940      2318      2609
 -1      6928    3    0    1
 -2      1629      1202      2318      2609
 -1      6929    3    0    1
 -2        67      1202      1629      2609
 -1      6930    3    0    1
 -2       372        67      1629      2609
 -1      6931    3    0    1
 -2        67       372      1202      2609
 -1      6932    3    0    1
 -2       372        66       940      2609
 -1      6933    3    0    1
 -2      1248      1648      2560      2854
 -1      6934    3    0    1
 -2       872       883      1702      2621
 -1      6935    3    0    1
 -2       179       174      1270      2611
 -1      6936    3    0    1
 -2       199       179      1270      2611
 -1      6937    3    0    1
 -2      1031       199      1270      2611
 -1      6938    3    0    1
 -2       353       199      1031      2611
 -1      6939    3    0    1
 -2       145       993      2395      2634
 -1      6940    3    0    1
 -2       543       520      2345      2613
 -1      6941    3    0    1
 -2      1998      2152      2406      2613
 -1      6942    3    0    1
 -2      2152      1998      2534      2613
 -1      6943    3    0    1
 -2      2345      1998      2406      2613
 -1      6944    3    0    1
 -2      1998      2345      2534      2613
 -1      6945    3    0    1
 -2       735       712      2572      2656
 -1      6946    3    0    1
 -2       197      1034      2617      2813
 -1      6947    3    0    1
 -2       916      1178      2153      2614
 -1      6948    3    0    1
 -2       490       916      2153      2614
 -1      6949    3    0    1
 -2       916       490      1178      2614
 -1      6950    3    0    1
 -2      2786      2478      2818      2865
 -1      6951    3    0    1
 -2      2637      1524      2681      2865
 -1      6952    3    0    1
 -2      1833      1725      2580      2865
 -1      6953    3    0    1
 -2      1178       483      1971      2614
 -1      6954    3    0    1
 -2      1971       483      2217      2614
 -1      6955    3    0    1
 -2       631       976      1249      2616
 -1      6956    3    0    1
 -2       156      1004      1000      2759
 -1      6957    3    0    1
 -2      1029       357      1769      2617
 -1      6958    3    0    1
 -2       197      1034      1035      2617
 -1      6959    3    0    1
 -2      2302      1752      2445      2739
 -1      6960    3    0    1
 -2       357       417      1035      2617
 -1      6961    3    0    1
 -2      1769       357      2374      2617
 -1      6962    3    0    1
 -2      2374       357      2426      2617
 -1      6963    3    0    1
 -2      1035      1709      2426      2617
 -1      6964    3    0    1
 -2       357      1035      2426      2617
 -1      6965    3    0    1
 -2      1084       272      2167      2793
 -1      6966    3    0    1
 -2      1635       413      1847      2627
 -1      6967    3    0    1
 -2       417       357      1029      2617
 -1      6968    3    0    1
 -2      1573      1886      2505      2619
 -1      6969    3    0    1
 -2      1395       872      1135      2621
 -1      6970    3    0    1
 -2       872      1702      2253      2621
 -1      6971    3    0    1
 -2      1610      1670      2070      2673
 -1      6972    3    0    1
 -2      1610      2070      2136      2673
 -1      6973    3    0    1
 -2      2153       490      2779      2855
 -1      6974    3    0    1
 -2      1545      2061      2418      2622
 -1      6975    3    0    1
 -2      1610      2136      2254      2673
 -1      6976    3    0    1
 -2       655      2115      2664      2769
 -1      6977    3    0    1
 -2      1642      1770      2254      2673
 -1      6978    3    0    1
 -2      2254      1770      2487      2673
 -1      6979    3    0    1
 -2      1598      2022      2176      2794
 -1      6980    3    0    1
 -2      1079      2011      2516      2623
 -1      6981    3    0    1
 -2      2011      1079      2158      2623
 -1      6982    3    0    1
 -2       273       272      1079      2623
 -1      6983    3    0    1
 -2      1079       272      2210      2623
 -1      6984    3    0    1
 -2       700      1029      1769      2625
 -1      6985    3    0    1
 -2      1029       700      1281      2625
 -1      6986    3    0    1
 -2      1029      1769      2625      2626
 -1      6987    3    0    1
 -2      1281      1029      2625      2626
 -1      6988    3    0    1
 -2      1079       273      2623      2814
 -1      6989    3    0    1
 -2       881      1393      2302      2739
 -1      6990    3    0    1
 -2       203       197      2284      2626
 -1      6991    3    0    1
 -2      2167       273      2581      2814
 -1      6992    3    0    1
 -2       417       197      2617      2626
 -1      6993    3    0    1
 -2       197       417      1029      2626
 -1      6994    3    0    1
 -2      1029       417      2617      2626
 -1      6995    3    0    1
 -2       273       404      2581      2814
 -1      6996    3    0    1
 -2       273       272      2623      2814
 -1      6997    3    0    1
 -2       156      2244      2465      2759
 -1      6998    3    0    1
 -2       329       156      1647      2759
 -1      6999    3    0    1
 -2       843       844      2040      2651
 -1      7000    3    0    1
 -2       311       331      2322      2651
 -1      7001    3    0    1
 -2      1999      2207      2231      2651
 -1      7002    3    0    1
 -2      1999       843      2040      2651
 -1      7003    3    0    1
 -2      1532      2325      2368      2704
 -1      7004    3    0    1
 -2      2325      1737      2368      2704
 -1      7005    3    0    1
 -2       213       413      2556      2861
 -1      7006    3    0    1
 -2      2053       459      2553      2790
 -1      7007    3    0    1
 -2       107       336       962      2629
 -1      7008    3    0    1
 -2      2213      2272      2593      2684
 -1      7009    3    0    1
 -2      2587       418      2860      2866
 -1      7010    3    0    1
 -2      2164      1082      2557      2631
 -1      7011    3    0    1
 -2       700      1769      2478      2818
 -1      7012    3    0    1
 -2      1082       265      2557      2631
 -1      7013    3    0    1
 -2       802      2164      2516      2631
 -1      7014    3    0    1
 -2      1082       802      2516      2631
 -1      7015    3    0    1
 -2       802      1082      2164      2631
 -1      7016    3    0    1
 -2       265       261      1657      2632
 -1      7017    3    0    1
 -2       265      1657      2521      2632
 -1      7018    3    0    1
 -2      1657       261      2304      2632
 -1      7019    3    0    1
 -2       993       981      2174      2634
 -1      7020    3    0    1
 -2       993      2174      2395      2634
 -1      7021    3    0    1
 -2       927      2094      2748      2828
 -1      7022    3    0    1
 -2       128      1571      2294      2634
 -1      7023    3    0    1
 -2      1083      1766      2570      2635
 -1      7024    3    0    1
 -2       807       784      1766      2635
 -1      7025    3    0    1
 -2      1083       807      1766      2635
 -1      7026    3    0    1
 -2      1072       784      1083      2635
 -1      7027    3    0    1
 -2       784       807      1083      2635
 -1      7028    3    0    1
 -2      1411      1435      3111      1489
 -1      7029    3    0    1
 -2      1203       939      1417      3044
 -1      7030    3    0    1
 -2      2585      2887      2914      2928
 -1      7031    3    0    1
 -2       925       510      2181      2636
 -1      7032    3    0    1
 -2      2083      1203      2147      2636
 -1      7033    3    0    1
 -2      2181       510      2317      2636
 -1      7034    3    0    1
 -2       536      1203      2083      2636
 -1      7035    3    0    1
 -2       536      2083      2317      2636
 -1      7036    3    0    1
 -2       510       536      2317      2636
 -1      7037    3    0    1
 -2       536       510       925      2636
 -1      7038    3    0    1
 -2       536       925      1203      2636
 -1      7039    3    0    1
 -2       220       414      1045      2638
 -1      7040    3    0    1
 -2      1526      1683      2633      2811
 -1      7041    3    0    1
 -2      1313       772      2644      2821
 -1      7042    3    0    1
 -2      2567      2128      2675      2821
 -1      7043    3    0    1
 -2       414       334      1045      2638
 -1      7044    3    0    1
 -2       736      2380      2548      2638
 -1      7045    3    0    1
 -2      1045       736      2548      2638
 -1      7046    3    0    1
 -2       736      1045      2380      2638
 -1      7047    3    0    1
 -2       334      1044      1045      2638
 -1      7048    3    0    1
 -2      2475      2034      2582      2660
 -1      7049    3    0    1
 -2      2034      1881      2582      2660
 -1      7050    3    0    1
 -2      2018      1584      2249      2660
 -1      7051    3    0    1
 -2      1881      2034      2218      2660
 -1      7052    3    0    1
 -2       990       346      2508      2640
 -1      7053    3    0    1
 -2      1043      1833      2551      2802
 -1      7054    3    0    1
 -2      1645      2419      2580      2802
 -1      7055    3    0    1
 -2       344       346      2578      2640
 -1      7056    3    0    1
 -2       346       344      2508      2640
 -1      7057    3    0    1
 -2      1725      1833      2580      2802
 -1      7058    3    0    1
 -2      1524      1645      2580      2802
 -1      7059    3    0    1
 -2       344      1237      2508      2640
 -1      7060    3    0    1
 -2      2419       213      2758      2802
 -1      7061    3    0    1
 -2       213      2419      2785      2802
 -1      7062    3    0    1
 -2      1833      1725      2551      2802
 -1      7063    3    0    1
 -2       138       346       990      2640
 -1      7064    3    0    1
 -2      1797      1550      1964      2642
 -1      7065    3    0    1
 -2      1562      1797      1964      2642
 -1      7066    3    0    1
 -2      2054      1964      2416      2642
 -1      7067    3    0    1
 -2      1964      1550      2416      2642
 -1      7068    3    0    1
 -2       246       405      1625      2643
 -1      7069    3    0    1
 -2       405       246      1069      2643
 -1      7070    3    0    1
 -2      2079       772      2365      2644
 -1      7071    3    0    1
 -2      3076      2961      1455      2918
 -1      7072    3    0    1
 -2      1313       772      2567      2644
 -1      7073    3    0    1
 -2      1523      2194      2266      2645
 -1      7074    3    0    1
 -2      1786      1523      1831      2645
 -1      7075    3    0    1
 -2      1831      1523      2266      2645
 -1      7076    3    0    1
 -2      1786      1831      2243      2645
 -1      7077    3    0    1
 -2      1831      1786      2243      2602
 -1      7078    3    0    1
 -2      2243      1831      2266      2645
 -1      7079    3    0    1
 -2      2265      2243      2266      2645
 -1      7080    3    0    1
 -2      1977      3107      2947      2944
 -1      7081    3    0    1
 -2      1071      2482      2509      2646
 -1      7082    3    0    1
 -2      1071       253      2482      2646
 -1      7083    3    0    1
 -2      1978      2090      2107      2647
 -1      7084    3    0    1
 -2      2107      2090      2549      2647
 -1      7085    3    0    1
 -2      1663      2107      2549      2647
 -1      7086    3    0    1
 -2      1610      1614      2085      2648
 -1      7087    3    0    1
 -2      2085      1614      2519      2648
 -1      7088    3    0    1
 -2      1610      1559      2136      2648
 -1      7089    3    0    1
 -2      1614      1610      2070      2648
 -1      7090    3    0    1
 -2      2070      1610      2136      2648
 -1      7091    3    0    1
 -2      1610      2085      2519      2648
 -1      7092    3    0    1
 -2      1279      1042      2584      2649
 -1      7093    3    0    1
 -2       702      1279      2584      2649
 -1      7094    3    0    1
 -2      1882       702      2584      2649
 -1      7095    3    0    1
 -2       726       727      1796      2649
 -1      7096    3    0    1
 -2       727       726      1042      2649
 -1      7097    3    0    1
 -2       702      1882      2377      2649
 -1      7098    3    0    1
 -2       727       702      2377      2649
 -1      7099    3    0    1
 -2      1292      1042       726      2649
 -1      7100    3    0    1
 -2      1292       726      1796      2649
 -1      7101    3    0    1
 -2       702       727      1042      2649
 -1      7102    3    0    1
 -2       702      1042      1279      2649
 -1      7103    3    0    1
 -2       331       311      1355      2651
 -1      7104    3    0    1
 -2      1356       843      1355      2651
 -1      7105    3    0    1
 -2       843      1356       844      2651
 -1      7106    3    0    1
 -2      1355      1999      2322      2651
 -1      7107    3    0    1
 -2       331      1355      2322      2651
 -1      7108    3    0    1
 -2      1355       843      1999      2651
 -1      7109    3    0    1
 -2      1202       366      1629      2706
 -1      7110    3    0    1
 -2       584      1948      2307      2654
 -1      7111    3    0    1
 -2      2906      1977      3107      2598
 -1      7112    3    0    1
 -2       584       582      1948      2654
 -1      7113    3    0    1
 -2      2895      2883      2931      3084
 -1      7114    3    0    1
 -2      1948       582      2615      2654
 -1      7115    3    0    1
 -2       558       584      2307      2654
 -1      7116    3    0    1
 -2       951       558      1659      2654
 -1      7117    3    0    1
 -2      1202      1629      2318      2706
 -1      7118    3    0    1
 -2      2699      2698      2886      2921
 -1      7119    3    0    1
 -2       904      1166      1430      3127
 -1      7120    3    0    1
 -2       584       558      1227      2654
 -1      7121    3    0    1
 -2       558       951      1227      2654
 -1      7122    3    0    1
 -2      1571      2294      2634      2827
 -1      7123    3    0    1
 -2      2426      1035      2542      2656
 -1      7124    3    0    1
 -2      1035       735      1044      2656
 -1      7125    3    0    1
 -2      1035      1044      2542      2656
 -1      7126    3    0    1
 -2       712       735      1035      2656
 -1      7127    3    0    1
 -2      1194       514      2094      2657
 -1      7128    3    0    1
 -2       394      1194      2233      2657
 -1      7129    3    0    1
 -2       394        50      1194      2657
 -1      7130    3    0    1
 -2      2538       215      2550      2658
 -1      7131    3    0    1
 -2       212      2043      2550      2658
 -1      7132    3    0    1
 -2       217       212      2550      2658
 -1      7133    3    0    1
 -2       212      1046      1295      2658
 -1      7134    3    0    1
 -2      1295      1046      2380      2658
 -1      7135    3    0    1
 -2      1295      2380      2572      2658
 -1      7136    3    0    1
 -2      2043      1295      2572      2658
 -1      7137    3    0    1
 -2       212      1295      2043      2658
 -1      7138    3    0    1
 -2      1634      2189      2639      2659
 -1      7139    3    0    1
 -2      1394       325      2639      2659
 -1      7140    3    0    1
 -2      1584      2018      2218      2660
 -1      7141    3    0    1
 -2      1881      2018      2582      2660
 -1      7142    3    0    1
 -2       414      1981      2638      2661
 -1      7143    3    0    1
 -2      1294      1040      2221      2661
 -1      7144    3    0    1
 -2      1981      1294      2221      2661
 -1      7145    3    0    1
 -2       220       414      1970      2661
 -1      7146    3    0    1
 -2      1040       220      1970      2661
 -1      7147    3    0    1
 -2       414      1040      1294      2661
 -1      7148    3    0    1
 -2       334      1294      1981      2661
 -1      7149    3    0    1
 -2       414       334      1981      2661
 -1      7150    3    0    1
 -2       334       414      1294      2661
 -1      7151    3    0    1
 -2       724      1040      2488      2661
 -1      7152    3    0    1
 -2       414       220      1040      2661
 -1      7153    3    0    1
 -2      1250       145      2175      2827
 -1      7154    3    0    1
 -2      1044      2426      2656      2663
 -1      7155    3    0    1
 -2      1003       654      1259      2664
 -1      7156    3    0    1
 -2      1535      1688      2421      2770
 -1      7157    3    0    1
 -2      2240      2421      2474      2770
 -1      7158    3    0    1
 -2      1003       655       654      2664
 -1      7159    3    0    1
 -2       654       655      2115      2664
 -1      7160    3    0    1
 -2      1920      1535      2341      2770
 -1      7161    3    0    1
 -2      1535      2240      2734      2770
 -1      7162    3    0    1
 -2       302      1362      1365      2665
 -1      7163    3    0    1
 -2      1362       401      2473      2665
 -1      7164    3    0    1
 -2       302       401      1362      2665
 -1      7165    3    0    1
 -2      1746      1362      2473      2665
 -1      7166    3    0    1
 -2       387      1695      2096      2666
 -1      7167    3    0    1
 -2      1584      2018      2249      2666
 -1      7168    3    0    1
 -2      1584      1681      2018      2666
 -1      7169    3    0    1
 -2      1903      1584      2249      2666
 -1      7170    3    0    1
 -2      1903       387      2096      2666
 -1      7171    3    0    1
 -2       927       514      2094      2828
 -1      7172    3    0    1
 -2       392      2728      2746      2828
 -1      7173    3    0    1
 -2      1552      1571      2200      2667
 -1      7174    3    0    1
 -2      2746      2728      2749      2828
 -1      7175    3    0    1
 -2      2201       991      2290      2669
 -1      7176    3    0    1
 -2      2179      2201      2290      2669
 -1      7177    3    0    1
 -2      1736       991      2531      2669
 -1      7178    3    0    1
 -2       634      2179       991      2200
 -1      7179    3    0    1
 -2      2179       634       991      2669
 -1      7180    3    0    1
 -2      1247      2316      2531      2669
 -1      7181    3    0    1
 -2       991      1247      2531      2669
 -1      7182    3    0    1
 -2      1247       991      2316      2669
 -1      7183    3    0    1
 -2      2249      2245      2582      2670
 -1      7184    3    0    1
 -2      2249      2582      2660      2670
 -1      7185    3    0    1
 -2       586       965      2660      2670
 -1      7186    3    0    1
 -2      2475       586      2660      2670
 -1      7187    3    0    1
 -2       965      2249      2660      2670
 -1      7188    3    0    1
 -2       298      1368      1383      2671
 -1      7189    3    0    1
 -2       298       299      1368      2671
 -1      7190    3    0    1
 -2      2629       336      2683      2718
 -1      7191    3    0    1
 -2      1652      1594      1824      2672
 -1      7192    3    0    1
 -2      1594      1545      2418      2672
 -1      7193    3    0    1
 -2      2418      1545      2622      2672
 -1      7194    3    0    1
 -2      1545      1594      1652      2672
 -1      7195    3    0    1
 -2      1652      2168      2622      2672
 -1      7196    3    0    1
 -2      1545      1652      2622      2672
 -1      7197    3    0    1
 -2      2136      1642      2254      2673
 -1      7198    3    0    1
 -2      1770      1642      2070      2673
 -1      7199    3    0    1
 -2      2070      1642      2136      2673
 -1      7200    3    0    1
 -2      2254      1364      2487      2674
 -1      7201    3    0    1
 -2      1364       441      2487      2674
 -1      7202    3    0    1
 -2      1364       440       441      2674
 -1      7203    3    0    1
 -2      2197       405      2569      2675
 -1      7204    3    0    1
 -2      2128      2197      2569      2675
 -1      7205    3    0    1
 -2      2569      1795      2601      2675
 -1      7206    3    0    1
 -2      2128      2569      2601      2675
 -1      7207    3    0    1
 -2      1795      2128      2601      2675
 -1      7208    3    0    1
 -2      1925      2521      2557      2676
 -1      7209    3    0    1
 -2      1795      1925      2126      2676
 -1      7210    3    0    1
 -2      1795      2126      2278      2676
 -1      7211    3    0    1
 -2      2126      1925      2212      2676
 -1      7212    3    0    1
 -2      2212      1925      2557      2676
 -1      7213    3    0    1
 -2      2557      2278      1082      2164
 -1      7214    3    0    1
 -2      2278      2557      1082      2676
 -1      7215    3    0    1
 -2      2126      2212      2557      2676
 -1      7216    3    0    1
 -2      1945      1570      2456      2677
 -1      7217    3    0    1
 -2      2409      2452      2539      2677
 -1      7218    3    0    1
 -2      2452      2409      2456      2677
 -1      7219    3    0    1
 -2       269       369      1859      2678
 -1      7220    3    0    1
 -2       369       269      1085      2678
 -1      7221    3    0    1
 -2       291       269      2171      2678
 -1      7222    3    0    1
 -2       555       562      2014      2761
 -1      7223    3    0    1
 -2      1095       291      2171      2678
 -1      7224    3    0    1
 -2      1937       555      2014      2761
 -1      7225    3    0    1
 -2      1213      2178      2467      2761
 -1      7226    3    0    1
 -2      1249      2459      2732      2850
 -1      7227    3    0    1
 -2       269       291      1085      2678
 -1      7228    3    0    1
 -2      1085       291      1095      2678
 -1      7229    3    0    1
 -2      1815      1802      2496      2716
 -1      7230    3    0    1
 -2      2166      1804      2477      2680
 -1      7231    3    0    1
 -2      1269      2166      2477      2680
 -1      7232    3    0    1
 -2      1181       419      2494      2773
 -1      7233    3    0    1
 -2      2351      1949      2481      2716
 -1      7234    3    0    1
 -2      1303       750      2540      2682
 -1      7235    3    0    1
 -2      1055      1303      2571      2682
 -1      7236    3    0    1
 -2      1303      1055       750      2682
 -1      7237    3    0    1
 -2      1054      1304      2078      2682
 -1      7238    3    0    1
 -2       750      1054      2078      2682
 -1      7239    3    0    1
 -2      1054       750      1304      2682
 -1      7240    3    0    1
 -2      1269      2477      2715      2837
 -1      7241    3    0    1
 -2       931       424      2729      2862
 -1      7242    3    0    1
 -2      2205      2259      2311      2684
 -1      7243    3    0    1
 -2      2259      2213      2593      2684
 -1      7244    3    0    1
 -2      1696      2388      2730      2806
 -1      7245    3    0    1
 -2      2388      1682      2730      2806
 -1      7246    3    0    1
 -2      1859       369      2543      2849
 -1      7247    3    0    1
 -2       969       347       979      2685
 -1      7248    3    0    1
 -2      2289      2389      2489      2687
 -1      7249    3    0    1
 -2      1682      2289      2489      2687
 -1      7250    3    0    1
 -2      2308      1921      2398      2688
 -1      7251    3    0    1
 -2       874       856      2398      2688
 -1      7252    3    0    1
 -2      1371      1384      2308      2688
 -1      7253    3    0    1
 -2      1384       856       874      2688
 -1      7254    3    0    1
 -2       856      1384      1371      2688
 -1      7255    3    0    1
 -2      1371      2308      2398      2688
 -1      7256    3    0    1
 -2       856      1371      2398      2688
 -1      7257    3    0    1
 -2      1466      2976      3016      3046
 -1      7258    3    0    1
 -2      2239      1002      1423      1424
 -1      7259    3    0    1
 -2       678      1015      2242      2689
 -1      7260    3    0    1
 -2      1015       678      2131      2689
 -1      7261    3    0    1
 -2      2131       678      2242      2689
 -1      7262    3    0    1
 -2      1410      1409      3087      1491
 -1      7263    3    0    1
 -2      2144      1869      2289      2690
 -1      7264    3    0    1
 -2        24       396      2144      2690
 -1      7265    3    0    1
 -2        24      2144      2289      2690
 -1      7266    3    0    1
 -2      1869      2069      2289      2690
 -1      7267    3    0    1
 -2       396        24      2069      2690
 -1      7268    3    0    1
 -2      2069        24      2289      2690
 -1      7269    3    0    1
 -2      1669       198      2743      2833
 -1      7270    3    0    1
 -2       198      1669      2561      2833
 -1      7271    3    0    1
 -2      2050      2004      2391      2691
 -1      7272    3    0    1
 -2        62      2050      2391      2691
 -1      7273    3    0    1
 -2      2004      1823      2110      2691
 -1      7274    3    0    1
 -2      1823      2004      2050      2691
 -1      7275    3    0    1
 -2        62       937      1823      2691
 -1      7276    3    0    1
 -2        62      1823      2050      2691
 -1      7277    3    0    1
 -2      1556      1674      2288      2692
 -1      7278    3    0    1
 -2      2101       330      2579      2744
 -1      7279    3    0    1
 -2       330       435      2579      2744
 -1      7280    3    0    1
 -2      1395      2101      2621      2744
 -1      7281    3    0    1
 -2       520       519      2191      2694
 -1      7282    3    0    1
 -2       519      2169      2191      2694
 -1      7283    3    0    1
 -2       519      1605      2169      2694
 -1      7284    3    0    1
 -2       519       520       930      2694
 -1      7285    3    0    1
 -2      1605       519       930      2694
 -1      7286    3    0    1
 -2       519      1605       930       929
 -1      7287    3    0    1
 -2       954        85      2238      2695
 -1      7288    3    0    1
 -2       977      2442      2615      2708
 -1      7289    3    0    1
 -2       945       366       954      2695
 -1      7290    3    0    1
 -2       366        85       954      2695
 -1      7291    3    0    1
 -2       975       603      2450      2842
 -1      7292    3    0    1
 -2      2352      2547      2693      2836
 -1      7293    3    0    1
 -2      2547      1804      2628      2836
 -1      7294    3    0    1
 -2      2547      2628      2693      2836
 -1      7295    3    0    1
 -2      2262      2477      2547      2836
 -1      7296    3    0    1
 -2      2889      2834      2890      2942
 -1      7297    3    0    1
 -2      3028      2983      3031      3034
 -1      7298    3    0    1
 -2      1977      2598      2880      2902
 -1      7299    3    0    1
 -2       527       526       934      2995
 -1      7300    3    0    1
 -2      2930      2934      3075      3126
 -1      7301    3    0    1
 -2      1271      2239      1423      3073
 -1      7302    3    0    1
 -2      2042      2697      2889      2890
 -1      7303    3    0    1
 -2      1528      1983      2042      2697
 -1      7304    3    0    1
 -2      1983      1528      2379      2697
 -1      7305    3    0    1
 -2      1528      2042      2696      2697
 -1      7306    3    0    1
 -2      1729      2023      2252      2700
 -1      7307    3    0    1
 -2      2023      1729      2404      2700
 -1      7308    3    0    1
 -2       127       981      2174      2701
 -1      7309    3    0    1
 -2       981       616      2174      2701
 -1      7310    3    0    1
 -2       615       980      2360      2701
 -1      7311    3    0    1
 -2       980       615       981      2701
 -1      7312    3    0    1
 -2       616       615      2360      2701
 -1      7313    3    0    1
 -2       615       616       981      2701
 -1      7314    3    0    1
 -2      1789      2262      2547      2719
 -1      7315    3    0    1
 -2       126       124      1748      2703
 -1      7316    3    0    1
 -2       124       126       980      2703
 -1      7317    3    0    1
 -2       124       980      2701      2703
 -1      7318    3    0    1
 -2      1748       124      2701      2703
 -1      7319    3    0    1
 -2      2735       760      2845      2856
 -1      7320    3    0    1
 -2      1760      1857      2328      2704
 -1      7321    3    0    1
 -2      1532      2195      2328      2704
 -1      7322    3    0    1
 -2      2195      1532      2368      2704
 -1      7323    3    0    1
 -2      1737      2195      2368      2704
 -1      7324    3    0    1
 -2      1674      2230      2355      2721
 -1      7325    3    0    1
 -2       952       560      1911      2705
 -1      7326    3    0    1
 -2       560      1215      1659      2705
 -1      7327    3    0    1
 -2      1659      1215      2199      2705
 -1      7328    3    0    1
 -2      1215       939      2199      2705
 -1      7329    3    0    1
 -2      2083       534      2318      2705
 -1      7330    3    0    1
 -2       939      2083      2199      2705
 -1      7331    3    0    1
 -2       939       534      2083      2705
 -1      7332    3    0    1
 -2       560       939      1215      2705
 -1      7333    3    0    1
 -2      1696      1674      2599      2707
 -1      7334    3    0    1
 -2       560       534       939      2705
 -1      7335    3    0    1
 -2        85       366      1202      2706
 -1      7336    3    0    1
 -2       534       560      1202      2706
 -1      7337    3    0    1
 -2      1238      2387      2616      2708
 -1      7338    3    0    1
 -2       608      1238      2616      2708
 -1      7339    3    0    1
 -2      1238       608      2387      2708
 -1      7340    3    0    1
 -2       606       608      2616      2708
 -1      7341    3    0    1
 -2      2323       606      2616      2708
 -1      7342    3    0    1
 -2       977       606      1237      2708
 -1      7343    3    0    1
 -2      1237       606      2323      2708
 -1      7344    3    0    1
 -2      3074      1473      2960      3119
 -1      7345    3    0    1
 -2      1454      1513      3021      3052
 -1      7346    3    0    1
 -2      1136      1913      2267      2710
 -1      7347    3    0    1
 -2       317       301      2433      2710
 -1      7348    3    0    1
 -2      1109      1136      2267      2710
 -1      7349    3    0    1
 -2      1136       301       317      2710
 -1      7350    3    0    1
 -2       301      1136      1109      2710
 -1      7351    3    0    1
 -2      1109      2267      2433      2710
 -1      7352    3    0    1
 -2       301      1109      2433      2710
 -1      7353    3    0    1
 -2      1689      1664      1714      2711
 -1      7354    3    0    1
 -2      1714      1664      1754      2711
 -1      7355    3    0    1
 -2      1689      1714      1754      2711
 -1      7356    3    0    1
 -2      1693       382      2274      2712
 -1      7357    3    0    1
 -2       382      1693      2135      2712
 -1      7358    3    0    1
 -2        77       382      2135      2712
 -1      7359    3    0    1
 -2      1576        77      2135      2712
 -1      7360    3    0    1
 -2        77      1576      2336      2712
 -1      7361    3    0    1
 -2      2293        77      2336      2712
 -1      7362    3    0    1
 -2       382        77      2293      2712
 -1      7363    3    0    1
 -2      1664      2337      2711      2713
 -1      7364    3    0    1
 -2      2337      1718      2711      2713
 -1      7365    3    0    1
 -2       568      1798      2339      2714
 -1      7366    3    0    1
 -2       591       568      2339      2714
 -1      7367    3    0    1
 -2       568       591      1798      2714
 -1      7368    3    0    1
 -2       591       967      1798      2714
 -1      7369    3    0    1
 -2      1798       967      2017      2714
 -1      7370    3    0    1
 -2       967      1953      2017      2714
 -1      7371    3    0    1
 -2       967       591      1953      2714
 -1      7372    3    0    1
 -2      1786      2243      2264      2838
 -1      7373    3    0    1
 -2       640      2055      2092      2840
 -1      7374    3    0    1
 -2      2243       610      2450      2838
 -1      7375    3    0    1
 -2       333      1269      2477      2715
 -1      7376    3    0    1
 -2      1555      2351      2481      2716
 -1      7377    3    0    1
 -2      1555      1907      2351      2716
 -1      7378    3    0    1
 -2      1815      1555      2481      2716
 -1      7379    3    0    1
 -2      2161      1750      2610      2722
 -1      7380    3    0    1
 -2       863       896      2161      2722
 -1      7381    3    0    1
 -2       873       852      2288      2717
 -1      7382    3    0    1
 -2      2563      2620      2610      1653
 -1      7383    3    0    1
 -2       852      1383      1368      2717
 -1      7384    3    0    1
 -2      2288      1674      2671      2717
 -1      7385    3    0    1
 -2      1383      2288      2671      2717
 -1      7386    3    0    1
 -2      1383       873      2288      2717
 -1      7387    3    0    1
 -2      1383       852       873      2717
 -1      7388    3    0    1
 -2      1998      1204      2030      2778
 -1      7389    3    0    1
 -2       126       336       968      2718
 -1      7390    3    0    1
 -2      2078       750      2682      2726
 -1      7391    3    0    1
 -2       126       968       980      2718
 -1      7392    3    0    1
 -2      1315      2261      2390      2726
 -1      7393    3    0    1
 -2       750      2540      2682      2726
 -1      7394    3    0    1
 -2      2315       975      2450      2842
 -1      7395    3    0    1
 -2      1532      2129      2325      2720
 -1      7396    3    0    1
 -2      1532      1868      2707      2720
 -1      7397    3    0    1
 -2      2129      1532      2707      2720
 -1      7398    3    0    1
 -2      1868      1959      2230      2721
 -1      7399    3    0    1
 -2      2707      2599      2720      2721
 -1      7400    3    0    1
 -2      1868      2707      2720      2721
 -1      7401    3    0    1
 -2      1857      1868      2720      2721
 -1      7402    3    0    1
 -2      1868      1857      1959      2721
 -1      7403    3    0    1
 -2      1687      1674      2717      2721
 -1      7404    3    0    1
 -2      1674      1687      2692      2721
 -1      7405    3    0    1
 -2      1868      1674      2707      2721
 -1      7406    3    0    1
 -2      1674      1868      2230      2721
 -1      7407    3    0    1
 -2      2117      1713      2427      2723
 -1      7408    3    0    1
 -2      1713      2058      2326      2723
 -1      7409    3    0    1
 -2      1713      2326      2427      2723
 -1      7410    3    0    1
 -2       906      1989      2544      2723
 -1      7411    3    0    1
 -2      1989       906      2058      2723
 -1      7412    3    0    1
 -2       906       398      2427      2723
 -1      7413    3    0    1
 -2      2326       906      2427      2723
 -1      7414    3    0    1
 -2      1571      2294      2747      2763
 -1      7415    3    0    1
 -2        14      2009      2020      2733
 -1      7416    3    0    1
 -2      2747      2763      2842      2848
 -1      7417    3    0    1
 -2      2547      2352      2719      2836
 -1      7418    3    0    1
 -2      1054       750      2078      2726
 -1      7419    3    0    1
 -2      1315      1054      2078      2726
 -1      7420    3    0    1
 -2       775       750      1315      2726
 -1      7421    3    0    1
 -2       750      1054      1315      2726
 -1      7422    3    0    1
 -2       138      2425      2640      2727
 -1      7423    3    0    1
 -2       138       141      2425      2727
 -1      7424    3    0    1
 -2       141       138      1648      2727
 -1      7425    3    0    1
 -2      1648       138      2640      2727
 -1      7426    3    0    1
 -2      2728      2129      2746      2841
 -1      7427    3    0    1
 -2      2692      2388      2730      2868
 -1      7428    3    0    1
 -2       603       975      2763      2842
 -1      7429    3    0    1
 -2       369       267      2543      2849
 -1      7430    3    0    1
 -2       365       350      2571      2843
 -1      7431    3    0    1
 -2      1635      1588      2612      2811
 -1      7432    3    0    1
 -2       520       931       942      2729
 -1      7433    3    0    1
 -2       931        66       942      2729
 -1      7434    3    0    1
 -2       543       520       942      2729
 -1      7435    3    0    1
 -2       424        66       931      2729
 -1      7436    3    0    1
 -2      2612       413      2627      2861
 -1      7437    3    0    1
 -2       914      1180       486      2973
 -1      7438    3    0    1
 -2       623       624       630      3050
 -1      7439    3    0    1
 -2       428      1456      1492      1507
 -1      7440    3    0    1
 -2      1737      2754      2816      2867
 -1      7441    3    0    1
 -2      3073      1848      2689      2891
 -1      7442    3    0    1
 -2       419      1726      2653      2823
 -1      7443    3    0    1
 -2      3075      2451      3084      3086
 -1      7444    3    0    1
 -2       352      1445      3112      3132
 -1      7445    3    0    1
 -2      2556       413      2633      2861
 -1      7446    3    0    1
 -2      2834      2889      2904      2942
 -1      7447    3    0    1
 -2      1305       358      1865      2741
 -1      7448    3    0    1
 -2      2572      1036      2590      2844
 -1      7449    3    0    1
 -2       350       365      1060      2735
 -1      7450    3    0    1
 -2       514      1194      2428      2846
 -1      7451    3    0    1
 -2      1057       350      1060      2735
 -1      7452    3    0    1
 -2       759       760      1597      2735
 -1      7453    3    0    1
 -2       760       759      1060      2735
 -1      7454    3    0    1
 -2      2471      2545      2607      2767
 -1      7455    3    0    1
 -2       759      1057      1060      2735
 -1      7456    3    0    1
 -2      1305      1865      1873      2741
 -1      7457    3    0    1
 -2      2741       412      2851      2852
 -1      7458    3    0    1
 -2      1003      1248      2769      2854
 -1      7459    3    0    1
 -2       579      2170      2296      2789
 -1      7460    3    0    1
 -2      1974       760      2740      2845
 -1      7461    3    0    1
 -2      2224      2075      2284      2815
 -1      7462    3    0    1
 -2      2142      1079      2623      2814
 -1      7463    3    0    1
 -2      1033       201      1036      2738
 -1      7464    3    0    1
 -2       404       273      2142      2814
 -1      7465    3    0    1
 -2      2075      2224      2772      2815
 -1      7466    3    0    1
 -2       353      1033      2413      2738
 -1      7467    3    0    1
 -2       201       353      2413      2738
 -1      7468    3    0    1
 -2       353       201      1033      2738
 -1      7469    3    0    1
 -2       760      1060      1070      2740
 -1      7470    3    0    1
 -2       378       392      2748      2754
 -1      7471    3    0    1
 -2       267      2463      2543      2849
 -1      7472    3    0    1
 -2      2376      1873      2438      2741
 -1      7473    3    0    1
 -2       412      2376      2438      2741
 -1      7474    3    0    1
 -2       412       358      1305      2741
 -1      7475    3    0    1
 -2       412      1305      2376      2741
 -1      7476    3    0    1
 -2      1982      1843      2376      2742
 -1      7477    3    0    1
 -2      1968      2877      2912      3000
 -1      7478    3    0    1
 -2      2042      2364      2697      2834
 -1      7479    3    0    1
 -2      1436      1414      1453      3013
 -1      7480    3    0    1
 -2      2042      1968      2364      2878
 -1      7481    3    0    1
 -2      1395       330      2101      2744
 -1      7482    3    0    1
 -2      1135       330      1395      2744
 -1      7483    3    0    1
 -2      1194      2233      2428      2745
 -1      7484    3    0    1
 -2      1698      1194      2428      2745
 -1      7485    3    0    1
 -2      1194       393      2233      2745
 -1      7486    3    0    1
 -2      1194      1698      2480      2745
 -1      7487    3    0    1
 -2       393      1194      2480      2745
 -1      7488    3    0    1
 -2      1097       290      2343      2750
 -1      7489    3    0    1
 -2       292      1853      2220      2750
 -1      7490    3    0    1
 -2       232      1057      2538      2847
 -1      7491    3    0    1
 -2       290       292      2151      2750
 -1      7492    3    0    1
 -2       292      1097      1853      2750
 -1      7493    3    0    1
 -2      2436      2476      2641      2747
 -1      7494    3    0    1
 -2      2476      1552      2641      2747
 -1      7495    3    0    1
 -2      2641      1552      2667      2747
 -1      7496    3    0    1
 -2      1571      2294      2667      2747
 -1      7497    3    0    1
 -2      1552      1571      2667      2747
 -1      7498    3    0    1
 -2      2548      1045      2638      2764
 -1      7499    3    0    1
 -2      1878      1582      2662      2749
 -1      7500    3    0    1
 -2      1698      1971      2428      2749
 -1      7501    3    0    1
 -2      1582      1878      1971      2749
 -1      7502    3    0    1
 -2      1971      1878      2428      2749
 -1      7503    3    0    1
 -2       350       365      2735      2847
 -1      7504    3    0    1
 -2      2435      1020      2530      2751
 -1      7505    3    0    1
 -2      2605       688      2394      2751
 -1      7506    3    0    1
 -2       688      2605      2394      1021
 -1      7507    3    0    1
 -2       687       688      1020      2751
 -1      7508    3    0    1
 -2      2394       687      2529      2751
 -1      7509    3    0    1
 -2      1019       687      1020      2751
 -1      7510    3    0    1
 -2        50       924      2657      2784
 -1      7511    3    0    1
 -2       687      1019      2529      2751
 -1      7512    3    0    1
 -2       173      1020      2435      2751
 -1      7513    3    0    1
 -2       173      1019      1020      2751
 -1      7514    3    0    1
 -2       178       173      2435      2751
 -1      7515    3    0    1
 -2       173       178      1019      2751
 -1      7516    3    0    1
 -2      1019       178      2435      2751
 -1      7517    3    0    1
 -2      1377       310      2568      2752
 -1      7518    3    0    1
 -2      1145       310      1377      2752
 -1      7519    3    0    1
 -2      1354      1672      2502      2776
 -1      7520    3    0    1
 -2      2275       248      2510      2753
 -1      7521    3    0    1
 -2      1102      1354      2502      2776
 -1      7522    3    0    1
 -2      1680       842      1794      2776
 -1      7523    3    0    1
 -2       842       841      1794      2776
 -1      7524    3    0    1
 -2      1068       250      2540      2753
 -1      7525    3    0    1
 -2       248      1068      2510      2753
 -1      7526    3    0    1
 -2        65      2225      2514      2778
 -1      7527    3    0    1
 -2      1680      1794      2502      2776
 -1      7528    3    0    1
 -2       248       250      1068      2753
 -1      7529    3    0    1
 -2      2272      1191      2684      2755
 -1      7530    3    0    1
 -2      2684      1191      2748      2755
 -1      7531    3    0    1
 -2       378      2272      1191      2303
 -1      7532    3    0    1
 -2      2272       378      1191      2755
 -1      7533    3    0    1
 -2      2529      1007      2533      2756
 -1      7534    3    0    1
 -2      1007      2414      2533      2756
 -1      7535    3    0    1
 -2      1019      1007      2529      2756
 -1      7536    3    0    1
 -2      1007      1019      2277      2756
 -1      7537    3    0    1
 -2      2277      1019      2529      2756
 -1      7538    3    0    1
 -2       161      2273      2457      2756
 -1      7539    3    0    1
 -2       161       324      2273      2756
 -1      7540    3    0    1
 -2      2285      2024      2407      2757
 -1      7541    3    0    1
 -2      2166      2024      2472      2757
 -1      7542    3    0    1
 -2      2024      2166      2407      2757
 -1      7543    3    0    1
 -2        53       930      2534      2803
 -1      7544    3    0    1
 -2      2210      2158      2623      2793
 -1      7545    3    0    1
 -2       213       413      2627      2758
 -1      7546    3    0    1
 -2       413       213      1291      2758
 -1      7547    3    0    1
 -2      1004      1618      2184      2759
 -1      7548    3    0    1
 -2      1000      1004      2184      2759
 -1      7549    3    0    1
 -2       156       329      1004      2759
 -1      7550    3    0    1
 -2      1004       329      1618      2759
 -1      7551    3    0    1
 -2      2344      1085      2678      2760
 -1      7552    3    0    1
 -2      1249       989      2459      2850
 -1      7553    3    0    1
 -2       807      2167      2581      2760
 -1      7554    3    0    1
 -2      1766       807      2581      2760
 -1      7555    3    0    1
 -2       807       808      2167      2760
 -1      7556    3    0    1
 -2      2167       808      2344      2760
 -1      7557    3    0    1
 -2       808      1085      2344      2760
 -1      7558    3    0    1
 -2      1085       808       807      2760
 -1      7559    3    0    1
 -2       267      1085      1328      2760
 -1      7560    3    0    1
 -2       750      1054      3026      3027
 -1      7561    3    0    1
 -2       267       369      1085      2760
 -1      7562    3    0    1
 -2       562       953      1763      2761
 -1      7563    3    0    1
 -2      1763       953      2467      2761
 -1      7564    3    0    1
 -2      1054      2261      2892      1437
 -1      7565    3    0    1
 -2      2920      1432      3082      3124
 -1      7566    3    0    1
 -2      1597      1058      2766      2851
 -1      7567    3    0    1
 -2      1058       759      2766      2851
 -1      7568    3    0    1
 -2      2478      2374      2765      2853
 -1      7569    3    0    1
 -2      1970      1980      2741      2851
 -1      7570    3    0    1
 -2      1845      3067      2956      2982
 -1      7571    3    0    1
 -2      2373      2541      2897      2938
 -1      7572    3    0    1
 -2      1980       412      2741      2852
 -1      7573    3    0    1
 -2      1058      2548      2851      2852
 -1      7574    3    0    1
 -2      2164       802      2871      2874
 -1      7575    3    0    1
 -2       340      2353      2727      2854
 -1      7576    3    0    1
 -2      1648       340      2727      2854
 -1      7577    3    0    1
 -2      2639      1702      2659      2825
 -1      7578    3    0    1
 -2      2507      2422      2545      2767
 -1      7579    3    0    1
 -2      2422      1832      2545      2767
 -1      7580    3    0    1
 -2      1685      1832      2422      2767
 -1      7581    3    0    1
 -2      1832      1685      1991      2767
 -1      7582    3    0    1
 -2      2545      2471      2573      2767
 -1      7583    3    0    1
 -2      2507      2545      2573      2767
 -1      7584    3    0    1
 -2      1832      1991      2607      2767
 -1      7585    3    0    1
 -2      2545      1832      2607      2767
 -1      7586    3    0    1
 -2      2570       373      2797      2859
 -1      7587    3    0    1
 -2       490      2773      2779      2855
 -1      7588    3    0    1
 -2       630       655      1248      2769
 -1      7589    3    0    1
 -2       655      1003      1248      2769
 -1      7590    3    0    1
 -2      1688      1920      2341      2770
 -1      7591    3    0    1
 -2      2202      1535      2490      2770
 -1      7592    3    0    1
 -2      1804      2224      2628      2772
 -1      7593    3    0    1
 -2      2120       675      2162      2837
 -1      7594    3    0    1
 -2      1535      1734      2341      2770
 -1      7595    3    0    1
 -2      1737      1866      2123      2816
 -1      7596    3    0    1
 -2      1620      1734      2202      2771
 -1      7597    3    0    1
 -2      1734      2341      2770      2771
 -1      7598    3    0    1
 -2      1535      1734      2770      2771
 -1      7599    3    0    1
 -2      2202      1535      2770      2771
 -1      7600    3    0    1
 -2      1734      1535      2202      2771
 -1      7601    3    0    1
 -2      2075      2224      2472      2772
 -1      7602    3    0    1
 -2      2477      2680      2715      2837
 -1      7603    3    0    1
 -2      1756      1269      2460      2837
 -1      7604    3    0    1
 -2      2166      2680      2757      2772
 -1      7605    3    0    1
 -2      2472      2166      2757      2772
 -1      7606    3    0    1
 -2      2166      1804      2680      2772
 -1      7607    3    0    1
 -2      2224      1804      2472      2772
 -1      7608    3    0    1
 -2      1804      2166      2472      2772
 -1      7609    3    0    1
 -2      1659       951      2822      2909
 -1      7610    3    0    1
 -2      2822      1227      2920      3124
 -1      7611    3    0    1
 -2      2900      2910      3068      3077
 -1      7612    3    0    1
 -2      1060       250      1070      2775
 -1      7613    3    0    1
 -2       234       250      1060      2775
 -1      7614    3    0    1
 -2       841      1102      2502      2776
 -1      7615    3    0    1
 -2       841      1354      1102      2776
 -1      7616    3    0    1
 -2      1068      1314      2510      2777
 -1      7617    3    0    1
 -2      1314      2185      2510      2777
 -1      7618    3    0    1
 -2       775      2540      2726      2777
 -1      7619    3    0    1
 -2       775      1068      2540      2777
 -1      7620    3    0    1
 -2      2390       775      2726      2777
 -1      7621    3    0    1
 -2      1314      1068       775      2777
 -1      7622    3    0    1
 -2      1314       774      2185      2777
 -1      7623    3    0    1
 -2      2185       774      2390      2777
 -1      7624    3    0    1
 -2      1314       775       774      2777
 -1      7625    3    0    1
 -2       774       775      2390      2777
 -1      7626    3    0    1
 -2      1637       938      2514      2778
 -1      7627    3    0    1
 -2       425      1998      2406      2778
 -1      7628    3    0    1
 -2       425      1204      1998      2778
 -1      7629    3    0    1
 -2       938        68      2514      2778
 -1      7630    3    0    1
 -2        68       938      1204      2778
 -1      7631    3    0    1
 -2       425        65      1204      2778
 -1      7632    3    0    1
 -2      1757      1657      1923      2780
 -1      7633    3    0    1
 -2      1740      1757      1923      2780
 -1      7634    3    0    1
 -2      1657      1537      1923      2780
 -1      7635    3    0    1
 -2      1740      1537      2354      2780
 -1      7636    3    0    1
 -2      2354      1537      2521      2780
 -1      7637    3    0    1
 -2      1615      1740      2310      2780
 -1      7638    3    0    1
 -2      2310      1740      2354      2780
 -1      7639    3    0    1
 -2      1537      1740      1923      2780
 -1      7640    3    0    1
 -2      2413       199      2611      2781
 -1      7641    3    0    1
 -2       179      2605      2611      2781
 -1      7642    3    0    1
 -2       199       179      2611      2781
 -1      7643    3    0    1
 -2       353       199      2413      2781
 -1      7644    3    0    1
 -2       199       353      1033      2781
 -1      7645    3    0    1
 -2      1033       353      2413      2781
 -1      7646    3    0    1
 -2      1021       179      1033      2781
 -1      7647    3    0    1
 -2       179       199      1033      2781
 -1      7648    3    0    1
 -2       651      1000      2244      2782
 -1      7649    3    0    1
 -2      2244      1000      2393      2782
 -1      7650    3    0    1
 -2      2241      2244      2393      2782
 -1      7651    3    0    1
 -2      1612      2241      2251      2782
 -1      7652    3    0    1
 -2       323      2305      2529      2783
 -1      7653    3    0    1
 -2       323       178      2305      2783
 -1      7654    3    0    1
 -2       178       323      1019      2783
 -1      7655    3    0    1
 -2      1019       323      2529      2783
 -1      7656    3    0    1
 -2       394        50      2657      2784
 -1      7657    3    0    1
 -2      2233       394      2657      2784
 -1      7658    3    0    1
 -2      2205        53      2534      2784
 -1      7659    3    0    1
 -2        53      1605      2534      2784
 -1      7660    3    0    1
 -2        53        50      1605      2784
 -1      7661    3    0    1
 -2        50        53       924      2784
 -1      7662    3    0    1
 -2      1525      1588      2493      2863
 -1      7663    3    0    1
 -2      1629       372      2609      2810
 -1      7664    3    0    1
 -2      2356      2228      2493      2863
 -1      7665    3    0    1
 -2       372        66      2609      2810
 -1      7666    3    0    1
 -2      2182      2637      2681      2819
 -1      7667    3    0    1
 -2      1604      2182      2679      2819
 -1      7668    3    0    1
 -2       191      2456      2679      2819
 -1      7669    3    0    1
 -2      2677      1604      2679      2819
 -1      7670    3    0    1
 -2      2637       191      2679      2819
 -1      7671    3    0    1
 -2       418      2798      2860      2866
 -1      7672    3    0    1
 -2      1536      1522      2515      2873
 -1      7673    3    0    1
 -2       357      1769      2374      2788
 -1      7674    3    0    1
 -2      1769      1029      2478      2788
 -1      7675    3    0    1
 -2      2374      1769      2478      2788
 -1      7676    3    0    1
 -2      2170      2223      2602      2789
 -1      7677    3    0    1
 -2       962      2629      2683      2789
 -1      7678    3    0    1
 -2      2264      2223      2683      2789
 -1      7679    3    0    1
 -2       579       962      2683      2789
 -1      7680    3    0    1
 -2      2223       579      2683      2789
 -1      7681    3    0    1
 -2      1522      2870      2873      2875
 -1      7682    3    0    1
 -2      2035      2079      2859      2871
 -1      7683    3    0    1
 -2      2053      2553      2587      2790
 -1      7684    3    0    1
 -2       332      1014      2203      2791
 -1      7685    3    0    1
 -2      2203      1014      2407      2791
 -1      7686    3    0    1
 -2      2285      2203      2407      2791
 -1      7687    3    0    1
 -2      2145      2203      2285      2791
 -1      7688    3    0    1
 -2      1043      1291      2758      2792
 -1      7689    3    0    1
 -2      1291      1043      2551      2792
 -1      7690    3    0    1
 -2      2551      1043      2758      2792
 -1      7691    3    0    1
 -2       413      1291      1847      2792
 -1      7692    3    0    1
 -2      1084      2255      2595      2793
 -1      7693    3    0    1
 -2       272      1084      2210      2793
 -1      7694    3    0    1
 -2      2210      1084      2595      2793
 -1      7695    3    0    1
 -2      1986       282      1996      2794
 -1      7696    3    0    1
 -2      1996       282      2082      2794
 -1      7697    3    0    1
 -2      1986      1996      2082      2794
 -1      7698    3    0    1
 -2      1986      2176      2367      2794
 -1      7699    3    0    1
 -2      2330      1928      2340      2795
 -1      7700    3    0    1
 -2      1580      1527      2132      2795
 -1      7701    3    0    1
 -2      1668      2292      2564      2795
 -1      7702    3    0    1
 -2      1668      1626      2003      2795
 -1      7703    3    0    1
 -2      1626      1527      2003      2795
 -1      7704    3    0    1
 -2      2132      2038      2292      2795
 -1      7705    3    0    1
 -2      2292      2038      2564      2795
 -1      7706    3    0    1
 -2      1527      1580      2003      2795
 -1      7707    3    0    1
 -2      1580      2132      2292      2795
 -1      7708    3    0    1
 -2      1580      1668      2003      2795
 -1      7709    3    0    1
 -2      1668      1580      2292      2795
 -1      7710    3    0    1
 -2      1083      1072      2635      2797
 -1      7711    3    0    1
 -2      2570      1083      2635      2797
 -1      7712    3    0    1
 -2       908      1817      1963      2798
 -1      7713    3    0    1
 -2       908       418      1817      2798
 -1      7714    3    0    1
 -2       736       759      2766      2824
 -1      7715    3    0    1
 -2      1046       736      2658      2824
 -1      7716    3    0    1
 -2      2538      1046      2658      2824
 -1      7717    3    0    1
 -2       908      1963      2215      2798
 -1      7718    3    0    1
 -2      1057      1046      2538      2824
 -1      7719    3    0    1
 -2      1057      2538      2766      2824
 -1      7720    3    0    1
 -2      2556      2419      2785      2861
 -1      7721    3    0    1
 -2      2556      2612      2809      2861
 -1      7722    3    0    1
 -2      2311      2259      2593      2805
 -1      7723    3    0    1
 -2      2259      2311      2684      2805
 -1      7724    3    0    1
 -2       319      1390      2576      2800
 -1      7725    3    0    1
 -2       312      1390       319      2800
 -1      7726    3    0    1
 -2       344      1237      2640      2801
 -1      7727    3    0    1
 -2      1237       123      2442      2801
 -1      7728    3    0    1
 -2      2323      1237      2442      2801
 -1      7729    3    0    1
 -2      1237      2508      2640      2801
 -1      7730    3    0    1
 -2      1237      2323      2508      2801
 -1      7731    3    0    1
 -2       344       123      1237      2801
 -1      7732    3    0    1
 -2      1043      2551      2758      2802
 -1      7733    3    0    1
 -2      2580      2419      2758      2802
 -1      7734    3    0    1
 -2      2551      1725      2580      2802
 -1      7735    3    0    1
 -2      2551      2580      2758      2802
 -1      7736    3    0    1
 -2       336      2718      2799      2804
 -1      7737    3    0    1
 -2       968       336      2799      2804
 -1      7738    3    0    1
 -2       336       968      2718      2804
 -1      7739    3    0    1
 -2       980      2360      2703      2804
 -1      7740    3    0    1
 -2       980       968      2360      2804
 -1      7741    3    0    1
 -2       592       968      2630      2804
 -1      7742    3    0    1
 -2       968       592      2360      2804
 -1      7743    3    0    1
 -2      2360       592      2630      2804
 -1      7744    3    0    1
 -2      2272      2593      2684      2805
 -1      7745    3    0    1
 -2      2272      2303      2593      2805
 -1      7746    3    0    1
 -2      1191      2272      2684      2805
 -1      7747    3    0    1
 -2      2272      1191      2303      2805
 -1      7748    3    0    1
 -2      2388      1582      2662      2806
 -1      7749    3    0    1
 -2      2175       145      2395      2827
 -1      7750    3    0    1
 -2      1682      2388      2489      2806
 -1      7751    3    0    1
 -2      1682      2489      2662      2806
 -1      7752    3    0    1
 -2      2489      2388      2662      2806
 -1      7753    3    0    1
 -2      2562      1073      2606      2807
 -1      7754    3    0    1
 -2      1328      2463      2760      2807
 -1      7755    3    0    1
 -2       784       807      1766      2807
 -1      7756    3    0    1
 -2       807      1328      2760      2807
 -1      7757    3    0    1
 -2      1766       807      2760      2807
 -1      7758    3    0    1
 -2       807       784      1073      2807
 -1      7759    3    0    1
 -2       807      1073      1328      2807
 -1      7760    3    0    1
 -2      2605       174      2611      2808
 -1      7761    3    0    1
 -2      1814      1016      2434      2808
 -1      7762    3    0    1
 -2      2434      1016      2466      2808
 -1      7763    3    0    1
 -2       174       177      1016      2808
 -1      7764    3    0    1
 -2       174      1016      1270      2808
 -1      7765    3    0    1
 -2      1270      1016      1814      2808
 -1      7766    3    0    1
 -2       174      1270      1814      2808
 -1      7767    3    0    1
 -2      2155      1546      2173      2809
 -1      7768    3    0    1
 -2      1540      2419      2785      2809
 -1      7769    3    0    1
 -2      2419      1540      2610      2809
 -1      7770    3    0    1
 -2      1750      2010      2610      2809
 -1      7771    3    0    1
 -2      1750      1546      2010      2809
 -1      7772    3    0    1
 -2      1540      1750      2610      2809
 -1      7773    3    0    1
 -2      2556      1546      2785      2809
 -1      7774    3    0    1
 -2      2173      1546      2556      2809
 -1      7775    3    0    1
 -2      1546      1540      2785      2809
 -1      7776    3    0    1
 -2      1540      1546      1750      2809
 -1      7777    3    0    1
 -2      2006      1034      2530      2864
 -1      7778    3    0    1
 -2       913      2000      2073      2812
 -1      7779    3    0    1
 -2      2153       490      2614      2812
 -1      7780    3    0    1
 -2      1181       913       483      2812
 -1      7781    3    0    1
 -2       483       913      2614      2812
 -1      7782    3    0    1
 -2      1181       483       490      2812
 -1      7783    3    0    1
 -2       490       483      2614      2812
 -1      7784    3    0    1
 -2       490      2153      2779      2812
 -1      7785    3    0    1
 -2      2494       490      2779      2812
 -1      7786    3    0    1
 -2       203       197      2626      2813
 -1      7787    3    0    1
 -2       197       203      1034      2813
 -1      7788    3    0    1
 -2       203      2145      2554      2813
 -1      7789    3    0    1
 -2      2145       203      2284      2813
 -1      7790    3    0    1
 -2      2284       203      2626      2813
 -1      7791    3    0    1
 -2      1034       203      2554      2813
 -1      7792    3    0    1
 -2      1032      2517      2588      2815
 -1      7793    3    0    1
 -2      1032      2224      2517      2815
 -1      7794    3    0    1
 -2      2628      2224      2650      2815
 -1      7795    3    0    1
 -2      2588      2628      2650      2815
 -1      7796    3    0    1
 -2      2517      2224      2284      2815
 -1      7797    3    0    1
 -2      2224      2517      2284       706
 -1      7798    3    0    1
 -2      1032      2588      2650      2815
 -1      7799    3    0    1
 -2      2224      1032      2650      2815
 -1      7800    3    0    1
 -2      2599      1696      2841      2868
 -1      7801    3    0    1
 -2      1696      2599      2841      2707
 -1      7802    3    0    1
 -2      1696      2388      2841      2868
 -1      7803    3    0    1
 -2       261      1082      1324      2817
 -1      7804    3    0    1
 -2      1324      1082      2631      2817
 -1      7805    3    0    1
 -2      1324      2011      2216      2817
 -1      7806    3    0    1
 -2       261       265      1082      2817
 -1      7807    3    0    1
 -2      1082       265      2631      2817
 -1      7808    3    0    1
 -2      2011      1324      2516      2817
 -1      7809    3    0    1
 -2      2516      1324      2631      2817
 -1      7810    3    0    1
 -2       261      1324      2583      2817
 -1      7811    3    0    1
 -2      1769       700      2624      2818
 -1      7812    3    0    1
 -2      2624      2535      2786      2818
 -1      7813    3    0    1
 -2      2535      2681      2786      2818
 -1      7814    3    0    1
 -2      1769      2624      2786      2818
 -1      7815    3    0    1
 -2       654       679      2434      2820
 -1      7816    3    0    1
 -2      2131      1002      2239      2820
 -1      7817    3    0    1
 -2      1002      2115      2239      2820
 -1      7818    3    0    1
 -2      1271      1002      2131      2820
 -1      7819    3    0    1
 -2       679      1271      2131      2820
 -1      7820    3    0    1
 -2       654      1002      1271      2820
 -1      7821    3    0    1
 -2       679       654      1271      2820
 -1      7822    3    0    1
 -2      2128      2567      2644      2821
 -1      7823    3    0    1
 -2      2567      1313      2644      2821
 -1      7824    3    0    1
 -2      2128       405      2675      2821
 -1      7825    3    0    1
 -2       405      1625      2643      2821
 -1      7826    3    0    1
 -2       405      2128      2197      2821
 -1      7827    3    0    1
 -2      1625       405      2197      2821
 -1      7828    3    0    1
 -2      1313      2567      2675      2821
 -1      7829    3    0    1
 -2       405      1313      2675      2821
 -1      7830    3    0    1
 -2      1293      2377      2924      2949
 -1      7831    3    0    1
 -2      2636       925      1421      3120
 -1      7832    3    0    1
 -2      2346      2883      2884      2916
 -1      7833    3    0    1
 -2      2779      2153      2855      2858
 -1      7834    3    0    1
 -2      1963       917      2215      2823
 -1      7835    3    0    1
 -2      1963      2215      2798      2823
 -1      7836    3    0    1
 -2       940      2137      2609      2862
 -1      7837    3    0    1
 -2       759       736      1046      2824
 -1      7838    3    0    1
 -2       759      1046      1057      2824
 -1      7839    3    0    1
 -2       872      1144      1134      2825
 -1      7840    3    0    1
 -2      1144      2168      2639      2825
 -1      7841    3    0    1
 -2       315      1144       325      2825
 -1      7842    3    0    1
 -2      1144       872       883      2825
 -1      7843    3    0    1
 -2      1144       883      2168      2825
 -1      7844    3    0    1
 -2       325      1144      2639      2825
 -1      7845    3    0    1
 -2        24      2144      2655      2826
 -1      7846    3    0    1
 -2      2662      1682      2806      2826
 -1      7847    3    0    1
 -2      1582      2662      2806      2826
 -1      7848    3    0    1
 -2      2144      2289      2489      2826
 -1      7849    3    0    1
 -2      2144        24      2289      2826
 -1      7850    3    0    1
 -2      2655      2489      2662      2826
 -1      7851    3    0    1
 -2      1878      2655      2662      2826
 -1      7852    3    0    1
 -2      2144      2489      2655      2826
 -1      7853    3    0    1
 -2       507      2205      2684      2830
 -1      7854    3    0    1
 -2      1057       350      2735      2847
 -1      7855    3    0    1
 -2       927       392      2746      2828
 -1      7856    3    0    1
 -2       365       350      2843      2847
 -1      7857    3    0    1
 -2      2667      2222      2827      2829
 -1      7858    3    0    1
 -2       514       507      2094      2830
 -1      7859    3    0    1
 -2      1191      2684      2748      2830
 -1      7860    3    0    1
 -2      2094      1191      2748      2830
 -1      7861    3    0    1
 -2       924       507      2657      2830
 -1      7862    3    0    1
 -2       507       924      2205      2830
 -1      7863    3    0    1
 -2      2205       924      2657      2830
 -1      7864    3    0    1
 -2       616      1864      2578      2831
 -1      7865    3    0    1
 -2       979       969      1965      2831
 -1      7866    3    0    1
 -2       592       615      2360      2831
 -1      7867    3    0    1
 -2      1965       592      2360      2831
 -1      7868    3    0    1
 -2       616       615       982      2831
 -1      7869    3    0    1
 -2       616       982      1864      2831
 -1      7870    3    0    1
 -2      2360       616      2701      2831
 -1      7871    3    0    1
 -2       969       592      1965      2831
 -1      7872    3    0    1
 -2       616      2174      2701      2831
 -1      7873    3    0    1
 -2      2174       616      2578      2831
 -1      7874    3    0    1
 -2       615       969       979      2831
 -1      7875    3    0    1
 -2       615       592       969      2831
 -1      7876    3    0    1
 -2      2247      1774      2561      2833
 -1      7877    3    0    1
 -2      2561      1669      2743      2833
 -1      7878    3    0    1
 -2      2247      2561      2743      2833
 -1      7879    3    0    1
 -2       989      1260      2850      3104
 -1      7880    3    0    1
 -2      1464      1462      1493      3044
 -1      7881    3    0    1
 -2      2921      2886      3099      2997
 -1      7882    3    0    1
 -2      1304      2078      2885      3111
 -1      7883    3    0    1
 -2      2124      1977      2880      2902
 -1      7884    3    0    1
 -2      2477      2262      2680      2836
 -1      7885    3    0    1
 -2      2693      2628      2743      2836
 -1      7886    3    0    1
 -2      2352      2693      2743      2836
 -1      7887    3    0    1
 -2      1804      2477      2680      2836
 -1      7888    3    0    1
 -2      1804      2680      2772      2836
 -1      7889    3    0    1
 -2      2477      1804      2547      2836
 -1      7890    3    0    1
 -2       675      1269      1756      2837
 -1      7891    3    0    1
 -2      2166      2120      2757      2837
 -1      7892    3    0    1
 -2      2680      2166      2757      2837
 -1      7893    3    0    1
 -2       675      2120      2166      2837
 -1      7894    3    0    1
 -2      1269       675      2166      2837
 -1      7895    3    0    1
 -2      2353       995      2727      2840
 -1      7896    3    0    1
 -2      2243       610      2838      2839
 -1      7897    3    0    1
 -2       610      2243      2645      2839
 -1      7898    3    0    1
 -2       995      2425      2727      2840
 -1      7899    3    0    1
 -2       995       640      2425      2840
 -1      7900    3    0    1
 -2      1005       995      2353      2840
 -1      7901    3    0    1
 -2       995      1005      2055      2840
 -1      7902    3    0    1
 -2      2055      1005      2353      2840
 -1      7903    3    0    1
 -2       342      1003      1897      2869
 -1      7904    3    0    1
 -2      2388      1696      2730      2868
 -1      7905    3    0    1
 -2      2129      2325      2720      2841
 -1      7906    3    0    1
 -2      2388      1582      2806      2841
 -1      7907    3    0    1
 -2      1582      2388      2728      2841
 -1      7908    3    0    1
 -2      2707      2129      2720      2841
 -1      7909    3    0    1
 -2      2599      2707      2720      2841
 -1      7910    3    0    1
 -2      1582      2728      2746      2841
 -1      7911    3    0    1
 -2      2129      1696      2746      2841
 -1      7912    3    0    1
 -2      1696      2129      2707      2841
 -1      7913    3    0    1
 -2      2746      1696      2806      2841
 -1      7914    3    0    1
 -2      1582      2746      2806      2841
 -1      7915    3    0    1
 -2       975      1571      2763      2842
 -1      7916    3    0    1
 -2       234      2540      2753      2843
 -1      7917    3    0    1
 -2       234      1303      2540      2843
 -1      7918    3    0    1
 -2       234      2753      2775      2843
 -1      7919    3    0    1
 -2       365       234      1060      2843
 -1      7920    3    0    1
 -2      2728      2129      2841      2867
 -1      7921    3    0    1
 -2      1731      2515      2587      2857
 -1      7922    3    0    1
 -2       234       365      1303      2843
 -1      7923    3    0    1
 -2      1059      1974      2555      2845
 -1      7924    3    0    1
 -2       760      1059      2555      2845
 -1      7925    3    0    1
 -2      1059       760      1974      2845
 -1      7926    3    0    1
 -2      2749      2746      2828      2846
 -1      7927    3    0    1
 -2      1582      2746      2749      2846
 -1      7928    3    0    1
 -2       927       514      2828      2846
 -1      7929    3    0    1
 -2      2746       927      2828      2846
 -1      7930    3    0    1
 -2       514      2094      2828      2846
 -1      7931    3    0    1
 -2      2094       514      2428      2846
 -1      7932    3    0    1
 -2      1971      1582      2749      2846
 -1      7933    3    0    1
 -2      1698      1971      2749      2846
 -1      7934    3    0    1
 -2      2428      2749      2828      2846
 -1      7935    3    0    1
 -2      2094      2428      2828      2846
 -1      7936    3    0    1
 -2      1057      2735      2766      2847
 -1      7937    3    0    1
 -2      2538      1057      2766      2847
 -1      7938    3    0    1
 -2       603       610      2450      2848
 -1      7939    3    0    1
 -2       610       603      1993      2848
 -1      7940    3    0    1
 -2      1993       974      2436      2848
 -1      7941    3    0    1
 -2      2747      2476      2763      2848
 -1      7942    3    0    1
 -2      2436      2476      2747      2848
 -1      7943    3    0    1
 -2      2436       974      2476      2848
 -1      7944    3    0    1
 -2       974       603      2476      2848
 -1      7945    3    0    1
 -2      2476       603      2763      2848
 -1      7946    3    0    1
 -2      1085       369      2678      2849
 -1      7947    3    0    1
 -2      2760       267      2463      1328
 -1      7948    3    0    1
 -2       267      2760      2463      2849
 -1      7949    3    0    1
 -2      2921      2936      3077      1440
 -1      7950    3    0    1
 -2      3075      2451      3086      3127
 -1      7951    3    0    1
 -2       989      1260      2115      2850
 -1      7952    3    0    1
 -2      2115      1260      2762      2850
 -1      7953    3    0    1
 -2       989       630      2459      2850
 -1      7954    3    0    1
 -2       630       989      2115      2850
 -1      7955    3    0    1
 -2      1448      1450      1478      2981
 -1      7956    3    0    1
 -2       630      2115      2769      2850
 -1      7957    3    0    1
 -2      2459       630      2769      2850
 -1      7958    3    0    1
 -2      2698      2385      2699      2886
 -1      7959    3    0    1
 -2      2385      1933      2699      2886
 -1      7960    3    0    1
 -2      2373      2385      2698      2886
 -1      7961    3    0    1
 -2       759      1058      2548      2851
 -1      7962    3    0    1
 -2      2765      1725       730      1833
 -1      7963    3    0    1
 -2       730      1294      2221      2853
 -1      7964    3    0    1
 -2       220      1970      2764      2852
 -1      7965    3    0    1
 -2      1970       220      1980      2852
 -1      7966    3    0    1
 -2       759       736      2548      2852
 -1      7967    3    0    1
 -2      1058       759      2548      2852
 -1      7968    3    0    1
 -2      2764      1970      2851      2852
 -1      7969    3    0    1
 -2      2548      2764      2851      2852
 -1      7970    3    0    1
 -2      2765      1981      1294      2853
 -1      7971    3    0    1
 -2      1294       730      2765      2853
 -1      7972    3    0    1
 -2       340       341      2353      2854
 -1      7973    3    0    1
 -2      2664      1003      2769      2854
 -1      7974    3    0    1
 -2      2035      2164      2871      2874
 -1      7975    3    0    1
 -2      2859      2035      2871      2874
 -1      7976    3    0    1
 -2      1248       340      1648      2854
 -1      7977    3    0    1
 -2      1003       341      1248      2854
 -1      7978    3    0    1
 -2       342       341      1003      2854
 -1      7979    3    0    1
 -2       341       340      1248      2854
 -1      7980    3    0    1
 -2       373      2570      2787      2859
 -1      7981    3    0    1
 -2       371      2570      2797      2859
 -1      7982    3    0    1
 -2       371      2365      2570      2859
 -1      7983    3    0    1
 -2       419      2823      2860      2872
 -1      7984    3    0    1
 -2       371      2035      2365      2859
 -1      7985    3    0    1
 -2      2419      2556      2809      2861
 -1      7986    3    0    1
 -2        66      2609      2810      2862
 -1      7987    3    0    1
 -2      2612      2556      2633      2861
 -1      7988    3    0    1
 -2      2419       213      2785      2861
 -1      7989    3    0    1
 -2       396       916      2386      2858
 -1      7990    3    0    1
 -2      1536      1522      1905      2858
 -1      7991    3    0    1
 -2      1905       396      2386      2858
 -1      7992    3    0    1
 -2      1905      1522      1928      2858
 -1      7993    3    0    1
 -2       396      1905      1928      2858
 -1      7994    3    0    1
 -2       916       396      2855      2858
 -1      7995    3    0    1
 -2      1928      1522      2855      2858
 -1      7996    3    0    1
 -2       396      1928      2855      2858
 -1      7997    3    0    1
 -2       917      2215      2823      2872
 -1      7998    3    0    1
 -2      2365      2079      2570      2859
 -1      7999    3    0    1
 -2      1164      1989      2553      2873
 -1      8000    3    0    1
 -2      2587      2515      2870      2873
 -1      8001    3    0    1
 -2      2515      1522      2870      2873
 -1      8002    3    0    1
 -2      2773      2494      2857      2860
 -1      8003    3    0    1
 -2      2494       419      2823      2860
 -1      8004    3    0    1
 -2       419      2494      2773      2860
 -1      8005    3    0    1
 -2      1737      2129      2754      2867
 -1      8006    3    0    1
 -2        66       940      2609      2862
 -1      8007    3    0    1
 -2       940        66      2137      2862
 -1      8008    3    0    1
 -2        66      2729      2810       942
 -1      8009    3    0    1
 -2      2729        66      2810      2862
 -1      8010    3    0    1
 -2      1526      1683      2811      2863
 -1      8011    3    0    1
 -2      1683      1526      2356      2863
 -1      8012    3    0    1
 -2      2356      2493      2811      2863
 -1      8013    3    0    1
 -2      1683      2356      2811      2863
 -1      8014    3    0    1
 -2      2530      1034      2813      2864
 -1      8015    3    0    1
 -2      1033       711      2781      2864
 -1      8016    3    0    1
 -2       711      1033      2738      2864
 -1      8017    3    0    1
 -2      2738      1033      2781      2864
 -1      8018    3    0    1
 -2      1035      1034      2738      2864
 -1      8019    3    0    1
 -2      1034      1035      2617      2864
 -1      8020    3    0    1
 -2      2617      1035      2738      2864
 -1      8021    3    0    1
 -2      1725      2478      2786      2865
 -1      8022    3    0    1
 -2      1725      1833      2478      2865
 -1      8023    3    0    1
 -2      2580      1725      2786      2865
 -1      8024    3    0    1
 -2      2681      2580      2786      2865
 -1      8025    3    0    1
 -2      2575       418      2587      2866
 -1      8026    3    0    1
 -2      2494      2857      2860      2866
 -1      8027    3    0    1
 -2      2823      2494      2860      2866
 -1      8028    3    0    1
 -2      2325      2129      2368      2867
 -1      8029    3    0    1
 -2      2325      2368      2816      2867
 -1      8030    3    0    1
 -2      2754      2129      2728      2867
 -1      8031    3    0    1
 -2      2129      2754      2728       392
 -1      8032    3    0    1
 -2      2368      1737      2816      2867
 -1      8033    3    0    1
 -2      2129      1737      2368      2867
 -1      8034    3    0    1
 -2      1674      2692      2730      2868
 -1      8035    3    0    1
 -2      1674      2599      2692      2868
 -1      8036    3    0    1
 -2      1674      1696      2599      2868
 -1      8037    3    0    1
 -2      1696      1674      2730      2868
 -1      8038    3    0    1
 -2      1897      1003      2664      2869
 -1      8039    3    0    1
 -2      2664      1003      2854      2869
 -1      8040    3    0    1
 -2      1008       355      1897      2869
 -1      8041    3    0    1
 -2       342       355      1008      2869
 -1      8042    3    0    1
 -2       342      1005      2353      2869
 -1      8043    3    0    1
 -2      1005       342      1008      2869
 -1      8044    3    0    1
 -2      1008      1897      2485      2869
 -1      8045    3    0    1
 -2      1776      1008      2485      2869
 -1      8046    3    0    1
 -2      1005      1776      2353      2869
 -1      8047    3    0    1
 -2      1005      1008      1776      2869
 -1      8048    3    0    1
 -2      1327      2871       802      2874
 -1      8049    3    0    1
 -2       802      2164      2278      2874
 -1      8050    3    0    1
 -2      2348      3098      3101      3128
 -1      8051    3    0    1
 -2      2079      2570      2859      2871
 -1      8052    3    0    1
 -2      1327       373      2142      2871
 -1      8053    3    0    1
 -2      2142       373      2787      2871
 -1      8054    3    0    1
 -2      2787       373      2859      2871
 -1      8055    3    0    1
 -2      2870      1164      2873      2875
 -1      8056    3    0    1
 -2      1164        10      1989      2875
 -1      8057    3    0    1
 -2       373      1327      2859      2871
 -1      8058    3    0    1
 -2      1164      1989      2873      2875
 -1      8059    3    0    1
 -2      2553      2587      2790      2873
 -1      8060    3    0    1
 -2      2790      2587      2870      2873
 -1      8061    3    0    1
 -2      1164      2553      2790      2873
 -1      8062    3    0    1
 -2        10      1989      2875      2876
 -1      8063    3    0    1
 -2      1626      1536      1819      2876
 -1      8064    3    0    1
 -2      1164      2790      2870      2873
 -1      8065    3    0    1
 -2        10      1626      1819      2876
 -1      8066    3    0    1
 -2      1536      1626      2875      2876
 -1      8067    3    0    1
 -2      1416      3067      1442      3121
 -1      8068    3    0    1
 -2        10      1819      2544      2876
 -1      8069    3    0    1
 -2      1626        10      2875      2876
 -1      8070    3    0    1
 -2      2506      2889      2894      2898
 -1      8071    3    0    1
 -2       376      3101      1481      1482
 -1      8072    3    0    1
 -2      1438      1445      3005      3046
 -1      8073    3    0    1
 -2      1420      1447      3092      3109
 -1      8074    3    0    1
 -2      2762      3078      3104      3113
 -1      8075    3    0    1
 -2      2498      2041      2880      2914
 -1      8076    3    0    1
 -2      2894      2506      2898      3074
 -1      8077    3    0    1
 -2      2944      2906      3107      3129
 -1      8078    3    0    1
 -2      2880      2941      3090      1465
 -1      8079    3    0    1
 -2      1193      2499      1409      2881
 -1      8080    3    0    1
 -2      2498      2041      2585      2880
 -1      8081    3    0    1
 -2      1977      2498      2585      2880
 -1      8082    3    0    1
 -2      1977      2041      2124      2880
 -1      8083    3    0    1
 -2      2041      1977      2585      2880
 -1      8084    3    0    1
 -2       809      2987      3021      3052
 -1      8085    3    0    1
 -2      2992      1465      3012      3038
 -1      8086    3    0    1
 -2      1477      3078      2964      3113
 -1      8087    3    0    1
 -2      1464       361      3094      2993
 -1      8088    3    0    1
 -2      2616       976      2982      3115
 -1      8089    3    0    1
 -2      2877      1968      3093      3000
 -1      8090    3    0    1
 -2      1415      1452      3115      3014
 -1      8091    3    0    1
 -2      1326      1080      2484      2994
 -1      8092    3    0    1
 -2      2885      3088      3111      3114
 -1      8093    3    0    1
 -2      1030      2077      2958      3109
 -1      8094    3    0    1
 -2       361       363      3094      2993
 -1      8095    3    0    1
 -2       727       726      1041      2948
 -1      8096    3    0    1
 -2      1439      1423      1448      3096
 -1      8097    3    0    1
 -2      1968      2912      3093      3000
 -1      8098    3    0    1
 -2      1813      2900      2910      3068
 -1      8099    3    0    1
 -2      2878      2834      2942      2957
 -1      8100    3    0    1
 -2      1203      2147      1422      3118
 -1      8101    3    0    1
 -2      1067      1326      1813      3068
 -1      8102    3    0    1
 -2      2897      2091      3077      2939
 -1      8103    3    0    1
 -2      2948      1041      3028      3031
 -1      8104    3    0    1
 -2       976      1249      2732      3067
 -1      8105    3    0    1
 -2       351      1451      3092      3108
 -1      8106    3    0    1
 -2      2884      2883      2895      3069
 -1      8107    3    0    1
 -2       823       812      2987      3053
 -1      8108    3    0    1
 -2       939      1203       536      2995
 -1      8109    3    0    1
 -2      3068      1440      1458      3128
 -1      8110    3    0    1
 -2       429       430      3079      1459
 -1      8111    3    0    1
 -2      2261      1054      1436      1437
 -1      8112    3    0    1
 -2      3070      1426      1461      3127
 -1      8113    3    0    1
 -2      2922      2954      3098      3099
 -1      8114    3    0    1
 -2      2709      2996      1456      3072
 -1      8115    3    0    1
 -2      2925      2881      3072      3087
 -1      8116    3    0    1
 -2      1977      3107      2598      2947
 -1      8117    3    0    1
 -2      1227       582       584      2920
 -1      8118    3    0    1
 -2      2884      2896      2916      3069
 -1      8119    3    0    1
 -2      1468       101      3107      3022
 -1      8120    3    0    1
 -2      2364      2042      2878      2912
 -1      8121    3    0    1
 -2      3077      2897      2939      1453
 -1      8122    3    0    1
 -2      1415       976      1431      3115
 -1      8123    3    0    1
 -2      1304      2078      2371      2885
 -1      8124    3    0    1
 -2      1448      3074      3102      3009
 -1      8125    3    0    1
 -2      2919      3088      3114      3122
 -1      8126    3    0    1
 -2      2884      2916      2917      3069
 -1      8127    3    0    1
 -2       479       486       487      2973
 -1      8128    3    0    1
 -2       582      2615      2654      2920
 -1      8129    3    0    1
 -2       363      1463      1465      1469
 -1      8130    3    0    1
 -2      3104      1473      3113      1506
 -1      8131    3    0    1
 -2      1435      2885      3083      3111
 -1      8132    3    0    1
 -2      2506      2891      3074      2960
 -1      8133    3    0    1
 -2      1411      2885      3088      3111
 -1      8134    3    0    1
 -2      2371      2885      2919      3088
 -1      8135    3    0    1
 -2      1041      2948      3028      1293
 -1      8136    3    0    1
 -2      2239      1271      2689      3073
 -1      8137    3    0    1
 -2       422       421      3089      3039
 -1      8138    3    0    1
 -2      1423      2239      1424      3073
 -1      8139    3    0    1
 -2      1009       667      1263      2962
 -1      8140    3    0    1
 -2      1015      1280      2301      1438
 -1      8141    3    0    1
 -2      2909      3076      3117      3125
 -1      8142    3    0    1
 -2       787       798      2971      3023
 -1      8143    3    0    1
 -2      1412      1411      3088      1489
 -1      8144    3    0    1
 -2       798      1080      1326      2971
 -1      8145    3    0    1
 -2      2378      2882      2899      3091
 -1      8146    3    0    1
 -2       594      2988      2989      3014
 -1      8147    3    0    1
 -2      2400      1338      1427      2932
 -1      8148    3    0    1
 -2      1457      1430      1486      3127
 -1      8149    3    0    1
 -2      3126      1427      3052      3054
 -1      8150    3    0    1
 -2       211       204      2948      2983
 -1      8151    3    0    1
 -2      2920      2731      3082      2950
 -1      8152    3    0    1
 -2      3030      3058      3059      3066
 -1      8153    3    0    1
 -2      1848      3074      1448      2959
 -1      8154    3    0    1
 -2       351      1446      1451      1509
 -1      8155    3    0    1
 -2      1419      1446      1451      3097
 -1      8156    3    0    1
 -2      1445       352      1449      1470
 -1      8157    3    0    1
 -2      3080      1449      3109      3112
 -1      8158    3    0    1
 -2      1848      1448      3096      3132
 -1      8159    3    0    1
 -2      3080      1848      2893      3096
 -1      8160    3    0    1
 -2      2928      2929      1474      3105
 -1      8161    3    0    1
 -2      3099      2945      2997      3008
 -1      8162    3    0    1
 -2      2887      2888      1464      3105
 -1      8163    3    0    1
 -2      2887      1870      2953      3105
 -1      8164    3    0    1
 -2      1983      2370      2378      2899
 -1      8165    3    0    1
 -2      3090      3071      3117      3094
 -1      8166    3    0    1
 -2       338      1448      1471      3102
 -1      8167    3    0    1
 -2       925      1203      2636      1421
 -1      8168    3    0    1
 -2      2905      3069      1457      3089
 -1      8169    3    0    1
 -2      1977      2370      2906      2944
 -1      8170    3    0    1
 -2      1436      2979      3110      2261
 -1      8171    3    0    1
 -2      1414      1067      1436      3110
 -1      8172    3    0    1
 -2      1002      1271      2239      1423
 -1      8173    3    0    1
 -2      3074      3073      3102      2960
 -1      8174    3    0    1
 -2      2585      2498      2774      2928
 -1      8175    3    0    1
 -2      1410      1180      1425      3116
 -1      8176    3    0    1
 -2      1418      3071      1462      1463
 -1      8177    3    0    1
 -2       194      1273       195      2975
 -1      8178    3    0    1
 -2      3100      1480      1479      1422
 -1      8179    3    0    1
 -2      2883      2895      1457      2986
 -1      8180    3    0    1
 -2      1456       421      1460      1467
 -1      8181    3    0    1
 -2      3073      1448      3096      3102
 -1      8182    3    0    1
 -2      2078      1054      2261      2892
 -1      8183    3    0    1
 -2      1180       487      2973      3017
 -1      8184    3    0    1
 -2      3077      2886      1440      2954
 -1      8185    3    0    1
 -2      2346      1933      2883      2931
 -1      8186    3    0    1
 -2      2762      1260      1434      3104
 -1      8187    3    0    1
 -2      3075      1429      1485      3126
 -1      8188    3    0    1
 -2      2883      1933      2895      2931
 -1      8189    3    0    1
 -2      2894      2940      3078      1473
 -1      8190    3    0    1
 -2      2042      2834      2878      2912
 -1      8191    3    0    1
 -2      1484      1437      3111      3123
 -1      8192    3    0    1
 -2      2892      2261      1436      1437
 -1      8193    3    0    1
 -2      1417      1203      3044      3045
 -1      8194    3    0    1
 -2       904      1180      2347      3070
 -1      8195    3    0    1
 -2      3079       430      2946      1453
 -1      8196    3    0    1
 -2      2697      1983      2889      2894
 -1      8197    3    0    1
 -2      1983      2506      2889      2894
 -1      8198    3    0    1
 -2      2346      1933      2385      2895
 -1      8199    3    0    1
 -2      2346      2385      2884      2895
 -1      8200    3    0    1
 -2      2904      2913      1445      3109
 -1      8201    3    0    1
 -2       421      1456      3089      2996
 -1      8202    3    0    1
 -2      1067      1813      1414      3068
 -1      8203    3    0    1
 -2      1456      1425      3116      3018
 -1      8204    3    0    1
 -2       527       534       526      2995
 -1      8205    3    0    1
 -2      2239      3073      2960      3119
 -1      8206    3    0    1
 -2      2091      2897      2938      2939
 -1      8207    3    0    1
 -2      1227      2654      2822      2920
 -1      8208    3    0    1
 -2      1227       963       582      2920
 -1      8209    3    0    1
 -2       976      2616      2950      3115
 -1      8210    3    0    1
 -2      2991       546      2992      3038
 -1      8211    3    0    1
 -2      2598      2902      2947      2961
 -1      8212    3    0    1
 -2      2698      2541      2921      2936
 -1      8213    3    0    1
 -2       343      1452      3091      3103
 -1      8214    3    0    1
 -2      1876      1338      2400      2932
 -1      8215    3    0    1
 -2      3088      1435      3111      3114
 -1      8216    3    0    1
 -2      1418      3071      1463      3117
 -1      8217    3    0    1
 -2      2933      1166      2999      3127
 -1      8218    3    0    1
 -2      1041      1419      3028      3034
 -1      8219    3    0    1
 -2      3101      3098      1481      1482
 -1      8220    3    0    1
 -2      3086       375      1485      1486
 -1      8221    3    0    1
 -2      1848      2898      3074      2959
 -1      8222    3    0    1
 -2      2878      2834      2904      2942
 -1      8223    3    0    1
 -2      3070      3089      1460      3116
 -1      8224    3    0    1
 -2      1968      2364      2878      2912
 -1      8225    3    0    1
 -2      3098      2922      3099      3101
 -1      8226    3    0    1
 -2      1968      2364      2877      2938
 -1      8227    3    0    1
 -2      2888      3071      3090      3094
 -1      8228    3    0    1
 -2      1080      1876      2484      2994
 -1      8229    3    0    1
 -2      2966      2985      3013      3033
 -1      8230    3    0    1
 -2      2541      2698      2897      2936
 -1      8231    3    0    1
 -2      2933      1429      3075      3126
 -1      8232    3    0    1
 -2      1983      2724      2835      2899
 -1      8233    3    0    1
 -2      2724      2378      2882      2899
 -1      8234    3    0    1
 -2      1983      2378      2724      2899
 -1      8235    3    0    1
 -2      2099      2346      2884      2916
 -1      8236    3    0    1
 -2      2370      2378      2906      2944
 -1      8237    3    0    1
 -2      1041      2371      2377      2949
 -1      8238    3    0    1
 -2      2915      2881      2925      3087
 -1      8239    3    0    1
 -2      3093      1451      3114      3000
 -1      8240    3    0    1
 -2      2968      3015      3050      3063
 -1      8241    3    0    1
 -2      1080      1338      1876      3098
 -1      8242    3    0    1
 -2      2347      1180      2970      3116
 -1      8243    3    0    1
 -2         2       449      3040      3041
 -1      8244    3    0    1
 -2      2835      1983      2901      3078
 -1      8245    3    0    1
 -2      2835      2506      2894      2901
 -1      8246    3    0    1
 -2      2889      2894      2898      2959
 -1      8247    3    0    1
 -2      2724      1983      2835      3078
 -1      8248    3    0    1
 -2       176      1448      1450      1478
 -1      8249    3    0    1
 -2      1009      2962      2963      2965
 -1      8250    3    0    1
 -2      2950      3082      3115      3129
 -1      8251    3    0    1
 -2      1420      1419      3081      3092
 -1      8252    3    0    1
 -2       667       668      1263      2962
 -1      8253    3    0    1
 -2      2124      3076      1465      2980
 -1      8254    3    0    1
 -2      1023       691      2975      2976
 -1      8255    3    0    1
 -2       716       726       727      2948
 -1      8256    3    0    1
 -2      2943      2904      2984      3132
 -1      8257    3    0    1
 -2      2378      2899      2906      2923
 -1      8258    3    0    1
 -2      2931      1933      3084      1454
 -1      8259    3    0    1
 -2      1435       349      3114      1489
 -1      8260    3    0    1
 -2      3078      1473      2964      3113
 -1      8261    3    0    1
 -2      2911      3078      2977      3113
 -1      8262    3    0    1
 -2      1473       354      3113      1506
 -1      8263    3    0    1
 -2      1438      2301      1439      3080
 -1      8264    3    0    1
 -2      2915      1410      3087      3116
 -1      8265    3    0    1
 -2      1427      1080      1428      3098
 -1      8266    3    0    1
 -2      2918      2124      3076      2947
 -1      8267    3    0    1
 -2      1433      3104      3121      1505
 -1      8268    3    0    1
 -2      3060      3041      3061      3062
 -1      8269    3    0    1
 -2      2364      1968      2696      2938
 -1      8270    3    0    1
 -2      1238      2387      2920      2950
 -1      8271    3    0    1
 -2       256      1074      2972      3023
 -1      8272    3    0    1
 -2      1438      1030      2976      3005
 -1      8273    3    0    1
 -2      1249      1415      1416      3067
 -1      8274    3    0    1
 -2       422      1457      3089      1461
 -1      8275    3    0    1
 -2      1414      1453      1459      3110
 -1      8276    3    0    1
 -2      1249       976      1415      3067
 -1      8277    3    0    1
 -2      1416      3067      1441      1442
 -1      8278    3    0    1
 -2      3071      1417      1462      3118
 -1      8279    3    0    1
 -2      3082      1444      1443      3085
 -1      8280    3    0    1
 -2      1444      3082      1443      1432
 -1      8281    3    0    1
 -2      1977      2370      2598      2906
 -1      8282    3    0    1
 -2      1420      1419      2924      3081
 -1      8283    3    0    1
 -2      3083      3111      3123      3130
 -1      8284    3    0    1
 -2       430       429      3079      2946
 -1      8285    3    0    1
 -2      1474      1479      1499      3057
 -1      8286    3    0    1
 -2      2897      3077      2946      1453
 -1      8287    3    0    1
 -2      1203      1417      1422      3045
 -1      8288    3    0    1
 -2      2099      2585      2774      2908
 -1      8289    3    0    1
 -2      2689      1439      3080      3096
 -1      8290    3    0    1
 -2      2962      2963      2965      3007
 -1      8291    3    0    1
 -2      2373      2364      2696      2938
 -1      8292    3    0    1
 -2      1080      1428      3098      3128
 -1      8293    3    0    1
 -2       362      1484      3111      3123
 -1      8294    3    0    1
 -2      2892      3083      3111      3123
 -1      8295    3    0    1
 -2       823       812       811      2987
 -1      8296    3    0    1
 -2      2883      2884      2916      2917
 -1      8297    3    0    1
 -2      2945      2922      1454      3099
 -1      8298    3    0    1
 -2      2541      2886      2921      3077
 -1      8299    3    0    1
 -2      2895      2883      3084      2986
 -1      8300    3    0    1
 -2      1417      1418      3071      1462
 -1      8301    3    0    1
 -2      2897      2541      2936      3077
 -1      8302    3    0    1
 -2      1180       914      2970      3116
 -1      8303    3    0    1
 -2       526      1200      2995      3043
 -1      8304    3    0    1
 -2      2897      2937      2938      2939
 -1      8305    3    0    1
 -2      2937      2091      2938      2939
 -1      8306    3    0    1
 -2      1451      1490      1508      3034
 -1      8307    3    0    1
 -2       479       910      2973      3017
 -1      8308    3    0    1
 -2      3074      1448      2959      3009
 -1      8309    3    0    1
 -2      1200        54      2995      3003
 -1      8310    3    0    1
 -2      1227      3004       582       963
 -1      8311    3    0    1
 -2      2091      2885      3083      2978
 -1      8312    3    0    1
 -2      1227      2822      1475      3124
 -1      8313    3    0    1
 -2      1455      1432      1475      3124
 -1      8314    3    0    1
 -2      3079       429      1440      2946
 -1      8315    3    0    1
 -2      1041      1412      1419      3034
 -1      8316    3    0    1
 -2      1413      1326      3068      2994
 -1      8317    3    0    1
 -2      2928      1870      3072      2951
 -1      8318    3    0    1
 -2       599       600       606      3035
 -1      8319    3    0    1
 -2      2041      2498      2585      2914
 -1      8320    3    0    1
 -2      2895      3084      1457      2986
 -1      8321    3    0    1
 -2      2908      3072      1870      2951
 -1      8322    3    0    1
 -2      1933      2922      2945      3099
 -1      8323    3    0    1
 -2      1445      1420      1447      3046
 -1      8324    3    0    1
 -2      2041      2585      2887      2914
 -1      8325    3    0    1
 -2      2908      2774      2916      2951
 -1      8326    3    0    1
 -2       526       534       536      2995
 -1      8327    3    0    1
 -2      1326      1067      1413      3068
 -1      8328    3    0    1
 -2      1442      1416      1477      3049
 -1      8329    3    0    1
 -2      1413      1067      1414      3068
 -1      8330    3    0    1
 -2      1409      2499      1410      3087
 -1      8331    3    0    1
 -2      3096       176      3112      3132
 -1      8332    3    0    1
 -2      2884      2896      2908      2916
 -1      8333    3    0    1
 -2      2099      2884      2908      2916
 -1      8334    3    0    1
 -2      2896      2709      2908      2916
 -1      8335    3    0    1
 -2      2886      2541      2900      3077
 -1      8336    3    0    1
 -2       904      1426      2999      3127
 -1      8337    3    0    1
 -2       193       351      3092      3108
 -1      8338    3    0    1
 -2      1414      1436      1453      3110
 -1      8339    3    0    1
 -2      1419      2924      3081      3097
 -1      8340    3    0    1
 -2       963      1238      2387      2920
 -1      8341    3    0    1
 -2       799       788       787      2971
 -1      8342    3    0    1
 -2      2887      2914      2928      2929
 -1      8343    3    0    1
 -2      2896      2884      2905      3069
 -1      8344    3    0    1
 -2      2945      2921      3099      2997
 -1      8345    3    0    1
 -2      2884      2895      2905      3069
 -1      8346    3    0    1
 -2      2124      2880      3090      1465
 -1      8347    3    0    1
 -2      1411      2371      1412      3088
 -1      8348    3    0    1
 -2      3077      3079      2946      1453
 -1      8349    3    0    1
 -2      2903      2888      3071      3090
 -1      8350    3    0    1
 -2      1464      2929      3105      3020
 -1      8351    3    0    1
 -2      1457      3070      3089      1461
 -1      8352    3    0    1
 -2      1425       904      1426      3070
 -1      8353    3    0    1
 -2      1477      3015      3049      3063
 -1      8354    3    0    1
 -2      2347      2896      2905      3070
 -1      8355    3    0    1
 -2      1870      2928      1474      3105
 -1      8356    3    0    1
 -2      1180       904      1425      3070
 -1      8357    3    0    1
 -2      1166       463      3040      3060
 -1      8358    3    0    1
 -2      3072      2709      3087      1456
 -1      8359    3    0    1
 -2      2916      3072      2951      1456
 -1      8360    3    0    1
 -2       345      1442      1477      1500
 -1      8361    3    0    1
 -2      2689      1271      1423      3073
 -1      8362    3    0    1
 -2       665       165      2962      2963
 -1      8363    3    0    1
 -2      1215      1417      1418      3071
 -1      8364    3    0    1
 -2      1455      1475      1501      3124
 -1      8365    3    0    1
 -2      2888      2199      2903      3071
 -1      8366    3    0    1
 -2      3067      1845      2956      3091
 -1      8367    3    0    1
 -2      1424      1423      3073      1471
 -1      8368    3    0    1
 -2       582      1227       584      3019
 -1      8369    3    0    1
 -2      2879      1968      1451      3093
 -1      8370    3    0    1
 -2       158      3102      2969      3009
 -1      8371    3    0    1
 -2      2894      2835      2901      3078
 -1      8372    3    0    1
 -2      2724      2835      2940      3078
 -1      8373    3    0    1
 -2      1435      1484      1510      3065
 -1      8374    3    0    1
 -2      1293      1030      1419      2924
 -1      8375    3    0    1
 -2      2900      3077      1440      2954
 -1      8376    3    0    1
 -2      1419      1030      1420      2924
 -1      8377    3    0    1
 -2      1092      2320      2400      2933
 -1      8378    3    0    1
 -2      3117      1465      1502      3125
 -1      8379    3    0    1
 -2      1203      2147      2636      3100
 -1      8380    3    0    1
 -2      2886      1933      2945      3099
 -1      8381    3    0    1
 -2      3091      1477      3103      3121
 -1      8382    3    0    1
 -2       359      1501      1502      3125
 -1      8383    3    0    1
 -2      2732      1845      3067      3121
 -1      8384    3    0    1
 -2      3074      3073      1848      3102
 -1      8385    3    0    1
 -2      2585      1870      2887      2928
 -1      8386    3    0    1
 -2      1870      2585      2908      2928
 -1      8387    3    0    1
 -2      3100      1421      1479      3120
 -1      8388    3    0    1
 -2      2917      2883      3069      1457
 -1      8389    3    0    1
 -2       914      2915      2970      3116
 -1      8390    3    0    1
 -2      2916      2709      2996      2896
 -1      8391    3    0    1
 -2      2925      1870      2926      3072
 -1      8392    3    0    1
 -2      2709      2925      2926      3072
 -1      8393    3    0    1
 -2      1933      2922      3084      1454
 -1      8394    3    0    1
 -2      2881      1870      2925      3072
 -1      8395    3    0    1
 -2      2908      2916      3072      2951
 -1      8396    3    0    1
 -2      3075      3086      1485      1486
 -1      8397    3    0    1
 -2      2908      1870      2928      2951
 -1      8398    3    0    1
 -2      2689      1015      1439      3096
 -1      8399    3    0    1
 -2      2908      2709      2926      3072
 -1      8400    3    0    1
 -2        64      3105      3106      3020
 -1      8401    3    0    1
 -2      2239      2689      2891      3073
 -1      8402    3    0    1
 -2      1465      1502      1503      3012
 -1      8403    3    0    1
 -2      1416      1249      1433      3049
 -1      8404    3    0    1
 -2      2968       617      3015      3049
 -1      8405    3    0    1
 -2      2936      3077      1440      2946
 -1      8406    3    0    1
 -2      2709      2925      3072      3087
 -1      8407    3    0    1
 -2      2709      2915      2925      3087
 -1      8408    3    0    1
 -2      2499      1409      2881      3087
 -1      8409    3    0    1
 -2      2923      3091      1477      2967
 -1      8410    3    0    1
 -2      2499      2881      2915      3087
 -1      8411    3    0    1
 -2      2948       714      2983      3028
 -1      8412    3    0    1
 -2      2985       762      1504      3033
 -1      8413    3    0    1
 -2       370      1474      1479      1499
 -1      8414    3    0    1
 -2       451       462       463      3040
 -1      8415    3    0    1
 -2      1415      1416      3067      1441
 -1      8416    3    0    1
 -2      2983       713      3031      3034
 -1      8417    3    0    1
 -2      1933      2346      2699      2931
 -1      8418    3    0    1
 -2       176       352      1450      3112
 -1      8419    3    0    1
 -2       452      1158      3040      3060
 -1      8420    3    0    1
 -2      2301      2689      1439      3080
 -1      8421    3    0    1
 -2      1203      2636      1421      3100
 -1      8422    3    0    1
 -2      1440       368      3101      2997
 -1      8423    3    0    1
 -2      3087      3072      1456      3095
 -1      8424    3    0    1
 -2      1475      1455      1501      3047
 -1      8425    3    0    1
 -2      2506      2891      2898      3074
 -1      8426    3    0    1
 -2      1420      1438      2976      3005
 -1      8427    3    0    1
 -2      2891      1848      2898      3074
 -1      8428    3    0    1
 -2      3091       345      1477      2967
 -1      8429    3    0    1
 -2      2889      2890      2894      2959
 -1      8430    3    0    1
 -2      2922      2886      2954      3099
 -1      8431    3    0    1
 -2      2921      2886      2945      3099
 -1      8432    3    0    1
 -2      2199      1417      3071      3118
 -1      8433    3    0    1
 -2      2888      1464      3105      3118
 -1      8434    3    0    1
 -2      1462      1417      1464      3118
 -1      8435    3    0    1
 -2      1166      1429      1430      2933
 -1      8436    3    0    1
 -2      3104      1477      3121      1505
 -1      8437    3    0    1
 -2      2091      3077      2939      1453
 -1      8438    3    0    1
 -2      2834      2878      2912      2957
 -1      8439    3    0    1
 -2      2499       914      2915      2970
 -1      8440    3    0    1
 -2      3077      3079      1440      2946
 -1      8441    3    0    1
 -2      1430      3075      1486      3127
 -1      8442    3    0    1
 -2      1054      1411      1437      3111
 -1      8443    3    0    1
 -2      3090      2124      1465      2980
 -1      8444    3    0    1
 -2      2939      1453      3025      3130
 -1      8445    3    0    1
 -2      2124      1977      2902      2947
 -1      8446    3    0    1
 -2      1427      2400      2932      3126
 -1      8447    3    0    1
 -2      2933      2451      2934      3075
 -1      8448    3    0    1
 -2         1       375      3086      1486
 -1      8449    3    0    1
 -2      2451      2930      2934      3075
 -1      8450    3    0    1
 -2      1510       737      3051      3065
 -1      8451    3    0    1
 -2      2941      3090      1465      2993
 -1      8452    3    0    1
 -2      3088      1435      3114      1489
 -1      8453    3    0    1
 -2      2364      2373      2698      2938
 -1      8454    3    0    1
 -2      2698      2373      2897      2938
 -1      8455    3    0    1
 -2      2364      2897      2937      2938
 -1      8456    3    0    1
 -2      2877      2364      2937      2938
 -1      8457    3    0    1
 -2      2364      2698      2897      2938
 -1      8458    3    0    1
 -2      1436      1067      3013      3033
 -1      8459    3    0    1
 -2      1813      2900      3068      2994
 -1      8460    3    0    1
 -2      2906      1452      3107      3129
 -1      8461    3    0    1
 -2       343       345      3103      2967
 -1      8462    3    0    1
 -2      2900      2886      3077      2954
 -1      8463    3    0    1
 -2      1238       976      1431      3036
 -1      8464    3    0    1
 -2       679       667       678      2962
 -1      8465    3    0    1
 -2      2124      2909      2918      3076
 -1      8466    3    0    1
 -2       678      1015      1271      2962
 -1      8467    3    0    1
 -2      2909       951      1475      1476
 -1      8468    3    0    1
 -2       349      3114      1489      1490
 -1      8469    3    0    1
 -2      1432      1431      3082      1443
 -1      8470    3    0    1
 -2      2900      2541      2910      3077
 -1      8471    3    0    1
 -2      2451      2930      3075      3084
 -1      8472    3    0    1
 -2      2541      2091      2910      3077
 -1      8473    3    0    1
 -2      2506      3074      1473      2960
 -1      8474    3    0    1
 -2      2912      1451      3093      3000
 -1      8475    3    0    1
 -2      2936      2897      3077      2946
 -1      8476    3    0    1
 -2      1425      3070      1460      3116
 -1      8477    3    0    1
 -2       462       904      1166      3040
 -1      8478    3    0    1
 -2      2724      2835      2899      2940
 -1      8479    3    0    1
 -2      3102      3074      2969      3009
 -1      8480    3    0    1
 -2      1271      1015      2689      3096
 -1      8481    3    0    1
 -2       428      1456      2955      3095
 -1      8482    3    0    1
 -2      3073      3074      1848      2891
 -1      8483    3    0    1
 -2      1456      3072      2955      3095
 -1      8484    3    0    1
 -2      2901      2894      1473      2506
 -1      8485    3    0    1
 -2      2901      2724      2935      3078
 -1      8486    3    0    1
 -2       678      1015      2962      2965
 -1      8487    3    0    1
 -2      1465      1418      3012      3038
 -1      8488    3    0    1
 -2      2724      2911      2935      3078
 -1      8489    3    0    1
 -2      2762      2901      2935      3078
 -1      8490    3    0    1
 -2      1453      1436      3013      3033
 -1      8491    3    0    1
 -2      2835      2894      2940      3078
 -1      8492    3    0    1
 -2      1983      2724      2901      3078
 -1      8493    3    0    1
 -2       354       339      3113      1506
 -1      8494    3    0    1
 -2       426       428      2955      3095
 -1      8495    3    0    1
 -2      1015      1271      1423      3096
 -1      8496    3    0    1
 -2      1439      1448      1450      3096
 -1      8497    3    0    1
 -2      2370      1977      2378      2944
 -1      8498    3    0    1
 -2      2896      3069      1456      2996
 -1      8499    3    0    1
 -2       375      1454      1485      1513
 -1      8500    3    0    1
 -2      1447      1420      1466      3046
 -1      8501    3    0    1
 -2      3043      3003      3044      3045
 -1      8502    3    0    1
 -2       560       550       558      2991
 -1      8503    3    0    1
 -2      3070      1426      1460      1461
 -1      8504    3    0    1
 -2      2886      1440      2954      2997
 -1      8505    3    0    1
 -2      3068      1414      1458      1459
 -1      8506    3    0    1
 -2       479       480       486      2973
 -1      8507    3    0    1
 -2       785       256      2972      3023
 -1      8508    3    0    1
 -2       486      1180       487      2973
 -1      8509    3    0    1
 -2      1015      1423      1439      3096
 -1      8510    3    0    1
 -2      1425      2347      3070      3116
 -1      8511    3    0    1
 -2      1432       963      2920      3082
 -1      8512    3    0    1
 -2       997       149      3030      3059
 -1      8513    3    0    1
 -2      1438      1280      2958      3109
 -1      8514    3    0    1
 -2       963      1238      2920      3082
 -1      8515    3    0    1
 -2      2689      2301      2893      3080
 -1      8516    3    0    1
 -2      3078      1477      2977      3113
 -1      8517    3    0    1
 -2      2893      2904      2943      3080
 -1      8518    3    0    1
 -2       339      1477      2964      3113
 -1      8519    3    0    1
 -2      3074      1473      3102      2969
 -1      8520    3    0    1
 -2       572       573       582      3019
 -1      8521    3    0    1
 -2       811       822       823      2987
 -1      8522    3    0    1
 -2      2378      2956      3091      3129
 -1      8523    3    0    1
 -2      2913      2077      2924      3081
 -1      8524    3    0    1
 -2      2879      2913      2924      3081
 -1      8525    3    0    1
 -2      2901      2506      1473      2960
 -1      8526    3    0    1
 -2      2885      2919      3088      3093
 -1      8527    3    0    1
 -2        28        27      2973      2974
 -1      8528    3    0    1
 -2       727       717       716      2948
 -1      8529    3    0    1
 -2      2371      1411      2885      3088
 -1      8530    3    0    1
 -2       703       692       691      2975
 -1      8531    3    0    1
 -2      1431       963      1432      3082
 -1      8532    3    0    1
 -2      1304      1054      1411      3064
 -1      8533    3    0    1
 -2      1420      1438      1445      3109
 -1      8534    3    0    1
 -2      1009       667      2962      2965
 -1      8535    3    0    1
 -2      1238       963      1431      3082
 -1      8536    3    0    1
 -2      2913      2077      3081      3109
 -1      8537    3    0    1
 -2      1477      3091      2977      3121
 -1      8538    3    0    1
 -2      1463      3071      3094      3117
 -1      8539    3    0    1
 -2       474      2974      3017      3018
 -1      8540    3    0    1
 -2      3067      1441      1442      3103
 -1      8541    3    0    1
 -2      1416      1249      3067      3121
 -1      8542    3    0    1
 -2      3078      2940      1477      2964
 -1      8543    3    0    1
 -2       343       345      1442      3103
 -1      8544    3    0    1
 -2      1471      3073      1472      3102
 -1      8545    3    0    1
 -2      1423      2689      3073      3096
 -1      8546    3    0    1
 -2      2922      1933      2945      1454
 -1      8547    3    0    1
 -2      1933      2931      2945      1454
 -1      8548    3    0    1
 -2      3120      1474      3056      3057
 -1      8549    3    0    1
 -2      1448      1848      3096      3102
 -1      8550    3    0    1
 -2       338      1471      1472      3102
 -1      8551    3    0    1
 -2      2091      2892      2907      3083
 -1      8552    3    0    1
 -2       364      1453      1483      3123
 -1      8553    3    0    1
 -2      2892      2261      2907      3083
 -1      8554    3    0    1
 -2      3001       997      3030      3059
 -1      8555    3    0    1
 -2      2895      1933      2930      3084
 -1      8556    3    0    1
 -2      1438      2893      3109      2958
 -1      8557    3    0    1
 -2      1933      2922      2930      3084
 -1      8558    3    0    1
 -2      2451      2895      2930      3084
 -1      8559    3    0    1
 -2      3069      2917      3089      3039
 -1      8560    3    0    1
 -2       376       368      3101      1482
 -1      8561    3    0    1
 -2      1411      1435      1489      3064
 -1      8562    3    0    1
 -2      2922      1454      3099      3101
 -1      8563    3    0    1
 -2      1421      1422      3100      1479
 -1      8564    3    0    1
 -2      1475      1501      3124      3125
 -1      8565    3    0    1
 -2      1220        92      3011      3019
 -1      8566    3    0    1
 -2      2955       426      3095      1474
 -1      8567    3    0    1
 -2      3100      1464      3105      3106
 -1      8568    3    0    1
 -2      1338      1427      2932      3098
 -1      8569    3    0    1
 -2       429      3079      1440      1458
 -1      8570    3    0    1
 -2      2347      2896      3070      3116
 -1      8571    3    0    1
 -2       101       348      1444      3085
 -1      8572    3    0    1
 -2       348      1443      1444      3085
 -1      8573    3    0    1
 -2       480       910       912      2973
 -1      8574    3    0    1
 -2      2904      2878      2942      1445
 -1      8575    3    0    1
 -2      2942      2904      1445      3132
 -1      8576    3    0    1
 -2      1445      1438      1449      3109
 -1      8577    3    0    1
 -2      1273       194      1023      2975
 -1      8578    3    0    1
 -2      2878      2904      2913      1445
 -1      8579    3    0    1
 -2       702      1030      1280      2975
 -1      8580    3    0    1
 -2      1439      3080      3096      3112
 -1      8581    3    0    1
 -2       211       204      1285      2948
 -1      8582    3    0    1
 -2      1450      1439      3096      3112
 -1      8583    3    0    1
 -2       176      2984      3029      3132
 -1      8584    3    0    1
 -2      1283       717      1285      2948
 -1      8585    3    0    1
 -2       352      1445      1449      3112
 -1      8586    3    0    1
 -2       716       717      1283      2948
 -1      8587    3    0    1
 -2      2904      2943      3080      3132
 -1      8588    3    0    1
 -2       166      1009      2963      2965
 -1      8589    3    0    1
 -2       359      1455      3125      3131
 -1      8590    3    0    1
 -2      1426       904      1430      3127
 -1      8591    3    0    1
 -2      1438      1439      1449      3112
 -1      8592    3    0    1
 -2      1449      1445      3109      3112
 -1      8593    3    0    1
 -2      3080      1438      1449      3112
 -1      8594    3    0    1
 -2       352      1449      1450      3112
 -1      8595    3    0    1
 -2       176      1450      3096      3112
 -1      8596    3    0    1
 -2      1449      1439      1450      3112
 -1      8597    3    0    1
 -2      1426      1425      3070      1460
 -1      8598    3    0    1
 -2      2709      3087      1456      3116
 -1      8599    3    0    1
 -2      2931      3084      2986      2990
 -1      8600    3    0    1
 -2      3086         1      2986      2990
 -1      8601    3    0    1
 -2      3084      3086      2986      2990
 -1      8602    3    0    1
 -2      3086      3084      1454      2990
 -1      8603    3    0    1
 -2      3005      1445      3016      3046
 -1      8604    3    0    1
 -2      3069      2905      3070      3089
 -1      8605    3    0    1
 -2      1280      1030      2958      3109
 -1      8606    3    0    1
 -2      1430      3075      1485      1486
 -1      8607    3    0    1
 -2      3083      2885      2892      3111
 -1      8608    3    0    1
 -2       951      2822      2909      1475
 -1      8609    3    0    1
 -2       655       647      3001      3059
 -1      8610    3    0    1
 -2      2124      2909      3076      2980
 -1      8611    3    0    1
 -2      2903      2124      3090      2980
 -1      8612    3    0    1
 -2      3072      2951      1456      2955
 -1      8613    3    0    1
 -2       426      3087      1474      1491
 -1      8614    3    0    1
 -2      1432      1455      1468      3124
 -1      8615    3    0    1
 -2      1435      3051      3064      3065
 -1      8616    3    0    1
 -2      1435      3088      3111      1489
 -1      8617    3    0    1
 -2      3075      3086      1486      3127
 -1      8618    3    0    1
 -2      1457      3070      1461      3127
 -1      8619    3    0    1
 -2      2933      2451      3075      3127
 -1      8620    3    0    1
 -2         1      1457      1486      3127
 -1      8621    3    0    1
 -2      3086         1      1486      3127
 -1      8622    3    0    1
 -2      1428      1440      1482      3128
 -1      8623    3    0    1
 -2      1338      2400      1427      3126
 -1      8624    3    0    1
 -2      1426      1457      1461      3127
 -1      8625    3    0    1
 -2      1430      2933      3127      1166
 -1      8626    3    0    1
 -2       631       630       989      3050
 -1      8627    3    0    1
 -2       363      1465      3094      2993
 -1      8628    3    0    1
 -2      3026      1048      3027      3051
 -1      8629    3    0    1
 -2       641      3030      3059      3066
 -1      8630    3    0    1
 -2      2953      2927      3100      3105
 -1      8631    3    0    1
 -2      1454       376      1481      1520
 -1      8632    3    0    1
 -2      3091      3067      2977      3121
 -1      8633    3    0    1
 -2      2928      2887      2929      3105
 -1      8634    3    0    1
 -2      3040         3      3041      3060
 -1      8635    3    0    1
 -2      1446      1420      1447      3092
 -1      8636    3    0    1
 -2      1870      2887      2928      3105
 -1      8637    3    0    1
 -2      2942      2878      2957      3108
 -1      8638    3    0    1
 -2      3081      3092      3097      3108
 -1      8639    3    0    1
 -2      2887      2914      2929      3105
 -1      8640    3    0    1
 -2      2914      2041      2941      3090
 -1      8641    3    0    1
 -2        64      1464      3105      3020
 -1      8642    3    0    1
 -2      2985      2966      3006      3033
 -1      8643    3    0    1
 -2      2896      3069      3070      3089
 -1      8644    3    0    1
 -2      3041      1457      3061      3062
 -1      8645    3    0    1
 -2      2917       422      1457      3089
 -1      8646    3    0    1
 -2       963      1227      1475      3124
 -1      8647    3    0    1
 -2      1448      1848      2984      3132
 -1      8648    3    0    1
 -2       450      3041      3060      3062
 -1      8649    3    0    1
 -2      1419      1420      1446      3092
 -1      8650    3    0    1
 -2       193       351      1447      3092
 -1      8651    3    0    1
 -2      2971      2972      3023      3024
 -1      8652    3    0    1
 -2      2878      2912      2957      3108
 -1      8653    3    0    1
 -2      2987      3021      3052      3053
 -1      8654    3    0    1
 -2       536       526      2995      3043
 -1      8655    3    0    1
 -2       421      3089      1460      1461
 -1      8656    3    0    1
 -2      2882      2724      2899      3091
 -1      8657    3    0    1
 -2      2887      2041      2914      3090
 -1      8658    3    0    1
 -2      3030      1473      3058      3066
 -1      8659    3    0    1
 -2      1453      1436      1483      3110
 -1      8660    3    0    1
 -2      1813      1067      1414      3110
 -1      8661    3    0    1
 -2       679       678      1271      2962
 -1      8662    3    0    1
 -2      2091      2937      2938      3093
 -1      8663    3    0    1
 -2      1813      1326      2484      2994
 -1      8664    3    0    1
 -2      2124      2041      2903      3090
 -1      8665    3    0    1
 -2      3076      2918      1455      3124
 -1      8666    3    0    1
 -2      2041      2888      2903      3090
 -1      8667    3    0    1
 -2      1435      2885      3111      3114
 -1      8668    3    0    1
 -2      2041      2887      2888      3090
 -1      8669    3    0    1
 -2      1813      1414      3068      3110
 -1      8670    3    0    1
 -2      2882      2378      2956      3091
 -1      8671    3    0    1
 -2      1845      2882      2956      3091
 -1      8672    3    0    1
 -2      2937      2877      2938      3093
 -1      8673    3    0    1
 -2       345      3091      1477      3103
 -1      8674    3    0    1
 -2      2887      2888      3090      1464
 -1      8675    3    0    1
 -2      2914      2887      3090      1464
 -1      8676    3    0    1
 -2       364       362      3025      3130
 -1      8677    3    0    1
 -2       810      3021      3053      3054
 -1      8678    3    0    1
 -2       510      1193       512      3055
 -1      8679    3    0    1
 -2       176       352      3112      3132
 -1      8680    3    0    1
 -2      2896      2916      3069      2996
 -1      8681    3    0    1
 -2      2239      1002      1424      3119
 -1      8682    3    0    1
 -2      1454       376      3101      1481
 -1      8683    3    0    1
 -2      2992       545      3010      3012
 -1      8684    3    0    1
 -2      1465      3090      3094      2993
 -1      8685    3    0    1
 -2      1067      1315      1436      3110
 -1      8686    3    0    1
 -2      2979      3083      3123      3110
 -1      8687    3    0    1
 -2      2885      1968      2919      3093
 -1      8688    3    0    1
 -2      2091      1968      2885      3093
 -1      8689    3    0    1
 -2      1968      2091      2938      3093
 -1      8690    3    0    1
 -2      1968      2879      2919      3093
 -1      8691    3    0    1
 -2      2877      2937      2952      3093
 -1      8692    3    0    1
 -2      3081      1420      3092      3109
 -1      8693    3    0    1
 -2       361       363      1463      3094
 -1      8694    3    0    1
 -2      1462       361      1463      3094
 -1      8695    3    0    1
 -2      3082      1444      3085      1468
 -1      8696    3    0    1
 -2      3082      1432      1444      1468
 -1      8697    3    0    1
 -2      1413      1080      1428      3048
 -1      8698    3    0    1
 -2       910        28      2973      3017
 -1      8699    3    0    1
 -2      1030      1882      2301      2958
 -1      8700    3    0    1
 -2      1470       689      3005      3016
 -1      8701    3    0    1
 -2       691      1273      1023      2975
 -1      8702    3    0    1
 -2      2893      1438      3109      3080
 -1      8703    3    0    1
 -2       691       702       703      2975
 -1      8704    3    0    1
 -2      1280      2301      1438      2958
 -1      8705    3    0    1
 -2       703       702      1280      2975
 -1      8706    3    0    1
 -2      1280      1030      2301      2958
 -1      8707    3    0    1
 -2      1030      2077      2377      2958
 -1      8708    3    0    1
 -2      1882      1030      2377      2958
 -1      8709    3    0    1
 -2      2890      2889      2898      2959
 -1      8710    3    0    1
 -2      1280      2975      2976      3005
 -1      8711    3    0    1
 -2      3073      1448      1471      3096
 -1      8712    3    0    1
 -2      3027      3026      3051      3064
 -1      8713    3    0    1
 -2      1448      1423      1471      3096
 -1      8714    3    0    1
 -2      2947      3076      2961      3131
 -1      8715    3    0    1
 -2      1440      2972      3024      3048
 -1      8716    3    0    1
 -2      2894      2901      1473      3078
 -1      8717    3    0    1
 -2       647       997      3001      3059
 -1      8718    3    0    1
 -2        54        59      2995      3003
 -1      8719    3    0    1
 -2      2902      2124      2947      2961
 -1      8720    3    0    1
 -2      2979      3123      2261      1436
 -1      8721    3    0    1
 -2      2983      2948      3028      3031
 -1      8722    3    0    1
 -2      3004      1227      3019      3047
 -1      8723    3    0    1
 -2      2893      2689      3080      3096
 -1      8724    3    0    1
 -2      1848      3073      2689      3096
 -1      8725    3    0    1
 -2      1848      3080      2893      2943
 -1      8726    3    0    1
 -2      2893      3096      1848      2689
 -1      8727    3    0    1
 -2      1446      1419      3092      3097
 -1      8728    3    0    1
 -2      1419      3081      3092      3097
 -1      8729    3    0    1
 -2      1419      1293      2924      3097
 -1      8730    3    0    1
 -2      2924      1293      2949      3097
 -1      8731    3    0    1
 -2      1420      1030      1438      3109
 -1      8732    3    0    1
 -2       351      1446      3092      3097
 -1      8733    3    0    1
 -2      1446       351      1451      3097
 -1      8734    3    0    1
 -2      1451       351      3092      3097
 -1      8735    3    0    1
 -2      2879      2924      2949      3097
 -1      8736    3    0    1
 -2      2348      1876      2932      3098
 -1      8737    3    0    1
 -2      2348      2932      2954      3098
 -1      8738    3    0    1
 -2      1338      1080      1427      3098
 -1      8739    3    0    1
 -2      2932      2922      2954      3098
 -1      8740    3    0    1
 -2      1421      1474      1479      3120
 -1      8741    3    0    1
 -2      2888      3071      3094      3118
 -1      8742    3    0    1
 -2      1933      2886      2922      3099
 -1      8743    3    0    1
 -2      2888      2199      3071      3118
 -1      8744    3    0    1
 -2      1480      3100      1479      3106
 -1      8745    3    0    1
 -2      1977      2906      3107      2944
 -1      8746    3    0    1
 -2      2927      2147      2953      3100
 -1      8747    3    0    1
 -2      1464        64      3105      3106
 -1      8748    3    0    1
 -2      3085      3082      1468      3107
 -1      8749    3    0    1
 -2      2636      2147      2927      3100
 -1      8750    3    0    1
 -2      2347      1180      2546      2970
 -1      8751    3    0    1
 -2      1203      1421      1422      3100
 -1      8752    3    0    1
 -2      1475      2909      1476      3125
 -1      8753    3    0    1
 -2      3067      3091      3103      3121
 -1      8754    3    0    1
 -2      3072      2955      3095      1474
 -1      8755    3    0    1
 -2      1870      2928      3072      1474
 -1      8756    3    0    1
 -2      1416      1433      3121      3049
 -1      8757    3    0    1
 -2      3087      3072      3095      1474
 -1      8758    3    0    1
 -2      1454      2945      3099      3008
 -1      8759    3    0    1
 -2      3067      1845      2977      3121
 -1      8760    3    0    1
 -2      1166       904      1430      3061
 -1      8761    3    0    1
 -2      3072      2951      2955      1474
 -1      8762    3    0    1
 -2      3072      2928      2951      1474
 -1      8763    3    0    1
 -2      3082      2731      2947      3107
 -1      8764    3    0    1
 -2      1249      1416      1433      3121
 -1      8765    3    0    1
 -2      3104      1477      3113      3121
 -1      8766    3    0    1
 -2      2732      1249      2850      3121
 -1      8767    3    0    1
 -2       608       599       606      3035
 -1      8768    3    0    1
 -2      1428      1427      3098      1481
 -1      8769    3    0    1
 -2       376      1454      3101      3008
 -1      8770    3    0    1
 -2      1442      3067      3103      3121
 -1      8771    3    0    1
 -2      2762      2901      3078      2960
 -1      8772    3    0    1
 -2      3078      2901      1473      2960
 -1      8773    3    0    1
 -2      2947      2918      1455      2961
 -1      8774    3    0    1
 -2       951      1227      2822      1475
 -1      8775    3    0    1
 -2       617       135      2968      3015
 -1      8776    3    0    1
 -2       948       551      2991      3010
 -1      8777    3    0    1
 -2      3004      1220      3011      3019
 -1      8778    3    0    1
 -2      1432      1444      1468      1496
 -1      8779    3    0    1
 -2      1048       226      3027      3051
 -1      8780    3    0    1
 -2       195       194      2975      3016
 -1      8781    3    0    1
 -2      1455       359      1501      1518
 -1      8782    3    0    1
 -2      1030      1280      2976      3005
 -1      8783    3    0    1
 -2      2940      2724      3078      1477
 -1      8784    3    0    1
 -2      2899      2724      2940      1477
 -1      8785    3    0    1
 -2      2724      2899      2923      1477
 -1      8786    3    0    1
 -2      3074      2506      1473      2969
 -1      8787    3    0    1
 -2      2885      1435      3083      2978
 -1      8788    3    0    1
 -2      3041      3040      3060      3061
 -1      8789    3    0    1
 -2       349      2952      3114      3042
 -1      8790    3    0    1
 -2      1249      2732      3067      3121
 -1      8791    3    0    1
 -2      2911      1433      3104      3121
 -1      8792    3    0    1
 -2      1434      3104      1505      1506
 -1      8793    3    0    1
 -2      3076      2909      3124      3125
 -1      8794    3    0    1
 -2      2894      3074      2959      2969
 -1      8795    3    0    1
 -2       210       349      3114      3042
 -1      8796    3    0    1
 -2      1435      2885      3093      2978
 -1      8797    3    0    1
 -2       165       166      1009      2962
 -1      8798    3    0    1
 -2       345      3091      3103      2967
 -1      8799    3    0    1
 -2      3091       343      3103      2967
 -1      8800    3    0    1
 -2      2962      1015      3007      2965
 -1      8801    3    0    1
 -2       666       166      2963      2965
 -1      8802    3    0    1
 -2      1429      1430      3075      1485
 -1      8803    3    0    1
 -2      1435       349      2952      3114
 -1      8804    3    0    1
 -2      1435      2952      3093      3114
 -1      8805    3    0    1
 -2      2965      2963      2981      3007
 -1      8806    3    0    1
 -2      1015      2962      3007      1271
 -1      8807    3    0    1
 -2       210      3114      1490      3122
 -1      8808    3    0    1
 -2      2911      1477      2977      3121
 -1      8809    3    0    1
 -2      1476      3117      1502      3125
 -1      8810    3    0    1
 -2      1442      1477      1500      3049
 -1      8811    3    0    1
 -2      1501       359      3124      3125
 -1      8812    3    0    1
 -2      3026       738      3051      3064
 -1      8813    3    0    1
 -2      1435      1437      1484      3065
 -1      8814    3    0    1
 -2       737      3027      3051      3065
 -1      8815    3    0    1
 -2       822      1092       823      2987
 -1      8816    3    0    1
 -2      3073      1472      3102      3119
 -1      8817    3    0    1
 -2      1462       361      1464      1493
 -1      8818    3    0    1
 -2      1429      1454      1485      3126
 -1      8819    3    0    1
 -2      1440      1413      1458      3128
 -1      8820    3    0    1
 -2      2147      2887      2953      3105
 -1      8821    3    0    1
 -2      2929      2914      1464      3105
 -1      8822    3    0    1
 -2      2887      2147      2888      3105
 -1      8823    3    0    1
 -2       370      1474      3105      3106
 -1      8824    3    0    1
 -2       370        64      1480      3106
 -1      8825    3    0    1
 -2      1479       370      1480      3106
 -1      8826    3    0    1
 -2      3015       618      3050      3063
 -1      8827    3    0    1
 -2      3098      1454      3101      1481
 -1      8828    3    0    1
 -2      2947      1455      1468      3107
 -1      8829    3    0    1
 -2      3082      2947      1468      3107
 -1      8830    3    0    1
 -2      3068      1413      2994      3128
 -1      8831    3    0    1
 -2      3052      1338      3053      3054
 -1      8832    3    0    1
 -2      1452      2906      3107      3022
 -1      8833    3    0    1
 -2      1440       429      1458      1512
 -1      8834    3    0    1
 -2      2947      2598      2961      3107
 -1      8835    3    0    1
 -2       101       348      3085      3107
 -1      8836    3    0    1
 -2      1455      2947      2961      3107
 -1      8837    3    0    1
 -2      3124      3076      3125      3131
 -1      8838    3    0    1
 -2      1440      2972      1512      3024
 -1      8839    3    0    1
 -2      1465        78      3125      3131
 -1      8840    3    0    1
 -2      2731      2944      2947      3107
 -1      8841    3    0    1
 -2      3085      3082      3107      3129
 -1      8842    3    0    1
 -2      1455      2906      1468      3107
 -1      8843    3    0    1
 -2      3076      2947      2961      2918
 -1      8844    3    0    1
 -2      3082      2731      3107      3129
 -1      8845    3    0    1
 -2      2598      2906      2961      3107
 -1      8846    3    0    1
 -2      2731      3082      2950      3129
 -1      8847    3    0    1
 -2      2906      1455      2961      3107
 -1      8848    3    0    1
 -2      2971      1080      3024      3023
 -1      8849    3    0    1
 -2      2972       786      1512      3024
 -1      8850    3    0    1
 -2       787      1318      1074      2971
 -1      8851    3    0    1
 -2       256      1318       263      2971
 -1      8852    3    0    1
 -2      1318       787       788      2971
 -1      8853    3    0    1
 -2      1080      2971      3024      1326
 -1      8854    3    0    1
 -2        28        27       912      2973
 -1      8855    3    0    1
 -2       910        28       912      2973
 -1      8856    3    0    1
 -2      2879      2913      3081      3108
 -1      8857    3    0    1
 -2      2878      2879      2912      3108
 -1      8858    3    0    1
 -2      3092      1451      3097      3108
 -1      8859    3    0    1
 -2      2913      2878      1445      3108
 -1      8860    3    0    1
 -2       480       479       910      2973
 -1      8861    3    0    1
 -2       193      1445      2957      3108
 -1      8862    3    0    1
 -2      1215       951      1418      3038
 -1      8863    3    0    1
 -2      1451       351      2957      3108
 -1      8864    3    0    1
 -2      2912      1451      2957      3108
 -1      8865    3    0    1
 -2      2879      2878      2913      3108
 -1      8866    3    0    1
 -2      1445      2942      2957      3108
 -1      8867    3    0    1
 -2       351       193      2957      3108
 -1      8868    3    0    1
 -2      2893      2904      1445      3109
 -1      8869    3    0    1
 -2      3081      3092      3108      3109
 -1      8870    3    0    1
 -2      1445       193      1447      3109
 -1      8871    3    0    1
 -2      1447       193      3092      3109
 -1      8872    3    0    1
 -2      2077      1420      2924      3109
 -1      8873    3    0    1
 -2      2924      1420      3081      3109
 -1      8874    3    0    1
 -2      2077      2924      3081      3109
 -1      8875    3    0    1
 -2      1445      2913      3108      3109
 -1      8876    3    0    1
 -2      2913      3081      3108      3109
 -1      8877    3    0    1
 -2       193      1445      3108      3109
 -1      8878    3    0    1
 -2      3092       193      3108      3109
 -1      8879    3    0    1
 -2      2077      2893      2958      3109
 -1      8880    3    0    1
 -2      2893      2077      2913      3109
 -1      8881    3    0    1
 -2      2904      2893      2913      3109
 -1      8882    3    0    1
 -2      2917      3069      2996      3039
 -1      8883    3    0    1
 -2      1273       691       692      2975
 -1      8884    3    0    1
 -2       689      2975      3005      3016
 -1      8885    3    0    1
 -2       775       767       766      3006
 -1      8886    3    0    1
 -2      1845      2882      3091      2977
 -1      8887    3    0    1
 -2      2724      2911      3078      2977
 -1      8888    3    0    1
 -2      3074      2959      2969      3009
 -1      8889    3    0    1
 -2      2885      2091      3093      2978
 -1      8890    3    0    1
 -2      2937      2952      3093      2978
 -1      8891    3    0    1
 -2      2091      2937      3093      2978
 -1      8892    3    0    1
 -2      2952      1435      3093      2978
 -1      8893    3    0    1
 -2      3082      1432      1468      3124
 -1      8894    3    0    1
 -2      1227       963      2920      3124
 -1      8895    3    0    1
 -2      1483      1453      3110      3123
 -1      8896    3    0    1
 -2      1453      3083      3110      3123
 -1      8897    3    0    1
 -2      1437      1435      1484      3111
 -1      8898    3    0    1
 -2      1054      1304      1411      3111
 -1      8899    3    0    1
 -2      2885      2078      2892      3111
 -1      8900    3    0    1
 -2      1435       362      1484      3111
 -1      8901    3    0    1
 -2      2885      3083      2892      2091
 -1      8902    3    0    1
 -2      1067      1813      2261      2979
 -1      8903    3    0    1
 -2      2822      2909      1475      3124
 -1      8904    3    0    1
 -2      3083      1435      3130      2978
 -1      8905    3    0    1
 -2      1411      1304      2885      3111
 -1      8906    3    0    1
 -2      2907      2091      3083      2979
 -1      8907    3    0    1
 -2      2909      2918      3076      3124
 -1      8908    3    0    1
 -2      1304      1054      2078      3111
 -1      8909    3    0    1
 -2      1432       963      1475      3124
 -1      8910    3    0    1
 -2      2078      1054      2892      3111
 -1      8911    3    0    1
 -2      2892      1054      1437      3111
 -1      8912    3    0    1
 -2       594      2989      1488      3014
 -1      8913    3    0    1
 -2      1412      1451      1490      3122
 -1      8914    3    0    1
 -2      3088      1411      3111      1489
 -1      8915    3    0    1
 -2       740       750      3026      3027
 -1      8916    3    0    1
 -2      2910      1813      3068      3110
 -1      8917    3    0    1
 -2      2910      3068      3079      3110
 -1      8918    3    0    1
 -2      3079      3068      1459      3110
 -1      8919    3    0    1
 -2      1315      1067      2261      3110
 -1      8920    3    0    1
 -2      2261      1067      2979      3110
 -1      8921    3    0    1
 -2      1315      2261      1436      3110
 -1      8922    3    0    1
 -2      2091      3083      2979      3110
 -1      8923    3    0    1
 -2      2091      2910      1453      3110
 -1      8924    3    0    1
 -2      3083      2091      1453      3110
 -1      8925    3    0    1
 -2      3077      3079      1453      3110
 -1      8926    3    0    1
 -2      2910      3077      1453      3110
 -1      8927    3    0    1
 -2      3077      2910      3079      3110
 -1      8928    3    0    1
 -2       430      3079      1459      3110
 -1      8929    3    0    1
 -2      3079       430      1453      3110
 -1      8930    3    0    1
 -2      1453       430      1459      3110
 -1      8931    3    0    1
 -2      1813      2910      2979      3110
 -1      8932    3    0    1
 -2      2910      2091      2979      3110
 -1      8933    3    0    1
 -2       666      2963      1478      2981
 -1      8934    3    0    1
 -2      2963      1448      1478      2981
 -1      8935    3    0    1
 -2      1448       176      3096      3132
 -1      8936    3    0    1
 -2       370        64      3106      3020
 -1      8937    3    0    1
 -2      2896      2709      1456      3116
 -1      8938    3    0    1
 -2      3070      2896      3089      3116
 -1      8939    3    0    1
 -2       421      1456      1460      3116
 -1      8940    3    0    1
 -2      1845      2732      3067      2982
 -1      8941    3    0    1
 -2      1180      2347      1425      3116
 -1      8942    3    0    1
 -2      2709      2915      3087      3116
 -1      8943    3    0    1
 -2       976      1415      3067      2982
 -1      8944    3    0    1
 -2      2616       976      2732      2982
 -1      8945    3    0    1
 -2      2732       976      3067      2982
 -1      8946    3    0    1
 -2       362      1435      1484      1510
 -1      8947    3    0    1
 -2      2371      1412      3088      3122
 -1      8948    3    0    1
 -2      1506      1473      1521      3066
 -1      8949    3    0    1
 -2      1193       925      1409      3057
 -1      8950    3    0    1
 -2       714       211      2948      2983
 -1      8951    3    0    1
 -2      3080      3096      3112      3132
 -1      8952    3    0    1
 -2      1424      1472      1473      3058
 -1      8953    3    0    1
 -2      1448      1848      2959      2984
 -1      8954    3    0    1
 -2      2890      2904      2942      2984
 -1      8955    3    0    1
 -2      2898      2890      2959      2984
 -1      8956    3    0    1
 -2      1848      2898      2959      2984
 -1      8957    3    0    1
 -2      2890      2889      2904      2984
 -1      8958    3    0    1
 -2      2889      2890      2898      2984
 -1      8959    3    0    1
 -2      2904      1848      2943      2984
 -1      8960    3    0    1
 -2      2889      1848      2904      2984
 -1      8961    3    0    1
 -2      1848      2889      2898      2984
 -1      8962    3    0    1
 -2      1456      1410      1492      3037
 -1      8963    3    0    1
 -2      2963      1448      2981      3007
 -1      8964    3    0    1
 -2      1448      1423      2981      3007
 -1      8965    3    0    1
 -2      2962       665      2963      3007
 -1      8966    3    0    1
 -2       241       761      2966      2985
 -1      8967    3    0    1
 -2       368       376      3101      3008
 -1      8968    3    0    1
 -2       339      1477      3113      1505
 -1      8969    3    0    1
 -2      1477      3104      3113      1505
 -1      8970    3    0    1
 -2      1062       241      2966      2985
 -1      8971    3    0    1
 -2      3101      3099      2997      3008
 -1      8972    3    0    1
 -2      3086         1      1457      2986
 -1      8973    3    0    1
 -2      3084      3086      1457      2986
 -1      8974    3    0    1
 -2      1473      1472      1495      3058
 -1      8975    3    0    1
 -2      1441       343      1452      1488
 -1      8976    3    0    1
 -2      3082      1431      2950      3115
 -1      8977    3    0    1
 -2      3067      2956      2982      3115
 -1      8978    3    0    1
 -2      3067      1415      1441      3115
 -1      8979    3    0    1
 -2      1441      1415      1452      3115
 -1      8980    3    0    1
 -2      1238       976      2950      3115
 -1      8981    3    0    1
 -2       976      1238      1431      3115
 -1      8982    3    0    1
 -2      1431      1238      2950      3115
 -1      8983    3    0    1
 -2      1074       787      2971      3023
 -1      8984    3    0    1
 -2      1431      1443      1452      3115
 -1      8985    3    0    1
 -2      3067      1441      3103      3115
 -1      8986    3    0    1
 -2       798      1080      2971      3023
 -1      8987    3    0    1
 -2      2956      3067      3091      3115
 -1      8988    3    0    1
 -2      3091      3067      3103      3115
 -1      8989    3    0    1
 -2      1452      3091      3103      3115
 -1      8990    3    0    1
 -2       343      1452      3103      3115
 -1      8991    3    0    1
 -2      1441       343      3103      3115
 -1      8992    3    0    1
 -2       343      1441      1452      3115
 -1      8993    3    0    1
 -2      2950      2616      2982      3115
 -1      8994    3    0    1
 -2      1074      2971      2972      3023
 -1      8995    3    0    1
 -2      1456       421      3089      3116
 -1      8996    3    0    1
 -2      3089       421      1460      3116
 -1      8997    3    0    1
 -2      3069      1456      3089      3116
 -1      8998    3    0    1
 -2      2896      3069      3089      3116
 -1      8999    3    0    1
 -2      3069      2896      1456      3116
 -1      9000    3    0    1
 -2      2896      2347      2970      3116
 -1      9001    3    0    1
 -2      2709      2896      2970      3116
 -1      9002    3    0    1
 -2      2915      2709      2970      3116
 -1      9003    3    0    1
 -2       811       812      1086      2987
 -1      9004    3    0    1
 -2      1080      3098      2994      3128
 -1      9005    3    0    1
 -2       275      1086      1330      2987
 -1      9006    3    0    1
 -2      1193       510       925      3055
 -1      9007    3    0    1
 -2      1454      3126      3052      3054
 -1      9008    3    0    1
 -2      1086       812      1330      2987
 -1      9009    3    0    1
 -2      3021       810      1520      3054
 -1      9010    3    0    1
 -2      2934      2933      3075      3126
 -1      9011    3    0    1
 -2      1080      1413      1428      3128
 -1      9012    3    0    1
 -2      3098      1428      1482      3128
 -1      9013    3    0    1
 -2      2902      2124      2961      3131
 -1      9014    3    0    1
 -2      1431      1415      3115      3036
 -1      9015    3    0    1
 -2      1410      3018      1180      3037
 -1      9016    3    0    1
 -2      3071      3090      3117      2903
 -1      9017    3    0    1
 -2      1410      3018      1456      3116
 -1      9018    3    0    1
 -2       375      3086      1454      2990
 -1      9019    3    0    1
 -2       976      1415      1431      3036
 -1      9020    3    0    1
 -2      1443      1452      1517      3036
 -1      9021    3    0    1
 -2      2989      3014      3035      3036
 -1      9022    3    0    1
 -2      3090      1465      3094      3117
 -1      9023    3    0    1
 -2      2909      3076      2980      3117
 -1      9024    3    0    1
 -2      2975      2976      3005      3016
 -1      9025    3    0    1
 -2      1215      1659      2199      3117
 -1      9026    3    0    1
 -2      1215      2199      3071      3117
 -1      9027    3    0    1
 -2      1418      1215      3071      3117
 -1      9028    3    0    1
 -2      2199      2903      3071      3117
 -1      9029    3    0    1
 -2       951      1215      1418      3117
 -1      9030    3    0    1
 -2      1215       951      1659      3117
 -1      9031    3    0    1
 -2       363      1463      3094      3117
 -1      9032    3    0    1
 -2      1463       363      1465      3117
 -1      9033    3    0    1
 -2      1465       363      3094      3117
 -1      9034    3    0    1
 -2      3090      2903      2980      3117
 -1      9035    3    0    1
 -2      1659      2909      2980      3117
 -1      9036    3    0    1
 -2      2199      1659      2980      3117
 -1      9037    3    0    1
 -2      2903      2199      2980      3117
 -1      9038    3    0    1
 -2      1451      1419      3097      3122
 -1      9039    3    0    1
 -2      1041      2949      3097      3122
 -1      9040    3    0    1
 -2       426      3087      1491      1492
 -1      9041    3    0    1
 -2       426       428      3087      1492
 -1      9042    3    0    1
 -2      3087       428      1456      1492
 -1      9043    3    0    1
 -2       428      3087      1456      3095
 -1      9044    3    0    1
 -2      1456      1410      3116      1492
 -1      9045    3    0    1
 -2      3087      1456      3116      1492
 -1      9046    3    0    1
 -2      1410      3087      3116      1492
 -1      9047    3    0    1
 -2       210      1451      1490      1508
 -1      9048    3    0    1
 -2      3090      2914      1464      2993
 -1      9049    3    0    1
 -2      1215       558       951      2991
 -1      9050    3    0    1
 -2       550       551       558      2991
 -1      9051    3    0    1
 -2      3090      1464      3094      2993
 -1      9052    3    0    1
 -2       948       550      1210      2991
 -1      9053    3    0    1
 -2      3027      1437      3064      3065
 -1      9054    3    0    1
 -2      1210        80       948      2991
 -1      9055    3    0    1
 -2        80      1210        81      2991
 -1      9056    3    0    1
 -2       551       550       948      2991
 -1      9057    3    0    1
 -2      2923      2378      3091      3129
 -1      9058    3    0    1
 -2      1432      3004      1496      3011
 -1      9059    3    0    1
 -2      1455      1432      1468      3011
 -1      9060    3    0    1
 -2      1876      1080      3098      2994
 -1      9061    3    0    1
 -2      3091      2956      3115      3129
 -1      9062    3    0    1
 -2      1452      3091      3115      3129
 -1      9063    3    0    1
 -2      2378      2906      2944      3129
 -1      9064    3    0    1
 -2      1452      2923      3091      3129
 -1      9065    3    0    1
 -2      1443      1452      3115      3129
 -1      9066    3    0    1
 -2      2906      2378      2923      3129
 -1      9067    3    0    1
 -2       348      3085      3107      3129
 -1      9068    3    0    1
 -2        59       934      1200      2995
 -1      9069    3    0    1
 -2      1417      1462      1464      3044
 -1      9070    3    0    1
 -2       934       526      1200      2995
 -1      9071    3    0    1
 -2      1417      1464      3118      3044
 -1      9072    3    0    1
 -2      1472      1424      1473      3119
 -1      9073    3    0    1
 -2        54        59      1200      2995
 -1      9074    3    0    1
 -2      1434      2762      3104      3119
 -1      9075    3    0    1
 -2      2762      2960      3113      3119
 -1      9076    3    0    1
 -2      3102      3074      2960      3119
 -1      9077    3    0    1
 -2      3073      1424      1472      3119
 -1      9078    3    0    1
 -2      2927      3100      3105      3120
 -1      9079    3    0    1
 -2      1409      2881      3087      3120
 -1      9080    3    0    1
 -2      1417      1203      1422      3118
 -1      9081    3    0    1
 -2      1422      2147      3100      3118
 -1      9082    3    0    1
 -2      2199       939      1417      3118
 -1      9083    3    0    1
 -2       361      1464      3094      3118
 -1      9084    3    0    1
 -2      1462       361      3094      3118
 -1      9085    3    0    1
 -2       361      1462      1464      3118
 -1      9086    3    0    1
 -2      3090      2888      3094      3118
 -1      9087    3    0    1
 -2      2888      3090      1464      3118
 -1      9088    3    0    1
 -2      1464      3090      3094      3118
 -1      9089    3    0    1
 -2      3100      2147      3105      3118
 -1      9090    3    0    1
 -2      1464      3100      3105      3118
 -1      9091    3    0    1
 -2       939      1203      1417      3118
 -1      9092    3    0    1
 -2      1422      3100      1480      3118
 -1      9093    3    0    1
 -2      1464      1422      1480      3118
 -1      9094    3    0    1
 -2      2083       939      2199      3118
 -1      9095    3    0    1
 -2      1203       939      2083      3118
 -1      9096    3    0    1
 -2      1203      2083      2147      3118
 -1      9097    3    0    1
 -2      1480      3100      3106      3118
 -1      9098    3    0    1
 -2      1464      1480      3106      3118
 -1      9099    3    0    1
 -2      3100      1464      3106      3118
 -1      9100    3    0    1
 -2      2147      2199      2888      3118
 -1      9101    3    0    1
 -2      2147      2083      2199      3118
 -1      9102    3    0    1
 -2      1499       497      3032      3057
 -1      9103    3    0    1
 -2       498      1516      3032      3056
 -1      9104    3    0    1
 -2      2929      1474      3105      3020
 -1      9105    3    0    1
 -2       503       504       510      3055
 -1      9106    3    0    1
 -2       647       999       648      3001
 -1      9107    3    0    1
 -2      1283       716      2948      3031
 -1      9108    3    0    1
 -2       999       647       997      3001
 -1      9109    3    0    1
 -2         3       450      3041      3060
 -1      9110    3    0    1
 -2       606      1238       608      3035
 -1      9111    3    0    1
 -2      1283      2948      2983      3031
 -1      9112    3    0    1
 -2      1166      3060      3061      3062
 -1      9113    3    0    1
 -2      1422      1417      3118      3045
 -1      9114    3    0    1
 -2        59       521      2995      3003
 -1      9115    3    0    1
 -2      3003      2995      3043      3044
 -1      9116    3    0    1
 -2      1203      3043      3044      3045
 -1      9117    3    0    1
 -2       193      1447      1466      3046
 -1      9118    3    0    1
 -2      1260      2762      1434      3119
 -1      9119    3    0    1
 -2       158      1473      3102      3119
 -1      9120    3    0    1
 -2      1472       158      3102      3119
 -1      9121    3    0    1
 -2       158      1472      1473      3119
 -1      9122    3    0    1
 -2      1260      2115      2762      3119
 -1      9123    3    0    1
 -2      1002      1260      1434      3119
 -1      9124    3    0    1
 -2      1260      1002      2115      3119
 -1      9125    3    0    1
 -2      2115      1002      2239      3119
 -1      9126    3    0    1
 -2      2762      2239      2960      3119
 -1      9127    3    0    1
 -2      2115      2239      2762      3119
 -1      9128    3    0    1
 -2      1465      1476      1502      3012
 -1      9129    3    0    1
 -2      1449      1445      1470      3005
 -1      9130    3    0    1
 -2      2922      2930      1454      3126
 -1      9131    3    0    1
 -2      2971       786      2972      3024
 -1      9132    3    0    1
 -2      1338      2987      3052      3053
 -1      9133    3    0    1
 -2      2930      3075      3086      3126
 -1      9134    3    0    1
 -2      3114      3093      3000      3042
 -1      9135    3    0    1
 -2       766       767      1312      3006
 -1      9136    3    0    1
 -2       237       762      2985      3006
 -1      9137    3    0    1
 -2       237      1062      1312      3006
 -1      9138    3    0    1
 -2       766      1062      2966      3006
 -1      9139    3    0    1
 -2      1062       766      1312      3006
 -1      9140    3    0    1
 -2       237       241      1062      3006
 -1      9141    3    0    1
 -2       241       237      2985      3006
 -1      9142    3    0    1
 -2       774       766      2966      3006
 -1      9143    3    0    1
 -2      1448      2963      1497      3007
 -1      9144    3    0    1
 -2      1015      2965      2981      3007
 -1      9145    3    0    1
 -2       925      1193      1409      3120
 -1      9146    3    0    1
 -2      3100      1479      3106      3120
 -1      9147    3    0    1
 -2      1870      2927      3105      3120
 -1      9148    3    0    1
 -2      1474      1870      3105      3120
 -1      9149    3    0    1
 -2      3105      3100      3106      3120
 -1      9150    3    0    1
 -2      1474      3105      3106      3120
 -1      9151    3    0    1
 -2      2881      1870      3072      3120
 -1      9152    3    0    1
 -2      3072      1870      1474      3120
 -1      9153    3    0    1
 -2      2881      3072      3087      3120
 -1      9154    3    0    1
 -2      3087      3072      1474      3120
 -1      9155    3    0    1
 -2      1474      1409      1491      3120
 -1      9156    3    0    1
 -2      3087      1474      1491      3120
 -1      9157    3    0    1
 -2      1409      3087      1491      3120
 -1      9158    3    0    1
 -2      1193       925      2636      3120
 -1      9159    3    0    1
 -2       370      1474      3106      3120
 -1      9160    3    0    1
 -2      1474       370      1479      3120
 -1      9161    3    0    1
 -2      1479       370      3106      3120
 -1      9162    3    0    1
 -2      1193      2499      2881      3120
 -1      9163    3    0    1
 -2      2499      1193      2636      3120
 -1      9164    3    0    1
 -2      1870      2881      2927      3120
 -1      9165    3    0    1
 -2      2881      2636      2927      3120
 -1      9166    3    0    1
 -2      2499      2636      2881      3120
 -1      9167    3    0    1
 -2      2911      3104      3113      3121
 -1      9168    3    0    1
 -2      1477      2911      3113      3121
 -1      9169    3    0    1
 -2       345      1442      3103      3121
 -1      9170    3    0    1
 -2      1442       345      1477      3121
 -1      9171    3    0    1
 -2      1477       345      3103      3121
 -1      9172    3    0    1
 -2       989      1249      1433      3121
 -1      9173    3    0    1
 -2      1249       989      2850      3121
 -1      9174    3    0    1
 -2      2850       989      1433      3121
 -1      9175    3    0    1
 -2      2732      2911      2977      3121
 -1      9176    3    0    1
 -2      2732      2850      2911      3121
 -1      9177    3    0    1
 -2      1845      2732      2977      3121
 -1      9178    3    0    1
 -2       194      1023      2975      3016
 -1      9179    3    0    1
 -2      1465      1476      3117      1502
 -1      9180    3    0    1
 -2       551       558      2991      3010
 -1      9181    3    0    1
 -2       558       951      2991      3010
 -1      9182    3    0    1
 -2      1419      1412      3122      3034
 -1      9183    3    0    1
 -2        80       948      2991      3010
 -1      9184    3    0    1
 -2      3122      1451      3028      3034
 -1      9185    3    0    1
 -2      2991       951      3038      3010
 -1      9186    3    0    1
 -2      1412      1451      3122      3034
 -1      9187    3    0    1
 -2       545        80      2992      3010
 -1      9188    3    0    1
 -2      1451      1412      1490      3034
 -1      9189    3    0    1
 -2      1477      1433      3121      1505
 -1      9190    3    0    1
 -2      2917       422      3089      3039
 -1      9191    3    0    1
 -2      3069      3089      2996      3039
 -1      9192    3    0    1
 -2      1220        92      3004      3011
 -1      9193    3    0    1
 -2       210      3114      3000      3042
 -1      9194    3    0    1
 -2      2992      1465      1503      3012
 -1      9195    3    0    1
 -2      1080      1413      3024      3048
 -1      9196    3    0    1
 -2      1067      1414      1436      3013
 -1      9197    3    0    1
 -2      1476      2909      3117      3125
 -1      9198    3    0    1
 -2       223       226      3026      3051
 -1      9199    3    0    1
 -2      3104      1434      3119      1506
 -1      9200    3    0    1
 -2      1473      3104      3119      1506
 -1      9201    3    0    1
 -2      1434      1473      3119      1506
 -1      9202    3    0    1
 -2       726      1041      2948      3031
 -1      9203    3    0    1
 -2       463       452      3040      3060
 -1      9204    3    0    1
 -2      1451      2983      3028      3034
 -1      9205    3    0    1
 -2      1453      1414      1459      3013
 -1      9206    3    0    1
 -2      1453      1459      1498      3013
 -1      9207    3    0    1
 -2       761      2985      1498      3013
 -1      9208    3    0    1
 -2      2985      1453      1498      3013
 -1      9209    3    0    1
 -2      1041      3028      3031      3034
 -1      9210    3    0    1
 -2      1451       210      1490      3122
 -1      9211    3    0    1
 -2       210      1451      3114      3122
 -1      9212    3    0    1
 -2      2879      1451      3097      3122
 -1      9213    3    0    1
 -2      1412      1041      1419      3122
 -1      9214    3    0    1
 -2      2949      2879      3097      3122
 -1      9215    3    0    1
 -2      2919      2371      3088      3122
 -1      9216    3    0    1
 -2      1041      2371      2949      3122
 -1      9217    3    0    1
 -2      2371      1041      1412      3122
 -1      9218    3    0    1
 -2      3093      2919      3114      3122
 -1      9219    3    0    1
 -2      1451      3093      3114      3122
 -1      9220    3    0    1
 -2      1451      2879      3093      3122
 -1      9221    3    0    1
 -2      2879      2919      3093      3122
 -1      9222    3    0    1
 -2      1293      1041      3097      3122
 -1      9223    3    0    1
 -2      1041      1293      1419      3122
 -1      9224    3    0    1
 -2      1419      1293      3097      3122
 -1      9225    3    0    1
 -2      2919      2879      2949      3122
 -1      9226    3    0    1
 -2      2371      2919      2949      3122
 -1      9227    3    0    1
 -2      1435       349      1489      1515
 -1      9228    3    0    1
 -2      1437      2892      3111      3123
 -1      9229    3    0    1
 -2      1436      2892      1437      3123
 -1      9230    3    0    1
 -2      1203       536      2995      3043
 -1      9231    3    0    1
 -2      2952      3093      3114      3042
 -1      9232    3    0    1
 -2      3093      2952      3000      3042
 -1      9233    3    0    1
 -2      2892      2261      3083      3123
 -1      9234    3    0    1
 -2      2261      2892      1436      3123
 -1      9235    3    0    1
 -2      1436      1483      3110      3123
 -1      9236    3    0    1
 -2      3123      2979      3110      1436
 -1      9237    3    0    1
 -2      3083      2261      2979      3123
 -1      9238    3    0    1
 -2      2261      3083      2979      2907
 -1      9239    3    0    1
 -2       364      1483      1484      3123
 -1      9240    3    0    1
 -2      1483      1437      1484      3123
 -1      9241    3    0    1
 -2       362       364      1484      3123
 -1      9242    3    0    1
 -2      1436      1437      1483      3123
 -1      9243    3    0    1
 -2       359      1455      1501      3124
 -1      9244    3    0    1
 -2      2975      1023      2976      3016
 -1      9245    3    0    1
 -2      2731      2920      3082      3124
 -1      9246    3    0    1
 -2      2918      2947      1455      3124
 -1      9247    3    0    1
 -2      2947      3082      1468      3124
 -1      9248    3    0    1
 -2      1455      2947      1468      3124
 -1      9249    3    0    1
 -2      2731      3082      2947      3124
 -1      9250    3    0    1
 -2      2918      2822      2920      3124
 -1      9251    3    0    1
 -2      2909      2822      2918      3124
 -1      9252    3    0    1
 -2      2731      2918      2920      3124
 -1      9253    3    0    1
 -2      2918      2731      2947      3124
 -1      9254    3    0    1
 -2       226      1048      3026      3051
 -1      9255    3    0    1
 -2       135       985      2968      3015
 -1      9256    3    0    1
 -2       339      1477      1505      1519
 -1      9257    3    0    1
 -2      1501      1476      1502      3125
 -1      9258    3    0    1
 -2        78       359      1502      3125
 -1      9259    3    0    1
 -2      1475      1476      1501      3125
 -1      9260    3    0    1
 -2       690      1466      2976      3016
 -1      9261    3    0    1
 -2       689       195      2975      3016
 -1      9262    3    0    1
 -2       194       690      2976      3016
 -1      9263    3    0    1
 -2      1023       194      2976      3016
 -1      9264    3    0    1
 -2       570      3011      3019      3047
 -1      9265    3    0    1
 -2       572       582       584      3019
 -1      9266    3    0    1
 -2      3023      1080      3024      3048
 -1      9267    3    0    1
 -2      1467      1456      2974      3018
 -1      9268    3    0    1
 -2      1463      1418      1465      3038
 -1      9269    3    0    1
 -2       573       572      1219      3019
 -1      9270    3    0    1
 -2        93       570      3011      3019
 -1      9271    3    0    1
 -2      1219        93      1220      3019
 -1      9272    3    0    1
 -2       573      1220      3004      3019
 -1      9273    3    0    1
 -2       573      1219      1220      3019
 -1      9274    3    0    1
 -2       582       573      3004      3019
 -1      9275    3    0    1
 -2        93        92      1220      3019
 -1      9276    3    0    1
 -2        92        93      3011      3019
 -1      9277    3    0    1
 -2      1427      2932      3098      3126
 -1      9278    3    0    1
 -2      1092      1338      1429      3126
 -1      9279    3    0    1
 -2      1338      1092      2400      3126
 -1      9280    3    0    1
 -2       375      3086      1485      3126
 -1      9281    3    0    1
 -2      3086       375      1454      3126
 -1      9282    3    0    1
 -2      1454       375      1485      3126
 -1      9283    3    0    1
 -2      3084      3086      1454      3126
 -1      9284    3    0    1
 -2      2930      3084      1454      3126
 -1      9285    3    0    1
 -2      3084      2930      3086      3126
 -1      9286    3    0    1
 -2      3098      2922      3101      3126
 -1      9287    3    0    1
 -2      1454      3098      3101      3126
 -1      9288    3    0    1
 -2      2922      1454      3101      3126
 -1      9289    3    0    1
 -2      3098      1454      1481      3126
 -1      9290    3    0    1
 -2      1427      3098      1481      3126
 -1      9291    3    0    1
 -2      1454      1427      1481      3126
 -1      9292    3    0    1
 -2      2932      2400      2934      3126
 -1      9293    3    0    1
 -2      2400      2933      2934      3126
 -1      9294    3    0    1
 -2      2922      2932      2934      3126
 -1      9295    3    0    1
 -2      2930      2922      2934      3126
 -1      9296    3    0    1
 -2         1      3086      1457      3127
 -1      9297    3    0    1
 -2      2451      2895      3084      3127
 -1      9298    3    0    1
 -2      2895      2905      1457      3127
 -1      9299    3    0    1
 -2      3084      2895      1457      3127
 -1      9300    3    0    1
 -2      1457      2905      3089      3127
 -1      9301    3    0    1
 -2      3070      1457      3089      3127
 -1      9302    3    0    1
 -2      2905      3070      3089      3127
 -1      9303    3    0    1
 -2      2905      2451      2999      3127
 -1      9304    3    0    1
 -2      2451      2933      2999      3127
 -1      9305    3    0    1
 -2      2895      2451      2905      3127
 -1      9306    3    0    1
 -2      2998        42      3032      3055
 -1      9307    3    0    1
 -2       275       809      2987      3021
 -1      9308    3    0    1
 -2      3021      3052      3053      3054
 -1      9309    3    0    1
 -2      1427      1338      3052      3054
 -1      9310    3    0    1
 -2      1409       925      1421      3057
 -1      9311    3    0    1
 -2      3068      2900      3079      3128
 -1      9312    3    0    1
 -2      3079      2900      1440      3128
 -1      9313    3    0    1
 -2      3068      3079      1440      3128
 -1      9314    3    0    1
 -2      2954      2348      3099      3128
 -1      9315    3    0    1
 -2      1440      2954      3099      3128
 -1      9316    3    0    1
 -2      3101      3098      1482      3128
 -1      9317    3    0    1
 -2      3099      2348      3101      3128
 -1      9318    3    0    1
 -2       368      3101      1482      3128
 -1      9319    3    0    1
 -2      1440       368      1482      3128
 -1      9320    3    0    1
 -2       368      1440      3101      3128
 -1      9321    3    0    1
 -2      1440      3101      3099      2997
 -1      9322    3    0    1
 -2      3101      1440      3099      3128
 -1      9323    3    0    1
 -2      3127      3061      1457      3062
 -1      9324    3    0    1
 -2      2348      2900      2994      3128
 -1      9325    3    0    1
 -2      2900      2348      2954      3128
 -1      9326    3    0    1
 -2      1443      3082      3085      3129
 -1      9327    3    0    1
 -2      1443       348      1452      3129
 -1      9328    3    0    1
 -2       348      1443      3085      3129
 -1      9329    3    0    1
 -2      3107      1452      3022      3129
 -1      9330    3    0    1
 -2       348      3107      3022      3129
 -1      9331    3    0    1
 -2      2982      2950      3115      3129
 -1      9332    3    0    1
 -2      2956      2982      3115      3129
 -1      9333    3    0    1
 -2      1431      1443      3115      3129
 -1      9334    3    0    1
 -2      3082      1431      3115      3129
 -1      9335    3    0    1
 -2      1431      3082      1443      3129
 -1      9336    3    0    1
 -2      2378      2944      2956      3129
 -1      9337    3    0    1
 -2      2944      2731      2956      3129
 -1      9338    3    0    1
 -2      2731      2950      2956      3129
 -1      9339    3    0    1
 -2      2906      2923      1452      3129
 -1      9340    3    0    1
 -2      1452       348      3022      3129
 -1      9341    3    0    1
 -2      2956      2950      2982      3129
 -1      9342    3    0    1
 -2      2124      2902      1465      3131
 -1      9343    3    0    1
 -2      1474       426      1491      1516
 -1      9344    3    0    1
 -2       751       741       740      3026
 -1      9345    3    0    1
 -2      1483      1453      1504      3033
 -1      9346    3    0    1
 -2      1315      1067      1436      3033
 -1      9347    3    0    1
 -2       750      1054      1304      3026
 -1      9348    3    0    1
 -2       740       750       751      3026
 -1      9349    3    0    1
 -2       751       750      1304      3026
 -1      9350    3    0    1
 -2      3032      2998      3055      3057
 -1      9351    3    0    1
 -2       223      1048      1298      3026
 -1      9352    3    0    1
 -2      1293      1041      1419      3028
 -1      9353    3    0    1
 -2       740      1298      1048      3026
 -1      9354    3    0    1
 -2      1298       740       741      3026
 -1      9355    3    0    1
 -2      1474      1421      1479      3057
 -1      9356    3    0    1
 -2      1092      1338      2987      3052
 -1      9357    3    0    1
 -2      1446      1451      1509      3028
 -1      9358    3    0    1
 -2       223       226      1048      3026
 -1      9359    3    0    1
 -2      1446      1419      1451      3028
 -1      9360    3    0    1
 -2      2985      1453      3013      3033
 -1      9361    3    0    1
 -2      1454      1485      1513      3052
 -1      9362    3    0    1
 -2      1474      3032      3056      3057
 -1      9363    3    0    1
 -2      1429      1454      3126      3052
 -1      9364    3    0    1
 -2       593      2989      3035      3036
 -1      9365    3    0    1
 -2      3037      1180      1410       914
 -1      9366    3    0    1
 -2      2983       714      1509      3028
 -1      9367    3    0    1
 -2      1451      2983      1509      3028
 -1      9368    3    0    1
 -2      1473       354      1506      1521
 -1      9369    3    0    1
 -2       989      2968      3050      3063
 -1      9370    3    0    1
 -2       997       999      3001      3030
 -1      9371    3    0    1
 -2      3001      3030      3058      3059
 -1      9372    3    0    1
 -2       148       642      3001      3030
 -1      9373    3    0    1
 -2       642      3001      3030      3058
 -1      9374    3    0    1
 -2       999       148      3001      3030
 -1      9375    3    0    1
 -2       149       148       997      3030
 -1      9376    3    0    1
 -2      1249      1433      3049      3063
 -1      9377    3    0    1
 -2       997       148       999      3030
 -1      9378    3    0    1
 -2      1456      2974      3018      3037
 -1      9379    3    0    1
 -2      2988       119      2989      3035
 -1      9380    3    0    1
 -2      1421      1474      3120      3057
 -1      9381    3    0    1
 -2      2893      2904      3080      3132
 -1      9382    3    0    1
 -2      2943      1848      3080      3132
 -1      9383    3    0    1
 -2      3080      1848      3096      3132
 -1      9384    3    0    1
 -2      1453      2985      1504      3033
 -1      9385    3    0    1
 -2      1067      2966      3013      3033
 -1      9386    3    0    1
 -2      1419      3122      3028      3034
 -1      9387    3    0    1
 -2       713      2983      1508      3034
 -1      9388    3    0    1
 -2      2983      1451      1508      3034
 -1      9389    3    0    1
 -2       973       599       971      3035
 -1      9390    3    0    1
 -2       116       593      2989      3035
 -1      9391    3    0    1
 -2       116       973       971      3035
 -1      9392    3    0    1
 -2       600       973      2988      3035
 -1      9393    3    0    1
 -2       599       973       600      3035
 -1      9394    3    0    1
 -2       119       116      2989      3035
 -1      9395    3    0    1
 -2       973       116       119      3035
 -1      9396    3    0    1
 -2       973       119      2988      3035
 -1      9397    3    0    1
 -2       606       600      2988      3035
 -1      9398    3    0    1
 -2       976       606      2988      3035
 -1      9399    3    0    1
 -2       976      2988      3014      3035
 -1      9400    3    0    1
 -2      2974      1456      1507      3037
 -1      9401    3    0    1
 -2      3017      1180      3018      3037
 -1      9402    3    0    1
 -2      1469      1465      2992      3038
 -1      9403    3    0    1
 -2       951      3010      3012      3038
 -1      9404    3    0    1
 -2      1435       362      3111      3130
 -1      9405    3    0    1
 -2      2091      3083      1453      3130
 -1      9406    3    0    1
 -2       463       452       451      3040
 -1      9407    3    0    1
 -2      1435      3083      3130      3111
 -1      9408    3    0    1
 -2       362       364      3123      3130
 -1      9409    3    0    1
 -2       451      1158       898      3040
 -1      9410    3    0    1
 -2      1158         2       898      3040
 -1      9411    3    0    1
 -2      2937      2091      2939      3130
 -1      9412    3    0    1
 -2      2091      2937      2978      3130
 -1      9413    3    0    1
 -2       364      1453      3123      3130
 -1      9414    3    0    1
 -2      1158       451       452      3040
 -1      9415    3    0    1
 -2      1494       449      3041      3061
 -1      9416    3    0    1
 -2       362      1435      2978      3130
 -1      9417    3    0    1
 -2      3061      1430      3127      1426
 -1      9418    3    0    1
 -2      3111       362      3123      3130
 -1      9419    3    0    1
 -2         2      1158         3      3040
 -1      9420    3    0    1
 -2      1457      1426      1461      3061
 -1      9421    3    0    1
 -2      3083      2091      2978      3130
 -1      9422    3    0    1
 -2       362      2978      3025      3130
 -1      9423    3    0    1
 -2      1453       364      3025      3130
 -1      9424    3    0    1
 -2      2937      2939      2978      3130
 -1      9425    3    0    1
 -2      1480      1464      1487      3045
 -1      9426    3    0    1
 -2       522      3003      3043      3045
 -1      9427    3    0    1
 -2      2995      1203      3044       939
 -1      9428    3    0    1
 -2        54       522      3003      3043
 -1      9429    3    0    1
 -2      1420      1438      3005      3046
 -1      9430    3    0    1
 -2      2976      3005      3016      3046
 -1      9431    3    0    1
 -2      1422      1464      1480      3045
 -1      9432    3    0    1
 -2      1493       521      3003      3044
 -1      9433    3    0    1
 -2      1464      1493      3003      3044
 -1      9434    3    0    1
 -2       193      1445      1447      3046
 -1      9435    3    0    1
 -2      3118      1417      3044      3045
 -1      9436    3    0    1
 -2       522      1487      3003      3045
 -1      9437    3    0    1
 -2      1487      1464      3003      3045
 -1      9438    3    0    1
 -2      1466      1420      2976      3046
 -1      9439    3    0    1
 -2       963      1227      3004      3047
 -1      9440    3    0    1
 -2      1227       963      1475      3047
 -1      9441    3    0    1
 -2      1455      1432      3011      3047
 -1      9442    3    0    1
 -2      1432      1455      1475      3047
 -1      9443    3    0    1
 -2       963      1432      1475      3047
 -1      9444    3    0    1
 -2      3011       570      1518      3047
 -1      9445    3    0    1
 -2      1455      3011      1518      3047
 -1      9446    3    0    1
 -2      1432       963      3004      3047
 -1      9447    3    0    1
 -2      1428      1440      3128      3048
 -1      9448    3    0    1
 -2      1413      1428      3128      3048
 -1      9449    3    0    1
 -2       785      2972      1511      3048
 -1      9450    3    0    1
 -2      2972      1440      1511      3048
 -1      9451    3    0    1
 -2      3076      2961      3131      1455
 -1      9452    3    0    1
 -2      2961       359      3002      3131
 -1      9453    3    0    1
 -2      2902      2961      3002      3131
 -1      9454    3    0    1
 -2       359        78      3002      3131
 -1      9455    3    0    1
 -2      1455       359      2961      3131
 -1      9456    3    0    1
 -2      1465      2902      3002      3131
 -1      9457    3    0    1
 -2        78      1465      3002      3131
 -1      9458    3    0    1
 -2       617      1500      3015      3049
 -1      9459    3    0    1
 -2      1500      1477      3015      3049
 -1      9460    3    0    1
 -2      2968       989       631      1249
 -1      9461    3    0    1
 -2       989      2968       631      3050
 -1      9462    3    0    1
 -2       631       623       630      3050
 -1      9463    3    0    1
 -2       135       985      3015      3050
 -1      9464    3    0    1
 -2       624       623       987      3050
 -1      9465    3    0    1
 -2       618       129      3015      3050
 -1      9466    3    0    1
 -2       985       129       987      3050
 -1      9467    3    0    1
 -2       985       623      2968      3050
 -1      9468    3    0    1
 -2       623       985       987      3050
 -1      9469    3    0    1
 -2       129       135      3015      3050
 -1      9470    3    0    1
 -2       135       129       985      3050
 -1      9471    3    0    1
 -2      1410      1180      3116       914
 -1      9472    3    0    1
 -2       623       631      2968      3050
 -1      9473    3    0    1
 -2       738       223      3026      3051
 -1      9474    3    0    1
 -2      1437      3064      1435      1411
 -1      9475    3    0    1
 -2      1330       275      2987      3053
 -1      9476    3    0    1
 -2      2987       275      3021      3053
 -1      9477    3    0    1
 -2       276       810      3021      3053
 -1      9478    3    0    1
 -2       276       275      1330      3053
 -1      9479    3    0    1
 -2       275       276      3021      3053
 -1      9480    3    0    1
 -2      1454      3021      1520      3054
 -1      9481    3    0    1
 -2       497      2998      3032      3057
 -1      9482    3    0    1
 -2       923       503      1189      3055
 -1      9483    3    0    1
 -2        43       498      3032      3055
 -1      9484    3    0    1
 -2        42      1189        43      3055
 -1      9485    3    0    1
 -2       923        42      2998      3055
 -1      9486    3    0    1
 -2      1189        42       923      3055
 -1      9487    3    0    1
 -2       504       923      2998      3055
 -1      9488    3    0    1
 -2       504       503       923      3055
 -1      9489    3    0    1
 -2      2998       925      3055      3057
 -1      9490    3    0    1
 -2      3032      3055      3056      3057
 -1      9491    3    0    1
 -2        42        43      3032      3055
 -1      9492    3    0    1
 -2       510       504      2998      3055
 -1      9493    3    0    1
 -2       925       510      2998      3055
 -1      9494    3    0    1
 -2      3055      1193      3056      3057
 -1      9495    3    0    1
 -2      1193      1409      3056      3057
 -1      9496    3    0    1
 -2      2984      2942      3029      3132
 -1      9497    3    0    1
 -2      2942      1445      3029      3132
 -1      9498    3    0    1
 -2       352       176      3029      3132
 -1      9499    3    0    1
 -2       176      1448      2984      3132
 -1      9500    3    0    1
 -2      1445       352      3029      3132
 -1      9501    3    0    1
 -2      1495       642      3030      3058
 -1      9502    3    0    1
 -2      1473      1495      3030      3058
 -1      9503    3    0    1
 -2       655      3001      1002      3059
 -1      9504    3    0    1
 -2       149       641      3030      3059
 -1      9505    3    0    1
 -2      1002      3001      3058      3059
 -1      9506    3    0    1
 -2      1477      1505      1519      3063
 -1      9507    3    0    1
 -2      3127      3061      1426      1457
 -1      9508    3    0    1
 -2      1430      3061      3127      3062
 -1      9509    3    0    1
 -2       450      1514      3041      3062
 -1      9510    3    0    1
 -2      1514      1457      3041      3062
 -1      9511    3    0    1
 -2      1249       989      1433      3063
 -1      9512    3    0    1
 -2       989      1249      2968      3063
 -1      9513    3    0    1
 -2       618      3015      1519      3063
 -1      9514    3    0    1
 -2      3015      1477      1519      3063
 -1      9515    3    0    1
 -2      2968      1249      3049      3063
 -1      9516    3    0    1
 -2       738      1515      3051      3064
 -1      9517    3    0    1
 -2      1515      1435      3051      3064
 -1      9518    3    0    1
 -2      1435      1510      3051      3065
 -1      9519    3    0    1
 -2      1260      1002      1434      3066
 -1      9520    3    0    1
 -2      1002      1260      3059      3066
 -1      9521    3    0    1
 -2      3058      1002      3059      3066
 -1      9522    3    0    1
 -2      1434      1424      3119      3066
 -1      9523    3    0    1
 -2      3119      1424      3058      3066
 -1      9524    3    0    1
 -2      1002      1424      1434      3066
 -1      9525    3    0    1
 -2      3030       641      1521      3066
 -1      9526    3    0    1
 -2      1473      3030      1521      3066
 -1      9527    3    0    1
 -2      1424      1002      3058      3066
 -3
    1PSTEP                         1           1           1          
  100CL  101 1.000000000        3132                     0    1           1
 -4  DISP        4    1
 -5  D1          1    2    1    0
 -5  D2          1    2    2    0
 -5  D3          1    2    3    0
 -5  ALL         1    2    0    0    1ALL
 -1         1-4.19200E-02 6.07898E-03-1.97522E+00
 -1         2-2.52194E-01-7.30301E-03-1.97727E+00
 -1         3-2.52101E-01-7.69956E-03-1.98254E+00
 -1         4-2.73636E-01 5.63607E-04-9.23042E-01
 -1         5-2.74359E-01 5.88387E-04-9.23020E-01
 -1         6-2.66913E-01-2.65978E-03-1.46012E+00
 -1         7-2.73758E-01 5.29843E-04-9.23388E-01
 -1         8-2.73413E-01-4.94085E-04-3.56567E-01
 -1         9-2.74201E-01 5.71288E-04-9.22670E-01
 -1        10-4.52546E-02-1.90835E-03-3.55320E-01
 -1        11-2.74188E-01-3.50857E-04-3.56850E-01
 -1        12-4.72246E-02-2.10863E-03-1.46373E+00
 -1        13-2.66372E-01-2.49475E-03-1.46130E+00
 -1        14-4.67404E-02 1.91429E-03-1.46396E+00
 -1        15-2.67431E-01-2.30312E-03-1.46228E+00
 -1        16-2.68982E-01-2.68263E-03-1.45958E+00
 -1        17-4.87159E-02 3.16395E-03-9.24516E-01
 -1        18-4.88445E-02-1.18000E-03-9.24543E-01
 -1        19-2.51903E-01-1.09923E-01-9.19230E-01
 -1        20-2.47609E-01-1.12906E-01-3.54336E-01
 -1        21-2.48256E-01-1.05479E-01-1.45753E+00
 -1        22-2.51140E-01-1.09598E-01-9.16317E-01
 -1        23-2.51236E-01-1.09465E-01-9.15274E-01
 -1        24-4.32013E-02-2.00071E-02-3.54510E-01
 -1        25-2.48785E-01-1.13029E-01-3.59474E-01
 -1        26-2.45252E-01-1.04876E-01-1.45489E+00
 -1        27-2.35596E-01-9.64534E-02-1.97915E+00
 -1        28-2.34790E-01-9.65526E-02-1.97780E+00
 -1        29-2.46239E-01-1.05194E-01-1.45654E+00
 -1        30-4.47573E-02-1.67681E-02-1.45935E+00
 -1        31-4.55696E-02-1.35587E-02-1.45780E+00
 -1        32-4.17781E-02-2.14297E-02-1.45804E+00
 -1        33-2.46787E-01-1.05766E-01-1.45414E+00
 -1        34-4.58414E-02-1.92161E-02-9.20052E-01
 -1        35-2.51949E-01-1.10040E-01-9.20929E-01
 -1        36-4.42555E-02-2.17857E-02-9.14150E-01
 -1        37-4.50477E-02-1.97898E-02-9.18148E-01
 -1        38-2.01300E-01-1.83794E-01-9.29084E-01
 -1        39-2.01290E-01-1.83714E-01-9.21891E-01
 -1        40-1.97682E-01-1.84015E-01-3.70360E-01
 -1        41-3.27781E-02-3.37479E-02-1.46511E+00
 -1        42-1.83883E-01-1.73825E-01-1.98163E+00
 -1        43-1.83307E-01-1.73846E-01-1.97689E+00
 -1        44-1.99130E-01-1.85102E-01-3.63385E-01
 -1        45-1.94618E-01-1.80425E-01-1.45589E+00
 -1        46-1.95697E-01-1.82491E-01-1.46525E+00
 -1        47-1.94855E-01-1.80601E-01-1.46230E+00
 -1        48-2.00953E-01-1.83571E-01-9.18558E-01
 -1        49-2.01418E-01-1.83750E-01-9.33072E-01
 -1        50-3.56474E-02-3.31197E-02-9.30405E-01
 -1        51-1.95548E-01-1.81158E-01-1.45375E+00
 -1        52-3.78594E-02-2.85969E-02-1.45303E+00
 -1        53-3.43351E-02-3.50159E-02-9.32778E-01
 -1        54-9.30083E-02-2.28589E-01-1.98091E+00
 -1        55-1.07683E-01-2.47478E-01-9.49074E-01
 -1        56-1.08079E-01-2.47712E-01-9.42476E-01
 -1        57-1.08222E-01-2.48253E-01-9.46527E-01
 -1        58-1.03947E-01-2.39764E-01-1.47152E+00
 -1        59-9.32648E-02-2.28983E-01-1.98231E+00
 -1        60-1.09945E-01-2.48215E-01-3.86040E-01
 -1        61-1.09915E-01-2.47509E-01-3.81763E-01
 -1        62-1.59594E-02-4.27073E-02-3.85982E-01
 -1        63-1.03967E-01-2.40283E-01-1.47420E+00
 -1        64-2.05795E-02-3.50427E-02-1.97580E+00
 -1        65-1.87735E-02-4.40101E-02-9.44539E-01
 -1        66-2.48246E-02-4.04488E-02-1.46902E+00
 -1        67-1.56286E-02-4.30168E-02-1.47770E+00
 -1        68-1.69913E-02-4.44893E-02-9.47963E-01
 -1        69-1.07875E-01-2.47495E-01-9.40879E-01
 -1        70-1.04879E-01-2.41628E-01-1.47104E+00
 -1        71-1.04296E-01-2.41282E-01-1.47593E+00
 -1        72 4.88584E-03-2.68905E-01-9.48115E-01
 -1        73 4.23704E-03-2.71778E-01-3.91435E-01
 -1        74 4.11567E-03-2.68408E-01-9.50819E-01
 -1        75 6.21531E-03-2.60393E-01-1.47465E+00
 -1        76 4.37269E-03-2.72293E-01-3.89929E-01
 -1        77 3.21234E-03-4.94991E-02-3.90425E-01
 -1        78 7.80215E-03-4.09905E-02-1.97110E+00
 -1        79 5.42617E-03-4.70670E-02-1.47556E+00
 -1        80 4.96478E-03-2.46237E-01-1.97803E+00
 -1        81 5.37295E-03-2.47138E-01-1.98086E+00
 -1        82 4.54558E-03-2.69126E-01-9.49869E-01
 -1        83 1.25579E-03-4.85168E-02-9.52565E-01
 -1        84 3.20969E-04-4.61509E-02-1.47797E+00
 -1        85-5.79447E-03-4.54617E-02-1.47568E+00
 -1        86 8.18557E-03-4.64836E-02-1.46865E+00
 -1        87 6.70385E-03-2.63403E-01-1.47155E+00
 -1        88 6.03551E-03-2.61007E-01-1.47243E+00
 -1        89-1.30602E-04-4.94530E-02-9.50113E-01
 -1        90 6.09282E-03-2.61449E-01-1.47633E+00
 -1        91 4.76634E-03-2.68377E-01-9.47919E-01
 -1        92 9.90823E-02-2.28410E-01-1.97246E+00
 -1        93 9.99255E-02-2.28823E-01-1.97654E+00
 -1        94 1.10507E-01-2.39331E-01-1.46671E+00
 -1        95 1.12898E-01-2.44281E-01-9.43601E-01
 -1        96 1.10694E-01-2.38756E-01-1.46095E+00
 -1        97 1.13620E-01-2.44236E-01-9.35659E-01
 -1        98 1.10997E-01-2.44214E-01-3.84237E-01
 -1        99 1.13354E-01-2.43960E-01-9.33806E-01
 -1       100 1.10506E-01-2.44233E-01-3.88959E-01
 -1       101 2.44039E-02-3.46635E-02-1.96937E+00
 -1       102 1.92459E-02-4.29888E-02-1.46967E+00
 -1       103 1.13510E-01-2.44727E-01-9.41061E-01
 -1       104 2.13027E-02-4.47537E-02-9.43247E-01
 -1       105 1.10925E-01-2.40557E-01-1.46949E+00
 -1       106 2.33227E-02-4.17378E-02-1.46427E+00
 -1       107 2.37458E-02-4.36183E-02-9.38484E-01
 -1       108 1.93014E-02-4.53228E-02-9.41530E-01
 -1       109 1.11232E-01-2.39653E-01-1.45848E+00
 -1       110 1.94507E-01-1.91106E-01-9.23222E-01
 -1       111 1.93104E-01-1.89845E-01-3.70377E-01
 -1       112 1.91178E-01-1.86936E-01-1.45738E+00
 -1       113 1.93846E-01-1.91118E-01-9.24308E-01
 -1       114 1.91507E-01-1.85775E-01-1.45498E+00
 -1       115 1.94302E-01-1.91038E-01-9.23399E-01
 -1       116 1.83166E-01-1.72581E-01-1.97338E+00
 -1       117 1.92859E-01-1.90242E-01-3.71037E-01
 -1       118 3.68067E-02-3.32303E-02-3.71056E-01
 -1       119 1.83210E-01-1.73515E-01-1.97110E+00
 -1       120 1.90695E-01-1.85155E-01-1.45674E+00
 -1       121 3.35063E-02-3.48744E-02-1.46028E+00
 -1       122 1.92659E-01-1.86721E-01-1.45429E+00
 -1       123 3.69357E-02-3.19166E-02-1.45833E+00
 -1       124 3.52943E-02-3.58760E-02-9.26519E-01
 -1       125 1.93885E-01-1.91063E-01-9.25092E-01
 -1       126 3.44234E-02-3.77808E-02-9.24165E-01
 -1       127 3.88122E-02-3.33840E-02-9.25483E-01
 -1       128 3.90513E-02-3.29283E-02-9.19390E-01
 -1       129 2.32835E-01-9.80975E-02-1.97138E+00
 -1       130 2.47234E-01-1.08326E-01-3.70884E-01
 -1       131 2.48808E-01-1.08585E-01-3.72996E-01
 -1       132 2.49506E-01-1.08316E-01-9.26470E-01
 -1       133 2.44708E-01-1.06278E-01-1.45331E+00
 -1       134 2.43664E-01-1.05134E-01-1.45472E+00
 -1       135 2.32579E-01-9.76545E-02-1.96823E+00
 -1       136 4.30452E-02-1.90993E-02-3.71698E-01
 -1       137 4.39485E-02-1.81284E-02-3.74410E-01
 -1       138 4.49492E-02-2.04039E-02-1.45795E+00
 -1       139 4.57573E-02-2.16222E-02-9.28771E-01
 -1       140 2.44605E-01-1.04931E-01-1.45647E+00
 -1       141 4.59331E-02-1.74960E-02-1.45865E+00
 -1       142 4.79199E-02-1.72705E-02-9.27978E-01
 -1       143 2.50116E-01-1.08297E-01-9.28502E-01
 -1       144 2.49456E-01-1.08241E-01-9.25719E-01
 -1       145 4.51527E-02-2.23782E-02-9.23667E-01
 -1       146 2.49922E-01-1.08363E-01-9.30157E-01
 -1       147 2.45342E-01-1.05062E-01-1.45780E+00
 -1       148 2.51495E-01-3.64172E-03-1.97450E+00
 -1       149 2.51855E-01-2.34508E-03-1.97098E+00
 -1       150 2.65351E-01-2.26053E-03-1.45998E+00
 -1       151 2.67337E-01-2.25036E-03-1.46074E+00
 -1       152 2.74604E-01 1.09002E-03-9.28444E-01
 -1       153 2.74548E-01 1.00559E-03-9.28592E-01
 -1       154 2.65665E-01-2.55658E-03-1.46054E+00
 -1       155 2.77007E-01 5.31050E-03-3.65239E-01
 -1       156 4.93656E-02 2.09429E-03-3.62729E-01
 -1       157 2.75791E-01 5.48416E-03-3.62567E-01
 -1       158 4.26183E-02 6.47401E-03-1.96813E+00
 -1       159 5.11912E-02-9.34951E-04-9.31179E-01
 -1       160 2.74402E-01 1.10756E-03-9.29233E-01
 -1       161 5.12892E-02 8.35039E-04-9.30706E-01
 -1       162 2.66806E-01-2.42508E-03-1.46136E+00
 -1       163 2.73761E-01 8.70748E-04-9.29148E-01
 -1       164 4.84743E-02 4.01334E-03-1.46045E+00
 -1       165 2.33185E-01 9.19280E-02-1.97308E+00
 -1       166 2.33776E-01 9.20314E-02-1.97501E+00
 -1       167 2.48146E-01 9.78393E-02-1.46076E+00
 -1       168 2.46245E-01 9.82098E-02-1.46198E+00
 -1       169 2.55806E-01 9.88578E-02-9.33385E-01
 -1       170 2.54856E-01 9.79816E-02-9.29076E-01
 -1       171 2.57470E-01 9.88294E-02-3.63562E-01
 -1       172 2.57066E-01 9.89259E-02-3.67604E-01
 -1       173 4.68936E-02 1.80551E-02-9.35533E-01
 -1       174 4.42652E-02 2.12902E-02-1.46751E+00
 -1       175 2.46993E-01 9.88908E-02-1.46499E+00
 -1       176 3.72552E-02 2.13157E-02-1.96719E+00
 -1       177 4.53914E-02 1.66080E-02-1.46701E+00
 -1       178 4.75490E-02 1.55867E-02-9.32352E-01
 -1       179 4.25738E-02 2.31380E-02-1.46242E+00
 -1       180 2.55926E-01 9.87308E-02-9.30253E-01
 -1       181 4.65656E-02 1.17283E-02-1.45967E+00
 -1       182 2.55387E-01 9.86386E-02-9.35306E-01
 -1       183 2.48989E-01 9.97993E-02-1.46668E+00
 -1       184 1.89213E-01 1.86283E-01-1.46390E+00
 -1       185 1.87438E-01 1.85871E-01-1.46489E+00
 -1       186 1.88690E-01 1.87298E-01-1.46546E+00
 -1       187 1.93152E-01 1.90133E-01-9.38128E-01
 -1       188 1.93891E-01 1.90785E-01-9.35731E-01
 -1       189 1.93540E-01 1.90569E-01-9.36040E-01
 -1       190 1.93865E-01 1.90654E-01-9.36984E-01
 -1       191 3.37589E-02 3.43346E-02-3.80630E-01
 -1       192 1.95157E-01 1.89825E-01-3.79247E-01
 -1       193 2.65247E-02 3.34780E-02-1.96649E+00
 -1       194 1.79376E-01 1.74282E-01-1.97281E+00
 -1       195 1.78973E-01 1.74520E-01-1.97304E+00
 -1       196 1.94924E-01 1.89113E-01-3.77566E-01
 -1       197 3.77687E-02 3.32470E-02-9.37572E-01
 -1       198 3.44648E-02 2.96083E-02-3.77091E-01
 -1       199 3.87650E-02 2.98696E-02-1.46098E+00
 -1       200 1.87669E-01 1.85632E-01-1.46389E+00
 -1       201 3.26867E-02 3.62235E-02-1.46837E+00
 -1       202 2.93128E-02 3.88307E-02-1.46232E+00
 -1       203 3.85384E-02 3.24024E-02-9.34414E-01
 -1       204 9.73037E-02 2.30098E-01-1.97197E+00
 -1       205 1.00955E-01 2.44282E-01-1.46179E+00
 -1       206 1.01339E-01 2.44750E-01-1.46322E+00
 -1       207 1.03788E-01 2.53786E-01-9.31067E-01
 -1       208 1.05483E-01 2.54634E-01-3.67546E-01
 -1       209 1.05183E-01 2.54060E-01-3.67722E-01
 -1       210 1.19629E-02 4.06950E-02-1.96744E+00
 -1       211 9.67376E-02 2.29838E-01-1.97283E+00
 -1       212 2.08195E-02 4.35946E-02-1.46647E+00
 -1       213 1.87965E-02 4.48910E-02-3.66888E-01
 -1       214 1.02116E-01 2.46506E-01-1.46384E+00
 -1       215 1.33318E-02 4.58967E-02-1.46079E+00
 -1       216 1.01241E-01 2.45311E-01-1.46219E+00
 -1       217 1.65550E-02 4.51640E-02-1.46460E+00
 -1       218 1.03566E-01 2.53463E-01-9.32244E-01
 -1       219 1.03704E-01 2.53187E-01-9.31010E-01
 -1       220 1.78546E-02 4.66230E-02-9.28882E-01
 -1       221 2.65496E-02 4.17996E-02-1.46132E+00
 -1       222 1.03252E-01 2.53038E-01-9.33055E-01
 -1       223 2.86654E-03 2.48792E-01-1.97449E+00
 -1       224 5.83885E-03 2.62600E-01-1.46585E+00
 -1       225 8.11129E-03 2.69696E-01-9.36048E-01
 -1       226 3.21797E-03 2.50084E-01-1.97426E+00
 -1       227 7.61238E-03 2.70709E-01-9.41437E-01
 -1       228 5.28009E-03 2.70379E-01-3.84147E-01
 -1       229 6.03708E-03 2.63125E-01-1.46905E+00
 -1       230 5.52917E-03 2.71627E-01-3.81172E-01
 -1       231 6.03818E-03 2.64212E-01-1.46550E+00
 -1       232 8.85526E-03 4.73376E-02-1.46541E+00
 -1       233 5.93629E-03 2.64438E-01-1.47146E+00
 -1       234-6.56802E-03 4.67194E-02-1.46936E+00
 -1       235 7.73738E-03 2.70645E-01-9.37779E-01
 -1       236 7.79438E-03 2.70540E-01-9.44326E-01
 -1       237-8.97821E-02 2.30578E-01-1.97768E+00
 -1       238-9.94766E-02 2.46185E-01-4.04880E-01
 -1       239-9.93341E-02 2.48083E-01-9.49627E-01
 -1       240-9.79591E-02 2.40978E-01-1.47277E+00
 -1       241-8.94319E-02 2.30024E-01-1.97681E+00
 -1       242-9.95139E-02 2.47942E-01-9.49400E-01
 -1       243-9.99393E-02 2.47961E-01-9.51356E-01
 -1       244-1.93384E-02 4.46773E-02-9.53005E-01
 -1       245-9.82485E-02 2.41002E-01-1.47272E+00
 -1       246-1.54354E-02 4.30803E-02-4.04402E-01
 -1       247-9.91298E-02 2.46773E-01-4.03809E-01
 -1       248-1.43435E-02 4.45033E-02-1.47605E+00
 -1       249-9.84078E-02 2.42157E-01-1.47283E+00
 -1       250-1.06424E-02 4.63646E-02-1.46809E+00
 -1       251-9.90089E-02 2.42448E-01-1.47357E+00
 -1       252-1.90611E-02 4.29758E-02-1.47621E+00
 -1       253-1.46962E-02 4.69815E-02-9.46233E-01
 -1       254-9.97929E-02 2.47774E-01-9.52046E-01
 -1       255-2.26700E-02 4.15807E-02-1.47301E+00
 -1       256-1.75606E-01 1.76965E-01-1.98191E+00
 -1       257-1.94141E-01 1.83324E-01-9.42768E-01
 -1       258-1.94959E-01 1.84040E-01-9.44513E-01
 -1       259-1.87575E-01 1.81752E-01-1.46972E+00
 -1       260-1.98644E-01 1.83322E-01-3.97201E-01
 -1       261-3.59684E-02 3.05958E-02-3.90688E-01
 -1       262-1.98040E-01 1.82457E-01-3.91377E-01
 -1       263-1.76095E-01 1.77100E-01-1.98387E+00
 -1       264-1.87700E-01 1.82276E-01-1.47301E+00
 -1       265-3.53418E-02 3.42797E-02-3.99957E-01
 -1       266-1.95470E-01 1.84631E-01-9.49231E-01
 -1       267-3.10758E-02 3.51328E-02-1.47648E+00
 -1       268-2.73197E-02 3.78675E-02-1.47032E+00
 -1       269-3.84077E-02 2.71923E-02-1.46449E+00
 -1       270-1.88511E-01 1.82398E-01-1.46852E+00
 -1       271-1.95578E-01 1.84641E-01-9.52009E-01
 -1       272-3.68781E-02 3.21634E-02-9.40683E-01
 -1       273-3.55563E-02 3.24059E-02-9.46209E-01
 -1       274-1.88797E-01 1.83426E-01-1.47465E+00
 -1       275-2.35312E-01 8.93579E-02-1.98043E+00
 -1       276-2.34139E-01 8.85643E-02-1.98583E+00
 -1       277-2.46972E-01 9.82650E-02-1.46326E+00
 -1       278-2.48681E-01 9.96773E-02-1.46911E+00
 -1       279-2.55802E-01 9.69368E-02-3.60579E-01
 -1       280-2.54917E-01 9.68561E-02-3.66754E-01
 -1       281-4.34573E-02 1.73225E-02-3.67970E-01
 -1       282-4.19909E-02 1.43209E-02-3.60456E-01
 -1       283-2.55003E-01 9.86712E-02-9.26397E-01
 -1       284-4.37980E-02 1.61289E-02-1.46731E+00
 -1       285-2.46925E-01 9.84782E-02-1.46685E+00
 -1       286-2.55236E-01 9.91670E-02-9.30065E-01
 -1       287-4.49854E-02 1.80815E-02-9.31738E-01
 -1       288-2.55267E-01 9.90447E-02-9.32260E-01
 -1       289-2.54521E-01 9.86312E-02-9.25403E-01
 -1       290-4.54701E-02 1.57427E-02-9.28049E-01
 -1       291-4.01643E-02 2.52379E-02-1.46354E+00
 -1       292-4.64727E-02 1.50378E-02-9.24268E-01
 -1       293-2.48042E-01 9.85031E-02-1.46215E+00
 -1       294 0.00000E+00 0.00000E+00 0.00000E+00
 -1       295 0.00000E+00 0.00000E+00 0.00000E+00
 -1       296 0.00000E+00 0.00000E+00 0.00000E+00
 -1       297 0.00000E+00 0.00000E+00 0.00000E+00
 -1       298 0.00000E+00 0.00000E+00 0.00000E+00
 -1       299 0.00000E+00 0.00000E+00 0.00000E+00
 -1       300 0.00000E+00 0.00000E+00 0.00000E+00
 -1       301 0.00000E+00 0.00000E+00 0.00000E+00
 -1       302 0.00000E+00 0.00000E+00 0.00000E+00
 -1       303 0.00000E+00 0.00000E+00 0.00000E+00
 -1       304 0.00000E+00 0.00000E+00 0.00000E+00
 -1       305 0.00000E+00 0.00000E+00 0.00000E+00
 -1       306 0.00000E+00 0.00000E+00 0.00000E+00
 -1       307 0.00000E+00 0.00000E+00 0.00000E+00
 -1       308 0.00000E+00 0.00000E+00 0.00000E+00
 -1       309 0.00000E+00 0.00000E+00 0.00000E+00
 -1       310 0.00000E+00 0.00000E+00 0.00000E+00
 -1       311 0.00000E+00 0.00000E+00 0.00000E+00
 -1       312 0.00000E+00 0.00000E+00 0.00000E+00
 -1       313 0.00000E+00 0.00000E+00 0.00000E+00
 -1       314 0.00000E+00 0.00000E+00 0.00000E+00
 -1       315 0.00000E+00 0.00000E+00 0.00000E+00
 -1       316 0.00000E+00 0.00000E+00 0.00000E+00
 -1       317 0.00000E+00 0.00000E+00 0.00000E+00
 -1       318 0.00000E+00 0.00000E+00 0.00000E+00
 -1       319 0.00000E+00 0.00000E+00 0.00000E+00
 -1       320 4.67390E-02-1.95406E-02-9.29739E-01
 -1       321 5.08982E-02-2.34442E-03-9.27396E-01
 -1       322 0.00000E+00 0.00000E+00 0.00000E+00
 -1       323 4.95208E-02 1.33824E-02-9.28604E-01
 -1       324 5.10002E-02 2.92436E-03-9.26898E-01
 -1       325 0.00000E+00 0.00000E+00 0.00000E+00
 -1       326 0.00000E+00 0.00000E+00 0.00000E+00
 -1       327 0.00000E+00 0.00000E+00 0.00000E+00
 -1       328 4.53738E-02 1.45437E-02-3.63926E-01
 -1       329 5.16008E-02-6.18538E-04-3.66725E-01
 -1       330 0.00000E+00 0.00000E+00 0.00000E+00
 -1       331 0.00000E+00 0.00000E+00 0.00000E+00
 -1       332 4.63169E-02 2.07691E-02-9.34020E-01
 -1       333 4.54762E-02 1.85235E-02-3.68633E-01
 -1       334 1.98062E-02 4.61798E-02-9.34009E-01
 -1       335 2.03774E-02-4.32457E-02-3.85693E-01
 -1       336 2.63469E-02-4.36430E-02-9.31955E-01
 -1       337 3.19697E-02-3.67201E-02-1.45349E+00
 -1       338 4.12330E-02 1.06982E-02-1.96813E+00
 -1       339 4.32995E-02-1.03337E-02-1.96513E+00
 -1       340 4.74505E-02-1.40144E-02-1.45759E+00
 -1       341 4.91053E-02-7.70606E-03-1.45710E+00
 -1       342 4.91654E-02-4.68558E-03-1.46343E+00
 -1       343 3.69329E-02-2.38028E-02-1.96478E+00
 -1       344 4.03566E-02-2.87847E-02-1.45190E+00
 -1       345 3.88846E-02-2.05139E-02-1.96452E+00
 -1       346 4.23413E-02-2.49928E-02-1.45066E+00
 -1       347 2.62318E-02-3.98378E-02-1.45629E+00
 -1       348 2.78002E-02-3.27769E-02-1.96895E+00
 -1       349 7.84655E-03 4.14551E-02-1.96749E+00
 -1       350 4.17687E-03 4.79277E-02-1.46928E+00
 -1       351 2.33519E-02 3.57419E-02-1.96564E+00
 -1       352 3.56191E-02 2.47160E-02-1.96704E+00
 -1       353 3.67843E-02 3.18964E-02-1.46763E+00
 -1       354 4.38109E-02-6.10787E-03-1.96560E+00
 -1       355 4.90211E-02-1.90353E-04-1.46352E+00
 -1       356 2.40644E-02 4.48939E-02-9.32565E-01
 -1       357 3.20786E-02 3.82491E-02-9.35375E-01
 -1       358 4.11452E-03 4.88294E-02-9.39866E-01
 -1       359 1.15705E-02-3.97079E-02-1.97036E+00
 -1       360 1.45375E-02-4.59363E-02-1.46678E+00
 -1       361-9.50563E-03-4.00087E-02-1.97661E+00
 -1       362-3.62091E-03 4.15372E-02-1.96989E+00
 -1       363-4.45326E-03-4.07493E-02-1.97623E+00
 -1       364-7.48399E-03 4.12663E-02-1.97102E+00
 -1       365 1.04421E-04 4.78173E-02-1.47257E+00
 -1       366-1.30266E-02-4.45060E-02-1.47398E+00
 -1       367-4.22762E-02 2.06803E-02-1.46995E+00
 -1       368-3.24733E-02 2.57455E-02-1.97794E+00
 -1       369-3.46569E-02 3.13066E-02-1.47393E+00
 -1       370-2.43000E-02-3.34989E-02-1.97585E+00
 -1       371-2.19900E-02 4.37747E-02-9.48331E-01
 -1       372-1.97967E-02-4.18629E-02-1.47436E+00
 -1       373-3.27001E-02 3.68097E-02-9.50120E-01
 -1       374-4.41766E-02 1.33369E-02-1.46223E+00
 -1       375-4.08911E-02 1.07063E-02-1.97540E+00
 -1       376-3.53687E-02 2.17850E-02-1.97788E+00
 -1       377-4.68233E-02 5.68361E-03-1.46161E+00
 -1       378-3.17667E-02-3.18936E-02-3.70179E-01
 -1       379 0.00000E+00 0.00000E+00 0.00000E+00
 -1       380-1.89739E-02-4.19193E-02-3.82371E-01
 -1       381 0.00000E+00 0.00000E+00 0.00000E+00
 -1       382 1.81706E-03-4.89437E-02-3.90773E-01
 -1       383-1.56924E-02-4.56020E-02-9.48059E-01
 -1       384 2.69270E-03-4.80337E-02-9.49549E-01
 -1       385 3.55106E-03-4.84105E-02-9.44672E-01
 -1       386 0.00000E+00 0.00000E+00 0.00000E+00
 -1       387 1.68014E-02-4.30843E-02-3.90054E-01
 -1       388 0.00000E+00 0.00000E+00 0.00000E+00
 -1       389 3.42070E-02-3.47319E-02-3.72540E-01
 -1       390 0.00000E+00 0.00000E+00 0.00000E+00
 -1       391 0.00000E+00 0.00000E+00 0.00000E+00
 -1       392-3.35692E-02-3.15922E-02-3.64906E-01
 -1       393-3.78822E-02-3.07406E-02-9.15589E-01
 -1       394-3.68595E-02-3.23810E-02-9.22926E-01
 -1       395 0.00000E+00 0.00000E+00 0.00000E+00
 -1       396-4.37397E-02-1.69646E-02-3.61402E-01
 -1       397 0.00000E+00 0.00000E+00 0.00000E+00
 -1       398-4.78396E-02 1.81364E-03-3.60315E-01
 -1       399 0.00000E+00 0.00000E+00 0.00000E+00
 -1       400-4.86384E-02 5.58218E-03-9.20226E-01
 -1       401 0.00000E+00 0.00000E+00 0.00000E+00
 -1       402-4.50440E-02 2.04938E-02-9.30781E-01
 -1       403 0.00000E+00 0.00000E+00 0.00000E+00
 -1       404-3.41152E-02 3.49665E-02-9.50906E-01
 -1       405-1.94628E-02 4.26670E-02-4.06267E-01
 -1       406 0.00000E+00 0.00000E+00 0.00000E+00
 -1       407-1.64241E-02 4.54246E-02-9.51003E-01
 -1       408 1.19903E-03 4.73596E-02-3.84252E-01
 -1       409-2.05477E-03 4.98843E-02-9.42445E-01
 -1       410 7.76665E-04 4.92253E-02-9.43763E-01
 -1       411 0.00000E+00 0.00000E+00 0.00000E+00
 -1       412 6.73940E-03 4.93359E-02-9.34762E-01
 -1       413 1.69613E-02 4.62063E-02-3.69321E-01
 -1       414 1.88038E-02 4.65030E-02-9.32663E-01
 -1       415 3.54632E-03 4.76019E-02-3.82466E-01
 -1       416 0.00000E+00 0.00000E+00 0.00000E+00
 -1       417 3.49974E-02 3.53970E-02-9.38301E-01
 -1       418-4.96833E-02-3.40310E-03-9.22730E-01
 -1       419-4.74586E-02-1.79795E-02-9.19281E-01
 -1       420-4.65917E-02-6.28084E-03-1.45585E+00
 -1       421-4.13198E-02-1.11164E-02-1.97350E+00
 -1       422-4.22021E-02-6.62266E-03-1.97302E+00
 -1       423-4.14145E-02-2.43754E-02-1.45004E+00
 -1       424-2.96242E-02-3.59867E-02-1.46249E+00
 -1       425-2.09096E-02-4.30352E-02-9.38386E-01
 -1       426-3.48696E-02-2.54509E-02-1.97245E+00
 -1       427-3.65113E-02-3.00008E-02-1.45931E+00
 -1       428-3.68235E-02-2.25866E-02-1.97260E+00
 -1       429-2.30830E-02 3.43462E-02-1.97564E+00
 -1       430-1.90974E-02 3.65462E-02-1.97471E+00
 -1       431 0.00000E+00 0.00000E+00 0.00000E+00
 -1       432 0.00000E+00 0.00000E+00 0.00000E+00
 -1       433 0.00000E+00 0.00000E+00 0.00000E+00
 -1       434 0.00000E+00 0.00000E+00 0.00000E+00
 -1       435 0.00000E+00 0.00000E+00 0.00000E+00
 -1       436 0.00000E+00 0.00000E+00 0.00000E+00
 -1       437 0.00000E+00 0.00000E+00 0.00000E+00
 -1       438 0.00000E+00 0.00000E+00 0.00000E+00
 -1       439 0.00000E+00 0.00000E+00 0.00000E+00
 -1       440 0.00000E+00 0.00000E+00 0.00000E+00
 -1       441 0.00000E+00 0.00000E+00 0.00000E+00
 -1       442 0.00000E+00 0.00000E+00 0.00000E+00
 -1       443 0.00000E+00 0.00000E+00 0.00000E+00
 -1       444 0.00000E+00 0.00000E+00 0.00000E+00
 -1       445 0.00000E+00 0.00000E+00 0.00000E+00
 -1       446 0.00000E+00 0.00000E+00 0.00000E+00
 -1       447 0.00000E+00 0.00000E+00 0.00000E+00
 -1       448 0.00000E+00 0.00000E+00 0.00000E+00
 -1       449-1.48763E-01-3.21692E-03-1.97672E+00
 -1       450-1.48165E-01-3.56911E-03-1.98215E+00
 -1       451-2.56791E-01-6.21225E-03-1.72326E+00
 -1       452-2.55823E-01-6.72762E-03-1.72925E+00
 -1       453-2.71826E-01-6.00190E-04-1.19342E+00
 -1       454-2.71139E-01-4.99299E-04-1.19584E+00
 -1       455-2.75668E-01-1.62370E-04-6.37025E-01
 -1       456-2.75654E-01 1.57122E-04-6.37995E-01
 -1       457-1.60475E-01-7.50670E-04-3.56638E-01
 -1       458-1.61440E-01-5.57507E-04-3.57098E-01
 -1       459-4.92067E-02-5.59414E-04-6.37559E-01
 -1       460-1.61184E-01 7.10426E-04-9.23135E-01
 -1       461-1.57441E-01-1.55738E-03-1.46202E+00
 -1       462-4.60798E-02-5.82045E-03-1.72845E+00
 -1       463-4.63763E-02 1.58376E-03-1.73125E+00
 -1       464-1.56673E-01-7.13978E-04-1.46283E+00
 -1       465-1.61249E-01 1.19493E-03-9.23673E-01
 -1       466-4.97634E-02 1.94280E-03-6.37759E-01
 -1       467-1.56841E-01-2.16638E-04-1.46276E+00
 -1       468-1.57848E-01-2.34572E-03-1.45987E+00
 -1       469-1.60954E-01 1.58332E-03-9.23244E-01
 -1       470-1.61999E-01 2.77185E-04-9.23591E-01
 -1       471-4.71199E-02 4.56599E-03-1.19589E+00
 -1       472-4.78069E-02-3.48452E-03-1.19722E+00
 -1       473-1.38930E-01-5.71736E-02-1.97821E+00
 -1       474-1.37379E-01-5.69361E-02-1.97765E+00
 -1       475-2.51243E-01-1.11909E-01-6.36518E-01
 -1       476-2.50780E-01-1.12370E-01-6.31625E-01
 -1       477-2.51001E-01-1.06956E-01-1.19092E+00
 -1       478-2.48800E-01-1.08743E-01-1.18668E+00
 -1       479-2.39780E-01-9.69081E-02-1.72142E+00
 -1       480-2.38867E-01-9.63266E-02-1.72397E+00
 -1       481-1.45411E-01-6.66578E-02-3.54508E-01
 -1       482-1.46716E-01-6.68547E-02-3.59667E-01
 -1       483-4.61146E-02-2.13011E-02-6.31118E-01
 -1       484-1.47907E-01-6.43971E-02-9.16777E-01
 -1       485-1.44065E-01-6.28109E-02-1.45661E+00
 -1       486-4.16965E-02-2.00680E-02-1.72583E+00
 -1       487-4.52203E-02-1.31676E-02-1.72587E+00
 -1       488-1.45710E-01-6.23899E-02-1.45816E+00
 -1       489-1.48778E-01-6.46160E-02-9.19629E-01
 -1       490-4.73323E-02-1.87828E-02-6.36299E-01
 -1       491-1.45679E-01-6.18606E-02-1.45862E+00
 -1       492-1.44425E-01-6.36590E-02-1.45431E+00
 -1       493-1.49164E-01-6.45733E-02-9.20868E-01
 -1       494-1.48313E-01-6.45568E-02-9.15624E-01
 -1       495-4.56562E-02-1.62965E-02-1.19385E+00
 -1       496-4.26177E-02-2.17074E-02-1.18886E+00
 -1       497-1.07414E-01-1.02912E-01-1.98099E+00
 -1       498-1.06775E-01-1.02894E-01-1.97655E+00
 -1       499-2.01958E-01-1.84537E-01-6.39632E-01
 -1       500-2.01272E-01-1.84135E-01-6.47216E-01
 -1       501-1.99875E-01-1.81612E-01-1.18731E+00
 -1       502-1.98936E-01-1.83098E-01-1.20221E+00
 -1       503-1.87047E-01-1.75083E-01-1.71997E+00
 -1       504-1.87417E-01-1.75302E-01-1.72674E+00
 -1       505-1.15134E-01-1.08364E-01-3.70550E-01
 -1       506-1.16763E-01-1.09828E-01-3.63539E-01
 -1       507-3.51315E-02-3.39562E-02-6.46816E-01
 -1       508-1.18469E-01-1.08260E-01-9.29590E-01
 -1       509-1.14666E-01-1.07189E-01-1.46385E+00
 -1       510-3.12819E-02-3.45218E-02-1.72856E+00
 -1       511-1.15304E-01-1.06161E-01-1.45760E+00
 -1       512-3.59837E-02-2.87108E-02-1.72440E+00
 -1       513-1.18818E-01-1.07930E-01-9.22159E-01
 -1       514-3.77741E-02-3.31527E-02-6.40363E-01
 -1       515-1.15467E-01-1.06170E-01-1.45478E+00
 -1       516-1.14043E-01-1.07280E-01-1.46572E+00
 -1       517-1.18645E-01-1.08006E-01-9.18534E-01
 -1       518-1.18536E-01-1.08696E-01-9.33265E-01
 -1       519-3.61593E-02-3.09531E-02-1.18997E+00
 -1       520-3.15798E-02-3.57205E-02-1.20327E+00
 -1       521-5.36927E-02-1.34926E-01-1.98183E+00
 -1       522-5.31826E-02-1.34172E-01-1.98096E+00
 -1       523-1.04672E-01-2.45449E-01-1.21538E+00
 -1       524-1.09921E-01-2.49186E-01-6.59244E-01
 -1       525-1.09746E-01-2.49473E-01-6.64092E-01
 -1       526-9.71196E-02-2.29926E-01-1.73253E+00
 -1       527-9.88522E-02-2.32751E-01-1.73441E+00
 -1       528-1.07051E-01-2.44173E-01-1.20901E+00
 -1       529-6.41632E-02-1.45344E-01-3.81801E-01
 -1       530-6.36713E-02-1.45774E-01-3.86414E-01
 -1       531-1.68898E-02-4.56574E-02-6.63419E-01
 -1       532-6.24984E-02-1.46273E-01-9.47137E-01
 -1       533-6.11253E-02-1.41933E-01-1.47596E+00
 -1       534-1.54017E-02-4.32760E-02-1.73739E+00
 -1       535-6.18650E-02-1.41076E-01-1.47326E+00
 -1       536-2.10852E-02-4.07991E-02-1.73688E+00
 -1       537-6.28434E-02-1.45722E-01-9.43401E-01
 -1       538-2.03391E-02-4.47983E-02-6.59552E-01
 -1       539-6.24548E-02-1.42130E-01-1.47200E+00
 -1       540-6.04107E-02-1.41977E-01-1.47661E+00
 -1       541-6.34115E-02-1.45820E-01-9.41038E-01
 -1       542-6.24757E-02-1.46657E-01-9.49233E-01
 -1       543-2.03626E-02-4.24285E-02-1.21121E+00
 -1       544-1.33626E-02-4.41519E-02-1.21860E+00
 -1       545 3.38793E-03-1.44927E-01-1.97741E+00
 -1       546 3.78489E-03-1.46124E-01-1.98026E+00
 -1       547 6.28503E-03-2.66221E-01-1.21162E+00
 -1       548 4.78292E-03-2.72200E-01-6.69001E-01
 -1       549 4.68093E-03-2.72300E-01-6.68072E-01
 -1       550 6.40969E-03-2.51369E-01-1.73293E+00
 -1       551 5.80490E-03-2.50414E-01-1.73130E+00
 -1       552 4.93337E-03-2.65311E-01-1.21708E+00
 -1       553 2.71353E-03-1.60339E-01-3.91472E-01
 -1       554 3.13321E-03-1.60851E-01-3.90070E-01
 -1       555 3.98219E-03-4.93747E-02-6.67988E-01
 -1       556 4.38852E-03-1.58154E-01-9.49095E-01
 -1       557 5.14451E-03-1.54469E-01-1.47413E+00
 -1       558 4.06717E-03-4.60849E-02-1.73314E+00
 -1       559 3.68803E-03-1.53947E-01-1.47637E+00
 -1       560-3.17837E-04-4.55699E-02-1.73717E+00
 -1       561 3.44878E-03-1.58612E-01-9.50900E-01
 -1       562 1.29236E-03-4.90550E-02-6.69500E-01
 -1       563 3.05799E-03-1.53808E-01-1.47675E+00
 -1       564 5.74470E-03-1.53926E-01-1.47237E+00
 -1       565 3.12564E-03-1.59307E-01-9.51329E-01
 -1       566 4.64092E-03-1.58299E-01-9.47879E-01
 -1       567-2.51002E-03-4.66736E-02-1.21797E+00
 -1       568 6.29325E-03-4.73033E-02-1.21484E+00
 -1       569 5.81938E-02-1.34505E-01-1.97323E+00
 -1       570 5.87817E-02-1.35853E-01-1.97603E+00
 -1       571 1.11259E-01-2.43411E-01-1.20707E+00
 -1       572 1.03611E-01-2.32487E-01-1.72703E+00
 -1       573 1.02428E-01-2.30439E-01-1.72544E+00
 -1       574 1.12927E-01-2.45629E-01-6.61586E-01
 -1       575 1.13569E-01-2.45880E-01-6.56205E-01
 -1       576 1.13026E-01-2.41141E-01-1.19762E+00
 -1       577 6.50311E-02-1.44204E-01-3.89027E-01
 -1       578 6.56367E-02-1.43677E-01-3.84563E-01
 -1       579 2.27018E-02-4.49859E-02-6.56048E-01
 -1       580 6.86566E-02-1.43626E-01-9.36577E-01
 -1       581 6.62848E-02-1.40850E-01-1.46256E+00
 -1       582 2.16175E-02-4.11336E-02-1.72815E+00
 -1       583 6.50663E-02-1.41058E-01-1.46821E+00
 -1       584 1.88691E-02-4.26651E-02-1.72972E+00
 -1       585 6.79068E-02-1.44405E-01-9.41791E-01
 -1       586 2.09322E-02-4.56864E-02-6.61652E-01
 -1       587 6.46420E-02-1.41789E-01-1.46954E+00
 -1       588 6.67794E-02-1.40261E-01-1.45889E+00
 -1       589 6.77108E-02-1.45024E-01-9.43856E-01
 -1       590 6.90898E-02-1.43574E-01-9.33801E-01
 -1       591 1.78468E-02-4.44630E-02-1.21018E+00
 -1       592 2.54005E-02-4.08057E-02-1.20000E+00
 -1       593 1.09581E-01-1.00718E-01-1.97293E+00
 -1       594 1.09442E-01-1.01350E-01-1.97041E+00
 -1       595 1.93861E-01-1.92231E-01-6.43358E-01
 -1       596 1.93945E-01-1.92050E-01-6.43427E-01
 -1       597 1.91513E-01-1.90611E-01-1.19197E+00
 -1       598 1.93261E-01-1.90446E-01-1.19144E+00
 -1       599 1.85770E-01-1.76815E-01-1.71948E+00
 -1       600 1.85347E-01-1.77052E-01-1.71904E+00
 -1       601 1.14447E-01-1.12417E-01-3.71287E-01
 -1       602 1.14812E-01-1.11959E-01-3.70659E-01
 -1       603 3.72750E-02-3.56607E-02-6.42898E-01
 -1       604 1.15864E-01-1.12347E-01-9.23748E-01
 -1       605 1.14227E-01-1.09706E-01-1.45683E+00
 -1       606 3.82869E-02-2.96156E-02-1.72039E+00
 -1       607 1.12835E-01-1.09669E-01-1.45854E+00
 -1       608 3.27686E-02-3.44482E-02-1.72567E+00
 -1       609 1.14973E-01-1.13077E-01-9.24973E-01
 -1       610 3.63676E-02-3.66874E-02-6.43422E-01
 -1       611 1.12064E-01-1.09669E-01-1.45793E+00
 -1       612 1.14857E-01-1.09317E-01-1.45466E+00
 -1       613 1.14982E-01-1.13657E-01-9.25328E-01
 -1       614 1.16136E-01-1.11997E-01-9.23097E-01
 -1       615 3.31259E-02-3.58916E-02-1.19466E+00
 -1       616 3.72972E-02-3.24262E-02-1.19296E+00
 -1       617 1.37376E-01-5.62509E-02-1.96859E+00
 -1       618 1.38538E-01-5.69900E-02-1.97074E+00
 -1       619 2.50481E-01-1.07806E-01-6.45420E-01
 -1       620 2.51693E-01-1.08051E-01-6.47861E-01
 -1       621 2.46035E-01-1.08112E-01-1.19119E+00
 -1       622 2.48857E-01-1.06106E-01-1.19591E+00
 -1       623 2.34268E-01-1.01420E-01-1.71701E+00
 -1       624 2.36217E-01-1.02312E-01-1.72117E+00
 -1       625 1.44999E-01-6.40177E-02-3.71151E-01
 -1       626 1.46918E-01-6.46199E-02-3.73125E-01
 -1       627 4.83292E-02-1.95133E-02-6.46846E-01
 -1       628 1.48285E-01-6.40008E-02-9.28851E-01
 -1       629 1.45510E-01-6.17791E-02-1.45790E+00
 -1       630 4.57322E-02-1.56888E-02-1.72394E+00
 -1       631 4.36336E-02-2.22085E-02-1.72190E+00
 -1       632 1.44550E-01-6.23886E-02-1.45626E+00
 -1       633 1.47472E-01-6.44954E-02-9.27287E-01
 -1       634 4.57452E-02-2.05046E-02-6.45128E-01
 -1       635 1.44069E-01-6.28339E-02-1.45357E+00
 -1       636 1.45283E-01-6.11910E-02-1.45848E+00
 -1       637 1.47711E-01-6.50444E-02-9.26005E-01
 -1       638 1.48406E-01-6.41373E-02-9.30299E-01
 -1       639 4.39407E-02-2.30863E-02-1.19371E+00
 -1       640 4.70229E-02-1.78525E-02-1.19818E+00
 -1       641 1.48011E-01-8.80116E-05-1.97077E+00
 -1       642 1.48338E-01-4.96007E-04-1.97420E+00
 -1       643 2.77904E-01 3.36708E-03-6.44765E-01
 -1       644 2.77345E-01 3.23208E-03-6.43288E-01
 -1       645 2.71604E-01-1.65073E-03-1.19694E+00
 -1       646 2.71116E-01-8.43521E-04-1.19829E+00
 -1       647 2.54980E-01-3.76785E-03-1.71970E+00
 -1       648 2.55693E-01-4.31675E-03-1.72402E+00
 -1       649 1.64890E-01 3.18729E-03-3.65579E-01
 -1       650 1.62824E-01 3.71197E-03-3.62600E-01
 -1       651 5.17249E-02 2.27440E-03-6.42319E-01
 -1       652 1.62337E-01 1.66236E-03-9.29202E-01
 -1       653 1.57670E-01-1.99832E-03-1.46228E+00
 -1       654 4.84376E-02 2.94293E-03-1.72557E+00
 -1       655 4.80607E-02-3.49385E-03-1.72405E+00
 -1       656 1.57640E-01-2.64634E-03-1.46217E+00
 -1       657 1.62793E-01 6.55106E-04-9.29973E-01
 -1       658 5.24522E-02-2.35871E-04-6.46285E-01
 -1       659 1.58272E-01-2.57818E-03-1.46169E+00
 -1       660 1.57739E-01-1.78031E-03-1.46260E+00
 -1       661 1.63004E-01 1.42791E-04-9.29718E-01
 -1       662 1.62161E-01 1.96080E-03-9.29011E-01
 -1       663 5.00655E-02-2.70483E-03-1.19963E+00
 -1       664 4.89440E-02 2.96944E-03-1.19849E+00
 -1       665 1.38172E-01 5.45074E-02-1.97279E+00
 -1       666 1.38317E-01 5.43685E-02-1.97494E+00
 -1       667 2.35789E-01 9.38289E-02-1.72577E+00
 -1       668 2.37977E-01 9.50068E-02-1.72454E+00
 -1       669 2.51918E-01 9.95644E-02-1.20274E+00
 -1       670 2.52642E-01 9.77228E-02-1.19798E+00
 -1       671 2.58285E-01 9.96756E-02-6.48379E-01
 -1       672 2.58722E-01 9.95342E-02-6.45240E-01
 -1       673 1.51623E-01 5.75493E-02-3.64093E-01
 -1       674 1.51412E-01 5.83056E-02-3.67611E-01
 -1       675 4.76679E-02 1.83363E-02-6.48497E-01
 -1       676 1.51219E-01 5.83146E-02-9.34404E-01
 -1       677 1.45860E-01 6.01683E-02-1.46664E+00
 -1       678 4.46062E-02 1.97974E-02-1.72837E+00
 -1       679 4.57369E-02 1.55245E-02-1.72789E+00
 -1       680 1.45935E-01 5.84249E-02-1.46439E+00
 -1       681 1.51498E-01 5.75998E-02-9.31041E-01
 -1       682 4.83293E-02 1.64105E-02-6.45215E-01
 -1       683 1.45468E-01 5.74869E-02-1.46170E+00
 -1       684 1.46473E-01 6.09647E-02-1.46670E+00
 -1       685 1.51715E-01 5.73444E-02-9.29395E-01
 -1       686 1.51058E-01 5.86705E-02-9.35439E-01
 -1       687 4.71955E-02 1.38217E-02-1.19984E+00
 -1       688 4.58854E-02 1.90838E-02-1.20526E+00
 -1       689 1.06526E-01 1.02674E-01-1.97250E+00
 -1       690 1.05777E-01 1.01722E-01-1.97333E+00
 -1       691 1.80837E-01 1.77482E-01-1.72504E+00
 -1       692 1.80655E-01 1.78349E-01-1.72519E+00
 -1       693 1.90310E-01 1.89532E-01-1.20341E+00
 -1       694 1.91339E-01 1.88733E-01-1.20301E+00
 -1       695 1.94678E-01 1.92203E-01-6.55740E-01
 -1       696 1.94788E-01 1.91702E-01-6.55441E-01
 -1       697 1.15095E-01 1.10732E-01-3.77661E-01
 -1       698 1.14897E-01 1.11635E-01-3.79827E-01
 -1       699 1.14438E-01 1.12976E-01-9.37386E-01
 -1       700 3.53460E-02 3.65020E-02-6.56184E-01
 -1       701 1.10787E-01 1.10703E-01-1.46681E+00
 -1       702 3.07598E-02 3.66207E-02-1.73004E+00
 -1       703 3.49670E-02 3.20266E-02-1.72610E+00
 -1       704 1.11576E-01 1.09430E-01-1.46536E+00
 -1       705 1.15117E-01 1.12600E-01-9.36854E-01
 -1       706 3.75210E-02 3.38271E-02-6.55271E-01
 -1       707 1.11450E-01 1.09341E-01-1.46462E+00
 -1       708 1.10790E-01 1.11697E-01-1.46567E+00
 -1       709 1.15318E-01 1.12238E-01-9.36414E-01
 -1       710 1.14345E-01 1.12802E-01-9.38170E-01
 -1       711 3.73669E-02 3.16619E-02-1.20430E+00
 -1       712 3.26881E-02 3.68795E-02-1.20539E+00
 -1       713 5.78514E-02 1.35119E-01-1.97237E+00
 -1       714 5.75888E-02 1.35088E-01-1.97207E+00
 -1       715 1.03080E-01 2.49229E-01-1.20117E+00
 -1       716 9.84757E-02 2.33600E-01-1.72333E+00
 -1       717 9.77998E-02 2.33135E-01-1.72389E+00
 -1       718 1.05111E-01 2.55625E-01-6.47231E-01
 -1       719 1.05164E-01 2.55608E-01-6.47559E-01
 -1       720 1.01074E-01 2.50503E-01-1.19972E+00
 -1       721 6.21418E-02 1.50010E-01-3.67695E-01
 -1       722 6.23398E-02 1.50536E-01-3.67808E-01
 -1       723 6.11931E-02 1.50001E-01-9.31814E-01
 -1       724 1.88157E-02 4.81605E-02-6.47454E-01
 -1       725 5.94326E-02 1.44523E-01-1.46370E+00
 -1       726 1.91049E-02 4.38803E-02-1.72677E+00
 -1       727 2.21385E-02 4.21288E-02-1.72572E+00
 -1       728 6.08121E-02 1.44488E-01-1.46497E+00
 -1       729 6.12893E-02 1.49624E-01-9.33057E-01
 -1       730 2.01968E-02 4.71790E-02-6.47505E-01
 -1       731 6.18237E-02 1.45038E-01-1.46392E+00
 -1       732 5.93466E-02 1.44655E-01-1.46336E+00
 -1       733 6.16535E-02 1.49424E-01-9.33226E-01
 -1       734 6.13770E-02 1.49900E-01-9.31296E-01
 -1       735 2.22217E-02 4.41201E-02-1.20414E+00
 -1       736 1.51748E-02 4.62480E-02-1.20183E+00
 -1       737 2.51883E-03 1.46914E-01-1.97512E+00
 -1       738 2.50930E-03 1.47281E-01-1.97396E+00
 -1       739 8.75992E-03 2.67620E-01-1.20128E+00
 -1       740 3.13637E-03 2.52971E-01-1.72685E+00
 -1       741 3.01271E-03 2.52151E-01-1.72682E+00
 -1       742 6.39509E-03 2.72270E-01-6.59830E-01
 -1       743 6.40882E-03 2.72737E-01-6.56785E-01
 -1       744 7.48812E-03 2.68594E-01-1.21060E+00
 -1       745 3.40822E-03 1.60594E-01-3.81300E-01
 -1       746 3.10733E-03 1.59060E-01-3.84310E-01
 -1       747 4.36878E-03 1.59625E-01-9.42157E-01
 -1       748-5.82469E-05 4.95848E-02-6.60309E-01
 -1       749 3.39153E-03 1.55742E-01-1.47076E+00
 -1       750-3.31327E-03 4.72301E-02-1.73108E+00
 -1       751 3.75731E-03 4.69213E-02-1.72835E+00
 -1       752 4.26507E-03 1.55607E-01-1.46807E+00
 -1       753 5.12685E-03 1.59889E-01-9.38617E-01
 -1       754 2.53445E-03 5.01591E-02-6.56105E-01
 -1       755 4.56615E-03 1.56191E-01-1.46689E+00
 -1       756 3.21830E-03 1.55768E-01-1.47264E+00
 -1       757 5.53419E-03 1.60280E-01-9.36407E-01
 -1       758 4.45065E-03 1.59824E-01-9.44611E-01
 -1       759 5.38665E-03 4.79145E-02-1.20411E+00
 -1       760-2.10283E-03 4.82123E-02-1.21138E+00
 -1       761-5.04349E-02 1.35988E-01-1.97741E+00
 -1       762-5.10110E-02 1.37147E-01-1.97705E+00
 -1       763-1.00075E-01 2.44937E-01-1.21457E+00
 -1       764-9.96986E-02 2.48851E-01-6.75271E-01
 -1       765-9.91460E-02 2.48916E-01-6.73615E-01
 -1       766-9.33577E-02 2.30855E-01-1.72985E+00
 -1       767-9.46356E-02 2.33307E-01-1.73030E+00
 -1       768-9.89832E-02 2.46023E-01-1.21387E+00
 -1       769-5.79744E-02 1.45542E-01-4.04064E-01
 -1       770-5.84910E-02 1.44784E-01-4.05158E-01
 -1       771-5.92615E-02 1.46218E-01-9.51903E-01
 -1       772-2.06641E-02 4.51893E-02-6.76235E-01
 -1       773-5.83779E-02 1.42668E-01-1.47459E+00
 -1       774-1.94529E-02 4.17075E-02-1.73316E+00
 -1       775-1.41301E-02 4.43466E-02-1.73289E+00
 -1       776-5.66735E-02 1.42443E-01-1.47448E+00
 -1       777-5.82463E-02 1.46685E-01-9.50131E-01
 -1       778-1.68327E-02 4.59514E-02-6.73587E-01
 -1       779-5.60907E-02 1.42984E-01-1.47289E+00
 -1       780-5.90419E-02 1.42544E-01-1.47426E+00
 -1       781-5.86100E-02 1.47022E-01-9.49546E-01
 -1       782-5.96860E-02 1.46069E-01-9.51704E-01
 -1       783-1.50110E-02 4.49103E-02-1.21601E+00
 -1       784-2.14568E-02 4.26470E-02-1.21786E+00
 -1       785-1.01777E-01 1.04469E-01-1.98235E+00
 -1       786-1.02593E-01 1.04992E-01-1.98293E+00
 -1       787-1.80074E-01 1.77284E-01-1.73044E+00
 -1       788-1.80262E-01 1.77461E-01-1.73421E+00
 -1       789-1.91771E-01 1.82744E-01-1.20653E+00
 -1       790-1.92520E-01 1.83974E-01-1.21619E+00
 -1       791-1.97781E-01 1.84585E-01-6.65833E-01
 -1       792-1.97878E-01 1.84733E-01-6.71966E-01
 -1       793-1.17112E-01 1.06940E-01-3.91335E-01
 -1       794-1.17882E-01 1.08308E-01-3.97766E-01
 -1       795-3.68940E-02 3.34240E-02-6.66663E-01
 -1       796-1.14713E-01 1.08403E-01-9.45164E-01
 -1       797-1.10588E-01 1.07258E-01-1.47147E+00
 -1       798-3.36614E-02 3.14425E-02-1.73470E+00
 -1       799-2.85835E-02 3.60385E-02-1.73619E+00
 -1       800-1.10091E-01 1.08324E-01-1.47469E+00
 -1       801-1.14899E-01 1.09441E-01-9.49623E-01
 -1       802-3.51075E-02 3.52124E-02-6.71839E-01
 -1       803-1.09874E-01 1.09155E-01-1.47460E+00
 -1       804-1.10494E-01 1.07004E-01-1.46948E+00
 -1       805-1.15203E-01 1.09626E-01-9.52240E-01
 -1       806-1.14925E-01 1.08859E-01-9.43029E-01
 -1       807-3.11048E-02 3.60637E-02-1.21664E+00
 -1       808-3.60027E-02 2.99709E-02-1.20976E+00
 -1       809-1.38210E-01 5.30750E-02-1.98022E+00
 -1       810-1.37186E-01 5.21726E-02-1.98471E+00
 -1       811-2.38235E-01 9.31949E-02-1.72731E+00
 -1       812-2.36651E-01 9.23196E-02-1.73262E+00
 -1       813-2.52379E-01 9.82088E-02-1.19599E+00
 -1       814-2.51563E-01 1.00194E-01-1.20314E+00
 -1       815-2.57048E-01 9.76284E-02-6.41082E-01
 -1       816-2.57218E-01 9.81757E-02-6.45439E-01
 -1       817-1.50107E-01 5.67601E-02-3.60862E-01
 -1       818-1.49212E-01 5.70772E-02-3.66935E-01
 -1       819-4.67924E-02 1.51137E-02-6.41064E-01
 -1       820-1.50072E-01 5.77504E-02-9.27173E-01
 -1       821-1.45723E-01 5.85409E-02-1.46531E+00
 -1       822-4.37620E-02 1.42584E-02-1.73303E+00
 -1       823-4.07338E-02 2.19383E-02-1.73437E+00
 -1       824-1.44481E-01 5.93130E-02-1.46836E+00
 -1       825-1.49897E-01 5.87074E-02-9.30667E-01
 -1       826-4.66099E-02 1.79242E-02-6.45456E-01
 -1       827-1.44972E-01 5.91588E-02-1.46945E+00
 -1       828-1.45730E-01 5.78469E-02-1.46312E+00
 -1       829-1.50118E-01 5.91090E-02-9.32247E-01
 -1       830-1.50184E-01 5.74445E-02-9.25711E-01
 -1       831-4.32580E-02 1.99230E-02-1.20525E+00
 -1       832-4.48398E-02 1.34135E-02-1.19895E+00
 -1       833 0.00000E+00 0.00000E+00 0.00000E+00
 -1       834 0.00000E+00 0.00000E+00 0.00000E+00
 -1       835 0.00000E+00 0.00000E+00 0.00000E+00
 -1       836 0.00000E+00 0.00000E+00 0.00000E+00
 -1       837 0.00000E+00 0.00000E+00 0.00000E+00
 -1       838 0.00000E+00 0.00000E+00 0.00000E+00
 -1       839 0.00000E+00 0.00000E+00 0.00000E+00
 -1       840 0.00000E+00 0.00000E+00 0.00000E+00
 -1       841 0.00000E+00 0.00000E+00 0.00000E+00
 -1       842 0.00000E+00 0.00000E+00 0.00000E+00
 -1       843 0.00000E+00 0.00000E+00 0.00000E+00
 -1       844 0.00000E+00 0.00000E+00 0.00000E+00
 -1       845 0.00000E+00 0.00000E+00 0.00000E+00
 -1       846 0.00000E+00 0.00000E+00 0.00000E+00
 -1       847 0.00000E+00 0.00000E+00 0.00000E+00
 -1       848 0.00000E+00 0.00000E+00 0.00000E+00
 -1       849 0.00000E+00 0.00000E+00 0.00000E+00
 -1       850 0.00000E+00 0.00000E+00 0.00000E+00
 -1       851 0.00000E+00 0.00000E+00 0.00000E+00
 -1       852 0.00000E+00 0.00000E+00 0.00000E+00
 -1       853 0.00000E+00 0.00000E+00 0.00000E+00
 -1       854 0.00000E+00 0.00000E+00 0.00000E+00
 -1       855 0.00000E+00 0.00000E+00 0.00000E+00
 -1       856 0.00000E+00 0.00000E+00 0.00000E+00
 -1       857 0.00000E+00 0.00000E+00 0.00000E+00
 -1       858 0.00000E+00 0.00000E+00 0.00000E+00
 -1       859 0.00000E+00 0.00000E+00 0.00000E+00
 -1       860 0.00000E+00 0.00000E+00 0.00000E+00
 -1       861 0.00000E+00 0.00000E+00 0.00000E+00
 -1       862 0.00000E+00 0.00000E+00 0.00000E+00
 -1       863 0.00000E+00 0.00000E+00 0.00000E+00
 -1       864 0.00000E+00 0.00000E+00 0.00000E+00
 -1       865 0.00000E+00 0.00000E+00 0.00000E+00
 -1       866 0.00000E+00 0.00000E+00 0.00000E+00
 -1       867 0.00000E+00 0.00000E+00 0.00000E+00
 -1       868 0.00000E+00 0.00000E+00 0.00000E+00
 -1       869 0.00000E+00 0.00000E+00 0.00000E+00
 -1       870 0.00000E+00 0.00000E+00 0.00000E+00
 -1       871 0.00000E+00 0.00000E+00 0.00000E+00
 -1       872 0.00000E+00 0.00000E+00 0.00000E+00
 -1       873 0.00000E+00 0.00000E+00 0.00000E+00
 -1       874 0.00000E+00 0.00000E+00 0.00000E+00
 -1       875 0.00000E+00 0.00000E+00 0.00000E+00
 -1       876 0.00000E+00 0.00000E+00 0.00000E+00
 -1       877 0.00000E+00 0.00000E+00 0.00000E+00
 -1       878 0.00000E+00 0.00000E+00 0.00000E+00
 -1       879 0.00000E+00 0.00000E+00 0.00000E+00
 -1       880 0.00000E+00 0.00000E+00 0.00000E+00
 -1       881 0.00000E+00 0.00000E+00 0.00000E+00
 -1       882 0.00000E+00 0.00000E+00 0.00000E+00
 -1       883 0.00000E+00 0.00000E+00 0.00000E+00
 -1       884 0.00000E+00 0.00000E+00 0.00000E+00
 -1       885 0.00000E+00 0.00000E+00 0.00000E+00
 -1       886 0.00000E+00 0.00000E+00 0.00000E+00
 -1       887 0.00000E+00 0.00000E+00 0.00000E+00
 -1       888 0.00000E+00 0.00000E+00 0.00000E+00
 -1       889 0.00000E+00 0.00000E+00 0.00000E+00
 -1       890 0.00000E+00 0.00000E+00 0.00000E+00
 -1       891 0.00000E+00 0.00000E+00 0.00000E+00
 -1       892 0.00000E+00 0.00000E+00 0.00000E+00
 -1       893 0.00000E+00 0.00000E+00 0.00000E+00
 -1       894 0.00000E+00 0.00000E+00 0.00000E+00
 -1       895 0.00000E+00 0.00000E+00 0.00000E+00
 -1       896 0.00000E+00 0.00000E+00 0.00000E+00
 -1       897-2.60836E-01-4.29118E-03-1.59281E+00
 -1       898-2.53512E-01-6.95063E-03-1.84952E+00
 -1       899-2.60803E-01-4.85168E-03-1.59749E+00
 -1       900-2.70443E-01-1.63228E-03-1.32693E+00
 -1       901-2.75333E-01 2.90238E-04-7.79760E-01
 -1       902-2.74353E-01 7.27398E-04-4.96044E-01
 -1       903-4.93192E-02-7.95519E-04-7.81526E-01
 -1       904-4.61053E-02-6.29682E-03-1.85321E+00
 -1       905-4.66112E-02 2.07779E-03-1.60088E+00
 -1       906-4.85857E-02 1.16795E-03-4.95229E-01
 -1       907-4.77821E-02 3.76651E-03-1.05985E+00
 -1       908-4.84286E-02-4.10615E-03-1.06175E+00
 -1       909-4.72893E-02-3.81175E-03-1.33005E+00
 -1       910-2.36556E-01-9.63302E-02-1.84869E+00
 -1       911-2.42793E-01-1.00480E-01-1.59005E+00
 -1       912-2.36484E-01-9.57546E-02-1.85047E+00
 -1       913-4.56164E-02-2.03253E-02-7.74005E-01
 -1       914-4.16559E-02-1.97618E-02-1.85339E+00
 -1       915-4.44265E-02-1.63119E-02-1.59623E+00
 -1       916-4.58096E-02-2.10544E-02-4.96076E-01
 -1       917-4.63845E-02-1.62564E-02-1.05732E+00
 -1       918-4.36548E-02-2.18872E-02-1.05273E+00
 -1       919-4.21830E-02-2.12534E-02-1.32201E+00
 -1       920-1.99692E-01-1.83913E-01-1.06768E+00
 -1       921-1.96402E-01-1.83385E-01-1.33384E+00
 -1       922-1.90555E-01-1.77163E-01-1.59013E+00
 -1       923-1.85213E-01-1.73914E-01-1.85381E+00
 -1       924-3.62527E-02-3.31557E-02-7.88738E-01
 -1       925-3.02856E-02-3.40621E-02-1.85524E+00
 -1       926-3.54502E-02-3.01956E-02-1.59532E+00
 -1       927-3.60458E-02-3.37699E-02-4.99399E-01
 -1       928-3.73621E-02-2.95221E-02-1.32309E+00
 -1       929-3.65802E-02-3.14181E-02-1.05416E+00
 -1       930-3.36296E-02-3.47392E-02-1.06960E+00
 -1       931-3.17818E-02-3.43890E-02-1.33630E+00
 -1       932-1.03694E-01-2.43474E-01-1.34587E+00
 -1       933-1.09162E-01-2.49486E-01-8.04892E-01
 -1       934-9.46186E-02-2.29728E-01-1.85696E+00
 -1       935-1.04742E-01-2.43224E-01-1.34061E+00
 -1       936-1.08456E-01-2.45840E-01-1.07472E+00
 -1       937-1.77740E-02-4.47712E-02-5.23898E-01
 -1       938-1.82917E-02-4.53568E-02-8.05685E-01
 -1       939-1.09904E-02-4.38256E-02-1.86135E+00
 -1       940-2.21874E-02-4.05217E-02-1.60851E+00
 -1       941-1.80757E-02-4.43679E-02-5.18675E-01
 -1       942-2.02338E-02-4.20337E-02-1.34155E+00
 -1       943-2.00811E-02-4.35329E-02-1.07743E+00
 -1       944-1.34684E-02-4.50746E-02-1.08492E+00
 -1       945-1.37413E-02-4.35820E-02-1.34822E+00
 -1       946 6.62364E-03-2.64819E-01-1.34201E+00
 -1       947 6.63927E-03-2.55267E-01-1.60549E+00
 -1       948 5.28325E-03-2.47350E-01-1.85397E+00
 -1       949 2.50231E-03-2.67386E-01-1.08266E+00
 -1       950 3.87374E-03-4.88118E-02-8.09106E-01
 -1       951 7.50726E-03-4.49545E-02-1.85660E+00
 -1       952 7.53798E-04-4.66957E-02-1.61078E+00
 -1       953 8.47425E-04-4.93563E-02-5.30328E-01
 -1       954-2.54189E-03-4.62095E-02-1.34888E+00
 -1       955-2.02142E-03-4.78769E-02-1.08486E+00
 -1       956 5.74402E-03-4.74927E-02-1.08231E+00
 -1       957 7.78215E-03-4.66455E-02-1.34635E+00
 -1       958 1.11709E-01-2.44053E-01-1.07522E+00
 -1       959 1.13458E-01-2.42731E-01-1.06635E+00
 -1       960 1.12302E-01-2.40407E-01-1.32765E+00
 -1       961 2.20770E-02-4.47049E-02-5.18307E-01
 -1       962 2.32022E-02-4.46971E-02-7.96497E-01
 -1       963 2.52108E-02-3.88986E-02-1.85144E+00
 -1       964 1.91619E-02-4.29700E-02-1.60279E+00
 -1       965 1.88524E-02-4.50297E-02-5.23828E-01
 -1       966 1.78102E-02-4.39892E-02-1.34082E+00
 -1       967 1.83983E-02-4.48830E-02-1.07819E+00
 -1       968 2.60016E-02-4.18999E-02-1.06775E+00
 -1       969 2.57100E-02-4.02490E-02-1.33008E+00
 -1       970 1.92158E-01-1.91282E-01-1.05804E+00
 -1       971 1.83867E-01-1.74274E-01-1.84629E+00
 -1       972 1.87593E-01-1.80539E-01-1.58964E+00
 -1       973 1.83412E-01-1.74717E-01-1.84492E+00
 -1       974 3.76535E-02-3.46371E-02-5.04793E-01
 -1       975 3.76488E-02-3.49806E-02-7.83990E-01
 -1       976 3.99249E-02-2.67883E-02-1.84689E+00
 -1       977 3.46995E-02-3.25065E-02-1.59560E+00
 -1       978 3.65631E-02-3.73680E-02-5.06011E-01
 -1       979 3.12692E-02-3.71331E-02-1.32742E+00
 -1       980 3.19534E-02-3.78349E-02-1.06060E+00
 -1       981 3.79806E-02-3.29876E-02-1.05807E+00
 -1       982 3.69785E-02-3.13453E-02-1.32497E+00
 -1       983 2.51159E-01-1.07465E-01-7.88091E-01
 -1       984 2.47501E-01-1.09408E-01-1.05870E+00
 -1       985 2.32518E-01-9.88586E-02-1.84232E+00
 -1       986 2.38367E-01-1.04564E-01-1.58661E+00
 -1       987 2.33281E-01-9.94999E-02-1.84479E+00
 -1       988 4.79469E-02-1.89757E-02-7.89232E-01
 -1       989 4.51766E-02-1.37089E-02-1.84774E+00
 -1       990 4.41200E-02-2.24712E-02-1.59031E+00
 -1       991 4.47798E-02-2.03627E-02-5.05231E-01
 -1       992 4.37491E-02-2.24747E-02-1.32529E+00
 -1       993 4.40617E-02-2.39996E-02-1.06125E+00
 -1       994 4.70687E-02-1.79737E-02-1.06489E+00
 -1       995 4.73166E-02-1.40418E-02-1.32901E+00
 -1       996 2.73023E-01-6.33162E-04-1.06289E+00
 -1       997 2.52376E-01-3.34875E-03-1.84382E+00
 -1       998 2.59545E-01-3.41835E-03-1.59178E+00
 -1       999 2.52010E-01-3.17163E-03-1.84847E+00
 -1      1000 5.17870E-02 5.98516E-04-5.00646E-01
 -1      1001 5.15379E-02 2.59717E-04-7.87599E-01
 -1      1002 4.61389E-02 7.60067E-03-1.85238E+00
 -1      1003 4.83165E-02-3.33975E-03-1.59635E+00
 -1      1004 5.26859E-02-1.48288E-03-5.04600E-01
 -1      1005 4.94954E-02-4.95814E-03-1.33204E+00
 -1      1006 5.05397E-02-2.69080E-03-1.06594E+00
 -1      1007 4.98372E-02 4.46367E-03-1.06514E+00
 -1      1008 4.84186E-02 1.47391E-03-1.33272E+00
 -1      1009 2.34158E-01 9.18417E-02-1.85032E+00
 -1      1010 2.41368E-01 9.70868E-02-1.59473E+00
 -1      1011 2.50234E-01 9.68428E-02-1.33015E+00
 -1      1012 2.54067E-01 9.75947E-02-1.06336E+00
 -1      1013 2.57805E-01 9.88237E-02-5.03440E-01
 -1      1014 4.75820E-02 1.83905E-02-7.92674E-01
 -1      1015 4.20464E-02 2.20214E-02-1.85398E+00
 -1      1016 4.51648E-02 1.77689E-02-1.60012E+00
 -1      1017 4.74222E-02 1.60940E-02-5.02571E-01
 -1      1018 4.58101E-02 1.43999E-02-1.33297E+00
 -1      1019 4.77943E-02 1.34630E-02-1.06533E+00
 -1      1020 4.65835E-02 1.88496E-02-1.07107E+00
 -1      1021 4.45136E-02 2.10894E-02-1.33698E+00
 -1      1022 1.83753E-01 1.80563E-01-1.59607E+00
 -1      1023 1.79290E-01 1.75138E-01-1.84844E+00
 -1      1024 1.84065E-01 1.82040E-01-1.59682E+00
 -1      1025 1.90883E-01 1.86431E-01-1.33318E+00
 -1      1026 1.93219E-01 1.89233E-01-1.06923E+00
 -1      1027 1.94744E-01 1.90030E-01-5.15519E-01
 -1      1028 3.56667E-02 3.47173E-02-5.16157E-01
 -1      1029 3.51119E-02 3.63220E-02-7.97614E-01
 -1      1030 3.01136E-02 3.40632E-02-1.85322E+00
 -1      1031 3.63452E-02 3.21823E-02-1.60007E+00
 -1      1032 3.67626E-02 3.35138E-02-5.14406E-01
 -1      1033 3.67841E-02 3.14964E-02-1.33536E+00
 -1      1034 3.75173E-02 3.31024E-02-1.07124E+00
 -1      1035 3.43579E-02 3.54569E-02-1.07307E+00
 -1      1036 3.29152E-02 3.61781E-02-1.33665E+00
 -1      1037 1.03502E-01 2.51390E-01-1.06788E+00
 -1      1038 1.00395E-01 2.37910E-01-1.59464E+00
 -1      1039 1.00032E-01 2.48248E-01-1.33104E+00
 -1      1040 1.92357E-02 4.70885E-02-7.89582E-01
 -1      1041 1.40707E-02 4.39597E-02-1.85103E+00
 -1      1042 2.19276E-02 4.36747E-02-1.60030E+00
 -1      1043 1.95532E-02 4.72654E-02-5.05646E-01
 -1      1044 2.08378E-02 4.53350E-02-1.07030E+00
 -1      1045 1.68237E-02 4.63853E-02-1.06688E+00
 -1      1046 1.53486E-02 4.53557E-02-1.33356E+00
 -1      1047 8.95574E-03 2.68827E-01-1.06848E+00
 -1      1048 2.87041E-03 2.50246E-01-1.85001E+00
 -1      1049 5.82345E-03 2.56746E-01-1.59726E+00
 -1      1050 6.95518E-03 2.71867E-01-8.00824E-01
 -1      1051 6.56588E-03 2.72040E-01-5.18158E-01
 -1      1052 1.10111E-03 4.93910E-02-5.20339E-01
 -1      1053 1.02413E-03 4.95706E-02-8.02148E-01
 -1      1054-3.35290E-03 4.54902E-02-1.85483E+00
 -1      1055 5.14898E-03 4.77208E-02-1.60177E+00
 -1      1056 2.40494E-03 5.04085E-02-5.17220E-01
 -1      1057 5.22021E-03 4.77393E-02-1.33616E+00
 -1      1058 6.27048E-03 4.84543E-02-1.07140E+00
 -1      1059-1.03541E-03 4.88373E-02-1.07872E+00
 -1      1060-3.29283E-03 4.70234E-02-1.34339E+00
 -1      1061-9.95834E-02 2.43703E-01-1.34410E+00
 -1      1062-9.07092E-02 2.29665E-01-1.85301E+00
 -1      1063-9.65420E-02 2.36226E-01-1.60274E+00
 -1      1064-9.82915E-02 2.44023E-01-1.34445E+00
 -1      1065-9.87196E-02 2.47208E-01-1.08114E+00
 -1      1066-1.82305E-02 4.55174E-02-8.15150E-01
 -1      1067-1.88969E-02 4.06033E-02-1.85771E+00
 -1      1068-1.59825E-02 4.37921E-02-1.60774E+00
 -1      1069-1.59767E-02 4.61509E-02-5.36461E-01
 -1      1070-1.25715E-02 4.50640E-02-1.34593E+00
 -1      1071-1.41028E-02 4.62706E-02-1.08269E+00
 -1      1072-1.92978E-02 4.44161E-02-1.08532E+00
 -1      1073-2.08447E-02 4.23410E-02-1.34761E+00
 -1      1074-1.76613E-01 1.77051E-01-1.85628E+00
 -1      1075-1.82611E-01 1.80488E-01-1.60344E+00
 -1      1076-1.90579E-01 1.82518E-01-1.33751E+00
 -1      1077-1.96652E-01 1.84471E-01-8.05393E-01
 -1      1078-1.97712E-01 1.84496E-01-5.34080E-01
 -1      1079-3.70435E-02 3.28109E-02-8.07488E-01
 -1      1080-3.34838E-02 2.98462E-02-1.86049E+00
 -1      1081-3.04755E-02 3.52192E-02-1.60754E+00
 -1      1082-3.53836E-02 3.50984E-02-5.33785E-01
 -1      1083-3.26991E-02 3.58292E-02-1.08498E+00
 -1      1084-3.64589E-02 3.05383E-02-1.07741E+00
 -1      1085-3.59788E-02 2.92958E-02-1.34067E+00
 -1      1086-2.35589E-01 9.07688E-02-1.85348E+00
 -1      1087-2.40942E-01 9.59248E-02-1.60089E+00
 -1      1088-2.50481E-01 9.74693E-02-1.32947E+00
 -1      1089-2.56533E-01 9.84077E-02-7.83978E-01
 -1      1090-2.55665E-01 9.77038E-02-5.04923E-01
 -1      1091-4.62170E-02 1.74566E-02-7.84919E-01
 -1      1092-4.35498E-02 1.33306E-02-1.85850E+00
 -1      1093-4.17602E-02 2.14812E-02-1.60643E+00
 -1      1094-4.53021E-02 1.87785E-02-5.03184E-01
 -1      1095-4.17585E-02 2.29594E-02-1.33776E+00
 -1      1096-4.39682E-02 2.03776E-02-1.06929E+00
 -1      1097-4.54838E-02 1.33422E-02-1.06346E+00
 -1      1098-4.36528E-02 1.52775E-02-1.33197E+00
 -1      1099 0.00000E+00 0.00000E+00 0.00000E+00
 -1      1100 0.00000E+00 0.00000E+00 0.00000E+00
 -1      1101 0.00000E+00 0.00000E+00 0.00000E+00
 -1      1102 0.00000E+00 0.00000E+00 0.00000E+00
 -1      1103 0.00000E+00 0.00000E+00 0.00000E+00
 -1      1104 0.00000E+00 0.00000E+00 0.00000E+00
 -1      1105 0.00000E+00 0.00000E+00 0.00000E+00
 -1      1106 0.00000E+00 0.00000E+00 0.00000E+00
 -1      1107 0.00000E+00 0.00000E+00 0.00000E+00
 -1      1108 0.00000E+00 0.00000E+00 0.00000E+00
 -1      1109 0.00000E+00 0.00000E+00 0.00000E+00
 -1      1110 0.00000E+00 0.00000E+00 0.00000E+00
 -1      1111 0.00000E+00 0.00000E+00 0.00000E+00
 -1      1112 0.00000E+00 0.00000E+00 0.00000E+00
 -1      1113 0.00000E+00 0.00000E+00 0.00000E+00
 -1      1114 0.00000E+00 0.00000E+00 0.00000E+00
 -1      1115 0.00000E+00 0.00000E+00 0.00000E+00
 -1      1116 0.00000E+00 0.00000E+00 0.00000E+00
 -1      1117 0.00000E+00 0.00000E+00 0.00000E+00
 -1      1118 0.00000E+00 0.00000E+00 0.00000E+00
 -1      1119 0.00000E+00 0.00000E+00 0.00000E+00
 -1      1120 0.00000E+00 0.00000E+00 0.00000E+00
 -1      1121 0.00000E+00 0.00000E+00 0.00000E+00
 -1      1122 0.00000E+00 0.00000E+00 0.00000E+00
 -1      1123 0.00000E+00 0.00000E+00 0.00000E+00
 -1      1124 0.00000E+00 0.00000E+00 0.00000E+00
 -1      1125 0.00000E+00 0.00000E+00 0.00000E+00
 -1      1126 0.00000E+00 0.00000E+00 0.00000E+00
 -1      1127 0.00000E+00 0.00000E+00 0.00000E+00
 -1      1128 0.00000E+00 0.00000E+00 0.00000E+00
 -1      1129 0.00000E+00 0.00000E+00 0.00000E+00
 -1      1130 0.00000E+00 0.00000E+00 0.00000E+00
 -1      1131 0.00000E+00 0.00000E+00 0.00000E+00
 -1      1132 0.00000E+00 0.00000E+00 0.00000E+00
 -1      1133 0.00000E+00 0.00000E+00 0.00000E+00
 -1      1134 0.00000E+00 0.00000E+00 0.00000E+00
 -1      1135 0.00000E+00 0.00000E+00 0.00000E+00
 -1      1136 0.00000E+00 0.00000E+00 0.00000E+00
 -1      1137 0.00000E+00 0.00000E+00 0.00000E+00
 -1      1138 0.00000E+00 0.00000E+00 0.00000E+00
 -1      1139 0.00000E+00 0.00000E+00 0.00000E+00
 -1      1140 0.00000E+00 0.00000E+00 0.00000E+00
 -1      1141 0.00000E+00 0.00000E+00 0.00000E+00
 -1      1142 0.00000E+00 0.00000E+00 0.00000E+00
 -1      1143 0.00000E+00 0.00000E+00 0.00000E+00
 -1      1144 0.00000E+00 0.00000E+00 0.00000E+00
 -1      1145 0.00000E+00 0.00000E+00 0.00000E+00
 -1      1146 0.00000E+00 0.00000E+00 0.00000E+00
 -1      1147 0.00000E+00 0.00000E+00 0.00000E+00
 -1      1148 0.00000E+00 0.00000E+00 0.00000E+00
 -1      1149 0.00000E+00 0.00000E+00 0.00000E+00
 -1      1150 0.00000E+00 0.00000E+00 0.00000E+00
 -1      1151 0.00000E+00 0.00000E+00 0.00000E+00
 -1      1152 0.00000E+00 0.00000E+00 0.00000E+00
 -1      1153 0.00000E+00 0.00000E+00 0.00000E+00
 -1      1154 0.00000E+00 0.00000E+00 0.00000E+00
 -1      1155 0.00000E+00 0.00000E+00 0.00000E+00
 -1      1156 0.00000E+00 0.00000E+00 0.00000E+00
 -1      1157 0.00000E+00 0.00000E+00 0.00000E+00
 -1      1158-2.52838E-01-7.58051E-03-1.85514E+00
 -1      1159-2.72854E-01-2.35126E-04-1.05817E+00
 -1      1160-2.72989E-01 5.59409E-04-1.05927E+00
 -1      1161-2.68907E-01-8.68461E-04-1.32929E+00
 -1      1162-2.74332E-01 1.61946E-04-4.96700E-01
 -1      1163-2.75595E-01 3.18649E-04-7.80416E-01
 -1      1164-4.94939E-02-5.61855E-04-4.95942E-01
 -1      1165-4.70961E-02-2.26384E-03-1.59890E+00
 -1      1166-4.52659E-02 4.40646E-03-1.85782E+00
 -1      1167-4.95537E-02 1.74741E-03-7.81111E-01
 -1      1168-4.64073E-02 3.09904E-03-1.33029E+00
 -1      1169-2.49673E-01-1.12395E-01-4.97164E-01
 -1      1170-2.51885E-01-1.11432E-01-7.77817E-01
 -1      1171-2.51340E-01-1.11143E-01-7.73881E-01
 -1      1172-2.48605E-01-1.12210E-01-4.92386E-01
 -1      1173-2.51625E-01-1.08771E-01-1.05635E+00
 -1      1174-2.49442E-01-1.05983E-01-1.32493E+00
 -1      1175-2.47883E-01-1.06416E-01-1.32107E+00
 -1      1176-2.49872E-01-1.09970E-01-1.05061E+00
 -1      1177-2.41639E-01-9.92763E-02-1.59248E+00
 -1      1178-4.42126E-02-2.03248E-02-4.90898E-01
 -1      1179-4.14356E-02-2.17315E-02-1.59569E+00
 -1      1180-4.41941E-02-1.30084E-02-1.85375E+00
 -1      1181-4.67865E-02-1.97772E-02-7.78667E-01
 -1      1182-4.46639E-02-1.60788E-02-1.32722E+00
 -1      1183-2.00508E-01-1.84475E-01-5.00619E-01
 -1      1184-2.02263E-01-1.84058E-01-7.80769E-01
 -1      1185-2.02208E-01-1.83949E-01-7.88445E-01
 -1      1186-1.99281E-01-1.83876E-01-5.07836E-01
 -1      1187-2.00430E-01-1.83079E-01-1.05324E+00
 -1      1188-1.97174E-01-1.81615E-01-1.32154E+00
 -1      1189-1.84526E-01-1.73869E-01-1.84819E+00
 -1      1190-1.91156E-01-1.76841E-01-1.59682E+00
 -1      1191-3.47260E-02-3.42555E-02-5.06103E-01
 -1      1192-3.40290E-02-3.34538E-02-1.59982E+00
 -1      1193-3.48740E-02-2.99485E-02-1.85235E+00
 -1      1194-3.82104E-02-3.21435E-02-7.82046E-01
 -1      1195-1.06776E-01-2.46873E-01-1.08313E+00
 -1      1196-1.09905E-01-2.48140E-01-5.19819E-01
 -1      1197-1.08965E-01-2.49098E-01-8.01179E-01
 -1      1198-1.09792E-01-2.48594E-01-5.24579E-01
 -1      1199-1.00573E-01-2.34396E-01-1.60522E+00
 -1      1200-9.38156E-02-2.28558E-01-1.85638E+00
 -1      1201-1.01632E-01-2.35649E-01-1.60553E+00
 -1      1202-1.80222E-02-4.24842E-02-1.61095E+00
 -1      1203-2.00100E-02-3.96115E-02-1.86042E+00
 -1      1204-1.87883E-02-4.45078E-02-8.02155E-01
 -1      1205 4.74929E-03-2.67518E-01-1.08075E+00
 -1      1206 4.90139E-03-2.72048E-01-5.30435E-01
 -1      1207 5.02705E-03-2.71189E-01-8.09541E-01
 -1      1208 4.58540E-03-2.71447E-01-8.08570E-01
 -1      1209 5.15225E-03-2.72350E-01-5.28007E-01
 -1      1210 5.93853E-03-2.47980E-01-1.85621E+00
 -1      1211 5.89393E-03-2.54931E-01-1.60369E+00
 -1      1212 4.77139E-03-2.63037E-01-1.34734E+00
 -1      1213 2.86000E-03-4.97226E-02-5.28166E-01
 -1      1214 4.46468E-03-4.71642E-02-1.60617E+00
 -1      1215-4.11484E-03-4.46899E-02-1.86038E+00
 -1      1216 2.36408E-03-4.92955E-02-8.11332E-01
 -1      1217 1.11065E-01-2.41933E-01-1.33933E+00
 -1      1218 1.08360E-01-2.35430E-01-1.59964E+00
 -1      1219 1.01009E-01-2.29435E-01-1.85118E+00
 -1      1220 1.00752E-01-2.28257E-01-1.84836E+00
 -1      1221 1.06871E-01-2.34201E-01-1.59387E+00
 -1      1222 1.11050E-01-2.44634E-01-5.24376E-01
 -1      1223 1.13527E-01-2.45642E-01-8.01243E-01
 -1      1224 1.13849E-01-2.45705E-01-7.95915E-01
 -1      1225 1.11924E-01-2.44989E-01-5.19617E-01
 -1      1226 2.25890E-02-4.16285E-02-1.59869E+00
 -1      1227 1.54123E-02-4.30816E-02-1.85402E+00
 -1      1228 2.15435E-02-4.51807E-02-8.02097E-01
 -1      1229 1.93194E-01-1.90807E-01-5.06642E-01
 -1      1230 1.94126E-01-1.91905E-01-7.83630E-01
 -1      1231 1.94425E-01-1.92331E-01-7.83738E-01
 -1      1232 1.93437E-01-1.90492E-01-5.05904E-01
 -1      1233 1.91361E-01-1.88301E-01-1.32595E+00
 -1      1234 1.93915E-01-1.87431E-01-1.32260E+00
 -1      1235 1.93923E-01-1.91073E-01-1.05738E+00
 -1      1236 1.87776E-01-1.81403E-01-1.59024E+00
 -1      1237 3.93364E-02-2.98046E-02-1.59375E+00
 -1      1238 3.20949E-02-3.43854E-02-1.85195E+00
 -1      1239 3.64167E-02-3.62551E-02-7.84886E-01
 -1      1240 2.48625E-01-1.07905E-01-5.07026E-01
 -1      1241 2.50884E-01-1.07792E-01-7.86412E-01
 -1      1242 2.49863E-01-1.07945E-01-5.09336E-01
 -1      1243 2.45590E-01-1.05836E-01-1.32352E+00
 -1      1244 2.47799E-01-1.03669E-01-1.32650E+00
 -1      1245 2.49358E-01-1.07853E-01-1.06355E+00
 -1      1246 2.39593E-01-1.05356E-01-1.59102E+00
 -1      1247 4.65301E-02-2.01211E-02-5.07442E-01
 -1      1248 4.50167E-02-1.87481E-02-1.59494E+00
 -1      1249 4.21513E-02-2.17522E-02-1.84710E+00
 -1      1250 4.71499E-02-2.06165E-02-7.87597E-01
 -1      1251 2.77214E-01 3.94608E-03-5.04667E-01
 -1      1252 2.76823E-01 2.14045E-03-7.87192E-01
 -1      1253 2.76805E-01 1.84832E-03-7.86804E-01
 -1      1254 2.76272E-01 3.99852E-03-5.02071E-01
 -1      1255 2.69154E-01-1.58804E-03-1.33019E+00
 -1      1256 2.69049E-01-3.50362E-04-1.33007E+00
 -1      1257 2.72878E-01 4.10174E-04-1.06400E+00
 -1      1258 2.59531E-01-4.51760E-03-1.59396E+00
 -1      1259 4.97085E-02 2.69791E-04-1.59698E+00
 -1      1260 4.68163E-02-7.07631E-03-1.84978E+00
 -1      1261 5.17978E-02-1.61189E-03-7.89497E-01
 -1      1262 2.40694E-01 9.61988E-02-1.59877E+00
 -1      1263 2.34418E-01 9.22413E-02-1.84746E+00
 -1      1264 2.50601E-01 9.88601E-02-1.33577E+00
 -1      1265 2.54038E-01 9.89768E-02-1.06966E+00
 -1      1266 2.57792E-01 9.91022E-02-7.91489E-01
 -1      1267 2.57716E-01 9.92633E-02-5.07347E-01
 -1      1268 2.57862E-01 9.90603E-02-7.87816E-01
 -1      1269 4.68844E-02 1.82240E-02-5.06439E-01
 -1      1270 4.35424E-02 2.17916E-02-1.60253E+00
 -1      1271 4.53155E-02 1.16289E-02-1.85088E+00
 -1      1272 4.81016E-02 1.67175E-02-7.89320E-01
 -1      1273 1.78931E-01 1.74934E-01-1.84743E+00
 -1      1274 1.90020E-01 1.87677E-01-1.33540E+00
 -1      1275 1.92625E-01 1.89709E-01-1.07151E+00
 -1      1276 1.94878E-01 1.91602E-01-7.96942E-01
 -1      1277 1.95036E-01 1.90703E-01-5.17023E-01
 -1      1278 1.94858E-01 1.91597E-01-7.95427E-01
 -1      1279 3.26031E-02 3.64789E-02-1.60318E+00
 -1      1280 3.57981E-02 2.95378E-02-1.85083E+00
 -1      1281 3.66931E-02 3.50895E-02-7.96637E-01
 -1      1282 1.01521E-01 2.48014E-01-1.33350E+00
 -1      1283 9.75984E-02 2.30648E-01-1.84675E+00
 -1      1284 1.01098E-01 2.38411E-01-1.59638E+00
 -1      1285 9.69163E-02 2.30179E-01-1.84680E+00
 -1      1286 1.05147E-01 2.54749E-01-5.06787E-01
 -1      1287 1.05134E-01 2.55371E-01-7.89323E-01
 -1      1288 1.05096E-01 2.54901E-01-5.06752E-01
 -1      1289 1.04603E-01 2.55093E-01-7.89817E-01
 -1      1290 1.02893E-01 2.52133E-01-1.06572E+00
 -1      1291 1.98532E-02 4.73048E-02-5.05272E-01
 -1      1292 1.66425E-02 4.44997E-02-1.60086E+00
 -1      1293 2.41876E-02 4.03258E-02-1.85028E+00
 -1      1294 2.04854E-02 4.68034E-02-7.90970E-01
 -1      1295 2.09691E-02 4.36984E-02-1.33497E+00
 -1      1296 6.44043E-03 2.65769E-01-1.33462E+00
 -1      1297 6.13381E-03 2.57263E-01-1.60069E+00
 -1      1298 2.91305E-03 2.49292E-01-1.84953E+00
 -1      1299 6.20151E-03 2.71143E-01-5.21552E-01
 -1      1300 7.02909E-03 2.72483E-01-7.97530E-01
 -1      1301 4.78798E-03 2.66379E-01-1.34069E+00
 -1      1302 7.74004E-03 2.69771E-01-1.07781E+00
 -1      1303 1.02943E-03 4.80988E-02-1.60476E+00
 -1      1304 5.17554E-03 4.53478E-02-1.85369E+00
 -1      1305 2.39287E-03 5.01486E-02-7.98345E-01
 -1      1306-1.00127E-01 2.46815E-01-1.08398E+00
 -1      1307-9.94784E-02 2.48839E-01-8.13890E-01
 -1      1308-9.94293E-02 2.47193E-01-5.39190E-01
 -1      1309-9.89481E-02 2.47580E-01-5.37867E-01
 -1      1310-9.92229E-02 2.49025E-01-8.11679E-01
 -1      1311-9.56976E-02 2.35381E-01-1.60438E+00
 -1      1312-9.12260E-02 2.30983E-01-1.85307E+00
 -1      1313-1.82908E-02 4.53924E-02-5.38185E-01
 -1      1314-1.96454E-02 4.20861E-02-1.60784E+00
 -1      1315-8.63446E-03 4.42759E-02-1.85635E+00
 -1      1316-1.74572E-02 4.59373E-02-8.12439E-01
 -1      1317-1.82109E-01 1.80293E-01-1.60264E+00
 -1      1318-1.76926E-01 1.76644E-01-1.85726E+00
 -1      1319-1.93162E-01 1.82961E-01-1.07451E+00
 -1      1320-1.94070E-01 1.84886E-01-1.08410E+00
 -1      1321-1.90012E-01 1.83877E-01-1.34550E+00
 -1      1322-1.97374E-01 1.83630E-01-5.28419E-01
 -1      1323-1.97295E-01 1.84842E-01-8.10803E-01
 -1      1324-3.64263E-02 3.35009E-02-5.27727E-01
 -1      1325-3.36813E-02 3.14829E-02-1.60579E+00
 -1      1326-2.53443E-02 3.67872E-02-1.86108E+00
 -1      1327-3.57504E-02 3.39344E-02-8.11675E-01
 -1      1328-3.03011E-02 3.59086E-02-1.34636E+00
 -1      1329-2.42235E-01 9.72206E-02-1.59872E+00
 -1      1330-2.34509E-01 9.03265E-02-1.85798E+00
 -1      1331-2.53603E-01 9.79296E-02-1.06062E+00
 -1      1332-2.53802E-01 9.97379E-02-1.06803E+00
 -1      1333-2.50218E-01 9.89431E-02-1.33673E+00
 -1      1334-2.56078E-01 9.71355E-02-5.00070E-01
 -1      1335-2.56728E-01 9.87066E-02-7.88032E-01
 -1      1336-4.55720E-02 1.69824E-02-4.99336E-01
 -1      1337-4.31845E-02 1.71014E-02-1.60277E+00
 -1      1338-3.92753E-02 2.15837E-02-1.86122E+00
 -1      1339-4.59257E-02 1.79508E-02-7.89064E-01
 -1      1340 0.00000E+00 0.00000E+00 0.00000E+00
 -1      1341 0.00000E+00 0.00000E+00 0.00000E+00
 -1      1342 0.00000E+00 0.00000E+00 0.00000E+00
 -1      1343 0.00000E+00 0.00000E+00 0.00000E+00
 -1      1344 0.00000E+00 0.00000E+00 0.00000E+00
 -1      1345 0.00000E+00 0.00000E+00 0.00000E+00
 -1      1346 0.00000E+00 0.00000E+00 0.00000E+00
 -1      1347 0.00000E+00 0.00000E+00 0.00000E+00
 -1      1348 0.00000E+00 0.00000E+00 0.00000E+00
 -1      1349 0.00000E+00 0.00000E+00 0.00000E+00
 -1      1350 0.00000E+00 0.00000E+00 0.00000E+00
 -1      1351 0.00000E+00 0.00000E+00 0.00000E+00
 -1      1352 0.00000E+00 0.00000E+00 0.00000E+00
 -1      1353 0.00000E+00 0.00000E+00 0.00000E+00
 -1      1354 0.00000E+00 0.00000E+00 0.00000E+00
 -1      1355 0.00000E+00 0.00000E+00 0.00000E+00
 -1      1356 0.00000E+00 0.00000E+00 0.00000E+00
 -1      1357 0.00000E+00 0.00000E+00 0.00000E+00
 -1      1358 0.00000E+00 0.00000E+00 0.00000E+00
 -1      1359 0.00000E+00 0.00000E+00 0.00000E+00
 -1      1360 0.00000E+00 0.00000E+00 0.00000E+00
 -1      1361 0.00000E+00 0.00000E+00 0.00000E+00
 -1      1362 0.00000E+00 0.00000E+00 0.00000E+00
 -1      1363 0.00000E+00 0.00000E+00 0.00000E+00
 -1      1364 0.00000E+00 0.00000E+00 0.00000E+00
 -1      1365 0.00000E+00 0.00000E+00 0.00000E+00
 -1      1366 0.00000E+00 0.00000E+00 0.00000E+00
 -1      1367 0.00000E+00 0.00000E+00 0.00000E+00
 -1      1368 0.00000E+00 0.00000E+00 0.00000E+00
 -1      1369 0.00000E+00 0.00000E+00 0.00000E+00
 -1      1370 0.00000E+00 0.00000E+00 0.00000E+00
 -1      1371 0.00000E+00 0.00000E+00 0.00000E+00
 -1      1372 0.00000E+00 0.00000E+00 0.00000E+00
 -1      1373 0.00000E+00 0.00000E+00 0.00000E+00
 -1      1374 0.00000E+00 0.00000E+00 0.00000E+00
 -1      1375 0.00000E+00 0.00000E+00 0.00000E+00
 -1      1376 0.00000E+00 0.00000E+00 0.00000E+00
 -1      1377 0.00000E+00 0.00000E+00 0.00000E+00
 -1      1378 0.00000E+00 0.00000E+00 0.00000E+00
 -1      1379 0.00000E+00 0.00000E+00 0.00000E+00
 -1      1380 0.00000E+00 0.00000E+00 0.00000E+00
 -1      1381 0.00000E+00 0.00000E+00 0.00000E+00
 -1      1382 0.00000E+00 0.00000E+00 0.00000E+00
 -1      1383 0.00000E+00 0.00000E+00 0.00000E+00
 -1      1384 0.00000E+00 0.00000E+00 0.00000E+00
 -1      1385 0.00000E+00 0.00000E+00 0.00000E+00
 -1      1386 0.00000E+00 0.00000E+00 0.00000E+00
 -1      1387 0.00000E+00 0.00000E+00 0.00000E+00
 -1      1388 0.00000E+00 0.00000E+00 0.00000E+00
 -1      1389 0.00000E+00 0.00000E+00 0.00000E+00
 -1      1390 0.00000E+00 0.00000E+00 0.00000E+00
 -1      1391 0.00000E+00 0.00000E+00 0.00000E+00
 -1      1392 0.00000E+00 0.00000E+00 0.00000E+00
 -1      1393 0.00000E+00 0.00000E+00 0.00000E+00
 -1      1394 0.00000E+00 0.00000E+00 0.00000E+00
 -1      1395 0.00000E+00 0.00000E+00 0.00000E+00
 -1      1396 0.00000E+00 0.00000E+00 0.00000E+00
 -1      1397 0.00000E+00 0.00000E+00 0.00000E+00
 -1      1398 0.00000E+00 0.00000E+00 0.00000E+00
 -1      1399 0.00000E+00 0.00000E+00 0.00000E+00
 -1      1400 0.00000E+00 0.00000E+00 0.00000E+00
 -1      1401 0.00000E+00 0.00000E+00 0.00000E+00
 -1      1402 0.00000E+00 0.00000E+00 0.00000E+00
 -1      1403 0.00000E+00 0.00000E+00 0.00000E+00
 -1      1404 0.00000E+00 0.00000E+00 0.00000E+00
 -1      1405 0.00000E+00 0.00000E+00 0.00000E+00
 -1      1406 0.00000E+00 0.00000E+00 0.00000E+00
 -1      1407 0.00000E+00 0.00000E+00 0.00000E+00
 -1      1408 0.00000E+00 0.00000E+00 0.00000E+00
 -1      1409-3.60943E-02-2.84794E-02-1.91533E+00
 -1      1410-3.99136E-02-2.25993E-02-1.92287E+00
 -1      1411 6.57453E-03 4.44925E-02-1.91329E+00
 -1      1412 1.33114E-02 4.44486E-02-1.91983E+00
 -1      1413-2.64181E-02 3.51493E-02-1.92103E+00
 -1      1414-1.89868E-02 3.98633E-02-1.92555E+00
 -1      1415 3.91491E-02-2.77727E-02-1.90832E+00
 -1      1416 4.29034E-02-2.11948E-02-1.91516E+00
 -1      1417-1.17581E-02-4.38395E-02-1.92175E+00
 -1      1418-3.06626E-03-4.43490E-02-1.92771E+00
 -1      1419 2.38848E-02 3.96085E-02-1.91133E+00
 -1      1420 2.83923E-02 3.40909E-02-1.91967E+00
 -1      1421-2.95486E-02-3.54149E-02-1.91904E+00
 -1      1422-2.01792E-02-3.89610E-02-1.92724E+00
 -1      1423 4.44559E-02 1.23653E-02-1.91262E+00
 -1      1424 4.65083E-02 6.52025E-03-1.92015E+00
 -1      1425-4.49471E-02-1.32463E-02-1.91645E+00
 -1      1426-4.59594E-02-4.48183E-03-1.92253E+00
 -1      1427-3.94716E-02 2.03446E-02-1.92217E+00
 -1      1428-3.40952E-02 2.94553E-02-1.92935E+00
 -1      1429-4.44298E-02 1.23144E-02-1.91965E+00
 -1      1430-4.53856E-02 6.03078E-03-1.92760E+00
 -1      1431 3.26181E-02-3.34241E-02-1.91272E+00
 -1      1432 2.31358E-02-3.76984E-02-1.91936E+00
 -1      1433 4.49308E-02-1.32664E-02-1.90866E+00
 -1      1434 4.66625E-02-4.82601E-03-1.91709E+00
 -1      1435 1.88008E-03 4.11060E-02-1.97129E+00
 -1      1436-7.59432E-03 4.40345E-02-1.91612E+00
 -1      1437-4.69385E-03 4.42062E-02-1.92206E+00
 -1      1438 3.59640E-02 2.72582E-02-1.91130E+00
 -1      1439 3.95213E-02 2.31053E-02-1.92193E+00
 -1      1440-2.61367E-02 2.85155E-02-1.98081E+00
 -1      1441 3.79686E-02-2.55490E-02-1.93683E+00
 -1      1442 4.05727E-02-2.07845E-02-1.94128E+00
 -1      1443 3.05714E-02-3.28700E-02-1.94196E+00
 -1      1444 2.31775E-02-3.63427E-02-1.94656E+00
 -1      1445 2.95539E-02 2.69606E-02-1.97162E+00
 -1      1446 2.28066E-02 3.76199E-02-1.93866E+00
 -1      1447 2.77845E-02 3.35729E-02-1.94474E+00
 -1      1448 3.72103E-02 1.54728E-02-1.97130E+00
 -1      1449 3.47199E-02 2.64014E-02-1.93932E+00
 -1      1450 3.81709E-02 2.13417E-02-1.94577E+00
 -1      1451 1.67728E-02 3.59697E-02-1.97069E+00
 -1      1452 3.28671E-02-2.67457E-02-1.96893E+00
 -1      1453-1.17503E-02 3.76719E-02-1.97534E+00
 -1      1454-3.61528E-02 1.52517E-02-1.98094E+00
 -1      1455 1.59326E-02-3.61001E-02-1.97360E+00
 -1      1456-3.74676E-02-1.61564E-02-1.97551E+00
 -1      1457-4.06739E-02 4.95290E-05-1.97811E+00
 -1      1458-2.51242E-02 3.40678E-02-1.94892E+00
 -1      1459-1.93242E-02 3.78021E-02-1.95185E+00
 -1      1460-4.29928E-02-1.16837E-02-1.94515E+00
 -1      1461-4.39607E-02-4.92059E-03-1.94960E+00
 -1      1462-1.03052E-02-4.17372E-02-1.94929E+00
 -1      1463-3.89270E-03-4.22784E-02-1.95351E+00
 -1      1464-1.43283E-02-3.61931E-02-1.98000E+00
 -1      1465 1.90797E-03-3.91037E-02-1.97701E+00
 -1      1466 6.82108E-02 6.45143E-02-1.97263E+00
 -1      1467-8.83657E-02-3.55384E-02-1.97652E+00
 -1      1468 1.86372E-02-3.46305E-02-1.97283E+00
 -1      1469 1.89590E-03-9.51731E-02-1.97966E+00
 -1      1470 7.10864E-02 6.50072E-02-1.97155E+00
 -1      1471 4.19544E-02 1.23037E-02-1.94036E+00
 -1      1472 4.40269E-02 6.57294E-03-1.94555E+00
 -1      1473 4.10257E-02 1.10830E-04-1.97090E+00
 -1      1474-2.87741E-02-2.83910E-02-1.97719E+00
 -1      1475 1.29765E-02-4.34424E-02-1.91659E+00
 -1      1476 6.93966E-03-4.42866E-02-1.92357E+00
 -1      1477 4.05368E-02-1.48186E-02-1.96743E+00
 -1      1478 8.94462E-02 3.66520E-02-1.97373E+00
 -1      1479-2.68534E-02-3.41851E-02-1.94749E+00
 -1      1480-1.98385E-02-3.72363E-02-1.95322E+00
 -1      1481-3.74562E-02 2.05719E-02-1.95085E+00
 -1      1482-3.34154E-02 2.67805E-02-1.95532E+00
 -1      1483-8.69139E-03 4.18065E-02-1.94387E+00
 -1      1484-3.40094E-03 4.26155E-02-1.94751E+00
 -1      1485-4.23268E-02 1.13583E-02-1.94779E+00
 -1      1486-4.31531E-02 6.11363E-03-1.95298E+00
 -1      1487-3.51326E-02-8.57018E-02-1.97998E+00
 -1      1488 7.24832E-02-6.38120E-02-1.96878E+00
 -1      1489 6.52802E-03 4.28228E-02-1.94068E+00
 -1      1490 1.22758E-02 4.20866E-02-1.94524E+00
 -1      1491-3.42743E-02-2.75202E-02-1.94447E+00
 -1      1492-3.83648E-02-2.13519E-02-1.94934E+00
 -1      1493-3.28560E-02-8.76844E-02-1.98026E+00
 -1      1494-9.62261E-02-2.74891E-03-1.97597E+00
 -1      1495 9.56056E-02 2.25150E-03-1.97251E+00
 -1      1496 3.88593E-02-8.67006E-02-1.97352E+00
 -1      1497 9.05915E-02 3.50883E-02-1.97198E+00
 -1      1498-3.25122E-02 8.82617E-02-1.97734E+00
 -1      1499-6.75612E-02-6.76334E-02-1.97942E+00
 -1      1500 8.91048E-02-3.66496E-02-1.96762E+00
 -1      1501 1.25731E-02-4.10660E-02-1.94382E+00
 -1      1502 5.98032E-03-4.21920E-02-1.94892E+00
 -1      1503 4.05734E-03-9.30399E-02-1.97602E+00
 -1      1504-3.04145E-02 8.97448E-02-1.97566E+00
 -1      1505 4.39685E-02-1.18714E-02-1.93730E+00
 -1      1506 4.48002E-02-4.80245E-03-1.94296E+00
 -1      1507-8.99547E-02-3.83605E-02-1.97704E+00
 -1      1508 3.61220E-02 8.78930E-02-1.97154E+00
 -1      1509 3.93585E-02 8.63225E-02-1.97049E+00
 -1      1510 1.25233E-03 9.57561E-02-1.97437E+00
 -1      1511-6.57358E-02 6.65595E-02-1.98164E+00
 -1      1512-6.51830E-02 6.93446E-02-1.98114E+00
 -1      1513-8.94890E-02 3.33809E-02-1.97915E+00
 -1      1514-9.54913E-02 2.75078E-04-1.98060E+00
 -1      1515 3.72957E-03 9.58766E-02-1.97255E+00
 -1      1516-6.91571E-02-6.52981E-02-1.97576E+00
 -1      1517 7.12383E-02-6.51426E-02-1.97197E+00
 -1      1518 3.67569E-02-8.86220E-02-1.97510E+00
 -1      1519 9.10856E-02-3.54819E-02-1.96926E+00
 -1      1520-8.68913E-02 3.53151E-02-1.98302E+00
 -1      1521 9.61582E-02-1.31109E-03-1.96987E+00
 -1      1522-4.76711E-02-1.06508E-02-3.93997E-01
 -1      1523 2.72059E-02-3.54188E-02-4.01814E-01
 -1      1524 2.69178E-02 3.90540E-02-4.10811E-01
 -1      1525 1.04465E-02 4.71235E-02-4.00821E-01
 -1      1526 8.63131E-03 3.43593E-02-1.16461E-01
 -1      1527-2.67050E-02-4.57919E-03-1.02185E-01
 -1      1528 5.34457E-04 5.64114E-04-2.11746E+00
 -1      1529-2.24604E-02 4.91915E-02-3.63891E-01
 -1      1530 1.92761E-02-2.59916E-02-1.30376E-01
 -1      1531 1.56397E-02-2.96919E-02-1.14220E-01
 -1      1532-2.06834E-02-1.64857E-02-9.45109E-02
 -1      1533 4.64801E-02-3.02066E-02-3.50923E-01
 -1      1534 1.57811E-02-2.89459E-02-1.59440E-01
 -1      1535 2.89205E-02 7.76249E-03-8.75802E-02
 -1      1536 5.40223E-02 1.00960E-02-3.37424E-01
 -1      1537 3.52141E-02-3.56942E-02-2.76919E-01
 -1      1538 3.76854E-03 2.52545E-02-1.08549E-01
 -1      1539-4.73246E-02 3.15557E-02-3.45756E-01
 -1      1540 1.42673E-02 2.86192E-02-1.20850E-01
 -1      1541 3.08222E-02-1.27495E-02-1.01774E-01
 -1      1542 2.31085E-02 5.84746E-03-9.03560E-02
 -1      1543 3.23184E-02-6.31598E-03-1.50041E-01
 -1      1544-5.28205E-02 1.02995E-02-3.51870E-01
 -1      1545 2.77952E-02 6.92456E-04-8.51476E-02
 -1      1546 9.94289E-03 2.44770E-02-7.32718E-02
 -1      1547 2.97715E-02-1.92056E-02-1.36954E-01
 -1      1548 2.68938E-02 1.61143E-02-1.48750E-01
 -1      1549 6.58659E-02-9.84659E-03-1.32484E+00
 -1      1550-1.26299E-02 3.33504E-02-1.18658E-01
 -1      1551 7.72112E-04-1.05219E-04-2.12038E+00
 -1      1552 4.42553E-02-2.92028E-02-5.37212E-01
 -1      1553 4.12124E-02-2.50973E-02-3.19463E-01
 -1      1554-1.83879E-02-2.46276E-02-1.52594E-01
 -1      1555-9.58069E-03-2.83061E-02-1.04562E-01
 -1      1556-2.06452E-02-1.19635E-02-1.05488E-01
 -1      1557-6.96343E-03-3.20181E-02-1.52217E-01
 -1      1558 1.65689E-03-3.21451E-02-1.02513E-01
 -1      1559-2.40994E-02 1.80987E-02-1.03160E-01
 -1      1560 3.28679E-02-1.86036E-02-1.00382E-01
 -1      1561-3.24857E-02 1.60774E-03-1.39261E-01
 -1      1562 5.02201E-03-2.18398E-02-7.95127E-02
 -1      1563-2.30964E-02 1.00269E-02-9.51799E-02
 -1      1564 2.30191E-02-7.40182E-03-8.67756E-02
 -1      1565-2.09483E-02 2.98975E-02-1.78199E-01
 -1      1566-1.17910E-02 3.13253E-02-1.27155E-01
 -1      1567-7.70919E-03 3.60804E-02-1.68532E-01
 -1      1568-2.73330E-02 1.70736E-02-1.21722E-01
 -1      1569-2.58244E-02-4.03561E-02-4.18661E-01
 -1      1570 2.29557E-02 1.90953E-02-1.03491E-01
 -1      1571 4.27443E-02-3.07964E-02-7.62652E-01
 -1      1572-1.65773E-02-1.85588E-02-8.25921E-02
 -1      1573 3.57641E-02-1.30145E-02-1.89329E-01
 -1      1574-6.21879E-02-2.59150E-02-8.28498E-01
 -1      1575 3.29802E-02 6.82936E-04-1.06430E-01
 -1      1576-2.00522E-03 6.02936E-02-4.04189E-01
 -1      1577 1.50151E-02 2.04482E-02-7.79636E-02
 -1      1578-1.28434E-02 2.14164E-02-7.50771E-02
 -1      1579 2.56072E-02-4.70168E-04-5.45387E-02
 -1      1580 1.79429E-02 3.76885E-03-4.99242E-02
 -1      1581-1.74828E-02 6.00177E-02-1.41026E+00
 -1      1582-3.94038E-02-2.46807E-02-3.83463E-01
 -1      1583-2.80659E-03-3.72239E-02-1.90521E-01
 -1      1584 9.89956E-03-4.61046E-02-4.22079E-01
 -1      1585 1.88774E-02-1.27843E-02-4.04348E-02
 -1      1586 5.07269E-02-1.10904E-02-5.44035E-01
 -1      1587 4.86954E-02 7.71414E-03-3.90996E-01
 -1      1588 1.35900E-02 4.18384E-02-2.72035E-01
 -1      1589 4.12690E-02-1.49599E-03-1.84316E-01
 -1      1590-2.37830E-02 1.00523E-02-8.89303E-02
 -1      1591-2.21231E-02 1.55468E-02-7.38583E-02
 -1      1592-4.26525E-02 2.34152E-02-4.05255E-01
 -1      1593-1.87601E-02 3.42915E-02-2.36315E-01
 -1      1594-4.11113E-02-3.27941E-03-1.65259E-01
 -1      1595 1.52785E-03-2.84537E-02-9.86697E-02
 -1      1596 2.02662E-02-2.28231E-02-8.45296E-02
 -1      1597-2.20869E-03-6.64221E-02-1.06837E+00
 -1      1598-2.71969E-02 8.07328E-03-1.78354E-01
 -1      1599 1.19335E-02 4.96785E-02-2.31106E-01
 -1      1600 2.00645E-03-5.55900E-02-3.82397E-01
 -1      1601 2.42409E-02-8.18789E-03-5.47491E-02
 -1      1602 2.28640E-02-6.82875E-03-5.89267E-02
 -1      1603-1.19421E-03 3.01792E-02-1.11522E-01
 -1      1604 2.63980E-02 3.15334E-02-2.48878E-01
 -1      1605 4.99340E-02 4.67070E-02-1.01536E+00
 -1      1606-1.70900E-02 3.07557E-02-1.40425E-01
 -1      1607-7.56557E-03 4.45087E-02-4.30113E-01
 -1      1608-2.74140E-02-4.28298E-02-6.97015E-01
 -1      1609 5.13431E-02 3.13398E-02-1.68704E+00
 -1      1610 3.04712E-02-2.11421E-02-1.04441E-01
 -1      1611 1.19449E-02-4.53283E-03-3.76878E-02
 -1      1612-6.63567E-02-4.45075E-03-7.24822E-01
 -1      1613-8.07391E-03 2.52788E-02-8.38973E-02
 -1      1614-3.05961E-02 2.29051E-02-2.46411E-01
 -1      1615-1.75257E-02 1.85467E-02-9.20916E-02
 -1      1616-1.46617E-02-1.27387E-03-4.65967E-02
 -1      1617 4.28365E-02-3.38606E-02-3.14588E-01
 -1      1618-6.02803E-02 1.62253E-03-4.38087E-01
 -1      1619-5.81276E-04 2.11459E-02-3.93055E-02
 -1      1620-4.44920E-02-1.93743E-02-2.47732E-01
 -1      1621 1.29490E-04 2.67962E-02-9.12015E-02
 -1      1622-1.26576E-02 2.55023E-02-4.87986E-02
 -1      1623-7.07499E-03-9.01944E-03-3.77944E-02
 -1      1624-9.00213E-03 5.07118E-03-3.94250E-02
 -1      1625 2.08158E-02-4.81704E-02-3.81965E-01
 -1      1626-4.17451E-02-4.94655E-03-2.51586E-01
 -1      1627-2.97683E-03-1.80412E-02-4.84597E-02
 -1      1628-6.46920E-03-4.70398E-02-3.77890E-01
 -1      1629 2.44187E-02 5.76852E-02-1.46680E+00
 -1      1630 3.19128E-02-1.74428E-02-1.51039E-01
 -1      1631 1.24060E-02-8.39333E-03-2.74206E-02
 -1      1632 3.03828E-03-1.91263E-02-3.82675E-02
 -1      1633 4.15425E-02 1.32812E-03-2.12522E-01
 -1      1634 3.10658E-02 4.68295E-03-8.66165E-02
 -1      1635-1.52851E-02-5.32728E-02-3.41336E-01
 -1      1636 8.40747E-03-1.90754E-02-3.57830E-02
 -1      1637 2.46313E-02 6.44779E-02-8.12598E-01
 -1      1638-1.05594E-02-2.10901E-02-5.90578E-02
 -1      1639 1.64911E-02-3.62656E-02-2.42349E-01
 -1      1640 2.20686E-02 1.19635E-02-8.19013E-02
 -1      1641-4.69113E-02 2.37122E-03-2.37557E-01
 -1      1642-1.03481E-02 7.65899E-03-2.57314E-02
 -1      1643 1.71532E-02-1.77686E-02-6.17882E-02
 -1      1644 1.20788E-02 6.43377E-02-6.04425E-01
 -1      1645 1.88561E-02 3.86786E-02-2.72203E-01
 -1      1646-7.67545E-03-6.32429E-02-6.38668E-01
 -1      1647-5.14190E-02-5.65245E-04-2.83602E-01
 -1      1648-5.58264E-02 2.20302E-02-1.52214E+00
 -1      1649-1.25585E-02 5.40634E-03-3.13302E-02
 -1      1650-3.21917E-02-2.34549E-03-1.69050E-01
 -1      1651-9.80708E-03-4.88107E-02-7.06385E-01
 -1      1652 3.44045E-02 2.37161E-03-1.36451E-01
 -1      1653 6.36404E-03 1.02282E-02-2.98453E-02
 -1      1654-3.10084E-02-7.33070E-03-1.05642E-01
 -1      1655-2.74351E-02-3.45703E-02-2.66992E-01
 -1      1656-3.83503E-02 2.40698E-02-1.82657E-01
 -1      1657-3.14389E-02 2.76277E-02-2.15195E-01
 -1      1658-2.66398E-02-7.18765E-03-9.12651E-02
 -1      1659-3.16798E-03 5.11842E-02-1.88724E+00
 -1      1660-2.71792E-03 4.12513E-02-2.88964E-01
 -1      1661-2.43831E-02 2.79530E-02-1.72300E-01
 -1      1662 1.31905E-03 2.32964E-02-5.15834E-02
 -1      1663 2.35481E-02 9.55552E-03-7.67859E-02
 -1      1664-2.82135E-03-3.48589E-02-1.37876E-01
 -1      1665 1.61790E-02-7.05459E-03-3.52165E-02
 -1      1666 1.79158E-02-6.06907E-03-8.99464E-02
 -1      1667 3.20385E-02 4.50938E-02-3.26505E-01
 -1      1668 3.95065E-02 6.81433E-03-1.58065E-01
 -1      1669-3.66211E-02-3.56314E-02-3.57375E-01
 -1      1670 3.64655E-02-2.28346E-02-1.73936E-01
 -1      1671 8.72284E-03-3.80116E-02-1.54786E-01
 -1      1672 1.23204E-02 2.00429E-03-2.46902E-02
 -1      1673-1.33069E-02 5.49269E-03-4.92340E-02
 -1      1674-1.30773E-02-6.23926E-03-3.85883E-02
 -1      1675 2.43624E-02-3.89064E-02-2.70346E-01
 -1      1676 1.41418E-02-3.25638E-02-1.94076E-01
 -1      1677-2.42030E-03-1.82739E-02-3.75908E-02
 -1      1678-1.54518E-02 6.55426E-02-8.48826E-01
 -1      1679-1.01090E-02-5.25154E-02-3.46866E-01
 -1      1680 1.67796E-02 5.54963E-03-2.89926E-02
 -1      1681-1.12065E-02 5.07045E-02-3.31395E-01
 -1      1682-3.59351E-02-2.31700E-02-2.50794E-01
 -1      1683-8.06271E-03-2.93534E-02-8.51412E-02
 -1      1684 1.62925E-02-2.34064E-02-8.30723E-02
 -1      1685 7.76166E-03-6.60923E-02-7.62545E-01
 -1      1686-7.52970E-03-3.47741E-02-1.94484E-01
 -1      1687 2.30831E-02 1.62492E-02-5.37607E-02
 -1      1688-2.39191E-02-8.40901E-03-5.46483E-02
 -1      1689 2.00699E-03 3.89055E-02-2.05403E-01
 -1      1690-1.64881E-02-1.33433E-03-8.82757E-02
 -1      1691-2.10067E-02 3.38161E-04-2.67155E-02
 -1      1692 8.12040E-04-9.57090E-03-2.66540E-02
 -1      1693 8.08079E-03 5.74316E-02-3.51918E-01
 -1      1694-1.98918E-02-2.42660E-02-9.25958E-02
 -1      1695-1.59451E-02 4.81376E-02-2.66850E-01
 -1      1696-3.14457E-02-1.85234E-02-1.77835E-01
 -1      1697 2.36700E-02 2.92279E-02-9.10849E-02
 -1      1698-4.16067E-02-2.58464E-02-6.59411E-01
 -1      1699 1.52859E-02 1.50977E-02-1.84243E-02
 -1      1700 1.69388E-02-1.27307E-02-3.30233E-02
 -1      1701-5.93594E-02-1.42931E-02-4.64776E-01
 -1      1702-9.15294E-03-3.03409E-03-1.96942E-02
 -1      1703-6.39605E-02 1.14812E-02-7.35222E-01
 -1      1704 3.89222E-02-2.16201E-02-2.01504E-01
 -1      1705 2.23358E-02-1.34101E-02-9.98521E-02
 -1      1706 8.03113E-03 7.25804E-03-3.32227E-02
 -1      1707-8.12824E-03 3.28298E-02-2.27893E-01
 -1      1708-1.52714E-02 2.25403E-02-3.67959E-02
 -1      1709-3.93303E-02-5.23025E-02-1.14838E+00
 -1      1710 1.04577E-02-1.53172E-03-1.32540E-02
 -1      1711-2.25683E-03-6.00045E-02-4.68762E-01
 -1      1712-5.02641E-04-6.45519E-02-6.60177E-01
 -1      1713 6.62463E-02-8.57092E-03-6.01124E-01
 -1      1714 3.90820E-03 4.38194E-02-2.33069E-01
 -1      1715 1.07252E-02 3.17616E-02-5.95014E-02
 -1      1716 3.54694E-03 6.47008E-03-2.47695E-02
 -1      1717 3.69267E-03-9.06831E-03-3.05992E-02
 -1      1718 1.66069E-04-4.32422E-02-1.21148E-01
 -1      1719 2.22910E-03-3.87679E-02-2.04544E-01
 -1      1720 1.47518E-02 5.88755E-02-4.15545E-01
 -1      1721 9.55448E-03-3.10212E-02-1.27875E-01
 -1      1722-1.32655E-03 1.58162E-02-4.17166E-02
 -1      1723-9.64983E-04 1.51818E-02-4.97152E-02
 -1      1724-3.21243E-02 1.64423E-02-1.76853E-01
 -1      1725-2.96151E-02-5.61541E-02-5.95129E-01
 -1      1726 6.35248E-02 2.48949E-02-1.02081E+00
 -1      1727-4.34051E-02 2.69372E-02-6.83976E-01
 -1      1728-5.03721E-03 2.81324E-03-1.72720E-02
 -1      1729-3.18138E-02 2.93814E-03-1.28014E-01
 -1      1730-2.01439E-02 3.87827E-02-1.81978E-01
 -1      1731-5.14686E-02-1.18074E-02-6.69566E-01
 -1      1732 2.14571E-02-1.69341E-02-9.76324E-02
 -1      1733-8.38342E-03-3.98521E-02-2.73040E-01
 -1      1734 3.59044E-02 1.09883E-02-1.91017E-01
 -1      1735-5.19499E-02-8.90412E-03-2.97443E-01
 -1      1736-4.68868E-02 2.29248E-02-3.70582E-01
 -1      1737-2.68497E-02-2.54470E-02-1.90883E-01
 -1      1738-1.14455E-02-1.03455E-02-3.40458E-02
 -1      1739 1.65448E-02-2.97123E-02-1.46899E-01
 -1      1740 2.71880E-02-2.83235E-02-1.40406E-01
 -1      1741 0.00000E+00 0.00000E+00 0.00000E+00
 -1      1742-1.89631E-02-2.35521E-02-1.20881E-01
 -1      1743-3.82731E-03 1.34317E-02-3.10576E-02
 -1      1744-6.02262E-02 7.96385E-03-5.29061E-01
 -1      1745 1.67291E-02-1.72395E-02-6.09153E-02
 -1      1746-5.86786E-03 4.40486E-03-1.65381E-02
 -1      1747 3.30838E-02 1.38097E-02-9.89816E-02
 -1      1748-4.27245E-02 5.05159E-02-8.91742E-01
 -1      1749 5.25413E-02-5.65759E-03-5.65989E-01
 -1      1750 9.40200E-03 2.13304E-02-1.92616E-02
 -1      1751-4.75684E-03-1.74626E-02-4.09651E-02
 -1      1752 1.48596E-02 3.67601E-03-2.75810E-02
 -1      1753 1.40071E-02-2.37963E-02-4.65477E-02
 -1      1754-8.87374E-04-4.82271E-02-2.77268E-01
 -1      1755-3.48172E-02 2.48774E-02-1.97493E-01
 -1      1756-5.85437E-02-2.37106E-02-5.22231E-01
 -1      1757-2.09755E-02 2.05339E-02-1.00024E-01
 -1      1758 1.55800E-02 2.21107E-02-4.31650E-02
 -1      1759 4.70781E-03 3.41212E-02-8.99316E-02
 -1      1760 1.41977E-02 1.79651E-02-5.62821E-02
 -1      1761 6.33502E-02 1.20811E-02-1.41676E+00
 -1      1762 1.95523E-02 6.32881E-02-5.86674E-01
 -1      1763 4.43759E-03 6.31999E-02-5.27647E-01
 -1      1764 5.69005E-03-8.91289E-03-1.95732E-02
 -1      1765 5.59489E-02-8.39135E-03-1.78938E+00
 -1      1766 3.91533E-02-5.22507E-02-1.16047E+00
 -1      1767 2.92647E-02-1.87514E-03-8.89436E-02
 -1      1768 5.23410E-02 1.22047E-02-5.52405E-01
 -1      1769-4.26237E-02-5.01568E-02-7.51505E-01
 -1      1770-1.30575E-02 7.10298E-03-2.82587E-02
 -1      1771-2.28052E-02 2.35449E-03-8.19081E-02
 -1      1772-2.56943E-02-2.30891E-03-5.52163E-02
 -1      1773 3.92119E-02-3.03564E-02-3.59628E-01
 -1      1774 2.86673E-02 2.28767E-02-1.93067E-01
 -1      1775 1.91642E-02-1.05359E-02-3.96639E-02
 -1      1776-6.47837E-02 1.38569E-03-1.17361E+00
 -1      1777 5.15361E-02-9.19503E-03-7.49278E-01
 -1      1778 5.35991E-02-2.37509E-03-3.00756E-01
 -1      1779-2.96572E-03 4.70385E-02-4.45226E-01
 -1      1780-3.33123E-02 2.23281E-02-1.42372E-01
 -1      1781 1.87267E-02 3.25197E-02-1.54810E-01
 -1      1782 1.18152E-02-6.00023E-02-4.91153E-01
 -1      1783 6.05874E-02-3.40523E-02-9.38117E-01
 -1      1784-2.22109E-02-3.82561E-02-2.71171E-01
 -1      1785-7.72288E-03 7.84091E-03-2.46742E-02
 -1      1786 3.25702E-02-4.02857E-02-6.74033E-01
 -1      1787-1.27309E-02 5.54302E-03-2.90767E-02
 -1      1788-5.28078E-03 1.31193E-02-4.18910E-02
 -1      1789 3.63986E-02 1.63978E-02-2.14741E-01
 -1      1790 1.01466E-03 6.74995E-02-9.03993E-01
 -1      1791 1.91350E-02-3.73759E-03-3.95013E-02
 -1      1792-8.87303E-03 3.09772E-03-3.81374E-02
 -1      1793-1.57934E-02 1.95143E-02-5.13589E-02
 -1      1794-1.08470E-02-7.52635E-04-2.00762E-02
 -1      1795-2.58314E-02 4.21488E-02-4.45587E-01
 -1      1796-1.46150E-02-5.33681E-02-1.73027E+00
 -1      1797 8.07022E-03-2.51270E-02-1.00385E-01
 -1      1798-1.21651E-02 6.52183E-02-1.14108E+00
 -1      1799 1.92661E-03-1.47235E-02-2.89015E-02
 -1      1800 8.95086E-03-1.49055E-02-4.89658E-02
 -1      1801 2.09398E-02-3.51167E-02-3.05549E-01
 -1      1802 2.27337E-02 4.42066E-02-2.57873E-01
 -1      1803 1.15344E-02-4.43333E-02-2.97528E-01
 -1      1804 4.34076E-02 2.55815E-02-4.45036E-01
 -1      1805-4.67588E-02 9.75352E-03-3.95651E-01
 -1      1806-1.00917E-02 2.03693E-02-6.69020E-02
 -1      1807 1.45271E-02 6.52374E-02-1.14792E+00
 -1      1808-8.01533E-04 1.48131E-02-2.41389E-02
 -1      1809 6.28857E-03 4.43986E-02-3.53472E-01
 -1      1810 1.52755E-02 6.68432E-02-8.76723E-01
 -1      1811-4.09285E-03-1.40230E-02-1.10322E-02
 -1      1812 1.40838E-03 6.68777E-02-1.13880E+00
 -1      1813 2.26178E-02-4.31107E-02-1.91893E+00
 -1      1814-5.31516E-02-2.35183E-02-1.59626E+00
 -1      1815-1.52338E-02-3.60077E-02-2.45554E-01
 -1      1816 1.08716E-02-1.20872E-03-2.86483E-02
 -1      1817 6.91683E-02-4.52766E-05-1.05751E+00
 -1      1818 1.47955E-02 4.47819E-02-2.03469E-01
 -1      1819 4.87615E-02 3.17220E-03-2.44869E-01
 -1      1820 5.21749E-03-1.80827E-02-3.88550E-02
 -1      1821-2.00626E-03 8.22354E-03-2.60502E-02
 -1      1822 4.62771E-02-6.55194E-03-3.23189E-01
 -1      1823-1.21180E-02-4.56661E-02-4.56229E-01
 -1      1824-3.44853E-02-5.29078E-03-1.35241E-01
 -1      1825-5.18086E-03-4.23724E-02-2.52875E-01
 -1      1826 1.39613E-02-1.54295E-02-3.63110E-02
 -1      1827 3.21770E-04 2.04202E-02-1.19193E-02
 -1      1828 3.59258E-03-4.86637E-02-2.48701E-01
 -1      1829 1.80579E-02 1.22711E-02-4.63597E-02
 -1      1830-2.61556E-02 4.46056E-03-8.71561E-02
 -1      1831-3.36543E-02 4.75958E-02-4.41266E-01
 -1      1832-8.04387E-03 5.10042E-02-7.01970E-01
 -1      1833 2.47820E-02 4.47118E-02-5.62305E-01
 -1      1834 4.86798E-02-7.86489E-03-2.88648E-01
 -1      1835 9.30140E-03-5.66594E-03-2.26353E-02
 -1      1836 5.58923E-02-1.99570E-02-3.91266E-01
 -1      1837 5.29290E-02 3.09398E-03-2.19804E-01
 -1      1838 1.97426E-03 3.40779E-02-1.12153E-01
 -1      1839-8.76726E-03 6.65461E-04-2.25261E-02
 -1      1840-2.14593E-02-3.46697E-02-2.80415E-01
 -1      1841-4.99007E-02-1.07731E-02-2.66292E-01
 -1      1842 2.00092E-02-3.65832E-02-1.76096E-01
 -1      1843 1.06421E-02 5.18872E-02-6.80379E-01
 -1      1844-1.34169E-02-1.26749E-02-4.12267E-02
 -1      1845-3.73878E-02 2.32899E-02-1.93338E+00
 -1      1846 1.82281E-02 6.45700E-02-7.51648E-01
 -1      1847 1.47106E-02 4.62008E-02-4.25334E-01
 -1      1848-3.19558E-02-1.47078E-02-1.97498E+00
 -1      1849 2.67465E-02-3.40839E-03-8.45653E-02
 -1      1850 2.46656E-02 4.81422E-04-2.02777E-02
 -1      1851 2.82598E-02-3.43550E-02-2.73527E-01
 -1      1852-5.82215E-03 3.87841E-02-3.48382E-01
 -1      1853 6.90809E-02-1.21411E-02-9.57686E-01
 -1      1854 4.81681E-03-9.68680E-03-3.07156E-02
 -1      1855-4.46286E-03-5.24208E-02-3.57942E-01
 -1      1856 5.26553E-03 4.40611E-02-2.80201E-01
 -1      1857 1.09926E-02 1.20309E-02-3.49101E-02
 -1      1858 7.52402E-03 1.84512E-02-1.32459E-02
 -1      1859 5.02738E-02-3.62697E-02-1.54497E+00
 -1      1860-5.95747E-02 2.56379E-02-1.05770E+00
 -1      1861-6.47825E-02 3.79696E-03-6.84073E-01
 -1      1862 1.81235E-03 1.63062E-02-3.18299E-02
 -1      1863 2.98426E-02 5.68580E-02-5.36365E-01
 -1      1864-4.27243E-02 4.69529E-02-1.38732E+00
 -1      1865-1.07708E-03-6.71688E-02-8.71085E-01
 -1      1866 3.80995E-02 3.57872E-02-2.86365E-01
 -1      1867-4.88037E-02 1.02869E-02-6.78366E-01
 -1      1868-7.85352E-03-6.61968E-03-2.24432E-02
 -1      1869-3.02083E-02-1.45854E-02-1.57692E-01
 -1      1870 2.74934E-02 2.42537E-02-2.00569E+00
 -1      1871-1.73902E-03 3.44243E-02-1.57338E-01
 -1      1872 1.35413E-02 6.61385E-02-7.33376E-01
 -1      1873-3.08565E-03-6.56222E-02-7.58265E-01
 -1      1874-2.13821E-04-2.25861E-02-3.68751E-02
 -1      1875-2.27596E-03-1.79355E-02-1.45585E-02
 -1      1876 4.69511E-02-3.11877E-02-1.80074E+00
 -1      1877-1.19889E-02-4.79447E-02-6.12318E-01
 -1      1878 5.33809E-02 3.17287E-02-5.09797E-01
 -1      1879 6.01071E-02-2.08682E-02-1.55282E+00
 -1      1880 7.33386E-03 6.69637E-02-8.11267E-01
 -1      1881-9.66018E-03 6.32269E-02-5.86498E-01
 -1      1882-3.80490E-02-3.88402E-02-1.75173E+00
 -1      1883-6.66551E-02 2.85710E-03-9.27359E-01
 -1      1884 1.30098E-03-4.75684E-02-2.41025E-01
 -1      1885-6.39394E-03 5.77443E-02-4.01593E-01
 -1      1886 4.48162E-02-1.25809E-02-3.73411E-01
 -1      1887-1.71265E-02 4.07983E-02-2.47853E-01
 -1      1888-1.33281E-02 2.95347E-03-3.50814E-02
 -1      1889-6.75739E-03 1.11303E-02-3.59808E-02
 -1      1890 0.00000E+00 0.00000E+00 0.00000E+00
 -1      1891 5.88229E-02 3.73995E-02-9.09357E-01
 -1      1892-1.28769E-03-2.86820E-02-1.06529E-01
 -1      1893 5.74372E-02 3.36623E-02-1.30583E+00
 -1      1894-8.97515E-04 8.77273E-03-2.18959E-02
 -1      1895 7.62062E-05 4.29490E-02-2.68813E-01
 -1      1896-7.90012E-03-9.31632E-03-3.23297E-02
 -1      1897-5.97736E-02-4.96061E-04-1.50473E+00
 -1      1898 1.46532E-02-2.93925E-02-1.12703E-01
 -1      1899 0.00000E+00 0.00000E+00 0.00000E+00
 -1      1900 1.14052E-02-1.93130E-02-8.32395E-02
 -1      1901 6.16288E-02 2.59062E-02-1.25449E+00
 -1      1902-2.03714E-02 3.02981E-02-1.07454E-01
 -1      1903 1.34886E-02-4.26369E-02-3.27983E-01
 -1      1904-7.01846E-03 6.70279E-02-9.45303E-01
 -1      1905 4.84499E-02 1.58327E-02-2.48509E-01
 -1      1906-6.49462E-02-1.45983E-02-7.71986E-01
 -1      1907 1.10246E-02 3.00191E-02-6.33880E-02
 -1      1908-5.14008E-03-8.01588E-03-2.73519E-02
 -1      1909-8.89172E-04-1.12973E-02-3.23843E-02
 -1      1910-1.23946E-02-6.04722E-02-4.95159E-01
 -1      1911 7.30281E-04 5.92856E-02-1.58496E+00
 -1      1912 6.72031E-02 5.45677E-04-1.28455E+00
 -1      1913-1.28438E-02-8.36994E-03-2.60179E-02
 -1      1914 5.79931E-03-5.00317E-02-4.46914E-01
 -1      1915 0.00000E+00 0.00000E+00 0.00000E+00
 -1      1916 2.88286E-02-3.62682E-02-2.13403E-01
 -1      1917 5.74791E-03-4.34828E-02-2.89311E-01
 -1      1918-5.23445E-03 4.32981E-02-2.15551E-01
 -1      1919-9.19815E-04-8.61566E-03-2.27969E-02
 -1      1920 2.84547E-02 8.29749E-03-9.27762E-02
 -1      1921-5.42366E-03-1.71878E-02-1.77272E-02
 -1      1922-5.86254E-02 1.60978E-02-5.37453E-01
 -1      1923 3.44935E-02-2.84652E-02-1.96143E-01
 -1      1924-5.83139E-02 1.36296E-02-4.80248E-01
 -1      1925-2.59916E-02 3.41130E-02-2.94354E-01
 -1      1926-5.90158E-03-5.04405E-02-8.09078E-01
 -1      1927-1.30558E-02 2.64676E-02-1.41774E-01
 -1      1928-4.61680E-02-8.08410E-03-2.25695E-01
 -1      1929-6.31990E-02-1.97052E-02-6.78277E-01
 -1      1930 1.25367E-02-7.82821E-03-2.42925E-02
 -1      1931 1.61610E-02 4.95758E-04-1.23912E-02
 -1      1932-2.39045E-02 3.39686E-02-2.25428E-01
 -1      1933 2.79270E-02-8.43714E-03-2.04470E+00
 -1      1934-6.48105E-02 1.32706E-02-1.01145E+00
 -1      1935 6.96259E-04 6.43078E-02-1.35450E+00
 -1      1936 0.00000E+00 0.00000E+00 0.00000E+00
 -1      1937-4.26153E-03 6.67792E-02-7.43977E-01
 -1      1938-1.92951E-03-4.50108E-02-3.22779E-01
 -1      1939 6.22488E-02 2.90221E-02-1.08745E+00
 -1      1940-3.47148E-02 2.29244E-02-2.36746E-01
 -1      1941-5.23360E-02-1.72348E-02-3.50043E-01
 -1      1942 3.19170E-02-2.40070E-02-1.57081E-01
 -1      1943-8.40745E-03 2.67582E-02-1.33719E-01
 -1      1944 1.15285E-02 1.36162E-02-2.77509E-02
 -1      1945 2.94253E-02 2.54608E-02-2.37372E-01
 -1      1946 5.35352E-02 8.26102E-03-6.92254E-01
 -1      1947 3.20201E-02-8.33668E-03-1.38747E-01
 -1      1948-1.73315E-02 5.53280E-02-1.67238E+00
 -1      1949 2.43940E-02 4.38096E-02-2.51893E-01
 -1      1950 4.93158E-02 1.15711E-02-3.93725E-01
 -1      1951 2.81253E-02-3.03170E-02-2.01622E-01
 -1      1952 1.93269E-02-2.68780E-02-2.19928E-01
 -1      1953-2.55985E-02 6.03461E-02-1.08680E+00
 -1      1954 6.24125E-02-1.59481E-02-5.10338E-01
 -1      1955-7.03272E-03 2.19550E-02-3.98524E-02
 -1      1956-5.41651E-03-4.72898E-02-1.13508E+00
 -1      1957-2.41568E-02 4.30160E-02-3.01269E-01
 -1      1958 8.22883E-03 7.89804E-03-1.70064E-02
 -1      1959 4.06284E-03 4.02354E-03-1.40324E-02
 -1      1960-5.98831E-02-1.83781E-02-5.22921E-01
 -1      1961-5.35701E-03-4.70351E-02-2.41718E-01
 -1      1962 5.93661E-02 2.61168E-02-1.46367E+00
 -1      1963 6.58303E-02 1.38421E-02-1.15698E+00
 -1      1964-7.37876E-03 1.90891E-02-7.17539E-02
 -1      1965-3.22417E-02 5.51974E-02-1.32136E+00
 -1      1966 3.70527E-02 1.05448E-03-1.01368E-01
 -1      1967 1.74067E-02 1.59704E-03-2.90406E-02
 -1      1968-8.07437E-03-2.94105E-02-2.01718E+00
 -1      1969 1.33909E-02 5.05417E-02-5.36584E-01
 -1      1970-1.93218E-02-6.47829E-02-8.89413E-01
 -1      1971-4.21796E-02-2.47978E-02-5.16582E-01
 -1      1972 2.94806E-02 3.78285E-02-2.30550E-01
 -1      1973 2.06682E-02 6.51054E-02-8.95865E-01
 -1      1974 9.89402E-03-6.60481E-02-1.05772E+00
 -1      1975-6.46579E-02 7.03312E-03-1.04032E+00
 -1      1976 2.25004E-02-5.60668E-03-7.94546E-02
 -1      1977-8.59205E-03 2.17188E-02-2.05524E+00
 -1      1978-3.08322E-02-1.99315E-02-1.29040E-01
 -1      1979-6.79574E-03-7.13117E-03-1.93396E-02
 -1      1980 1.01498E-02 5.04041E-02-8.53703E-01
 -1      1981-2.81033E-02-6.10647E-02-9.31469E-01
 -1      1982 8.11241E-03 5.21366E-02-5.67555E-01
 -1      1983-2.01394E-02 5.97509E-03-2.07082E+00
 -1      1984 4.25884E-02-2.42024E-02-2.64313E-01
 -1      1985 8.27019E-03-5.39354E-02-3.97520E-01
 -1      1986 4.59478E-02-1.64723E-02-2.12736E-01
 -1      1987 9.84173E-03 6.69820E-02-9.98587E-01
 -1      1988 5.94399E-02-2.99479E-02-6.11052E-01
 -1      1989 6.12470E-02 2.42957E-03-4.33046E-01
 -1      1990-1.19139E-02 4.67317E-02-5.64122E-01
 -1      1991-5.15940E-03 5.10915E-02-8.01272E-01
 -1      1992 6.58111E-02-1.66988E-02-7.32073E-01
 -1      1993-4.13578E-02 4.05233E-02-4.80960E-01
 -1      1994-1.41085E-02 2.11823E-04-2.92159E-02
 -1      1995 1.68546E-02 1.04452E-02-2.82351E-02
 -1      1996 4.15228E-02-1.53823E-02-2.02251E-01
 -1      1997 2.64078E-02 6.20001E-02-6.36610E-01
 -1      1998 3.73834E-02 5.81956E-02-8.32322E-01
 -1      1999 1.41468E-02-1.22345E-02-4.04103E-02
 -1      2000 6.24662E-02 2.89784E-02-8.63625E-01
 -1      2001 4.68517E-02-3.79000E-03-3.00045E-01
 -1      2002 9.23807E-03-2.74739E-02-4.37106E-02
 -1      2003 3.80508E-02 3.11389E-03-1.43406E-01
 -1      2004 1.64661E-02 5.67141E-02-3.43465E-01
 -1      2005 6.78930E-03-6.67904E-02-9.24887E-01
 -1      2006-5.30809E-02-3.69248E-02-1.19971E+00
 -1      2007-6.62171E-02 2.34341E-04-7.93588E-01
 -1      2008-6.18462E-02 2.14299E-02-7.93130E-01
 -1      2009 6.29870E-02-1.69080E-03-1.54633E+00
 -1      2010-8.94173E-03-2.25939E-02-4.02676E-02
 -1      2011 5.33642E-02-3.82158E-02-6.20807E-01
 -1      2012 5.23817E-02-2.59322E-02-4.29550E-01
 -1      2013-3.43152E-03-1.40046E-02-3.89437E-02
 -1      2014 1.57994E-03 6.68058E-02-7.55169E-01
 -1      2015 0.00000E+00 0.00000E+00 0.00000E+00
 -1      2016-5.54851E-04 9.72869E-03-1.74221E-02
 -1      2017-1.49000E-02 6.50953E-02-1.04399E+00
 -1      2018-1.08024E-02 6.08159E-02-4.65216E-01
 -1      2019 9.29782E-03 6.43598E-02-1.31626E+00
 -1      2020 6.46714E-02 2.80746E-03-1.42829E+00
 -1      2021-2.92582E-03 6.01840E-03-2.46185E-02
 -1      2022-3.96868E-02 8.77409E-03-2.49373E-01
 -1      2023-4.07107E-02 5.08199E-03-2.65215E-01
 -1      2024 4.38959E-02 2.93893E-02-7.12399E-01
 -1      2025 1.00395E-02-3.89103E-02-1.64740E-01
 -1      2026 1.54209E-02-4.04115E-02-2.47973E-01
 -1      2027-2.52651E-03-2.19353E-02-6.82365E-02
 -1      2028-1.42114E-02-1.93826E-02-5.21534E-02
 -1      2029 5.85127E-02 1.37984E-02-1.64683E+00
 -1      2030 3.34259E-02 6.01916E-02-7.27175E-01
 -1      2031 2.90018E-03-2.12359E-02-5.42387E-02
 -1      2032-6.14306E-02 2.27396E-02-9.55548E-01
 -1      2033-6.48159E-02 1.09466E-02-8.83246E-01
 -1      2034 1.22979E-02-4.93648E-02-6.95491E-01
 -1      2035-2.89343E-02 4.22502E-02-7.17809E-01
 -1      2036-2.53453E-02 3.69534E-02-2.97504E-01
 -1      2037-1.19633E-02-4.82047E-02-8.51662E-01
 -1      2038-2.19349E-02-4.92629E-03-4.68471E-02
 -1      2039-3.35838E-02-1.77409E-02-1.14198E-01
 -1      2040-9.99403E-03 1.20045E-02-2.54366E-02
 -1      2041 7.25108E-03 2.68274E-02-2.02101E+00
 -1      2042-1.35822E-02-1.48016E-02-2.07337E+00
 -1      2043-2.75667E-02-5.35528E-02-1.46572E+00
 -1      2044-2.51554E-02 6.13333E-02-8.65545E-01
 -1      2045 2.03291E-03-9.93891E-03-2.28381E-02
 -1      2046 8.88927E-03 6.57248E-02-1.19020E+00
 -1      2047-1.22547E-02 3.16503E-03-2.63883E-02
 -1      2048-2.66253E-02 1.88499E-02-1.19219E-01
 -1      2049-9.55418E-03 5.88933E-02-1.55039E+00
 -1      2050-1.24543E-02-4.25833E-02-3.36680E-01
 -1      2051-8.37735E-03-4.85720E-02-5.39489E-01
 -1      2052 4.82416E-02-1.42834E-02-5.65771E-01
 -1      2053 6.87335E-02 1.91941E-03-7.40793E-01
 -1      2054-7.96871E-03 3.73652E-02-1.41744E-01
 -1      2055-6.32538E-02 1.35484E-02-1.17667E+00
 -1      2056 8.27045E-03-4.88856E-02-7.27124E-01
 -1      2057 1.37171E-02-5.39036E-02-4.40990E-01
 -1      2058 6.58766E-02-1.72671E-03-5.55982E-01
 -1      2059 6.99371E-02-4.43574E-03-9.05858E-01
 -1      2060 1.68643E-02-1.02440E-02-5.49380E-02
 -1      2061-1.86025E-02-4.90138E-04-3.07553E-02
 -1      2062-1.02774E-02-1.15182E-03-2.02409E-02
 -1      2063-3.47262E-02 4.54634E-04-1.23625E-01
 -1      2064-3.56967E-02-1.57502E-03-1.33648E-01
 -1      2065-1.51543E-02 2.29122E-02-1.33461E-01
 -1      2066 3.65713E-02-2.50253E-02-2.49720E-01
 -1      2067-4.48479E-02 7.58216E-03-1.96809E-01
 -1      2068-4.30631E-03 8.05703E-03-2.02195E-02
 -1      2069-3.18478E-02-1.32780E-02-2.06031E-01
 -1      2070-2.39993E-02 1.54219E-02-1.09206E-01
 -1      2071-1.98295E-02 1.11370E-02-7.47199E-02
 -1      2072-8.33356E-03 4.20763E-03-1.84666E-02
 -1      2073 5.92591E-02 3.33867E-02-7.16713E-01
 -1      2074 4.18965E-02-6.26711E-03-1.93932E-01
 -1      2075-5.25565E-02-3.69479E-02-5.94863E-01
 -1      2076 5.17665E-02 1.23239E-02-7.02957E-01
 -1      2077-2.70740E-02-3.60564E-02-1.93514E+00
 -1      2078 4.33724E-03-5.11326E-02-1.85736E+00
 -1      2079 3.28907E-02-5.50973E-02-7.11559E-01
 -1      2080 4.88071E-02-2.41024E-02-3.39034E-01
 -1      2081 1.58729E-05-7.42584E-03-1.60544E-02
 -1      2082-3.79532E-02 1.72990E-02-2.14038E-01
 -1      2083 2.53510E-02 5.01231E-02-1.79603E+00
 -1      2084 2.40869E-02-8.65643E-04-7.17371E-02
 -1      2085 4.23939E-02-2.92156E-02-2.64340E-01
 -1      2086 6.24811E-03-6.22278E-02-5.60098E-01
 -1      2087 4.03007E-02-2.17739E-02-1.90695E-01
 -1      2088-7.88687E-03 1.26183E-03-2.29104E-02
 -1      2089-2.77766E-02-8.11672E-04-1.13076E-01
 -1      2090-2.21326E-02-1.56009E-02-1.91586E-02
 -1      2091 7.33259E-03-3.46861E-02-1.99372E+00
 -1      2092-6.07532E-02 2.09172E-02-1.11304E+00
 -1      2093-2.94219E-02 7.63725E-03-1.00528E-01
 -1      2094 5.00048E-02 4.16978E-02-6.30931E-01
 -1      2095-7.10515E-03 1.04472E-02-3.25785E-02
 -1      2096 1.66888E-02-4.08416E-02-2.79728E-01
 -1      2097 9.03949E-03-4.00959E-04-2.84854E-02
 -1      2098-4.07673E-02 1.73421E-02-2.12009E-01
 -1      2099 1.44273E-02 5.87682E-03-2.09272E+00
 -1      2100 5.01257E-02-9.48341E-03-9.75070E-01
 -1      2101 1.30299E-02-1.29461E-03-4.32552E-03
 -1      2102 1.79033E-02-3.21149E-02-1.01583E-01
 -1      2103-4.18199E-02 2.89728E-02-5.72569E-01
 -1      2104-4.22111E-02 2.23943E-02-5.61378E-01
 -1      2105 3.75307E-02-1.86458E-02-2.17877E-01
 -1      2106-3.69583E-03 5.03248E-02-5.82262E-01
 -1      2107 2.31989E-02 1.17876E-02-1.09254E-01
 -1      2108-1.61315E-02 2.18530E-02-7.47291E-02
 -1      2109-1.89478E-03 6.13180E-02-1.47930E+00
 -1      2110 1.77200E-02 6.18942E-02-4.67241E-01
 -1      2111 5.89974E-02-3.03218E-02-1.27330E+00
 -1      2112-6.39053E-02 1.48817E-02-8.52343E-01
 -1      2113-4.05543E-02-2.75618E-02-9.61374E-01
 -1      2114 4.02684E-02-4.05550E-03-1.60554E-01
 -1      2115-5.29428E-02 5.32304E-03-1.80115E+00
 -1      2116 3.31597E-02-9.46752E-03-1.14740E-01
 -1      2117 6.35094E-02-1.23304E-02-4.51628E-01
 -1      2118 3.40830E-03 1.82690E-02-3.08896E-02
 -1      2119-2.27109E-02-6.02480E-02-5.94727E-01
 -1      2120-5.75772E-02-3.11586E-02-6.56570E-01
 -1      2121-3.74036E-02 1.81349E-02-2.74734E-01
 -1      2122 6.92600E-02-6.10689E-03-1.10805E+00
 -1      2123 2.35125E-02 2.85539E-02-1.38349E-01
 -1      2124-5.44065E-03 3.54038E-02-1.99487E+00
 -1      2125-4.87072E-02 1.07520E-02-8.48719E-01
 -1      2126 3.42145E-02-4.38889E-02-4.13658E-01
 -1      2127-2.52077E-02-2.64036E-02-1.79566E-01
 -1      2128 3.01859E-02-4.94989E-02-4.80175E-01
 -1      2129-2.87781E-02-2.36158E-02-2.19451E-01
 -1      2130-7.63913E-03-2.90537E-03-1.19004E-02
 -1      2131-5.11632E-02-1.67338E-02-1.78658E+00
 -1      2132-2.04851E-02-4.22333E-03-5.78474E-02
 -1      2133-7.05046E-03 4.83611E-02-9.91958E-01
 -1      2134 9.67318E-03 5.21461E-02-3.00962E-01
 -1      2135 3.57560E-03 5.96967E-02-3.92559E-01
 -1      2136-1.37234E-02 9.18321E-03-8.18559E-02
 -1      2137 4.21195E-02 4.52837E-02-1.53911E+00
 -1      2138-6.73769E-03 3.30705E-02-1.53296E-01
 -1      2139 4.35035E-03-8.09105E-03-2.72959E-02
 -1      2140-2.01505E-02 6.32629E-02-9.18334E-01
 -1      2141-4.10768E-03-2.75667E-02-1.03617E-01
 -1      2142 4.61897E-02-4.75858E-02-8.50376E-01
 -1      2143 1.91211E-02-2.29299E-02-7.60286E-02
 -1      2144 4.74929E-02 2.09558E-02-2.78650E-01
 -1      2145-5.61415E-02-3.75789E-02-9.16910E-01
 -1      2146-4.10490E-02 2.12870E-02-2.33947E-01
 -1      2147 2.37000E-02 4.36281E-02-1.93564E+00
 -1      2148-4.06297E-02 2.18648E-02-4.26690E-01
 -1      2149-4.97571E-02 1.67393E-02-3.69787E-01
 -1      2150-1.78687E-02-6.11668E-02-4.94172E-01
 -1      2151 6.57336E-02-2.53615E-02-8.96792E-01
 -1      2152-2.75437E-02-4.09356E-02-8.67285E-01
 -1      2153 5.81668E-02 2.25767E-02-5.53361E-01
 -1      2154-3.64623E-03 1.64670E-02-2.66896E-02
 -1      2155-9.25366E-03-2.83751E-02-6.27897E-02
 -1      2156-5.67695E-02 4.33448E-03-3.78643E-01
 -1      2157-1.30594E-02 2.77411E-02-1.03517E-01
 -1      2158 5.74083E-02-3.67715E-02-7.55109E-01
 -1      2159-4.22874E-02 1.19643E-02-2.09027E-01
 -1      2160 2.35572E-02-4.06753E-03-6.48268E-02
 -1      2161-2.62336E-03-5.49799E-03-7.83173E-03
 -1      2162-6.12078E-02-2.56863E-02-6.73010E-01
 -1      2163-4.52037E-02 2.68845E-02-3.11461E-01
 -1      2164 4.08432E-02-4.87780E-02-6.26421E-01
 -1      2165 8.61766E-03 3.23081E-04-2.03811E-02
 -1      2166 4.64841E-02 2.30649E-02-5.64333E-01
 -1      2167 4.91268E-02-4.51212E-02-1.08065E+00
 -1      2168 1.49411E-02 2.18001E-03-2.00131E-02
 -1      2169 5.68636E-02 3.90335E-02-1.12285E+00
 -1      2170-2.85606E-02 5.26251E-02-5.10176E-01
 -1      2171 5.61718E-02-2.96353E-02-1.45126E+00
 -1      2172 1.45371E-02 1.83379E-02-4.82071E-02
 -1      2173 1.11892E-02 3.08551E-02-9.51358E-02
 -1      2174-5.12882E-02 4.03039E-02-1.09468E+00
 -1      2175-6.02791E-02 2.65835E-02-8.89937E-01
 -1      2176 4.31233E-02-1.18405E-02-2.10616E-01
 -1      2177 2.08494E-02 2.45729E-02-4.61617E-02
 -1      2178-3.58873E-03 6.26689E-02-5.14656E-01
 -1      2179-5.36981E-02 2.88232E-02-5.48511E-01
 -1      2180 3.92386E-02-2.06210E-02-2.72306E-01
 -1      2181 4.17940E-02 4.08872E-02-1.73910E+00
 -1      2182-3.12800E-02-4.53651E-02-3.08769E-01
 -1      2183 2.43506E-03 9.16519E-03-3.72682E-03
 -1      2184-6.39347E-02-1.72082E-03-5.77925E-01
 -1      2185 3.44246E-02-4.66098E-02-1.68994E+00
 -1      2186-3.27871E-02 3.87500E-02-3.55587E-01
 -1      2187-2.36758E-02 1.74253E-02-9.22814E-02
 -1      2188-3.89830E-02 3.29677E-02-2.92129E-01
 -1      2189 1.68481E-02 2.53756E-03-2.66015E-02
 -1      2190 1.51958E-02 2.62246E-02-1.04033E-01
 -1      2191 4.90388E-02 4.45387E-02-1.32998E+00
 -1      2192-3.34153E-02 2.39773E-02-1.85089E-01
 -1      2193 4.87620E-03-3.19843E-02-1.21496E-01
 -1      2194 3.22383E-02-3.56542E-02-4.16777E-01
 -1      2195-2.07066E-02-1.95555E-02-9.70126E-02
 -1      2196-4.46952E-03-6.62337E-03-1.83177E-02
 -1      2197 2.42686E-02-4.50116E-02-3.28038E-01
 -1      2198 2.42262E-02-5.93425E-02-6.78609E-01
 -1      2199 9.46295E-03 4.86360E-02-1.92804E+00
 -1      2200 4.62924E-02-2.67842E-02-6.45131E-01
 -1      2201 4.40662E-02-2.50574E-02-4.64005E-01
 -1      2202 4.04956E-02 1.09723E-02-2.17166E-01
 -1      2203-5.88568E-02-3.20177E-02-8.15819E-01
 -1      2204 7.78536E-03 3.28210E-02-9.91015E-02
 -1      2205 4.62645E-02 4.93787E-02-7.69192E-01
 -1      2206-1.46018E-02 3.51129E-02-1.18906E-01
 -1      2207-2.18362E-02 2.24564E-02-1.05705E-01
 -1      2208-1.01364E-02-5.25563E-03-2.89746E-02
 -1      2209-2.28193E-02 1.55694E-02-7.06166E-02
 -1      2210-4.22212E-02 2.74402E-02-8.57993E-01
 -1      2211-5.26853E-02 1.70182E-02-4.02678E-01
 -1      2212 3.45988E-02-4.12980E-02-3.11041E-01
 -1      2213 3.81797E-02 5.26477E-02-5.74965E-01
 -1      2214 5.03136E-02-3.23037E-02-1.64755E+00
 -1      2215-4.64084E-02-1.24364E-02-1.11172E+00
 -1      2216 5.13417E-02-3.58794E-02-4.40669E-01
 -1      2217-4.30334E-02-2.36841E-02-6.52096E-01
 -1      2218 6.97626E-03-5.03412E-02-5.85498E-01
 -1      2219-1.99357E-03 1.64216E-02-3.72138E-02
 -1      2220 6.71433E-02-1.84746E-02-8.70344E-01
 -1      2221-2.64957E-02-6.10531E-02-7.27468E-01
 -1      2222-5.82514E-02 2.80039E-02-6.92436E-01
 -1      2223 2.81335E-02-4.30084E-02-5.67236E-01
 -1      2224 4.18657E-02 3.12314E-02-5.68261E-01
 -1      2225 3.03102E-02 6.14368E-02-1.09511E+00
 -1      2226 9.62054E-03 1.94497E-02-1.22854E-02
 -1      2227-8.51564E-03-5.87893E-02-4.89659E-01
 -1      2228 6.26334E-03 3.13096E-02-1.83233E-01
 -1      2229 4.86198E-02 3.82617E-02-1.60235E+00
 -1      2230-6.31511E-03-2.54710E-03-9.48092E-03
 -1      2231-8.76389E-03 6.14230E-03-3.19959E-02
 -1      2232-1.54789E-02 7.95198E-03-3.11138E-02
 -1      2233 5.45924E-02 4.24946E-02-8.55273E-01
 -1      2234 2.61548E-02-1.59458E-02-1.04318E-01
 -1      2235 5.01440E-02-1.35575E-02-7.80204E-01
 -1      2236 2.22029E-02 3.47185E-02-2.65623E-01
 -1      2237-1.65024E-02-6.40733E-02-6.88964E-01
 -1      2238 4.57860E-03 6.25199E-02-1.45767E+00
 -1      2239-4.92275E-02-6.88291E-03-1.90055E+00
 -1      2240-2.34572E-02-8.16705E-03-3.71705E-02
 -1      2241-6.32610E-02-9.78715E-03-5.96722E-01
 -1      2242-4.53059E-02-3.04351E-02-1.73944E+00
 -1      2243-3.80982E-02 4.83921E-02-5.74582E-01
 -1      2244-6.17021E-02-6.50230E-03-4.56640E-01
 -1      2245-1.70742E-02 5.61776E-02-4.51054E-01
 -1      2246 4.37597E-02 6.65202E-03-2.67899E-01
 -1      2247-3.19001E-02-2.90329E-02-1.88487E-01
 -1      2248 3.32722E-02 5.01428E-02-4.56059E-01
 -1      2249 1.48467E-02-4.71520E-02-4.79765E-01
 -1      2250-1.78450E-02 3.99419E-02-2.64685E-01
 -1      2251-6.53618E-02-8.32280E-03-7.51810E-01
 -1      2252-4.00737E-02 1.58473E-03-2.20194E-01
 -1      2253-1.57587E-02-3.29750E-03-4.75599E-03
 -1      2254 1.54549E-02-7.94983E-03-2.39620E-02
 -1      2255 5.84862E-02-3.53658E-02-1.11497E+00
 -1      2256 4.68655E-02 4.30360E-02-1.46963E+00
 -1      2257 7.17407E-03 6.39295E-03-1.76999E-02
 -1      2258-2.46962E-02 5.95420E-02-1.25898E+00
 -1      2259 4.20634E-02 5.28438E-02-7.26709E-01
 -1      2260 5.12897E-02-3.20630E-03-4.30668E-01
 -1      2261 1.45934E-02-4.75393E-02-1.89793E+00
 -1      2262-4.66916E-02-2.59938E-02-2.77726E-01
 -1      2263 2.94505E-02-5.95920E-02-9.82335E-01
 -1      2264-3.45541E-02 5.38121E-02-6.85275E-01
 -1      2265-3.77100E-02 4.44707E-02-4.65794E-01
 -1      2266-3.42682E-02 4.66271E-02-4.50926E-01
 -1      2267 8.38920E-03 5.92889E-03-2.34676E-02
 -1      2268-6.30618E-02-1.51261E-02-6.14612E-01
 -1      2269 6.86275E-03 6.65504E-02-6.65043E-01
 -1      2270 6.09580E-02-2.43661E-02-5.51391E-01
 -1      2271-7.06062E-03-2.77586E-02-4.00412E-02
 -1      2272 3.94801E-02 4.50751E-02-4.08923E-01
 -1      2273-6.63547E-02-2.20733E-03-8.88640E-01
 -1      2274 5.33452E-03 4.90716E-02-1.99762E-01
 -1      2275 2.37786E-02-5.84403E-02-1.35634E+00
 -1      2276-2.77457E-02-1.92151E-02-9.87169E-02
 -1      2277-6.65728E-02-1.30741E-02-9.15490E-01
 -1      2278-3.03011E-02 3.88665E-02-5.73597E-01
 -1      2279 0.00000E+00 0.00000E+00 0.00000E+00
 -1      2280 5.57183E-02 3.74617E-02-1.26147E+00
 -1      2281 3.23237E-03-3.53939E-02-1.82993E-01
 -1      2282-1.84192E-03-1.07837E-02-1.64557E-02
 -1      2283-2.63589E-03 3.42032E-02-1.14379E-01
 -1      2284-5.06283E-02-4.29678E-02-7.92235E-01
 -1      2285-5.53049E-02-3.63965E-02-7.49309E-01
 -1      2286 8.16854E-03-3.82821E-02-2.98327E-01
 -1      2287-1.52715E-02-4.69470E-02-7.48144E-01
 -1      2288-9.19358E-03-3.07512E-03-1.45613E-02
 -1      2289-3.36308E-02-1.86157E-02-2.46508E-01
 -1      2290-4.95595E-02 2.64117E-02-4.29598E-01
 -1      2291-4.75762E-02 1.45344E-02-7.58968E-01
 -1      2292 2.28413E-02 4.85784E-03-7.04494E-02
 -1      2293 1.45098E-03-4.57497E-02-2.36170E-01
 -1      2294-5.08585E-02 3.91349E-02-8.04552E-01
 -1      2295 3.59120E-02 5.76870E-02-6.74806E-01
 -1      2296-2.29020E-02 5.63158E-02-5.37355E-01
 -1      2297-6.20434E-02 1.80670E-02-6.96454E-01
 -1      2298 5.10701E-02 9.57684E-03-8.52038E-01
 -1      2299 2.64531E-02 6.35816E-02-1.05429E+00
 -1      2300 2.94712E-03 8.15680E-03-2.16717E-02
 -1      2301-3.78385E-02-3.23650E-02-1.85496E+00
 -1      2302 7.67502E-03 3.53062E-03-1.94148E-02
 -1      2303-2.84512E-02-3.75393E-02-4.13149E-01
 -1      2304-3.29435E-02 2.73969E-02-2.63950E-01
 -1      2305-6.42333E-02-2.00575E-02-8.35126E-01
 -1      2306 4.60469E-02 4.54905E-02-1.40038E+00
 -1      2307-6.59803E-03 5.67367E-02-1.68435E+00
 -1      2308 2.10477E-03 7.25838E-03-1.53861E-02
 -1      2309-2.02447E-02 5.75528E-02-1.53391E+00
 -1      2310-1.98052E-02 2.60790E-02-1.13009E-01
 -1      2311-3.16662E-02-3.83462E-02-7.73603E-01
 -1      2312 2.17418E-02 6.24709E-02-1.30503E+00
 -1      2313 2.21659E-02-4.26231E-02-2.45496E-01
 -1      2314 1.08050E-02-2.48900E-03-2.73320E-02
 -1      2315-4.91865E-02 4.44022E-02-8.92263E-01
 -1      2316-5.69196E-02 2.31993E-02-6.12684E-01
 -1      2317 3.54247E-02 4.84434E-02-1.66212E+00
 -1      2318 2.17252E-02 5.50707E-02-1.64125E+00
 -1      2319 6.23056E-02-1.80228E-02-5.05898E-01
 -1      2320 5.44457E-02-2.14861E-02-1.75058E+00
 -1      2321 2.83084E-03 1.23765E-02-2.14643E-02
 -1      2322 6.79537E-03-4.97809E-03-2.32797E-02
 -1      2323-4.62846E-02 3.41516E-02-1.65630E+00
 -1      2324 2.78609E-02 4.70032E-02-3.71684E-01
 -1      2325 3.06246E-02 2.62355E-02-1.56470E-01
 -1      2326-5.02666E-02 6.07499E-03-5.53195E-01
 -1      2327-4.87102E-02 1.27716E-02-5.33868E-01
 -1      2328-1.21727E-02-1.28988E-02-4.03151E-02
 -1      2329 1.48554E-02-8.63990E-03-4.25247E-02
 -1      2330 3.84041E-02 8.29852E-03-1.72918E-01
 -1      2331 8.15448E-03 4.36225E-02-1.73124E-01
 -1      2332-3.24687E-02 5.24520E-02-1.52715E+00
 -1      2333-1.76128E-02-7.38387E-03-6.17398E-02
 -1      2334 1.07819E-02-5.31187E-02-3.84303E-01
 -1      2335 2.16097E-02-2.80551E-02-1.25361E-01
 -1      2336-1.59856E-03 4.94291E-02-2.41898E-01
 -1      2337-1.54807E-03-2.97309E-02-8.08792E-02
 -1      2338-2.59428E-03-1.50190E-02-2.89791E-02
 -1      2339-1.21586E-02 6.35647E-02-1.29231E+00
 -1      2340-4.17324E-02-5.40719E-03-2.46327E-01
 -1      2341-3.11171E-02-1.30867E-02-1.34736E-01
 -1      2342 5.40094E-02 3.57482E-02-1.47365E+00
 -1      2343 6.45564E-02-2.48391E-02-1.07743E+00
 -1      2344 5.26512E-02-3.98192E-02-1.25788E+00
 -1      2345 4.05373E-02 5.63742E-02-1.05313E+00
 -1      2346-2.02252E-02-1.77265E-04-2.08818E+00
 -1      2347 4.89668E-02 1.20528E-02-1.93052E+00
 -1      2348 3.31455E-02-2.77851E-02-1.95662E+00
 -1      2349 6.19260E-02-3.06039E-02-7.82382E-01
 -1      2350 0.00000E+00 0.00000E+00 0.00000E+00
 -1      2351 1.98254E-02 2.85266E-02-9.25662E-02
 -1      2352-3.80427E-02-2.56149E-02-2.26159E-01
 -1      2353-6.07053E-02 8.93519E-03-1.39798E+00
 -1      2354-2.22605E-02 2.86777E-02-2.00162E-01
 -1      2355 0.00000E+00 0.00000E+00 0.00000E+00
 -1      2356-9.10314E-03-4.06956E-02-1.91782E-01
 -1      2357 6.42159E-02 2.04681E-02-1.14619E+00
 -1      2358 6.46912E-02 1.52917E-02-1.28709E+00
 -1      2359 6.77807E-02 1.64181E-03-1.18729E+00
 -1      2360-4.24856E-02 5.00710E-02-1.15545E+00
 -1      2361 4.34190E-02 1.76627E-04-1.91342E-01
 -1      2362 2.87943E-02-7.54902E-04-8.95537E-02
 -1      2363 5.69657E-02 4.06376E-02-9.75371E-01
 -1      2364 7.78259E-03 1.95598E-02-2.08077E+00
 -1      2365 3.14965E-02-5.76002E-02-8.07267E-01
 -1      2366 6.87174E-02-4.48778E-03-6.99100E-01
 -1      2367 5.63800E-02-1.47960E-02-3.59133E-01
 -1      2368-2.67486E-02-2.48191E-02-1.61287E-01
 -1      2369 5.64645E-02-6.47266E-03-3.41632E-01
 -1      2370 1.73258E-02-1.37200E-02-2.08056E+00
 -1      2371-1.17453E-02-4.78290E-02-1.88503E+00
 -1      2372 3.59180E-02-1.77854E-02-1.43838E-01
 -1      2373 4.44690E-03-1.39767E-02-2.08571E+00
 -1      2374-3.57055E-02-5.70257E-02-8.05529E-01
 -1      2375 6.31573E-02-2.17741E-02-1.36698E+00
 -1      2376 6.86777E-03 5.19125E-02-7.15131E-01
 -1      2377-2.24987E-02-4.84949E-02-1.80048E+00
 -1      2378-2.07089E-02 1.87675E-02-2.03563E+00
 -1      2379-7.18265E-03 8.58573E-03-2.09951E+00
 -1      2380-2.61134E-02-5.98202E-02-1.20708E+00
 -1      2381 6.33207E-02-2.85171E-02-9.13777E-01
 -1      2382-5.65711E-02-9.21015E-03-4.34368E-01
 -1      2383 2.70294E-02 6.19338E-02-1.18269E+00
 -1      2384-1.38608E-02-1.48629E-03-3.30001E-02
 -1      2385 1.35248E-02-6.29714E-03-2.09838E+00
 -1      2386 5.26220E-02 2.20545E-02-3.68354E-01
 -1      2387-2.95077E-02 4.42724E-02-1.81233E+00
 -1      2388 4.01646E-02 2.54584E-02-2.24093E-01
 -1      2389 3.21467E-02 1.90816E-02-1.39371E-01
 -1      2390 2.46650E-02-4.92439E-02-1.78496E+00
 -1      2391 2.04859E-02 5.16554E-02-3.19033E-01
 -1      2392 4.05876E-02 1.78446E-02-1.72340E-01
 -1      2393 5.14367E-02 5.49400E-03-4.24699E-01
 -1      2394-6.03469E-02-2.35621E-02-1.28387E+00
 -1      2395-5.55226E-02 3.38053E-02-9.92060E-01
 -1      2396 6.30206E-02-1.23507E-02-1.48425E+00
 -1      2397 6.01303E-02-1.09679E-02-1.64202E+00
 -1      2398 9.03476E-03 1.20729E-02-2.36756E-02
 -1      2399 6.18375E-02 9.92535E-03-1.53708E+00
 -1      2400 4.99734E-02-1.95262E-02-1.88792E+00
 -1      2401 4.46731E-02 6.30284E-03-2.12203E-01
 -1      2402 5.99708E-02-8.29117E-04-1.68354E+00
 -1      2403-4.13481E-02 5.59245E-03-2.84451E-01
 -1      2404-3.14178E-02 4.25366E-03-1.66581E-01
 -1      2405 4.30005E-02 2.76176E-02-7.96606E-01
 -1      2406 3.60032E-02 5.92455E-02-9.68942E-01
 -1      2407 4.63455E-02 2.41262E-02-7.12379E-01
 -1      2408-2.17621E-03-7.58247E-03-1.44541E-02
 -1      2409-2.52741E-02-3.28385E-02-1.32972E-01
 -1      2410 6.79191E-04-1.53363E-02-2.90145E-02
 -1      2411 5.84042E-03-3.90136E-02-1.27760E-01
 -1      2412-3.68021E-02-2.10088E-02-1.69930E-01
 -1      2413-4.47101E-02-4.07104E-02-1.47384E+00
 -1      2414-6.54450E-02-8.48747E-03-1.16138E+00
 -1      2415-3.68591E-02 3.75434E-02-3.51818E-01
 -1      2416-1.11621E-02 3.78534E-02-1.76439E-01
 -1      2417-5.21690E-03 2.67858E-02-6.88439E-02
 -1      2418-2.70321E-02-2.55637E-03-8.27674E-02
 -1      2419-2.03646E-02-4.24028E-02-2.65527E-01
 -1      2420-2.58186E-02 2.97464E-02-2.49243E-01
 -1      2421 1.50266E-02 4.08573E-03-9.07206E-03
 -1      2422 1.11351E-02-6.35173E-02-6.51986E-01
 -1      2423 1.96093E-03-6.03846E-02-5.03678E-01
 -1      2424 6.55925E-02-2.14800E-02-1.18057E+00
 -1      2425-5.76795E-02 2.58689E-02-1.30091E+00
 -1      2426-3.62205E-02-5.70469E-02-9.94833E-01
 -1      2427-5.08844E-02 7.48804E-03-3.97243E-01
 -1      2428 5.36133E-02 3.73721E-02-6.22423E-01
 -1      2429-7.11542E-03 7.28439E-03-2.22684E-02
 -1      2430 3.46056E-02-1.24909E-02-1.72720E-01
 -1      2431-4.80354E-02 7.77289E-03-9.73156E-01
 -1      2432-2.46814E-02-2.96740E-02-2.59991E-01
 -1      2433 8.62606E-03 3.35148E-03-1.91022E-02
 -1      2434-5.72688E-02-9.77187E-03-1.62467E+00
 -1      2435-6.06301E-02-2.67056E-02-9.94910E-01
 -1      2436-4.52119E-02 3.57454E-02-4.59091E-01
 -1      2437-3.99663E-02 2.98054E-02-3.08093E-01
 -1      2438-1.14366E-02-6.57792E-02-7.80332E-01
 -1      2439 1.20857E-02 3.36440E-02-7.08498E-02
 -1      2440 5.58112E-02 6.27793E-03-1.81402E+00
 -1      2441 4.80551E-03 2.36491E-02-8.88551E-02
 -1      2442-4.04813E-02 4.56142E-02-1.55256E+00
 -1      2443-2.66751E-02 5.69755E-02-1.44600E+00
 -1      2444-3.05315E-02 1.24104E-02-1.07243E-01
 -1      2445-1.79515E-02-7.84131E-03-4.54722E-02
 -1      2446-3.99157E-02 3.67744E-02-3.79154E-01
 -1      2447 4.45639E-02-3.94637E-02-1.68111E+00
 -1      2448 5.46265E-02-3.26815E-02-5.46771E-01
 -1      2449 2.41879E-02-4.03016E-02-4.31641E-01
 -1      2450-4.50711E-02 4.62385E-02-7.12945E-01
 -1      2451 4.61353E-02-3.63812E-03-1.94581E+00
 -1      2452 2.12158E-02 2.24265E-02-1.10234E-01
 -1      2453-2.37893E-02-3.71895E-02-1.64383E-01
 -1      2454-1.44111E-02-2.15658E-02-5.16470E-02
 -1      2455-1.97435E-02-2.53691E-02-8.01291E-02
 -1      2456-3.09376E-02-3.53565E-02-2.14758E-01
 -1      2457-6.63271E-02-1.81195E-03-1.05449E+00
 -1      2458-3.13850E-02 2.54377E-02-2.18410E-01
 -1      2459-4.98411E-02 2.13127E-02-1.75449E+00
 -1      2460-5.31413E-02-2.14661E-02-3.75804E-01
 -1      2461-2.32953E-02 9.72964E-03-1.01446E-01
 -1      2462-4.36252E-02 2.52577E-02-5.40374E-01
 -1      2463 3.83435E-02-4.85453E-02-1.43289E+00
 -1      2464-1.31287E-02-8.75572E-03-1.79858E-02
 -1      2465-4.89869E-02-3.89332E-03-2.70982E-01
 -1      2466-6.04086E-02-1.35301E-02-1.45204E+00
 -1      2467-3.35250E-04 6.28169E-02-5.25381E-01
 -1      2468-1.95207E-02 6.25427E-02-7.72802E-01
 -1      2469 8.10619E-03-7.84396E-03-2.06328E-02
 -1      2470-6.19972E-03-3.08376E-02-1.10264E-01
 -1      2471 1.81230E-02-6.40257E-02-8.69912E-01
 -1      2472 4.50710E-02 2.81089E-02-5.70484E-01
 -1      2473-1.10599E-02 1.01135E-02-2.61429E-02
 -1      2474 0.00000E+00 0.00000E+00 0.00000E+00
 -1      2475 1.64274E-02-4.80960E-02-7.23913E-01
 -1      2476 4.13201E-02-3.25303E-02-5.00173E-01
 -1      2477 4.46346E-02 2.15067E-02-3.64899E-01
 -1      2478 2.91807E-02 4.27554E-02-7.06282E-01
 -1      2479-2.14467E-02-3.86316E-02-4.17587E-01
 -1      2480-4.21899E-02-2.68033E-02-8.11461E-01
 -1      2481-1.57236E-02-3.49785E-02-1.61855E-01
 -1      2482 1.20451E-02-6.64853E-02-9.08888E-01
 -1      2483 2.44492E-02-6.13588E-02-8.70991E-01
 -1      2484 3.99566E-02-3.99640E-02-1.79155E+00
 -1      2485-6.39090E-02-1.18167E-02-1.31277E+00
 -1      2486-2.56199E-02-4.22931E-02-5.53851E-01
 -1      2487 8.07266E-03-6.97482E-03-8.36683E-03
 -1      2488 1.63188E-02 4.87960E-02-7.08021E-01
 -1      2489 4.29993E-02 2.41535E-02-2.45848E-01
 -1      2490-3.72607E-02-1.14451E-02-1.44325E-01
 -1      2491-1.02889E-02 4.61105E-02-4.58124E-01
 -1      2492 5.74860E-02 2.24217E-02-1.60564E+00
 -1      2493-1.00692E-02-5.03300E-02-3.52700E-01
 -1      2494 6.38516E-02 2.07833E-02-7.80619E-01
 -1      2495-2.25068E-02-4.45415E-02-7.15886E-01
 -1      2496 1.56993E-02 4.20393E-02-1.60860E-01
 -1      2497 1.20535E-04-2.64317E-02-1.06654E-01
 -1      2498-7.14444E-05-1.61824E-02-2.08766E+00
 -1      2499 4.54793E-02 2.85062E-02-1.86990E+00
 -1      2500 3.19787E-03 3.88866E-03-1.51886E-02
 -1      2501-2.39886E-02 4.77708E-02-3.77105E-01
 -1      2502-1.06282E-02-3.18140E-03-9.73776E-03
 -1      2503 2.21483E-02 3.14784E-02-1.81055E-01
 -1      2504 2.47811E-02 1.60429E-02-9.32951E-02
 -1      2505 4.13489E-02-7.52100E-03-2.61476E-01
 -1      2506-3.20209E-02 3.08644E-04-2.00784E+00
 -1      2507 1.69099E-02-6.24710E-02-6.76675E-01
 -1      2508-5.11583E-02 2.80077E-02-1.61653E+00
 -1      2509 2.40865E-02-6.17130E-02-1.09691E+00
 -1      2510 2.60866E-02-5.37945E-02-1.54520E+00
 -1      2511-2.34633E-03 6.73108E-02-1.05454E+00
 -1      2512 1.03672E-02-1.97718E-02-5.80227E-02
 -1      2513 4.25020E-02 4.16915E-03-2.44241E-01
 -1      2514 2.80912E-02 6.37054E-02-9.35963E-01
 -1      2515 6.27959E-02 1.54030E-02-5.70705E-01
 -1      2516 4.77325E-02-4.38436E-02-6.76691E-01
 -1      2517-4.64897E-02-4.36262E-02-5.72334E-01
 -1      2518 2.46498E-02-2.10793E-02-9.96421E-02
 -1      2519 3.59748E-02-3.00233E-02-1.91031E-01
 -1      2520-4.60946E-03-5.09086E-02-6.64818E-01
 -1      2521-3.17568E-02 3.29977E-02-2.77268E-01
 -1      2522 6.48740E-02-2.33194E-02-6.98395E-01
 -1      2523-9.69298E-03 6.51751E-02-7.38856E-01
 -1      2524-2.74890E-02 4.73702E-02-4.18040E-01
 -1      2525 3.62274E-02 4.89166E-02-4.45230E-01
 -1      2526-2.28400E-02-4.17369E-02-2.44120E-01
 -1      2527-5.40670E-02 3.48037E-02-1.16629E+00
 -1      2528 3.64584E-02-2.87970E-02-2.72740E-01
 -1      2529-6.44985E-02-1.60157E-02-1.06162E+00
 -1      2530-5.63505E-02-3.54378E-02-1.06120E+00
 -1      2531-5.45433E-02 1.91418E-02-4.91624E-01
 -1      2532 5.30308E-02 8.19426E-03-5.35390E-01
 -1      2533-6.37859E-02-1.46833E-02-1.18372E+00
 -1      2534 4.35287E-02 5.32991E-02-9.06784E-01
 -1      2535-3.87962E-02-4.65990E-02-5.18671E-01
 -1      2536 7.46053E-03 6.15382E-03-1.27632E-02
 -1      2537 0.00000E+00 0.00000E+00 0.00000E+00
 -1      2538-1.19859E-02-6.12735E-02-1.39391E+00
 -1      2539 2.15352E-02 2.67426E-02-1.55123E-01
 -1      2540 1.07865E-02-5.71332E-02-1.63493E+00
 -1      2541 1.51423E-02-2.33390E-02-2.02475E+00
 -1      2542 2.80759E-02 4.13061E-02-9.81160E-01
 -1      2543 4.06684E-02-4.43274E-02-1.56182E+00
 -1      2544 5.75183E-02 1.11975E-03-3.27292E-01
 -1      2545-1.21739E-02 4.86314E-02-6.99858E-01
 -1      2546 5.52143E-02 1.89375E-02-1.73520E+00
 -1      2547 3.81010E-02 2.30884E-02-2.80054E-01
 -1      2548-1.56884E-02-6.46868E-02-1.15281E+00
 -1      2549 1.04744E-02 4.30599E-03-3.01314E-02
 -1      2550-1.90758E-02-5.71330E-02-1.53877E+00
 -1      2551-2.65804E-02-5.73847E-02-5.60385E-01
 -1      2552 6.08772E-02 3.22067E-02-9.57119E-01
 -1      2553 6.66780E-02 3.82626E-03-5.89847E-01
 -1      2554 4.13542E-02 2.84635E-02-9.81507E-01
 -1      2555 2.45805E-03-6.64831E-02-1.05757E+00
 -1      2556 1.65650E-02 3.85045E-02-2.06565E-01
 -1      2557 3.64998E-02-4.16440E-02-4.11855E-01
 -1      2558-4.22564E-02-4.28564E-02-4.81829E-01
 -1      2559-4.63610E-02 1.26537E-02-4.17918E-01
 -1      2560-5.33543E-02 2.20519E-02-1.64384E+00
 -1      2561-3.31303E-02-3.06045E-02-2.41496E-01
 -1      2562 2.90148E-02-5.52742E-02-1.41170E+00
 -1      2563-7.05233E-03-9.70994E-03-1.51597E-02
 -1      2564-3.08682E-02-6.45265E-03-1.11538E-01
 -1      2565-1.52680E-02-8.13195E-03-5.08342E-02
 -1      2566 1.19943E-02-4.79848E-02-8.66562E-01
 -1      2567-2.44490E-02 4.37576E-02-5.89551E-01
 -1      2568-8.71408E-03-1.63140E-02-1.42064E-02
 -1      2569-2.30822E-02 4.00169E-02-3.58074E-01
 -1      2570 3.89457E-02-5.42836E-02-9.43785E-01
 -1      2571-4.79725E-03-5.85845E-02-1.58105E+00
 -1      2572-3.36218E-02-5.36104E-02-1.30491E+00
 -1      2573 2.17315E-02-6.14701E-02-7.77559E-01
 -1      2574-1.24461E-02-3.75001E-02-2.80120E-01
 -1      2575 6.94673E-02 1.16553E-03-8.99516E-01
 -1      2576 9.82011E-03-6.36327E-03-1.12491E-02
 -1      2577 6.88072E-02-1.05317E-02-8.04529E-01
 -1      2578-5.02753E-02 3.86467E-02-1.30594E+00
 -1      2579 0.00000E+00 0.00000E+00 0.00000E+00
 -1      2580-2.90469E-02-5.02096E-02-4.10603E-01
 -1      2581 4.69244E-02-4.66477E-02-1.02856E+00
 -1      2582-1.57256E-02 6.30988E-02-6.27061E-01
 -1      2583-3.58660E-02 2.60171E-02-3.93968E-01
 -1      2584-3.41116E-02-4.74088E-02-1.58741E+00
 -1      2585 1.24703E-02 1.96187E-02-2.07690E+00
 -1      2586 5.76349E-02 3.58087E-02-1.17523E+00
 -1      2587 6.75862E-02 9.52683E-03-7.28780E-01
 -1      2588-4.42362E-02-4.01169E-02-4.36066E-01
 -1      2589-4.45446E-02-3.60874E-02-1.62856E+00
 -1      2590-3.94572E-02-4.75491E-02-1.43332E+00
 -1      2591-5.00518E-02 5.03763E-03-7.90350E-01
 -1      2592 2.84827E-02 5.88497E-02-1.29636E+00
 -1      2593-3.07602E-02-3.92226E-02-5.51437E-01
 -1      2594 1.53478E-02 6.26567E-02-5.32520E-01
 -1      2595-3.97791E-02 2.57311E-02-1.12378E+00
 -1      2596 6.82880E-02-5.24995E-03-1.24446E+00
 -1      2597 3.30484E-02-2.83964E-02-2.44561E-01
 -1      2598 1.29379E-02-2.49979E-02-2.03769E+00
 -1      2599 2.91696E-02 1.61276E-02-1.02384E-01
 -1      2600 3.67430E-02 5.62942E-02-1.18289E+00
 -1      2601 3.03399E-02-4.60773E-02-3.97440E-01
 -1      2602-3.35607E-02 5.04024E-02-5.51448E-01
 -1      2603-5.22727E-02 3.40000E-02-1.29118E+00
 -1      2604 1.98044E-02-2.21400E-02-1.12978E-01
 -1      2605-5.68547E-02-2.57441E-02-1.38397E+00
 -1      2606 2.72362E-02-5.90388E-02-1.19904E+00
 -1      2607-9.73169E-03 4.95704E-02-8.49061E-01
 -1      2608 3.46954E-02-5.02459E-02-5.64308E-01
 -1      2609 2.86979E-02 5.35497E-02-1.55868E+00
 -1      2610-1.63250E-02-2.74294E-02-7.75417E-02
 -1      2611-4.82957E-02-3.45208E-02-1.52785E+00
 -1      2612-1.83038E-02-4.45592E-02-1.96814E-01
 -1      2613-2.68641E-02-3.91606E-02-1.00696E+00
 -1      2614 5.85719E-02 2.91733E-02-5.92355E-01
 -1      2615-2.80968E-02 5.09319E-02-1.67398E+00
 -1      2616-4.01455E-02 3.53022E-02-1.80929E+00
 -1      2617-4.58735E-02-4.82428E-02-9.63104E-01
 -1      2618-2.53301E-02 5.96316E-02-7.00758E-01
 -1      2619-4.21065E-02 1.08295E-02-2.67704E-01
 -1      2620 7.15845E-03 1.45881E-02-4.06028E-02
 -1      2621 0.00000E+00 0.00000E+00 0.00000E+00
 -1      2622 2.33806E-02-6.92539E-04-4.46427E-02
 -1      2623 5.45415E-02-4.11541E-02-8.70423E-01
 -1      2624-4.50438E-02-4.57624E-02-6.17102E-01
 -1      2625-4.65049E-02-4.59531E-02-7.10150E-01
 -1      2626-4.77033E-02-4.63834E-02-8.57358E-01
 -1      2627-1.68645E-02-4.98967E-02-3.55677E-01
 -1      2628-4.67735E-02-3.33732E-02-4.04416E-01
 -1      2629-3.08372E-02 5.83203E-02-8.12680E-01
 -1      2630-2.92961E-02 5.83724E-02-1.19746E+00
 -1      2631 4.44788E-02-4.24630E-02-5.29658E-01
 -1      2632 3.92031E-02-3.55593E-02-3.50498E-01
 -1      2633 1.10043E-02 3.72317E-02-1.80070E-01
 -1      2634 4.15906E-02-2.90414E-02-9.71567E-01
 -1      2635 3.66706E-02-5.56321E-02-1.07434E+00
 -1      2636 3.61290E-02 4.21180E-02-1.84958E+00
 -1      2637 3.08980E-02 3.49258E-02-4.36925E-01
 -1      2638-2.36605E-02-6.23685E-02-1.01033E+00
 -1      2639 1.16581E-02 9.24354E-04-1.17683E-02
 -1      2640-5.30116E-02 2.94481E-02-1.45441E+00
 -1      2641-4.74236E-02 3.23569E-02-4.91590E-01
 -1      2642 9.71200E-03-2.66533E-02-1.49420E-01
 -1      2643 2.29929E-02-5.58091E-02-5.24714E-01
 -1      2644 2.97055E-02-5.54706E-02-6.29333E-01
 -1      2645 3.34461E-02-3.85685E-02-5.63478E-01
 -1      2646 2.25720E-02-6.27772E-02-9.72450E-01
 -1      2647-2.55961E-02-1.68518E-02-8.18413E-02
 -1      2648-3.20142E-02 2.18584E-02-1.82385E-01
 -1      2649-2.55172E-02-5.06389E-02-1.64218E+00
 -1      2650 3.87823E-02 3.13919E-02-4.04891E-01
 -1      2651-6.20151E-03 5.64236E-03-2.36650E-02
 -1      2652-1.83786E-02 1.54324E-02-5.06147E-02
 -1      2653 6.34151E-02 2.49862E-02-8.85636E-01
 -1      2654-1.34547E-02 5.27097E-02-1.79486E+00
 -1      2655 5.47073E-02 2.75112E-02-4.28494E-01
 -1      2656-3.49452E-02-5.56554E-02-1.13288E+00
 -1      2657 4.95525E-02 4.55442E-02-7.64413E-01
 -1      2658-2.18478E-02-6.01403E-02-1.35424E+00
 -1      2659-1.10823E-02-3.14590E-03-1.98782E-02
 -1      2660 1.35775E-02-4.85305E-02-6.03462E-01
 -1      2661-2.24079E-02-6.36709E-02-7.82161E-01
 -1      2662 4.91712E-02 2.89070E-02-3.61880E-01
 -1      2663-2.53209E-02-6.10083E-02-1.06790E+00
 -1      2664-5.62018E-02 1.37233E-05-1.65441E+00
 -1      2665 8.79982E-03-7.60747E-03-1.81216E-02
 -1      2666-1.68077E-02 5.27027E-02-3.52224E-01
 -1      2667-5.59533E-02 3.27575E-02-7.05050E-01
 -1      2668-1.97423E-02-3.16641E-02-9.99824E-02
 -1      2669-5.48253E-02 2.65352E-02-5.38251E-01
 -1      2670-1.86505E-02 6.08669E-02-6.35798E-01
 -1      2671 0.00000E+00 0.00000E+00 0.00000E+00
 -1      2672-2.98306E-02-3.65460E-03-5.91769E-02
 -1      2673 2.15854E-02-1.46370E-02-8.11564E-02
 -1      2674 0.00000E+00 0.00000E+00 0.00000E+00
 -1      2675-2.04358E-02 4.16052E-02-4.75760E-01
 -1      2676-2.95102E-02 3.73317E-02-4.30690E-01
 -1      2677 2.54153E-02 3.15790E-02-2.09969E-01
 -1      2678 5.21064E-02-3.71620E-02-1.40531E+00
 -1      2679-3.31716E-02-4.16000E-02-3.48572E-01
 -1      2680-5.43033E-02-3.06028E-02-4.66929E-01
 -1      2681-3.36136E-02-4.68317E-02-4.32883E-01
 -1      2682-2.12526E-03-5.60012E-02-1.72571E+00
 -1      2683 2.94558E-02-4.32830E-02-7.86414E-01
 -1      2684 4.41882E-02 4.87148E-02-5.83282E-01
 -1      2685-3.57667E-02 5.14573E-02-1.39536E+00
 -1      2686-5.11342E-02 4.15576E-02-9.52417E-01
 -1      2687-2.83738E-02-1.70838E-02-1.64877E-01
 -1      2688-2.84875E-03-5.72879E-03-1.67793E-02
 -1      2689-4.59449E-02-2.06351E-02-1.87096E+00
 -1      2690 4.59765E-02 2.06346E-02-2.41849E-01
 -1      2691 2.12203E-02 5.97158E-02-4.56969E-01
 -1      2692 2.93407E-02 1.77415E-02-1.21301E-01
 -1      2693 3.70537E-02 2.45474E-02-2.73331E-01
 -1      2694 4.77296E-02 4.75449E-02-1.20926E+00
 -1      2695 1.68301E-02 6.04935E-02-1.43310E+00
 -1      2696-1.86570E-03-1.20928E-02-2.10117E+00
 -1      2697 1.58287E-02 3.87720E-03-2.08247E+00
 -1      2698-8.96185E-03 1.75695E-02-2.08080E+00
 -1      2699-2.12023E-02 1.19191E-02-2.05290E+00
 -1      2700 4.23682E-02-2.07045E-03-1.65388E-01
 -1      2701-4.64513E-02 4.66249E-02-1.03526E+00
 -1      2702 6.65643E-02 6.28609E-03-1.30707E+00
 -1      2703-4.21571E-02 5.09878E-02-1.02079E+00
 -1      2704 2.35634E-02 2.31910E-02-1.18602E-01
 -1      2705 5.48866E-03 5.61043E-02-1.74601E+00
 -1      2706 1.10971E-02 5.83742E-02-1.62595E+00
 -1      2707-2.09676E-02-1.34501E-02-1.01291E-01
 -1      2708-3.86111E-02 4.11760E-02-1.71403E+00
 -1      2709 3.73313E-02 1.71333E-02-1.98126E+00
 -1      2710-6.87652E-03-2.45632E-03-1.74533E-02
 -1      2711-9.36000E-04-3.97974E-02-1.67304E-01
 -1      2712 2.44321E-03 5.16748E-02-2.64340E-01
 -1      2713 5.87986E-04 3.09838E-02-1.10390E-01
 -1      2714-1.39244E-02 6.46100E-02-1.17549E+00
 -1      2715-5.23097E-02-2.64176E-02-3.83947E-01
 -1      2716 2.09226E-02 4.15790E-02-1.71285E-01
 -1      2717 7.80124E-03 4.74631E-03-7.95881E-03
 -1      2718-3.77613E-02 5.52548E-02-8.67593E-01
 -1      2719-4.09737E-02-2.46634E-02-2.26729E-01
 -1      2720 2.48736E-02 1.93454E-02-8.91290E-02
 -1      2721 1.44017E-02 7.59336E-03-3.74792E-02
 -1      2722-5.04467E-03-1.11287E-02-2.33832E-02
 -1      2723 6.17948E-02-4.46315E-03-4.28401E-01
 -1      2724-3.04293E-02 1.18750E-02-2.00107E+00
 -1      2725 3.20813E-02-4.02260E-02-8.19451E-01
 -1      2726 1.29221E-02-5.25949E-02-1.77804E+00
 -1      2727-5.82585E-02 2.22529E-02-1.37098E+00
 -1      2728 4.40580E-02 3.35392E-02-3.59771E-01
 -1      2729 3.85364E-02 5.21308E-02-1.32484E+00
 -1      2730-3.15174E-02-1.85818E-02-1.64999E-01
 -1      2731-1.99915E-02 3.48255E-02-1.96186E+00
 -1      2732-4.46977E-02 2.75659E-02-1.83299E+00
 -1      2733 6.62647E-02-2.89984E-03-1.40492E+00
 -1      2734 3.02038E-02 7.68263E-03-1.27335E-01
 -1      2735-1.34033E-03-6.46601E-02-1.29479E+00
 -1      2736-2.88909E-02-3.95497E-02-2.22517E-01
 -1      2737 6.98179E-03-3.13637E-02-7.15406E-02
 -1      2738-4.59938E-02-4.46654E-02-1.24908E+00
 -1      2739-5.87287E-03-3.73467E-03-1.43915E-02
 -1      2740 1.25387E-02-6.41814E-02-1.25298E+00
 -1      2741-8.74673E-03-6.62249E-02-9.07613E-01
 -1      2742-1.22631E-02-6.38843E-02-6.38278E-01
 -1      2743-4.04414E-02-3.26622E-02-2.98846E-01
 -1      2744 0.00000E+00 0.00000E+00 0.00000E+00
 -1      2745 5.69754E-02 3.88351E-02-7.62937E-01
 -1      2746-3.96446E-02-2.72259E-02-4.11253E-01
 -1      2747-4.99578E-02 3.78297E-02-6.35579E-01
 -1      2748 4.48101E-02 4.00681E-02-4.49504E-01
 -1      2749 5.17564E-02 3.55736E-02-4.50069E-01
 -1      2750 6.73501E-02-2.12972E-02-1.02271E+00
 -1      2751-5.99112E-02-2.71250E-02-1.15966E+00
 -1      2752 0.00000E+00 0.00000E+00 0.00000E+00
 -1      2753 1.73983E-02-5.83327E-02-1.49676E+00
 -1      2754 3.70082E-02 3.42557E-02-3.27801E-01
 -1      2755 3.96852E-02 4.19283E-02-3.91979E-01
 -1      2756-6.51718E-02-1.23093E-02-1.03345E+00
 -1      2757-5.53377E-02-3.42627E-02-5.87544E-01
 -1      2758-2.16656E-02-5.30457E-02-4.04601E-01
 -1      2759-5.83218E-02-1.96925E-03-3.88042E-01
 -1      2760 4.66760E-02-4.47050E-02-1.29475E+00
 -1      2761-1.72411E-03 6.46971E-02-6.50630E-01
 -1      2762-4.45866E-02 6.94145E-03-1.93258E+00
 -1      2763 4.16572E-02-3.25394E-02-6.52890E-01
 -1      2764-1.92639E-02-6.47102E-02-1.02060E+00
 -1      2765 2.56516E-02 4.60117E-02-7.75957E-01
 -1      2766-1.00360E-02-6.50591E-02-1.22500E+00
 -1      2767 1.36042E-02-6.53040E-02-7.78448E-01
 -1      2768 2.43862E-02-1.70292E-02-5.17735E-02
 -1      2769-5.57664E-02 9.99933E-03-1.68736E+00
 -1      2770-3.48042E-02-1.20001E-02-8.92635E-02
 -1      2771-4.17611E-02-1.57730E-02-2.09155E-01
 -1      2772-5.27733E-02-3.32617E-02-4.75133E-01
 -1      2773-5.03980E-02-1.36996E-02-6.97783E-01
 -1      2774-1.74727E-02-1.63076E-02-2.06322E+00
 -1      2775 1.41085E-02-6.08325E-02-1.37542E+00
 -1      2776 0.00000E+00 0.00000E+00 0.00000E+00
 -1      2777 2.07578E-02-5.33129E-02-1.65958E+00
 -1      2778 3.08806E-02 6.26321E-02-8.71160E-01
 -1      2779 6.29500E-02 1.74691E-02-6.36212E-01
 -1      2780-2.54931E-02 2.70285E-02-1.72111E-01
 -1      2781-4.93975E-02-3.78854E-02-1.38385E+00
 -1      2782 5.35379E-02 2.70932E-03-5.92123E-01
 -1      2783-6.21712E-02-2.38717E-02-9.60564E-01
 -1      2784 4.88511E-02 4.75782E-02-8.92818E-01
 -1      2785 1.65187E-02 3.79633E-02-2.49808E-01
 -1      2786-3.53432E-02-5.33979E-02-6.19306E-01
 -1      2787 4.23511E-02-4.97483E-02-9.41857E-01
 -1      2788 3.07859E-02 4.09744E-02-8.46032E-01
 -1      2789-3.12092E-02 5.60087E-02-6.59516E-01
 -1      2790-5.05412E-02-3.49974E-03-6.99397E-01
 -1      2791 4.45095E-02 2.62469E-02-8.47204E-01
 -1      2792-2.02388E-02-5.57607E-02-4.68686E-01
 -1      2793 5.74042E-02-3.80863E-02-8.98496E-01
 -1      2794-3.74793E-02 1.09261E-02-2.89082E-01
 -1      2795-3.07007E-02-6.50500E-03-1.28512E-01
 -1      2796-2.51871E-02 4.34109E-02-5.88054E-01
 -1      2797-2.61854E-02 4.06248E-02-9.95129E-01
 -1      2798 6.77494E-02 1.19754E-02-9.66218E-01
 -1      2799-2.84678E-02 5.92954E-02-9.52701E-01
 -1      2800 0.00000E+00 0.00000E+00 0.00000E+00
 -1      2801-4.64015E-02 4.04051E-02-1.45483E+00
 -1      2802 2.10060E-02 4.57574E-02-4.10586E-01
 -1      2803 4.54498E-02 5.06969E-02-1.09359E+00
 -1      2804-3.45551E-02 5.64602E-02-1.06567E+00
 -1      2805-3.30953E-02-3.84531E-02-5.71371E-01
 -1      2806-3.74813E-02-2.26820E-02-2.70550E-01
 -1      2807 3.61942E-02-5.28022E-02-1.29284E+00
 -1      2808-5.71416E-02-2.24207E-02-1.46943E+00
 -1      2809-1.55287E-02-3.39099E-02-1.47434E-01
 -1      2810 3.04944E-02 5.63565E-02-1.42603E+00
 -1      2811-1.20364E-02-4.23640E-02-2.16484E-01
 -1      2812 6.13170E-02 2.68244E-02-7.20849E-01
 -1      2813-5.11807E-02-4.19996E-02-1.00956E+00
 -1      2814 5.01021E-02-4.49359E-02-9.70334E-01
 -1      2815-4.71026E-02-3.90115E-02-5.17575E-01
 -1      2816 3.30008E-02 2.90410E-02-2.06397E-01
 -1      2817 4.63337E-02-3.79537E-02-4.56745E-01
 -1      2818 3.18183E-02 3.88633E-02-5.74587E-01
 -1      2819 2.83131E-02 3.21412E-02-3.36304E-01
 -1      2820-5.31622E-02-7.76237E-03-1.75079E+00
 -1      2821 2.98768E-02-5.46700E-02-5.23733E-01
 -1      2822-1.36850E-02 4.74479E-02-1.90045E+00
 -1      2823 6.57000E-02 1.74404E-02-9.16160E-01
 -1      2824-1.45664E-02-6.30462E-02-1.28690E+00
 -1      2825 0.00000E+00 0.00000E+00 0.00000E+00
 -1      2826-4.10259E-02-2.30906E-02-3.76598E-01
 -1      2827-5.57693E-02 3.33765E-02-8.52971E-01
 -1      2828 4.92531E-02 3.86204E-02-4.91704E-01
 -1      2829 4.53719E-02-2.49202E-02-7.98100E-01
 -1      2830 4.85796E-02 4.59804E-02-6.66249E-01
 -1      2831-4.02805E-02 5.01936E-02-1.28568E+00
 -1      2832 2.51947E-02 5.43786E-02-4.09169E-01
 -1      2833 3.24680E-02 2.89263E-02-2.89389E-01
 -1      2834 2.24304E-02 1.89598E-02-2.04580E+00
 -1      2835 3.10783E-02-3.37613E-03-2.04362E+00
 -1      2836-4.62327E-02-3.08542E-02-3.18465E-01
 -1      2837-5.45991E-02-2.99613E-02-5.19982E-01
 -1      2838-3.96808E-02 5.05724E-02-7.38418E-01
 -1      2839 3.53699E-02-3.71297E-02-7.06143E-01
 -1      2840-6.05376E-02 1.75132E-02-1.24600E+00
 -1      2841 4.03380E-02 2.77135E-02-2.10661E-01
 -1      2842-5.05216E-02 4.10293E-02-7.41974E-01
 -1      2843 1.20772E-03-6.17578E-02-1.47115E+00
 -1      2844-4.21155E-02-4.76771E-02-1.27840E+00
 -1      2845 3.61731E-03-6.54747E-02-1.19326E+00
 -1      2846-4.06023E-02-3.13559E-02-5.70151E-01
 -1      2847-2.21349E-03-6.31052E-02-1.41150E+00
 -1      2848-4.58616E-02 4.08780E-02-6.00664E-01
 -1      2849 4.67059E-02-4.22356E-02-1.43069E+00
 -1      2850-4.75958E-02 1.63673E-02-1.85637E+00
 -1      2851-1.10310E-02-6.61227E-02-1.03688E+00
 -1      2852 1.04266E-02 4.81710E-02-9.96169E-01
 -1      2853-3.00594E-02-5.76941E-02-7.43128E-01
 -1      2854-5.83885E-02 9.78569E-03-1.54479E+00
 -1      2855-5.06306E-02-1.46940E-02-5.21984E-01
 -1      2856 8.33911E-03-6.29628E-02-1.33621E+00
 -1      2857 6.47092E-02 1.53216E-02-7.16066E-01
 -1      2858 5.48179E-02 1.78557E-02-4.92635E-01
 -1      2859-2.78329E-02 4.09748E-02-8.59949E-01
 -1      2860-5.01561E-02-1.01155E-02-8.44512E-01
 -1      2861-1.70760E-02-4.34411E-02-2.39068E-01
 -1      2862 3.95904E-02 4.90465E-02-1.46068E+00
 -1      2863 9.21194E-03 3.33285E-02-1.89934E-01
 -1      2864-4.85246E-02-4.29388E-02-1.15208E+00
 -1      2865 2.78945E-02 4.23357E-02-5.67572E-01
 -1      2866 6.73823E-02 1.28120E-02-8.41385E-01
 -1      2867 3.62219E-02 3.15019E-02-2.42418E-01
 -1      2868 3.18096E-02 1.91533E-02-1.58420E-01
 -1      2869-6.01879E-02 3.62831E-03-1.47559E+00
 -1      2870-5.11372E-02-7.71776E-03-5.29289E-01
 -1      2871 4.30441E-02-4.99685E-02-7.81025E-01
 -1      2872-4.89143E-02-9.94263E-03-9.77632E-01
 -1      2873 6.22705E-02 7.15217E-03-4.65633E-01
 -1      2874-3.18058E-02 3.82781E-02-7.31274E-01
 -1      2875-4.71402E-02-6.37367E-03-4.04414E-01
 -1      2876 5.63512E-02 5.77049E-03-3.59511E-01
 -1      2877 6.73164E-03 2.62356E-02-2.02968E+00
 -1      2878-1.58405E-02-2.22967E-02-2.02218E+00
 -1      2879-1.49507E-02-3.32243E-02-1.96454E+00
 -1      2880 8.61721E-04-2.26290E-02-2.04506E+00
 -1      2881 4.06749E-02 3.00601E-02-1.94083E+00
 -1      2882-2.74146E-02 1.68417E-02-1.99418E+00
 -1      2883-2.82620E-02 6.83058E-04-2.03282E+00
 -1      2884 2.93816E-02 4.78386E-03-2.03328E+00
 -1      2885-4.07248E-04-4.23951E-02-1.95435E+00
 -1      2886 2.33123E-02-1.88271E-02-2.03611E+00
 -1      2887 1.67212E-02 3.05138E-02-2.01452E+00
 -1      2888 1.55648E-02 3.89306E-02-1.97472E+00
 -1      2889-2.24565E-02-1.30351E-02-2.04647E+00
 -1      2890 2.56412E-02 1.42037E-02-2.03027E+00
 -1      2891-3.95128E-02-8.85007E-03-1.96237E+00
 -1      2892 8.91832E-03-4.69261E-02-1.92805E+00
 -1      2893-3.15427E-02-2.67229E-02-1.94598E+00
 -1      2894 2.98540E-02 3.17433E-03-2.03208E+00
 -1      2895 3.24520E-02-2.17424E-03-2.02077E+00
 -1      2896 3.81852E-02 1.27583E-02-1.98962E+00
 -1      2897-7.05168E-03 2.58943E-02-2.03692E+00
 -1      2898-2.78464E-02-1.05031E-02-2.01182E+00
 -1      2899 2.74211E-02-1.32790E-02-2.03559E+00
 -1      2900 2.73186E-02-3.11911E-02-1.96902E+00
 -1      2901-3.26111E-02 4.18435E-03-1.99214E+00
 -1      2902 7.05988E-03-2.85709E-02-2.02138E+00
 -1      2903 5.02970E-03 4.06377E-02-1.97761E+00
 -1      2904-2.18236E-02-1.79888E-02-2.01237E+00
 -1      2905 4.13040E-02 2.50871E-03-1.98247E+00
 -1      2906 2.00829E-02-2.32488E-02-2.01696E+00
 -1      2907 1.21884E-02-4.26091E-02-1.94648E+00
 -1      2908 2.33641E-02 1.47566E-02-2.04669E+00
 -1      2909-6.86314E-03 4.69184E-02-1.93453E+00
 -1      2910 1.64445E-02-3.57914E-02-1.97709E+00
 -1      2911-4.13530E-02 1.55287E-02-1.93398E+00
 -1      2912 1.62287E-02 2.56380E-02-2.02514E+00
 -1      2913-2.07251E-02-2.88682E-02-1.97771E+00
 -1      2914-8.03111E-03-2.39224E-02-2.03347E+00
 -1      2915 4.43880E-02 2.33794E-02-1.92860E+00
 -1      2916-2.76269E-02-1.10710E-02-2.03989E+00
 -1      2917-3.00394E-02-4.56875E-03-2.01426E+00
 -1      2918-1.17650E-02 3.69259E-02-1.96099E+00
 -1      2919-1.08680E-02-4.01531E-02-1.95679E+00
 -1      2920-2.19859E-02 4.60690E-02-1.88492E+00
 -1      2921-1.91794E-02 2.09270E-02-2.03167E+00
 -1      2922 3.28932E-02-1.49397E-02-1.99691E+00
 -1      2923 3.01848E-02-1.66173E-02-2.00360E+00
 -1      2924-2.21303E-02-3.78439E-02-1.93743E+00
 -1      2925 3.92132E-02 2.46157E-02-1.96348E+00
 -1      2926 2.98660E-02 1.90330E-02-2.00808E+00
 -1      2927 3.26049E-02 3.51106E-02-1.93330E+00
 -1      2928-1.75408E-02-2.21763E-02-2.03750E+00
 -1      2929-1.53334E-02-2.74507E-02-2.01090E+00
 -1      2930 3.73225E-02-1.14569E-02-1.98912E+00
 -1      2931-2.92724E-02 6.75246E-03-2.02328E+00
 -1      2932 4.39890E-02-2.09472E-02-1.93823E+00
 -1      2933 5.22050E-02-1.02908E-02-1.87596E+00
 -1      2934 4.61458E-02-1.27808E-02-1.93300E+00
 -1      2935-3.95591E-02 9.95143E-03-1.95837E+00
 -1      2936-1.45340E-02 2.47533E-02-2.01982E+00
 -1      2937-1.16580E-03 3.22042E-02-2.02833E+00
 -1      2938 2.37080E-03-2.22602E-02-2.05792E+00
 -1      2939-5.36970E-03 3.04825E-02-2.01100E+00
 -1      2940 3.48204E-02-7.71315E-03-2.00476E+00
 -1      2941-3.79569E-03-2.65855E-02-2.01880E+00
 -1      2942 2.63794E-02 1.97173E-02-2.01312E+00
 -1      2943-2.74281E-02-1.83539E-02-1.97715E+00
 -1      2944-1.57628E-02 2.15973E-02-2.02004E+00
 -1      2945-2.67508E-02 1.57319E-02-2.02318E+00
 -1      2946-1.74355E-02 3.01788E-02-1.99876E+00
 -1      2947-1.17865E-02 3.06154E-02-2.00050E+00
 -1      2948 5.38926E-02 1.24175E-01-1.87808E+00
 -1      2949-1.90628E-02-4.53953E-02-1.88995E+00
 -1      2950-3.52127E-02 3.74045E-02-1.88643E+00
 -1      2951-2.35059E-02-1.99518E-02-2.02321E+00
 -1      2952 4.73306E-03 3.43253E-02-2.00029E+00
 -1      2953 2.50977E-02 3.58821E-02-1.97018E+00
 -1      2954 2.82839E-02-2.26770E-02-1.99985E+00
 -1      2955-2.92908E-02-2.12545E-02-1.99691E+00
 -1      2956-2.91461E-02 2.75375E-02-1.97523E+00
 -1      2957 2.08085E-02 2.62106E-02-1.99783E+00
 -1      2958-3.47695E-02-3.31656E-02-1.90339E+00
 -1      2959 3.09951E-02 1.21884E-02-2.00909E+00
 -1      2960-3.88777E-02 2.46504E-03-1.96278E+00
 -1      2961 1.12261E-02-3.31851E-02-1.99892E+00
 -1      2962 1.28089E-01 4.94653E-02-1.87922E+00
 -1      2963 1.14380E-01 4.50140E-02-1.97368E+00
 -1      2964 3.86264E-02-7.62205E-03-1.98502E+00
 -1      2965 1.22757E-01 4.88780E-02-1.88610E+00
 -1      2966-4.60067E-02 1.20285E-01-1.88852E+00
 -1      2967 3.43862E-02-1.97217E-02-1.98242E+00
 -1      2968 1.21691E-01-5.13732E-02-1.87848E+00
 -1      2969 3.48630E-02 3.46007E-03-1.99961E+00
 -1      2970 4.75262E-02 1.94705E-02-1.92614E+00
 -1      2971-9.41048E-02 9.72995E-02-1.88880E+00
 -1      2972-8.35248E-02 8.66501E-02-1.98247E+00
 -1      2973-1.39020E-01-5.72242E-02-1.87331E+00
 -1      2974-1.13844E-01-4.72112E-02-1.97743E+00
 -1      2975 9.89056E-02 9.42150E-02-1.87873E+00
 -1      2976 8.61846E-02 8.54215E-02-1.90098E+00
 -1      2977-3.66836E-02 1.62730E-02-1.95683E+00
 -1      2978-1.24117E-03 3.68578E-02-2.00033E+00
 -1      2979 1.63921E-02-4.39590E-02-1.93327E+00
 -1      2980-1.46147E-03 4.35026E-02-1.94627E+00
 -1      2981 8.94043E-02 3.72926E-02-1.92335E+00
 -1      2982-3.67542E-02 3.22638E-02-1.91836E+00
 -1      2983 4.79594E-02 1.11138E-01-1.97185E+00
 -1      2984 2.96465E-02 1.65765E-02-2.00159E+00
 -1      2985-4.07622E-02 1.13268E-01-1.97692E+00
 -1      2986-3.38338E-02 2.47221E-03-2.00324E+00
 -1      2987-1.27330E-01 4.93149E-02-1.88592E+00
 -1      2988 1.01135E-01-9.29558E-02-1.87703E+00
 -1      2989 9.10555E-02-8.29097E-02-1.97109E+00
 -1      2990-3.47050E-02 7.07815E-03-1.99948E+00
 -1      2991 3.91505E-03-1.46263E-01-1.87846E+00
 -1      2992 3.24952E-03-1.20032E-01-1.97846E+00
 -1      2993-5.07243E-03-3.34278E-02-1.99796E+00
 -1      2994 3.64444E-02-3.77331E-02-1.88740E+00
 -1      2995-4.89908E-02-1.24795E-01-1.88859E+00
 -1      2996-3.39636E-02-1.30399E-02-2.00363E+00
 -1      2997-2.46964E-02 2.36984E-02-2.00535E+00
 -1      2998-9.87197E-02-9.46784E-02-1.88603E+00
 -1      2999 5.24434E-02 4.34265E-03-1.91370E+00
 -1      3000 1.07099E-02 2.97983E-02-2.00040E+00
 -1      3001 1.32406E-01 1.26346E-03-1.88416E+00
 -1      3002 8.01122E-03-3.34923E-02-1.99573E+00
 -1      3003-4.32591E-02-1.10754E-01-1.98128E+00
 -1      3004 5.36352E-02-1.19065E-01-1.88367E+00
 -1      3005 7.40308E-02 6.60682E-02-1.91830E+00
 -1      3006-4.66407E-02 1.26783E-01-1.88457E+00
 -1      3007 9.35437E-02 3.54012E-02-1.91891E+00
 -1      3008-2.90034E-02 2.06734E-02-2.00012E+00
 -1      3009 3.55669E-02 8.60607E-03-1.99000E+00
 -1      3010 4.57223E-03-1.28638E-01-1.88926E+00
 -1      3011 4.78078E-02-1.11638E-01-1.97385E+00
 -1      3012 5.09017E-03-9.32066E-02-1.92585E+00
 -1      3013-3.35644E-02 8.82799E-02-1.92657E+00
 -1      3014 7.49455E-02-6.46946E-02-1.91560E+00
 -1      3015 1.14226E-01-4.61162E-02-1.96945E+00
 -1      3016 8.79831E-02 8.40818E-02-1.97234E+00
 -1      3017-1.26948E-01-5.09025E-02-1.88285E+00
 -1      3018-9.12536E-02-3.47358E-02-1.92251E+00
 -1      3019 5.48225E-02-1.25176E-01-1.88315E+00
 -1      3020-2.01134E-02-3.07712E-02-1.99320E+00
 -1      3021-1.13110E-01 4.35193E-02-1.98209E+00
 -1      3022 2.44234E-02-2.86930E-02-1.99305E+00
 -1      3023-9.08409E-02 9.21398E-02-1.89267E+00
 -1      3024-6.70056E-02 7.12309E-02-1.92816E+00
 -1      3025-4.94436E-03 3.57514E-02-1.99174E+00
 -1      3026 3.47614E-03 1.35947E-01-1.88096E+00
 -1      3027 1.23182E-04 1.21428E-01-1.90256E+00
 -1      3028 4.12792E-02 8.82102E-02-1.91753E+00
 -1      3029 2.99521E-02 2.05342E-02-1.99192E+00
 -1      3030 1.22191E-01 5.52905E-04-1.97198E+00
 -1      3031 5.08506E-02 1.20531E-01-1.88292E+00
 -1      3032-8.76142E-02-8.49404E-02-1.97827E+00
 -1      3033-3.02011E-02 9.27523E-02-1.92318E+00
 -1      3034 3.48297E-02 8.87652E-02-1.92111E+00
 -1      3035 1.00893E-01-9.33118E-02-1.87871E+00
 -1      3036 7.23652E-02-6.77813E-02-1.91885E+00
 -1      3037-9.90146E-02-4.18236E-02-1.91732E+00
 -1      3038 2.20503E-03-1.04807E-01-1.92149E+00
 -1      3039-3.48377E-02-7.93286E-03-1.99529E+00
 -1      3040-1.48984E-01-3.58311E-03-1.87236E+00
 -1      3041-1.22206E-01-2.33490E-03-1.97905E+00
 -1      3042 8.08731E-03 3.51474E-02-1.98819E+00
 -1      3043-4.79842E-02-1.18422E-01-1.89211E+00
 -1      3044-3.26657E-02-9.04830E-02-1.92792E+00
 -1      3045-3.60894E-02-8.55000E-02-1.92946E+00
 -1      3046 5.81422E-02 5.62258E-02-1.97113E+00
 -1      3047 3.76131E-02-9.15080E-02-1.92216E+00
 -1      3048-6.65760E-02 6.59172E-02-1.93084E+00
 -1      3049 8.86978E-02-3.79776E-02-1.91702E+00
 -1      3050 1.28009E-01-5.24488E-02-1.87668E+00
 -1      3051 2.63535E-03 1.21683E-01-1.97404E+00
 -1      3052-9.22273E-02 3.35436E-02-1.92581E+00
 -1      3053-1.25546E-01 4.94595E-02-1.89028E+00
 -1      3054-8.87750E-02 3.70755E-02-1.92931E+00
 -1      3055-9.90586E-02-9.43756E-02-1.88066E+00
 -1      3056-7.17766E-02-6.63456E-02-1.92155E+00
 -1      3057-6.85097E-02-7.03103E-02-1.92552E+00
 -1      3058 9.57120E-02 3.98090E-03-1.92206E+00
 -1      3059 1.31272E-01-9.45092E-04-1.87976E+00
 -1      3060-1.31524E-01-1.94184E-03-1.89147E+00
 -1      3061-1.05862E-01-3.38428E-03-1.91622E+00
 -1      3062-9.56442E-02 1.92433E-03-1.92984E+00
 -1      3063 9.36649E-02-3.59385E-02-1.91600E+00
 -1      3064 5.96846E-03 9.85808E-02-1.92018E+00
 -1      3065-2.59093E-04 8.74355E-02-1.93162E+00
 -1      3066 9.64478E-02-2.15738E-03-1.91855E+00
 -1      3067 3.61522E-03-3.21310E-04-1.93942E+00
 -1      3068 2.30763E-03-3.03378E-03-1.95137E+00
 -1      3069 2.53411E-03 6.61233E-04-2.00072E+00
 -1      3070-8.60804E-05-4.30518E-04-1.95127E+00
 -1      3071 1.52438E-04 3.37297E-04-1.95208E+00
 -1      3072 1.95178E-03 7.67418E-04-1.99351E+00
 -1      3073-6.50783E-04 1.80761E-03-1.94410E+00
 -1      3074 4.59731E-04 1.10908E-03-1.99644E+00
 -1      3075 2.31701E-03 3.03534E-04-1.94973E+00
 -1      3076-1.18377E-03 6.83968E-03-1.96893E+00
 -1      3077 1.31153E-04 7.89761E-04-2.00454E+00
 -1      3078 2.59173E-03 7.86117E-04-1.98896E+00
 -1      3079-5.97345E-03 1.03086E-02-1.97891E+00
 -1      3080-5.40905E-04-2.62944E-03-1.95936E+00
 -1      3081 9.90803E-04-2.72587E-03-1.96009E+00
 -1      3082 1.96525E-03 5.94505E-04-1.94624E+00
 -1      3083 2.08820E-03-3.61123E-03-1.96989E+00
 -1      3084-7.89179E-04 1.08726E-03-2.00031E+00
 -1      3085 1.38143E-02-1.74551E-02-1.95786E+00
 -1      3086-1.28957E-02 3.46712E-03-1.97703E+00
 -1      3087-4.46784E-03-4.12119E-03-1.94841E+00
 -1      3088 1.98310E-03 3.63981E-04-1.94383E+00
 -1      3089-1.35338E-02-2.64939E-03-1.97853E+00
 -1      3090 1.42526E-03-4.66982E-04-2.00211E+00
 -1      3091 3.94071E-03-6.01399E-04-1.98615E+00
 -1      3092 1.41604E-02 1.74342E-02-1.95430E+00
 -1      3093 9.60339E-04 1.45236E-04-1.99667E+00
 -1      3094-2.18925E-03-1.30592E-02-1.97854E+00
 -1      3095-1.69866E-02-1.20153E-02-1.98717E+00
 -1      3096 5.65919E-03 4.52403E-03-1.93769E+00
 -1      3097 3.14428E-03 2.82131E-03-1.93049E+00
 -1      3098 2.68281E-03-5.89341E-04-1.95445E+00
 -1      3099-1.15981E-03 2.08070E-03-2.00402E+00
 -1      3100 9.03264E-04 1.87079E-03-1.95141E+00
 -1      3101-9.92425E-03 7.48666E-03-1.98011E+00
 -1      3102 1.26561E-02 3.59648E-03-1.97209E+00
 -1      3103 1.57349E-02-8.07062E-03-1.96370E+00
 -1      3104 2.92191E-03 8.09423E-04-1.94111E+00
 -1      3105-5.54622E-04-2.53009E-03-1.99796E+00
 -1      3106-1.00636E-02-1.75531E-02-1.96443E+00
 -1      3107 7.35113E-03-7.29411E-03-1.99708E+00
 -1      3108 1.14296E-02 1.28729E-02-1.98482E+00
 -1      3109 4.79983E-03 4.01377E-03-1.93661E+00
 -1      3110-2.24836E-03 8.99857E-03-1.94146E+00
 -1      3111 1.39573E-03 4.32449E-03-1.93826E+00
 -1      3112 1.86580E-02 1.21994E-02-1.95491E+00
 -1      3113 1.61164E-02-2.18838E-03-1.96737E+00
 -1      3114 3.85576E-03 1.28060E-02-1.97196E+00
 -1      3115 9.21225E-03-2.72596E-03-1.92704E+00
 -1      3116-7.11343E-03-1.82878E-03-1.93431E+00
 -1      3117 7.79168E-05-8.87609E-03-1.94318E+00
 -1      3118-7.37957E-04-6.02147E-03-1.93916E+00
 -1      3119 9.70099E-03 2.36155E-03-1.93613E+00
 -1      3120-3.95404E-03-4.29968E-03-1.93618E+00
 -1      3121 1.08342E-02-5.26996E-03-1.93146E+00
 -1      3122 3.76675E-03 1.12459E-02-1.93607E+00
 -1      3123-2.75799E-03 1.99484E-02-1.95981E+00
 -1      3124 7.78748E-04-1.02882E-03-1.93517E+00
 -1      3125 3.81698E-03-1.82675E-02-1.95990E+00
 -1      3126-4.98894E-03 1.34024E-03-1.93852E+00
 -1      3127-7.73327E-03 3.15171E-03-1.94270E+00
 -1      3128-5.82795E-03 4.78073E-03-1.94556E+00
 -1      3129 1.57945E-03 1.40057E-03-1.97080E+00
 -1      3130-1.39058E-03 1.95351E-02-1.98295E+00
 -1      3131 5.01694E-03-1.58327E-02-1.98535E+00
 -1      3132 1.67362E-02 9.79605E-03-1.98231E+00
 -3
    1PSTEP                         2           1           1          
  100CL  101 1.000000000        3132                     0    1           1
 -4  STRESS      6    1
 -5  SXX         1    4    1    1
 -5  SYY         1    4    2    2
 -5  SZZ         1    4    3    3
 -5  SXY         1    4    1    2
 -5  SYZ         1    4    2    3
 -5  SZX         1    4    3    1
 -1         1-3.03647E+01-3.61425E+01-1.96680E+01 1.13079E+00-4.21705E-01-5.64855E+00
 -1         2-1.03120E+00-5.02897E-02-6.63844E-01-1.80122E-01-3.81208E-02-8.72323E-01
 -1         3-7.81683E-01-5.68827E-01-6.49301E-01-7.72943E-02-1.32317E-01-1.16929E+00
 -1         4-1.13739E+00-7.49878E-01 1.84889E-01 2.78971E-01-2.93174E-01 3.17039E-01
 -1         5-1.66737E+00-7.61432E-01 4.53097E-02 1.78721E-03-1.27517E-01 5.99694E-01
 -1         6-5.14610E+00-1.92150E+00 2.58926E-01 3.44940E-01 9.94648E-02 2.78229E-02
 -1         7-1.33393E+00-5.06867E-01-7.66464E-01-5.00363E-01-3.02298E-01 4.03276E-01
 -1         8 4.94898E-01-7.18921E-02 3.20253E-01-1.84562E-01 1.48468E-01-3.98111E-01
 -1         9-1.35653E+00-3.73491E-01 1.69522E-01 4.05362E-01-8.51438E-02 4.05414E-01
 -1        10 8.16923E-01-1.10777E+00 1.04448E+00-1.93158E-01 4.44982E-02 2.37285E+00
 -1        11 3.90204E-01 1.22636E-01 5.21141E-01-1.80837E-01 2.32608E-01-4.42383E-01
 -1        12 3.87760E-01-1.37429E+00 5.18589E-01-1.57242E-01-4.54818E-01 8.94805E-01
 -1        13-4.17348E+00-1.66057E+00 1.36497E-01 8.97642E-01-6.36856E-01 2.76343E-01
 -1        14 1.19376E-01-3.17379E+00-6.04423E-01-2.16659E-01-4.63207E-01 1.38998E+00
 -1        15-2.27833E+00-1.18381E+00-3.22951E-01 1.54053E+00-3.95347E-01 2.85931E-01
 -1        16-2.21588E+00-8.61702E-01-4.96064E-01-1.17529E+00 2.42725E-01-1.80925E-01
 -1        17-8.37888E-01-1.74877E+00 9.40880E-01-9.10844E-02 2.97485E-01 8.94594E-01
 -1        18-1.91319E+00-4.65343E+00 5.67029E-01 4.64947E-02 6.35796E-01 1.11248E+00
 -1        19-9.25131E-01-6.82112E-01 3.74933E-02-4.40340E-01 1.32987E-01 6.59199E-01
 -1        20 7.32740E-01 2.40655E-01 5.57151E-01 2.83294E-01-2.84629E-01-6.31774E-01
 -1        21-2.02021E+00-7.28226E-01 1.18071E+00 3.42692E-01 7.79299E-02 2.22205E-01
 -1        22-1.34070E+00-5.70642E-01 7.53727E-02-2.44124E-01 5.62705E-03 5.56942E-01
 -1        23-1.40899E+00 1.14891E-01 1.29304E-01-1.39285E-01-1.55811E-01 5.48597E-01
 -1        24 8.74517E-01-8.04862E-01 6.29686E-02 1.01537E+00 1.13715E+00 9.55197E-01
 -1        25 7.44886E-01 2.26719E-01 5.76927E-01 3.08257E-01-2.33880E-01-6.48669E-01
 -1        26-3.92916E+00-2.53836E+00 2.90074E-01-1.31860E+00 4.33994E-01-5.59264E-02
 -1        27-5.24206E-01-3.46522E-01-1.06824E+00-3.66119E-01-3.18149E-01-8.95579E-01
 -1        28-9.27703E-01-5.79357E-01-2.76193E-01-1.23841E-01-3.41092E-01-1.18426E+00
 -1        29-3.69401E+00-1.34675E+00 8.87946E-01-5.82833E-01 1.69702E-01 1.42081E-01
 -1        30-1.63430E+00-5.61239E+00 5.74937E-02 1.32283E+00-1.34502E+00 1.21548E+00
 -1        31-1.51989E+00-4.07152E+00-2.27740E+00 8.92014E-01-7.79452E-02 1.87430E-01
 -1        32-2.21444E-01-1.64408E+00 5.60387E-01 3.56018E-01 1.06641E-03 8.41774E-01
 -1        33-1.05159E+00-2.60669E+00-8.42521E-01-1.35802E+00 8.02360E-01-3.46740E-02
 -1        34-1.16950E+00-1.34929E+00-2.79638E-01-3.08095E-01 5.84979E-01 5.87872E-01
 -1        35-8.15136E-01-7.89236E-01-5.71812E-01-6.18972E-01 3.04342E-02 4.57617E-01
 -1        36-1.36120E+00-2.32261E+00-4.38209E-01 3.47820E-02 7.86719E-01 1.46677E+00
 -1        37-6.25487E-01-1.42420E+00 3.87008E-02-3.30561E-02 4.09403E-01 9.13285E-01
 -1        38-1.37493E+00-8.39735E-01-6.09404E-02-3.92868E-01 3.43795E-01 4.91060E-01
 -1        39-7.57023E-01-8.01760E-01-1.79400E-01-4.85103E-01 3.04210E-01 5.37386E-01
 -1        40 4.56347E-01 5.94557E-01 5.79217E-01 3.69642E-01-5.48451E-01-4.69835E-01
 -1        41-1.21472E+00-1.86357E+00 1.29842E-01 1.57138E+00 5.07050E-01 7.50511E-01
 -1        42-8.41890E-01-2.94271E-01-5.87247E-01-3.01673E-01-6.56883E-01-9.10228E-01
 -1        43-8.73745E-01-1.55997E-01-7.34999E-01-4.17056E-01-2.89580E-01-8.90164E-01
 -1        44 4.05752E-01 5.57246E-01 5.17413E-01 3.46859E-01-4.08567E-01-4.57684E-01
 -1        45-3.37546E+00-2.95884E+00 3.81526E-01-1.48860E+00 1.46530E-01 2.48604E-01
 -1        46-1.04799E+00-2.43524E+00 4.54990E-01-3.34667E-02 5.09190E-01-5.02304E-01
 -1        47-1.99272E+00-3.53311E+00 6.43975E-01-1.25958E+00 4.33291E-01 1.41351E-01
 -1        48-3.31751E-01-8.60837E-01-3.93705E-01-4.52861E-01 3.66036E-01 3.41766E-01
 -1        49-1.51002E+00-3.23354E-01-2.63365E-01-6.19564E-01 2.59328E-01 3.63155E-01
 -1        50-2.13996E+00-1.49742E+00 2.09107E-01 4.61442E-01 4.26292E-01 7.04338E-01
 -1        51-2.50029E+00 1.89081E-01 8.30294E-01-5.88543E-01 5.45421E-01 9.64329E-02
 -1        52-1.08676E+00-1.40288E+00-1.88429E+00 3.24675E-01-3.08893E-01 1.21598E+00
 -1        53-1.24132E+00-9.83827E-01-6.94270E-01-8.82491E-02 8.43103E-01 6.76238E-01
 -1        54-9.43013E-01-8.94169E-01-5.52691E-01 1.46638E-01-1.19491E+00-5.42774E-01
 -1        55-1.29289E+00-9.53373E-01-1.04086E-01-5.68059E-01 4.54412E-01 2.48770E-01
 -1        56-1.23738E+00-2.37633E+00-8.61775E-03-3.21539E-01 6.39818E-01 2.67403E-01
 -1        57-1.12233E+00-1.67444E+00 6.57052E-02-6.61764E-01 7.23387E-01 1.68226E-01
 -1        58-2.08949E+00-4.28279E+00 5.33418E-01-1.07511E+00 8.22118E-02 1.60377E-01
 -1        59-2.81005E-01-1.14678E+00-7.10346E-01-1.53084E-01-8.87182E-01-5.68975E-01
 -1        60-1.11327E-01 2.59897E-01 3.50637E-01 2.49731E-01-3.14871E-01-2.51986E-01
 -1        61 1.14553E-01 4.22199E-01 2.18410E-01 2.77233E-01-3.49341E-01-1.18294E-01
 -1        62-3.60272E-01 9.63868E-01 4.19814E-01 2.12428E-01 1.67402E+00-1.09983E+00
 -1        63-1.53329E+00-4.27419E+00 4.68153E-01-4.57961E-01 6.81438E-02-1.55910E-01
 -1        64-3.16569E+01-3.35996E+01-1.63566E+01 5.81489E+00-2.70489E+00 3.31902E-01
 -1        65-1.61403E+00-3.80254E-01-1.82764E-01 6.03059E-02 1.06420E+00 6.53627E-01
 -1        66-4.51699E+00-2.05579E+00-3.68817E+00 1.42126E+00-2.49376E-01 7.20139E-02
 -1        67-2.97688E+00 1.00974E+00-3.64149E-01-3.46654E-01 1.05034E+00-5.27763E-01
 -1        68-1.62546E+00-1.17217E+00-5.13337E-01-5.12007E-02 7.39377E-01 6.10517E-01
 -1        69-1.53938E-01-2.26022E+00-4.88660E-01 5.25033E-02 4.29551E-01 2.39341E-01
 -1        70-1.71468E+00-6.17972E-01 7.30024E-01-1.33588E+00 5.13796E-01-5.44500E-02
 -1        71-8.56737E-02-3.34381E+00-2.16954E-02 5.11088E-01 7.21389E-02-2.33619E-02
 -1        72-1.13651E+00-2.45435E+00 2.04447E-01 2.16316E-01 5.34550E-01-2.58200E-01
 -1        73-2.31353E-01 1.04264E-01 6.74706E-02-1.16967E-01-8.38736E-02 9.40918E-02
 -1        74-1.13793E+00-1.50050E+00 3.49624E-01 7.77261E-01 1.85585E-01 3.63989E-02
 -1        75-2.06684E+00-5.15942E+00 1.29268E-01-1.77920E-01 6.01127E-02 1.62123E-01
 -1        76-3.27488E-02 1.29369E-01 2.37433E-01-1.48932E-01-2.09889E-01 9.65366E-02
 -1        77 2.98164E-01-1.30080E+00-3.84157E-03 1.32033E-01 1.33681E+00-1.37266E-01
 -1        78-3.93131E+01-3.39114E+01-1.78445E+01-3.81945E+00-5.17342E+00-4.21753E-01
 -1        79-3.12783E+00 1.06267E-01 3.37187E-01 4.13218E-01 2.09251E-02-3.58210E-01
 -1        80-3.78929E-01-8.82006E-01-5.51176E-01-1.09942E-01-1.19941E+00-1.53295E-01
 -1        81-9.39807E-02-7.65008E-01-8.14310E-01-2.57739E-01-8.90985E-01-2.46733E-01
 -1        82-1.00264E+00-2.12843E+00 5.87858E-01 7.61078E-01 3.16589E-01-1.04930E-01
 -1        83-1.21183E-01-6.91821E-01 5.82704E-02 4.33570E-02 7.82610E-01-4.09067E-01
 -1        84-3.34564E+00 1.29923E-01 2.53750E-01 3.94035E-01 7.33975E-01 5.45913E-01
 -1        85-9.74322E+00-4.07812E+00-4.25282E+00 1.16201E+00 8.69635E-01 1.11202E-02
 -1        86-3.06742E+00-1.48295E+00-5.40023E+00 5.51274E-02-7.18029E-01-7.66612E-01
 -1        87-1.72832E+00-2.04893E+00 7.38835E-01 7.12459E-01 1.17387E-01-5.37238E-01
 -1        88-1.57135E+00-4.72573E+00 6.30666E-01 9.29002E-01 4.20282E-01-3.28983E-01
 -1        89-3.54082E+00-2.55638E+00-8.82035E-01-5.24654E-01 8.47890E-01-1.07190E-01
 -1        90-1.12901E+00-2.44265E+00-4.61166E-01-1.48400E+00 6.83387E-02 3.64698E-01
 -1        91-3.08148E-01-1.31912E+00-5.46672E-01-4.19565E-01 5.05726E-01-8.74045E-02
 -1        92-1.35637E+00-1.01109E+00-7.84272E-01 2.59390E-01-1.24445E+00 4.50461E-01
 -1        93-2.09595E-01-7.70890E-01-5.71852E-01 3.47253E-01-1.07067E+00 3.37442E-01
 -1        94-1.59786E+00-3.61676E+00 1.20004E-01 3.58324E-01 2.19929E-02 6.16654E-01
 -1        95-1.58556E+00-8.02272E-01 1.29162E-02 3.74230E-01 3.08871E-01 1.68785E-01
 -1        96-2.19340E+00-3.65746E+00 3.28677E-01 9.12144E-01 4.26994E-02-2.68950E-01
 -1        97-1.26385E+00-2.03506E+00 9.54603E-02 2.17503E-01 4.69254E-01-4.32621E-01
 -1        98-7.32683E-03 5.16591E-01 5.08293E-01-4.88768E-01-5.34398E-01 3.60984E-01
 -1        99-1.81397E-01-1.86780E+00-6.21000E-01 5.43725E-02 5.14571E-01-3.08533E-01
 -1       100-3.12378E-05 5.10152E-01 2.53911E-01-3.84013E-01-3.83993E-01 3.89812E-01
 -1       101-3.96718E+01-3.16369E+01-1.62595E+01-6.57736E+00-2.58011E+00 1.71473E+00
 -1       102-2.35169E+00-4.53727E-01 1.17031E+00-1.33866E+00 5.34399E-01-5.20438E-01
 -1       103-1.02908E+00-1.16894E+00 4.21992E-01 4.34562E-01 5.34560E-01-2.38923E-01
 -1       104-2.71150E-01-3.16311E-01 2.73016E-01 2.57020E-01 1.14805E+00-5.91099E-01
 -1       105-4.26558E-01-2.97045E+00-9.37716E-01-4.74996E-01 9.83280E-02 5.88108E-01
 -1       106-2.75260E+00-3.98744E-01 6.63329E-01-7.30278E-01 5.81678E-01-9.17902E-01
 -1       107-2.17577E+00-1.53390E+00 6.65452E-01-4.66630E-01 1.26212E+00-1.91574E-01
 -1       108-3.34638E+00-2.58290E+00-1.37103E+00-7.29418E-01 1.72697E+00-4.96444E-01
 -1       109-1.82237E+00-7.34520E-01-1.62246E-01 1.11228E+00 1.38392E-01-3.46671E-01
 -1       110-1.20344E+00-7.84759E-01 8.09156E-02 9.44658E-02 2.10181E-01-6.09956E-01
 -1       111 4.28305E-01 5.53078E-01 6.42372E-01-5.02000E-01-6.00144E-01 5.29172E-01
 -1       112-9.54897E-01-2.60502E+00 6.70713E-01-7.15410E-02 7.10464E-01 4.78289E-01
 -1       113-1.53323E+00-7.95237E-01 1.28288E-01 3.27180E-01 3.18885E-01-3.86326E-01
 -1       114-3.62533E+00-3.37715E+00 3.53098E-01 1.49626E+00 3.06334E-02-2.17138E-01
 -1       115-3.34515E-01-3.69049E-01-6.58418E-01 1.94061E-01 1.56787E-01-4.53360E-01
 -1       116-4.11881E-01-8.48487E-01-6.85667E-01 6.45387E-01-9.04605E-01 6.10057E-01
 -1       117 4.52562E-01 5.14780E-01 6.60344E-01-4.75343E-01-5.83010E-01 5.39251E-01
 -1       118 3.09947E-01 1.70080E+00 2.27051E-01-7.59001E-01 9.31334E-01-6.32769E-01
 -1       119-4.77472E-01-7.76304E-01-9.14309E-01 2.98707E-01-1.19660E+00 8.80328E-01
 -1       120-2.23914E+00-3.68427E+00 8.88249E-01 1.23110E+00 4.05421E-01 2.90019E-02
 -1       121 2.03155E-01-1.91668E+00-2.16229E-01-6.40885E-01 2.73957E-01-1.08475E+00
 -1       122-3.02127E+00-2.50956E-01-4.38379E-01 5.43806E-01-1.75195E-01-3.83572E-01
 -1       123-1.03204E+00-2.45453E+00-1.11395E+00-1.36747E+00-2.43755E-01-1.46130E+00
 -1       124-2.22017E+00-1.44428E+00-5.72535E-01-1.24405E-01 4.22778E-01-8.13151E-01
 -1       125-1.59519E+00-2.65768E-01-2.08389E-01 5.61290E-01 1.91581E-01-2.34902E-01
 -1       126-2.65109E+00-3.21254E+00-1.78522E+00-2.30941E-01 1.31413E+00-3.64386E-01
 -1       127-1.37754E+00-1.21089E+00-4.43643E-01-4.42196E-01 8.86746E-01-4.10771E-01
 -1       128-1.56602E+00-1.68666E+00-6.78460E-01 9.93470E-03 4.41740E-01-1.94069E+00
 -1       129-8.27532E-01-2.20063E-01-6.65834E-01 2.92954E-01-5.50649E-01 8.62426E-01
 -1       130 8.83366E-01 4.66418E-01 7.33193E-01-4.39429E-01-4.70171E-01 7.91787E-01
 -1       131 7.98726E-01 3.61573E-01 5.39508E-01-4.62690E-01-3.43638E-01 6.49493E-01
 -1       132-2.21764E+00-8.31074E-01-1.44931E-02-1.65748E-01 1.55364E-01-5.69327E-01
 -1       133-1.05289E+00-1.47984E+00 5.74087E-01-6.93145E-02 6.18251E-01 4.67261E-01
 -1       134-4.38647E+00-1.64547E+00 4.64369E-01 1.89052E-01 6.34737E-02-1.97773E-01
 -1       135-9.48252E-01-1.06877E+00-5.19795E-01 6.19517E-02-5.57884E-01 1.15460E+00
 -1       136 1.55955E+00 1.37837E+00 2.41755E+00-8.90194E-01 9.46850E-01-1.56148E+00
 -1       137-1.36244E+00-1.28317E+00 3.47487E-01-1.14423E-01 4.05007E-01-2.48192E+00
 -1       138-8.09703E-01-1.67558E+00 5.44870E-01-1.20630E+00 6.47493E-01-3.84230E-01
 -1       139-1.21348E+00-1.07886E+00-1.05785E+00-3.68348E-01 4.31261E-01-1.01427E+00
 -1       140-4.43184E+00-1.17030E+00 1.66601E-01-1.10740E-01-2.22629E-01-5.29611E-01
 -1       141-2.23636E+00-3.52538E+00-5.09055E-01-1.94335E+00 7.64777E-01-5.43398E-01
 -1       142-2.04968E+00-2.25033E+00-1.66269E+00-2.75399E-01 5.17902E-01-1.39476E+00
 -1       143-1.38107E+00-4.56253E-01-9.57392E-02 9.59466E-02 1.10650E-01-6.66065E-01
 -1       144-2.41622E+00-1.28354E-01-3.40424E-01-1.70941E-01 1.70575E-01-2.71761E-01
 -1       145-2.60039E+00-3.70454E+00-2.41693E+00-5.49301E-01 2.90336E-01-1.18214E+00
 -1       146-6.02238E-01-3.14537E-01-6.48372E-02 4.92777E-01 3.35893E-01-3.02868E-01
 -1       147-3.46799E+00-1.46934E-01-6.92237E-02-6.75268E-01-8.59479E-02-3.11867E-01
 -1       148-1.07195E+00-5.02144E-01-7.31870E-01-1.74959E-01-4.08083E-02 1.02321E+00
 -1       149-6.28981E-01-3.75226E-01-5.58387E-01 2.12966E-01-3.25203E-01 9.90047E-01
 -1       150-5.42169E+00-1.51342E+00 4.06288E-01-3.44685E-01 1.01123E-01 7.02406E-02
 -1       151-2.20555E+00-4.59070E-01 6.03929E-01 1.29310E+00-4.27853E-01 4.87440E-03
 -1       152-2.47430E+00-1.03677E+00 3.62596E-01-4.79481E-01-1.05908E-01-5.26115E-01
 -1       153-2.24111E+00-7.99652E-01-2.85498E-01-1.17162E-01-3.32119E-01-6.83057E-01
 -1       154-4.75823E+00-1.28355E+00 5.73509E-01-1.29681E+00 1.30112E-02-3.46281E-01
 -1       155 4.20473E-01-5.56656E-02 2.72092E-01-7.39341E-02-5.94749E-02 3.38241E-01
 -1       156 1.03969E+00 2.37870E-01 8.27959E-01-6.56101E-02-5.66342E-01-2.40583E+00
 -1       157 6.94186E-01 1.12534E-01 2.90283E-01-1.88730E-01-7.18613E-02 4.24327E-01
 -1       158-3.04529E+01-3.57774E+01-1.61401E+01-6.39906E-01-5.69366E-01 3.81182E+00
 -1       159-1.01160E+00-5.14468E-02-3.76793E-01 4.24892E-01 1.09764E-01-8.82796E-01
 -1       160-1.86244E+00-5.20527E-01 4.20532E-03-9.91925E-01-8.89257E-02-1.46238E-01
 -1       161-8.98823E-01-1.91666E-01-6.12044E-01 5.98291E-01 5.15241E-01-1.15094E+00
 -1       162-2.83820E+00-9.16029E-01 7.07605E-01-1.91139E+00 2.94987E-01-3.45253E-01
 -1       163-1.42503E+00-3.65927E-01-7.41019E-01 4.17979E-01-1.70835E-01-5.96449E-01
 -1       164-1.09842E-01-2.47939E+00-3.95576E-01 1.07095E+00-1.16781E+00 1.37448E-01
 -1       165-1.13273E+00-2.43164E-01-6.19794E-01-9.55907E-02 4.39587E-01 8.80581E-01
 -1       166-8.91211E-01-7.88985E-01-5.66708E-01 1.41702E-01 4.82953E-01 1.22156E+00
 -1       167-3.02414E+00-1.35920E+00 1.16199E+00 7.96648E-01 4.99948E-01-2.09469E-01
 -1       168-5.17032E+00-2.34634E+00 8.61171E-01-3.33109E-01-1.85125E-01 1.30116E-02
 -1       169-2.50572E+00-1.21269E+00 1.09115E-01-2.81109E-01-3.21016E-01-4.50449E-01
 -1       170-9.49587E-01-1.41152E+00 1.11524E-01-4.77241E-01-1.07635E-01-3.52461E-01
 -1       171 3.17441E-01-1.91278E-01 4.35878E-01 2.37483E-01 2.09138E-01 4.38087E-01
 -1       172 4.95338E-01 1.23975E-02 1.62789E-01 2.90323E-01 1.05713E-01 3.81279E-01
 -1       173-5.00618E-01-2.34987E+00-1.95569E-01-9.92891E-02-3.83362E-01-7.71191E-01
 -1       174-5.10000E-01-1.37750E+00-1.53369E+00 4.96913E-01-1.00934E-01-9.22224E-01
 -1       175-4.69957E+00-2.24408E+00-4.65000E-02-9.92776E-01-5.16697E-01 3.25819E-01
 -1       176-2.67091E+01-3.14006E+01-1.58758E+01 1.07591E+00-4.15457E-01 3.64229E+00
 -1       177 1.91753E-01-1.19471E-01 1.18060E+00 1.04193E+00-7.01306E-01-8.24319E-01
 -1       178-6.65834E-01-2.86370E+00-3.38996E-01-2.93277E-01-3.82192E-01-6.84132E-01
 -1       179-4.89097E+00-6.39014E+00-5.54075E+00 2.32644E+00 5.79910E-01-3.37259E-01
 -1       180-1.96319E+00-1.19760E+00 2.19377E-01-6.18184E-01-1.30663E-01-6.43079E-01
 -1       181-5.53157E+00-1.50763E+01-2.89551E+00 3.11826E+00 3.26513E-01-3.98475E-01
 -1       182-2.07842E+00-1.81368E-01-4.80699E-01 1.48722E-01-2.62187E-01-2.31027E-01
 -1       183-1.06468E+00-1.90080E+00-8.64266E-01-1.09192E+00-4.51364E-01 3.16186E-01
 -1       184-2.28494E+00-1.26379E-01 9.01470E-01-3.66936E-01-1.55356E-01-3.70055E-01
 -1       185-3.53080E+00-3.50942E+00 2.45830E-01-1.43073E+00-2.17772E-01 1.63144E-01
 -1       186-3.02174E-01-2.73030E+00-6.09917E-01-4.74902E-01-3.73005E-01 2.85450E-01
 -1       187-1.15533E+00-2.25077E-01-8.48302E-02-2.88052E-01-1.80264E-01-3.63884E-01
 -1       188-1.31066E+00-1.48004E+00 1.26642E-01-5.46382E-01-4.98592E-01-3.99065E-01
 -1       189-2.15745E-01-1.54711E+00 2.47835E-02-6.35126E-01-3.72621E-01-8.11888E-02
 -1       190-1.40774E+00-7.61153E-01-5.39032E-02-5.38443E-01-3.98107E-01-3.16579E-01
 -1       191 2.81696E-01-3.59902E-01 7.29717E-01 4.93572E-01-8.07164E-01-1.38400E+00
 -1       192 2.24575E-01 3.94584E-01 4.78836E-01 4.30391E-01 4.69258E-01 3.72555E-01
 -1       193-2.70885E+01-2.79167E+01-1.65868E+01 3.36536E+00 1.00928E+00 4.05230E+00
 -1       194-1.15919E+00-1.34831E+00-4.85332E-01 5.07522E-02 1.00953E+00 8.94304E-01
 -1       195-6.51740E-01-1.19152E-01-7.73308E-01-3.51183E-01 4.36252E-01 6.80775E-01
 -1       196 2.50318E-01 4.20971E-01 3.42578E-01 3.75885E-01 4.30612E-01 2.93107E-01
 -1       197-8.71177E-01-1.88888E+00-4.63709E-01 3.24814E-01-3.76257E-01-5.73646E-01
 -1       198-5.28407E-01-9.70342E-01 4.03989E-02-3.17126E-01-9.93772E-01-2.25701E+00
 -1       199-5.02477E+00-6.27594E+00-2.94621E+00 3.34465E+00 1.09315E+00-2.65010E-01
 -1       200-3.81118E+00-2.14291E+00 3.85944E-01-1.17228E+00-2.31054E-02-4.66796E-01
 -1       201-8.54298E-01-1.02650E+00-3.67056E-01 1.02941E+00-6.47401E-01-7.74576E-01
 -1       202-5.76194E+00-3.50608E+00-5.81037E+00 1.80127E+00-4.12910E-01 6.54991E-01
 -1       203-2.56618E+00-2.85783E+00-2.07560E+00 7.95823E-01-6.36503E-01-1.11700E+00
 -1       204-6.25990E-01-9.85320E-01-3.60035E-01 1.18662E-02 1.06966E+00 2.80465E-01
 -1       205-1.79249E+00-5.52150E+00 3.72632E-01-3.83975E-01-3.48934E-01 1.25569E-01
 -1       206-1.97894E+00-4.78876E+00 1.47899E-01-8.07069E-01 3.63482E-01-3.82687E-01
 -1       207-8.74248E-01-2.02051E+00 1.68850E-01-7.15582E-01-8.00072E-01-2.10845E-01
 -1       208 2.31181E-01 2.36547E-01 3.14925E-01 5.03492E-02 3.47854E-01 1.45331E-01
 -1       209 2.30251E-01 5.03770E-01 1.81247E-01 1.10761E-01 3.52078E-01 1.56517E-01
 -1       210-3.21185E+01-3.24786E+01-1.53337E+01 3.41589E+00 3.26901E+00 1.80718E+00
 -1       211-2.10071E-01-4.47408E-01-8.92728E-01-3.51719E-01 7.83686E-01 3.90289E-01
 -1       212-3.15742E+00-1.13587E+00-1.99816E-01 1.21971E+00-6.93585E-01-9.06510E-01
 -1       213-3.42418E-01-3.18623E-01-3.37187E-02 7.75585E-02-1.24459E+00-2.29134E+00
 -1       214-1.76193E+00-1.05417E+00-7.22600E-01-1.08675E+00 3.07496E-01-3.20239E-01
 -1       215-6.87242E+00-2.50180E+00-4.29042E+00 4.88804E-01-1.12383E+00 2.23107E-01
 -1       216 9.95534E-02-3.98889E+00 5.62333E-01 6.77502E-01-1.96772E-01-3.16970E-01
 -1       217-5.94251E+00-2.04405E+00-6.58374E-01 1.42975E+00-1.15427E+00 7.18113E-02
 -1       218-9.76286E-01-2.49446E+00-2.75737E-02-3.62749E-01-6.38261E-01-2.77520E-01
 -1       219-9.06844E-01-1.04239E+00-1.60330E-01-9.71330E-01-4.06628E-01-3.77186E-01
 -1       220-2.85567E+00-1.48415E+00-6.63657E-01-1.06665E-01-1.39201E+00 2.72137E-01
 -1       221-9.68907E+00-5.82787E+00-4.86317E+00 3.42941E+00 7.82460E-01-8.41230E-01
 -1       222-1.57795E-01-2.43162E+00-5.23810E-01 3.10593E-02-5.03634E-01-2.50527E-01
 -1       223-9.72926E-02-6.97790E-01-5.86501E-01 1.44282E-01 8.90965E-01-1.32799E-01
 -1       224-1.66082E+00-5.01302E+00 7.34547E-01-9.27461E-02-1.72977E-01 5.24504E-02
 -1       225-1.21571E+00-1.41024E+00 9.90697E-02 6.27999E-01-3.11008E-01-1.17559E-01
 -1       226-1.85639E+00-1.13842E+00-5.67526E-01 2.68297E-01 1.37473E+00 1.99732E-02
 -1       227-7.70924E-01-1.94309E+00 2.15528E-01 2.36834E-01-5.58013E-01 9.30641E-02
 -1       228-3.67694E-03 6.41819E-01 4.15327E-01-4.68429E-02 5.16299E-01-3.76819E-02
 -1       229-1.17284E+00-4.42786E+00 6.51358E-01 8.13519E-01-2.40264E-01 1.01561E-03
 -1       230 3.98906E-02 6.20100E-01 3.86853E-01-3.02312E-02 4.77348E-01 4.02449E-03
 -1       231-4.89385E-01-1.64842E+00 1.41593E+00-1.49715E+00-7.50490E-01 5.55223E-01
 -1       232-4.61801E+00-1.90641E+00-4.12655E+00 9.74423E-01-7.39770E-01-3.22260E-01
 -1       233-6.63013E-01-2.34765E+00 8.44855E-01 1.60981E+00-3.26479E-01-4.02608E-01
 -1       234-3.80707E+00-1.47285E+00-3.57009E+00-7.73275E-01-4.04868E-02 1.00350E+00
 -1       235-8.08424E-01-1.94326E+00 4.15547E-01 6.99019E-01-3.60337E-01 3.27959E-02
 -1       236 2.09919E-01-8.17089E-01 2.39677E-01-1.62566E-01-4.51553E-01-4.34108E-01
 -1       237-2.49143E-01-7.65946E-01-6.00472E-01 1.68284E-01 8.02579E-01-4.90814E-01
 -1       238-1.97781E-02 8.56948E-01 6.52105E-01-3.94825E-01 7.58420E-01-2.87336E-01
 -1       239-8.36693E-01-1.48498E+00-7.48550E-03 8.33111E-02-6.35865E-01 1.93900E-01
 -1       240-1.77012E+00-4.27306E+00 1.01171E-01 4.86893E-01 2.05514E-01-7.84484E-01
 -1       241-1.24656E+00-7.58089E-01-4.42888E-01-9.40895E-02 9.97381E-01-4.58199E-01
 -1       242-3.29536E-01-8.67778E-01-1.43014E-01 6.44389E-01-5.01627E-01 5.20456E-01
 -1       243-1.00649E+00-1.55230E+00-2.21733E-01 8.71157E-03-3.86106E-01 5.44878E-01
 -1       244-1.29601E+00-7.64925E-01-4.04753E-01-4.18811E-03-4.42030E-01 5.95847E-01
 -1       245-2.39494E+00-4.32608E+00 4.21862E-01 9.70316E-01 4.65486E-02 1.12849E-01
 -1       246-1.14321E+00 4.03305E-02 1.15751E+00 1.13802E-02-1.81826E+00 5.03062E-01
 -1       247 2.82653E-02 8.52336E-01 6.42284E-01-3.38285E-01 7.47274E-01-3.33532E-01
 -1       248-9.93256E-01 4.91402E-02-2.99009E-03-6.06940E-01-5.51928E-01 1.81485E-01
 -1       249-4.81287E-01-3.56643E+00-1.13009E+00-4.54122E-01 7.16091E-02-6.82215E-01
 -1       250-1.01077E+01-4.55674E+00-4.97939E+00-2.21399E+00-5.98517E-01-2.02226E+00
 -1       251-1.92768E+00-7.89202E-01 2.00457E-01 1.32704E+00-2.79752E-01 1.68729E-01
 -1       252-3.89938E+00-1.46067E+00-2.15828E-01-1.23099E+00-7.37460E-01 3.13834E-01
 -1       253-3.71321E+00-3.15081E+00-2.63040E+00-4.82079E-01-1.38176E+00 5.60191E-01
 -1       254-4.15699E-01-1.71555E+00-1.14694E+00-6.73585E-02-2.81131E-01 6.63291E-01
 -1       255-3.97943E+00-2.06595E+00-3.56140E+00-1.14970E+00-3.71008E-01-6.92720E-01
 -1       256-8.01118E-01-7.93624E-01-1.82098E-01 1.27929E-01 5.79520E-01-1.08300E+00
 -1       257-4.51339E-01-5.31561E-01 3.80610E-01 5.50499E-01-4.65472E-01 2.17556E-02
 -1       258-1.26055E+00-1.25136E+00 1.00669E-01 5.44269E-01-3.73761E-01 2.43387E-01
 -1       259-3.77061E+00-2.29423E+00 5.94103E-01 1.37779E+00 1.13973E-02 1.25526E-01
 -1       260-1.67969E-01 2.21305E-01 1.72142E-01-2.39353E-01 2.62029E-01-4.06049E-02
 -1       261-2.91607E-01-7.35334E-01 1.80340E-01-8.39042E-01-6.37776E-01 1.41321E+00
 -1       262 1.19637E-02 3.63155E-01 4.93293E-02-2.38988E-01 2.80124E-01-2.86852E-02
 -1       263-2.60193E-01-7.87804E-01-9.95578E-01 3.30300E-01 5.07737E-01-7.72025E-01
 -1       264-2.71718E+00-2.60888E+00 2.50769E-01 1.06224E+00-1.49748E-01-6.90827E-01
 -1       265 5.54119E-01 4.29509E-01 8.70883E-01 5.47465E-01-7.00772E-01 1.54711E+00
 -1       266-1.34851E+00-7.10458E-01-9.72165E-02 5.71035E-01-3.43017E-01 1.74415E-01
 -1       267-1.37885E+00-1.02161E+00 1.95204E+00-1.48874E+00-4.85713E-01 9.81004E-01
 -1       268-1.19266E+01-6.57264E+00-2.97589E+00-3.84873E+00-1.84554E+00-2.91242E+00
 -1       269-6.06652E+00-6.77780E+00-5.22937E+00-2.92976E+00 1.43869E+00 5.63508E-01
 -1       270-2.99569E+00 1.27554E-01 5.64823E-01 5.70475E-01-4.39771E-01 3.30425E-01
 -1       271-1.24888E+00-2.02624E-01-9.42950E-02 4.81043E-01-1.24068E-01 2.50291E-01
 -1       272-1.76348E+00-1.60123E+00-2.39568E+00 1.49472E-01-8.45337E-01 1.75051E+00
 -1       273-6.24939E-01-1.36839E+00-6.71885E-02-3.82097E-02-4.54303E-01 5.94370E-01
 -1       274-4.89710E-01-2.54873E+00-9.83152E-01 5.30166E-01-2.09637E-01-5.61781E-01
 -1       275-1.02833E+00-5.98625E-01-4.82985E-01 9.81272E-02 3.41438E-01-1.13130E+00
 -1       276-4.57800E-01-3.93721E-01-1.06703E+00 4.19182E-01 4.20654E-01-1.00969E+00
 -1       277-4.74281E+00-1.70162E+00 5.69402E-01 2.65080E-01-1.10204E-01 3.55405E-01
 -1       278-7.42413E-01-6.01074E-01 9.67271E-01 6.35723E-01-1.60067E-01 4.27301E-04
 -1       279 1.10688E-01 1.33863E-01 4.16552E-01-4.83895E-01 5.99398E-01-2.10413E-01
 -1       280 5.62731E-01 3.30997E-01 5.35403E-01-5.91986E-01 3.74110E-01-5.87161E-01
 -1       281-1.61045E-01 5.87512E-02 5.36123E-01-6.61620E-01-1.20999E-02 1.06217E+00
 -1       282 1.00191E+00-1.00846E-01 2.26512E+00 5.54890E-01-7.08101E-01 2.45228E+00
 -1       283-1.86561E+00-1.09532E+00 8.87352E-02 2.48109E-01-3.02781E-01 6.05462E-01
 -1       284-2.87309E-01-1.79402E+00 3.57806E-02-1.08266E+00-3.81807E-01 7.10584E-01
 -1       285-4.61929E+00-1.94747E+00 2.71609E-01 9.48311E-01-2.67352E-01-1.48674E-01
 -1       286-1.95370E+00-1.03118E+00-1.86300E-01 1.88902E-01-4.27960E-01 4.78403E-01
 -1       287-1.24197E+00-1.94099E+00-5.83302E-02-1.45589E-01-3.60838E-01 8.32041E-01
 -1       288-1.90553E+00-2.01211E-01-6.52210E-01 2.27203E-02-3.33664E-01 4.71499E-01
 -1       289-8.64580E-01-6.70838E-01-4.91337E-03 8.23949E-01-4.17698E-01 3.19078E-01
 -1       290-1.67959E+00-2.01965E+00-8.85973E-01 6.58007E-02-5.15195E-01 7.51099E-01
 -1       291-3.51295E+00-4.21926E+00-4.61377E+00-1.27951E+00-1.22417E+00-7.77995E-01
 -1       292-2.10607E+00-7.69547E-01-1.37963E+00 1.16708E-01-2.89066E-03 1.47115E+00
 -1       293-3.53798E+00 3.42442E-03 3.73547E-01-7.36610E-01-1.73507E-01 3.96058E-01
 -1       294-1.44098E+01-5.86054E+00-6.08110E+00-1.22991E+00 1.36403E+00 8.48697E+00
 -1       295-4.69800E+00-2.29674E-02 4.62225E+00-5.04066E-02-5.12091E-02-9.03341E-01
 -1       296-2.49124E+00-2.16515E+00-4.79604E+00-1.04279E-02 1.15243E+00-5.53413E+00
 -1       297-3.17745E+00-4.71724E+00-1.55178E+00-2.03545E+00 3.44896E+00 2.18342E+00
 -1       298 0.00000E+00 0.00000E+00 0.00000E+00 0.00000E+00 0.00000E+00 0.00000E+00
 -1       299-8.02528E-01-1.02978E+00 2.36239E+00-1.22817E+00 2.98006E-01-6.26088E-01
 -1       300-9.40047E-01-1.12262E+01-4.01268E+00 1.18050E+00 8.12790E+00-4.75765E+00
 -1       301-1.39704E+00-3.40943E+00-1.86670E+00-2.46940E+00 2.22030E+00 5.38753E+00
 -1       302-1.27934E+01-1.24474E+01-7.57224E+00 5.14253E+00-5.99039E+00 6.11738E+00
 -1       303-9.51538E+00-1.31965E+01-6.81357E+00 4.15351E+00-7.00866E+00 4.64698E+00
 -1       304-1.15231E+01-1.14652E+01-6.89650E+00-4.56098E+00 5.31484E+00 5.31182E+00
 -1       305-1.08996E+00-1.73598E+00 3.05900E+00-1.60677E+00 1.64800E+00 3.42444E-01
 -1       306-5.15433E+00-9.86211E+00-4.50493E+00-1.89646E+00 5.67801E+00 2.37358E+00
 -1       307-1.80026E-01-3.55950E+00 1.24120E+00 5.06336E-01-4.68112E+00-7.04620E-01
 -1       308 9.72485E-01-7.92009E-01 3.53953E+00 5.18144E-01 3.96200E+00-1.27774E+00
 -1       309-1.02208E+01-1.03909E+01-6.18349E+00-4.12301E+00-5.70516E+00-5.74476E+00
 -1       310-6.19778E+00-8.26136E+00 3.71127E-01-3.58165E+00-8.87062E-01-2.05998E+00
 -1       311-2.69193E+00-7.08247E-01-3.65213E-01 7.53445E-01 5.03642E+00-4.33578E+00
 -1       312 1.35444E+00 1.02962E+00-4.67570E-01-6.27411E-01 4.59576E+00-8.50650E-01
 -1       313-9.43960E+00-6.01987E+00 2.37237E-01-3.78937E+00 4.10864E-02-1.36325E+00
 -1       314-1.38191E+01-1.55482E+00-4.51521E+00-2.08161E+00 2.36749E+00-6.66748E+00
 -1       315-2.71532E+00-3.07540E-01-1.72687E+00 9.72465E-01 2.54555E+00-3.50498E+00
 -1       316-1.06699E+01-4.84417E+00-4.65422E+00 1.07484E+00 1.72438E+00-8.73740E+00
 -1       317 3.53029E+00-2.04492E+00 2.61379E-01-2.69240E+00 1.50151E+00 4.58224E+00
 -1       318-3.66911E+00-1.74056E+00-9.48287E-01-2.74117E+00 5.48041E+00 3.91998E+00
 -1       319 7.71203E+00 6.16964E+00 2.94685E+00-2.91641E+00 3.62650E+00-2.74288E-01
 -1       320-1.68754E+00-1.85564E+00-5.41064E-01-5.84391E-01 4.77034E-01-8.05826E-01
 -1       321-2.20540E+00-4.04011E+00-2.74843E+00-1.11476E-01 5.14941E-01-1.54087E+00
 -1       322-1.24992E+01 2.77462E+00-2.27060E+00-5.25575E+00 1.95539E+00-4.96631E+00
 -1       323-2.42858E+00-1.45039E+00-2.23002E+00 4.57066E-01-5.34405E-01-1.13790E+00
 -1       324-2.27028E+00-3.01629E+00-1.86120E+00-2.54475E-01 9.52643E-02-1.78653E+00
 -1       325 5.23772E+00 3.03586E+00 1.88215E+00 1.33057E+00 2.12315E+00-1.81556E+00
 -1       326-2.84519E+00 6.05734E-01 5.75168E+00-1.37255E+00 9.92386E-01-7.00705E-01
 -1       327 8.57753E-01 1.26415E+00-1.84102E+00 9.97147E-01-1.18490E+00-1.78628E+00
 -1       328 8.91820E-01 2.55267E-01 1.63743E+00 4.67848E-01-5.90809E-01-2.60445E+00
 -1       329-4.95588E-01-1.04987E+00-4.22589E-01-1.76113E-01-6.72711E-01-1.58831E+00
 -1       330 6.39034E+00 1.81759E+00-1.13395E+00-2.64206E-01-3.07499E-01 1.37592E+00
 -1       331 4.34242E-01 3.74851E+00 1.57416E+00-1.16412E+00 5.11522E+00-4.34442E+00
 -1       332-1.76847E+00-3.22601E+00-1.33086E+00 3.64704E-01-8.18891E-01-1.32994E+00
 -1       333 2.32181E-01-4.63525E-01 6.40420E-01 4.90204E-01-1.12013E+00-1.61301E+00
 -1       334-1.83455E+00-1.17019E+00-1.18196E-01 1.62563E-01-1.09586E+00 2.91519E-02
 -1       335-2.98287E-01 1.96702E+00 8.40204E-01-1.33696E+00 2.85245E-01-1.36785E+00
 -1       336-1.69023E+00-1.62753E+00-1.30887E+00 4.01710E-01 9.04260E-01-1.13649E+00
 -1       337-8.17430E+00-8.07993E+00-3.50431E+00-3.67237E+00-3.19477E-01-7.82428E-01
 -1       338-3.28506E+01-4.29209E+01-1.94116E+01 2.16557E+00-5.52974E-01 2.86842E+00
 -1       339-3.01357E+01-4.23389E+01-1.86328E+01-1.38951E+00-5.95202E-01 3.28037E+00
 -1       340-2.00396E+00-3.53705E+00-3.14956E+00-1.16445E+00 7.12873E-01-4.41018E-01
 -1       341-2.99203E+00-8.36263E+00-2.25680E+00-9.83753E-01 6.03515E-01 6.80432E-01
 -1       342-1.34090E-01-1.62876E+00 9.64568E-01-5.83618E-01-8.67033E-01-4.25346E-01
 -1       343-2.49933E+01-3.14233E+01-1.49805E+01-2.64237E+00-1.54467E+00 3.36665E-01
 -1       344-4.79911E+00-5.70716E+00-6.53686E+00-2.46242E+00 4.43878E-02 3.25196E-01
 -1       345-2.76807E+01-2.81366E+01-1.44264E+01-3.56989E+00 7.19877E-01 2.31716E+00
 -1       346-6.07134E+00-6.91855E+00-5.96476E+00-3.19243E+00 1.82099E+00 1.05340E+00
 -1       347-3.81131E+00-2.41587E+00-3.14411E+00-1.10730E+00 3.93331E-01-4.77628E-01
 -1       348-3.27404E+01-2.72704E+01-1.01987E+01-4.42732E+00-1.40772E+00 2.49789E+00
 -1       349-4.08531E+01-3.43323E+01-1.87264E+01 3.69535E+00 3.36144E+00 6.26082E-01
 -1       350-3.85076E+00 4.23985E-01 1.43164E+00 3.73581E-01-1.00241E+00 3.82261E-01
 -1       351-3.25618E+01-2.86510E+01-1.45922E+01 4.09156E+00 1.01715E+00 4.01025E-01
 -1       352-3.02457E+01-3.63356E+01-1.77437E+01 4.87861E+00 4.93961E-01 2.49538E+00
 -1       353-1.96435E+00-1.33869E+00-2.08543E-01 1.53464E+00-2.06591E-01-5.91064E-01
 -1       354-3.20576E+01-4.11654E+01-1.99191E+01-1.71203E+00 6.32469E-01 4.92519E+00
 -1       355-7.60382E-01-5.31201E+00-9.90244E-02-1.40844E+00-2.43304E+00-9.82634E-01
 -1       356-5.03504E+00-3.01667E+00-1.80869E+00 9.54205E-02-1.60048E+00-4.50269E-01
 -1       357-1.42047E+00-3.05321E+00-1.44926E+00 2.81688E-01-1.56278E+00-9.53570E-01
 -1       358-2.30844E+00-1.35494E+00 2.17160E-01 3.57970E-01-1.04780E+00 5.01471E-01
 -1       359-3.30128E+01-2.89853E+01-1.25574E+01-2.61858E+00-3.64829E+00 6.80763E-01
 -1       360-9.26042E+00-4.18552E+00-4.17628E+00-2.31923E+00 2.19370E-01 1.91978E+00
 -1       361-3.85108E+01-3.22922E+01-1.81379E+01 1.98506E+00-2.39276E+00-7.50100E-01
 -1       362-3.22967E+01-2.63090E+01-1.19878E+01 1.54825E-01 2.55851E+00-1.73357E+00
 -1       363-3.81271E+01-3.12446E+01-1.74701E+01-4.19667E-01-3.50200E+00-5.39473E-01
 -1       364-3.83992E+01-2.88533E+01-1.50600E+01-2.94538E-01 2.59339E+00-1.21160E+00
 -1       365-4.41243E+00 3.35650E-01 1.06640E+00-1.03294E-01-7.20859E-01 5.16325E-01
 -1       366-1.07220E+01-2.53021E+00-5.31382E+00 3.20011E-01 8.90661E-01-1.29142E+00
 -1       367-1.08000E+00-3.05364E+00 7.10593E-02-7.12018E-01-3.67663E-01 7.24104E-01
 -1       368-3.48148E+01-3.16369E+01-1.67487E+01-3.54083E+00 2.87448E+00-2.91563E+00
 -1       369-9.14096E-02-4.75051E-01 1.84223E+00-1.28594E+00-8.96671E-01 7.79464E-01
 -1       370-3.72414E+01-2.70072E+01-1.50230E+01 4.26910E+00-3.53944E-04-2.28839E+00
 -1       371-4.04625E+00-2.50199E+00-2.64056E+00-1.13257E-01-1.21021E+00 1.06093E+00
 -1       372-3.05141E+00-8.40897E-01 1.11543E-01 1.35742E+00 1.36203E+00-2.12499E-01
 -1       373-2.27323E+00-2.84565E+00-1.66607E+00-6.86714E-01-8.97370E-01 8.50987E-01
 -1       374-3.23454E+00-8.87354E+00-3.49888E+00-1.43626E+00-6.48080E-01 8.56522E-01
 -1       375-2.95420E+01-3.49941E+01-1.82659E+01-3.05361E+00 1.03035E+00-2.76274E+00
 -1       376-4.03547E+01-4.25859E+01-2.21953E+01-7.22947E+00 1.48898E+00-3.61259E+00
 -1       377-1.54691E+00-5.39193E+00-3.40224E+00-5.52250E-01 2.15901E-01 7.50039E-01
 -1       378 2.68758E-01 2.31264E+00 4.29963E-02 9.23242E-01 7.73803E-01 1.73866E+00
 -1       379 6.46460E+00 8.66060E+00 4.53756E+00 3.04646E+00 8.14166E+00 5.12585E+00
 -1       380-8.70877E-01-1.20357E+00 1.12022E+00 1.72790E-01 1.08630E+00 5.69846E-01
 -1       381 2.82921E+00 5.21295E+00 2.51112E+00 1.05116E+00-4.03007E-01 5.01161E-01
 -1       382 1.18213E+00-1.37055E+00 8.00201E-01 7.09427E-01 2.20290E+00 2.87438E-01
 -1       383-3.31969E-01-1.34425E+00-1.36494E+00-6.14761E-01 1.51985E+00 2.31480E-01
 -1       384-7.62360E-01-1.06254E+00-1.14742E+00-7.76200E-01 1.18975E+00 5.79600E-01
 -1       385-4.83529E+00-2.70555E+00-2.08099E+00-2.69853E-01 1.73835E+00-1.91012E-02
 -1       386 5.91068E+00 1.05976E+01 4.95248E+00-2.32591E+00 9.52414E+00-3.97004E+00
 -1       387 3.74851E-01 5.47036E-01 1.11824E+00-7.46759E-02 1.42894E+00 8.14791E-02
 -1       388 1.05742E+00 4.32472E+00-6.70090E-01-2.92262E-01 6.66416E+00-1.92743E+00
 -1       389 3.39812E-01 2.39221E-01-1.68194E-01-5.49860E-01 5.46643E-01-2.42007E-01
 -1       390 6.85275E+00-1.28997E+00 1.56195E+00-2.27305E+00 6.13068E+00-3.66128E+00
 -1       391-6.60406E-01-3.98026E-01-2.23025E+00 5.20967E-01 2.06082E+00 1.31617E+00
 -1       392 2.14655E+00 1.47293E+00 2.31367E+00 9.97213E-01 1.00369E+00 1.75949E+00
 -1       393-2.60815E+00-2.22667E+00-1.48830E+00 3.42811E-01 1.28088E+00 1.10428E+00
 -1       394-1.02341E+00-5.91565E-01-1.40290E+00-4.80065E-01 7.11621E-01 1.84848E-01
 -1       395 3.08689E+00 3.90527E-01-1.83303E+00 8.26041E-01 5.39554E-01-4.80420E-01
 -1       396-3.29429E-01-1.44645E+00-6.99657E-01 1.07694E+00 3.98797E-01 9.35672E-01
 -1       397 0.00000E+00 0.00000E+00 0.00000E+00 0.00000E+00 0.00000E+00 0.00000E+00
 -1       398 1.54463E+00 3.07978E-01 1.33937E+00 6.65155E-01-8.60058E-02 1.73061E+00
 -1       399-1.48354E+00 4.88066E+00 3.75829E-01-3.25092E+00-3.42654E+00 6.49311E+00
 -1       400-2.86033E+00-3.40078E+00-2.32713E+00 3.55010E-01 6.06640E-03 1.15917E+00
 -1       401-2.68752E-01-3.53249E-01-1.93974E+00-1.02936E-01-1.83591E+00 1.67060E+00
 -1       402-1.77337E+00-3.05944E+00-9.42670E-01-3.66025E-02-6.39487E-01 1.11608E+00
 -1       403 1.24663E+00 2.71128E+00-4.43637E+00-1.95869E+00-1.34481E+00 8.93213E-01
 -1       404-1.82839E+00-2.31601E+00-9.35978E-01-6.92518E-01-1.84832E-01 7.24539E-01
 -1       405-3.34988E-01-1.58232E-01 7.39653E-01 3.49758E-01-7.23010E-01 5.37755E-01
 -1       406-4.19751E+00 1.56379E+00-2.85429E-01 3.76678E+00-8.95234E+00 3.68998E+00
 -1       407-2.25883E+00-1.09950E+00-2.99140E-01-1.15613E-01-8.56981E-01 5.33134E-01
 -1       408 2.27727E-01 8.34534E-01 1.81450E+00-4.84697E-01-1.61422E+00-1.46478E-01
 -1       409-3.33091E+00-2.49024E+00-1.67552E+00-1.18435E-01-1.23507E+00 2.89038E-01
 -1       410-1.28741E+00-6.65949E-01-1.48148E-01-1.88822E-01-9.10568E-01-4.85902E-01
 -1       411-1.79394E+00-1.38507E+00-3.03586E+00 1.90346E+00-5.35750E+00 1.87540E+00
 -1       412-4.33421E+00-2.91191E+00-2.28655E+00 5.11663E-01-1.20285E+00-3.53804E-01
 -1       413-9.86741E-01-8.88532E-02 7.14818E-01-1.69083E-01-9.49735E-01-1.20142E+00
 -1       414-1.26765E+00-6.71634E-01-6.62892E-01-1.14255E-01-1.05123E+00-1.83373E-01
 -1       415 1.35643E+00 7.89723E-01 1.22441E+00-4.59032E-02-1.80250E+00-5.18128E-01
 -1       416 1.78878E+00 1.24195E+00 3.03649E+00 1.09234E+00-6.34663E+00-1.59630E+00
 -1       417-2.93195E+00-4.72011E+00-5.46096E-01 1.55705E+00-9.32024E-01-2.84583E-01
 -1       418-1.71143E+00-2.22346E+00-1.37799E+00-1.01907E-01-4.50528E-01 1.49053E+00
 -1       419-2.77559E+00-2.58510E+00-1.44993E+00 3.45392E-01 3.45182E-02 8.63436E-01
 -1       420-5.67435E+00-1.42908E+01-3.61428E+00 2.23869E+00 8.32245E-01-7.82437E-01
 -1       421-3.13794E+01-3.62060E+01-1.34078E+01 2.34868E+00-1.54510E+00-1.31636E+00
 -1       422-3.97798E+01-4.43139E+01-1.69289E+01 2.31397E+00-1.24411E+00-4.15808E+00
 -1       423-6.41337E+00-1.01268E+01-5.32199E+00 2.99171E+00 6.89364E-01-2.35944E-01
 -1       424-8.80256E+00-5.35748E+00-5.04007E+00 3.03728E+00 3.49556E-01-5.76467E-01
 -1       425-5.62028E+00-3.27477E+00-2.36277E+00 1.04096E+00 1.51994E+00 1.41302E+00
 -1       426-3.08987E+01-3.38582E+01-1.31010E+01 5.29707E+00-4.86730E-01-2.48023E+00
 -1       427-1.08244E+00-1.86283E-01 9.18804E-01 1.16845E+00 2.41597E-01 1.63408E+00
 -1       428-3.18344E+01-3.26603E+01-1.45785E+01 4.27940E+00-1.48818E+00-3.44487E+00
 -1       429-4.33269E+01-3.56781E+01-2.12141E+01-5.34311E+00 1.59530E+00-2.85375E+00
 -1       430-3.51363E+01-2.80566E+01-1.43578E+01-2.56258E+00 1.26984E+00-1.15495E+00
 -1       431-3.47428E+00-8.50882E+00-3.59493E+00-9.81921E-01 4.00374E+00 1.81674E+00
 -1       432 1.01953E+00 3.51325E+00-4.20778E-01-2.43183E+00-6.70123E-01 2.64574E+00
 -1       433-2.39866E+00-3.81924E+00-2.30775E+00 1.63695E+00 6.96956E+00-1.85895E+00
 -1       434 1.24295E+00 1.26204E-01 3.30091E-01 3.01051E+00-2.09226E+00 8.18595E+00
 -1       435 0.00000E+00 0.00000E+00 0.00000E+00 0.00000E+00 0.00000E+00 0.00000E+00
 -1       436-1.90873E+00-4.21634E+00-1.93935E+00 2.22563E-01-8.49648E+00 1.91823E-01
 -1       437-1.10729E+01-4.67504E+00-4.78765E+00 7.69024E+00-7.68572E+00 3.79675E+00
 -1       438-5.59347E+00-3.27719E+00-2.66971E+00 4.35637E+00-1.93501E+00 7.48576E+00
 -1       439-1.03157E+01 2.88340E+00-3.85968E+00-3.28660E+00-2.67814E+00 4.93974E+00
 -1       440-3.61303E+00-4.71300E+00-5.05701E-01 2.22835E+00-9.65656E-01 7.69062E-02
 -1       441-5.57670E+00-7.65086E+00-1.62999E+00 3.37134E+00-1.78270E+00 2.45437E-01
 -1       442 5.55231E+00 7.48879E+00 3.24078E+00 3.87366E+00-1.23451E-01-1.20481E+00
 -1       443-4.03181E+00-3.97603E+00-7.42907E+00-3.30552E-01 1.77800E+00-3.34117E+00
 -1       444 5.03673E+00 5.01687E+00 1.68507E+00 4.68735E+00 7.89723E-01-1.44685E+00
 -1       445-1.13928E-01 2.75517E+00-2.06065E+00 2.01988E-01-6.63326E+00 6.18090E-01
 -1       446-1.10283E+01-6.33383E+00-5.20865E+00-2.73322E+00-2.26323E+00-5.67368E+00
 -1       447 2.30901E-01-9.85692E-01-3.36652E+00-1.74705E-01-9.69163E-01-2.09736E+00
 -1       448-9.09952E+00-2.08774E+01-8.99307E+00 1.46494E+00-1.12419E+01 2.27363E+00
 -1       449-1.52129E+00-2.24244E+00-2.82032E+00-1.86613E-01 1.14698E+00-1.67226E+00
 -1       450-1.92838E+00-3.39538E+00-4.21999E+00 4.68608E-02-2.25814E+00-2.77750E+00
 -1       451-3.80403E+00-3.10295E+00 5.62572E-01 3.07290E-01 4.07287E-01-1.18027E+00
 -1       452-3.31824E+00-8.50796E-01 3.86496E-01 8.35357E-02 7.46744E-02-1.28528E+00
 -1       453-2.12032E+00-2.71239E+00 4.24612E-02 6.39952E-02-7.39825E-02 3.35236E-01
 -1       454-2.12218E+00-8.64266E-01-5.81702E-01 1.10269E-01-7.43447E-01 5.13780E-01
 -1       455-1.48755E-01-1.50080E+00-3.44623E-01-7.42071E-02-2.46735E-02 8.42802E-01
 -1       456 6.29479E-01-1.35839E-01 3.87512E-02-2.52232E-02 4.99125E-03 9.88085E-01
 -1       457 1.59232E+00-4.29117E-01-4.31223E-01-4.55009E-01 1.45210E-01-6.88012E-01
 -1       458 8.22742E-01-4.98801E-01 6.33688E-01-2.98473E-02 4.28456E-01-1.30358E+00
 -1       459-9.78515E-01-1.80761E+00-3.07502E-01-1.65421E-01 5.98808E-01 1.35100E+00
 -1       460-1.64178E+00-1.72454E+00 3.67622E-01 5.55539E-02 2.92020E-02 8.30483E-01
 -1       461-2.88147E+00-2.11646E+00 9.92208E-01 1.23139E-01 3.84158E-01 9.99991E-02
 -1       462-2.23511E+00-6.56618E+00-1.48465E+00 8.25158E-01 4.05868E-02 9.96769E-01
 -1       463-1.25023E+00-4.29642E+00 1.97671E-01-1.25152E+00-4.66037E-01 7.46830E-01
 -1       464-2.61165E+00-1.90735E+00 6.85784E-01 2.70911E-01-7.27315E-01 4.71275E-01
 -1       465-1.47180E+00-1.00992E+00 1.47256E-01-2.19232E-01-7.08149E-01 7.00396E-01
 -1       466-6.84682E-01-4.92144E-01-1.76920E-01 2.61622E-01-2.27526E-01 1.17899E+00
 -1       467-2.14342E+00-3.19711E+00-8.60356E-01 4.56710E-01-1.89683E+00 2.50697E-01
 -1       468-3.33384E+00-4.32400E+00-1.87238E+00-4.51670E-02 2.87625E+00-9.84452E-01
 -1       469-2.39371E+00-2.79111E+00-1.96286E+00-1.18694E-01-1.89599E+00 9.40381E-01
 -1       470-2.37986E+00-2.70530E+00-4.57423E-01 1.02032E-01 1.20007E+00 1.23429E+00
 -1       471-2.91506E-01-2.25914E+00 1.01619E+00 3.72120E-02-3.88785E-01 8.15464E-01
 -1       472-2.37698E-01-1.05292E+00 3.59398E-01-3.60682E-01-7.74107E-01 5.61607E-01
 -1       473-1.25562E+00-1.90968E+00-3.35260E+00-1.64877E-01 2.22823E-01-1.69974E+00
 -1       474-1.50478E+00-2.44702E+00-3.33940E+00 3.49843E-01-2.40136E+00-2.43420E+00
 -1       475 5.76752E-01-6.31169E-01-4.18790E-01 5.44077E-01 3.00402E-01 5.14240E-01
 -1       476 2.78140E-01-5.41887E-01-2.04814E-01 2.53999E-01 5.49300E-01 7.93002E-01
 -1       477-2.31573E+00-2.57323E+00 2.31578E-01 2.60576E-01 2.30534E-02 4.98143E-01
 -1       478-2.24603E+00-2.32646E+00 1.28495E-01 1.14930E-02 3.23218E-01 1.55830E-01
 -1       479-3.61790E+00-4.08871E+00 2.18005E-01-2.45737E-01-6.81106E-01-1.11355E+00
 -1       480-2.53355E+00-7.74283E-01 7.50511E-02-6.91873E-01-2.56333E-01-1.17528E+00
 -1       481 8.20657E-01 5.54896E-01 9.83972E-02 5.71794E-01-3.51288E-01-9.02860E-01
 -1       482 1.36902E+00 5.88732E-01 1.04894E+00 9.99114E-01-7.04201E-01-1.25171E+00
 -1       483-1.10053E+00-1.99976E+00-6.02835E-01 6.21215E-01 8.63651E-01 1.00086E+00
 -1       484-1.29213E+00-1.34376E+00 8.50033E-02-1.21347E-01 3.49949E-01 9.31123E-01
 -1       485-2.99563E+00-2.50636E+00 6.35127E-01-3.82204E-01 8.75092E-01 1.69966E-01
 -1       486-1.58153E+00-3.82354E+00-4.27553E-01 1.31510E+00 1.53601E+00 4.32397E-01
 -1       487-1.88209E+00-4.17617E+00-5.44925E-01 1.38388E+00-4.01967E-01 5.50914E-01
 -1       488-2.39479E+00-2.22901E+00 8.16054E-01-2.72038E-02-4.31443E-02 1.21004E-01
 -1       489-1.10359E+00-1.08384E+00-1.08360E-01-4.61626E-01 9.41939E-02 8.36719E-01
 -1       490-1.27517E+00-4.64126E-01-3.21046E-01 1.85834E-01 3.11023E-01 1.41291E+00
 -1       491-1.73434E+00-3.25257E+00-5.28915E-01 2.09655E-01-1.96854E+00 2.56419E-01
 -1       492-2.35621E+00-3.51023E+00-1.90229E+00 1.15432E-01 2.71311E+00-1.30977E+00
 -1       493-2.08149E+00-2.40336E+00-1.44625E+00-3.74106E-01-5.84061E-01 1.15450E+00
 -1       494-1.50363E+00-4.96222E-01-4.54554E-01-2.14434E-01 4.77044E-01 7.36312E-01
 -1       495-4.53604E-01-1.89182E-01 4.53041E-01 2.00091E-01 4.80949E-01 9.79461E-01
 -1       496-1.11699E+00-3.43852E-01 2.45125E-01 4.13289E-01 4.73101E-01 7.02973E-01
 -1       497-2.39538E+00-2.51364E+00-4.58964E+00 5.19026E-01-2.68521E-01-3.38430E+00
 -1       498-2.17870E+00-2.19263E+00-2.28989E+00 4.48235E-01-2.37826E+00-7.72909E-01
 -1       499-4.97465E-01-6.63320E-01-4.21420E-01 6.50808E-01 6.19822E-01 6.04402E-01
 -1       500 3.84796E-01 1.19348E-01-2.63144E-01 3.59014E-01 6.77443E-01 6.02117E-01
 -1       501-2.35173E+00-2.22858E+00 1.04773E-01 3.15882E-01 3.16444E-01 1.72343E-01
 -1       502-1.71993E+00-1.15941E+00 3.38449E-01-1.59184E-01 4.73494E-01-4.23666E-01
 -1       503-3.59032E+00-3.11500E+00 3.46143E-01-2.69708E-01-8.58641E-01-6.79153E-01
 -1       504-2.11665E+00-1.65952E+00 4.22398E-01-1.04938E+00-6.87339E-01-1.05501E+00
 -1       505 9.00587E-01 9.90855E-01 4.94034E-02 9.36421E-01-8.35327E-01-8.11079E-01
 -1       506 1.05410E+00 1.41672E+00 9.57626E-01 7.83289E-01-1.13332E+00-1.05188E+00
 -1       507-4.75609E-01-2.14952E+00-8.05940E-01 2.33105E-01 1.11655E+00 6.70211E-01
 -1       508-1.52647E+00-9.23812E-01 2.10887E-01-3.57968E-02 5.23874E-01 5.96712E-01
 -1       509-2.38498E+00-2.43452E+00 6.73247E-01-4.00748E-01 2.80435E-01-1.37621E-01
 -1       510-3.81425E+00-2.44293E+00 1.14101E+00 1.24245E+00 1.01481E-01 7.63411E-01
 -1       511-2.66098E+00-2.48629E+00 3.29008E-01 3.56780E-02-4.96918E-01 7.94963E-01
 -1       512-1.67014E+00-2.65874E+00-1.48734E+00 1.14029E+00 1.12279E+00 9.83780E-01
 -1       513-1.54208E+00-1.12364E+00-3.39346E-01-1.50693E-01 2.96983E-01 1.10671E+00
 -1       514-1.74127E+00-2.15278E+00-1.71026E+00 1.80698E-02 7.34488E-01 1.44560E+00
 -1       515-1.98697E+00-7.98376E-01-1.83288E-01-5.18145E-01-3.88224E-01 6.46162E-01
 -1       516-4.04343E+00-3.14231E+00-2.25354E+00 7.42961E-01 1.29490E+00-2.95688E+00
 -1       517-9.73875E-01-9.65463E-01-1.41365E+00-4.65890E-01 3.21172E-01 1.10997E+00
 -1       518-2.36264E+00-1.58658E+00-5.96785E-01 2.58120E-02 9.78874E-01 1.98674E-01
 -1       519-8.49561E-01-1.03227E+00 7.12100E-02 7.72785E-01 5.46263E-01 5.79990E-01
 -1       520-2.30918E+00-6.41926E-01-1.03540E+00 5.43674E-01 2.54517E-02 1.07868E+00
 -1       521-1.98893E+00-2.49190E+00-3.68309E+00 4.50605E-01-1.62215E+00-2.22810E+00
 -1       522-3.20390E+00-1.92400E+00-3.65621E+00 7.09815E-01-3.17658E+00 1.01689E+00
 -1       523-2.98882E+00-2.46270E+00 3.07811E-01 1.27455E-01 2.68018E-01-1.13956E-01
 -1       524-1.18454E+00-5.94616E-01-4.51621E-01 4.02928E-01 1.04220E+00 4.70315E-01
 -1       525-2.81240E-01 3.51144E-01-4.22839E-01 2.13357E-01 4.71289E-01 1.63312E-01
 -1       526-3.21575E+00-3.73964E+00 1.40885E-01-7.60163E-01-1.41260E+00-2.84635E-01
 -1       527-2.91891E+00-4.01170E+00 3.25092E-01-1.11528E+00-1.25104E+00-4.22311E-01
 -1       528-2.74197E+00-2.43966E+00 2.55945E-02-8.83136E-02 6.53366E-02 2.09537E-01
 -1       529 7.51288E-04 1.20816E+00 3.47133E-01 5.83931E-01-7.61441E-01-2.91363E-01
 -1       530 2.15230E-01 1.18885E+00 2.24509E-01 6.83021E-01-6.26637E-01-6.38976E-01
 -1       531-6.72881E-01-4.35713E-01-7.55649E-01 2.30348E-01 7.19011E-01 7.47914E-01
 -1       532-1.46903E+00-1.43729E+00 2.13813E-01-5.62666E-01 1.07131E+00 2.70905E-01
 -1       533-2.08310E+00-2.68727E+00 8.90463E-01 1.54502E-01 1.55341E-01-2.36956E-01
 -1       534-3.66257E+00-6.81064E-01-3.64943E-01 9.98031E-02 3.56218E-01 4.15209E-01
 -1       535-2.57901E+00-3.67366E+00-1.46538E-01 1.15030E-01-5.99617E-02 8.44757E-01
 -1       536-4.58172E+00-1.80910E+00-4.63572E-02 7.36720E-01 1.12901E+00 1.43773E-01
 -1       537-1.69638E+00-1.51346E+00 5.44979E-01-1.92391E-01 9.12265E-01 5.37471E-01
 -1       538-1.17024E+00-8.87998E-01-6.57321E-01-1.09866E-01 9.62601E-01 1.23211E+00
 -1       539-1.43046E+00-1.38827E+00-7.73247E-01-5.14163E-01-3.74036E-01 9.90488E-01
 -1       540-2.65279E+00-2.96548E+00-8.79090E-01 6.32667E-01 3.90861E-01-2.12278E+00
 -1       541-2.32087E+00-2.27896E+00-1.10661E+00 2.85038E-01 6.50870E-01 1.78900E+00
 -1       542-2.70535E+00-2.08142E+00-1.17514E+00-5.31904E-01 1.30511E+00-4.22959E-01
 -1       543-1.02110E+00-4.67788E-01 4.44284E-01 6.92706E-01 2.50910E-01 6.21931E-01
 -1       544-2.40597E-01-1.02202E+00-1.24131E+00 5.67181E-01 8.60139E-02 5.63097E-01
 -1       545-2.74762E+00-1.96967E+00-4.83638E+00-2.33652E-01-3.05647E+00-1.77013E+00
 -1       546-1.56329E+00-1.27284E+00-2.10550E+00-2.55997E-01-1.31674E+00 5.17645E-01
 -1       547-3.49326E+00-2.42208E+00 3.09910E-02 5.73009E-02 3.46124E-01 8.47118E-02
 -1       548-1.42766E+00-9.68895E-01-3.32254E-01-1.44506E-01 7.88409E-01-1.53092E-02
 -1       549-1.10966E-01-6.09222E-01-1.18518E-01-1.06250E-02 8.73881E-01-6.24016E-02
 -1       550-2.25964E+00-3.68047E+00 4.89373E-01 7.14619E-02-1.09757E+00-4.53766E-03
 -1       551-8.71182E-01-3.54387E+00 1.62958E-01-1.60955E-01-1.31479E+00-1.73004E-01
 -1       552-1.44018E+00-2.32488E+00-1.04372E-01-2.39371E-02 6.90957E-01 7.98285E-01
 -1       553-9.92530E-01-2.85422E-02-1.30238E-01 1.84998E-01 1.95098E-02-4.27103E-03
 -1       554-2.72787E-01 1.30177E-01 1.83965E-01 1.75082E-03-2.35740E-01-3.25159E-02
 -1       555-1.73944E+00-1.51441E+00 1.72356E-01-3.72010E-01 1.04160E+00-1.31939E-01
 -1       556-1.65925E+00-1.85223E+00 4.16529E-01 7.79217E-02 8.49268E-01-1.64574E-01
 -1       557-2.33355E+00-3.04983E+00 7.84420E-01-1.74836E-02-5.34237E-02-3.92761E-01
 -1       558-5.45529E+00-1.61832E+00 7.10380E-01-8.42558E-01 7.06527E-01-1.73644E-01
 -1       559-2.59109E+00-2.23356E+00 8.46859E-01-2.79208E-01 7.98946E-02 6.62270E-01
 -1       560-3.60089E+00-6.87477E-01 1.83914E+00 1.14679E+00 6.69149E-01 8.60152E-01
 -1       561-1.13059E+00-1.88400E+00 7.81322E-01 6.04042E-01 5.17347E-01 2.06168E-01
 -1       562 5.56451E-01-5.20095E-01 3.38947E-01-2.35819E-01 1.15757E+00 6.24242E-01
 -1       563-4.89315E+00-3.42809E+00-1.47465E+00-2.83010E-01-3.05849E-01 2.35956E+00
 -1       564-3.70386E+00-2.69179E+00-1.65448E+00-1.22615E-01-1.34817E+00-2.79577E+00
 -1       565-2.22996E+00-2.61110E+00-6.89112E-01 4.99802E-01 6.66287E-01 1.47532E+00
 -1       566-1.70811E+00-2.13489E+00-1.45908E+00-4.48478E-01 1.19488E+00-1.08038E+00
 -1       567-1.62656E+00-9.95398E-01 1.17322E-01-9.04567E-02 1.10442E+00-7.40024E-02
 -1       568-9.26123E-01 3.72788E-01-3.97999E-01 2.27690E-01 1.34253E+00 1.13219E+00
 -1       569-2.06444E+00-1.08760E+00 5.52214E-02 5.85755E-02-1.39368E+00 4.83556E-01
 -1       570-2.14256E+00-2.11763E+00-3.19801E+00-1.09581E-01-1.71284E+00 1.95631E+00
 -1       571-3.26379E+00-2.31254E+00 8.34160E-02-2.50377E-01 3.18195E-01 3.64614E-02
 -1       572-2.38786E+00-3.28414E+00 6.02505E-01 4.49046E-01-6.90740E-01 6.12963E-01
 -1       573-1.34463E+00-3.23462E+00 5.71378E-01 7.19762E-01-9.99267E-01 4.32684E-01
 -1       574-1.15790E+00-5.13839E-02-5.62635E-01-7.82254E-01 6.96792E-01-2.76850E-01
 -1       575-6.69430E-01-1.85656E-01-2.02522E-01-4.30638E-01 9.16491E-01-5.18924E-01
 -1       576-2.94611E+00-2.29508E+00-9.73123E-02-9.82776E-02-5.27645E-02-3.91439E-01
 -1       577-4.17374E-01 9.13915E-01 8.23802E-01-6.25666E-01-8.45302E-01 9.43929E-01
 -1       578-6.26160E-01 7.93587E-01 4.11932E-01-8.28034E-01-9.52734E-01 5.22480E-01
 -1       579-1.32714E+00-1.28673E+00-2.65406E-01 2.92416E-02 1.26600E+00-8.46139E-01
 -1       580-1.82878E+00-1.84589E+00 7.60580E-01-2.03747E-01 7.82124E-01-4.19539E-01
 -1       581-2.71313E+00-2.35482E+00 8.16388E-01 7.85662E-02 1.38768E-01-6.84715E-01
 -1       582-2.62094E+00-9.02597E-01-4.88825E-01-8.53946E-01 7.98930E-01-8.44565E-01
 -1       583-1.53809E+00-2.41519E+00 8.07295E-01 1.16937E-01 3.24929E-01 4.31311E-01
 -1       584-4.83376E+00-2.03878E-01-1.35100E-01 2.61598E-01 1.00068E+00-1.51041E+00
 -1       585-1.43381E+00-1.39161E+00 5.22973E-01 2.79596E-01 9.65688E-01-1.07717E-01
 -1       586-1.03611E+00-1.00081E+00-3.38098E-01-2.57144E-01 1.20944E+00-7.12378E-01
 -1       587-4.10251E+00-3.47751E+00-1.97967E+00-9.17693E-01 6.08434E-01 2.63786E+00
 -1       588-3.51619E+00-2.41578E+00-1.08571E+00-1.18082E-01-1.03161E+00-2.20712E+00
 -1       589-3.26334E+00-2.36875E+00-1.36914E+00 2.43299E-01 1.63864E+00 1.46308E+00
 -1       590-2.41764E+00-2.79153E+00-1.06680E+00-1.61369E-01 5.03677E-01-1.66237E+00
 -1       591-3.30906E+00-1.05702E+00-4.78179E-01 3.47393E-01 8.00903E-01-1.10208E-01
 -1       592 1.29086E+00 2.53832E-01 1.74758E-01 5.82669E-01 1.29731E+00 8.81824E-01
 -1       593-1.78443E+00-1.93536E+00-2.36131E+00-2.61139E-01-1.00060E+00 2.17005E+00
 -1       594-2.07040E+00-2.15820E+00-4.75896E+00-3.54403E-01-3.34646E+00 9.84033E-01
 -1       595-6.23178E-01-7.33081E-01-4.58051E-01-6.00045E-01 5.84998E-01-5.02740E-01
 -1       596 1.77574E-01 3.16652E-01-2.06750E-01-3.32188E-01 5.69037E-01-5.35685E-01
 -1       597-2.57991E+00-2.33412E+00 2.82629E-03-4.19453E-01 3.19656E-01-2.24039E-01
 -1       598-1.22392E+00-1.48980E+00 3.15377E-01 2.55786E-01-1.88065E-01-3.50682E-01
 -1       599-3.65105E+00-3.56386E+00 4.61454E-01 2.64921E-01-8.45221E-01 8.49317E-01
 -1       600-2.08177E+00-2.21083E+00 2.01720E-01 1.34012E+00-1.19783E+00 7.16775E-01
 -1       601 4.33597E-01 4.72569E-01 5.86976E-01-1.12452E+00-8.49020E-01 8.05545E-01
 -1       602 6.27141E-01 7.35211E-01 4.69493E-01-7.29631E-01-1.08537E+00 6.58671E-01
 -1       603-1.30805E+00-1.39406E+00 1.58178E-01-2.93726E-02 8.12166E-01-7.33995E-01
 -1       604-1.98217E+00-1.35743E+00 4.75181E-01-2.89593E-01 3.90946E-01-7.78043E-01
 -1       605-2.20182E+00-3.19419E+00 9.22100E-01 6.16041E-04 1.04830E-01-4.14440E-01
 -1       606-3.28370E+00-3.56977E+00 6.64856E-01-1.65353E+00 1.71273E-01-7.65792E-01
 -1       607-1.73700E+00-2.84061E+00 1.01101E+00 7.14808E-01 8.11910E-01 3.70719E-01
 -1       608-4.35788E+00-1.02483E+00-5.74803E-01-1.46054E+00 1.10142E+00-1.86642E+00
 -1       609-1.89929E+00-7.72524E-01 6.63689E-01 1.17594E-01 6.38380E-01-3.38914E-01
 -1       610-8.67763E-01-1.55574E-01-3.24429E-01 1.43129E+00 8.76963E-01-5.38956E-01
 -1       611-2.72002E+00-3.79787E+00-2.48297E+00-4.49409E-01 2.25277E+00 2.78009E+00
 -1       612-3.24600E+00-3.28070E+00-1.32446E+00-7.96419E-01-2.17575E+00-1.46223E+00
 -1       613-3.15137E+00-1.86271E+00-7.43305E-01 1.71913E-01 1.28830E+00 2.94853E-01
 -1       614-1.65745E+00-1.28545E+00-1.29863E+00-6.20346E-02-4.42678E-01-2.03955E+00
 -1       615-2.80894E+00-3.06114E+00 6.69735E-01-1.43733E+00 4.39727E-01-5.39334E-01
 -1       616 1.07860E+00-7.90453E-02 3.62851E-01 3.75864E-01 1.10841E+00-9.61705E-01
 -1       617-1.26404E+00-2.19965E+00-2.19381E+00-3.01507E-01-3.93469E-03 2.80101E+00
 -1       618-2.12669E+00-1.81178E+00-3.94136E+00-3.09206E-01-2.08527E+00 1.46846E+00
 -1       619-1.86494E-01-7.34261E-01-3.77842E-01-6.19667E-01 4.19146E-01-1.21500E+00
 -1       620 5.96839E-01-1.14468E-01-6.37150E-01-5.55088E-01 2.43605E-01-7.46593E-01
 -1       621-2.16855E+00-3.46045E+00 7.65981E-02-4.37472E-02 9.80458E-02-7.62118E-02
 -1       622-2.01320E+00-2.76965E+00 2.31619E-01 4.05325E-02-1.25576E-01-1.92185E-01
 -1       623-3.64568E+00-3.27824E+00 2.70808E-01 4.98205E-01-1.44441E-01 1.21952E+00
 -1       624-3.64501E+00-2.68699E+00 3.66516E-01 9.07952E-01-1.07099E-01 1.11247E+00
 -1       625 1.14584E+00 6.28900E-01 2.86234E-01-8.46333E-01-7.51233E-01 1.24167E+00
 -1       626 1.59138E+00 1.06143E+00 1.17524E+00-8.51554E-01-9.98591E-01 1.37658E+00
 -1       627-7.55962E-01-7.14202E-01-5.90745E-01-1.70440E-01 3.92234E-01-1.62605E+00
 -1       628-1.81156E+00-1.35859E+00-1.01031E-01-2.47536E-01-5.70836E-02-1.23945E+00
 -1       629-2.86148E+00-1.86424E+00 5.73341E-01-3.67771E-01-3.20384E-01-5.43178E-01
 -1       630 3.35929E-01-7.94624E-01 2.63607E-01-1.70084E-01 4.68827E-01-9.95381E-01
 -1       631-1.95973E-01-1.63930E+00-5.65198E-01 8.47613E-03 4.98949E-01-1.29096E+00
 -1       632-2.57914E+00-1.64321E+00 9.26843E-01 1.00962E-02 6.67509E-01 1.59592E-01
 -1       633-1.86186E+00-1.25444E+00 6.25140E-01-3.19687E-01 3.78797E-01-7.18810E-01
 -1       634-5.33507E-01-1.29202E+00 1.45381E-01-1.52658E-01 9.99949E-01-1.93839E+00
 -1       635-3.61053E+00-4.72072E+00-2.52717E+00-1.11907E+00 2.79506E+00 2.04124E+00
 -1       636-3.50545E+00-2.61948E+00-8.79924E-01-8.38462E-01-1.41375E+00-5.46916E-01
 -1       637-2.69389E+00-1.29108E+00-7.44175E-01-4.00792E-01 1.39459E+00-3.91051E-01
 -1       638-1.22815E+00-6.23843E-01-9.84898E-01 2.95639E-01-7.44129E-02-9.73611E-01
 -1       639-3.52980E-01-1.13472E+00 3.55123E-03-3.92975E-02 1.15128E-01-9.51528E-01
 -1       640 1.09046E-01-1.11149E+00 7.58670E-01 4.33443E-01 5.10809E-01-5.74932E-01
 -1       641-1.35704E+00-3.38473E+00-2.96916E+00 1.89322E-01 1.98194E+00 1.59585E+00
 -1       642-2.77195E+00-3.11134E+00-4.71497E+00-5.00571E-01-1.89699E+00 3.29164E+00
 -1       643-7.25022E-01-1.41976E+00-4.55803E-01-1.57608E-02-1.45172E-01-1.10355E+00
 -1       644-7.86134E-02-3.42742E-02-5.09324E-01-5.88764E-02-1.06139E-01-1.33702E+00
 -1       645-2.28339E+00-2.62048E+00-1.41895E-02-5.04073E-01-1.66077E-01-3.58215E-01
 -1       646-1.98343E+00-1.06121E+00-1.37773E-01-3.47528E-01-6.88923E-01-2.54340E-01
 -1       647-4.06980E+00-3.05094E+00 1.55013E-01 4.95175E-02 1.49657E-01 1.22423E+00
 -1       648-3.34725E+00-3.37332E-01 2.96863E-01 2.94641E-01-1.31675E-01 8.73894E-01
 -1       649 7.32261E-01-7.32691E-01 5.85854E-01 2.43018E-02 1.52514E-01 6.36741E-01
 -1       650 9.39001E-01-4.79016E-01 1.02610E-01-1.56455E-01-1.17167E-01 5.86729E-01
 -1       651-1.37131E+00-9.89874E-01-5.80241E-01-1.58135E-01-5.67659E-01-1.52273E+00
 -1       652-1.97761E+00-1.58528E+00 4.63111E-01 1.31936E-01-4.47920E-02-8.47987E-01
 -1       653-3.30202E+00-2.57383E+00 2.55651E-01-1.22455E-01-2.24045E-01 9.34270E-02
 -1       654-1.29915E+00-3.40515E+00 1.25241E+00 1.43005E+00-8.34157E-01-1.24014E+00
 -1       655-2.92555E+00-8.00241E+00 1.03286E+00-5.42071E-01 1.06298E+00-1.10562E+00
 -1       656-3.20794E+00-1.99393E+00-9.80896E-02-1.76467E-01 1.55142E+00 5.92691E-01
 -1       657-1.65648E+00-1.20883E+00 1.18159E+00-2.71214E-01 4.94367E-01-6.55706E-01
 -1       658-8.28773E-01-1.23225E-01 4.23821E-01-2.35743E-02 1.14669E-01-8.19378E-01
 -1       659-2.72852E+00-1.11082E+00-1.35079E+00 3.90938E-01 1.20865E+00 7.34072E-01
 -1       660-2.48593E+00-1.25782E+00-3.28679E-01-7.32808E-01-7.66029E-01 2.00429E-01
 -1       661-2.16877E+00-2.04824E+00-5.48004E-01-5.81841E-01 1.35017E+00-8.04627E-01
 -1       662-2.48947E+00-2.34285E+00-1.32032E+00 6.40055E-01-1.06519E+00-1.09008E+00
 -1       663-5.74498E-01-9.13088E-01 6.15315E-01-1.16949E-01 3.49474E-01-4.52961E-01
 -1       664-1.19904E+00-1.49608E+00-6.02437E-01-2.22347E-01 2.57770E-01-1.02890E+00
 -1       665-1.74138E+00-1.15330E+00-2.10361E+00 2.50684E-01 1.07057E+00 1.28249E+00
 -1       666-1.82948E+00-2.50300E+00-3.82456E+00 4.81380E-01-4.79894E-01 3.28608E+00
 -1       667-3.36681E+00-2.63651E+00 7.89971E-02-6.35559E-01 3.25611E-01 1.69326E+00
 -1       668-4.00114E+00-2.65477E+00 6.30472E-01-9.03924E-01 5.97227E-01 1.29847E+00
 -1       669-2.60157E+00-2.37640E+00 1.16975E-01 3.24005E-01-1.17364E-01-1.78098E-01
 -1       670-2.35537E+00-2.20889E+00 2.81382E-02-3.11805E-02 1.82114E-01-5.02069E-01
 -1       671-6.60340E-01-1.13859E+00-2.44473E-01 2.76696E-01-5.15940E-01-1.08019E+00
 -1       672-2.84896E-02-8.37616E-01-3.92778E-01 3.71892E-01-1.99135E-01-8.30400E-01
 -1       673 1.23463E+00-4.77131E-02 3.20981E-01 5.98741E-01 7.71622E-01 7.95853E-01
 -1       674 9.37870E-01-6.37201E-01 2.70804E-01 6.95113E-01 3.63917E-01 7.02657E-01
 -1       675-1.01568E+00-1.04045E+00-2.20577E-01-1.62956E-01-7.74336E-01-1.84775E+00
 -1       676-1.52301E+00-1.47409E+00 5.33721E-01-8.63045E-02-3.95057E-01-5.65927E-01
 -1       677-3.45949E+00-2.34680E+00 4.97609E-01-4.01808E-02-5.20639E-01 5.75761E-02
 -1       678-2.08037E+00-2.73865E+00-4.34323E-01 8.54579E-01-6.07074E-01-4.76439E-01
 -1       679-6.51761E-01-2.95718E+00-3.96681E-01 5.09726E-02 2.85342E-01-6.14736E-02
 -1       680-2.29695E+00-1.97633E+00 1.59298E+00 4.57686E-01 3.19375E-01-2.42284E-01
 -1       681-1.61250E+00-1.64463E+00 4.15321E-01-3.68059E-01-8.48341E-02-9.13363E-01
 -1       682-8.26628E-01-7.63667E-01 2.47488E-01 1.77219E-01-3.69574E-01-1.78037E+00
 -1       683-3.20574E+00-4.93624E+00-1.35478E+00 4.96390E-01 3.35099E+00-6.30471E-01
 -1       684-2.80292E+00-2.90757E+00-2.04898E+00 2.43831E-01-2.02181E+00 1.70076E+00
 -1       685-2.68653E+00-3.03503E+00-1.04105E+00 1.32875E-01 1.03642E+00-1.35419E+00
 -1       686-2.01748E+00-2.35241E+00-8.45587E-01 2.11726E-01-1.45699E+00-2.25921E-01
 -1       687-7.81583E-01-2.84777E-01 2.75796E-01 1.57660E-01-1.32786E-01-9.80346E-01
 -1       688-1.05306E+00-4.06083E-01 5.87100E-01 7.88983E-01-3.15754E-01-8.56882E-01
 -1       689-3.34938E+00-2.18094E+00-3.39525E+00 4.80503E-01 2.48671E+00-1.05129E-01
 -1       690-1.54227E+00-2.36583E+00-1.82577E+00-5.50545E-01 2.53136E+00 2.03099E+00
 -1       691-3.79270E+00-3.66560E+00 2.46257E-01-3.71963E-01 8.86692E-01 1.05702E+00
 -1       692-1.89110E+00-1.88314E+00 5.42410E-02-1.62909E+00 1.24931E+00 1.06239E+00
 -1       693-2.32917E+00-2.16615E+00 4.69356E-02 1.72398E-01-1.62625E-01-1.52802E-01
 -1       694-1.42364E+00-1.58336E+00 3.51864E-01-3.67585E-01 1.54863E-01-4.93694E-01
 -1       695-9.79150E-01-5.89626E-01-3.82111E-01 7.50641E-01-6.96837E-01-5.94422E-01
 -1       696 4.31127E-02 3.21340E-01 6.43403E-02 4.33292E-01-6.78858E-01-7.14300E-01
 -1       697 6.27969E-01 3.28937E-01 3.89377E-01 1.09493E+00 8.14332E-01 6.02143E-01
 -1       698 9.10638E-01 5.27512E-01 9.00622E-01 8.09622E-01 6.64044E-01 8.67125E-01
 -1       699-1.64393E+00-1.92358E+00-2.38096E-01 7.99601E-02-8.04101E-01-5.70625E-01
 -1       700-1.71977E+00-1.44405E+00 4.45598E-02 9.29749E-01-1.16618E+00-2.58394E-01
 -1       701-2.67647E+00-2.80931E+00 7.61193E-01-2.13432E-01-5.83128E-01 1.38763E-01
 -1       702-1.68436E+00-1.98617E+00-1.58946E-02 2.60120E-01-1.74181E-01-5.48150E-01
 -1       703-9.51515E-01-2.41902E+00 1.17086E+00 8.67192E-01-3.78282E-01-8.92625E-01
 -1       704-2.63061E+00-2.64097E+00 2.99975E-01 2.84857E-02 6.88329E-01-6.90104E-01
 -1       705-9.25075E-01-1.19899E+00 7.01937E-01-1.16843E-01-2.90655E-01-9.05882E-01
 -1       706-1.31401E+00-7.95130E-01 6.18475E-01 5.80740E-01-7.72021E-01-1.12192E+00
 -1       707-1.39490E+00-1.48903E+00-1.76821E+00-4.10388E-01 1.45867E+00-5.93801E-01
 -1       708-3.64281E+00-3.32710E+00-1.80795E+00 6.31940E-01-1.78789E+00 2.40128E+00
 -1       709-1.45580E+00-1.72177E+00-5.92458E-01 5.82965E-03 1.24108E-01-1.37831E+00
 -1       710-8.25710E-01-1.49183E+00-1.66872E+00-3.30270E-01-1.51631E+00-2.85314E-01
 -1       711-5.88984E-01-4.57371E-01 1.42071E+00 9.66954E-02-8.97972E-01-2.77005E-01
 -1       712-1.24284E+00 4.68576E-02-6.58845E-01 3.24867E-01-4.67617E-01-1.15282E+00
 -1       713-3.05476E+00-2.53147E+00-2.75433E+00 8.42687E-01 1.65529E+00 2.78158E+00
 -1       714-3.09725E+00-2.13594E+00-4.28871E+00 1.82539E-01 2.82125E+00-1.04036E+00
 -1       715-2.79485E+00-2.59940E+00 1.95294E-01 1.46869E-01-2.23586E-03-9.94100E-02
 -1       716-2.74983E+00-4.09617E+00 3.58494E-01-1.90281E-01 1.47965E+00 3.43618E-01
 -1       717-8.57200E-01-3.54151E+00 1.81265E-01-9.04239E-01 1.49744E+00 1.51328E-01
 -1       718-4.52780E-01-1.75956E-01-4.30680E-01 1.58215E-01-7.94718E-01-3.34110E-01
 -1       719-5.99111E-01-4.73908E-01-2.82924E-01 8.44450E-03-9.75725E-01-4.18148E-01
 -1       720-2.29052E+00-2.39833E+00 1.61141E-01-2.76433E-01-4.65402E-01 2.69833E-01
 -1       721 5.19242E-01 1.09688E+00-1.55087E-01 3.31730E-01 6.21044E-01 1.90396E-01
 -1       722 6.18327E-01 1.12842E+00 6.08579E-01 8.56549E-01 1.15912E+00 4.03999E-01
 -1       723-1.28700E+00-1.54838E+00-8.04476E-02-5.03843E-01-1.27043E+00-1.02049E-01
 -1       724-4.53665E-01-9.67076E-01-3.35484E-01-3.59921E-01-1.17267E+00-3.23053E-01
 -1       725-2.90757E+00-3.05886E+00-1.07806E-01 1.39362E-01-5.41234E-01 1.01675E+00
 -1       726-4.42227E+00-1.55978E+00 1.50671E+00 4.35845E-01-4.40471E-01 8.68014E-01
 -1       727-5.52049E+00-3.52421E+00 5.52359E-01 1.81978E+00 1.31455E-02-1.22703E+00
 -1       728-2.33979E+00-3.41134E+00 7.20922E-01-1.29724E-01-1.06912E-02-3.42994E-01
 -1       729-1.19169E+00-1.77742E+00 3.64155E-01-2.94480E-01-9.34903E-01-3.68422E-01
 -1       730-1.08005E+00-7.65956E-01-3.72378E-01-3.12802E-01-1.31193E+00-7.75773E-01
 -1       731-4.37429E+00-3.07673E+00-1.79823E+00 8.56383E-01 1.59690E+00-2.28554E+00
 -1       732-8.83692E-01-3.11030E+00-5.44513E-01 6.85399E-02-1.32126E-01 9.14715E-01
 -1       733-3.34267E+00-2.80228E+00-1.10794E+00 2.88398E-01-7.17670E-01-1.51307E+00
 -1       734-1.04161E+00-1.43875E+00-1.04034E+00-8.51815E-01-9.47649E-01 6.19713E-03
 -1       735-2.05478E+00-1.19202E+00 1.30489E+00 8.43504E-01-5.41960E-01-1.51170E-01
 -1       736-6.39108E-01-1.15705E-01-7.11249E-02-2.73489E-01-3.98949E-01-1.18327E+00
 -1       737-2.22351E+00-9.94874E-01-1.77730E+00 7.17732E-01 2.39211E+00 4.62576E-01
 -1       738-3.24606E+00-2.31597E+00-3.88960E+00-5.95431E-01 2.02691E+00-2.12929E+00
 -1       739-3.09347E+00-2.24599E+00-8.71911E-02-1.74542E-01-3.49254E-01 4.38733E-02
 -1       740-3.57103E+00-3.93255E+00 1.19864E-01-3.33940E-01 1.35232E+00 1.59854E-01
 -1       741-5.55197E-01-2.89994E+00 6.15372E-01-1.56301E-01 1.06510E+00-1.46981E-01
 -1       742-1.19114E+00-3.19693E-01-4.27469E-01-1.53279E-01-9.17209E-01 8.90893E-02
 -1       743-1.46328E-01-9.32030E-02-3.46385E-01-1.37574E-01-9.00388E-01-5.45872E-02
 -1       744-1.27972E+00-2.00381E+00-3.06884E-02-4.22870E-01-2.39788E-02 6.79435E-01
 -1       745-7.72986E-02 1.49640E+00 7.01406E-01-2.30892E-01 1.13266E+00-1.88719E-01
 -1       746-2.91892E-01 1.17060E+00-1.87210E-02-1.98892E-01 7.73159E-01-6.51294E-02
 -1       747-1.96427E+00-1.79605E+00 1.26146E-01 2.09860E-01-9.61951E-01 2.55880E-01
 -1       748-7.42364E-01-7.56702E-01 1.93609E-01 1.18484E-01-1.71181E+00-2.85681E-01
 -1       749-3.06973E+00-3.27577E+00 2.45561E-01 2.91131E-02-3.11145E-03 3.07542E-01
 -1       750-3.98828E+00-1.72981E+00 5.78805E-01-3.92985E-01-6.73338E-01-2.66611E-01
 -1       751-3.86611E+00-1.94116E+00 1.29911E+00 5.51905E-01-7.36351E-01 5.64223E-01
 -1       752-2.48756E+00-2.81251E+00 2.76597E-01 2.19722E-01-3.04641E-01-1.12389E+00
 -1       753-1.08270E+00-1.80986E+00 5.37209E-01 5.22684E-01-5.94729E-01-3.43609E-01
 -1       754-4.46179E-01-7.52353E-01-3.54099E-02-2.45994E-01-1.81401E+00-6.58467E-01
 -1       755-1.07494E+00-1.84387E+00 1.95057E-01-4.82647E-01-4.17002E-01-8.73875E-01
 -1       756-1.37842E+00-2.65201E+00-8.54155E-01 4.50406E-01 3.41232E-01 1.10125E+00
 -1       757-3.16385E+00-2.59532E+00-1.20194E+00 1.60288E-01-9.16848E-01-1.84414E+00
 -1       758-4.68077E-01-1.46796E+00-8.42463E-01 7.64923E-02-9.49236E-01 4.15108E-01
 -1       759-2.30024E+00-1.17565E+00-9.85704E-01-8.34898E-02-7.84263E-01 1.96842E-01
 -1       760 6.90178E-01 1.11204E-01 6.68082E-02-2.08612E-01-8.88261E-01-7.16423E-01
 -1       761-2.28818E+00-1.00609E+00-1.10104E+00-4.25601E-01 1.84555E+00 3.21728E-01
 -1       762-2.21236E+00-2.58260E+00-4.15943E+00-3.55173E-01 1.60352E+00-2.43944E+00
 -1       763-2.92078E+00-2.23058E+00 2.63606E-01-2.67204E-02-1.12949E-01 2.97519E-01
 -1       764-1.35546E+00-3.11707E-01-1.20744E-01-3.91847E-01-9.78016E-01 3.92330E-01
 -1       765-9.37162E-01 1.17539E-01-5.35882E-01-5.77025E-01-5.99385E-01 6.56563E-02
 -1       766-3.06082E+00-3.39702E+00-4.01034E-02 4.04124E-01 1.49920E+00-2.00069E-01
 -1       767-2.46501E+00-3.51930E+00 4.41478E-01 8.07892E-01 1.25458E+00-5.62858E-01
 -1       768-2.11949E+00-2.19613E+00-1.08207E-02 1.15320E-01-6.89475E-01-8.41257E-02
 -1       769 1.50743E-01 1.53417E+00 5.67746E-01-5.79729E-01 1.18111E+00-6.88694E-01
 -1       770-7.13848E-01 1.76670E+00 5.38508E-01-7.34382E-01 1.26349E+00-4.12564E-01
 -1       771-1.44753E+00-1.18389E+00 3.08893E-01-1.06461E-01-6.24439E-01 4.56858E-01
 -1       772-3.98598E-01-5.77872E-01-1.19918E-01 5.61463E-02-1.20112E+00 8.90060E-01
 -1       773-2.70995E+00-2.86599E+00 9.45276E-01-2.48546E-01-1.76853E-02 3.98402E-01
 -1       774-6.39311E+00-4.06762E+00-6.43742E-01-1.53580E+00-5.12782E-01 9.78175E-01
 -1       775-2.53541E+00 6.67745E-02 1.05172E+00 4.03159E-01-6.01351E-01-3.30317E-01
 -1       776-1.65371E+00-2.82907E+00 9.54508E-01 8.85851E-02-2.28954E-01-6.49137E-01
 -1       777-1.71618E+00-1.53534E+00-2.73519E-01-6.08403E-02-1.21932E+00-2.12882E-01
 -1       778-1.89986E+00-5.16682E-01-5.43890E-01-3.38985E-01-1.41543E+00 6.34483E-02
 -1       779-3.90158E+00-3.73665E+00-2.50664E+00-7.60967E-01-4.62321E-01-3.23117E+00
 -1       780-3.41179E+00-2.26976E+00-3.14083E-01-1.16797E-01 8.60728E-01 1.59791E+00
 -1       781-8.85899E-01-1.72726E+00-1.48416E+00 5.71353E-01-1.33228E+00-7.62548E-02
 -1       782-2.99466E+00-2.16410E+00-1.96080E+00-1.28767E-01-4.51707E-01 2.33524E+00
 -1       783-1.60122E+00-3.41116E-01 6.90915E-01 1.38244E-01-9.12845E-01 5.44887E-01
 -1       784-1.50981E+00-6.76393E-01-3.01257E-01-4.32793E-01-8.59450E-01 6.11537E-01
 -1       785-1.97727E+00-2.16071E+00-2.33744E+00-7.67685E-01 2.97891E+00-9.61089E-01
 -1       786-1.46265E+00-2.34866E+00-4.34975E+00 5.52703E-02 4.86437E-01-2.16717E+00
 -1       787-3.82183E+00-3.04679E+00 1.54457E-01 1.59932E-01 7.40306E-01-7.20882E-01
 -1       788-1.91604E+00-1.34986E+00 7.73594E-01 1.06347E+00 7.54306E-01-9.11152E-01
 -1       789-2.54683E+00-2.35073E+00 4.50758E-03-3.39165E-01-9.57029E-02 1.79968E-01
 -1       790-1.62396E+00-1.26083E+00-3.74121E-01 5.52577E-01-3.81261E-01-4.91530E-01
 -1       791-9.51413E-01-1.05270E+00-2.54242E-01-3.64788E-01-5.49311E-01 6.02165E-01
 -1       792-4.59946E-02-3.10270E-01-4.72598E-02 5.57114E-02-4.94997E-01 4.40362E-01
 -1       793-3.06221E-01 3.71023E-01-2.80235E-01-6.82757E-01 3.80248E-01-9.43066E-02
 -1       794-2.06521E-01 8.97130E-02 6.91467E-01-6.83151E-01 7.49668E-01-2.97276E-01
 -1       795-1.23962E+00-1.68207E+00-6.23231E-01-5.40926E-01-5.94667E-01 9.04617E-01
 -1       796-1.71994E+00-1.46847E+00-1.34746E-02 2.24547E-01-4.02333E-01 8.45088E-01
 -1       797-2.99985E+00-2.95218E+00 4.22895E-01-2.57110E-01 5.10375E-01 5.32351E-01
 -1       798-3.12983E+00-3.67219E+00-1.62936E-01-1.61018E+00-3.52415E-01 8.89942E-01
 -1       799-2.52417E+00-2.54456E+00-1.35513E+00-1.20667E+00-7.93948E-01 4.99759E-01
 -1       800-2.17032E+00-1.88857E+00 1.04671E+00 4.77272E-01-4.67901E-01-7.29177E-01
 -1       801-1.75126E+00-1.46056E+00-1.57436E-01 4.81405E-02-8.66391E-01 1.36427E-01
 -1       802 1.76982E-01-4.98117E-01 5.09820E-01 4.39716E-01-1.11656E+00 3.84148E-01
 -1       803-4.01009E+00-3.83646E+00-2.48147E+00-6.78767E-01-1.79061E+00-2.86923E+00
 -1       804-2.40052E+00-1.67833E+00-1.48559E+00 5.35284E-01 1.29228E+00 1.03689E+00
 -1       805-1.31002E+00-9.04714E-01-1.05557E+00 4.82824E-01-8.15705E-01 7.04916E-02
 -1       806-1.49784E+00-1.31246E+00-1.15699E+00 7.69115E-01-6.24382E-01 1.50491E+00
 -1       807-1.75233E+00-7.52863E-01-2.97654E-02-2.81499E-01-3.00286E-01 6.09017E-01
 -1       808-1.46884E+00-1.56885E+00-2.15827E+00-4.31000E-01-1.14072E+00-3.95673E-01
 -1       809-2.08518E+00-2.30044E+00-2.88286E+00-4.64067E-01 2.13663E+00-1.84815E+00
 -1       810-2.42419E+00-2.98871E+00-5.37820E+00-3.59984E-01-8.79884E-01-3.28553E+00
 -1       811-4.14372E+00-3.83698E+00 6.82927E-01 3.17565E-02 4.37590E-01-1.06573E+00
 -1       812-3.42775E+00-1.51301E+00 2.20639E-01 8.60444E-01 1.43122E-01-1.20667E+00
 -1       813-2.22712E+00-2.65131E+00 2.62275E-01-2.35485E-01 1.27414E-01 5.01956E-01
 -1       814-2.75121E+00-2.34586E+00-8.51785E-02-3.91249E-01-2.92056E-01 7.14557E-02
 -1       815 1.40670E-01-1.32175E+00-6.25102E-01-4.61349E-01-2.92328E-01 8.76375E-01
 -1       816-1.21174E-01-4.13896E-01-3.09370E-02-1.67121E-01-5.41099E-01 1.08074E+00
 -1       817 1.75048E+00 1.53661E-01 7.73222E-01-8.53251E-01 1.22153E+00-8.00636E-01
 -1       818 9.45768E-01 1.90597E-02 4.95214E-01-7.53238E-01 4.69599E-01-9.20555E-01
 -1       819-9.69721E-01-6.27395E-01-7.57803E-01 2.31029E-01-5.61830E-01 1.53158E+00
 -1       820-1.49805E+00-1.58734E+00 3.67443E-01 2.78800E-01-9.98212E-02 1.04577E+00
 -1       821-2.28209E+00-2.49521E+00 1.15428E+00-1.98729E-01 1.72242E-01 5.51522E-01
 -1       822-1.69146E+00-5.22654E+00 5.29932E-02-9.22292E-01-1.48325E-02 7.75236E-01
 -1       823-3.69692E+00-5.15721E+00-3.19156E-01-1.40539E+00-6.48277E-03 4.12174E-01
 -1       824-3.78336E+00-2.67933E+00-2.72527E-01 2.68965E-01-9.44587E-01-3.35397E-01
 -1       825-1.70366E+00-1.49235E+00 3.11435E-01-7.24443E-02-3.83503E-01 7.12766E-01
 -1       826-2.81171E-01-3.41386E-01 2.32171E-01 1.17197E-01-1.14573E+00 1.16931E+00
 -1       827-2.75097E+00-1.46062E+00-3.75911E+00 4.88107E-01-1.53619E+00-1.84280E+00
 -1       828-2.42445E+00-2.40804E+00 1.48346E-01-3.39073E-01 1.60920E+00 6.76116E-01
 -1       829-2.33592E+00-2.04079E+00-1.06883E+00-1.76820E-01-1.27595E+00 5.71785E-01
 -1       830-1.87683E+00-2.02703E+00-5.97258E-01 5.12571E-01 2.75352E-01 1.21834E+00
 -1       831-1.09444E+00-9.21587E-01 6.11984E-01-9.59122E-01-2.68321E-01 4.45549E-01
 -1       832-9.69459E-01-1.38860E+00-1.77742E+00-1.27006E-01-1.73682E+00 1.02888E+00
 -1       833-1.73018E+00-1.86928E+00-4.36443E+00 3.36164E-02-3.51038E-01 4.92159E-01
 -1       834-8.83840E+00-2.44187E+00 1.02352E+00 7.29709E-01-1.28256E-01 2.76336E+00
 -1       835-3.86543E+00-1.87270E+00-4.52310E+00 2.85310E+00-5.57286E-01-2.66231E+00
 -1       836-2.24809E+00 3.19123E-01-8.00058E-01 5.41126E+00-1.45220E+00-4.45763E+00
 -1       837 2.66784E+00 6.21968E+00 2.66626E+00-3.74591E-01 3.84118E+00-8.01640E-01
 -1       838-1.09641E+00-6.91592E+00 2.87966E+00-1.71296E+00 3.80880E-01-2.02520E+00
 -1       839 6.98906E+00 1.83093E+00 3.55711E+00 1.56991E+00 2.46943E+00 4.19924E+00
 -1       840 2.20476E+00-2.46921E+00 2.72478E+00-1.13302E+00 4.38134E-01 3.64057E+00
 -1       841 8.48427E+00 3.39776E+00 7.28614E-01 7.49113E-01-5.33195E-01 3.26059E+00
 -1       842 1.89676E-01 1.56823E+00 3.78575E+00-4.00774E-01-2.77878E+00 4.95189E-01
 -1       843-2.51430E+00-2.48991E+00-5.24311E+00 1.52414E-01 3.27286E+00-2.34270E+00
 -1       844-1.22297E+01-1.23975E+01-7.38815E+00 5.19305E+00 7.42637E+00-6.47574E+00
 -1       845 1.90451E+00 3.38194E+00 1.26891E+00-1.58050E+00 5.82503E+00-1.11650E+00
 -1       846-2.98875E+00-9.28555E+00 3.29610E-01 9.49068E-01 5.06750E+00-1.75738E+00
 -1       847 1.01936E+01 8.66398E+00 5.65728E+00-3.72018E+00-5.15207E+00 6.11585E+00
 -1       848-4.35279E+00-1.10921E+00 1.17248E+00 1.62109E+00-6.00042E-01 2.24843E-01
 -1       849-7.91243E-01 1.75771E-01-3.80746E-01-5.19142E-01-7.17067E-01 4.24779E+00
 -1       850 1.18436E+00 2.13817E+00 4.37922E+00-1.39133E-02-1.42409E+00 4.45324E+00
 -1       851-7.74697E-01 2.48988E-01-6.73951E-01-7.87054E-02-3.23835E+00 3.15929E+00
 -1       852 5.90373E+00-1.91724E-01 1.38798E+00 2.91463E-01 2.78141E+00 2.29862E+00
 -1       853-3.04625E+00-2.17817E+00-8.44193E-01 1.74776E+00-5.07941E+00 4.71372E+00
 -1       854-3.55472E+00-1.39703E+00 2.99137E+00-2.30214E+00 1.67899E+00-4.70404E-01
 -1       855 7.13422E-01 1.00635E+00 3.72047E+00 5.77732E-01-4.44881E+00 2.67334E+00
 -1       856-2.48567E+00-1.29869E+01-4.35124E+00-1.20856E+00 6.46119E+00 2.95251E+00
 -1       857 3.67357E+00 3.03545E+00 8.59565E+00 8.45165E-02-4.27251E+00 2.26904E+00
 -1       858-6.31650E-01-4.80495E+00 2.26762E+00-9.08266E-01-1.62574E-01 7.50928E-01
 -1       859-1.07962E+00-6.36652E+00-5.94835E-01-1.39588E+00-5.97783E+00-5.01956E-01
 -1       860-3.60797E+00-7.35006E+00-3.57858E+00-1.70909E+00-7.12964E+00-2.58963E+00
 -1       861-1.90148E+00-5.69773E+00 1.76420E-01 9.94529E-01 5.74182E+00 2.54538E-01
 -1       862-7.43324E-01-1.97548E+00 2.35365E+00-1.40503E+00 8.05467E-01-4.36021E-01
 -1       863-6.25836E+00-1.10941E+01-5.20572E+00-2.46034E+00-5.69505E+00-1.65181E+00
 -1       864-2.59612E+00-4.45870E+00-2.01861E+00 1.49174E+00 9.35632E+00-5.69010E+00
 -1       865-4.11023E+00-7.00473E+00-2.60715E+00-2.52776E+00-4.22530E+00-2.46570E+00
 -1       866-5.83200E+00-2.16486E+00-1.55216E+00-1.84587E+00-2.22959E+00-4.94710E+00
 -1       867-4.70288E+00-3.61872E+00 1.98211E-01 1.57182E+00 2.67467E+00-3.90747E+00
 -1       868 1.06774E+00-2.75087E+00-2.09788E-01-1.77997E+00-2.33753E+00-5.54072E+00
 -1       869-3.25386E+00-3.67602E+00-3.13174E+00 1.59074E+00 2.76746E+00-4.12924E+00
 -1       870 8.44495E+00 5.56127E+00 2.04185E+00 4.06107E+00-1.68848E+00-5.52557E-02
 -1       871-3.16318E+00-1.68622E+00 8.99662E-02 1.54175E+00 2.92944E+00-8.18718E+00
 -1       872-6.44789E+00-2.78182E+00-1.60749E+00-1.39444E+00 7.48307E-01-4.23052E-01
 -1       873 1.74569E+01 5.70851E+00 6.39418E+00 3.19945E+00 2.41895E+00 2.49068E+00
 -1       874 2.55679E+00-7.45510E+00-1.59269E+00 1.21194E+00 3.77329E+00 7.96574E-01
 -1       875 2.82665E+00 4.65202E+00 2.24360E+00 1.36136E+00 2.29553E+00 1.93628E+00
 -1       876 2.72403E+00 5.11197E+00 2.35080E+00 1.20818E+00 3.81817E+00 7.64826E-01
 -1       877 5.41346E+00 2.04498E+00-6.79855E-01-1.37899E+00 2.12601E+00-1.62859E+00
 -1       878 4.36654E+00 3.60632E+00-5.80104E-01-2.83230E+00 2.49186E+00-2.92941E+00
 -1       879 4.52175E+00 9.14946E-01-2.49950E+00-4.08607E-01 2.36143E+00-4.04159E+00
 -1       880 1.90321E+00 4.38961E+00-1.27170E+00 1.78413E+00 1.40487E+00-2.85091E+00
 -1       881 7.51412E+00 4.71041E-01 2.56769E+00-6.78717E-01-2.12993E+00-5.16929E+00
 -1       882 1.32744E+01 8.94886E+00 4.47899E+00 6.09160E+00-2.71495E+00-7.53105E-01
 -1       883 1.86309E+00-1.56289E+00-2.92688E+00-2.12965E+00 1.09707E+00 1.68100E+00
 -1       884 3.10059E+00 6.23985E-01 2.40984E+00 8.83601E-01-4.49057E+00-7.73073E-01
 -1       885 5.09174E-01 5.46358E+00-2.23958E+00 7.19789E-01 4.63995E+00-6.09556E-01
 -1       886 3.93837E+00 5.92446E+00 1.34616E+00-1.86632E+00 5.41261E+00-4.17325E+00
 -1       887 1.28513E+01 5.37601E+00 5.40765E+00-4.02325E+00-7.58431E-01 7.40394E+00
 -1       888 1.61037E+01 7.04962E+00 6.94600E+00-2.03141E+00-2.84859E+00 1.03912E+01
 -1       889 1.13737E+01 6.71554E+00 5.42677E+00-2.63272E+00-5.92361E+00 8.18077E+00
 -1       890 2.25577E+00 5.80060E+00 3.00008E+00-1.28336E+00-3.91982E+00 5.39561E+00
 -1       891 8.73731E+00 1.37304E+01 6.74031E+00-3.73620E+00-8.77098E+00 4.68829E+00
 -1       892 1.01683E+01 2.27142E+01 9.86476E+00-2.76997E+00-1.17108E+01 3.74273E+00
 -1       893 1.91649E-01-4.30773E+00-1.86678E+00-2.79515E+00-8.80867E+00-6.04037E-01
 -1       894 2.76551E+00 8.12241E+00 1.89468E+00 1.01144E-01-3.93588E+00-1.19708E+00
 -1       895-1.73345E+00 3.73883E+00-4.99063E+00-3.78009E-01 1.40681E+00 2.14120E+00
 -1       896 1.37861E+00 1.27059E+00-4.01486E+00 2.40266E+00-7.06472E-01 2.36574E+00
 -1       897-5.75293E+00-2.97388E+00 7.53530E-01 5.05698E-01 3.12315E-01-7.45959E-01
 -1       898-2.93582E+00-3.18534E-01-3.36042E-01-2.26675E-02 3.00917E-01-1.11655E+00
 -1       899-5.98034E+00-1.66060E+00 2.72072E-01 5.22737E-01-1.31913E-01-3.00298E-01
 -1       900-2.74542E+00-2.20818E+00 3.21463E-01 4.88573E-02 4.49571E-01-2.53525E-04
 -1       901-1.41758E+00-1.30682E+00 9.55514E-02-6.68950E-02 4.03366E-02 1.04595E+00
 -1       902 7.37135E-01-5.64237E-01-2.76780E-01-1.98878E-01-1.93833E-02-1.49562E-01
 -1       903-1.12160E+00-1.94726E+00 1.35908E-01-4.83101E-01 1.27305E-01 1.39602E+00
 -1       904-3.52226E+00-1.17067E+01-2.24417E+00-4.31364E-01 8.56540E-01 2.02376E+00
 -1       905-1.45457E+00-2.41675E+00 5.11159E-01 9.22045E-02 1.83630E-01 4.29411E-01
 -1       906 1.47519E-01-9.28806E-01 5.78836E-01 1.92317E-01-1.72994E-02 1.46609E+00
 -1       907-1.87009E+00-2.59458E+00-3.04961E-01-3.52338E-01-7.30900E-01 7.81606E-01
 -1       908-1.64135E+00-2.52715E+00-1.83855E-01-2.70716E-02-2.04689E-01 1.20535E+00
 -1       909-1.11584E+00-2.86988E+00-1.04983E+00 1.67950E-01-1.03990E-01 4.70165E-01
 -1       910-3.17989E+00-1.44755E+00-2.04439E-01-5.27781E-01-4.87017E-01-1.04387E+00
 -1       911-5.15893E+00-3.85004E+00 5.46563E-01-1.17715E+00-3.35792E-02-4.71683E-02
 -1       912-1.90187E+00-1.95586E-01-2.78194E-01-3.92444E-01-1.08680E-01-8.67138E-01
 -1       913-1.09190E+00-6.33727E-01 2.41811E-01-1.28161E-01 6.09239E-01 1.12546E+00
 -1       914-3.28109E+00-4.84209E+00-1.88038E+00 2.42762E+00 1.79851E+00 1.96788E+00
 -1       915-2.25755E+00-5.05607E+00-3.88338E-01 7.25865E-01 8.23315E-02 7.81261E-01
 -1       916-3.02929E-01-7.86537E-01-5.36698E-01-6.60973E-02-1.18529E-02 1.11952E+00
 -1       917-9.48511E-01-1.02143E+00-2.77422E-01-5.72926E-01 3.55659E-01 7.23720E-01
 -1       918-9.03638E-01-5.79471E-01 2.28333E-01 1.23489E-01 4.43465E-01 9.15448E-01
 -1       919-2.21427E+00-8.10671E-01-9.26883E-01 8.46517E-01 1.10316E+00 1.03387E-01
 -1       920-1.89195E+00-1.23131E+00 4.18134E-02-1.51066E-01 4.44287E-01 3.90942E-01
 -1       921-2.16829E+00-2.40953E+00 3.85448E-01-1.55361E-01 2.21602E-01-7.82274E-02
 -1       922-3.85615E+00-3.62710E+00 6.64028E-01-1.35649E+00-1.86330E-01 7.12278E-02
 -1       923-1.90792E+00-1.43186E+00-6.98114E-02-9.00585E-01-7.83730E-01-7.23318E-01
 -1       924-2.37442E-01-3.33547E-01 3.30250E-01 5.38030E-02 8.57852E-01 8.93836E-01
 -1       925-5.91972E+00-4.87884E+00 1.82596E+00 2.69778E+00 4.95715E-01 1.61431E+00
 -1       926-1.07999E+00-7.85426E-01 7.74727E-01 5.02653E-01 1.26408E-01 8.12344E-01
 -1       927-3.09066E-02 2.31855E-01-3.36067E-01 1.12657E+00 3.11465E-01 7.82099E-01
 -1       928-2.14058E+00-1.53374E+00-8.09752E-01 9.44206E-01 4.16283E-01 2.82186E-01
 -1       929-2.00739E+00-1.97092E+00-2.50345E-01 4.55421E-01 3.81824E-01 1.02202E+00
 -1       930-1.23998E+00-2.52064E-01-8.05930E-02-1.14254E-01 2.45863E-01 6.52354E-01
 -1       931-1.42362E+00-1.21178E+00-1.50729E-01 5.32215E-01 9.21318E-02 2.38074E-01
 -1       932-1.90337E+00-3.12834E+00 1.99847E-01 2.44356E-02 1.31426E-01-1.41351E-02
 -1       933-8.34851E-01-1.15500E+00 8.84620E-02-2.95123E-01 1.21078E+00 4.39249E-01
 -1       934-1.35540E+00-3.13162E+00-4.88391E-01-1.08382E+00-1.15147E+00-8.50515E-01
 -1       935-1.65216E+00-1.89023E+00 3.83025E-01-8.85753E-01 1.81903E-01 5.80047E-01
 -1       936-2.00000E+00-2.29813E+00 2.25909E-01 5.49705E-02 5.85121E-01 2.69736E-01
 -1       937-4.13785E-02 7.21462E-02-1.42564E-01-3.39724E-02 9.96876E-01 3.14288E-01
 -1       938-7.38060E-01-5.44943E-01-4.84977E-01-6.16264E-01 1.14943E+00 7.03270E-01
 -1       939-6.94071E+00-3.43512E+00-1.95992E+00 1.36661E+00 1.33497E+00 9.41808E-01
 -1       940-2.26348E+00-2.63390E+00-1.07927E+00 4.94255E-01 4.40340E-01 2.37934E-02
 -1       941-7.38480E-01 8.51594E-02-1.95166E-01 7.20728E-01 5.90026E-01 1.11569E+00
 -1       942-2.86663E+00-2.49263E+00-1.14435E+00 9.85270E-01 3.71899E-01 6.06115E-01
 -1       943-1.58828E+00-8.81239E-01 4.51314E-02 2.01128E-01 1.05198E+00 6.08486E-01
 -1       944-6.53956E-01-5.11422E-01-2.72910E-01-6.30603E-01 9.92446E-01 5.25510E-01
 -1       945-2.58672E+00-1.28065E+00-1.65740E+00 2.87455E-01 6.94174E-01 3.18557E-01
 -1       946-2.57584E+00-2.84155E+00 7.50566E-01 1.34978E-01 1.10402E-03-3.14417E-01
 -1       947-2.69802E+00-5.35643E+00 4.22538E-01-1.20212E-01-1.47874E-01-3.81654E-02
 -1       948-9.38995E-01-3.14882E+00-2.26970E-01-1.62083E-01-1.33109E+00-5.45271E-02
 -1       949-2.03988E+00-2.22105E+00 1.53560E-01 3.39416E-01 2.66968E-01 1.10832E-01
 -1       950-7.14934E-01-1.25321E+00-4.66040E-01 2.61664E-01 1.12083E+00 1.15689E-01
 -1       951-6.90518E+00-2.91043E+00-7.90929E-01-5.90501E-01 1.43292E+00 2.13913E-01
 -1       952-5.12635E-01 1.40090E-01 1.97171E+00 7.56626E-01 6.56782E-01 1.03518E-01
 -1       953 6.50546E-01 5.34234E-02 9.47454E-01 5.44423E-01 1.56236E+00 5.34562E-01
 -1       954-4.29733E+00-1.68237E+00-7.15728E-01-4.87601E-02 4.77706E-01 2.73606E-01
 -1       955-1.24414E+00-1.51960E+00-4.60711E-01 6.17965E-01 5.79662E-01 1.03220E-01
 -1       956-2.10464E+00-1.48730E+00-3.42704E-01-5.26819E-01 9.02977E-01-6.24177E-02
 -1       957-4.82485E+00-2.08458E+00-1.73895E+00 1.24552E-03-2.60958E-01-2.28842E-01
 -1       958-2.00116E+00-1.68513E+00 3.58485E-01 4.45430E-03 3.55907E-01 5.71892E-02
 -1       959-1.29235E+00-1.97058E+00 4.78466E-04-5.09830E-02 3.25978E-01-7.41854E-01
 -1       960-2.47520E+00-2.27260E+00 2.21977E-01 6.12180E-02 2.94790E-02-4.80870E-01
 -1       961-1.27424E+00-1.24625E-01-4.09246E-01-7.93789E-01 8.48943E-01-1.17298E+00
 -1       962-5.48875E-01-8.77460E-01 4.49774E-01 2.11809E-02 1.44630E+00-4.99992E-01
 -1       963-1.22391E+01-8.47559E+00-1.34226E+00-3.70596E+00 2.27594E+00-1.47442E+00
 -1       964-3.63222E+00-2.21283E+00 4.23278E-02-8.26520E-01 2.82888E-01-1.00666E+00
 -1       965-9.23079E-01 3.69142E-01 3.57936E-02-9.32503E-01 6.49817E-01-2.18047E-01
 -1       966-3.35699E+00-1.46706E+00-3.57999E-01-4.38858E-01 5.32274E-01-6.64001E-02
 -1       967-2.43322E+00-1.39370E+00 3.43473E-01-3.18161E-01 6.03974E-01 8.29003E-02
 -1       968-5.26394E-01-6.40324E-01 8.20466E-01 2.43511E-01 8.78223E-01-6.76821E-02
 -1       969-3.58526E-01-1.97570E+00-1.87529E+00-6.79050E-01 6.84834E-01-2.89494E-02
 -1       970-2.18929E+00-1.39172E+00 6.25696E-02-5.45888E-02 3.83203E-01-1.65089E-01
 -1       971-1.33949E+00-1.87440E+00-6.14088E-02 1.36543E+00-4.00084E-01 7.48900E-01
 -1       972-3.94610E+00-4.83590E+00 6.90818E-01 1.41202E+00 2.60411E-02 1.01764E-01
 -1       973-1.42438E+00-1.85130E+00-9.40569E-03 1.08506E+00-7.69275E-01 7.74748E-01
 -1       974-2.17994E-01-1.14032E-01-4.44359E-01-3.26749E-01 7.22997E-01-8.65490E-01
 -1       975-1.14432E+00-1.02072E+00-9.29822E-02-1.11552E-01 8.12980E-01-7.73130E-01
 -1       976-5.01961E+00-2.97096E+00-1.13972E+00-2.57351E+00 7.18203E-01-6.13487E-01
 -1       977-2.56612E+00-2.26211E+00-4.01109E-01-1.02813E+00 4.67444E-01-7.99913E-01
 -1       978-4.70796E-01-3.39333E-01-4.02522E-01-9.97207E-01 1.13006E+00-4.61092E-01
 -1       979-1.89803E+00-3.78638E+00-1.98961E+00-1.53758E+00 4.02757E-01-5.07221E-01
 -1       980-2.38565E+00-5.59757E-01-1.67474E-02 2.84015E-02 9.80337E-01-5.64315E-01
 -1       981-3.01338E+00-2.13332E+00-7.16838E-01-8.67220E-01 1.85610E-01-1.06061E+00
 -1       982-2.34023E+00-2.79514E+00-8.59804E-01-1.09360E+00-6.51579E-01-1.32279E+00
 -1       983-1.01577E+00-6.83284E-01 2.91370E-01-3.97880E-01 2.25729E-01-1.25532E+00
 -1       984-2.37876E+00-1.68654E+00 1.57035E-01-3.96799E-01 3.10265E-01-3.24847E-01
 -1       985-1.60893E+00-1.58644E+00-3.46782E-01 2.32382E-01-5.40623E-01 1.17276E+00
 -1       986-5.30629E+00-2.56340E+00 3.58156E-01 4.63356E-01 6.85715E-01 7.12340E-01
 -1       987-2.89198E+00-1.33406E+00-4.71541E-01 9.35343E-01-6.94641E-01 1.10415E+00
 -1       988-1.80917E+00-1.30882E+00-1.09233E+00-4.74765E-01 6.47419E-01-1.19643E+00
 -1       989-3.74160E+00-8.25847E+00-1.63051E+00-7.91917E-01 1.02508E+00-1.39044E+00
 -1       990-1.98464E+00-4.52770E+00-1.18079E+00-1.07707E+00 7.90988E-01-1.54510E-01
 -1       991-3.75828E-02-6.67414E-01-3.52301E-02 8.83439E-02 9.06769E-01-1.61658E+00
 -1       992-1.97696E+00-3.08718E+00-1.32595E+00-6.58209E-01 4.08848E-01-4.81786E-01
 -1       993-2.15435E+00-1.45732E+00-8.05550E-01-6.10896E-01-1.84450E-01-1.00918E+00
 -1       994-8.93070E-01-1.21579E+00-4.35570E-02-2.57754E-01-2.26932E-02-8.56981E-01
 -1       995-1.56851E+00-3.47025E+00-8.90679E-01-3.44155E-01-1.81815E-01-3.51879E-01
 -1       996-2.15535E+00-1.86203E+00 4.21622E-01-3.23719E-01 5.49780E-02-4.14216E-01
 -1       997-1.86887E+00-1.41133E+00-3.97658E-01-8.08915E-02-2.94130E-02 1.43395E+00
 -1       998-5.80751E+00-2.50209E+00 8.24588E-02-2.69924E-01-1.47651E-02 3.60333E-01
 -1       999-2.49761E+00-1.18380E+00-4.25378E-01-8.04440E-02-1.83385E-01 1.19132E+00
 -1      1000 3.85877E-01-4.64166E-01 1.31475E-02 1.87027E-01-1.01419E+00-1.09674E+00
 -1      1001-9.72265E-01-9.52587E-01-8.48666E-02 2.19665E-01-3.14835E-01-1.38885E+00
 -1      1002-2.24028E+00-6.80584E+00 8.10583E-01-2.97308E-01 8.59552E-01-1.24833E+00
 -1      1003-5.51967E-01-1.42335E+00 1.07700E+00-4.89078E-03-3.41150E-01-5.82588E-01
 -1      1004-1.99883E-01-9.86881E-01 5.45903E-01 1.62911E-01-8.13664E-02-8.44453E-01
 -1      1005-1.32564E+00-2.28903E+00-1.58103E+00-4.64080E-01 2.82704E-01-2.24536E-01
 -1      1006-7.35355E-01-1.38055E-01 3.44038E-01 8.18692E-02 5.41242E-01-1.06117E+00
 -1      1007-1.45701E+00-2.28468E+00-5.28402E-01-1.59973E-01 6.20964E-01-8.53090E-01
 -1      1008-5.21628E-01-2.02212E+00-2.39540E-01-1.50225E-01-3.36895E-01-6.60284E-01
 -1      1009-1.54936E+00-1.30988E+00-2.60078E-01-8.01685E-02 5.61511E-01 1.14596E+00
 -1      1010-5.64009E+00-3.24749E+00 5.82083E-01-8.59129E-01 4.47725E-02 1.69631E-02
 -1      1011-3.40372E+00-2.01916E+00 5.10167E-01 2.51416E-01 4.91245E-02-1.19805E-01
 -1      1012-1.93798E+00-1.72950E+00 1.50905E-01-2.05585E-01 6.85778E-02-5.64007E-01
 -1      1013 3.37115E-01-7.05870E-01-4.19381E-01 5.44293E-01 1.93255E-01 1.76892E-01
 -1      1014-1.30427E+00-1.77878E+00 4.45911E-02-8.82327E-02-2.98419E-01-1.34614E+00
 -1      1015-5.56723E+00-7.70212E+00-1.59276E+00 1.92675E+00-3.85283E-01-1.35558E+00
 -1      1016-1.42256E+00-4.10130E+00 2.38921E-01 9.46250E-01-1.48133E-01-4.58258E-01
 -1      1017-4.16470E-02-5.26066E-01 1.25403E+00 4.97509E-01-2.92950E-01-1.90766E+00
 -1      1018-1.34407E+00-2.47306E+00-6.19701E-02 3.98422E-01 7.66908E-02-8.83284E-01
 -1      1019-9.62987E-01-2.10894E+00-7.95677E-01-7.32654E-01-1.30248E-01-5.98466E-01
 -1      1020-8.88986E-01-1.99715E+00 2.10180E-01 1.72113E-01-6.29261E-01-3.59962E-01
 -1      1021-2.66478E+00-2.93791E+00-1.55288E+00 1.05408E+00-6.07227E-01 6.02930E-02
 -1      1022-4.72004E+00-4.97142E+00 7.31389E-01-1.33730E+00-2.39698E-02 2.49177E-01
 -1      1023-2.32731E+00-2.56207E+00-4.19299E-01 1.92356E-01 1.15389E+00 1.16878E+00
 -1      1024-3.79750E+00-3.89847E+00 1.91220E-01-2.11210E+00 3.57728E-01 1.16918E-01
 -1      1025-2.62041E+00-1.96507E+00 3.75736E-01-4.21302E-01-8.83365E-02-3.08316E-01
 -1      1026-1.52314E+00-1.62961E+00 3.62487E-01-3.01692E-01-3.39481E-01-4.73775E-01
 -1      1027-8.12338E-02 2.25848E-01-4.90189E-01 7.10856E-01 1.80458E-01 4.48320E-02
 -1      1028-9.26835E-01-6.19798E-01-4.17381E-01 3.34922E-01-1.41090E+00-2.38878E-01
 -1      1029-1.25711E+00-1.27690E+00 4.74154E-01 2.07042E-01-9.12288E-01-5.45642E-01
 -1      1030-2.61786E+00-4.28898E+00-2.48505E+00 1.44568E+00-1.54962E+00-1.73456E+00
 -1      1031-3.18580E+00-3.05767E+00 9.77830E-01 1.12395E+00-1.67242E-01-4.95540E-01
 -1      1032-1.06532E-01-4.16561E-01-3.59799E-02 6.88447E-01-8.60975E-01-1.38266E+00
 -1      1033-1.37955E+00-1.52296E+00 3.38616E-01 6.81542E-01-2.38868E-01-3.96762E-01
 -1      1034-1.00600E+00-1.51984E+00-1.92634E-01 2.61554E-01-7.95137E-01-7.20642E-01
 -1      1035-1.38860E+00-1.48166E+00-2.80747E-01 5.37684E-01-7.99593E-01-2.92818E-01
 -1      1036-2.55404E+00-1.98179E+00-1.18962E+00 6.90971E-01-5.22532E-01 3.42803E-02
 -1      1037-1.50900E+00-2.41448E+00 1.05056E-01-6.38921E-02-6.52394E-01-2.62621E-01
 -1      1038-3.31228E+00-6.29492E+00 7.49406E-01-7.74609E-01 6.92988E-01-1.21812E-01
 -1      1039-1.68784E+00-3.51306E+00 4.45721E-01 1.41022E-03-1.71288E-01 1.22953E-01
 -1      1040-7.70135E-01-1.72242E+00-5.55117E-01 1.86308E-01-1.11453E+00-1.76216E-01
 -1      1041-8.19656E+00-4.15902E+00 4.79598E-01 1.42454E+00-2.06001E+00-1.30838E-01
 -1      1042-3.57217E+00-3.34703E+00-9.02505E-01 1.41923E+00-4.72353E-01-3.21905E-01
 -1      1043-5.19783E-01-1.26657E+00-5.53106E-01 1.15552E-01-1.15692E+00-8.98693E-01
 -1      1044-1.47114E+00-7.99426E-01 3.71039E-01 1.50332E-01-9.78830E-01-2.77728E-01
 -1      1045-1.40907E+00-5.89973E-01 5.86118E-02-3.41206E-01-1.02639E+00-9.38685E-02
 -1      1046-3.06589E+00-1.89791E+00-6.34010E-01 6.54086E-01-2.98564E-01 1.32250E-01
 -1      1047-1.78708E+00-2.00163E+00 2.38548E-01 2.48805E-01-3.84671E-01-1.59785E-01
 -1      1048-2.57044E+00-1.86385E+00-4.43130E-01 2.08803E-01 1.42518E+00 1.49366E-01
 -1      1049-2.73838E+00-5.76606E+00 5.55435E-01-1.15734E-01 3.37267E-01-3.29436E-01
 -1      1050-9.18193E-01-1.19656E+00 2.12556E-01-7.03106E-02-1.22669E+00 1.58038E-01
 -1      1051-4.06775E-01 7.53733E-01-3.29780E-01-1.31965E-01 2.59109E-01-2.12303E-02
 -1      1052-6.80140E-01 4.92204E-01 4.37285E-01 6.00170E-01-1.77094E+00-1.42927E-01
 -1      1053-9.07374E-01-1.21217E+00-1.99039E-01 1.56319E-01-1.40113E+00-3.02599E-01
 -1      1054-5.96242E+00-2.12769E+00-1.61333E+00 1.59359E+00-1.65051E+00-4.75736E-01
 -1      1055-3.54739E+00-1.61889E+00 1.29697E+00-1.92698E-01-3.26608E-01-2.08214E-01
 -1      1056-4.92225E-01 3.29546E-01-2.53470E-01-3.60349E-03-1.31495E+00-3.77746E-01
 -1      1057-2.57209E+00-1.16211E+00-1.02917E+00 7.01894E-01-9.95050E-01-1.93162E-01
 -1      1058-9.26506E-01-1.24024E+00-8.69365E-01-3.44297E-01-8.54391E-01-4.39438E-01
 -1      1059-1.19257E+00-1.13589E+00 3.20884E-01-2.47968E-01-5.53029E-01 2.88418E-01
 -1      1060-3.99336E+00-1.27515E+00-1.12754E+00 4.93833E-02-5.17292E-01 2.43962E-01
 -1      1061-2.44605E+00-2.56197E+00 5.40121E-01 1.26600E-01-5.99786E-02 2.91371E-01
 -1      1062-1.80993E+00-1.45724E+00-3.46619E-01 4.57173E-02 1.09564E+00-4.31286E-01
 -1      1063-2.86159E+00-5.29175E+00 5.91011E-01 6.59555E-01 2.03167E-01-8.91498E-02
 -1      1064-1.54775E+00-3.15317E+00 7.24021E-02 1.52043E-01-2.16374E-01-8.67387E-01
 -1      1065-1.34326E+00-1.51904E+00 4.08381E-02 5.16340E-02-8.06404E-01 4.31942E-02
 -1      1066-5.77232E-01-7.56942E-01 2.80785E-01 2.06109E-01-7.63727E-01 3.10612E-01
 -1      1067-8.85473E+00-3.92153E+00-1.73753E+00-2.17613E+00-2.05704E+00 2.14069E+00
 -1      1068-2.78869E+00-1.56826E+00 4.34189E-01-9.49752E-01-6.96230E-01-8.78793E-02
 -1      1069-5.35167E-01 1.70495E-01-5.29885E-02-4.84399E-01-7.87124E-01 2.15869E-01
 -1      1070-4.06692E+00-1.43281E+00-1.23189E+00 4.71832E-02-4.06533E-01 2.28532E-01
 -1      1071-9.64450E-01-8.99892E-01-4.43667E-01 1.39155E-02-1.23223E+00 2.12734E-01
 -1      1072-1.16026E+00-1.33077E+00-5.36487E-02-2.12799E-01-6.88601E-01 9.53449E-01
 -1      1073-1.82400E+00-7.15191E-01-8.08409E-01-3.07614E-01-3.19750E-01 1.12809E-01
 -1      1074-1.96087E+00-1.45429E+00-1.47617E-01 2.69493E-01 6.57807E-01-1.18101E+00
 -1      1075-4.50390E+00-3.67702E+00 2.62658E-01 1.21502E+00 1.61528E-01-3.18827E-01
 -1      1076-2.73274E+00-1.83683E+00 4.89529E-01 1.69681E-01-1.24389E-01 6.06137E-01
 -1      1077-1.59507E+00-1.16013E+00 2.45328E-01 3.37983E-01-6.26605E-01 8.00934E-01
 -1      1078-3.82655E-01 3.85443E-03-2.84784E-01-5.44241E-01 1.23994E-03 1.44629E-02
 -1      1079-6.18522E-01-7.57651E-01-5.21159E-01 6.61271E-01-7.38013E-01 6.41191E-01
 -1      1080-6.07925E+00-7.33707E+00-1.15569E+00-2.82955E+00-1.07561E+00 1.24118E+00
 -1      1081-3.64024E+00-2.77599E+00 5.43374E-01-1.24750E+00-5.65877E-01-4.35158E-01
 -1      1082-4.05683E-01-1.12989E+00-1.33709E-01-1.96258E-01-7.13708E-01 7.75457E-01
 -1      1083-1.24483E+00-7.28621E-01 3.69913E-01 5.46140E-03-4.67404E-01 4.84118E-01
 -1      1084-2.18986E+00-1.96831E+00-7.15907E-01-1.93504E-01-6.29994E-01 9.32621E-01
 -1      1085-1.62753E+00-2.47102E+00-1.49846E+00-8.37488E-01-1.85762E-01 7.43235E-01
 -1      1086-2.67353E+00-1.09943E+00 6.13125E-02 7.43132E-01 6.15880E-01-1.01139E+00
 -1      1087-5.77723E+00-3.11040E+00 7.58942E-01 9.86597E-01-9.63679E-02-4.52444E-01
 -1      1088-3.27448E+00-1.92923E+00 3.18810E-01-1.74724E-01-2.38932E-01 2.07686E-01
 -1      1089-1.12380E+00-4.99248E-01 3.07772E-01-9.99095E-03-3.92290E-01 1.11151E+00
 -1      1090 7.81973E-01-5.24804E-01-7.03366E-01-8.22033E-01-1.05342E-01-4.15451E-01
 -1      1091-1.14106E+00-7.45926E-01-6.93090E-01 1.91419E-01 1.94284E-01 1.42582E+00
 -1      1092-2.05080E+00-5.88603E+00-4.34680E-01-1.28897E+00-3.66287E-01 1.33599E+00
 -1      1093-2.07098E+00-2.45630E+00-7.55919E-01-6.42220E-01-1.27102E-01 1.03654E+00
 -1      1094-5.37536E-01-1.47475E+00-3.80550E-01 5.67604E-02-1.16422E+00 1.34886E+00
 -1      1095-2.12095E+00-3.00023E+00-1.94943E+00-7.21223E-01-6.98947E-01-2.60216E-01
 -1      1096-1.82526E+00-2.15938E+00-3.21723E-01-4.35236E-01-1.95122E-01 8.01965E-01
 -1      1097-1.19866E+00-1.35176E+00-6.97360E-01 4.40208E-02-5.38969E-01 8.35799E-01
 -1      1098-7.44467E-01-1.50548E+00 4.33613E-01-2.63625E-01-2.20414E-01 7.13824E-01
 -1      1099 0.00000E+00 0.00000E+00 0.00000E+00 0.00000E+00 0.00000E+00 0.00000E+00
 -1      1100 7.18662E+00 2.10530E+00-7.52771E-01 2.27600E+00-1.62927E+00-2.23723E-01
 -1      1101 7.59492E-01 2.23193E+00 2.10840E+00-1.69096E-01 6.77963E+00-6.39924E-01
 -1      1102 6.24197E+00 4.05962E+00 4.01542E+00 1.15392E+00 4.39768E+00 2.20670E+00
 -1      1103-1.67498E+00-7.48447E-02 1.95141E+00-1.57422E-01 1.66098E+00 2.63611E+00
 -1      1104-3.24622E+00-8.51133E-01-2.39003E+00 5.39621E-01 6.98337E-01-1.71498E+00
 -1      1105-1.23424E+01-3.55551E+00 1.46021E+00-2.53211E-01 1.26420E+00 2.51775E+00
 -1      1106-1.10806E+01-4.78826E+00-4.76065E+00 4.51441E-01-9.80899E-01 9.95771E+00
 -1      1107-7.56884E+00-3.17058E+00-3.86808E+00 1.13320E-01-1.48609E+00 5.38752E+00
 -1      1108-6.54278E+00-2.84086E+00-1.76637E+00 1.86899E+00-2.41545E+00 1.26352E+00
 -1      1109-6.78714E+00-1.99603E+00-3.45661E+00-6.69970E-01 2.11988E+00 3.89151E+00
 -1      1110 2.71294E+00-1.08235E+01-2.15920E+00 1.75048E+00-5.06479E+00 3.45531E+00
 -1      1111 5.89681E+00-3.50737E+00 5.75822E-01-3.11451E+00-6.44801E+00 4.34525E+00
 -1      1112 5.30358E+00-1.12697E+01-1.07059E+00-6.28354E-01 4.51041E+00 2.35047E+00
 -1      1113 9.23451E-01-2.62479E+00 2.48047E+00 7.61892E-01-3.95296E+00 2.85895E+00
 -1      1114-5.37828E+00-6.00278E+00 7.32511E-01-3.28896E+00 3.51713E+00 4.11712E-01
 -1      1115 5.05695E-01-1.93800E+00 2.78561E+00 2.58427E+00-4.24768E+00 1.29549E+00
 -1      1116 7.63348E-01-5.69526E-01 3.28952E+00-2.75046E-01 1.74230E+00 7.86679E-01
 -1      1117-4.56307E+00-9.58329E+00 5.12498E-01-2.62636E+00 5.92435E-01-1.36340E+00
 -1      1118-1.71237E+00-4.97690E+00-2.03461E+00-1.89123E-01-3.31273E+00 6.34343E-02
 -1      1119-4.18742E+00-3.29622E+00-2.44406E+00-4.08192E+00-6.13387E+00 1.95108E+00
 -1      1120-2.21832E+00-8.06338E+00-9.14025E-01-6.79675E-01 5.95675E+00-1.31216E+00
 -1      1121-6.94365E+00-1.60527E+01-6.89890E+00 7.52716E-01 7.82719E+00-5.58708E-01
 -1      1122 1.14197E+00 3.96485E+00-2.42634E-01 4.14212E-01 1.10072E+00 4.31090E-01
 -1      1123-7.89193E+00-1.37516E+01-6.49306E+00-4.18562E+00-6.24483E+00-4.13911E+00
 -1      1124-6.15155E+00-9.93079E+00-4.82470E+00 2.60581E+00 1.04433E+01-5.58219E+00
 -1      1125-3.44671E+00-7.94092E+00 2.24014E-01 1.75080E+00 4.54940E+00-2.33183E+00
 -1      1126-7.77766E+00 7.17783E+00 5.05937E-03-6.02783E-01-4.64271E+00-5.25389E+00
 -1      1127-2.25979E+00-1.24255E+01-3.97942E+00-4.81041E+00-2.52252E+00-2.26909E+00
 -1      1128-5.95287E+00-2.39106E+00-2.50318E+00 1.69599E+00-1.76417E-01-5.51079E+00
 -1      1129-1.53868E-02-1.01705E+01-2.39779E+00 4.03990E+00 5.48011E+00-5.40615E+00
 -1      1130-1.01837E+01-6.83089E+00-5.10437E+00-2.97251E+00-3.32657E+00-6.22344E+00
 -1      1131-7.61650E-02 7.86022E+00 6.18659E-01-4.03750E+00 2.67594E+00-3.09007E+00
 -1      1132-6.17912E-01-1.53700E+00 8.36350E-01-2.34250E+00-5.52014E-01 1.42180E+00
 -1      1133-3.10631E+00-6.84588E-01 1.12953E+00 1.10599E+00 5.57420E-01-1.61475E+00
 -1      1134 0.00000E+00 0.00000E+00 0.00000E+00 0.00000E+00 0.00000E+00 0.00000E+00
 -1      1135-5.20268E+00-1.03934E+00 2.63748E-02 5.49683E-01 7.91280E-01 1.85142E+00
 -1      1136 2.01996E+00 2.14601E+00 1.50862E+00 1.34499E+00 1.57497E+00 3.93673E+00
 -1      1137-1.72088E+00 5.75455E-01-6.75747E-01-6.05837E-01 6.35129E+00 3.01035E+00
 -1      1138 5.75823E+00-4.70452E+00 7.33545E-01 5.63349E-01 4.98896E+00 3.20840E+00
 -1      1139 3.70438E+00-2.76868E+00-2.67727E-01 5.48135E-01 4.90791E+00-4.19192E+00
 -1      1140 1.29467E+01 6.26554E+00 5.76366E+00-1.91668E+00 2.75562E+00-9.08499E+00
 -1      1141-1.06884E+00-2.90870E+00-2.64262E+00-1.22346E-01-2.13671E+00-1.64301E+00
 -1      1142 4.60197E+00 3.62136E+00 2.46700E+00 1.84284E+00-4.03885E+00-3.07080E+00
 -1      1143 7.12735E-01 8.84569E-02-3.52821E+00 1.17066E+00 1.35537E+00-1.08075E+00
 -1      1144 2.85820E+00-5.54914E-01-5.28937E+00 3.98765E-01-2.48807E-01-1.04076E-02
 -1      1145-2.91503E+00-2.89547E+00-2.76428E-01-1.46183E+00-3.59610E+00 4.10232E-01
 -1      1146 2.71091E+00 7.27548E+00 1.24519E+00-1.72174E+00 6.81960E+00-3.08287E-01
 -1      1147-4.78182E-01-4.31269E-01-9.99391E-01-1.22969E-01 7.42904E+00-3.89803E+00
 -1      1148-1.66781E-01 1.50826E-01 2.83106E-01 1.54482E+00 8.94086E-01 1.45915E+00
 -1      1149 1.31153E+01 5.86490E+00 5.69405E+00-1.40713E+00-2.89175E+00 9.53380E+00
 -1      1150 3.22876E+00-5.83060E+00-1.95733E+00 3.58863E+00-1.76218E+00 5.64377E+00
 -1      1151 5.94570E+00-1.10520E+00 1.44218E+00-1.01629E+00-4.82129E+00 3.16173E+00
 -1      1152 2.28651E+00 3.88582E+00-1.29600E+00-1.92850E+00-4.84747E+00 1.97162E+00
 -1      1153 6.73868E+00 1.02118E+01 6.12282E+00-4.16618E+00-6.07318E+00 1.20744E+00
 -1      1154 2.22846E+00 5.79341E+00 6.62784E-01-2.20551E+00-1.00486E+01 1.56116E+00
 -1      1155-1.45323E+00-2.84673E+00-1.31403E+00 3.35857E-01-4.59712E+00-3.87350E-01
 -1      1156 1.14145E+00-1.39552E+00 1.52190E-01 8.22938E-01-3.07112E+00-5.15976E+00
 -1      1157 6.23247E-01 2.39835E+00-2.43331E+00 1.31248E+00 7.67661E-01 1.50637E+00
 -1      1158-2.70027E+00-8.09120E-01-2.20106E-01-1.20118E-02 1.78603E-02-1.21439E+00
 -1      1159-1.67560E+00-1.67106E+00 3.27561E-01 2.01068E-01 2.12265E-02 4.51783E-01
 -1      1160-1.76579E+00-1.04762E+00-3.04182E-01-9.97432E-02-5.51326E-01 4.57974E-01
 -1      1161-2.83710E+00-1.36189E+00 1.99451E-01 4.97216E-01-6.39202E-01 3.12204E-01
 -1      1162 1.43553E+00-1.50617E-01 4.64608E-02-1.26256E-01-7.95601E-02 3.76960E-02
 -1      1163-1.16051E+00-5.33071E-01 1.86972E-01-1.71210E-02-7.24041E-02 1.01904E+00
 -1      1164 3.68168E-01-6.62904E-01 2.17338E-01-5.62589E-01 3.01584E-01 1.60312E+00
 -1      1165-8.50625E-01-2.63848E+00-3.72621E-01 3.50590E-01 4.19086E-01 5.54854E-01
 -1      1166-2.56701E+00-6.81839E+00-1.44919E+00-7.35285E-01 2.35181E-02 1.08188E+00
 -1      1167-1.00438E+00-1.02646E+00 4.48425E-02-7.53352E-02-1.74044E-01 1.03976E+00
 -1      1168-1.18677E+00-2.55346E+00-1.43076E-01-7.53859E-02-2.05409E-01 6.43191E-01
 -1      1169 7.96189E-01 2.11318E-01 3.17383E-02 4.02461E-01-1.42740E-01-5.42551E-01
 -1      1170-3.85566E-01-6.43047E-01 1.35331E-01-1.18581E-01 4.78645E-01 7.46727E-01
 -1      1171-5.71334E-01-5.43890E-01 2.21657E-02-4.03040E-01 3.81669E-01 9.92925E-01
 -1      1172 9.50185E-01 2.13549E-01-4.28420E-01 4.41951E-01-4.25446E-02-3.61121E-01
 -1      1173-1.24189E+00-1.14331E+00-1.22946E-01-3.74844E-01-2.89866E-01 5.68121E-01
 -1      1174-2.62258E+00-1.65332E+00 3.71407E-01 2.53045E-02 1.91818E-01 2.02155E-01
 -1      1175-2.29055E+00-2.14542E+00-8.67180E-02-7.20174E-01 1.15463E+00-1.26181E-01
 -1      1176-1.78737E+00-1.39676E+00 1.09240E-01 1.95379E-01 4.40759E-02 5.74590E-01
 -1      1177-3.97488E+00-1.59253E+00 7.53003E-01-1.80363E+00 1.09109E-01 1.36390E-01
 -1      1178-8.28301E-01-1.57699E+00-1.08182E+00-1.16621E-01 6.79490E-01 1.16341E+00
 -1      1179-2.27930E+00-2.87795E+00-5.66995E-01 8.45632E-01 3.78867E-02 7.20966E-01
 -1      1180-2.98227E+00-5.59697E+00-1.96496E+00 1.44533E+00 1.32308E+00 1.27822E+00
 -1      1181-1.05668E+00-4.95398E-01 1.68734E-01 6.14643E-02 4.83498E-01 5.32885E-01
 -1      1182-1.20651E+00-2.91273E+00 7.64739E-02 6.02768E-01 9.62602E-02 4.57746E-01
 -1      1183 3.59479E-01 4.92663E-01-6.41801E-02 4.90032E-01-5.01135E-01-3.75214E-01
 -1      1184-1.10956E+00-9.01548E-01 4.25427E-02-3.55208E-02 4.85891E-01 7.78056E-01
 -1      1185-1.89109E-01-7.35425E-02 2.71358E-01-1.16099E-01 5.28615E-01 6.31157E-01
 -1      1186 5.03360E-01 4.25654E-01-6.17135E-01 9.43953E-01-1.45839E-01-1.65529E-01
 -1      1187-9.78751E-01-9.76646E-01-3.59728E-02-3.65357E-01 2.01015E-01 5.87985E-01
 -1      1188-2.51656E+00-1.31631E+00 5.82579E-01-5.82626E-01-4.13037E-02 7.17971E-01
 -1      1189-1.17781E+00-7.53906E-01-3.79692E-02-8.70481E-01-5.73489E-01-4.21802E-01
 -1      1190-3.32875E+00-2.96841E+00 2.74784E-01-2.10004E+00-1.14818E-01-2.97283E-01
 -1      1191 2.04031E-01 1.65047E-01-6.41720E-01-1.56900E-01 1.28585E+00 1.58337E+00
 -1      1192-1.12292E+00-1.29544E+00 8.92722E-01 6.86392E-01 6.90672E-01-8.46368E-02
 -1      1193-3.05189E+00-4.46839E+00-4.75621E-01 2.27226E+00 1.70140E+00 1.50850E+00
 -1      1194-1.31700E+00-1.06192E+00-1.87348E-01-2.53980E-01 7.82928E-01 6.89119E-01
 -1      1195-1.60679E+00-1.78028E+00 1.04029E-01-5.84196E-01 6.37892E-01-1.73083E-01
 -1      1196-1.50212E-01 6.27438E-01-4.38865E-01 3.12292E-01-1.87704E-01-1.98724E-02
 -1      1197-8.71416E-01-1.51486E+00 1.75650E-01-4.47424E-01 1.18325E+00 4.26602E-01
 -1      1198-9.95771E-02 5.14004E-01-1.62889E-02 2.97833E-01-2.95278E-01-1.88645E-01
 -1      1199-1.49579E+00-5.50156E+00 3.72264E-01-1.35981E+00-1.71239E-01 4.74114E-01
 -1      1200-1.53184E+00-1.63156E+00-3.28178E-01-1.42069E-01-1.20152E+00-6.36739E-01
 -1      1201-3.02775E+00-5.55118E+00 5.13511E-01-7.54498E-01-6.38320E-02 1.64513E-01
 -1      1202-2.89093E+00-1.70179E+00 5.82033E-01 9.60722E-01 1.01548E+00 6.54106E-02
 -1      1203-7.93589E+00-4.54537E+00-1.02987E+00 2.15292E+00 1.02183E+00 5.03871E-01
 -1      1204-8.84808E-01-1.08543E+00-9.88713E-01-7.05308E-01 9.90372E-01 8.20205E-01
 -1      1205-1.15464E+00-1.64008E+00 2.12964E-01-1.24661E-01 4.14798E-01-5.82511E-01
 -1      1206-1.95770E-01 2.47054E-01-1.94312E-02 1.44647E-02 1.69957E-01 7.64492E-02
 -1      1207-1.20383E+00-2.37322E+00 7.71684E-02 2.89543E-02 1.12758E+00-1.60003E-01
 -1      1208-2.10184E-01-1.96146E+00 9.14923E-03 1.90206E-02 9.19060E-01-1.65910E-01
 -1      1209-7.28368E-01-5.86439E-02-1.66225E-01-2.09205E-02 1.16325E-01 6.05286E-02
 -1      1210-9.37084E-02-2.19092E+00-1.31677E-01-8.45072E-02-9.43400E-01 1.22113E-01
 -1      1211-1.16810E+00-5.88103E+00-1.32391E-01-1.09056E-01-2.89416E-01-3.65118E-01
 -1      1212-1.87188E+00-2.87860E+00 1.99344E-01-4.34389E-01 1.04380E-01 8.93051E-01
 -1      1213-7.44341E-02-2.26789E-01 7.09512E-01 2.36494E-01 1.14662E+00-5.89867E-01
 -1      1214-1.54473E+00-1.02252E+00 1.21509E+00 1.86558E-02 4.38705E-01-2.80360E-01
 -1      1215-1.11877E+01-4.50126E+00-3.26658E+00 1.36633E-02 1.96158E+00 8.00392E-01
 -1      1216-1.94898E+00-1.31406E+00-9.70692E-02-1.71964E-01 1.21591E+00 1.16924E-01
 -1      1217-1.40414E+00-2.62953E+00 1.68131E-01-3.64037E-02 2.98511E-01 7.08354E-01
 -1      1218-2.27185E+00-4.51693E+00 2.93920E-01 1.54174E+00-3.23188E-01 1.53165E-01
 -1      1219-1.21984E+00-3.12149E+00-6.25191E-02 6.37268E-01-8.94606E-01 7.26319E-01
 -1      1220-1.71737E+00-1.83775E+00-4.94899E-01 2.46384E-01-1.41637E+00 3.29822E-01
 -1      1221-2.89473E+00-4.94453E+00 6.11451E-01 1.33236E+00-1.24089E-01-1.97510E-02
 -1      1222-7.36293E-01 4.21694E-01-3.55751E-01-8.77904E-01-3.91521E-01 3.49732E-01
 -1      1223-8.39077E-01-9.00588E-01 1.18452E-01-2.37014E-01 1.20230E+00-5.16510E-01
 -1      1224-8.78918E-01-1.52672E+00 8.10377E-02 2.82751E-02 1.19661E+00-6.86364E-01
 -1      1225 1.58940E-01 1.17219E+00-2.07510E-01-7.86689E-01-3.31872E-01-1.74395E-02
 -1      1226-1.70839E+00-1.50867E+00 3.07222E-01-7.89254E-01 4.76878E-01-7.97162E-01
 -1      1227-7.35393E+00-2.56763E+00-6.58665E-02-1.33008E+00 2.17843E+00-3.27394E-01
 -1      1228-8.19153E-01-1.05587E+00-3.92949E-01-1.10846E-01 1.21268E+00-5.86791E-01
 -1      1229-7.82892E-02-1.12664E-01-3.83314E-01-9.87367E-01-4.07135E-01 3.16009E-01
 -1      1230-9.79863E-01-1.10235E+00 8.87305E-02-3.08811E-02 6.83867E-01-8.19929E-01
 -1      1231-6.29240E-02-2.89505E-01 2.28836E-01 1.64135E-01 5.58729E-01-6.41376E-01
 -1      1232 4.25606E-01 5.84997E-01-1.33514E-01-6.44987E-01-5.30763E-01 2.94839E-01
 -1      1233-1.79472E+00-2.85096E+00 3.85397E-01 4.66890E-01 9.27231E-01 1.99343E-01
 -1      1234-2.57348E+00-2.33168E+00 2.21395E-01-3.27631E-02-2.04327E-02-2.62065E-01
 -1      1235-1.23399E+00-7.65057E-01-1.48830E-01 2.43998E-03 5.45085E-02-7.80736E-01
 -1      1236-2.67216E+00-3.52856E+00 7.75705E-01 2.23562E+00-2.63189E-01-4.61447E-02
 -1      1237 1.74614E-01-1.57466E+00-9.51747E-01 3.77397E-01 4.07236E-01 3.19952E-03
 -1      1238-2.12633E+00-3.41399E+00 4.67013E-01-1.99428E+00 1.83298E+00-1.05837E+00
 -1      1239-1.36424E+00-1.42758E+00-8.00822E-01 5.43647E-02 1.34633E+00-5.98950E-01
 -1      1240 1.35772E+00 3.45836E-01-3.87050E-01-7.12252E-01-1.06554E-01 4.64068E-01
 -1      1241-1.36320E+00-4.79902E-01 2.60055E-01-2.29412E-01 2.57819E-01-1.10843E+00
 -1      1242 8.13214E-01 1.24797E-01-4.54181E-01-7.07347E-01-3.17586E-01 6.35689E-01
 -1      1243-1.96461E+00-1.81529E+00 4.56014E-01 1.06490E-01 7.03489E-01 1.22906E-01
 -1      1244-3.08131E+00-2.08666E+00 2.33428E-01-4.67806E-01-2.67861E-01-3.73372E-01
 -1      1245-1.36754E+00-8.98279E-01 1.69708E-01 1.21137E-01-8.82028E-02-5.72135E-01
 -1      1246-5.43162E+00-1.57853E+00 4.68498E-01 5.86338E-01-6.90392E-02 5.63055E-02
 -1      1247-1.47700E-01-1.78259E+00-8.55321E-01-4.46940E-01-2.38593E-01-1.25447E+00
 -1      1248-1.50475E+00-1.59893E+00 5.30618E-01-8.66379E-01-1.67873E-01-6.17462E-01
 -1      1249-4.17109E+00-3.90870E+00-2.10664E+00-1.93022E+00 9.03013E-01-7.86263E-01
 -1      1250-1.34955E+00-1.45132E+00-1.84994E-01-2.69766E-01 6.34725E-01-1.09916E+00
 -1      1251 3.66177E-01-8.16100E-01-3.95036E-01 5.12111E-03-5.42542E-03 1.91757E-01
 -1      1252-2.25058E+00-1.28774E+00 4.04888E-01-1.77833E-01 1.76454E-01-1.02017E+00
 -1      1253-1.90700E+00-2.75644E-01 2.19188E-01-3.02767E-01-1.03680E-01-1.09151E+00
 -1      1254 7.81955E-01 7.98894E-02-3.78117E-01-1.41722E-01 4.95675E-03 7.19281E-02
 -1      1255-3.03470E+00-1.01988E+00 8.89292E-01 2.24574E-01 6.05454E-01-1.37325E-01
 -1      1256-3.10699E+00-1.74054E+00 6.49450E-01-7.66659E-01 9.20847E-02-2.14240E-01
 -1      1257-2.03045E+00-1.05769E+00-2.63495E-01-1.35175E-01-6.09357E-01-5.32247E-01
 -1      1258-5.91474E+00-9.54858E-01-1.75273E-01-3.90960E-01-1.11432E-01 2.70674E-01
 -1      1259-1.84041E+00-2.99224E+00 4.09476E-01 3.80910E-01-5.79482E-01-3.09871E-01
 -1      1260-3.03217E+00-1.32950E+01-2.60194E+00 1.10121E+00 1.31206E+00-2.75026E+00
 -1      1261-8.86565E-01 7.31094E-02-2.05481E-01 4.63040E-01-4.67300E-02-1.14661E+00
 -1      1262-5.81790E+00-1.61988E+00 4.64724E-01-1.43958E+00-3.39781E-01 4.76758E-01
 -1      1263-3.21944E+00-1.22569E+00-4.35279E-01-8.55008E-01 7.22288E-01 1.10549E+00
 -1      1264-2.34871E+00-1.73358E+00 4.33647E-02-3.56082E-01-9.83979E-01 3.92393E-01
 -1      1265-1.99046E+00-1.03067E+00 1.52722E-01-5.48867E-04-5.37638E-01-2.81232E-01
 -1      1266-1.99806E+00-1.04466E+00 1.66800E-01-3.74788E-01-5.14386E-01-1.12275E+00
 -1      1267 6.56368E-01-3.62979E-02-3.15502E-01 4.55864E-01-1.48798E-01 4.25023E-02
 -1      1268-1.68601E+00-1.16510E+00 1.88492E-01-1.26433E-01-4.24906E-01-1.19442E+00
 -1      1269 1.55219E-01-4.24655E-01 7.06298E-03-8.95666E-02-6.32577E-01-1.33560E+00
 -1      1270-2.17728E+00-3.19307E+00-5.39617E-01 5.46027E-01 3.96284E-01-9.71405E-01
 -1      1271-1.89030E+00-5.73404E+00-1.96270E+00-3.16299E-01 7.00613E-01-2.70060E+00
 -1      1272-1.28555E+00-1.10269E+00-7.54958E-02 1.54013E-01-6.97579E-01-1.26639E+00
 -1      1273-1.09559E+00-1.81175E+00-4.40580E-01-9.67154E-01 1.03203E+00 5.69577E-01
 -1      1274-1.73795E+00-2.36087E+00 2.30140E-01-4.42715E-01-8.03684E-01 5.07036E-01
 -1      1275-1.34876E+00-7.43210E-01 1.57038E-01-4.71539E-01-4.21034E-01-2.60984E-01
 -1      1276-7.88421E-01-9.40476E-01-6.83626E-02-4.71312E-01-8.25200E-01-5.30714E-01
 -1      1277 1.37925E-01 3.99118E-01-7.58524E-02 5.45065E-01 3.90518E-01 3.45761E-01
 -1      1278-1.18554E+00-1.20645E+00 8.91374E-02-7.03728E-02-7.81392E-01-6.28483E-01
 -1      1279 8.31019E-01-3.93526E-01 4.48594E-01 3.63963E-01-9.29953E-01-1.03523E+00
 -1      1280-4.55311E+00-8.74869E+00-5.91708E-01 2.40678E+00-8.97945E-01-1.41121E+00
 -1      1281-1.51681E+00-1.56460E+00 3.05490E-02 5.17138E-01-7.36961E-01-7.13318E-01
 -1      1282-1.82554E+00-2.21982E+00 2.16005E-01-4.24117E-01 3.98840E-01-7.17509E-01
 -1      1283-1.47935E+00-2.53134E+00-4.08347E-01-1.63703E-01 1.41547E+00 4.48166E-01
 -1      1284-2.38100E+00-6.16355E+00 4.28645E-01-1.23935E+00 1.06704E-01 3.67877E-01
 -1      1285-2.67897E-01-1.80063E+00-4.90571E-01-3.66791E-01 1.20793E+00 1.97792E-01
 -1      1286 8.45653E-02 7.60559E-01-3.89996E-01 2.17017E-01-2.32242E-02-4.71442E-02
 -1      1287-3.13183E-01-1.17323E+00-2.52210E-02-4.41684E-01-9.61827E-01-3.37623E-01
 -1      1288 1.76821E-01 5.63800E-01-3.61216E-01 1.73356E-01 2.18121E-01 2.06791E-02
 -1      1289-1.03220E+00-1.78619E+00-4.98958E-02-4.28045E-01-1.17769E+00-4.20507E-01
 -1      1290-1.09352E+00-1.90005E+00 4.49148E-02-6.85455E-01-6.17897E-01 1.21824E-01
 -1      1291 2.94247E-01-6.45354E-01-3.36985E-02 2.07049E-01-1.26473E+00 1.61573E-01
 -1      1292-4.16491E+00-1.84968E+00-4.10330E-01 4.53086E-01-1.01765E+00-4.95488E-02
 -1      1293-8.65980E+00-3.90228E+00 2.59907E-01 2.45478E+00-3.07702E+00-1.62040E+00
 -1      1294-1.26262E+00-1.70134E+00-4.24558E-01 1.58086E-01-1.26135E+00-6.87058E-01
 -1      1295-2.97068E+00-2.22992E+00-5.52515E-01 1.30192E+00-2.31556E-01-4.44556E-01
 -1      1296-1.29157E+00-2.58169E+00 8.32915E-01-6.36005E-01-7.01763E-01-3.88048E-01
 -1      1297-1.32713E+00-5.92565E+00 5.11276E-01-1.02401E-01 6.65612E-01 1.32366E-01
 -1      1298-9.71327E-01-2.84101E+00-4.41642E-01 3.05051E-01 1.07509E+00-4.40062E-01
 -1      1299-1.05472E-01 1.13635E+00-2.09453E-01-1.09614E-01 2.63797E-01 7.12546E-03
 -1      1300-6.55705E-01-1.44243E+00 1.97406E-01 1.03343E-01-1.17437E+00 1.26614E-01
 -1      1301-2.00114E+00-2.87061E+00 5.24314E-01 3.82888E-01-3.14680E-01 5.92346E-02
 -1      1302-5.92437E-01-1.27763E+00 1.89049E-01 1.18117E-02-4.77833E-01 2.48174E-01
 -1      1303-2.02922E+00-6.42858E-01 1.36867E+00-1.81072E-01-3.26503E-01 6.17471E-01
 -1      1304-4.37569E+00-7.32413E-01-7.52051E-01 1.28774E+00-1.74418E+00-5.91030E-01
 -1      1305-1.07778E+00-1.17808E+00 3.43450E-01-2.00856E-01-1.41515E+00 2.24903E-01
 -1      1306-1.04694E+00-1.60231E+00-6.71086E-02-3.64887E-02-4.30550E-01 7.46182E-01
 -1      1307-6.80329E-01-1.07658E+00 3.23379E-01-1.41368E-01-7.73647E-01 1.87092E-01
 -1      1308-8.29417E-01 8.75443E-01-6.36973E-01-7.41202E-01 1.63268E-01-2.38506E-01
 -1      1309-3.19583E-01 8.89210E-01-1.49661E-01-3.97562E-01 5.91693E-01-4.37500E-01
 -1      1310-5.58301E-01-6.28092E-01 3.61195E-01-7.73347E-02-1.04060E+00 1.35121E-01
 -1      1311-1.38598E+00-5.42686E+00 5.70006E-01 1.22122E+00 4.86676E-01 2.89127E-01
 -1      1312-1.27019E+00-2.60137E+00-3.28747E-01 7.73082E-01 8.70017E-01-7.57140E-01
 -1      1313-9.20401E-01-7.76328E-02-8.23555E-01-6.13124E-01-5.97798E-01 9.09787E-01
 -1      1314-3.21547E+00-3.18164E+00-1.05013E+00-7.68252E-01-6.67832E-01-4.44413E-01
 -1      1315-7.31303E+00-2.08408E+00-8.27258E-01-1.90574E-01-1.15676E+00 1.05530E+00
 -1      1316-1.43598E+00-1.25992E+00-3.68940E-02-2.66373E-01-9.03950E-01-1.36662E-02
 -1      1317-2.98726E+00-2.44548E+00 7.85420E-01 1.82036E+00 1.34771E-01-7.44819E-02
 -1      1318-1.97744E+00-8.02907E-01-5.32426E-01 8.83782E-01 5.20289E-01-9.42984E-01
 -1      1319-1.49255E+00-1.46401E+00 3.70811E-01 2.09085E-01-3.04242E-01 4.08185E-01
 -1      1320-1.41430E+00-1.00204E+00-5.47313E-02 4.73104E-01-4.48189E-01 4.80896E-02
 -1      1321-2.02939E+00-2.08683E+00 9.11519E-02 5.02118E-01-5.45171E-01-4.06442E-01
 -1      1322 3.39567E-02 3.32585E-01-2.38512E-01-4.17488E-01 1.23768E-01 2.02148E-02
 -1      1323-1.12102E+00-8.28558E-01 1.42508E-01 4.74133E-01-5.23204E-01 5.47648E-01
 -1      1324-4.77600E-01-7.14907E-01-6.22360E-01-2.47157E-01-7.25908E-01 1.32785E+00
 -1      1325-2.29409E+00-1.46945E+00 1.02253E+00-8.72669E-01 4.04173E-01 9.99597E-01
 -1      1326-5.05517E+00-4.84563E+00-3.06463E+00-2.10747E+00-1.62870E+00 1.94764E+00
 -1      1327-1.87495E+00-1.79010E+00 4.79767E-03-3.74620E-01-7.87848E-01 7.97283E-01
 -1      1328-3.73540E+00-2.74615E+00-1.14937E+00-1.10919E+00-6.42650E-01-5.64672E-02
 -1      1329-5.69193E+00-2.28010E+00 3.59958E-01 1.35437E+00 1.42168E-01-2.96811E-01
 -1      1330-2.19695E+00-1.12010E+00-1.00388E-02 4.10347E-01 3.72503E-01-1.18513E+00
 -1      1331-1.79915E+00-1.70834E+00 2.95365E-01 5.91923E-02-1.06030E-01 6.31379E-01
 -1      1332-2.02679E+00-1.11814E+00-1.57653E-01-2.16611E-02-6.40411E-01 4.55849E-01
 -1      1333-2.00867E+00-1.42777E+00 1.80362E-01 7.43971E-01-8.05807E-01-1.92315E-01
 -1      1334 5.18637E-01-1.05392E-03 4.24310E-02-6.07398E-01 4.35843E-01-3.46669E-01
 -1      1335-1.59183E+00-7.79764E-01 2.02410E-01 1.43283E-02-4.17533E-01 8.79770E-01
 -1      1336 2.14056E+00-1.54521E-01 2.88858E-01 1.63576E-01-1.80809E-01 6.99470E-01
 -1      1337-1.74039E+00-4.05298E+00 2.46711E-01-3.40963E-01-1.83878E-01 5.64519E-01
 -1      1338-2.24607E+00-5.41113E+00-4.02116E-01-1.07254E+00-8.25136E-01 1.21357E+00
 -1      1339-1.26885E+00-1.51845E+00 2.89346E-01-1.08143E-01-4.37091E-01 1.02771E+00
 -1      1340-2.03509E+00-2.17772E+00-5.52990E+00 3.68844E-01 1.09843E+00 1.26912E+00
 -1      1341-1.60109E+01-6.67205E+00-6.80488E+00 2.20769E-01 5.74668E-01 5.83380E+00
 -1      1342-5.66987E+00 2.98420E-01 7.25823E+00-4.48170E-01 3.52338E-01-7.89404E-01
 -1      1343-5.75577E+00-2.23383E+00-3.45418E+00-7.91477E-01 9.08302E-01-5.53253E+00
 -1      1344 6.71682E+00 1.01688E+00-1.47278E+00-1.18750E+00-5.15166E-01-5.53614E+00
 -1      1345 1.52927E+01 5.95307E+00 4.02262E+00 2.13201E+00-1.48724E+00-2.44786E+00
 -1      1346-5.57805E-02 2.56368E+00-4.33982E+00 1.63542E+00-1.20078E+00 8.67504E-01
 -1      1347-7.64712E-01-5.20661E+00 2.50806E+00 1.06004E+00-1.54671E+00-6.83655E-01
 -1      1348-1.78203E+00-4.40526E+00-2.43228E-01-5.84196E-01 5.49792E+00-1.66778E-01
 -1      1349 4.19767E+00 3.59290E+00 2.46390E+00 1.18464E+00-2.07034E-01 3.05288E+00
 -1      1350-3.12652E+00-6.61455E-01-3.48410E+00 2.98143E-02 1.30673E+00 3.09803E+00
 -1      1351-8.88301E+00-2.76264E+00-1.70234E+00-2.58706E+00 3.85377E+00 5.55224E+00
 -1      1352-1.16350E+00 6.99791E-01-5.58050E-01 8.61778E-02-6.57744E-02 3.64540E+00
 -1      1353 1.64931E+00 9.32438E-01 4.90717E-01 1.30131E+00 1.10775E+00 3.77384E+00
 -1      1354 1.76376E+00 9.76148E-01 2.90454E-04-3.15657E-01 6.78844E+00 2.35868E+00
 -1      1355 7.21328E-01-1.88152E-01-2.69275E+00-8.19909E-01 3.75390E+00-2.52316E+00
 -1      1356-7.79553E+00-8.12353E+00-4.77572E+00 3.21355E+00 7.02064E+00-5.76180E+00
 -1      1357-1.45269E+01-1.70847E+01-9.48346E+00 6.25448E+00 8.28211E+00-7.89060E+00
 -1      1358 7.15754E+00 1.49769E+01 6.64033E+00-2.11689E+00 9.57808E+00-2.90518E+00
 -1      1359 2.55742E+00 1.93653E+01 6.32891E+00 3.02984E+00 7.88674E+00-2.20404E+00
 -1      1360-3.45852E+00 4.03627E+00 4.75067E-01 4.46663E+00 5.93825E+00-1.78201E+00
 -1      1361 1.70443E+00 1.06492E+00 3.32266E+00-9.91267E-02 4.81006E+00-1.37513E+00
 -1      1362-8.97506E-01 7.21295E-01-1.71399E+00-6.57509E-01-2.12559E+00 3.41141E+00
 -1      1363 4.67431E+00-5.15321E+00 1.80964E+00 2.81876E+00 1.46667E+00 4.83490E+00
 -1      1364-2.03244E+00-5.22242E+00 2.10442E-01 2.71308E+00-2.85621E-01 3.16582E+00
 -1      1365-4.26658E+00-1.57900E+00 1.58710E+00 1.85548E+00-3.38583E+00 3.19111E+00
 -1      1366 3.00708E+00 1.79129E+00 2.99370E+00-1.72001E-01-2.65105E+00 5.96178E+00
 -1      1367-5.79859E+00-1.40973E+01-6.36867E+00 8.33861E+00-3.00875E+00 7.54308E+00
 -1      1368-5.51248E+00-4.88657E+00-1.13992E+00-2.69438E+00 1.41032E+00 7.07214E-01
 -1      1369-5.64182E-02-6.51302E+00 3.52550E+00-2.57630E+00-3.55920E+00 3.98073E+00
 -1      1370-3.30740E+00-6.86121E+00-3.91376E+00 1.12452E+00-5.75809E+00 3.12400E+00
 -1      1371-2.81739E+00-4.18187E+00-1.50683E+00-2.43749E+00 3.87927E+00 7.59037E-01
 -1      1372-3.86978E+00-1.12136E+01-7.73829E-01 8.89160E-01-5.57946E+00 2.10780E+00
 -1      1373-2.39189E+00-7.77335E+00 1.38600E-01-1.01228E+00-6.35817E+00 1.59784E+00
 -1      1374-7.23477E+00-1.73538E+01-7.37658E+00-4.22615E-01-1.12731E+01-6.37507E-01
 -1      1375-3.20075E+00-1.06294E+01-3.84000E-01-1.83091E+00-1.34216E-01-4.41831E+00
 -1      1376-1.37106E+00-3.56086E+00-1.47958E+00-3.82828E-01-1.48237E+00 1.61983E-01
 -1      1377-9.24221E+00-1.21808E+01-3.76566E+00-4.62144E+00-2.37122E+00 1.93258E-01
 -1      1378-1.17288E+01-1.14169E+01-6.94371E+00-4.83688E+00-7.34330E+00-6.92734E+00
 -1      1379-7.41081E+00-7.43474E-01 1.45867E+00-1.11285E+00-2.22596E+00 1.96838E+00
 -1      1380-1.49055E+01-9.68257E+00-7.37642E+00 3.94148E+00 4.42067E+00-8.84098E+00
 -1      1381-6.86100E+00-2.36799E+00-2.76870E+00-2.51414E-01 8.20649E-01-3.18754E+00
 -1      1382-1.26588E+01-5.73102E+00-5.51695E+00 1.48432E+00 2.36093E+00-9.80449E+00
 -1      1383-3.53313E+00-3.57623E+00-3.12455E+00-1.08955E+00 1.80783E+00-4.25746E-01
 -1      1384 2.61321E+00 5.25890E+00 2.52365E+00 1.11174E+00 3.07224E+00 1.78911E+00
 -1      1385-2.22343E+00 5.67931E-02-5.74736E+00-3.30758E-01-6.82642E-01-1.57215E+00
 -1      1386 5.59251E+00 1.12507E+01 5.05298E+00 1.82933E+00 5.90726E+00 1.79176E+00
 -1      1387 5.29520E+00 4.00646E+00 2.79050E+00 2.07345E+00 2.54763E+00 6.69003E+00
 -1      1388 6.55306E+00 9.15886E+00 5.41538E+00-3.89508E+00 2.70990E+00-3.14008E+00
 -1      1389-1.60108E+00-2.14530E+00-2.44495E+00 2.09322E-01 9.65218E-01-2.29991E+00
 -1      1390-1.30707E+00-1.41610E-01-6.13489E+00-8.71487E-01-8.80889E-01-2.69379E+00
 -1      1391-4.97051E-01-1.60055E+00-5.51728E+00-8.20208E-01 7.40461E-01-4.07329E+00
 -1      1392 5.45761E+00-1.76719E+00 1.85315E+00-4.13293E-01-4.30809E-01-2.79342E-01
 -1      1393-1.52894E+00-1.81123E+00-2.05049E+00-3.16453E-01-2.01883E+00-3.43502E+00
 -1      1394 1.12846E+01 4.05885E+00 5.71419E+00-7.06374E-01-5.88859E-01-1.72449E+00
 -1      1395 3.77780E+00 8.05909E-01-2.14342E-01 8.80995E-01-5.21105E-01 1.38183E+00
 -1      1396-2.69469E+00 6.37436E+00 2.53153E-01 5.85209E-01-3.66894E+00-3.53007E+00
 -1      1397-6.72324E-01 4.08031E-01-1.70862E+00 9.31669E-01 1.11818E+00 1.12032E-01
 -1      1398 4.36708E-01 1.03572E+00-2.90970E+00-1.50253E+00 6.51202E+00-2.49719E+00
 -1      1399-8.86903E-01-1.71367E+00-1.87624E+00-5.07436E-01-5.01065E-01 5.08576E+00
 -1      1400 1.95813E+00 2.43451E+00 2.12647E+00-2.56795E+00-2.50097E+00 7.91589E+00
 -1      1401 4.40688E+00 4.57817E+00 1.17893E+00-2.42049E+00-2.26175E+00 1.72063E+00
 -1      1402 5.79884E+00 6.42025E-01-5.61488E-01-3.37708E+00-4.12685E+00 3.64216E+00
 -1      1403 9.15302E+00 1.39013E+01 6.91631E+00-3.79313E+00-9.39345E+00 5.89523E+00
 -1      1404 8.77321E+00 1.91486E+01 8.37655E+00-2.28753E+00-1.22056E+01 3.70215E+00
 -1      1405 4.98944E+00 1.11374E+01 4.83806E+00-1.07868E+00-9.97741E+00 9.82840E-01
 -1      1406-1.33625E+00 2.83136E+00-8.27813E-01-2.35232E+00-7.69921E+00 4.23761E-01
 -1      1407 2.71008E+00 7.15470E+00-1.27923E+00 1.61180E+00 7.27691E-01 2.50597E-01
 -1      1408-3.14832E+00-4.20216E+00-5.87048E+00-8.75303E-01-2.53171E+00-2.00748E+00
 -1      1409-9.14844E+00-1.06496E+01-2.30034E+00 2.79078E+00 2.05357E+00 1.83207E+00
 -1      1410-1.12214E+01-1.19403E+01-2.68760E+00 3.40752E+00 1.30995E+00 1.25216E+00
 -1      1411-1.30123E+01-8.67148E+00-3.66650E+00 7.69385E-01-1.68720E+00-9.64306E-01
 -1      1412-2.08557E+01-1.54416E+01-7.05738E+00 1.99245E+00-1.74728E+00 4.94476E-01
 -1      1413-1.19836E+01-1.25322E+01-3.89199E+00-2.66173E+00-1.71032E+00 6.40779E-03
 -1      1414-1.96463E+01-1.52010E+01-5.26204E+00-3.33280E+00-2.72225E+00 1.63326E+00
 -1      1415-1.14960E+01-1.25417E+01-5.33138E+00-1.50782E+00 1.45991E-01-1.39206E+00
 -1      1416-1.63156E+01-1.95950E+01-7.19762E+00-2.10060E+00 2.26619E+00 8.19033E-02
 -1      1417-1.69678E+01-1.16586E+01-5.41868E+00 1.26373E+00 9.08394E-01 6.67897E-01
 -1      1418-1.90007E+01-1.27962E+01-3.90913E+00 5.13805E-01 5.94814E-01 6.18168E-01
 -1      1419-1.55708E+01-1.30412E+01-4.04083E+00 2.06567E+00-2.28794E+00-1.90535E+00
 -1      1420-1.28460E+01-1.44372E+01-8.30376E+00 2.23838E+00-1.49692E+00 2.92786E-01
 -1      1421-2.02868E+01-1.56827E+01-6.25248E+00 4.05469E+00 9.10883E-01 5.03367E-01
 -1      1422-2.11217E+01-1.51989E+01-7.76217E+00 2.60240E+00 6.63604E-01 3.04100E+00
 -1      1423-1.05503E+01-1.19168E+01-4.01674E+00 1.03141E+00-2.46125E-01-1.67083E+00
 -1      1424-1.34972E+01-1.95478E+01-6.40572E+00 6.62049E-01-7.36027E-01-8.55075E-01
 -1      1425-1.30228E+01-1.89731E+01-6.77805E+00 1.27532E+00 4.21098E-01 2.25224E+00
 -1      1426-1.24796E+01-2.08005E+01-4.79843E+00-9.48172E-01 1.56813E+00 1.77607E+00
 -1      1427-9.71307E+00-1.47716E+01-4.97335E+00-1.84352E+00-1.87214E+00 1.81844E+00
 -1      1428-2.04162E+01-2.40255E+01-8.28797E+00-3.89599E+00-8.96374E-02 2.38838E+00
 -1      1429-1.19685E+01-1.72730E+01-5.89788E+00-2.00463E+00 8.17837E-01 3.70906E-01
 -1      1430-1.16057E+01-1.79528E+01-7.01333E+00-1.39780E+00-3.08147E-01 2.36392E-01
 -1      1431-1.25696E+01-1.07452E+01-1.31394E+00-3.57211E+00 1.84619E+00-8.86408E-01
 -1      1432-1.86413E+01-1.32637E+01-4.17117E+00-1.26907E+00 3.25865E-01-9.89213E-01
 -1      1433-6.76462E+00-1.24601E+01-2.78110E+00-1.23729E+00 8.27728E-01-1.61444E+00
 -1      1434-1.22940E+01-2.04499E+01-5.33847E+00 8.04178E-01 2.37624E+00-1.74624E+00
 -1      1435-1.42387E+01-1.26155E+01-6.20746E+00 1.85323E-01 1.83617E+00-3.88853E-01
 -1      1436-1.08373E+01-7.62350E+00-3.01934E+00-2.82848E+00-1.59327E+00 3.17689E-02
 -1      1437-1.38769E+01-1.04191E+01-4.48377E+00-2.33377E+00-1.24004E+00-8.96999E-02
 -1      1438-1.11309E+01-1.15524E+01-4.72668E+00 2.42020E+00-6.82939E-01-9.49677E-01
 -1      1439-1.43060E+01-1.39550E+01-7.91363E+00 1.37974E+00-2.55812E+00-4.86153E-02
 -1      1440-1.37718E+01-1.33545E+01-7.55112E+00-9.01243E-01 9.41405E-01-4.17582E-01
 -1      1441-1.95495E+01-2.09826E+01-1.07249E+01-1.96122E+00-7.85760E-01-6.06444E-01
 -1      1442-2.02818E+01-2.34232E+01-1.13170E+01-2.45876E+00 1.81757E+00 6.72395E-01
 -1      1443-2.68385E+01-1.86429E+01-6.41438E+00-4.75055E+00 2.08285E+00-3.94753E-01
 -1      1444-3.95823E+01-2.69387E+01-1.56810E+01-7.42428E+00-3.06959E-01-9.33432E-01
 -1      1445-1.28266E+01-1.26267E+01-8.38607E+00 1.19080E+00 3.73714E-01 1.46707E+00
 -1      1446-2.44698E+01-2.02270E+01-1.06114E+01 2.91082E+00 8.32947E-01-2.79208E+00
 -1      1447-2.19336E+01-2.14074E+01-1.55182E+01 4.29140E+00-1.16083E+00 5.05069E+00
 -1      1448-1.52934E+01-1.50052E+01-7.98852E+00-2.63625E-01-5.56484E-01 1.92380E+00
 -1      1449-1.97936E+01-2.02531E+01-1.32826E+01 2.86898E+00-1.87385E+00-1.08975E+00
 -1      1450-1.88411E+01-2.63441E+01-1.47388E+01 2.17573E+00-4.05799E+00 4.39094E+00
 -1      1451-1.67829E+01-1.63762E+01-7.08358E+00 8.06085E-01 1.39302E+00 5.36720E-01
 -1      1452-1.80068E+01-1.86146E+01-6.81326E+00 5.17837E-01-2.14461E+00 2.06946E+00
 -1      1453-1.51636E+01-1.48697E+01-6.61197E+00-7.15631E-01 7.88589E-01 9.43390E-01
 -1      1454-1.38578E+01-1.41204E+01-7.94570E+00-1.03573E+00 7.06420E-01-1.00242E+00
 -1      1455-1.60718E+01-1.64609E+01-6.16825E+00 1.66644E-01-1.40027E+00 5.51464E-01
 -1      1456-1.62625E+01-1.55240E+01-6.32699E+00-9.99599E-02-8.92456E-01-4.40769E-01
 -1      1457-1.44245E+01-1.57934E+01-7.20679E+00 5.56151E-01-7.03758E-01-9.40245E-01
 -1      1458-2.43540E+01-2.28531E+01-1.37153E+01-5.20854E+00-1.39203E+00-7.09227E-01
 -1      1459-2.70588E+01-2.04312E+01-9.59163E+00-4.99227E+00-1.09697E+00 1.34050E+00
 -1      1460-1.99428E+01-2.58011E+01-8.93157E+00 2.27277E+00-5.83999E-01 1.25502E+00
 -1      1461-2.03568E+01-3.00309E+01-1.02676E+01 1.32712E+00 4.46229E-01 1.07092E+00
 -1      1462-2.57595E+01-2.08214E+01-1.14999E+01 2.04272E+00 1.42402E-02-9.27025E-01
 -1      1463-2.90833E+01-1.99854E+01-1.11945E+01 8.95198E-01-2.74573E-01 1.35600E+00
 -1      1464-1.65847E+01-1.44207E+01-7.42963E+00-2.45887E-01-1.00036E+00-5.47314E-01
 -1      1465-1.55484E+01-1.57357E+01-6.82720E+00-4.02388E-01-1.71337E+00-1.68928E-01
 -1      1466-7.53871E+00-8.55191E+00-1.30609E+01-1.22601E+00 1.60700E+00 7.15406E+00
 -1      1467-9.51614E+00-9.69726E+00-9.76152E+00 3.18453E+00-4.21830E+00-2.86061E+00
 -1      1468-2.34887E+01-1.88857E+01-9.64769E+00-1.12206E+00-6.94811E-01 3.99343E-01
 -1      1469-1.26107E+01-8.56070E+00-1.03635E+01-1.28646E+00-5.67357E+00 3.22632E+00
 -1      1470-1.10702E+01-7.56432E+00-1.09013E+01 2.25019E+00 5.80006E+00 1.78813E+00
 -1      1471-2.02151E+01-2.39129E+01-1.05301E+01 3.06997E+00-1.17305E+00 8.37918E-02
 -1      1472-2.01370E+01-2.76800E+01-1.16473E+01 5.17561E-01-2.05740E+00 8.79973E-01
 -1      1473-1.23670E+01-1.47594E+01-7.17487E+00 3.00195E-01 2.10739E-01 8.32173E-01
 -1      1474-1.80580E+01-1.55690E+01-6.18796E+00 2.44523E-01-9.02796E-01-8.40166E-01
 -1      1475-1.43404E+01-1.09612E+01-3.31402E+00-1.08860E+00 2.46406E+00-2.90336E-04
 -1      1476-1.70002E+01-1.22874E+01-5.86101E+00 1.36302E+00 1.85057E+00-1.26879E+00
 -1      1477-1.09745E+01-1.31412E+01-5.80332E+00-4.15258E-01 2.46683E-01 1.31212E+00
 -1      1478-7.89161E+00-1.36871E+01-1.50425E+01 5.62752E-01-1.67561E+00 8.23382E+00
 -1      1479-2.99079E+01-2.24254E+01-1.18101E+01 2.70630E+00 5.22371E-01-5.31029E-02
 -1      1480-2.87327E+01-2.15345E+01-1.29966E+01 3.57527E+00-1.01095E-02 2.31182E+00
 -1      1481-2.21334E+01-2.81281E+01-1.33107E+01-4.58457E+00-1.38657E+00 2.22655E-01
 -1      1482-2.46931E+01-2.61264E+01-1.17518E+01-4.74128E+00 9.77298E-01 9.21778E-01
 -1      1483-1.72394E+01-1.56462E+01-6.99413E+00-2.61426E+00-1.36039E+00-1.69504E-01
 -1      1484-2.41216E+01-1.54092E+01-6.99149E+00 7.70648E-01 2.54169E-01 1.41885E+00
 -1      1485-1.97175E+01-2.23989E+01-1.20510E+01-2.74257E+00 1.11779E+00-1.84979E-01
 -1      1486-1.93385E+01-2.63658E+01-1.44345E+01-1.10241E-01-2.44892E+00-1.78071E+00
 -1      1487-1.27711E+01-8.54099E+00-1.15734E+01 1.00899E+00-6.07474E+00 2.97817E+00
 -1      1488-1.08000E+01-8.03691E+00-1.16299E+01-1.54378E+00-5.53379E+00 1.29361E+00
 -1      1489-2.47589E+01-1.70534E+01-1.09380E+01 6.79523E-02-2.78195E-01-8.88542E-01
 -1      1490-2.49109E+01-2.09730E+01-1.07483E+01 2.79433E+00-4.58558E-01 1.23023E+00
 -1      1491-2.05527E+01-2.01345E+01-7.97708E+00 3.80648E+00 1.86377E-01 1.13962E+00
 -1      1492-1.96436E+01-2.51623E+01-1.07198E+01 3.46960E+00 1.49997E+00-1.41777E+00
 -1      1493-1.02885E+01-1.07315E+01-1.12012E+01 3.05007E+00-3.79844E+00-4.32866E+00
 -1      1494-8.25008E+00-1.21383E+01-9.30129E+00-6.32683E-01 3.58057E+00-4.48980E+00
 -1      1495-8.30013E+00-1.36637E+01-1.25083E+01-2.46800E+00-2.89791E+00 5.45944E+00
 -1      1496-1.72357E+01-1.33537E+01-1.29477E+01 2.71757E-02-7.49870E+00-2.87745E+00
 -1      1497-9.51105E+00-1.00486E+01-1.10507E+01 2.27477E+00 4.33433E+00 4.78196E+00
 -1      1498-1.35711E+01-7.21627E+00-8.70938E+00-8.92529E-01 5.78775E+00 2.17399E+00
 -1      1499-9.94328E+00-1.23508E+01-1.14626E+01 1.96461E+00-1.08163E+00-6.07702E+00
 -1      1500-7.22056E+00-1.21733E+01-1.02200E+01-6.03571E-01 1.37965E+00 5.19835E+00
 -1      1501-2.42914E+01-2.01499E+01-8.41196E+00-2.28175E+00-2.13110E-01 2.99913E+00
 -1      1502-2.66847E+01-1.95488E+01-1.20079E+01-3.56875E-01-2.11488E-01-2.02455E+00
 -1      1503-1.18323E+01-7.54841E+00-1.23152E+01 6.13992E-01-5.15147E+00-3.84569E+00
 -1      1504-9.37419E+00-9.25785E+00-1.17524E+01-2.57588E+00 4.61007E+00-4.26740E+00
 -1      1505-1.73973E+01-2.72549E+01-1.12762E+01-2.10004E+00 4.97721E-01-8.57061E-01
 -1      1506-1.90057E+01-3.00078E+01-1.28402E+01-7.26537E-02 1.51790E+00-7.42875E-01
 -1      1507-7.90183E+00-1.16939E+01-1.18830E+01 1.12042E+00 1.30527E+00-6.41432E+00
 -1      1508-1.09738E+01-1.13123E+01-1.13313E+01 3.97764E+00 3.71995E+00 5.22572E+00
 -1      1509-1.34707E+01-7.90732E+00-1.24950E+01 3.85181E-01 6.37436E+00-1.84230E+00
 -1      1510-1.24499E+01-7.85486E+00-1.23434E+01 1.47065E+00 6.29103E+00 2.61698E+00
 -1      1511-1.25635E+01-8.32966E+00-1.06509E+01-2.77072E+00 6.19667E+00-5.57261E-01
 -1      1512-9.95638E+00-1.17299E+01-1.37409E+01-2.11579E+00 1.51502E+00-7.33710E+00
 -1      1513-1.03986E+01-1.02192E+01-1.05723E+01-3.34482E+00 4.75526E+00-3.75691E+00
 -1      1514-8.52352E+00-1.38742E+01-1.35787E+01 2.11422E+00-4.19688E+00-5.85154E+00
 -1      1515-1.26273E+01-8.95479E+00-1.36558E+01-1.69061E+00 6.39576E+00-2.86590E+00
 -1      1516-9.64599E+00-7.67674E+00-8.61381E+00 2.35244E+00-5.20311E+00-5.85624E-01
 -1      1517-1.02747E+01-1.17191E+01-9.98531E+00-2.24025E+00-1.57076E+00 6.01482E+00
 -1      1518-1.04817E+01-1.03733E+01-1.09364E+01-2.22259E+00-5.08728E+00 5.32863E+00
 -1      1519-8.23647E+00-9.42912E+00-1.11596E+01-1.84887E+00-4.72291E+00 3.39130E+00
 -1      1520-8.17590E+00-1.24002E+01-1.24766E+01-1.03622E+00-2.57443E+00-6.37748E+00
 -1      1521-7.32264E+00-1.26507E+01-1.08849E+01 1.46567E+00 4.78782E+00 4.22891E+00
 -1      1522-4.25275E-02-2.44834E-02-2.01372E+00-5.61249E-01-5.96755E-01 2.36160E+00
 -1      1523-2.82553E-01 3.32231E-01 1.10573E-03-5.85905E-01 3.47303E+00-2.15812E+00
 -1      1524-1.17838E+00 9.59551E-01-3.35685E-01 2.35331E+00-1.94314E+00 2.64194E-01
 -1      1525-8.22288E-01 4.23608E-01-5.75317E-01 4.57026E-01-2.23767E+00-7.03702E-01
 -1      1526 1.62966E+00 6.77929E+00 1.32808E+00 1.50292E+00-1.70397E+00-1.59030E+00
 -1      1527 4.18106E+00 1.32368E-01 1.15543E-01-5.91703E-01-6.62784E-01 3.46870E+00
 -1      1528 1.19397E+01 1.27730E+01-2.36846E-01-1.03519E+00-1.88430E+00 1.27034E+00
 -1      1529 3.61785E-01-3.40320E+00-1.70307E+00 1.06384E+00 2.20894E+00-4.61696E-01
 -1      1530-7.12290E-01 5.28646E-01-1.22455E+00 2.43414E-01 7.36217E-01-1.55953E+00
 -1      1531-1.81335E-01 3.52361E+00-3.11227E-01-1.35200E-01 1.36640E-01 2.59122E-02
 -1      1532 5.51030E+00 2.25344E+00 2.24980E+00 1.60526E+00 1.41794E+00 2.28870E+00
 -1      1533-2.87614E+00-8.63264E-01 3.29670E-01 9.98850E-01-1.16648E+00 2.19195E+00
 -1      1534 1.10637E-01-3.01373E-01 1.06592E+00-5.79409E-01 1.39386E+00-4.15237E-01
 -1      1535 3.26386E+00 2.11683E+00-1.05392E+00 2.43051E+00 2.59186E-01-1.60393E+00
 -1      1536-3.84566E+00 5.77622E-01-9.84744E-02-1.61790E+00 8.21230E-01 3.03689E+00
 -1      1537-1.21282E-01-2.50665E-02-4.59820E-01 9.35107E-01-1.67140E+00 2.01567E+00
 -1      1538-5.98724E-01 3.61636E+00-1.45947E+00 2.00161E+00-1.96733E+00 6.71465E-02
 -1      1539-2.40023E+00-1.63217E+00-8.55491E-01 1.14254E+00 9.08919E-01-1.03691E+00
 -1      1540 1.47403E+00 9.03547E-01-1.24877E+00 1.63731E+00-1.59830E+00-1.71578E+00
 -1      1541 9.53347E-01-1.76056E+00 1.70183E+00-1.32317E+00-1.02432E-01-3.22540E+00
 -1      1542-3.64727E+00-2.11807E-01-1.94258E+00 6.02798E-02 6.88769E-01 2.38310E+00
 -1      1543 3.48014E+00 2.37512E+00 3.05863E+00-2.28467E-01-7.31391E-02-3.41599E+00
 -1      1544-5.38321E+00 2.95559E-01 1.06772E+00 2.03283E+00-1.50411E-01-1.95872E+00
 -1      1545 2.08155E+00 6.17374E-01-5.89795E-01 2.07276E-01 7.47103E-01-1.16078E+00
 -1      1546 2.65204E+00 5.22277E+00-3.93182E-01 1.98614E+00-2.43484E+00-1.94245E-01
 -1      1547 4.14028E+00 2.18250E+00 1.29076E+00-1.38901E+00 1.92785E+00-2.75236E+00
 -1      1548 2.79795E+00 1.32704E+00 8.72231E-01 1.29050E+00-6.49535E-01-1.28964E+00
 -1      1549 5.14617E-02-1.26518E+00-3.31493E+00 4.10646E-01-1.01573E+00 2.01625E+00
 -1      1550-6.29915E-01-8.88054E+00 6.14289E-01-1.21443E+00 2.28757E+00 7.21830E-01
 -1      1551-4.04479E+00-4.51437E+00 3.14872E-01 2.96917E-01 7.33310E-01-1.39184E+00
 -1      1552-1.58864E+00-2.08773E+00-2.43387E-01-3.36902E-01 1.08500E+00-8.49505E-01
 -1      1553 2.99011E-01-1.92929E+00 1.55111E-01-9.64536E-01 6.39306E-01-1.30548E+00
 -1      1554 3.52011E+00 2.88370E+00-1.10756E+00 3.34971E+00 2.04708E+00 1.71240E+00
 -1      1555 9.76287E-01 3.42042E+00 2.64884E-01 8.51259E-01 2.36296E+00 8.30130E-01
 -1      1556 7.74643E+00 5.21942E+00-1.50477E+00 3.40887E+00 1.37204E+00-1.06568E+00
 -1      1557 4.58251E-01 2.40294E+00-1.94956E+00 3.46346E-01 2.50839E+00 6.64178E-02
 -1      1558 6.66697E-01 4.05202E+00-1.78162E+00 8.55998E-01 3.66160E+00 1.05500E+00
 -1      1559 3.16550E+00 6.88906E-01 7.49495E-01-1.20399E+00 1.51503E-01 1.11995E+00
 -1      1560-9.10027E+00-1.05046E+00 1.34164E+00 1.83711E+00-1.23081E+00 1.03615E+00
 -1      1561 2.84372E+00 1.67549E+00 5.89883E-01-8.00314E-01-7.41953E-01 2.10086E+00
 -1      1562 8.83821E-01 3.86998E+00 1.71343E+00-8.47558E-01 3.71627E+00-1.11880E+00
 -1      1563 2.36135E+00 9.41808E-01 1.72530E+00 7.29445E-02-1.82068E+00 2.58451E+00
 -1      1564-8.41433E+00-3.86349E+00 2.96653E-01 3.14648E+00-1.25120E+00 1.50238E+00
 -1      1565 4.03240E-01-3.55462E-01 7.11809E-02 3.79799E-02-4.91900E-01 2.21447E+00
 -1      1566 1.65551E+00-4.29243E-01 3.41963E-01-9.46749E-01-2.42988E+00 2.49822E+00
 -1      1567 6.01607E-01 3.13539E+00-5.98577E-01 5.28198E-02-1.76222E+00-4.87216E-01
 -1      1568-7.39823E+00-9.31233E-02-2.12462E+00 1.60013E+00 1.78632E+00 3.53644E-01
 -1      1569-1.33630E+00-3.28277E-02 1.13786E-01 1.09563E+00 1.44171E+00 8.99657E-01
 -1      1570 1.57536E+00 2.37226E+00 4.92599E-01 1.22674E+00-1.07126E+00-6.51646E-01
 -1      1571-2.18749E+00-2.03916E+00-8.49492E-01-1.59032E-01 1.12293E+00-8.66563E-01
 -1      1572 3.08113E+00 5.62289E+00 6.86267E-01 2.83024E+00 1.94016E+00 1.42264E+00
 -1      1573 4.07972E+00 9.84094E-01 1.47908E+00-3.57099E-01 1.46214E+00-3.73727E+00
 -1      1574 1.70180E+00 3.97525E+00 1.10529E+00-1.09207E+00-5.15555E-01-1.02196E+00
 -1      1575-7.33430E+00-1.76668E+00-8.03873E-01-1.43330E+00-4.04779E-01 3.27100E+00
 -1      1576 3.09437E+00-3.81648E+00 7.74032E-01 4.30260E-01 9.55459E-01-4.40452E-01
 -1      1577 2.96072E+00 3.61724E+00 8.32562E-02 2.79609E+00-1.25095E+00-1.54751E+00
 -1      1578-7.27941E-01 1.36326E+00 2.07497E+00-1.19564E-01-3.89873E+00 4.11775E-01
 -1      1579 3.95023E+00 1.15771E+00 1.22857E+00 5.13948E-01-4.89489E-01-1.97486E+00
 -1      1580-6.27924E+00-2.42742E+00-2.95445E+00-3.89975E-01-1.05263E-01 1.34749E+00
 -1      1581 1.51046E+00 2.00110E+00-1.46340E+00-3.51286E-02 1.27584E-01-5.43548E-01
 -1      1582-2.11093E+00-1.63131E+00-4.50148E-01-1.11021E+00 1.53300E+00 7.05411E-01
 -1      1583 9.28182E-01 3.38701E+00 2.50959E+00-5.86503E-01 2.40104E+00-7.85207E-01
 -1      1584-1.06251E+00 9.70858E-02 5.73563E-01-2.16442E-01 2.34775E+00-5.12147E-01
 -1      1585 3.73357E+00 4.22759E+00 3.81819E-01-2.91441E+00 1.11647E+00 4.53317E-01
 -1      1586-9.76691E-01-2.45260E+00-1.47759E+00-1.66155E-01-3.90508E-01-1.55852E+00
 -1      1587-1.05503E-01-8.34139E-01 8.72505E-02-3.54586E-01 2.29596E-01-3.40085E+00
 -1      1588 1.15208E+00 1.34472E+00-7.32697E-01-4.36255E-01-1.38964E+00 6.59682E-01
 -1      1589 2.40803E+00 7.39863E-02 2.30106E-01 2.39229E-01-7.47683E-01-1.12355E+00
 -1      1590-2.58099E-01-5.64454E-01-4.84694E-01 9.11475E-01 5.68736E-01-3.06806E+00
 -1      1591-7.43733E+00-6.01722E+00-8.03586E-02 4.20430E+00 1.17323E+00-2.40729E+00
 -1      1592-1.08434E+00-7.99861E-01-5.92911E-01-6.97089E-01-1.10302E+00 1.26730E+00
 -1      1593-7.25679E-02 3.85889E+00 3.71083E-01-1.33678E+00-9.52219E-01-8.69994E-02
 -1      1594-4.59375E+00-1.35443E+00-1.36992E+00-2.53154E-01 9.59594E-01-2.57468E+00
 -1      1595 7.52402E-01 3.58729E+00 6.31343E-02-5.78977E-01 2.65501E+00-6.51658E-01
 -1      1596-3.33733E+00-4.91832E+00 3.22167E-02 2.42063E+00-2.89198E+00 3.49852E+00
 -1      1597 3.56389E+00 1.48534E+00 1.08032E+00-2.34155E-01-6.90754E-01 4.30907E-01
 -1      1598 2.79978E+00 1.42690E+00 2.75767E+00-1.08522E+00 8.79456E-03 2.86086E+00
 -1      1599 1.18982E+00-1.04806E+00 1.10785E+00-3.03135E-02 2.82359E+00 5.58191E-01
 -1      1600-5.61906E-01-3.75477E+00-3.21883E-01-3.11002E-01-1.53944E+00-2.23736E-01
 -1      1601 3.07990E+00 5.10904E-01-1.09022E+00-8.45094E-01-8.34785E-01 1.15593E+00
 -1      1602-5.51355E+00-1.37426E-01 1.95227E+00 2.00061E+00 1.35208E+00 2.18357E-01
 -1      1603-5.38443E-01-4.51690E+00-8.50336E-02-9.26282E-01 2.28131E+00 1.23164E+00
 -1      1604 1.02120E+00 1.23977E+00 3.82005E-01 1.44301E+00-1.09867E+00-4.11808E-01
 -1      1605 2.49175E+00 2.41381E+00 1.32442E-02-1.42577E+00 5.11575E-01 3.89395E-01
 -1      1606-4.09890E+00-7.43899E+00-8.66955E-01 3.04504E+00 2.72035E+00-1.63483E+00
 -1      1607-1.10916E+00 2.90935E-01 3.20345E-01-5.59951E-01-1.68439E+00 1.32566E+00
 -1      1608-1.64365E+00-9.80100E-01 5.51387E-01-2.79678E-02 1.68455E+00 6.37192E-01
 -1      1609 3.71377E+00 6.00006E+00-3.05560E-01-2.43451E-01 5.92733E-01 1.43763E+00
 -1      1610-2.63883E+00 5.40065E-01-6.38374E-01 1.11693E+00-1.48263E+00 2.25194E+00
 -1      1611-3.45769E+00-3.47293E+00-3.38513E-01 2.65696E+00-2.30987E+00 2.63178E+00
 -1      1612-7.62777E-01 1.91877E+00-3.83966E-01 3.99853E-01-6.06164E-01-1.61653E+00
 -1      1613 2.20566E+00 5.53160E+00 6.36395E-01-1.53828E+00-4.55885E-01-1.62785E+00
 -1      1614 8.30045E-01 2.15047E-02 5.07859E-02 1.36590E-01-1.29627E+00 2.19976E+00
 -1      1615 1.96914E+00 3.07954E+00 7.21697E-02-2.17912E+00-2.46692E+00 1.70346E+00
 -1      1616 1.85142E+00 5.80269E-01-5.37963E-02 3.81106E-01 2.01323E-01 2.75357E+00
 -1      1617-8.36718E-01-1.48590E+00 9.05541E-01 1.99612E+00-1.46777E+00 1.89520E+00
 -1      1618-2.49742E+00 1.66155E+00-7.19055E-02-7.65110E-02-3.85124E-01-1.21538E+00
 -1      1619-1.55881E+00-5.94324E+00 6.20091E-01 5.39085E-01 9.45881E-01-4.92702E-01
 -1      1620-4.08419E+00-2.11489E-01 3.89772E-01-1.16783E+00-8.46792E-01-1.72266E+00
 -1      1621 2.26329E+00 4.09556E+00 6.41601E-01-4.33860E-01-2.44422E+00 6.17770E-01
 -1      1622-1.89558E+00-2.95326E+00-1.00650E+00 1.08807E+00 4.99600E-02 4.61062E-02
 -1      1623 4.08457E+00 1.29492E+00 3.06802E+00 1.05249E+00 7.45528E-01 3.22295E+00
 -1      1624 6.33192E+00-1.07352E-01-4.43040E-01 4.68842E-01-3.30449E+00 5.19753E+00
 -1      1625 1.07161E+00-4.57727E+00-3.76043E-01 2.19360E+00-1.24759E+00 4.52649E-01
 -1      1626 1.82567E+00 2.20993E-01-2.37863E-01-3.53742E-01-7.36587E-02 2.99010E+00
 -1      1627 2.03917E+00 7.45782E+00-4.75226E-01-6.20179E-02 4.18444E+00-1.73469E+00
 -1      1628-7.62755E-01-8.78184E-01 1.25298E+00 3.60348E-01 2.71439E+00 4.80882E-01
 -1      1629 5.45268E+00 5.77045E+00 1.11801E+00-1.51897E+00 1.22935E+00 8.85300E-01
 -1      1630 2.17374E+00 2.01425E+00 2.19832E+00-9.08088E-01 1.32397E+00-1.43438E+00
 -1      1631 1.34071E+00 1.62913E+00 1.87666E+00-1.39985E-01 2.18182E+00-1.55113E+00
 -1      1632 1.46186E+00 3.96938E+00-1.49231E-01-4.22914E-01 2.01616E+00-4.40300E-01
 -1      1633 2.05542E+00-8.92399E-01-7.31556E-01 2.17810E-01 6.67740E-03-2.56768E+00
 -1      1634 3.43705E+00 6.54129E-01-8.69079E-01 5.15477E-01-8.81041E-01-5.21942E+00
 -1      1635 1.61918E+00-2.77751E+00 1.89890E+00-1.13032E+00-1.27083E+00 5.43996E-01
 -1      1636 1.02791E+00 5.35561E+00 2.88281E+00-1.88603E-01 2.33499E+00-3.44345E-01
 -1      1637 3.33430E+00 1.60461E+00 6.50306E-02-2.07638E+00 1.35262E+00 4.62162E-01
 -1      1638 2.98091E+00 5.21088E+00 1.89847E+00 2.97124E+00 1.83414E+00-2.35752E+00
 -1      1639 1.64051E+00 2.77656E+00 1.38495E+00-1.60621E-01 1.17764E+00-8.32387E-01
 -1      1640-1.03253E+01-3.65180E+00-6.04974E-02-3.16962E+00 1.48127E-01 3.05865E+00
 -1      1641-5.99513E+00-2.59425E-01 4.35643E-01 6.50081E-01-5.58580E-01-1.52115E+00
 -1      1642 4.49448E+00 1.22662E+00 3.16015E+00 5.94060E-02-1.06028E+00 2.77274E+00
 -1      1643-4.76067E+00-4.59322E+00-1.47077E+00 2.73068E+00-3.65982E+00 2.47299E+00
 -1      1644 8.46229E-01-1.34546E+00 3.56194E-01-2.12259E-01 1.84575E+00-2.31152E-01
 -1      1645 7.08648E-01 1.28274E+00 4.57885E-01 2.70579E+00-1.29595E+00 9.64830E-01
 -1      1646 2.03032E+00-1.67185E+00 1.24910E-01-1.16032E-01-1.97398E+00-1.13562E+00
 -1      1647-4.09029E+00-1.67940E-01 3.28057E-01 2.72404E-01-7.09418E-01-2.02968E+00
 -1      1648 3.43061E+00 4.28251E+00 1.35481E+00 3.14710E-01 2.82824E-02-1.46746E+00
 -1      1649-7.40636E+00-2.76502E+00-3.07258E+00 1.63575E+00 2.00846E+00-2.32939E+00
 -1      1650 2.99901E+00 7.46549E-01 1.68516E+00-4.67320E-01-2.65733E-01 3.89260E+00
 -1      1651-1.79556E+00-1.52250E+00-1.85153E-01 4.33744E-01 1.80196E+00-2.09789E-01
 -1      1652 7.61180E+00 1.19834E+00-9.52216E-01 1.28152E+00-5.52026E-02-1.97925E+00
 -1      1653 1.66118E+00-1.82210E+00 1.70860E+00 2.47423E-01-1.28298E+00-3.28073E+00
 -1      1654-6.77967E+00-1.29678E+00-1.10319E+00 1.67542E-01 5.57458E-01-2.81744E+00
 -1      1655 6.16202E-01 1.35163E+00 3.93639E-01 1.72961E+00-7.34467E-01 8.91325E-01
 -1      1656-1.99983E+00-1.37898E+00-1.05890E-01 7.11238E-01 1.35627E+00-1.21389E+00
 -1      1657 1.54978E+00 1.59811E+00-9.02155E-01-2.56891E+00-6.61582E-01 7.26894E-01
 -1      1658 1.11786E+00 1.23331E+00 1.52673E+00 1.25605E+00 1.63323E-01 9.91000E-01
 -1      1659 8.40913E+00 7.11825E+00 2.34744E+00 8.67118E-01 3.14900E+00-3.90158E-01
 -1      1660-7.18499E-01 1.03150E+00-8.06776E-02-4.85308E-01-5.31849E-01 3.84387E-01
 -1      1661-2.63422E+00-2.91775E+00-2.13408E+00 1.58737E+00-1.60101E-01-2.52531E+00
 -1      1662 9.31872E-01 2.56403E+00 6.63829E-02-6.85306E-02-1.74569E+00-1.25829E+00
 -1      1663 1.00750E+00 1.42101E+00 1.13350E+00 6.31730E-01-2.28985E+00-2.67681E+00
 -1      1664-7.70911E-01-3.97360E+00-1.50051E+00 6.90693E-01-2.48599E+00-7.65259E-01
 -1      1665-4.08344E+00-1.12950E+00-2.79300E-01 3.69545E-02 2.45008E-01-3.38982E-01
 -1      1666 1.22368E+01 3.17506E+00 1.42840E+00-1.93605E+00 1.21296E+00-5.89168E+00
 -1      1667-1.66247E+00-1.76094E+00 9.85836E-01-1.50373E+00 2.01315E-01 7.47808E-01
 -1      1668-6.65261E+00-3.26333E-01 7.97096E-01-1.35684E+00 1.19584E+00 8.17398E-01
 -1      1669-2.35097E+00-3.63133E+00-1.26925E+00-3.07119E+00-1.28519E+00-2.10673E+00
 -1      1670-4.45126E+00-3.17453E+00-1.17861E+00 2.50629E+00-2.68104E+00 2.91908E+00
 -1      1671 8.64235E-01-2.19965E+00 9.69053E-01 1.43642E+00-3.79489E+00-7.75477E-01
 -1      1672-5.68262E+00-3.72142E+00-3.76937E+00-2.05595E+00 3.01678E+00 1.18440E+00
 -1      1673 1.81037E+00 6.92689E-01 2.88378E+00 5.05290E-01-4.86348E-02 1.88674E+00
 -1      1674 2.82012E+00-4.75936E+00 1.01116E+00-2.08399E+00 3.20421E+00 3.11779E+00
 -1      1675-1.70526E+00-2.69348E+00-1.25473E+00 1.95575E+00-9.12877E-01 1.34975E+00
 -1      1676 1.16160E+00 3.93638E+00 7.85848E-01-6.72634E-01 2.67510E+00 7.22898E-01
 -1      1677-2.87241E+00-5.60047E+00-1.47904E+00-1.64048E+00-3.07705E+00-8.85901E-01
 -1      1678 2.97732E+00 3.00331E-01 9.48225E-01 4.89039E-01 1.55777E+00 1.17004E-01
 -1      1679 1.06106E+00-3.29404E+00-1.30935E+00 7.41144E-02-4.78123E+00-3.39968E-01
 -1      1680-1.14559E+01-4.12967E+00-1.50538E+00-2.52466E+00 4.90434E-01 2.09810E+00
 -1      1681 6.79144E-01-3.53933E+00 1.54412E+00 1.32708E+00 1.50614E+00 1.81612E-01
 -1      1682 4.55102E+00 2.21414E+00-1.16517E+00 1.75016E+00 1.11777E+00 2.72409E+00
 -1      1683-1.99238E-01-1.24927E+00-1.45897E+00-2.93637E-01-2.60983E+00-1.21293E+00
 -1      1684-1.77632E+00-4.44478E+00 7.43521E-01 3.02077E+00-3.35845E+00 9.34416E-01
 -1      1685 1.51964E+00-5.82940E-01 2.12256E-01 5.25685E-01-1.54912E+00 2.16786E-01
 -1      1686 1.70904E+00 3.01467E+00 1.25197E+00 1.47967E+00 3.68673E+00 9.83570E-01
 -1      1687-6.24573E+00-3.06242E+00 1.57094E+00-2.78863E+00 4.48421E+00 5.21556E+00
 -1      1688-5.52597E+00-2.85270E+00 2.35607E-01-2.74893E+00-8.43487E-02-9.82283E-01
 -1      1689 3.93517E-01 3.90871E+00-9.59568E-01 1.82924E-01-1.89318E+00-5.59879E-01
 -1      1690 2.32709E+00 9.96449E-01 1.14071E+00-1.85083E-01-1.06083E+00 3.58520E+00
 -1      1691 3.84935E+00 9.50756E-01-2.26049E+00 5.51159E-02-7.39957E-01-5.28452E-01
 -1      1692 3.76709E-01 2.14834E+00 5.86930E-01-4.37208E-01 3.63128E+00-3.72118E-01
 -1      1693 7.68469E-02-4.65122E+00-4.32014E-01-4.77423E-01 1.96897E+00 6.96620E-01
 -1      1694-4.63874E+00-3.14202E+00-7.79491E-01-2.65156E+00-3.22670E+00-2.78852E+00
 -1      1695 6.83385E-02-3.96806E+00-1.54221E-01 1.00469E+00 4.87544E-01 5.28038E-01
 -1      1696 1.44811E+00 1.16307E+00 7.64291E-02 1.38641E+00 1.75753E+00 1.52886E+00
 -1      1697 2.03215E+00-1.56517E+00 1.34366E+00 5.03778E-01 1.17157E+00 2.61415E+00
 -1      1698-1.04272E+00-3.51338E-01 1.50572E+00-1.51751E-01 1.57866E+00 1.65175E+00
 -1      1699-6.56404E+00-9.24054E+00 4.02640E+00-5.31128E+00 1.07553E+00 1.21463E+00
 -1      1700-2.56690E+00-4.06156E+00 8.99025E-01 2.86459E+00 3.43997E-01 9.76358E-01
 -1      1701-2.71322E+00 6.52330E-01-1.73658E-01-6.13826E-01-3.84525E-01-1.73321E+00
 -1      1702-5.04408E+00-2.80630E+00-2.62013E+00-3.01143E+00 5.13215E-01-2.79189E+00
 -1      1703-7.84261E-01 1.84815E+00-2.22063E-01 5.53253E-01-4.95100E-01-1.46350E+00
 -1      1704 5.77160E+00 1.17191E+00 1.04941E+00-2.73570E+00 8.87941E-01-4.43847E-01
 -1      1705 3.96532E-01 2.43018E+00 7.36150E-01-1.53561E+00 1.14788E+00-7.81762E-01
 -1      1706-1.50249E-01 5.01313E+00 1.76199E+00 7.95762E-01-2.68902E+00-7.74068E-01
 -1      1707-1.16282E+00 1.40526E+00 1.17163E-01-6.17101E-01-5.00201E+00 2.58287E+00
 -1      1708 3.93164E+00 4.39441E+00 6.57434E-01-2.07447E+00 7.59043E-02-7.10778E-01
 -1      1709 5.91766E+00 5.87269E+00-1.82570E+00-2.47763E+00-7.24147E-01 1.20624E-01
 -1      1710-6.25376E+00-1.56253E+00-1.95387E+00-1.87834E-01-3.74312E-01 2.17968E+00
 -1      1711 3.06830E+00-1.71881E+00 4.54860E-01 1.26449E-01-2.49892E+00-1.15775E+00
 -1      1712 2.45485E+00-1.07745E+00-1.63716E-01-2.61719E-01-2.01337E+00-2.55828E-01
 -1      1713-1.47083E+00 1.94516E+00-4.17299E-01 6.30127E-01-7.61584E-01 1.31253E+00
 -1      1714 8.27084E-01 3.77489E-01 7.92829E-01 9.50537E-02-2.63108E+00-1.14552E+00
 -1      1715 1.22234E+00 7.59666E-01-1.35614E+00 9.29280E-01 2.20963E+00 2.05950E+00
 -1      1716 2.86944E+00 4.64699E+00 2.25476E+00 1.91106E+00-1.42277E+00-2.74375E+00
 -1      1717 1.00525E+00 7.74804E-01-2.76772E-01-1.01236E+00 2.29247E+00-4.38117E-01
 -1      1718-2.37963E-02-4.36450E+00-3.23270E-01-6.66825E-01-8.37401E-01 7.41336E-01
 -1      1719 1.08600E+00 1.92546E+00 3.88986E-01-9.87033E-01 4.42076E+00 3.43977E-01
 -1      1720 8.30083E-02-4.07401E+00-5.66408E-01-3.63587E-01 2.31943E+00-2.16184E-01
 -1      1721-1.81414E+00-4.92280E+00-2.17091E+00 1.81222E+00-2.49046E+00 1.66919E+00
 -1      1722 1.54300E+00 5.80827E+00 7.64807E-01 4.55323E-01-2.28465E+00 1.61256E-01
 -1      1723 9.49772E-01 1.73022E+00 2.11774E+00-8.85409E-02-3.54382E+00-8.69372E-01
 -1      1724 3.55372E+00 3.38464E+00 1.32714E+00-3.06520E+00-5.60768E-01 2.27424E+00
 -1      1725-3.92614E-01-9.72299E-01 3.65044E-01-5.83242E-01-1.38388E+00-1.04069E+00
 -1      1726 1.46260E+00 3.74035E+00-4.59024E-02-1.06525E+00 9.42963E-01 2.80143E-01
 -1      1727-1.34281E+00-1.30439E+00-3.67262E-02 1.17373E-01-1.56918E+00 1.32525E+00
 -1      1728-2.34682E+00-2.50214E+00 6.48474E-01 1.97236E+00 1.98955E+00-1.38602E+00
 -1      1729 2.89939E+00 9.48607E-02 6.64476E-01 2.45972E-01-4.06565E-01 1.46172E+00
 -1      1730-6.03885E-01-4.09988E+00 9.23462E-01 1.63771E+00 2.07459E+00-1.59630E+00
 -1      1731-1.89826E+00-2.93959E+00-1.05888E+00-4.03429E-01 3.16271E-01 8.25860E-01
 -1      1732 1.08137E+00-1.37838E+00-8.67397E-02-3.80735E-01 2.38079E+00-4.08309E+00
 -1      1733 1.92671E-01 2.76101E+00 1.72289E+00 8.51328E-01 3.10489E+00 7.49982E-01
 -1      1734 1.56143E+00 5.30789E-02-3.14115E-01 2.01873E-01-1.51012E+00-3.23170E+00
 -1      1735-4.49666E+00-1.66562E-01 2.34571E+00-7.97700E-01 2.89830E-01-2.22703E+00
 -1      1736-3.25582E+00 1.29387E+00 2.25176E-02 1.33974E+00 1.72303E+00-2.52321E+00
 -1      1737-2.25277E+00-1.73444E+00 8.44137E-01-1.25093E+00 1.67806E+00 2.27288E+00
 -1      1738-6.01011E-01 3.64007E-01-2.10171E+00 4.11319E-01-2.74417E-01 5.78697E-01
 -1      1739-1.06578E+00-2.37560E+00-4.00864E-01 5.81402E-01 8.51362E-01 8.57147E-02
 -1      1740-2.93805E+00-2.33919E+00 5.03632E-01 2.10638E+00-2.24745E+00 2.20078E+00
 -1      1741 2.77011E+00 3.92535E-01 4.40122E+00-1.40085E-01 1.95825E+00 2.79711E+00
 -1      1742 7.13653E+00 3.73266E+00 6.70023E-01 4.09354E+00 1.34140E+00 2.94724E+00
 -1      1743-3.25103E+00-4.54513E+00-8.23826E-02 1.87005E+00 3.35191E+00-6.40618E-01
 -1      1744-9.66451E-01 1.66194E+00-1.02717E+00 3.27214E-02-1.60984E-01-1.45125E+00
 -1      1745-6.01534E+00-6.10653E+00-2.01777E-01 3.50898E+00-4.36966E+00 4.06477E+00
 -1      1746 1.50929E+00 2.24569E+00 1.84956E+00-8.26322E-01-1.85893E+00 2.58308E+00
 -1      1747-7.75991E+00-2.13682E+00 1.15511E+00-2.54383E+00-8.10802E-01 1.97953E+00
 -1      1748 1.83661E+00 7.45414E-01-5.53773E-01 1.48926E+00 9.21468E-01-8.93368E-01
 -1      1749-2.06347E+00-2.18026E+00-1.61530E+00-2.79580E-01 1.38050E-01-1.07528E+00
 -1      1750 7.70740E-01 9.63182E-01 1.62577E+00 2.66303E-01-1.11881E+00 8.50482E-01
 -1      1751 4.32413E+00 9.93190E+00 1.44538E+00 1.54096E+00 7.14726E-01 1.74005E+00
 -1      1752 3.89245E+00 1.29635E+00-6.84561E-01 1.15247E+00 6.67003E-02-5.67179E-01
 -1      1753-3.56651E+00-6.91755E+00-6.64435E-01 3.04233E+00-1.52219E+00 9.98380E-01
 -1      1754 2.03099E+00-8.20928E-01 2.37798E+00-4.18334E-01-2.03876E+00-2.21964E-01
 -1      1755-3.43115E+00-2.70697E+00 1.04841E+00 2.26997E+00 1.16128E+00-1.81182E+00
 -1      1756-1.66003E+00 2.12242E+00-2.77610E-01-1.76051E+00-2.26235E-01-2.00354E+00
 -1      1757 2.31393E+00 2.29634E+00 6.73392E-01-1.59104E+00-4.69767E-01 2.94711E-01
 -1      1758-2.28823E+00-5.62470E+00-3.98826E-02-1.79675E+00-2.85795E-01-1.22474E+00
 -1      1759-1.39349E+00-6.02794E+00 1.39620E-01-1.55496E+00 1.82678E+00-1.16197E+00
 -1      1760-3.94375E+00-3.56811E+00-7.85705E-01-2.19508E+00 1.51980E+00 2.70031E+00
 -1      1761 1.79353E+00 1.57941E+00-1.22111E+00 1.25834E-01-6.24710E-02 1.56273E-01
 -1      1762 3.83548E-01-1.03687E+00-2.31431E-01 2.58172E-01 1.27459E+00 4.32271E-01
 -1      1763 7.16052E+00 1.17888E-02 7.28700E-01 9.44377E-01 1.76998E+00 1.11780E+00
 -1      1764-3.84854E+00-4.36798E+00-2.26669E+00 1.80874E+00-2.46114E+00 1.41698E+00
 -1      1765 4.56366E+00 4.77440E+00-1.28035E-01-3.47223E-01-1.49432E-01 1.99564E+00
 -1      1766 4.37659E+00 4.83859E+00-1.10573E+00 2.19279E+00-8.04908E-01 6.56578E-01
 -1      1767-2.05616E+00 8.34775E-01 1.50025E-01 1.53063E+00 2.10588E-01 1.35816E+00
 -1      1768-7.75290E-01-1.30948E+00 4.61393E-01 5.84053E-01-1.84010E-01-1.45965E+00
 -1      1769 1.26988E+00 4.09253E-01 1.78925E-02-1.11880E+00-5.95926E-01-1.38085E+00
 -1      1770 2.21167E+00 2.30503E+00 1.24237E+00-1.59549E+00-3.05100E+00 2.24166E+00
 -1      1771-7.13286E+00-1.16894E+00 6.08559E-01 1.65910E+00 6.04926E-01-2.31200E+00
 -1      1772-9.12227E+00-1.35985E+00 2.66370E+00 5.19238E-01 7.51107E-02-3.85778E+00
 -1      1773 1.09844E+00 6.12664E-01 9.35494E-01-4.79242E-01 1.32883E+00-1.41777E+00
 -1      1774 2.75828E+00 1.75801E+00 2.50419E-01 1.23574E+00-2.00136E-01-9.97789E-01
 -1      1775-3.80232E+00-1.27552E+00-1.84908E+00 7.32087E-01-4.80299E-02-8.43051E-01
 -1      1776 2.64832E+00 6.33684E+00-3.43125E-01 2.73557E-01 3.07832E-01-8.98166E-01
 -1      1777-2.03494E+00-3.50129E+00-2.50107E-01-3.19335E-01-5.89728E-01-1.27196E+00
 -1      1778-5.06236E+00 8.77667E-01-9.75417E-02 1.39731E+00 2.24565E-01 2.14902E+00
 -1      1779-2.10754E+00-1.04302E+00-2.99565E-01-6.34725E-01-1.08905E+00 9.32950E-01
 -1      1780-5.70033E+00-4.76290E+00-2.42215E+00 3.46768E+00 1.63333E+00-1.95861E+00
 -1      1781-9.01956E-02-3.55790E+00 5.14478E-01-3.27891E-01 7.39777E-01 1.24816E+00
 -1      1782 4.23155E-01-3.15608E+00 2.58361E-01 1.49300E+00-3.96096E+00 5.60196E-01
 -1      1783 1.09478E+00 1.74243E+00 6.91405E-01 8.76454E-01 4.19084E-01 1.56286E+00
 -1      1784-2.64825E-01-1.49894E-01 2.89500E+00 2.23151E-01 1.77831E+00 1.42502E+00
 -1      1785-5.67576E+00-2.54366E+00-2.19407E+00 1.75149E+00-2.92003E-01-2.83035E+00
 -1      1786-1.96514E+00-1.42639E+00-7.45345E-01-2.42598E-01 2.76329E+00-5.37584E-01
 -1      1787 3.38115E+00 2.78865E+00 1.27559E+00-1.43917E+00-1.87405E+00 2.89172E+00
 -1      1788-3.63803E+00-4.00110E+00-1.98336E+00 1.98146E+00 4.25903E+00-1.53653E+00
 -1      1789 1.61733E+00 5.77191E-01-6.65871E-01 1.62933E+00-1.64098E+00-1.13720E+00
 -1      1790 5.09678E+00 1.25408E+00 4.03147E-01 2.96050E-01 8.30859E-01-4.48938E-01
 -1      1791 7.00465E+00 8.21939E-01-1.92709E+00-5.97042E-01-6.90165E-02-1.99575E+00
 -1      1792 3.74164E+00 2.17458E+00 1.69928E+00-2.01316E+00 4.26593E-02 4.93924E+00
 -1      1793-1.96810E+00-5.82463E+00-3.57433E+00 7.52151E-01 3.45344E+00-2.11812E+00
 -1      1794 2.17326E+00 1.28032E+00 1.13854E+00 7.10426E-02 4.05026E-01 2.87708E+00
 -1      1795-9.74461E-01-2.67640E-01 2.82006E-01-8.62701E-01-1.59375E+00 8.44013E-01
 -1      1796 9.52954E-01 2.90664E+00 1.83833E+00-2.58611E-01-1.85117E+00-6.50394E-01
 -1      1797 4.21969E-01-1.50123E+00 2.56021E+00-2.53504E+00 5.02644E+00-1.98156E-01
 -1      1798 2.43517E+00 1.85273E+00-3.95735E-01 7.16965E-01 1.33775E+00 1.77498E+00
 -1      1799-1.49621E+00-9.50770E+00-7.40778E-01-5.27379E-01-3.19026E+00-5.76156E-01
 -1      1800 1.48396E+00-8.43142E-01-6.69737E-02-2.80655E-01 3.08239E+00-2.94200E+00
 -1      1801 2.25290E+00 2.26486E+00 4.29826E-01-2.68141E+00 1.50553E+00-2.58669E+00
 -1      1802-1.04393E+00-2.45671E+00-1.02905E+00-1.76291E+00 4.86335E-01-3.77508E-01
 -1      1803-1.05891E+00-1.92648E+00 7.54446E-02 1.50151E-01-4.20132E+00 1.16086E+00
 -1      1804 1.32400E-01-3.26577E-01 9.58877E-01 1.20525E+00-1.63373E+00-6.19460E-01
 -1      1805-6.03839E-01-3.70006E-01 7.09965E-02-2.16835E-01-3.45898E-01 3.12497E+00
 -1      1806-3.97861E+00-1.12409E+01-2.04814E+00 3.59251E+00 3.82131E+00-4.92116E+00
 -1      1807 4.26495E+00 1.71521E+00-5.60247E-01-8.86847E-01 1.33690E+00-2.57473E-01
 -1      1808-2.52633E+00-5.27036E+00-4.00464E+00-3.35987E-01 1.58374E+00 2.28998E+00
 -1      1809-9.33813E-02 1.08082E+00-4.01981E-01 9.32130E-01-2.25205E+00-4.96587E-01
 -1      1810 2.19654E-01-7.57286E-01 9.06223E-01-1.37534E-02 1.17826E+00 4.37006E-01
 -1      1811-2.27972E+00-5.69517E+00 2.14496E+00-3.07510E+00-2.62169E+00-4.62163E+00
 -1      1812 5.17850E+00 2.43878E+00 1.72964E+00-2.52104E-01 7.86765E-01-1.55591E-01
 -1      1813 1.01638E+01 1.12458E+01-1.19470E+00 2.06866E-02-3.46097E+00 2.04597E+00
 -1      1814 5.92352E+00 7.67654E+00 3.80939E-02-2.18541E+00-1.54780E-01-1.60978E+00
 -1      1815-1.40883E+00 9.96895E-01-3.08299E+00 1.09057E+00 2.36302E+00 3.03467E-01
 -1      1816-1.25497E+01-4.53092E+00-2.58997E+00 3.26722E+00-1.04141E+00 3.31257E+00
 -1      1817 1.86171E+00 3.80545E+00 2.42030E+00-4.48967E-01 5.53041E-01 7.87184E-01
 -1      1818 8.06827E-02-4.33756E+00 6.91029E-01-5.22223E-01 1.82194E+00-5.57375E-02
 -1      1819-7.40557E+00-7.39404E-01 1.16170E+00-1.46881E+00 5.21001E-01 1.75776E+00
 -1      1820-3.73953E+00-4.86590E+00-2.26260E+00 2.15164E+00-2.79386E+00 2.42644E+00
 -1      1821 7.74538E-01 7.24212E-01-1.39427E+00-1.66284E+00-5.93094E+00 2.78616E-01
 -1      1822-1.15090E+00-1.75310E-01 7.53018E-01-2.78389E-01 3.84768E-01-1.46979E+00
 -1      1823-4.31894E-01 4.38338E-01 7.94370E-01 7.14118E-01 2.09159E+00 4.27146E-01
 -1      1824-3.75928E+00-1.51229E+00-2.09963E+00-1.37883E+00-4.68929E-01-3.57672E+00
 -1      1825-7.74875E-02 4.83201E+00 7.40611E-02 4.75777E-01 2.65914E+00 7.20498E-01
 -1      1826 3.76666E+00 6.59964E+00 2.20318E+00-3.16829E+00-9.75369E-01 4.84065E-01
 -1      1827-9.36148E-01-5.54758E+00-3.16564E-01 1.54263E+00 2.58258E+00-1.32015E+00
 -1      1828 1.96639E-01-4.03490E+00-2.48133E-01 6.88936E-01-3.39688E+00 2.00861E-01
 -1      1829 3.80823E+00 3.94247E+00 3.84845E-01 1.99171E+00 3.96460E-01-7.61306E-02
 -1      1830 8.46697E+00 3.61227E+00 1.72696E+00-1.73390E-02 7.25256E-01 9.34039E-01
 -1      1831-6.99557E-01-2.31129E+00-9.34043E-01 1.91326E+00 3.03376E+00-7.28704E-01
 -1      1832-3.35675E+00-1.09561E+00-1.05922E+00-2.46703E-01-1.20820E+00 4.65622E-01
 -1      1833-3.05168E+00-1.41538E+00 1.28659E-01 1.25999E+00-1.47038E+00-1.40922E+00
 -1      1834-6.40364E+00-1.71978E+00-1.19956E+00 1.13922E+00-1.62891E+00 2.03058E+00
 -1      1835-5.41794E+00-1.26547E+00-2.94574E+00 1.21318E-01-1.64883E+00 2.42983E+00
 -1      1836-2.55003E+00 1.33012E+00 7.49053E-01 2.63541E+00-7.11121E-01 1.11807E+00
 -1      1837-3.17468E+00-7.41696E-02 1.06031E+00-7.98472E-02 3.09505E-02 2.29496E+00
 -1      1838-1.29588E+00-5.74065E+00-1.68746E+00 1.34023E+00 1.29284E+00 5.33503E-01
 -1      1839 1.82911E+00 1.15550E+00 4.36798E+00 2.35912E+00-2.58810E+00 6.14747E+00
 -1      1840-1.43701E+00-1.65364E+00 2.15908E-01 1.43761E-01 1.27608E+00 1.95933E+00
 -1      1841-4.03900E+00 7.34990E-02 1.25386E+00-7.99203E-01-1.15513E-01-1.97237E+00
 -1      1842-2.06943E+00-2.18250E+00 1.24166E+00 1.55785E+00-3.96947E+00-7.44722E-03
 -1      1843-2.45483E+00-1.60541E+00 2.02413E-01 1.26305E-01-1.04271E+00-4.79029E-01
 -1      1844-1.65937E+00-1.47590E+00-1.71966E+00-9.48952E-01-4.83158E-01-2.63118E+00
 -1      1845 1.71268E+01 2.05946E+01-1.56240E+00-1.56949E+00 2.52170E+00-3.79623E+00
 -1      1846 1.13186E+00-4.20045E-01 5.41210E-01-2.03041E-01 1.63807E+00 4.66377E-01
 -1      1847-5.25430E-01-8.82273E-01 9.62781E-01-3.79971E-01-1.37545E+00 1.22547E-01
 -1      1848 1.02371E+01 9.35068E+00-4.98205E-01-5.47724E-01-1.67488E+00-3.63887E+00
 -1      1849 5.24639E+00 5.21124E-01 1.97769E+00-1.24430E+00 1.37556E+00-2.60402E+00
 -1      1850-1.12450E+00 4.87263E-01 4.59609E+00-8.18957E-01-3.45295E-01 1.79578E+00
 -1      1851-4.62290E-01-3.04614E-01 8.08801E-01 2.58539E-01 9.29356E-01-6.83809E-01
 -1      1852 9.00557E-01 2.78836E+00 7.50208E-01-3.64431E-01-2.22210E+00 1.19502E+00
 -1      1853-4.63641E-01 1.40159E+00-2.77011E-01 1.34827E-01 2.93833E-01 1.11683E+00
 -1      1854 3.66376E+00 4.91029E+00 2.46287E+00-1.45249E+00 4.22007E+00-3.47144E+00
 -1      1855 2.62862E+00-2.77031E+00 7.71164E-01 5.00954E-02-2.84132E+00-8.24204E-01
 -1      1856 3.15981E+00 4.74628E+00 1.77022E+00-7.19990E-04-3.38145E+00 7.00610E-01
 -1      1857-7.16301E+00-5.34483E+00-2.88407E+00-3.49905E+00-8.87100E-02 3.29208E+00
 -1      1858 9.34454E-01 4.80257E+00 3.39117E-01-3.50063E-01-1.82405E+00-9.73761E-01
 -1      1859 3.19738E+00 1.89443E+00 9.39443E-01 3.65456E-01-1.19455E+00 1.08501E-01
 -1      1860 2.51892E+00 3.59408E+00 1.04844E+00 1.04480E+00-8.68873E-02-9.96793E-01
 -1      1861-7.62420E-01 2.21716E+00 2.26973E-01 6.25980E-01 8.04273E-02-1.10715E+00
 -1      1862-2.24821E+00-7.74377E+00-2.38455E+00-7.47344E-01 2.79717E+00-4.94997E-01
 -1      1863 2.83856E-01-1.81774E+00 4.92302E-01-1.16202E+00 2.02502E+00 1.33211E+00
 -1      1864 5.25489E+00 5.03713E+00 2.39493E+00 1.38974E+00 1.28400E+00-7.00231E-01
 -1      1865 5.15540E+00 1.15690E+00 1.16084E+00 5.45180E-02-1.09991E+00 1.04471E-01
 -1      1866-2.85344E+00 8.16928E-01 7.91669E-01-2.29036E+00 1.60266E+00 1.63472E+00
 -1      1867-2.11083E+00-1.93632E+00-6.62195E-01-1.50364E-01-4.17171E-01 1.89907E+00
 -1      1868 1.76265E+00 2.83742E-01 1.70257E+00 1.27813E-02 1.08304E+00 4.34911E+00
 -1      1869 5.62955E-01 8.88290E-01 2.24847E+00 2.30882E-01 2.17566E-01 1.45310E+00
 -1      1870 1.29222E+01 1.23302E+01-3.13008E-01 1.42359E+00 1.00575E+00 9.28896E-01
 -1      1871 2.79966E-01 3.41576E+00-7.55128E-01-1.27500E+00-1.16334E+00 8.07263E-01
 -1      1872 1.82071E+00-4.90802E-01 5.34998E-01-2.48000E-01 1.57178E+00-1.71981E-01
 -1      1873 1.99624E+00-7.69512E-01 4.59782E-01-5.33675E-01-1.59833E+00-5.79476E-01
 -1      1874 1.19435E+00 6.24724E+00-8.65364E-01-1.32045E+00 1.61247E+00 1.08521E+00
 -1      1875 1.33540E+00 5.50444E+00-4.54452E-01 2.35237E+00 6.73321E-01 1.26888E+00
 -1      1876 7.02046E+00 7.29190E+00-4.99836E-01 4.91502E-01-1.88806E+00 2.73959E+00
 -1      1877-2.27689E+00-1.01014E+00 3.16398E-01 1.43507E+00 1.20416E+00 5.13504E-01
 -1      1878-1.41671E+00 2.77131E-01-4.31038E-01-1.58443E+00 1.32044E+00 1.85829E+00
 -1      1879 5.57991E+00 7.49282E+00 1.29805E+00 1.19475E+00 7.07337E-02 1.57973E+00
 -1      1880 1.72394E+00-1.46915E-02-2.19061E-01-7.85893E-01 1.23692E+00 2.94451E-02
 -1      1881 2.78910E+00-9.12623E-01 4.39385E-01 4.19159E-01 8.86738E-01-4.85211E-01
 -1      1882 8.25897E+00 7.97174E+00 1.79223E+00-2.33837E+00-1.37279E+00-1.17976E+00
 -1      1883 1.28502E+00 6.19635E+00 3.57927E-02 7.03625E-01-6.08683E-01-9.10419E-01
 -1      1884-9.49014E-02-2.57033E+00 9.76964E-01-1.33612E+00-7.13548E-01-5.83557E-01
 -1      1885 1.41310E+00-3.48732E+00 7.73056E-01 4.49852E-01 1.44114E+00-2.39143E-01
 -1      1886-1.63353E+00-8.55550E-01 6.30388E-01 1.40610E-01-1.24027E-01-2.89853E+00
 -1      1887-7.21474E-01-1.86855E+00-1.11344E+00 2.41514E+00 1.73926E+00 5.48752E-01
 -1      1888-5.96872E+00-2.44556E+00-3.16906E+00 5.49422E-01 6.39895E-01-2.31943E+00
 -1      1889 2.09496E+00 4.77694E+00 1.60751E+00-4.24039E-01-3.74356E+00 2.39188E+00
 -1      1890-4.15194E-02 6.65257E-01 3.13123E+00-2.61643E-01 4.13043E-01-5.68761E-01
 -1      1891 2.77624E-01 1.51042E-01 7.35882E-01-3.49258E-01 1.07839E+00 6.91451E-01
 -1      1892 8.90683E-01 4.01774E+00 2.24393E+00 7.15321E-01 2.03648E+00 1.89905E-01
 -1      1893 5.04595E-01 2.73157E+00-5.91732E-01 2.71470E-01-1.39901E-01 8.43872E-01
 -1      1894-1.73547E+00-6.31509E+00-1.33438E+00 6.24130E-01 2.72761E+00-6.32819E-01
 -1      1895-1.28163E+00 2.61684E+00 4.83524E-01-1.28528E+00-9.20562E-01 1.18076E-01
 -1      1896-8.23885E+00-2.74491E+00 2.94493E-01-3.71722E+00-5.36305E+00-2.39628E+00
 -1      1897 3.10937E+00 3.58361E+00 7.77386E-01-8.98685E-01-1.00006E+00-1.06162E+00
 -1      1898 1.90948E-01-6.61503E+00-9.58391E-01 1.03777E+00-3.14755E+00 2.26556E+00
 -1      1899-2.32341E+00-5.27017E+00-4.58855E+00 1.39684E+00-4.56472E-01 2.07885E+00
 -1      1900 3.25333E+00 3.41103E-01 2.87201E+00-1.48519E+00 3.51148E+00-1.71905E+00
 -1      1901 3.15121E+00 4.58454E+00 2.37001E+00-4.71673E-01 5.04799E-01 1.09148E+00
 -1      1902 2.66038E+00 4.44502E+00 3.40507E+00-4.37688E-01-1.91955E+00 6.59233E-01
 -1      1903-1.79928E+00-6.10524E-01 6.52021E-02-9.13744E-01 1.71736E+00-2.22722E-01
 -1      1904 1.78282E+00 2.14181E-01-2.53752E-01 4.53335E-01 1.26467E+00 3.88472E-02
 -1      1905-1.59392E+00 1.35188E+00-3.00985E-01-4.02350E-01-5.73005E-01 2.00330E+00
 -1      1906-2.75749E-01 3.80473E+00 6.30449E-01-8.88363E-01-7.75802E-01-1.28837E+00
 -1      1907-3.74204E+00-8.31138E+00 2.95430E-01-2.95882E+00 4.30222E+00 1.32804E+00
 -1      1908 2.29499E+00 4.18044E+00 2.62621E+00 1.35373E+00 2.95163E+00 5.48241E-01
 -1      1909 1.90550E+00 1.43778E+00 2.25934E+00 4.02002E-01 3.71104E+00 1.34922E+00
 -1      1910 1.12156E+00-2.34611E+00 1.34527E+00-1.73729E-01-2.10079E+00-3.57345E-01
 -1      1911 8.92397E+00 5.61475E+00 3.50041E+00 5.17565E-01 1.42095E+00-4.02739E-01
 -1      1912 3.18862E+00 4.11559E+00 3.15439E+00-4.07309E-01 6.53135E-01 7.38130E-01
 -1      1913 4.62681E+00 1.31141E+00 3.92166E+00 2.08323E-01 1.59754E+00 2.91789E+00
 -1      1914-4.39918E-02-1.10936E+00-3.21051E-01-6.70021E-02 1.68285E+00-3.34035E-01
 -1      1915-1.35474E+00 2.97439E+00 1.41948E+00-2.85617E+00-7.38551E-02-2.21436E+00
 -1      1916-6.29037E-01-2.77122E+00-1.82659E+00 1.93049E+00-7.85650E-01 1.00227E+00
 -1      1917-3.64406E-01 1.25137E+00-4.93755E-01-8.56753E-01 2.92439E+00 2.05481E-01
 -1      1918-3.35158E-01-4.05604E+00 3.19844E-01 1.34517E-01 2.66804E+00 9.62455E-01
 -1      1919-2.51255E+00-7.15574E+00-2.83183E+00 5.61565E-01-4.59996E+00-1.08288E-01
 -1      1920 7.21589E-01-1.00465E+00-8.19707E-01-1.53262E-01-8.32048E-01-2.02374E+00
 -1      1921 9.32652E-01 2.55740E+00 2.34245E+00 8.79853E-02-4.02576E-01-1.53711E+00
 -1      1922-1.03798E+00 1.15885E+00 3.27515E-01 1.96515E+00 8.69650E-01-2.73167E+00
 -1      1923-1.02631E+00-9.66830E-01 8.04621E-01 8.65928E-01-1.36083E+00 1.32053E+00
 -1      1924-1.50185E+00 1.13395E+00-5.99983E-01 1.13484E+00 2.35349E-01-2.95889E+00
 -1      1925 7.93698E-01 9.83186E-01 5.79320E-01-7.78426E-01-2.40940E+00 7.11975E-01
 -1      1926-4.22079E+00-2.12954E+00-2.43821E-02-3.33726E-01 1.46745E+00-2.95891E-01
 -1      1927-1.01610E-01-5.72379E-01 1.27051E+00-1.03340E+00-2.57613E+00 7.12571E-01
 -1      1928 2.91252E+00 5.38986E-01 5.86577E-01 1.40406E+00 6.35819E-01 5.90792E-01
 -1      1929-7.89551E-01 2.23749E+00 4.71112E-01-6.83260E-01-5.19134E-01-1.48592E+00
 -1      1930-4.89450E+00-9.53709E-01 3.51610E-01 2.31916E+00-2.35022E+00-7.04319E-01
 -1      1931 3.19543E+00 1.40672E+00 1.94350E+00-6.06755E-02-4.15320E-01-2.11711E+00
 -1      1932-2.70830E+00-4.93659E+00-8.24253E-01 3.12703E+00 4.07656E+00-7.59725E-01
 -1      1933 5.97665E+00 3.92552E+00 3.23227E+00 1.60312E+00 5.02636E-01 8.90539E-01
 -1      1934 1.39855E+00 2.56374E+00 5.19588E-01 1.00914E+00 5.03614E-01-9.81238E-01
 -1      1935 4.42925E+00 2.91713E+00 9.32487E-01 1.36183E-01 3.75921E-01-6.51947E-01
 -1      1936-2.35572E+00-3.02644E+00-1.54809E-01-2.21675E+00-7.50241E-01-4.99585E-02
 -1      1937 2.11764E+00-6.29187E-01 2.63932E-01 6.42749E-01 1.17973E+00 3.55753E-01
 -1      1938-1.21010E+00 1.97237E+00 1.02803E+00 9.32394E-01 4.11997E+00 7.57102E-01
 -1      1939 2.73037E+00 4.36212E+00 1.52613E+00-1.24568E+00 8.33240E-01 5.53916E-01
 -1      1940 2.33331E-01-4.24970E-01-4.64912E-01-7.29235E-01-8.65597E-01 1.77193E+00
 -1      1941-3.84613E+00-1.76824E-01-6.47686E-01-1.62332E+00-3.11710E-01-2.54605E+00
 -1      1942 3.32075E+00 2.66469E+00-1.39151E-01-2.50146E+00 1.86214E+00-1.21850E+00
 -1      1943 5.85968E-01 3.14746E+00 1.66820E+00-8.58840E-01-2.12879E+00 1.27517E+00
 -1      1944 5.35531E+00 5.47638E+00 1.24228E+00 2.70966E+00 1.81868E+00 1.06870E+00
 -1      1945 1.03570E+00 1.09290E+00-1.81462E+00 1.63809E+00-1.24058E+00-2.19462E+00
 -1      1946-2.10658E+00-2.55919E+00 7.42160E-02 3.01096E-01-6.58066E-01-1.36611E+00
 -1      1947-5.60070E+00-6.64774E-01-3.82948E-01 6.22258E-01-2.00423E-01 2.11381E+00
 -1      1948 8.29798E+00 5.30119E+00 2.01127E+00 6.70337E-01 1.56608E+00 9.99755E-01
 -1      1949-1.82802E+00-3.10029E+00 1.54851E+00-1.88795E+00 1.92159E-01 9.04459E-01
 -1      1950 5.36242E-03-8.21952E-01 7.87855E-01 5.30858E-01-1.18971E+00-2.02150E+00
 -1      1951 5.42504E-01-1.09407E+00 4.32157E-01-3.96976E-01 5.31930E-01-1.09751E+00
 -1      1952-3.82253E-01-4.32901E-01-1.13435E+00-7.85053E-01 3.30353E+00-3.03497E+00
 -1      1953 5.26228E+00 2.81830E+00 2.26847E+00 1.23058E+00 6.58999E-01 7.66768E-02
 -1      1954-3.64409E-01 1.09595E+00 3.70899E-01 6.50958E-01-2.08484E-01 2.05696E+00
 -1      1955-7.96997E-01-6.15804E+00 7.85726E-01 1.11614E+00 2.67483E+00-2.74105E-01
 -1      1956-6.10804E+00-3.22351E+00-1.66559E+00 2.97301E-01 1.03308E+00 1.16606E+00
 -1      1957 8.83998E-01-6.45934E-01-6.61295E-02 3.51284E-01 2.77097E+00-2.31288E+00
 -1      1958-5.10730E+00-6.49299E+00-5.78000E+00-1.97233E+00 7.57466E-01 1.04805E+00
 -1      1959-3.23670E+00-2.02032E+00-2.88598E-01-1.14589E+00 5.43650E-01 4.16016E+00
 -1      1960-2.17236E+00 8.85278E-01 2.62508E-01-6.84737E-01-1.87817E-01-2.09007E+00
 -1      1961 1.19354E+00-5.35933E+00-4.80318E-01-2.15307E-01-3.73212E+00-1.30572E-01
 -1      1962 2.84122E+00 3.79545E+00 1.20633E+00-3.10298E-01 2.65554E-02 1.85193E+00
 -1      1963 1.95486E+00 3.94835E+00-3.03646E-01-1.04428E+00 2.69701E-01 1.04619E+00
 -1      1964-1.98089E+00-2.51351E+00-3.82025E-01 1.93780E+00 4.89472E+00-1.58059E+00
 -1      1965 7.85498E+00 1.14053E+00-3.08402E+00 8.88816E-01 1.09740E+00 7.29251E-02
 -1      1966-1.49966E+00 3.31655E-01 9.32470E-01 1.02110E+00 2.70263E-01 3.05719E+00
 -1      1967-7.66453E+00-1.92572E+00-4.65697E-01 2.11672E+00 5.48865E-01 2.26173E+00
 -1      1968 6.47622E+00 6.39612E+00 6.50075E-01 1.94370E-01 3.34366E-02 1.73569E-01
 -1      1969-1.42957E+00 1.10686E-01 3.44655E-01 4.46975E-01-1.42177E+00-5.56533E-01
 -1      1970 1.43219E+00 3.71460E-02 5.90040E-01-3.62646E-01-1.05096E+00 8.37931E-02
 -1      1971-7.75124E-01-1.05036E+00-4.29654E-01 1.28571E-01 1.25860E+00 1.89197E+00
 -1      1972-1.08781E+00-1.15018E+00 4.25102E-01-1.30846E+00 1.09120E+00 2.22802E+00
 -1      1973 5.16963E+00 1.06975E+00-9.26106E-03-1.13280E+00 2.23160E+00-3.80097E-01
 -1      1974 4.97151E-01 2.28279E-01-3.44508E-01 5.55760E-02-1.16924E+00 3.58147E-01
 -1      1975 1.99430E+00 6.73248E+00-3.49263E-02 8.66776E-01 9.81908E-01-1.26236E+00
 -1      1976 1.18715E+00 1.20060E-02 2.63679E+00 7.08431E-01 4.91412E-01-2.76026E+00
 -1      1977 3.39460E+00 4.99681E+00 1.35335E+00-6.14789E-01 6.06616E-01-1.33900E-01
 -1      1978-5.86140E+00-3.02481E+00-1.71364E+00-1.96048E+00-6.60489E-01-3.56299E+00
 -1      1979-3.04789E+00-4.65904E+00-2.30148E+00-1.87292E+00-2.81684E+00-3.01142E+00
 -1      1980-1.40549E+00-1.91685E+00-2.30575E-01 2.86851E-01-1.16166E+00-6.21491E-02
 -1      1981 1.45627E+00 4.56317E-01-4.07760E-01-8.42483E-01-1.03146E+00-3.48194E-01
 -1      1982-1.98092E+00-4.20306E-01 4.91656E-01-2.32569E-02-1.80828E+00-4.37468E-01
 -1      1983 7.68674E+00 8.07432E+00 1.67694E+00 1.11696E+00 3.53297E-01-2.08030E-01
 -1      1984-3.61030E+00-2.81058E+00-8.81233E-01 2.53349E+00-4.03471E-01 2.43912E+00
 -1      1985 8.70116E-01-1.60769E+00 1.10209E-01 2.69760E-01-2.00041E+00 9.14838E-01
 -1      1986-1.23586E+00 6.53963E-01 1.29961E+00 1.22725E+00 2.89355E-01 1.64123E+00
 -1      1987 3.55311E+00 1.13680E+00-5.86895E-01-3.53122E-02 8.73832E-01-5.57545E-01
 -1      1988-2.17030E+00-7.51374E-01 6.48153E-02 2.72670E-01-2.01136E+00 1.88092E+00
 -1      1989-2.28324E+00 8.11158E-01 1.18789E+00 3.78442E-02 7.96929E-01 3.75184E+00
 -1      1990-1.16714E+00 3.82548E-01 3.62921E-01-1.40992E-01-2.45666E+00 5.46113E-01
 -1      1991-3.11009E+00-1.74679E+00-1.13401E-01 4.61910E-01-1.53268E+00-2.27680E-01
 -1      1992-1.27550E+00 8.02448E-01-4.00469E-01 6.31686E-01 3.71944E-01 1.94344E+00
 -1      1993-3.62289E-01 4.36079E-01-1.05192E+00 1.92510E+00 1.51417E+00-1.59349E+00
 -1      1994 7.77404E+00 3.02251E+00 1.69694E+00 1.09490E+00 5.85184E-01 1.18236E+00
 -1      1995 8.38721E+00 1.01488E+00 1.75762E+00 1.53309E+00 1.00729E+00-6.02955E-01
 -1      1996-8.80125E-01 9.98399E-01 1.89221E-01 1.00324E+00-2.21053E-01 2.62823E+00
 -1      1997 2.28058E+00-6.27285E-01-1.03992E+00-1.29266E+00 1.12409E+00 3.18197E-01
 -1      1998 1.74689E+00 7.81546E-01 8.81711E-01-1.27690E+00 1.39232E+00 4.84118E-01
 -1      1999 2.70980E+00 2.39713E+00-5.99087E-01-1.66915E+00 1.25777E+00-2.02023E+00
 -1      2000 2.69383E-01 1.88398E+00 4.68130E-01-7.07205E-01 4.91701E-01 6.96983E-01
 -1      2001 2.43306E+00-9.41966E-01 8.93959E-01 5.12444E-02-9.66564E-01-1.43732E+00
 -1      2002-4.93589E-01-5.02139E+00-1.70649E-01 1.10644E+00 9.11772E-01-1.06290E+00
 -1      2003-5.31728E+00-5.84853E-01 4.04370E-01-1.36655E+00-4.60305E-01 2.12526E+00
 -1      2004 4.27249E-04-4.15561E+00 4.38764E-02-1.79275E+00 2.02662E+00 3.22747E-01
 -1      2005 2.75425E+00 5.57638E-01 4.15612E-01-2.43430E-01-1.06183E+00-6.20105E-01
 -1      2006 1.33369E+00 1.01919E+00 1.39540E-01-3.02793E-02-5.99164E-01-1.18165E+00
 -1      2007 6.78284E-01 4.45526E+00-1.79093E-01 7.18411E-01-4.93298E-01-6.88850E-01
 -1      2008-3.11345E-01 2.48802E+00 6.45697E-02 5.96345E-01 9.70091E-01-8.30972E-01
 -1      2009 4.38324E+00 5.99401E+00 1.44770E+00 4.87156E-01-3.93620E-01 1.56649E+00
 -1      2010-3.46148E+00-9.63970E+00 1.83248E+00-3.31139E+00-4.95073E+00-2.46495E+00
 -1      2011-2.33958E-01 1.72369E-01 2.72972E-01 1.28955E+00-1.51009E-01 1.38644E+00
 -1      2012-2.87051E+00-6.87757E-01 4.56659E-01 1.71241E+00-1.16334E+00 2.27875E+00
 -1      2013-2.00378E+00-7.33988E+00-1.86083E+00-1.78653E-02-1.64123E+00-6.89620E-01
 -1      2014 3.79764E+00 1.69309E-01 5.68711E-01-2.61870E-01 9.30281E-01 2.47951E-01
 -1      2015 1.79304E+00 2.00945E+00 1.83774E+00 2.34379E+00 1.09918E+00-1.09853E+00
 -1      2016-2.61220E+00-4.91409E+00-2.57164E+00 3.32377E-01 3.04091E+00 4.67416E-01
 -1      2017 1.22786E+00 4.58130E-01 5.33787E-01-1.52069E-01 6.95934E-01-9.43112E-01
 -1      2018 1.09632E-02-3.04658E+00 2.51396E-01 5.25053E-01 1.06905E+00-9.05573E-01
 -1      2019 2.84433E+00 2.01992E+00-1.55610E+00-3.68208E-01 1.25356E+00-1.03334E+00
 -1      2020 5.64777E+00 7.82350E+00 1.88934E+00-1.08651E+00-1.55261E+00 1.56682E+00
 -1      2021-1.00744E+00-3.25077E+00-7.98456E-01 8.39070E-01 5.70711E+00-3.40877E+00
 -1      2022-2.70848E-01-1.19580E+00-7.21958E-03-9.80442E-01-9.84102E-01 2.21871E+00
 -1      2023 1.91178E-01-2.24419E-01-1.00228E+00 9.73075E-02-1.39797E+00 1.45846E+00
 -1      2024-1.85390E+00-2.20572E+00-8.63690E-01-7.99299E-02-3.26867E-01-1.00869E+00
 -1      2025-7.65699E-01-1.54519E+00-2.38268E-01-9.55596E-02-3.35349E+00 3.25560E-01
 -1      2026 1.01254E+00-2.84306E+00-4.79455E-01 5.81373E-01-3.41225E+00 1.80685E+00
 -1      2027 4.80688E+00 1.02949E+01 2.29711E+00 1.78513E+00 3.54239E+00 2.73217E+00
 -1      2028-1.55942E+00-4.32658E+00-2.62026E-01-1.20564E+00-3.62985E+00-3.88569E+00
 -1      2029 3.67935E+00 3.43537E+00-4.49055E-01-1.06010E+00-1.39547E-01 1.54881E+00
 -1      2030 2.78903E+00 2.54382E-01-1.74434E-01-1.84816E+00 6.99934E-01 9.17127E-01
 -1      2031-4.34739E+00-1.68304E+01 3.29434E+00 2.02283E+00-4.07076E+00-6.52162E-01
 -1      2032 1.66474E+00 3.75254E+00-1.30705E-01 7.34749E-01 9.11998E-01-7.11183E-01
 -1      2033 1.30721E-01 2.31168E+00 9.88521E-01-6.12692E-02-4.94545E-01-1.49145E+00
 -1      2034-2.11653E+00-2.05562E+00-7.98857E-01-4.93971E-02 1.23056E+00-4.61205E-01
 -1      2035-1.02809E+00-1.33917E+00 5.65392E-01-1.60095E-01-1.74169E+00 7.78632E-01
 -1      2036 3.39156E-01 3.98726E-01-1.12437E+00-3.00743E-01-2.01794E+00 2.39923E-01
 -1      2037-2.66058E+00-2.09950E+00 8.29427E-01 4.53812E-01 1.53853E+00-1.52729E-01
 -1      2038-7.80704E-01-1.26929E+00-4.51386E+00 7.45722E-01 7.01057E-01 4.35084E-02
 -1      2039-5.93379E+00-1.01666E+00 4.30664E-01-1.99637E+00-1.43172E+00-1.35070E+00
 -1      2040-5.52868E+00-5.11423E+00-4.15063E+00 1.87685E+00 3.47093E+00-2.93856E+00
 -1      2041 5.99890E+00 1.11971E+01-1.60125E+00 2.15641E-01 2.40756E+00-1.33301E+00
 -1      2042 6.12526E+00 2.82597E+00 1.62135E+00 1.41205E+00-6.68148E-01 1.61764E+00
 -1      2043 2.57694E+00 2.91554E+00-1.00670E+00-1.10992E-01-6.05434E-01-1.55667E-01
 -1      2044 3.66411E+00 1.73387E+00 8.05434E-01 1.38005E+00 1.29792E+00-1.08964E-02
 -1      2045 1.32089E+00 3.77387E+00 1.63879E+00-3.40209E-01 4.08128E+00-1.19037E+00
 -1      2046 8.74698E+00 2.81056E+00 4.57474E-01-1.04544E+00 1.67696E+00-1.12752E+00
 -1      2047 3.08278E+00 4.71236E+00 5.04709E+00-2.38652E+00-8.69934E-01 2.60505E+00
 -1      2048-4.42688E+00-5.03837E+00-2.31676E+00 2.76215E+00 2.10322E+00-2.30418E+00
 -1      2049 3.08190E+00 2.35795E+00 4.42918E-01-2.09216E-01 7.70915E-01 2.46247E-01
 -1      2050-2.25435E-01-1.67418E-01 1.57956E+00 3.23300E-01 2.43218E+00-6.00133E-02
 -1      2051-1.61941E+00-9.78115E-01-6.04667E-01 2.88449E-01 1.82118E+00-7.83386E-02
 -1      2052-1.00632E+00-2.68884E+00-1.64459E+00 2.96282E-01-2.51520E-01-2.31215E+00
 -1      2053-1.72079E-01 2.63560E+00 6.34359E-01-5.64137E-01 3.56615E-01 1.22926E+00
 -1      2054-2.20341E-01-3.55619E+00 3.78715E-01 9.15416E-01 2.73675E+00 3.74738E-01
 -1      2055 3.57582E-01-7.33387E-01-1.58773E+00 3.94152E-01-1.09615E-01-9.52709E-01
 -1      2056-1.57555E+00-1.53819E+00-5.35743E-02 2.54580E-01 1.27553E+00 1.05224E-01
 -1      2057 1.09334E+00-1.62052E+00 1.75968E-01 1.03666E+00-2.40240E+00 7.68855E-01
 -1      2058-1.93585E+00 1.46811E+00 5.05601E-01 3.57913E-01-1.59486E-01 1.80813E+00
 -1      2059 9.34004E-02 2.67495E+00-3.37453E-01 1.59269E-01 5.68295E-01 9.98913E-01
 -1      2060 2.72543E+00 1.76290E+00 3.45433E-01-4.34612E-01 2.00303E+00-3.61183E+00
 -1      2061-1.14590E+01-1.87892E+00-7.04583E-01 1.09534E+00-4.55328E-01-1.74113E+00
 -1      2062-5.66611E+00-1.41263E+00-1.02727E+00 1.57955E+00-8.43573E-01-2.62202E+00
 -1      2063-5.17132E+00-1.16672E+00 8.49982E-01 9.13189E-01 3.38124E-01-5.06541E-01
 -1      2064-4.24993E+00-1.08517E+00-1.86462E+00 5.62498E-01-7.70089E-02-3.05026E+00
 -1      2065-2.96640E+00-3.56139E+00-1.99058E+00 2.02683E+00 2.57690E+00-3.13707E+00
 -1      2066 1.48224E+00 1.06373E+00 1.66048E+00-7.89964E-01 2.07713E+00-1.75157E+00
 -1      2067-3.48883E+00 1.29413E+00 6.09504E-01 7.70050E-01-3.39725E-01-1.67390E+00
 -1      2068 2.59606E+00 4.29658E+00 3.14610E+00-8.41919E-01-3.59688E+00 2.02942E+00
 -1      2069 1.26904E+00-4.59973E-01 1.77031E+00 8.97196E-01 8.26551E-01 1.20886E+00
 -1      2070 3.47290E+00 3.17243E+00 8.20304E-02-2.13502E+00-2.96554E+00 2.99804E+00
 -1      2071 7.63677E-01 2.51298E+00 1.95019E+00-9.82081E-01-2.37039E+00 2.23780E+00
 -1      2072 4.87553E-01 9.44336E-01-1.90718E+00-3.63561E-01-3.15467E+00 9.97101E-01
 -1      2073-4.60128E-01 6.26862E-01 4.43014E-01-1.06361E+00 1.10240E+00 1.72999E+00
 -1      2074-8.03129E+00-3.98345E-01-2.44021E+00 8.72646E-01-7.08877E-01 2.46795E+00
 -1      2075 3.39392E-01-1.90949E-01-2.92942E-01-1.49941E+00-1.05963E-02-1.00054E+00
 -1      2076-2.08091E+00-1.88975E+00-1.70490E-02 4.22759E-01-1.35936E-01-1.50761E+00
 -1      2077 1.67318E+01 1.40222E+01-1.34942E+00-4.09401E-01-1.85847E+00-2.24957E+00
 -1      2078 8.32427E+00 8.89567E+00 4.26878E-01 1.96036E+00-3.29630E+00 1.74634E-01
 -1      2079 2.27745E+00 2.08070E-01 2.49199E-01 1.50839E+00-2.24010E+00 1.76769E-01
 -1      2080-3.08438E+00 1.90909E+00 2.60348E-01 6.54964E-02 7.60747E-01 1.67962E+00
 -1      2081 2.23659E+00 3.70369E+00 1.13173E+00 1.55582E+00 4.21758E+00-1.86332E+00
 -1      2082 5.13465E+00 1.74830E+00-1.21091E+00-9.90148E-01 2.23259E-01 2.77204E+00
 -1      2083 8.99201E+00 6.37852E+00 6.56757E-01-1.56766E+00 2.21989E+00 6.53556E-01
 -1      2084 3.55976E+00 6.68753E-01 2.72292E-01 5.75332E-02-3.58549E-01-2.14972E+00
 -1      2085-2.79690E+00-5.35263E-01 1.06889E+00 3.12046E+00-1.08458E+00 1.65985E+00
 -1      2086 5.61684E-01-2.31754E+00 2.87942E-01 2.18587E-01-2.41367E+00 9.68632E-01
 -1      2087-1.92044E+00-1.78984E-01-6.67580E-01-4.95427E-01-8.00494E-01 1.65860E+00
 -1      2088-2.15370E+00-1.53628E+00-3.68867E+00 1.62502E-01 4.76657E-01-4.39520E+00
 -1      2089 6.65004E+00 5.81231E-01-1.01261E-01 1.31122E+00 1.62608E+00 1.55268E+00
 -1      2090-2.68657E+00-1.40641E+00 2.48830E+00-1.38416E+00-5.58443E-01-8.96867E-01
 -1      2091 4.43429E+00 9.25271E+00 2.35481E-02-1.44658E+00-1.35380E+00 7.81486E-01
 -1      2092 4.19788E+00 8.48188E+00-4.43655E-01 1.64915E+00 1.47253E+00-4.30847E-01
 -1      2093-4.89401E+00-3.11961E-01 7.88414E-01 1.69176E+00 7.57972E-01-2.41672E+00
 -1      2094-3.14018E-01-3.40789E-01-9.64170E-01-1.60319E+00 5.87241E-01 1.60395E+00
 -1      2095 4.85973E+00 1.64493E+00 1.98727E+00-2.73507E+00-2.27390E+00 2.70318E+00
 -1      2096-5.54642E-01 1.84721E-01-1.44328E+00-8.62393E-02 1.40386E+00 7.38549E-01
 -1      2097-2.29169E+00-2.21915E+00-1.13415E+00 3.34728E-02-1.74975E-01 4.87792E+00
 -1      2098-3.16638E+00-1.15131E+00 1.38202E-01 1.43195E+00 5.60188E-01-1.61875E+00
 -1      2099 2.68444E+00 4.61895E+00 2.82558E+00 5.11671E-01-4.96904E-01 4.82044E-01
 -1      2100-2.17758E+00-5.21221E+00 3.07612E-01-3.54588E-01 5.58077E-01-1.15795E+00
 -1      2101 1.07598E+00 6.03895E-01-1.74904E+00 1.39293E+00-4.61600E-01-1.34434E+00
 -1      2102-2.10981E+00-6.82072E+00 2.18729E+00 1.85521E+00-3.99736E+00 8.32980E-01
 -1      2103-2.55356E+00-2.49391E+00-4.15683E-01-1.83801E+00-8.27538E-01 1.11551E+00
 -1      2104-2.71444E+00-2.18826E+00-1.21971E-01-1.48325E+00-2.08181E+00 3.04069E+00
 -1      2105 3.21606E+00 9.02178E-01 2.45618E+00 5.07700E-02 1.58026E+00-1.44611E+00
 -1      2106-2.78278E+00-1.44698E-01 9.82374E-02-3.55425E-01-1.14505E+00 6.11087E-01
 -1      2107 2.61760E+00 1.73663E+00 1.50340E+00 1.18986E+00-6.66628E-01-3.52611E+00
 -1      2108-8.72729E-01-8.03114E-01-1.88772E-01 1.51436E+00 3.30891E-01-3.69149E+00
 -1      2109 5.96873E+00 5.39186E+00 1.31166E+00 1.35432E+00 7.58000E-01-1.16221E-01
 -1      2110 1.26781E+00-2.15370E+00-2.46050E-01-1.35331E-01 1.33039E+00-1.21899E-01
 -1      2111 2.22690E+00 2.31206E+00-1.93720E+00 4.22917E-01 3.78999E-01 8.24940E-01
 -1      2112-7.19517E-01 1.78475E+00 5.58386E-01-5.09872E-01 9.34318E-02-1.58211E+00
 -1      2113-2.16656E+00-4.14370E+00 1.11391E+00 1.40099E+00 2.72238E-01 1.02839E+00
 -1      2114 3.34127E+00-6.54803E-01-2.98176E-01-1.39801E+00 7.65332E-01-4.74843E-01
 -1      2115 5.06142E+00 2.85680E+00 3.00764E+00 9.79199E-01 9.34351E-01-2.82662E+00
 -1      2116 4.08178E+00 1.24153E+00 2.23981E+00-5.65227E-01 8.66437E-01-2.32712E+00
 -1      2117-3.49328E+00 6.31410E-01 3.43509E-02 8.02621E-01-8.18103E-01 2.24904E+00
 -1      2118 9.47956E-01 3.01796E+00 8.19431E-02-8.69356E-02 5.45361E-01-6.79834E-01
 -1      2119 2.20142E+00-1.80564E+00-4.82728E-01-1.22307E+00-2.03814E+00 6.47924E-01
 -1      2120-4.23579E-01 9.32446E-01 3.48400E-01-9.91997E-01-6.27939E-01-1.71092E+00
 -1      2121 1.78850E+00 1.75312E-01 3.42267E+00-3.48528E-01 2.13391E-01 2.05770E+00
 -1      2122 7.21611E-01 2.29435E+00-6.32780E-01-6.46463E-01 1.01615E+00 9.69202E-01
 -1      2123-2.00572E+00 4.38348E-01 1.68295E+00-1.73060E+00 2.03813E+00 2.18520E+00
 -1      2124 7.50682E+00 8.94708E+00 9.59793E-01 9.43671E-02 1.71449E+00-1.07323E+00
 -1      2125-2.03858E+00-2.29016E+00-1.54579E-01-2.98412E-01 4.97084E-01 1.47265E+00
 -1      2126 7.93605E-01 4.12708E-01 1.97089E-01 7.40762E-01-2.10991E+00 9.26877E-01
 -1      2127 2.06743E+00 4.92374E+00 3.38931E+00 9.52131E-01 8.03411E-01 2.29632E+00
 -1      2128-6.49973E-01-1.57180E+00 1.12011E+00 1.45175E+00-1.39382E+00 5.53117E-01
 -1      2129 5.99934E-01 8.98423E-01 1.71478E+00 3.24204E-01 9.91554E-01 2.46618E+00
 -1      2130-6.36992E+00-2.50989E+00-2.85733E+00-9.56096E-01 9.49105E-01-1.87723E+00
 -1      2131 5.64294E+00 4.31935E+00 1.36096E+00-2.11809E+00 1.11717E+00-2.47566E+00
 -1      2132 3.74120E+00-1.25434E+00-4.42958E+00 1.38199E+00 2.02082E-01 2.31077E-01
 -1      2133-6.04629E+00-3.15648E+00-1.00651E-01-1.39963E+00-5.53313E-01 2.05426E+00
 -1      2134 2.32384E-01-2.70261E+00-3.68789E-01-9.82420E-01 2.97699E+00 1.73788E-01
 -1      2135 4.57399E+00-2.92757E+00 1.73752E+00 1.15508E+00 1.33035E+00 8.66736E-01
 -1      2136 5.60952E+00 3.71229E+00 1.85842E+00-2.30124E+00-1.89837E+00 2.75051E+00
 -1      2137 1.13709E+00 2.47527E+00 8.28845E-01 6.25154E-01 4.77013E-01 9.32802E-01
 -1      2138-5.32804E-01 2.41952E-02 5.65635E-01-1.95856E+00-1.43532E+00-4.93194E-01
 -1      2139-1.36051E+00-5.53786E+00 1.58601E+00 1.41225E+00-4.20543E+00 4.98625E+00
 -1      2140 4.76836E+00 1.21625E+00 1.39198E-01 7.33876E-01 1.38676E+00-4.33660E-01
 -1      2141 9.86629E-01 2.01455E+00 4.53305E-01 8.46112E-01 3.68135E+00-3.85431E-01
 -1      2142 1.70112E+00 1.33752E+00 2.82352E-02 1.28603E+00-8.09766E-01 3.28671E-01
 -1      2143 4.38797E+00 7.88044E+00 3.86945E+00-1.98504E+00-2.61968E+00-2.42790E+00
 -1      2144-2.98024E+00-1.62769E+00-5.52017E-02-1.57777E+00 7.32547E-01 7.48538E-01
 -1      2145 4.55037E-01 9.97294E-01 4.43763E-01-5.44694E-01-6.45248E-01-9.20506E-01
 -1      2146-4.32041E+00-7.22283E-01 7.49652E-01 1.80789E+00 2.01588E+00-1.76336E+00
 -1      2147 1.29562E+01 1.39129E+01-3.84639E-01-1.91579E-01 3.54341E+00-2.57439E-01
 -1      2148-9.85654E-02-1.50166E+00 5.62920E-01-3.11250E-01-5.28802E-01 2.24579E+00
 -1      2149-5.63206E+00-1.05420E+00-1.32711E+00 9.47447E-01 5.95558E-01-2.56186E+00
 -1      2150 1.35280E+00-1.39685E+00 7.13438E-01-6.72547E-01-1.45222E+00 3.59167E-01
 -1      2151 3.61075E-01 2.95268E+00 4.99590E-01 7.16016E-01 9.45004E-02 7.16301E-01
 -1      2152-3.20251E+00-3.34544E+00-2.22566E-01 6.87270E-01 1.01194E+00 3.93797E-01
 -1      2153-2.93802E+00 8.59802E-01 1.14687E-01-1.76463E+00 5.03444E-01 2.19466E+00
 -1      2154 3.50630E+00 5.55055E+00 5.00680E+00-1.35483E+00-2.54567E+00 1.51211E+00
 -1      2155-2.46305E+00-7.55430E+00 8.28699E-01-2.78727E+00-3.38192E+00-8.61194E-01
 -1      2156-4.07011E+00 2.56263E-01-4.38340E-02 6.43759E-01 5.66833E-03-1.92741E+00
 -1      2157-2.97571E+00-5.23553E+00 4.38840E-02 2.37063E+00 9.91113E-01 8.18070E-01
 -1      2158 1.04035E+00 1.82844E+00 1.29016E+00 1.73319E+00-1.46231E-01 1.56232E+00
 -1      2159-4.87815E+00-8.48143E-01-7.10591E-01 2.27475E+00 1.57524E+00-2.59345E+00
 -1      2160-8.33803E+00-2.62326E+00-3.69365E+00 5.82087E-01 3.04143E-01 2.32212E+00
 -1      2161-2.41713E+00-4.83942E+00-8.16245E-02-1.45891E+00-1.57112E+00 9.15035E-01
 -1      2162 2.37221E-01 3.27251E+00 1.36785E-01-1.63335E+00-5.81606E-01-1.31078E+00
 -1      2163-2.91196E+00-1.79766E+00-2.04532E+00 1.54426E+00 1.31246E+00-2.07763E+00
 -1      2164-1.58493E-01-7.89647E-01 1.05771E+00 1.53703E+00-1.14569E+00 4.14440E-01
 -1      2165 4.47669E+00 1.01433E+00-2.19529E+00 1.66795E+00-6.28573E-01-4.75569E+00
 -1      2166-1.01074E+00-1.83551E+00 5.25076E-01 6.30876E-01-7.50419E-01-1.26166E+00
 -1      2167 2.62522E+00 2.77754E+00 2.95858E-01 1.37236E+00-5.72061E-01 6.79417E-01
 -1      2168 4.82629E+00 2.89742E-01-5.80934E-01-5.96996E-01-8.93528E-01-1.59235E+00
 -1      2169 5.94429E-01 1.98408E+00 1.91778E-01 1.67595E-01 1.46254E+00 9.11937E-02
 -1      2170-1.14002E+00-2.32783E+00-9.43003E-01 1.59402E+00 1.93897E+00-1.52174E+00
 -1      2171 2.55297E+00 3.43174E+00-1.80914E+00 8.10504E-01-6.84169E-02 2.21466E-01
 -1      2172-3.04664E+00-1.76431E+00 1.37107E+00-1.60786E+00 4.34509E+00 2.24814E+00
 -1      2173 5.41964E-01 2.64166E+00-6.66954E-01 1.00971E+00-7.00606E-01-2.77166E-01
 -1      2174 1.21843E+00 2.71001E+00-3.67066E-02 3.66906E-01 4.72263E-01-3.43297E-02
 -1      2175 1.43240E+00 3.22035E+00 4.28963E-01 1.00257E+00 6.03606E-01-2.66708E-01
 -1      2176-6.50174E+00 9.31449E-01 8.39629E-01-4.63105E-01 1.63059E+00 1.18934E+00
 -1      2177 4.67770E-01-5.03875E+00-2.37474E+00-1.12820E+00-3.00859E+00-2.39562E-02
 -1      2178 1.44671E+00-1.58018E+00 3.93910E-01 1.45166E-01 1.68291E+00-9.66206E-01
 -1      2179-7.24073E-01-3.66082E-01 1.46065E+00 1.37779E+00 1.90361E+00-1.41436E+00
 -1      2180-2.39693E-01-4.23131E-01-1.28460E-01-3.30344E-01 1.23865E+00-2.68218E+00
 -1      2181 5.98686E+00 4.86751E+00 2.48365E+00-1.15994E+00 8.56741E-01 1.16812E+00
 -1      2182-5.04231E-01-2.18806E+00-9.44335E-01-6.13763E-01-1.65722E+00-2.19303E-01
 -1      2183 1.40190E+00 2.13766E+00 3.47240E-01 1.26273E+00-6.02686E-01-8.53694E-01
 -1      2184-1.59261E+00 2.56268E+00 3.11981E-01 1.09666E-01-1.06967E+00-1.15973E+00
 -1      2185 5.53792E+00 2.61213E+00 1.12225E-01 1.15600E-01-1.30773E+00 6.83157E-01
 -1      2186-1.26235E+00-3.63032E+00 4.99195E-01 2.48346E+00 1.77687E+00-1.08011E+00
 -1      2187-3.66009E+00-9.40892E-01 1.78717E-01 8.12528E-01 1.85888E+00-2.73751E+00
 -1      2188-2.40061E+00-1.54059E+00 4.53744E-02 2.39511E+00 1.79845E+00-8.98906E-01
 -1      2189 3.74141E+00 1.37860E+00 2.23859E+00 3.02518E-01 2.15911E-01-1.64052E+00
 -1      2190-1.50815E-01 3.41525E+00-8.18541E-01 1.58792E+00-1.13721E+00-2.02288E+00
 -1      2191 3.64298E+00 2.74184E+00 1.50148E+00-5.18167E-01 4.16315E-01 8.35439E-01
 -1      2192-5.31009E+00-5.25650E+00-1.29744E-01 3.02995E+00 1.41193E+00-9.56065E-02
 -1      2193-6.58526E-01-2.11937E-01 4.76758E-02-1.58672E+00 1.46770E+00-2.75617E-01
 -1      2194-1.91564E+00-2.83228E-02-2.03517E+00-6.30115E-02 1.57075E+00-1.35689E-01
 -1      2195 4.36514E+00 3.99310E+00-1.61942E-01 2.12268E+00 7.40238E-02 2.10103E+00
 -1      2196-1.48033E-02-1.88506E+00 1.67131E+00-7.76983E-01 3.61847E+00 9.33199E-01
 -1      2197-5.80222E-01-1.74066E+00 2.08736E-01 9.38782E-01-1.63685E+00 1.23872E+00
 -1      2198 2.74260E+00 1.16802E-03-7.95703E-01 1.28787E+00-1.41443E+00 4.16912E-01
 -1      2199 9.15202E+00 1.09848E+01-1.42705E+00 3.07971E-01 2.85142E+00 6.87912E-01
 -1      2200-2.04286E+00-3.66878E+00 9.88356E-02-6.59492E-01 1.29429E+00-8.10268E-01
 -1      2201-1.37761E+00-1.65516E+00-1.15015E+00 3.24195E-01 1.40551E+00-1.58374E+00
 -1      2202 1.22470E+00 1.99309E+00 5.63408E-03 1.59656E+00-1.06682E-02-3.16943E+00
 -1      2203 3.96302E-01 1.11954E+00 4.29461E-01-8.55906E-01-1.86189E-01-1.53718E+00
 -1      2204 1.88841E-02-5.27874E+00 1.04626E+00-8.79370E-01 3.87971E+00 8.59374E-01
 -1      2205 1.05828E+00 4.53634E-01 9.02627E-01-9.05033E-01 1.10595E+00 1.20194E+00
 -1      2206-2.77369E+00-4.85868E+00-1.27335E+00 2.90733E+00 9.73264E-01-8.37876E-01
 -1      2207-2.68232E+00-9.22099E-01-1.05384E+00 2.07455E+00 8.20720E-01-3.12618E+00
 -1      2208-7.86259E+00-3.19344E+00-1.18370E+00-2.90075E+00-2.12892E+00-1.84294E+00
 -1      2209-9.03940E-01-2.40681E-01 2.03205E+00 1.12402E+00 2.75636E+00-1.14050E+00
 -1      2210-2.56247E+00-2.74383E+00-4.80717E-01-3.05222E-01-1.11827E+00 1.42503E+00
 -1      2211-8.12175E+00-9.20078E-01 8.60579E-01 2.11988E+00-1.14385E-01-4.18327E+00
 -1      2212 3.27645E-01-2.17666E+00-1.44334E-01 2.63795E+00-2.13352E+00 1.45916E+00
 -1      2213-1.02413E-01-1.48681E+00-4.12176E-02-2.03617E+00 1.72562E+00 9.99779E-01
 -1      2214 3.62435E+00 4.44512E+00 2.46971E-01 6.90166E-01-2.61834E-01 1.69852E+00
 -1      2215-2.34865E+00-5.05276E+00-1.15707E+00-2.07999E-01 5.74334E-01 1.13760E+00
 -1      2216-1.52190E+00-1.58588E-02 9.16988E-01 6.04150E-01-9.24047E-01 1.21678E+00
 -1      2217-1.60316E+00-2.99410E+00-1.66711E-01 4.19155E-02 1.12531E+00 1.85777E+00
 -1      2218-1.43457E+00-1.61902E+00-7.07916E-02-5.13691E-01 1.17060E+00-5.56810E-01
 -1      2219 1.52804E+00 2.94430E+00 4.26893E+00 1.10143E+00-3.02669E+00 7.90934E-01
 -1      2220-3.88214E-01 2.96356E+00-9.37373E-02 3.79835E-01 4.82300E-01 1.99600E+00
 -1      2221 1.93888E+00-8.47257E-01-4.92635E-01-9.52658E-01-7.71604E-01-1.28229E+00
 -1      2222-2.82482E-01 8.11558E-01 1.11205E+00 8.36252E-01 1.05890E+00-1.38273E+00
 -1      2223-1.70839E+00-1.27384E+00 7.38190E-01-2.82173E-01 2.15240E+00-1.24247E+00
 -1      2224-1.33724E+00-1.60244E+00-4.93373E-01-2.22980E-01-9.34236E-01-1.18879E+00
 -1      2225 3.85055E+00 2.64616E+00 1.73121E+00-7.15045E-01 6.75833E-01 1.89564E-01
 -1      2226-2.63140E+00-7.84506E+00 2.42045E+00-2.59503E+00 5.28578E-01 5.00529E-01
 -1      2227 4.77822E-01-2.67968E+00-1.12332E-01-5.28986E-01-3.45076E+00-1.24650E+00
 -1      2228-6.06454E-01 1.04064E+00 2.92263E-02 1.91768E-01-2.58492E+00-6.47993E-01
 -1      2229 3.80039E+00 6.54773E+00 1.65499E+00-1.05000E+00 2.56276E-01 9.87511E-01
 -1      2230 8.41594E-01 3.10297E+00 1.59076E+00 1.42913E+00 4.17706E-01 4.71153E+00
 -1      2231-8.10187E-01-2.74221E+00 1.86024E-01 1.12072E+00 3.36679E+00-2.67196E+00
 -1      2232-3.08588E+00-1.68489E+00-1.68313E+00-5.48304E-01 2.83341E-01-1.90984E+00
 -1      2233 7.50749E-01 1.53096E+00-1.16023E+00-1.99782E+00 3.05496E-01 3.78708E-01
 -1      2234 3.97923E+00 2.00610E+00 6.49872E-01-1.48841E+00 1.97117E+00-1.15155E+00
 -1      2235-2.70164E+00-2.88828E+00-1.47918E+00-1.25123E+00 6.67838E-02-1.30470E+00
 -1      2236 2.23655E-01 7.56099E-01 8.81703E-01 1.35179E+00-6.53978E-01-7.01531E-01
 -1      2237 1.05292E+00-6.41626E-01 7.48523E-01-7.33251E-01-1.21556E+00-7.59244E-01
 -1      2238 6.19394E+00 3.91072E+00 6.17402E-01-1.37521E-02 1.03817E+00-1.51684E+00
 -1      2239 9.21569E+00 8.23061E+00-1.82468E+00 2.50282E-01 3.36305E-01-3.89059E+00
 -1      2240-6.95519E+00-1.63676E+00-5.09931E-02-3.83183E-01 8.47167E-01 3.53638E-01
 -1      2241-2.44328E+00-1.42689E-01-7.30517E-01-2.92600E-01-8.46930E-01-2.13633E+00
 -1      2242 2.33869E+00 2.31402E+00 3.67065E-01 6.02819E-01-7.51276E-01-1.87504E+00
 -1      2243-1.09120E+00-1.95576E+00-5.19249E-01 1.45598E+00 1.97194E+00-3.45762E-01
 -1      2244-2.83326E+00 9.87984E-01-3.75019E-01-6.13643E-01-1.61638E+00-1.90574E+00
 -1      2245 1.12629E+00-2.33595E+00 1.92484E-01 5.40011E-01 2.04110E+00-6.27505E-01
 -1      2246 1.47567E+00-3.37918E-01 8.78277E-01-3.39499E-01 3.91938E-01-4.24148E+00
 -1      2247-2.98860E+00-2.92746E+00-3.63827E+00-2.19256E+00-1.76605E+00-2.32129E+00
 -1      2248 1.56441E+00-9.77559E-01 7.90003E-01-2.05047E+00 1.99664E+00 8.58463E-01
 -1      2249-1.96775E-01-6.32429E-01 4.11784E-01-6.76425E-01 1.38568E+00-1.07015E+00
 -1      2250 1.31547E+00 3.17039E+00-9.94122E-01-1.84217E+00-1.26149E+00 5.35451E-01
 -1      2251-9.94517E-01 9.86192E-01 3.19206E-01-6.58164E-01-1.00459E+00-1.71717E+00
 -1      2252 2.30651E+00 5.06391E-01 3.26954E-02 8.33831E-01 2.94303E-01 2.01184E+00
 -1      2253-2.84228E+00 1.26133E-01 1.94604E+00 1.06029E+00-3.88140E-01-2.92261E-01
 -1      2254-3.28985E+00-2.39645E+00 2.71524E+00 1.84833E+00-7.45511E-01 4.06589E+00
 -1      2255 8.56913E-01 1.30072E+00-7.25900E-01 2.17884E-01-1.74447E-01 8.67634E-01
 -1      2256 4.21823E+00 4.98391E+00 2.77633E+00-3.58652E-01 9.95989E-01 1.76924E+00
 -1      2257-4.74664E+00-9.35189E+00-2.09357E+00-2.79860E+00 3.08095E+00 1.29279E+00
 -1      2258 4.86703E+00 3.44480E+00 2.56849E+00 7.77716E-01 1.23884E+00 9.48764E-04
 -1      2259 1.28277E+00 7.37796E-01 7.29877E-01-1.38160E+00 1.51823E+00 1.03250E+00
 -1      2260 4.97575E-01-1.37226E+00-2.01661E-01-1.06734E+00-2.62806E-01-7.47629E-01
 -1      2261 3.23410E+00 7.41203E+00-6.56896E-01-5.36531E-01-3.35259E+00 1.75073E+00
 -1      2262-2.69517E+00-8.12900E-01 6.65220E-01-1.54378E+00-1.16137E+00-1.24688E+00
 -1      2263 4.48173E+00 2.10444E+00-5.41066E-01 1.66735E+00-1.10066E+00-1.54628E-01
 -1      2264 2.35205E-01-7.07002E-01 3.08487E-01 1.38622E+00 1.24384E+00-8.43943E-01
 -1      2265-7.72219E-01-1.45926E+00-2.37274E+00 2.11381E+00 2.24846E+00-1.24198E+00
 -1      2266-6.15461E-01-4.38407E-01 5.24466E-01 2.18076E+00 2.32818E+00-1.20537E+00
 -1      2267-3.44805E+00-3.17011E+00 1.30250E+00-2.00781E+00 2.15322E+00 3.44419E+00
 -1      2268-1.38808E+00 1.49688E+00 5.71822E-01-4.47834E-01-6.61998E-01-9.90870E-01
 -1      2269 3.60874E+00-5.87289E-01-1.27590E-01 3.64253E-01 1.47594E+00 8.65620E-01
 -1      2270-1.21816E+00 1.42458E+00-2.05750E-01 2.23053E+00-1.90586E+00 1.09691E+00
 -1      2271-1.53439E+00-3.49135E+00 1.68013E-01 2.00132E-01 1.16056E-01-1.91293E+00
 -1      2272-2.75189E-01-1.16673E+00-6.69295E-01-6.95533E-01 1.31712E+00 1.67201E+00
 -1      2273 1.19381E+00 4.15943E+00-2.49279E-02 2.39218E-01-3.78904E-01-9.92510E-01
 -1      2274-5.93377E-01-3.53317E+00-1.06681E+00-6.70596E-02 1.75149E+00 5.44988E-01
 -1      2275 5.24025E+00 3.70997E+00 1.80466E+00 7.13288E-01-9.29949E-01 9.12612E-01
 -1      2276-4.66906E+00-4.75822E+00-9.98481E-01-3.18313E+00-1.02198E+00-2.20789E+00
 -1      2277-8.01795E-01 6.94557E-01-6.92922E-01 3.87084E-03 1.54149E-01-1.22236E+00
 -1      2278-2.48729E+00-2.63241E+00 7.36003E-01-8.13258E-01-1.61042E+00 1.38356E+00
 -1      2279-9.93427E-01 7.15406E-01-1.65904E+00-5.75377E-01-5.01113E-01-1.21838E+00
 -1      2280 8.34992E-01 1.70455E+00-9.24784E-01 3.68925E-01 1.45091E+00-1.41409E-02
 -1      2281 6.26950E-01 4.04880E+00 1.19984E+00-1.52768E+00 4.00296E+00 2.39127E-01
 -1      2282-1.44683E+00-1.02849E+00-4.54850E+00 5.73218E-01-9.69579E-01 8.22005E-01
 -1      2283-6.11337E-01-6.60527E+00 2.75383E-01-1.91648E-01 2.88548E-01 3.69063E-02
 -1      2284 2.99496E-01 5.07906E-01 3.86029E-01-9.72764E-01-4.52618E-01-1.20226E+00
 -1      2285 2.01652E-01 1.63307E+00 4.82368E-01-1.59426E+00-5.42044E-01-8.98380E-01
 -1      2286-1.44286E+00 2.14290E+00-7.12529E-01-7.43310E-01 4.09553E+00-2.11592E-01
 -1      2287-3.37548E+00-2.42499E+00-7.01655E-01 1.08821E+00 1.73616E+00 5.80322E-01
 -1      2288 1.63077E+00 4.56134E+00 3.88591E+00 1.64077E+00 3.28668E+00 2.10812E+00
 -1      2289 4.11572E+00 1.55924E+00 5.11180E-01 1.80625E+00 1.45991E+00 2.42499E+00
 -1      2290-2.66430E+00-2.69083E-01-9.03365E-01 9.22263E-01 1.75867E+00-2.21633E+00
 -1      2291-2.00568E+00-2.59105E+00-8.79003E-01-4.40196E-01 9.17917E-01 2.38169E+00
 -1      2292-5.96088E+00-1.56295E+00-3.59107E-01-7.52995E-01 1.32511E+00 1.97413E+00
 -1      2293 6.86333E-01 2.33783E+00 1.46701E-01 5.12396E-01 2.75371E+00 6.65637E-01
 -1      2294 8.31725E-01 1.73471E+00 7.28639E-01 1.43633E+00 7.46527E-01-1.31884E+00
 -1      2295 6.34175E-01-1.45360E-01 6.87134E-01-1.59133E+00 1.45381E+00 7.37824E-01
 -1      2296 1.41585E+00-9.01576E-01-1.21443E+00 1.41435E+00 1.66128E+00-1.53401E+00
 -1      2297-1.18654E+00 8.16754E-01-3.53987E-03 5.03631E-01 7.03975E-01-1.91180E+00
 -1      2298-2.66004E+00-1.98369E+00-6.57677E-01-6.30315E-02-5.69206E-01-1.17772E+00
 -1      2299 5.30121E+00 2.52636E+00-8.54161E-01-1.57778E+00 5.09332E-01 1.29790E+00
 -1      2300 3.13746E+00 9.56638E+00 1.87607E+00 1.10814E+00-3.19579E+00 1.12669E+00
 -1      2301 5.12467E+00 2.46733E+00 3.16391E-01 1.24079E+00-2.50463E+00-2.54436E+00
 -1      2302 4.91038E+00 1.98128E+00 1.03437E+00 1.58214E+00-1.30275E+00-3.09196E+00
 -1      2303 7.23297E-02-6.59176E-01-1.13078E+00 1.67368E+00 1.57640E-01 1.78877E+00
 -1      2304 3.65968E-01-1.19997E+00-3.73793E-01-2.31668E-01-9.40800E-01 2.19691E+00
 -1      2305-2.02659E-02 1.49341E+00-1.24550E-01-3.88052E-01-7.31643E-01-1.10496E+00
 -1      2306 5.87257E+00 2.98811E+00 1.56372E+00-7.82952E-02-3.26738E-01 1.75655E+00
 -1      2307 1.30613E+00 3.01397E+00 2.97245E+00-2.97170E-01 1.35262E+00-2.80452E-01
 -1      2308-2.69086E+00-3.45847E+00-1.17892E+00-1.69598E+00 5.40609E-01-1.08300E+00
 -1      2309 5.25717E+00 3.31182E+00 1.54375E+00-4.58101E-01 8.51943E-01-1.96237E-01
 -1      2310 3.72612E+00 2.13236E+00 8.13073E-01-2.00479E+00-5.69984E-01 1.12406E+00
 -1      2311-2.07958E+00-2.34270E+00 8.99064E-01 7.19965E-01 1.45902E+00 1.01024E+00
 -1      2312 1.08273E+01 4.95145E+00-1.20988E+00-1.33736E+00 3.64407E-01 1.71585E-01
 -1      2313 1.68918E+00-7.61695E-01 3.89133E-01 1.56719E-01-2.25246E+00 1.62831E+00
 -1      2314 3.73194E+00 2.96321E+00 1.19303E+00-1.74459E+00 1.40273E+00-3.23274E+00
 -1      2315 7.54163E-01 9.61737E-01-8.49092E-02 6.68535E-01 7.77228E-01-4.43701E-01
 -1      2316-2.04836E+00 4.61029E-01-7.38869E-01 9.05494E-01 3.57901E-01-2.75441E+00
 -1      2317 4.65610E+00 3.86810E+00 8.23386E-01-5.57067E-01 1.70221E+00 6.44584E-01
 -1      2318 8.30123E+00 4.97480E+00 1.29080E-01-1.03517E+00 1.59492E+00-8.27194E-01
 -1      2319 1.17659E+00 1.99911E+00 1.27468E+00 1.65093E+00-1.27957E+00 1.76054E+00
 -1      2320 5.84481E+00 8.29672E+00 2.14960E+00 1.28043E+00-2.22982E-01 1.71185E+00
 -1      2321-3.29642E+00-9.89093E+00-7.93630E-01-1.92947E+00 2.21380E+00 2.71452E+00
 -1      2322 5.36575E+00 1.86542E+00 1.00010E-01-1.69337E+00 4.04790E+00-3.41630E+00
 -1      2323 6.74502E+00 3.26977E+00-8.97757E-01 1.87486E+00 2.59311E+00-2.06245E-01
 -1      2324-1.14664E+00-4.67281E+00 3.41940E+00-2.28256E+00 2.71771E+00-1.78632E-01
 -1      2325-6.78198E+00-5.77471E+00-2.10651E+00-3.39890E+00 1.45574E+00 1.78758E+00
 -1      2326-1.19619E+00-1.47135E+00 6.25978E-01 1.60332E-01-9.37787E-01 2.02618E+00
 -1      2327 6.64649E-01-1.45951E+00 3.53892E-01-1.96743E-01-2.92277E-01 2.10876E+00
 -1      2328 3.23802E+00 1.60188E+00 2.40334E-01 1.11004E+00-1.16266E+00 1.58130E+00
 -1      2329 3.18356E-01-1.50118E+00 7.52835E-01-4.26669E-01 1.51018E+00-1.91198E+00
 -1      2330-5.26317E+00-4.67427E-01-6.46636E-01-1.11996E+00 1.70324E+00 3.14364E+00
 -1      2331-1.87054E+00-7.17917E+00-6.83008E-01-1.01974E+00 2.96655E+00-3.80282E-01
 -1      2332 5.17505E-01 5.68713E-01-2.20624E-01-3.95360E-01 8.52246E-01-7.44619E-01
 -1      2333-4.84428E-01-2.46511E-01 1.84704E+00 1.54796E-01 1.31214E+00 3.66316E+00
 -1      2334 1.24814E+00-2.72646E+00-4.27731E-01 1.70359E+00-2.87325E+00 9.21125E-01
 -1      2335 3.47703E-01-4.33253E+00-9.73054E-02 1.19679E+00-1.22236E+00 1.94439E+00
 -1      2336 8.22979E-01-5.39508E+00 1.14969E+00 8.12607E-02 9.71302E-01 1.12330E-01
 -1      2337-2.13368E+00-7.44476E+00-4.83291E-01-2.85994E-01-6.70187E-01 5.14700E-01
 -1      2338-2.01756E-01 3.75321E+00 7.27763E-01-3.46477E-01 2.38043E+00-2.68096E-01
 -1      2339 2.95743E+00 9.89101E-01-3.08984E+00 4.28286E-02 4.59641E-01-6.66310E-01
 -1      2340-9.64430E-01-6.65714E-01-3.23596E-01-7.45755E-01 1.59394E+00 3.19212E+00
 -1      2341-3.56091E+00-5.06993E-01 7.08566E-01-1.82228E+00-1.17065E+00-2.90086E+00
 -1      2342 3.87132E+00 3.17139E+00-2.02229E-01-1.25887E+00-6.19448E-01 1.37218E+00
 -1      2343 2.05418E+00 3.38179E+00 1.26576E+00 6.17333E-01-9.07724E-01 5.03040E-01
 -1      2344 5.71139E+00 7.28803E+00-1.99427E+00 2.98616E+00-7.49128E-01 1.92778E-01
 -1      2345-2.68038E-01 3.55030E-01-5.22968E-01 9.99102E-02 3.74049E-01 7.37770E-01
 -1      2346-6.54102E+00-7.30837E+00-7.32541E-01-5.15504E-01 1.18622E-01-9.57161E-01
 -1      2347 1.07782E+01 9.58163E+00-1.66921E+00 5.19875E-01 1.18294E+00 2.99166E+00
 -1      2348 1.55887E+01 1.81035E+01-1.09699E+00-5.00173E-01-4.65578E+00 1.39854E+00
 -1      2349 5.63205E-01 1.31247E+00 1.29931E+00 1.11738E+00 5.76318E-02 1.48751E+00
 -1      2350-1.09619E+00-5.23776E+00-1.58758E+00 6.78683E-01-8.85709E-01-1.02040E+00
 -1      2351-1.15378E-01-1.55435E+00 1.70048E+00-7.88110E-01 4.95279E-01-5.46896E-01
 -1      2352-3.82296E+00-3.17583E+00-2.27549E+00-1.94355E+00-1.24878E+00-1.99172E+00
 -1      2353 1.60068E+00 3.17397E+00-1.04090E+00-7.12014E-01 4.81428E-01-3.24690E-01
 -1      2354 1.10270E+00 1.02044E+00-1.90282E-01-1.24781E+00-1.33448E+00 4.12528E-01
 -1      2355-2.55430E+00-7.35247E+00-2.77574E+00-4.70301E+00 7.34619E-01 3.06780E+00
 -1      2356-1.70512E+00-5.58955E+00-2.67723E-02-1.88479E+00-5.14477E+00-1.28274E+00
 -1      2357 3.14382E+00 6.96208E+00 4.62844E-01-1.86139E+00 2.11201E+00 7.97013E-01
 -1      2358 1.75630E+00 2.97951E+00-2.91955E-01-3.78203E-01 6.04103E-01 8.56963E-01
 -1      2359 3.64019E+00 7.71088E+00 1.75112E+00-9.68672E-01-5.10917E-01 6.44703E-01
 -1      2360 1.72637E+00 1.71515E+00 2.56420E-02 6.92563E-01 6.51103E-01-1.44144E+00
 -1      2361-3.79907E+00 6.82668E-02 1.29972E+00 1.11030E+00 6.25503E-01 2.63074E+00
 -1      2362-1.45380E+00-2.40873E-01-1.96553E-01 9.00049E-01 1.68202E-01 1.65913E+00
 -1      2363 4.79930E-01 6.62635E-01-4.03091E-01-4.84127E-01 1.27176E+00 5.98831E-01
 -1      2364-5.42113E+00-4.65441E+00-3.73315E-01-5.31793E-01 8.51641E-01 4.66402E-01
 -1      2365 6.92865E-01-3.15482E-01-1.25225E-01 9.40506E-01-9.81935E-01 2.03428E-01
 -1      2366-2.27642E-01 3.85313E+00 4.25454E-01 2.24039E-01-2.72334E-01 6.25716E-01
 -1      2367-4.13303E+00-1.31851E-01 8.27728E-01 6.67971E-01-6.47854E-01 2.45777E+00
 -1      2368-1.71500E+00-2.62762E+00 9.98905E-01-3.22835E-01 7.45603E-01 1.67393E+00
 -1      2369-3.58538E+00-3.98956E-01 3.83848E-02 6.96294E-01-1.38758E+00 1.17222E+00
 -1      2370-4.99490E+00-6.16248E+00-3.15136E-01 7.40730E-01 3.84685E-01 1.35071E+00
 -1      2371 4.89549E+00 5.86519E+00-2.71961E+00 1.98534E+00-3.86583E+00-1.31641E+00
 -1      2372-4.89679E+00-1.54555E+00-1.65704E+00 1.68958E+00-8.78925E-01 1.96943E+00
 -1      2373 1.11544E+01 8.04978E+00 3.21123E+00-3.81132E-02-1.63970E+00 8.96741E-01
 -1      2374 4.54252E-01-3.28952E-01 1.31008E-01-1.08564E+00-8.12857E-01-8.51087E-01
 -1      2375 3.44532E+00 4.65155E+00 1.89681E+00 3.49331E-01-4.94280E-01 8.36342E-01
 -1      2376-1.23421E+00-1.74296E+00 2.69793E-02-3.01098E-01-1.56728E+00-6.09644E-01
 -1      2377 4.21549E+00 5.68336E+00 1.41194E+00-2.35720E-02-2.19725E+00-1.77900E+00
 -1      2378 9.39145E+00 6.29999E+00 9.10339E-01 6.21693E-01 3.71329E-01-6.76603E-03
 -1      2379 6.10114E+00 4.94859E+00-2.38492E-01-1.30904E+00-7.55127E-02-4.68745E-01
 -1      2380 4.87477E+00 3.16719E+00 1.90873E+00-1.16323E+00-5.18430E-01-5.61588E-01
 -1      2381 9.29270E-01 3.40425E+00 4.37422E-01 7.98590E-01 8.64977E-01 1.01475E+00
 -1      2382-3.32584E+00-4.77882E-01-9.78888E-01-5.57068E-01-4.64896E-02-3.72985E+00
 -1      2383 7.94132E+00 4.03795E+00 8.64791E-01-8.45741E-01 2.62178E-01 1.12812E+00
 -1      2384 4.13551E+00 6.32742E-01 2.46483E+00-4.99295E-01 1.08655E-01 2.85340E+00
 -1      2385 1.02444E+01 8.83613E+00 3.58562E+00-5.74916E-02 3.73913E-02 1.08273E+00
 -1      2386-3.09611E+00 4.68426E-01-4.62905E-01-1.01026E+00-2.76851E-02 1.44858E+00
 -1      2387 5.70170E+00 3.87961E+00 9.99340E-01-4.07735E-01 1.76002E+00-2.50964E+00
 -1      2388-2.68392E+00-1.97449E+00-1.24164E+00-2.50331E+00 2.52991E+00 2.60784E+00
 -1      2389-2.65492E+00-6.02316E-01-1.02177E+00-9.13688E-01 1.86363E+00 1.84127E+00
 -1      2390 3.23853E+00 2.87248E+00 1.45400E+00-8.47434E-01-1.83056E+00 1.78902E+00
 -1      2391 1.08091E+00-3.18864E+00 8.47444E-01-2.34999E+00 8.19097E-01-1.34777E+00
 -1      2392-1.33018E+01-5.13987E+00 4.22284E-01-4.20917E+00 8.54129E-01 2.41937E-01
 -1      2393 3.02752E-01-1.72827E+00 7.82955E-01 6.38934E-02-5.97000E-01-3.00661E+00
 -1      2394 4.11508E+00 7.13667E+00 1.94641E+00-9.19265E-01-6.51009E-01-1.11302E+00
 -1      2395 2.01068E+00 2.27556E+00-9.03195E-01 1.38589E+00 3.64105E-01-7.90365E-01
 -1      2396 2.44201E+00 3.15848E+00-2.04188E-01 1.93507E-01-8.05295E-01 6.81148E-01
 -1      2397 4.34949E+00 4.38200E+00 1.23311E+00 3.38314E-02-7.38144E-01 1.35289E+00
 -1      2398-2.07375E+00-6.58840E+00-9.78768E-01-1.63467E+00 2.22699E+00-3.10730E-01
 -1      2399 2.39181E+00 1.87554E+00 3.52832E-01 1.96730E-01-8.45783E-01 4.51856E-01
 -1      2400 8.99243E+00 8.07060E+00 1.18017E+00 1.03034E+00-1.42590E+00 2.89436E+00
 -1      2401 1.06901E+00 5.12825E-01 2.21412E+00 6.04755E-01-6.27762E-01-3.01387E+00
 -1      2402 5.26788E+00 8.18649E+00 1.01694E+00-2.23980E-01-5.18953E-01 1.31977E+00
 -1      2403 3.59176E+00 3.40941E-01-9.09405E-01-1.40211E+00-1.78834E+00 1.40525E+00
 -1      2404-3.00853E+00 6.36374E-01-1.69059E+00 4.90860E-01-7.66360E-01 3.68745E+00
 -1      2405-3.16203E+00-1.97403E+00-6.86813E-01 4.94505E-01-1.17556E+00-4.67652E-01
 -1      2406 2.60100E-01 1.22826E+00 6.82575E-01-3.85113E-01 1.54108E+00 3.17651E-01
 -1      2407-1.60580E+00-2.76366E+00 2.27703E-01 4.41661E-01-4.79777E-02-1.43785E+00
 -1      2408 4.50203E-01 8.15930E-01 1.77280E+00-7.52958E-01 2.06011E+00 2.26881E+00
 -1      2409-1.93794E+00-1.59593E+00-3.46641E-01-1.71130E+00-2.17662E+00-2.24723E+00
 -1      2410-3.06908E+00-9.28825E+00-1.45969E+00 1.17919E+00-4.89943E+00 1.51341E+00
 -1      2411 1.32596E+00-2.66535E+00 1.56517E+00-3.85967E-01-2.84565E+00-3.75534E-01
 -1      2412-4.55006E+00-1.01696E+00 7.06693E-01-1.84370E+00-9.11215E-01-2.22253E+00
 -1      2413 4.53244E+00 5.78317E+00 2.34111E+00-5.88415E-01-9.95433E-01-1.29118E+00
 -1      2414 2.46233E+00 8.64805E+00-7.25075E-01-1.10618E+00 1.98290E+00-6.73536E-01
 -1      2415-1.29058E+00-2.58331E+00-1.01129E+00 2.41530E+00 1.58135E+00-1.95087E+00
 -1      2416-1.06359E+00-5.06334E+00-1.04057E+00 1.98441E-01 3.30836E+00-3.37363E-02
 -1      2417-2.50231E-01-6.46192E+00 1.03281E+00 1.67023E-01 8.47455E-01 1.29457E-01
 -1      2418-8.80947E+00-1.61845E+00 2.03513E+00 1.37368E-01 4.05303E-01-2.72251E+00
 -1      2419 1.22773E+00-2.87346E+00-2.33560E-01-7.54453E-01-1.77921E+00-2.32733E-01
 -1      2420-2.69532E+00-5.42303E+00-4.50920E-01 3.16519E+00 2.34680E+00-2.57516E+00
 -1      2421 2.47211E+00 2.19890E+00 2.64560E+00 1.31143E+00-2.46869E-02-1.42005E-01
 -1      2422 2.77367E-01-2.14125E-01-1.06941E-01 2.77935E-01-2.14003E+00 3.38947E-01
 -1      2423 1.87801E+00-1.55187E+00 5.03396E-01 1.56438E+00-2.82098E+00-2.82115E-01
 -1      2424 3.38957E+00 7.52272E+00-3.28677E-01 8.22972E-01 3.60917E-01 1.16897E+00
 -1      2425 4.06700E+00 5.52631E+00 3.38611E+00 9.17190E-01 7.16966E-01-7.06908E-01
 -1      2426 1.58032E-01 9.50863E-04-5.76110E-01 7.48839E-03-1.16918E+00-4.04303E-01
 -1      2427 2.34431E-01-4.00435E-01 1.48770E-01-2.54452E-01-1.34516E+00 1.52827E+00
 -1      2428-7.15168E-01 1.36572E+00 1.16391E+00-1.34027E+00 6.54504E-01 1.85743E+00
 -1      2429 1.12317E+00-8.53871E-01 5.73522E-01 5.07644E-02-3.45665E+00 2.97841E+00
 -1      2430-6.49212E-01 1.17540E-01 1.57067E+00-5.28473E-01 1.12924E+00-4.11132E+00
 -1      2431-2.81297E+00-6.15793E+00 9.76198E-01 3.37421E-01 3.96503E-01 9.01011E-01
 -1      2432-3.16046E-02 2.46502E+00 1.96119E+00 2.92793E-01 3.97217E-01 1.39886E+00
 -1      2433-3.21720E+00-2.61396E+00-7.32794E-01-2.07363E+00 1.03823E+00 2.78291E+00
 -1      2434 2.35931E+00 1.02318E+00 4.94760E-01 8.93888E-01-4.04852E-01-7.30772E-01
 -1      2435 2.69333E+00 2.45677E+00 6.19096E-01-1.48574E+00-6.74960E-01-4.68809E-01
 -1      2436-1.11026E+00-8.02885E-01-9.80481E-01 1.98761E+00 1.39300E+00-1.73905E+00
 -1      2437-1.66554E+00-2.18617E+00 1.01669E+00 2.87203E+00 1.66165E+00-1.95330E+00
 -1      2438 1.93146E+00-8.12959E-01-1.68744E-02-1.07728E-01-9.62194E-01-1.06047E+00
 -1      2439 3.94806E-01-3.97858E+00 3.14733E-01 4.45140E-01 2.37461E+00 2.08843E+00
 -1      2440 3.76730E+00 2.95102E+00 8.16920E-01 4.32323E-01 1.47061E-01 2.01707E+00
 -1      2441-1.06740E+00-1.03340E+01 7.13299E-01-9.90233E-01 3.38990E+00-2.12478E-01
 -1      2442 6.48478E+00 5.95030E+00 8.62347E-01 1.46229E+00 1.59676E+00-2.19955E-01
 -1      2443 5.73732E+00 4.28165E+00 1.39954E+00 9.31396E-01 1.31597E+00 1.36164E-02
 -1      2444-8.97645E+00-4.39046E+00-2.02482E+00 1.33027E+00-1.06418E+00-4.56708E-01
 -1      2445-5.90178E+00-3.10130E+00-8.04712E-01-2.09665E+00-1.54990E+00-2.05220E+00
 -1      2446 4.78174E-01 2.20550E+00-2.93825E+00 2.18868E+00 1.41050E+00-1.54385E+00
 -1      2447 6.15349E+00 6.42806E+00 2.39868E+00 1.40661E+00 3.57764E-01 1.82005E+00
 -1      2448-1.34297E+00 1.17069E+00 8.66692E-02 7.85323E-01-1.75993E+00 1.96243E+00
 -1      2449 4.13108E-01 1.07439E-01 9.23950E-02-1.41360E+00 3.10850E+00-3.05888E+00
 -1      2450 1.76802E+00 1.78611E+00 7.32457E-01 2.35785E+00 9.60415E-01-3.23291E-01
 -1      2451 1.96827E+01 1.78511E+01-3.32125E+00 9.80291E-01 1.38506E+00 2.74220E+00
 -1      2452 2.36779E+00 3.53435E+00 7.84029E-01 2.54389E+00-1.94480E+00-5.83960E-01
 -1      2453-2.75813E+00-5.77075E+00-1.42876E+00-1.51424E+00-2.85008E+00-2.59585E+00
 -1      2454-4.39433E+00-5.60468E+00-6.51111E-01-2.90853E+00-3.70004E+00-3.29484E+00
 -1      2455-4.86690E+00-4.95159E+00-1.16716E+00-2.74539E+00-4.31398E+00-1.81357E+00
 -1      2456-1.07667E+00 6.18534E-01-6.47110E-01-4.89510E-01-1.87175E+00-1.73155E+00
 -1      2457 1.64821E+00 4.77344E+00 1.30207E+00 3.02646E-02 7.54774E-01-5.22177E-01
 -1      2458-3.37344E+00-2.94607E+00-8.54178E-01 2.87210E+00 1.58389E+00-2.20942E+00
 -1      2459 5.63781E+00 7.83594E+00 1.41380E+00 5.96010E-01 9.82190E-01-1.80363E+00
 -1      2460-2.98957E+00 5.36969E-01 3.44147E-01-1.61870E+00-1.86399E-01-1.92932E+00
 -1      2461-5.86618E-01-1.53973E-01 1.37200E+00 3.34330E-01-2.14813E+00 3.20766E+00
 -1      2462-1.43111E+00-1.57964E-01-1.14795E+00-1.69784E+00-1.29108E+00 1.85806E+00
 -1      2463 1.01818E+00 2.46402E+00-9.00980E-01 2.66883E-02-2.91335E-01 5.00857E-01
 -1      2464-2.39066E-01-4.33035E+00-2.96283E-01-2.00204E+00 7.76929E-01-2.18730E-01
 -1      2465-6.07070E+00 4.52297E-01-2.96291E-01-8.28829E-01-2.09463E-01-3.03903E+00
 -1      2466 2.09398E+00 1.51783E+00 7.11642E-01 7.66695E-01-1.06729E+00-2.85470E-01
 -1      2467 3.40560E+00-4.80130E-01 1.53191E+00 7.41807E-01 2.47026E+00-6.63386E-01
 -1      2468 1.56406E+00-6.65964E-01-3.46639E-01 8.43018E-01 1.41848E+00-3.04811E-01
 -1      2469-3.73722E+00-8.40082E+00-1.88320E+00 3.16571E+00-3.27084E+00 2.32042E+00
 -1      2470 1.94514E+00 5.14917E+00 8.95052E-01 2.08296E+00 3.93002E+00 2.26801E+00
 -1      2471 1.94410E+00-2.98173E-02 2.61362E-01 4.85779E-01-8.04435E-01 2.17727E-01
 -1      2472-2.06428E+00-2.91641E+00-4.05834E-02 1.15289E+00-8.01863E-01-2.92812E-01
 -1      2473 2.49035E+00 1.92681E+00 2.54867E-01-1.07713E+00-7.76246E-01 2.42718E-01
 -1      2474-5.42914E+00-9.45896E-01-4.27991E-01 4.44332E-01-5.74510E-01-1.78351E+00
 -1      2475-3.11387E+00-2.78765E+00-7.22888E-01-8.08000E-01 1.39364E+00-3.81672E-01
 -1      2476-7.83657E-01-1.08634E+00 4.97166E-01-2.76454E-01 6.82800E-01-9.59614E-01
 -1      2477-1.63297E-01-1.04500E+00 2.84993E-01 1.49075E-01-1.15751E+00-1.43522E+00
 -1      2478-1.29072E+00-1.45757E+00-8.17794E-01 2.26019E-01-8.29676E-01-1.33133E+00
 -1      2479-9.33825E-02 1.53697E-01 2.60266E+00-1.87504E-01 1.88897E+00 1.07896E+00
 -1      2480-1.57627E+00-2.01883E+00 8.53195E-01 7.97530E-01 1.49798E+00 1.22562E+00
 -1      2481-1.24469E+00-1.36108E-01-4.08278E-01 4.55101E-01 7.22766E-01 1.25193E+00
 -1      2482 1.57304E+00-6.01757E-01-6.03016E-02-3.03128E-01-9.28355E-01 5.36696E-01
 -1      2483 4.22967E+00 1.34440E+00 9.83935E-01 1.50993E+00-5.73592E-01-2.32197E-01
 -1      2484 8.28853E+00 6.83423E+00 1.92538E+00 1.25962E+00-1.92461E+00 1.31302E+00
 -1      2485 2.57884E+00 4.96316E+00 2.24728E-01-2.67516E-01 9.52242E-01-1.34884E+00
 -1      2486-1.63994E+00-5.14630E-01-1.73660E-01 4.91643E-02 2.20946E+00 1.07458E+00
 -1      2487-4.99621E+00-3.34542E+00 3.99708E-01 1.73014E+00-2.17444E+00 1.02051E+00
 -1      2488-3.57602E+00-2.34659E+00 9.73567E-01 6.58840E-01-1.36161E+00-3.97933E-01
 -1      2489-3.32465E+00-9.68181E-01-1.71937E+00-1.10153E+00 1.81848E+00 2.91822E+00
 -1      2490-4.77349E+00-1.36395E+00-1.63851E+00 3.88045E-02 1.03740E+00-2.16776E+00
 -1      2491 5.98128E-01 3.46686E+00 5.32334E-01-1.41904E+00-3.45953E+00 1.46211E+00
 -1      2492 4.95274E+00 7.94828E+00 1.35102E+00-5.01876E-01 2.57586E-01 1.50811E+00
 -1      2493-1.10027E-01-1.28270E+00-1.01017E+00-4.75482E-01-4.04207E+00-4.39539E-01
 -1      2494-6.34755E-01 1.37730E+00 9.58912E-02-5.99141E-01 7.39464E-01 1.02195E+00
 -1      2495-3.98866E+00-2.07571E+00-2.87788E-01 4.22638E-01 1.32570E+00 3.34621E-01
 -1      2496-1.23612E+00-2.58272E+00-4.92893E-01-1.10520E+00 2.54845E+00 5.24942E-01
 -1      2497 6.90601E-01 3.82699E+00-1.40565E+00-1.78121E+00 3.76703E+00 7.46937E-01
 -1      2498-9.04479E+00-4.85404E+00-3.37810E+00-4.58521E-01 1.15251E+00 2.02863E-01
 -1      2499 1.90181E+00 2.70915E+00-2.07874E+00 1.90681E+00 3.12078E+00 1.98090E+00
 -1      2500-1.69041E+00 1.30699E+00 4.27017E-01-9.29384E-01-2.28062E+00-7.00372E-01
 -1      2501-3.90784E-01-6.74559E-01-5.22689E-01 8.45940E-01 1.87590E+00-2.54779E+00
 -1      2502 1.20178E+00 1.30022E+00-1.49493E+00 5.74364E-01 3.25270E+00 1.56921E+00
 -1      2503 1.09284E+00 1.03377E+00 2.27514E+00 2.14796E+00-2.74656E-01-1.03878E+00
 -1      2504 1.70778E+00-1.53692E+00 2.52421E+00 1.16272E-01-1.20782E+00-1.70155E+00
 -1      2505 4.56914E+00 8.88536E-01 2.08987E+00-1.23982E+00 1.49045E-01-1.39914E+00
 -1      2506 9.43971E+00 1.12245E+01 1.11396E+00-5.81788E-01 1.66840E+00-2.54118E+00
 -1      2507 1.63288E+00-8.98021E-01-7.16785E-01 1.55153E+00-2.20247E+00-3.71957E-02
 -1      2508 2.35545E+00 7.78964E-01-1.42260E+00-6.42053E-01 6.80028E-01 7.70070E-02
 -1      2509 3.57059E+00 2.11743E+00 4.30882E-01 8.66332E-01-8.89608E-01-3.20537E-01
 -1      2510 4.79868E+00 3.95514E+00 3.08848E-01 7.20326E-01-7.75964E-01 6.66352E-01
 -1      2511 4.61280E+00 1.41318E+00-5.27643E-01-3.59493E-01 8.78861E-01 2.29399E+00
 -1      2512 3.25188E+00 7.00903E+00 3.19983E-01-2.45189E+00 1.65516E+00-4.54362E-01
 -1      2513-5.86546E-01-1.29851E+00-6.10380E-01-7.88017E-01 6.55053E-01-3.57995E+00
 -1      2514 2.87049E+00 1.26598E+00 2.96424E-01-7.12459E-01 4.20171E-01 8.65929E-01
 -1      2515-1.29568E+00 5.57328E-01-4.95374E-01-1.44127E+00 2.93830E-02 1.19727E+00
 -1      2516 1.29027E+00 4.02776E-01-1.03851E+00 1.84339E+00-9.09335E-01 9.65267E-01
 -1      2517-2.91700E-02-7.72149E-01 8.99931E-01-1.67045E+00-1.66726E+00-1.85902E+00
 -1      2518-5.29320E+00-4.95627E+00 5.00469E-04 3.36354E+00-6.79323E-01 2.34200E+00
 -1      2519-9.66462E-02 6.61160E-01 1.26991E+00 1.09306E+00-1.18786E+00 7.00392E-01
 -1      2520-3.69701E+00-1.80442E+00-7.97435E-01 1.11419E-01 1.44612E+00 2.59422E-01
 -1      2521-2.80715E-01 1.73601E+00-5.78746E-01-2.51697E+00-8.24291E-01 5.67307E-01
 -1      2522 2.02697E-01 2.16491E+00 4.08324E-01 1.40203E+00 4.69207E-01 1.48799E+00
 -1      2523 1.66493E+00-1.14255E+00-3.09035E-01 3.63851E-01 1.24959E+00-5.41472E-02
 -1      2524-8.11885E-01-3.62727E+00-2.06456E+00 1.09318E+00 3.23189E+00-2.90171E+00
 -1      2525-1.06501E+00-1.94984E+00-4.04414E-01-1.20266E+00 1.72403E+00 4.10322E-01
 -1      2526-3.94853E-01-2.58028E+00-1.14083E+00-3.49059E-01-1.82888E+00-1.33069E+00
 -1      2527 9.15827E-01 3.89907E+00-5.07630E-01 2.50699E-01-1.22047E+00-2.31218E+00
 -1      2528 5.96606E-01 2.55796E-01 1.63369E+00-3.09844E-01 2.05844E+00-1.57904E+00
 -1      2529 2.95504E+00 4.22863E+00-4.09357E-01-2.89999E+00-1.05763E+00-6.58281E-01
 -1      2530 2.03870E+00 2.71299E+00 2.99548E-01-6.34281E-01-4.78699E-01-9.52753E-01
 -1      2531-1.75251E+00-9.35456E-01-5.72489E-02 1.63875E+00 1.05366E+00-3.38259E+00
 -1      2532-1.15975E+00-1.79357E+00-3.89791E-01 3.90002E-03-3.65652E-01-2.37173E+00
 -1      2533 1.08993E+00 3.84937E+00 6.71875E-03-2.87879E-01 1.27637E-03-1.70577E+00
 -1      2534 1.69572E+00 1.18525E+00 2.07422E-01-1.33611E+00 6.85534E-01 6.64998E-01
 -1      2535 4.98167E-01 4.15679E-01 4.55384E-01-2.00391E+00-2.18039E+00-1.02251E+00
 -1      2536 5.42549E+00 2.30435E+00-9.86143E-01 1.55438E+00 3.14580E-01-2.02208E+00
 -1      2537 3.57950E+00 3.03324E+00 6.30338E+00 6.44917E-01 1.04230E+00 1.92837E+00
 -1      2538 2.37375E+00 2.10099E+00-2.73361E+00 1.28314E-01-8.69844E-01-5.89455E-01
 -1      2539 2.50352E+00 4.73514E+00 6.90898E-01 2.08936E+00-1.00045E+00-1.51634E+00
 -1      2540 1.83505E+00 2.09572E+00-3.22680E-01-3.68992E-01-1.02132E+00-8.20638E-01
 -1      2541 8.36354E+00 9.41764E+00 1.67008E+00-3.85624E-01-1.40288E+00 6.09098E-01
 -1      2542-7.30833E+00-5.27392E+00 1.50914E+00 3.28484E+00-8.75347E-01-5.73563E-02
 -1      2543 2.04484E+00 2.45457E+00 2.77540E+00-2.31099E-01-8.41556E-01-4.05583E-02
 -1      2544-2.77525E+00 1.23723E+00-1.03672E+00 1.92264E-01 1.57880E+00 1.86684E+00
 -1      2545-1.30153E+00-6.72886E-01-3.41219E-01 4.41485E-02-1.59668E+00-4.68219E-02
 -1      2546 6.16200E+00 7.41388E+00 2.49538E+00 2.27817E-01 2.39604E-01 1.87859E+00
 -1      2547 7.22155E-01-5.21398E-01-1.10580E+00 6.42792E-01-1.20270E+00-1.54807E+00
 -1      2548 1.87881E+00 5.66790E-01-6.82290E-01 5.12716E-01-3.05207E-01-9.86541E-01
 -1      2549 3.63956E+00 2.71351E+00 3.14712E+00 6.62159E-01-3.10071E+00-2.18525E+00
 -1      2550 1.76093E+00 2.94343E+00-6.53460E-02 1.24028E-02-1.78601E+00-2.34528E-01
 -1      2551 5.94158E-01-2.51802E+00 3.40250E-01-1.31798E+00-2.04002E+00-6.98544E-01
 -1      2552 2.34104E+00 4.45934E+00-3.09365E-01-1.59317E+00 1.10247E+00 7.35764E-01
 -1      2553-1.64748E+00 2.60206E+00 1.70546E-01-4.80805E-01 5.23830E-01 1.40434E+00
 -1      2554-4.06868E+00-5.32254E+00-1.46004E+00 1.76897E+00-6.34458E-01-5.91150E-01
 -1      2555 5.15994E+00 1.45884E+00-4.72814E-01-4.05870E-01-4.52979E-01-2.43883E+00
 -1      2556-1.40089E+00-4.37379E-02-2.52951E+00 2.25665E-01-8.53303E-01 5.06139E-02
 -1      2557-5.57594E-01-7.62748E-01-6.06262E-02 9.95693E-01-1.39353E+00 1.64299E+00
 -1      2558-9.13728E-01-1.22330E+00 1.27611E-01-2.55542E+00-2.49513E+00-2.14524E+00
 -1      2559 1.34964E+00-3.29305E-01 1.01168E+00-1.88513E+00-3.46240E-01 1.76604E+00
 -1      2560 4.39252E+00 9.16740E+00 2.35293E+00-4.96192E-01-1.93872E+00-2.02973E+00
 -1      2561-2.55468E+00-1.46417E+00-3.65194E+00-1.79970E+00-1.89703E+00-3.00831E+00
 -1      2562 5.84211E+00 4.56723E+00-1.22877E+00 1.59264E+00-1.12556E+00-1.19024E+00
 -1      2563-3.08874E+00-7.01212E+00-1.06616E-01-2.13830E+00-1.24828E+00-3.20205E+00
 -1      2564 5.51043E-01 2.31300E-01-4.33563E-01 2.31912E-01 1.10334E+00 5.65826E-01
 -1      2565 8.08866E+00 4.69514E+00 6.60538E-01 2.19239E+00 8.11665E-01 1.85913E-01
 -1      2566-3.60878E+00-2.16545E+00-4.25837E-01-2.41742E-01 1.35039E+00-1.12716E-01
 -1      2567-2.24372E+00-1.40893E+00-6.52682E-01 4.58594E-02-1.88931E+00 9.26965E-01
 -1      2568-6.21732E+00-1.21107E+01 1.05208E+00-4.46963E+00-3.52346E+00-1.79764E+00
 -1      2569-1.28672E+00 2.44575E-01 2.83612E-01 8.13686E-02-1.58657E+00 1.15931E+00
 -1      2570 1.99075E+00 2.08932E-01 2.31610E-01 9.65593E-01-1.37871E+00-5.90354E-01
 -1      2571 4.88371E+00 4.09049E+00 1.99878E+00-2.73643E-01-9.56482E-01 2.42396E-01
 -1      2572 1.30520E+00 9.88192E-01-1.46156E+00 1.79427E-01-5.44649E-01 7.86976E-02
 -1      2573 1.72570E+00-8.47623E-02-1.70296E-02 1.02092E+00-1.22879E+00 3.43614E-02
 -1      2574 3.12832E-01 1.80383E+00 1.06255E+00 3.04016E-01 3.25924E+00-1.42700E+00
 -1      2575 7.70821E-01 2.75155E+00 9.52727E-01-1.27172E-01 3.62649E-01 9.36126E-01
 -1      2576 7.64352E+00 6.00213E+00-7.25863E-01-3.09061E+00 2.66549E+00-1.90095E+00
 -1      2577-7.40745E-01 1.43260E+00 4.79113E-02 5.63911E-01 4.13589E-01 9.25907E-01
 -1      2578 1.15263E+00 9.59753E-01-2.54647E+00 2.52337E-01 5.95445E-01-4.58742E-01
 -1      2579-4.66377E+00-1.37645E+00-5.30532E-01 8.53034E-01-6.89444E-01-1.51162E+00
 -1      2580-4.81336E-01-2.07988E+00-5.69346E-01-5.62812E-01-2.00780E+00-1.00180E-01
 -1      2581 3.21078E+00 2.86827E+00 1.34890E+00 1.42433E+00 4.03199E-01 1.35162E+00
 -1      2582 2.67704E+00-3.94691E-01-3.08520E-01 1.08379E+00 9.98674E-01-5.41962E-01
 -1      2583 4.18517E-01-4.49884E-01 5.18787E-01-5.32597E-01-1.30740E+00 2.67397E+00
 -1      2584 3.91772E+00 3.28150E+00-1.26120E+00-5.66497E-01-4.23165E-01-9.68546E-01
 -1      2585 4.76947E+00 9.26418E+00-7.15818E-01 7.55413E-01 2.45409E-01-1.15910E+00
 -1      2586 2.48077E+00 5.90057E+00 5.49682E-01-8.82813E-01 2.14359E+00 3.09651E-02
 -1      2587-1.05588E+00 1.00159E+00-5.37183E-01-1.02031E+00-2.56060E-01 1.28710E+00
 -1      2588-1.39383E+00-4.34352E-01 1.02595E-02-2.71836E+00-1.76776E+00-2.25593E+00
 -1      2589 4.98119E+00 4.72853E+00 4.49809E+00-9.30154E-02 2.00447E-01-1.75242E+00
 -1      2590 5.18481E+00 3.85947E+00-2.01110E+00-1.18107E+00 1.52365E-01-8.30850E-01
 -1      2591-2.29806E+00-2.51676E+00-1.10166E+00-1.73196E-01-2.68769E-01 7.90058E-01
 -1      2592 4.52154E+00 3.61493E+00 1.46268E+00-7.59228E-01 8.51739E-01 3.99040E-01
 -1      2593-1.99273E+00-1.88310E+00-1.28874E-01 2.71448E-01 1.99903E+00 1.01178E+00
 -1      2594 2.52944E+00-1.27780E+00 5.69550E-02-2.06164E-01 1.22357E+00-2.28752E-01
 -1      2595-4.48998E+00-6.32315E+00-7.02764E-01-2.04646E+00-5.30069E-01 6.65477E-01
 -1      2596 2.89360E+00 4.66615E+00-1.17249E+00 8.02315E-01 5.11448E-01 1.65107E+00
 -1      2597-4.66000E-01 8.52471E-01 5.38351E-01-2.28011E-01 1.25601E+00-9.48844E-01
 -1      2598-1.73187E+01-1.35179E+01-2.95368E+00-2.88746E+00-3.83100E-01 1.91024E+00
 -1      2599-7.16614E+00-9.41417E+00-2.68752E+00-5.17317E+00 3.68826E+00 2.81528E+00
 -1      2600 6.29199E+00 4.44641E+00-4.97374E-01-1.21587E+00 7.66617E-01 4.99564E-01
 -1      2601-4.41527E-01-1.99653E+00 1.02000E-01 1.97694E+00-1.91071E+00 1.55325E+00
 -1      2602-5.32808E-01-2.18898E+00-1.22791E+00 1.78204E+00 2.53265E+00-1.03202E+00
 -1      2603 2.88368E+00 4.05810E+00-7.06847E-01 1.06650E+00 7.05542E-01-7.25396E-01
 -1      2604 3.15063E+00 4.50584E+00-2.87861E-01-3.13227E+00-1.75333E+00-2.44126E+00
 -1      2605 3.70003E+00 4.60146E+00 2.32749E-01-9.87182E-01 1.90050E-01-8.33358E-01
 -1      2606 7.14927E+00 4.38074E+00 3.34808E-01 1.82785E+00-9.16125E-01-1.52387E-01
 -1      2607-3.10859E+00-2.51112E+00 3.36113E-01-9.64674E-01-1.11969E+00 4.05621E-01
 -1      2608-2.60057E-01-1.50480E+00 3.97741E-02 1.50313E+00-1.56902E+00 9.45341E-01
 -1      2609 5.47166E+00 4.67883E+00 1.01872E+00-9.94000E-01 1.10505E+00 7.28067E-01
 -1      2610-2.38182E+00-9.43783E+00 2.64729E+00-2.89211E+00-4.56692E+00-1.52048E+00
 -1      2611 1.76844E+00 2.40391E+00-6.23729E-01 2.09068E-01 3.53470E-02-1.00326E+00
 -1      2612-1.19319E+00-3.88506E+00-1.20687E+00-1.23596E+00-4.42414E-01 1.34402E-01
 -1      2613-4.64712E+00-3.08980E+00-4.73833E-01 9.74276E-01 6.51775E-01 4.62860E-01
 -1      2614-8.59816E-01 3.81106E-02-5.67239E-01-1.10132E+00 1.42357E+00 1.54492E+00
 -1      2615 5.16323E+00 5.20046E+00-8.66766E-02 3.91654E-01 1.87427E+00-3.39781E-01
 -1      2616 2.00501E+00 5.74144E+00 1.26300E+00-1.10149E+00 1.36602E+00-1.39819E+00
 -1      2617 2.20422E+00 1.66907E+00-1.15939E-01-1.02334E+00-9.19819E-01-7.55303E-02
 -1      2618 3.42447E+00 1.94451E-01 1.95322E-01 1.69640E+00 8.72173E-01-7.80722E-01
 -1      2619-7.66171E-01 4.28187E-01 6.36536E-01 1.12364E+00 5.25907E-01-2.67093E+00
 -1      2620 3.19347E+00 2.04450E+00 8.38730E-01 2.23168E+00-2.63716E-01 4.67234E-01
 -1      2621 2.98540E+00 7.41389E-01 1.29547E-01 1.04552E+00 1.79754E+00 9.03264E-01
 -1      2622 2.19062E+00 1.15234E+00 3.96055E-01 2.15877E+00-9.17383E-01-1.40064E-01
 -1      2623 2.44953E+00 1.79894E+00 7.27037E-02 1.65275E+00-1.09393E+00 6.38447E-01
 -1      2624-1.30906E-02-9.49124E-01-3.97209E-02-1.20728E+00-2.22752E+00-5.54848E-01
 -1      2625 2.16690E+00 2.50638E+00 2.19923E+00-1.54748E+00-1.19846E-01-1.18626E+00
 -1      2626 1.89537E+00 1.03211E+00 1.32576E+00-9.08763E-01-6.47095E-02-6.68188E-01
 -1      2627-1.55561E+00-4.92518E+00 1.63114E+00-2.61099E+00 1.42729E-01-1.31472E+00
 -1      2628-3.53663E-01-1.16493E-01-6.90539E-01-8.44722E-01-1.98339E+00-8.63556E-01
 -1      2629 1.06315E+00-1.37604E-01-4.46643E-01 9.58775E-01 8.65541E-01-8.30584E-01
 -1      2630 1.01108E+01 5.61433E+00 9.83745E-01 3.10554E+00 1.97661E+00 2.87205E+00
 -1      2631 2.36726E+00 1.53524E-02-2.65046E-01 3.28320E+00-1.12391E+00 1.28472E+00
 -1      2632 3.96134E-01-4.97625E-01 7.23501E-02 1.58487E+00-1.49274E+00 2.02540E+00
 -1      2633 1.40151E-01 2.36385E+00-3.26955E-02 5.10405E-01-1.58082E+00-6.81816E-01
 -1      2634-1.82245E+00-2.88982E+00-5.66699E-01-2.91215E-01 1.63387E-01-1.07165E+00
 -1      2635-1.77458E-01-1.79525E-01-5.38439E-01-1.77311E-01-1.16228E+00 4.34673E-01
 -1      2636 4.30192E+00 4.43832E+00 4.12389E-01 9.10460E-01 2.05216E+00 2.20202E+00
 -1      2637-9.56388E-02 1.43014E+00 1.66589E-01 1.52084E+00-1.84734E+00-1.13257E+00
 -1      2638 3.12770E+00 2.03810E+00 1.01624E+00-9.26106E-01-6.30143E-01-8.16738E-01
 -1      2639 3.45604E+00 1.21769E+00-2.79961E+00 1.51165E+00 1.91964E+00-2.60207E+00
 -1      2640 9.95885E-01 2.56479E+00-1.70435E+00-2.83956E-01-2.48897E-01-2.21506E-01
 -1      2641-1.16641E+00-1.72451E-01-7.97257E-01 9.05056E-01 8.06083E-01-1.58553E+00
 -1      2642-1.98402E+00-2.38977E+00-1.56215E+00-8.98235E-01 5.51794E+00-1.11914E+00
 -1      2643 3.53512E+00-9.77384E-01 4.95537E-01 1.64775E+00-2.05463E+00 4.03719E-01
 -1      2644 3.24874E-01-1.18949E+00-5.73018E-01 1.31180E+00-1.32907E+00 2.14194E+00
 -1      2645-1.08384E+00-1.31272E+00-9.29057E-01-5.67816E-01 3.22640E+00-1.23018E+00
 -1      2646 1.72733E+00 1.23893E+00-3.79209E-01 1.23949E+00-1.10896E+00-2.22526E-01
 -1      2647-7.19118E+00-1.43873E+00 1.18651E+00-2.42623E+00-1.57636E+00-3.87522E+00
 -1      2648 5.56328E+00 5.56020E+00 1.12959E+00-2.15061E+00-1.74604E+00 3.11258E-01
 -1      2649 3.87831E+00 1.43663E+00 1.12031E+00 9.70975E-01-1.29269E+00-4.20848E-01
 -1      2650-4.32099E-01 5.94614E-02-8.25911E-02 9.79840E-01-1.55483E+00-1.61106E+00
 -1      2651-3.45759E+00-2.47296E+00-2.12182E+00 1.58339E+00 4.33238E+00-3.27935E+00
 -1      2652-1.11022E+01-1.36753E+01 1.47212E+00 6.49857E+00 1.25134E+00-2.00878E+00
 -1      2653 6.39985E-01 3.80181E+00-2.44656E-02-1.16664E+00 5.58524E-01 4.28828E-02
 -1      2654 3.00689E+00 5.81449E+00 1.88962E+00 4.06141E-01 1.86624E+00-3.17244E-01
 -1      2655-2.90691E+00-1.25444E+00-7.53116E-02-1.90103E+00 5.20161E-01 1.67611E+00
 -1      2656 8.97641E-01 8.16870E-01 9.95886E-01 7.52889E-01-1.16357E+00 1.92428E-01
 -1      2657 6.54322E-01 1.15320E+00-4.66375E-01-1.34499E+00 8.80557E-01 5.09469E-01
 -1      2658 4.24216E+00 3.33316E+00 7.79745E-01-5.52721E-01-6.98888E-01-1.17968E+00
 -1      2659-5.95695E+00-1.90042E+00-2.83820E+00 1.00346E+00 1.19464E+00-1.73667E+00
 -1      2660-1.95092E+00-8.00011E-01-6.83296E-01-7.13101E-01 8.27810E-01-1.09440E+00
 -1      2661 1.84616E+00-1.20250E-01 2.01502E-01-7.05857E-01-9.39629E-01-2.85693E-01
 -1      2662-3.98966E+00-2.66716E+00-2.59294E+00-1.62568E+00 1.73964E+00 1.76848E+00
 -1      2663 5.03030E+00 4.08719E+00 1.41166E+00-1.43706E+00-1.20703E+00 6.84095E-02
 -1      2664 6.03155E+00 8.99572E+00 3.34559E+00 3.57306E-01-9.90498E-01-2.15240E+00
 -1      2665-4.95179E+00-4.56729E+00-2.14144E+00 2.47932E+00-2.48812E+00 2.71984E+00
 -1      2666 6.93360E-02-4.00609E+00 2.51805E+00 4.54090E-01 8.15638E-01 2.11217E-01
 -1      2667 3.06122E-01 9.07032E-01 9.86477E-01 1.64903E+00 7.43902E-01-1.53000E+00
 -1      2668-2.32692E-01 4.94606E-01 2.32764E+00-1.29391E+00-1.66607E+00-3.57429E+00
 -1      2669-3.18341E+00-1.01956E+00-4.92566E-01 2.33520E+00 1.57540E+00-2.41524E+00
 -1      2670 5.34579E-01-9.79341E-01-3.40380E-01 7.08549E-01 1.45875E+00-9.91572E-01
 -1      2671 3.03286E+00-4.09687E+00 1.38145E+00-3.03938E+00 1.91714E+00 1.49572E+00
 -1      2672-5.68888E+00-1.59904E+00-3.96545E-01 4.76547E-01-1.87029E-01-1.73163E+00
 -1      2673-4.36590E+00-3.60878E+00-2.80846E-01 1.37691E+00-3.62683E+00 4.28594E+00
 -1      2674 1.70675E+00 1.99291E+00 4.84075E+00-9.97141E-01 3.06502E-01 1.45075E+00
 -1      2675-2.30774E+00-1.03799E+00 1.74276E-01-3.65757E-01-1.43739E+00 6.99248E-01
 -1      2676 3.57823E-01 1.30213E+00 1.27808E+00-1.89536E+00-1.67201E+00 1.49300E+00
 -1      2677 1.86684E+00 4.49742E+00 7.66289E-01 2.01243E+00-7.79932E-01-1.50851E+00
 -1      2678 3.27337E-01 1.69818E+00-2.25267E+00-4.59742E-01-1.32577E+00-6.20465E-01
 -1      2679-1.40840E-01 3.05840E+00 2.47390E-01-1.66436E+00-1.75278E+00-1.34360E+00
 -1      2680-1.36773E-01 4.59750E-01 1.98536E+00-1.50648E+00-7.44300E-01-5.95893E-01
 -1      2681 5.75351E-01 7.32315E-01-3.58552E-01-6.27139E-01-2.06613E+00-6.52642E-01
 -1      2682 8.02146E+00 4.58043E+00 2.35109E+00 7.05661E-01-1.44119E+00-5.18015E-01
 -1      2683-2.91289E+00-1.71995E+00-4.74542E-02-2.23429E-01 1.00003E+00-7.25532E-01
 -1      2684 9.54824E-02-3.16090E-01 4.13826E-01-2.06070E+00 1.44206E+00 9.87899E-01
 -1      2685 1.43474E+00 8.77714E-01-1.93047E+00 1.90849E-01 5.41117E-01-9.70046E-01
 -1      2686-8.35877E-02 1.61846E+00 2.60711E-01 5.25792E-01 6.04036E-01-1.44756E+00
 -1      2687 3.87398E+00 1.90915E+00-1.20545E+00 2.55542E+00 1.47426E+00 1.20472E+00
 -1      2688 4.67415E+00 2.75818E+00 1.41934E+00 2.12648E+00 2.43211E+00-3.45880E-01
 -1      2689 9.50653E+00 8.49048E+00-2.09064E+00 1.92753E-01-1.15369E+00-3.85066E+00
 -1      2690-1.39835E+00-3.09392E-01-4.91362E-01-2.12321E-01-2.50220E-01 7.38075E-01
 -1      2691 1.36788E+00-1.64074E+00 4.94609E-01-1.37172E+00 2.29666E+00 1.76962E-01
 -1      2692-3.35918E+00-2.05743E+00-2.61610E+00-5.88312E-01 3.43884E+00 2.97005E+00
 -1      2693 5.75165E-03-1.11489E+00-4.69348E-01 1.34650E+00-1.11867E+00-9.22089E-01
 -1      2694 4.89711E+00 4.72333E+00 1.17005E-01-1.90434E+00 1.27437E-01 9.71514E-01
 -1      2695-7.29452E-01 2.58428E+00-3.04011E+00-1.25020E+00 9.94025E-01-1.51965E-01
 -1      2696 4.97442E+00 3.77626E+00 1.51804E+00-3.70394E-01 1.99352E-01-7.11110E-01
 -1      2697-5.95406E+00-4.99120E+00-2.63249E+00-2.38792E-01-5.12752E-01-6.53643E-01
 -1      2698-6.73326E+00-7.74532E+00-1.45970E+00-1.44310E-01-1.02806E-01 2.29921E-01
 -1      2699-1.20220E+01-1.17058E+01-3.41563E+00 8.83971E-02 9.45792E-01 2.04748E-01
 -1      2700-4.29373E+00 7.34377E-01 1.06922E+00 8.76675E-01-1.57632E-01 1.70723E+00
 -1      2701 3.22905E+00 2.86794E+00 2.59434E+00 1.16154E+00 5.28396E-01-8.23900E-01
 -1      2702 4.84954E+00 1.15297E+01-5.31082E-01-1.27950E+00-1.06578E+00 3.01589E-01
 -1      2703 1.96672E+00 2.90609E+00-8.66807E-01 1.80624E+00 1.05318E+00-7.99960E-01
 -1      2704-2.12414E+00-1.50547E+00-1.05955E+00-2.10782E+00 1.10680E+00 2.19921E+00
 -1      2705 6.16811E+00 4.73801E+00 8.61259E-01-1.39304E-01 1.26012E+00 7.81967E-01
 -1      2706 1.37916E+00 1.93303E+00 7.33095E-01 9.31730E-01 1.12074E+00 6.97529E-01
 -1      2707 1.10224E+00-1.86746E+00 2.59136E+00-1.09884E+00 2.68842E+00 2.35618E+00
 -1      2708 7.48830E+00 8.60913E+00 2.44042E+00 2.05096E+00 1.76319E+00-8.73849E-01
 -1      2709 1.05158E+01 1.13779E+01 2.04640E+00-1.61165E-01 1.57885E+00 6.53059E-01
 -1      2710 5.21965E+00 1.59566E+00 7.39031E-01 7.44279E-01 1.39964E+00 3.03577E+00
 -1      2711 7.06323E-01-1.89763E+00 9.25754E-01-1.13176E+00-1.41881E+00-2.74754E-01
 -1      2712 1.05512E+00-6.77197E+00-9.71556E-01 2.08191E-02-1.07283E+00 9.59887E-01
 -1      2713-7.14743E-01 1.87437E+00-1.80438E+00-3.07567E-01-7.79838E-01 5.72462E-01
 -1      2714 2.91335E+00 2.52302E+00-1.46148E+00 2.23633E+00 4.17382E-01-2.57194E-01
 -1      2715-3.99509E+00-1.79394E-01 1.40336E-01-1.83237E+00-5.91881E-01-1.29685E+00
 -1      2716-1.75678E+00-5.89680E+00-1.92996E+00-2.70630E+00 8.74231E-01 2.11801E+00
 -1      2717-2.13821E+00-6.89033E-01 2.72515E+00-4.02818E-01 3.23733E+00 2.28093E+00
 -1      2718 8.72034E-01-2.76312E-01-7.71256E-01 1.22433E+00 8.52765E-01-5.79550E-01
 -1      2719-4.24773E+00-2.48206E+00-1.24315E+00-2.09502E+00-6.08765E-01-1.94985E+00
 -1      2720-4.80683E+00-5.03122E+00-4.53433E+00-3.61488E+00 2.38595E+00 2.45748E+00
 -1      2721-9.32663E+00-1.15902E+01-3.16026E+00-6.63631E+00 3.70796E+00 4.46694E+00
 -1      2722-2.56129E+00-6.66408E+00-2.24549E+00-1.30029E+00-2.89495E+00 7.01700E-01
 -1      2723-4.35133E+00 6.39807E-01-1.00464E-01 1.24434E-01-2.93004E-01 1.82663E+00
 -1      2724 7.59242E+00 7.25822E+00 3.08544E+00-2.13716E-01 1.07769E+00-9.75574E-01
 -1      2725-1.55381E+00-1.72292E+00-1.74270E-01 1.05303E-01 1.72216E+00-2.45017E-01
 -1      2726 5.54193E+00 4.06464E+00-2.95215E-01-1.25777E-01-1.99925E+00 2.97757E-01
 -1      2727 3.57788E+00 6.02877E+00 8.43074E-01 2.80908E-01 1.29000E+00-3.72290E-01
 -1      2728-2.92076E+00-1.32573E+00 1.55022E+00-2.53230E+00 1.05842E+00 1.67805E+00
 -1      2729 7.26717E-01 1.05673E+00-1.88436E+00-7.17277E-02 4.85658E-01 9.91723E-01
 -1      2730 3.33277E+00 1.96904E+00-7.00146E-01 8.64789E-01 1.66123E+00 1.49481E+00
 -1      2731 1.85329E+01 1.83487E+01-1.14409E+00-3.04581E+00 1.89346E+00-2.62358E+00
 -1      2732 7.50525E+00 1.28350E+01-1.61021E+00 5.10949E-02 1.54669E+00-2.81356E+00
 -1      2733 4.14573E+00 5.99144E+00 5.12149E-02-1.02563E-02 1.39313E+00 9.45163E-01
 -1      2734 1.94345E+00-4.79892E-02-1.36386E+00 1.22293E+00 6.63288E-01-3.33024E+00
 -1      2735 4.62656E+00 3.25303E+00 2.78414E+00 1.70734E-01-1.32869E+00-1.88645E-01
 -1      2736-2.13574E+00-1.89187E+00-9.17811E-01-1.90460E+00-1.90180E+00-1.91753E+00
 -1      2737 1.41401E-01-2.67582E+00 1.68132E+00 2.37003E-01 1.35982E+00-8.14666E-01
 -1      2738 2.27534E+00 2.17287E+00 8.99638E-01-4.69521E-01-9.23414E-01-4.87656E-01
 -1      2739-2.35011E+00-3.11482E+00-1.94844E+00-1.29266E+00-1.45439E+00-3.18763E+00
 -1      2740 3.47339E+00 1.52584E+00-1.91526E+00 2.29227E-01-1.27370E+00 2.39121E-01
 -1      2741 1.29183E+00-3.48267E-01 4.73912E-02-9.58303E-02-1.07582E+00 4.11466E-01
 -1      2742 1.29187E+00-1.66546E+00 4.86952E-01-2.63466E-01-1.58370E+00-1.00036E+00
 -1      2743-1.27662E+00-2.15639E+00-1.43504E+00-1.53528E+00-9.63256E-01-1.61497E+00
 -1      2744-4.20506E+00-1.00286E+00-9.63693E-01 1.47836E+00-2.20121E-01 5.55429E-01
 -1      2745 3.16736E-01 1.53621E+00 1.50453E+00-1.16724E+00 9.62644E-01 1.69589E+00
 -1      2746-1.28896E+00-3.77993E-01 9.25252E-01 1.46962E+00 9.48583E-01 1.87383E+00
 -1      2747-6.60753E-01 1.80666E-01 7.40060E-02 1.70651E+00 1.00420E+00-8.60839E-01
 -1      2748-1.28224E+00-5.11069E-01-1.40274E+00-2.94701E+00 1.82381E+00 2.98506E+00
 -1      2749-1.11700E+00-5.46372E-01 1.27140E+00-1.56188E+00 1.08859E+00 1.18851E+00
 -1      2750 9.64009E-01 4.38973E+00-1.28137E+00 1.04262E+00-9.23072E-01 5.24683E-01
 -1      2751 2.61631E+00 3.85965E+00 9.48248E-01-8.65510E-01-3.41900E-01-1.37273E-01
 -1      2752 3.43060E-01-6.58576E+00 6.05214E-01-1.74263E-01-1.78695E+00-2.09222E+00
 -1      2753 4.71694E+00 3.30646E+00-7.27911E-01 2.46505E-01-8.12878E-01-5.62675E-03
 -1      2754-3.33701E-01 2.62125E-02 8.71245E-01-1.27093E+00 2.05643E+00 2.87156E+00
 -1      2755-1.35231E+00 1.88114E+00-1.97776E+00-2.22271E+00 2.11711E+00 2.26075E+00
 -1      2756 2.22106E+00 2.96691E+00-2.90568E-01-1.82934E+00 1.45194E+00-1.07896E+00
 -1      2757-3.02550E-01 3.51783E-01 1.12812E+00-9.48031E-01-9.28112E-03-1.03595E+00
 -1      2758-1.18615E+00-4.24137E+00 3.69967E-01-1.98402E+00-1.70377E+00-2.31326E+00
 -1      2759-3.72219E+00 1.35119E+00 5.00046E-01-7.49236E-02-1.07725E+00-1.92147E+00
 -1      2760 4.05690E+00 3.72841E+00 1.08981E+00 1.05803E+00-1.03795E+00 8.83808E-01
 -1      2761 2.03519E+00-1.28018E+00 1.05957E+00-1.01875E-01 1.44790E+00-3.57664E-01
 -1      2762 1.34018E+01 1.23628E+01 4.59071E-01 9.48609E-01-7.09492E-02-3.11728E+00
 -1      2763-2.35888E+00-1.67262E+00 4.44920E-01-1.18444E-01 3.51853E-01-3.71480E-01
 -1      2764 1.94142E+00 7.71765E-01 4.52253E-02 1.18643E-01-1.18568E+00 1.74173E-01
 -1      2765-3.23054E+00-2.53904E+00-1.59511E-01 4.72266E-01-1.07927E+00-1.03897E+00
 -1      2766 5.65326E+00 2.67191E+00-1.14088E+00-2.69060E-01-8.89628E-01 3.34971E-01
 -1      2767 1.49119E+00-4.07359E-01 2.80633E-01 1.05323E+00-1.73185E+00 4.02443E-01
 -1      2768-7.01658E+00-3.91790E+00 1.71695E+00 3.68394E+00-2.37201E+00 1.28849E+00
 -1      2769 4.98099E+00 5.91490E+00 1.90232E+00-1.96033E-02-1.07148E+00-1.95652E+00
 -1      2770-7.35640E+00-1.70265E+00-1.65387E+00-1.51803E-01 4.19159E-01-1.54669E+00
 -1      2771-6.32164E+00-4.29826E-01-2.21382E+00-5.90007E-01-1.90314E-01-2.92184E+00
 -1      2772-7.87702E-01-1.16200E+00 2.33797E-01-1.48326E+00-6.46181E-01 3.47261E-01
 -1      2773-2.22907E+00-3.68779E+00-3.21212E-02 6.95525E-02 3.52763E-01 1.20350E+00
 -1      2774-1.29307E+01-8.66444E+00-2.49054E+00 7.20764E-01-8.08381E-02 1.85105E+00
 -1      2775 4.19891E-01 2.46996E+00-2.34328E+00 1.81712E+00-2.56828E-01 9.67683E-01
 -1      2776-4.12654E+00 2.54115E-02-2.44110E+00 5.24263E-01 1.51842E+00 1.98704E+00
 -1      2777 7.63512E+00 5.39336E+00 1.35585E+00 1.10399E+00-1.57590E+00 2.23856E-01
 -1      2778 1.82253E+00 1.37987E+00 2.62060E-01-1.23304E+00 9.03475E-01 1.09820E+00
 -1      2779-2.38038E+00 9.29736E-01 6.66620E-01-1.16216E+00 2.30621E-01 1.71903E+00
 -1      2780 3.26804E+00 3.28349E+00 9.41478E-01-2.65984E+00-6.71979E-01 2.85328E-01
 -1      2781 2.40355E+00 2.33740E+00-2.40690E-01-2.85777E-01-1.71234E-01-3.04158E-01
 -1      2782-1.37737E+00-3.15153E+00 1.41309E-03-4.53324E-02-7.39358E-01-1.97199E+00
 -1      2783 2.67294E+00 2.73406E+00 8.30269E-01-1.41779E+00-2.36199E+00-2.10152E-03
 -1      2784 1.29791E+00 2.01621E+00 2.24531E-01-1.31213E+00 2.41890E-01 6.55441E-01
 -1      2785 2.54632E+00 3.33326E+00-2.18562E+00 2.12738E+00-1.29913E+00-1.78357E-01
 -1      2786 1.75813E+00-4.27301E-01-4.75409E-01-2.34751E+00-1.02805E+00-1.13223E+00
 -1      2787 3.42015E+00 1.55690E+00-8.19915E-01 1.48159E+00-2.40189E-01 1.24251E+00
 -1      2788-3.72495E+00-4.25359E+00 4.81070E-03 1.34434E+00-8.37853E-01-5.17690E-01
 -1      2789 7.91941E-01-1.12740E+00 3.13703E-01 1.30197E+00 1.11393E+00-7.52490E-01
 -1      2790-2.23922E+00-3.25850E+00-4.60596E-01-6.59749E-01 5.02753E-01 1.41469E+00
 -1      2791-2.71364E+00-3.58630E+00 2.26347E-01 4.55601E-01-9.50106E-01-8.82597E-01
 -1      2792-7.53344E-01-4.83543E+00-4.24274E-02-2.05507E+00-1.87074E+00-4.66913E-01
 -1      2793 7.01760E-01 2.00745E+00 2.55810E-01 1.06036E+00-9.23211E-01 1.35446E+00
 -1      2794 4.51066E+00 5.08836E-01 9.24198E-01-4.78874E-01-7.27297E-02 4.42321E+00
 -1      2795 4.33274E+00 1.80334E+00 1.05621E+00-1.17561E-01 1.26896E+00 2.64477E+00
 -1      2796-2.51946E+00-2.24060E+00-5.69653E-01-8.54700E-01-2.10701E+00 7.67988E-01
 -1      2797-6.26049E+00-5.57157E+00 3.08144E-01-2.65811E+00-4.53956E-01 1.49048E-01
 -1      2798-6.08747E-01 7.21039E-01-6.78717E-01 9.91013E-02-7.48497E-01 1.18328E+00
 -1      2799 3.62567E+00 1.73907E+00 4.07677E-01 1.19059E+00 1.50730E+00 2.40608E-01
 -1      2800-3.45836E+00 1.36132E+00-4.61272E+00-6.58667E-01 2.61426E+00-2.52024E+00
 -1      2801 4.02417E+00 4.82239E+00-1.54831E+00 1.35426E+00 2.06599E-01-5.51305E-01
 -1      2802-1.06842E-01-9.34033E-01 5.07138E-01 4.60950E-01-2.28550E+00-1.03327E+00
 -1      2803 5.54776E+00 6.74448E+00-1.98037E+00-3.54796E+00 3.06969E-01-3.00406E-01
 -1      2804 5.27761E+00 3.42625E+00-1.07921E+00 2.35141E+00 1.24328E+00-1.35302E-01
 -1      2805-2.84970E+00-3.39891E+00-1.45307E-01 1.08488E+00 1.46521E+00 1.03600E+00
 -1      2806 2.22462E+00 7.61097E-01-1.60667E+00 3.27456E-01 2.44200E+00 3.31735E+00
 -1      2807 2.38415E+00 2.38678E+00-1.73544E+00 9.91296E-01-7.28742E-01 1.37213E+00
 -1      2808 4.73155E+00 6.53496E+00 8.66065E-01-5.66418E-01-5.41442E-01-1.63576E+00
 -1      2809-1.49931E+00-3.47171E+00-1.39097E+00-1.09179E+00-2.31908E+00 2.31720E-01
 -1      2810 5.45829E+00 4.67179E+00-9.34764E-01-1.14084E+00 1.42025E+00-8.36884E-01
 -1      2811 6.34476E-01-5.03851E+00-5.82115E-01-1.20727E+00-3.03046E+00 4.09954E-01
 -1      2812-5.10433E-01 3.10978E+00-1.27067E-01-1.29816E+00 5.59434E-01 9.11786E-01
 -1      2813 1.62232E+00 2.26962E+00-1.03601E+00-9.20114E-01-7.12043E-01-4.47345E-01
 -1      2814 3.93561E+00 1.52708E+00 6.84450E-01 1.13588E+00-1.06557E+00-3.11018E-02
 -1      2815 8.78782E-02 5.62824E-01-8.44594E-01-2.37495E+00-8.47141E-01-1.81184E+00
 -1      2816-7.23026E+00-7.51315E+00-5.41455E-01-5.29051E+00 2.52252E+00 2.51153E+00
 -1      2817-1.38224E-01-4.66941E-01 1.07738E+00 1.84340E+00-1.18245E+00 2.11910E+00
 -1      2818-1.54884E+00-1.29497E+00-1.06846E+00 1.83823E-01-1.84381E+00-9.06644E-01
 -1      2819 1.80456E+00 6.05785E+00-7.52383E-01 1.23082E+00-1.02010E+00-1.34734E+00
 -1      2820 4.85776E+00 5.06508E+00 1.70783E+00-1.59855E+00 1.83822E+00-3.07758E+00
 -1      2821 2.02463E+00-5.72622E-01 8.71244E-02 1.46350E+00-1.24211E+00 1.18157E+00
 -1      2822 8.66519E+00 1.04640E+01 6.57089E-01-9.00035E-01 4.20973E+00-1.71866E+00
 -1      2823 3.67736E-01 2.76200E+00 5.83811E-01-5.87929E-01 7.52440E-01 6.43718E-01
 -1      2824-2.85263E-01 1.25173E+00-2.43166E+00-1.06955E+00-9.29779E-01-1.91602E+00
 -1      2825-1.14089E+00-2.02036E+00-4.21181E+00-1.50966E+00 5.43254E-01-5.85905E-01
 -1      2826 7.54306E-01-5.31335E-02 2.18868E-01 2.76492E-01 1.45695E+00 2.20166E+00
 -1      2827 4.48821E-01 8.30681E-02 1.01227E+00 7.30685E-01 1.04354E-01-1.47924E+00
 -1      2828-1.24015E+00-8.16962E-01 1.01928E-01-6.42722E-01 2.89655E-01 2.15939E+00
 -1      2829-2.83469E+00-5.78691E+00 9.04908E-02-6.42336E-01 8.23467E-01-1.46597E+00
 -1      2830 2.89117E+00 7.80518E-01-5.94514E-01-2.50589E+00 1.22067E+00 1.38270E+00
 -1      2831 3.32223E+00-2.25406E-02-1.45848E-01-6.37360E-01 1.16272E+00-2.66172E-01
 -1      2832 1.56401E+00-1.87257E+00 1.04570E+00-2.29151E+00 1.48494E+00-1.33907E-02
 -1      2833 1.84251E+00-1.43184E-01-8.04154E-01 8.33640E-01-9.61977E-01-1.46752E+00
 -1      2834-4.89321E+00-7.10614E+00 1.57061E+00 1.49589E+00-1.15603E+00 1.11107E+00
 -1      2835-4.46967E+00-7.39133E+00-4.71083E-01 1.39509E+00 2.12791E+00-7.73526E-01
 -1      2836-3.71653E+00-1.98291E+00-5.41970E-02-2.69555E+00-1.74225E+00-1.56224E+00
 -1      2837-1.16105E+00 1.21418E+00-4.76094E-01-1.71854E+00-7.18345E-01-1.66869E+00
 -1      2838 7.14118E-01 9.23305E-01 9.55394E-01 1.55933E+00 1.51379E+00-3.02237E-01
 -1      2839-1.95834E+00-1.53884E+00-5.68105E-01-1.83039E-01 2.02450E+00 1.66415E-01
 -1      2840 3.08772E+00 3.35514E+00-8.53572E-01 1.45890E+00 1.07303E+00-3.55572E-01
 -1      2841-3.44175E+00-1.40418E+00-1.63633E+00-1.38250E+00 1.02916E+00 2.39795E+00
 -1      2842 1.35706E-01 1.04453E+00 1.12566E+00 1.39015E+00 4.22872E-01-5.66436E-01
 -1      2843 4.39962E+00 3.82098E+00 3.06060E-01 5.11914E-01-7.64492E-01-1.05970E-01
 -1      2844 6.90039E+00 5.70761E+00-8.59658E-01-2.53978E+00 7.14730E-01-2.37363E+00
 -1      2845 9.03901E+00 3.45721E+00-1.24379E+00 3.51237E-01-6.28576E-01-1.14362E+00
 -1      2846-1.87183E+00-1.52106E+00-4.48546E-01 6.35097E-01 4.94112E-01 2.03425E+00
 -1      2847 3.49080E+00 3.79247E+00 1.17444E+00 5.46950E-01-1.49193E+00 1.51622E+00
 -1      2848-6.23558E-01-5.34214E-01 1.42267E+00 1.61005E+00 9.07465E-01-8.90885E-01
 -1      2849 7.22105E+00 7.18931E+00 3.87040E+00 1.26251E+00-2.97383E+00 3.34808E-01
 -1      2850 7.01968E+00 6.15516E+00 3.80549E-01 8.27440E-01 3.69483E-01-3.24601E+00
 -1      2851 4.70046E+00 8.97179E-01-1.10974E+00-7.51822E-01-8.81598E-01-6.06766E-01
 -1      2852-4.08505E+00-2.60051E+00-1.72796E+00 1.57873E-01-1.30923E+00 6.37316E-01
 -1      2853 8.15070E-01 1.15443E-01 1.45167E+00-1.16299E+00-1.12056E+00-1.17361E+00
 -1      2854 2.92595E+00 4.08826E+00 1.01891E+00 7.66827E-01-7.30041E-01-5.98413E-01
 -1      2855-2.20125E+00-2.77033E+00 4.46772E-03 3.13029E-01-2.92306E-01 1.34178E+00
 -1      2856 5.40940E+00 3.43105E+00-2.30483E+00 1.15365E+00-8.46119E-01-1.62529E-01
 -1      2857 1.23656E-02 4.07832E+00 9.04654E-01-1.45630E+00 7.14261E-01 1.26091E+00
 -1      2858-3.15812E+00-2.33604E-01-4.86525E-01-7.22413E-01-8.36449E-02 2.78588E+00
 -1      2859-1.38903E+00-2.32973E+00-1.32128E+00 2.27932E-01-1.20311E+00-3.12035E-02
 -1      2860-1.74975E+00-1.67717E+00 3.95114E-02-3.19358E-01 1.78938E-01 1.14646E+00
 -1      2861-6.21820E-01-1.47763E+00-1.65313E+00-1.96495E-01-1.28291E+00-2.40624E+00
 -1      2862 3.83515E+00 4.80418E+00-1.05667E+00-1.36424E+00-1.08036E+00 1.31998E+00
 -1      2863-4.84506E-01 1.16657E+00 2.22785E-01-6.56886E-01-3.96442E+00-7.53141E-01
 -1      2864 5.11818E+00 6.22673E+00 1.40044E+00-2.18722E+00-6.24744E-01-5.56121E-01
 -1      2865-1.47848E+00-1.74554E+00-9.03888E-01 6.81858E-01-1.87101E+00-1.56775E+00
 -1      2866 7.29882E-01 4.46285E+00 9.99224E-02-1.20671E+00 4.61079E-01 7.89510E-01
 -1      2867-3.97506E+00-3.19653E+00 1.43263E+00-3.28957E+00 1.61779E+00 4.07413E+00
 -1      2868-5.19137E+00-6.20303E+00-5.55392E+00-2.11687E+00 1.29816E+00 1.79616E+00
 -1      2869 4.23258E+00 6.10425E+00 2.56385E+00-3.82376E-01-1.19716E+00-1.21550E+00
 -1      2870 7.23530E-02-2.89494E+00-2.56451E-01-3.23855E-02 2.52669E-01 7.74440E-01
 -1      2871 2.52657E-01-6.47396E-01 4.87712E-01 6.47563E-01-1.41321E+00 8.00696E-01
 -1      2872-2.95617E+00-3.40022E+00 1.57692E-01 4.53624E-01 1.34949E-01 3.81805E-01
 -1      2873-2.78289E+00 2.28799E-01-4.51304E-01-9.49566E-01-3.44430E-02 2.29682E+00
 -1      2874-4.84312E+00-5.20777E+00 7.35396E-01-2.05309E+00-1.26457E+00 7.46834E-01
 -1      2875-7.81035E-01-1.70933E+00-4.34304E-01-1.61174E-01-7.56644E-01 3.24389E+00
 -1      2876-5.47568E+00 3.70751E-01 2.14333E-01-2.45799E-01-6.23126E-02 4.01379E+00
 -1      2877-1.19413E+01-1.51499E+01-1.12494E+00 2.59385E+00 8.59518E-01-3.42864E-01
 -1      2878-1.17849E+00 3.92573E+00 1.07484E+00-4.18818E-01-2.67154E-01-1.05751E-01
 -1      2879 1.11204E+01 1.44893E+01 3.84833E+00 1.78553E+00-3.08174E+00-5.19590E-02
 -1      2880-8.93982E+00-8.08468E+00-5.17928E+00 1.09991E+00 1.14570E+00-9.75834E-01
 -1      2881 1.30891E+01 1.24041E+01-3.92980E-01 1.09102E+00 4.52988E+00 1.21322E-01
 -1      2882 2.03171E+01 1.75169E+01 8.03552E-01 1.40718E+00 9.67536E-01-3.13306E+00
 -1      2883-1.54562E+01-1.19855E+01-2.41263E+00 5.36942E-01-1.05331E+00 1.59388E-01
 -1      2884 1.11384E+01 6.62744E+00 9.01792E-01 4.43072E-01-1.21489E+00 1.34817E+00
 -1      2885 9.78842E+00 8.09029E+00 7.89776E-02-1.22067E+00-2.63165E+00-5.08856E-01
 -1      2886 6.75463E+00 4.57461E+00 1.89505E+00 1.06866E+00-1.10066E+00 6.17213E-01
 -1      2887 7.69862E+00 7.85503E+00 7.77573E-01 1.58772E+00 7.51131E-01 4.09748E-02
 -1      2888 1.67733E+01 2.03779E+01 2.14350E+00 1.32646E+00 2.73498E+00 1.87469E+00
 -1      2889 5.51333E+00 1.59766E+00 1.96834E+00 8.30175E-01-1.01381E+00-5.99612E-02
 -1      2890-7.67934E+00-1.54068E+01-2.73573E+00 1.72904E+00-1.58911E+00 4.58684E-02
 -1      2891 2.51264E+01 2.39452E+01-1.09615E+00-1.13193E+00-1.83604E-01-4.01795E+00
 -1      2892 9.16763E+00 1.03455E+01-1.07624E+00-3.30668E+00-4.27679E+00-1.07371E+00
 -1      2893 1.45231E+01 1.41407E+01-6.10981E-01 3.90581E+00-1.54500E+00-2.43193E+00
 -1      2894-1.18549E+01-9.64476E+00-5.30781E+00-7.83729E-01 8.93409E-01-1.58480E+00
 -1      2895 6.19648E+00 7.08162E+00 1.50345E+00 4.27087E-01 3.77122E-02 1.66494E+00
 -1      2896 8.56587E+00 1.13379E+01 7.86411E-01 2.08014E-01 2.21400E+00 2.21604E+00
 -1      2897-8.90639E+00-1.11559E+01-3.31661E+00-1.20106E-01-1.33440E+00 5.71595E-01
 -1      2898 1.29754E+01 6.62104E+00 2.65995E+00-6.71330E-01-8.27343E-01-2.52204E+00
 -1      2899-5.17050E+00-6.84345E+00-2.66300E+00 2.12900E+00 3.09063E-01 4.77911E-01
 -1      2900 1.75196E+01 1.75646E+01-7.62456E-01-1.35090E+00-1.92938E+00 2.97450E+00
 -1      2901 1.61051E+01 1.22630E+01 3.86054E+00 3.06227E-01 1.45599E+00-2.49268E+00
 -1      2902-1.50428E+01-1.42363E+01-4.15559E+00 1.83054E+00-1.74994E+00 7.00371E-01
 -1      2903 2.30877E+01 2.35879E+01 1.25521E-01 3.98599E-01 2.95646E+00-1.63540E+00
 -1      2904 8.98534E+00 9.26237E+00 1.41800E+00 9.52080E-01-1.67494E+00 3.42382E-01
 -1      2905 1.96424E+01 1.43387E+01 4.06950E-02 1.29860E+00-5.22500E-01 2.66909E+00
 -1      2906-1.69062E+01-1.87969E+01-5.07494E+00 1.37690E+00-7.54811E-01 1.99087E+00
 -1      2907 1.83257E+01 2.40678E+01-5.15298E-01-2.25165E+00-4.65010E+00 2.99672E+00
 -1      2908 1.07935E+01 9.23918E+00 8.85554E-01 2.71745E+00 5.68626E-01 3.14312E-01
 -1      2909 6.84775E+00 1.09554E+01 5.49636E-01 8.29071E-01 4.33447E+00-6.14341E-01
 -1      2910 1.70823E+01 1.76238E+01 6.29407E-01-1.05065E+00-2.69754E+00 1.04242E+00
 -1      2911 1.20386E+01 9.50468E+00-4.86785E-01-6.57738E-01 2.44663E+00-2.73390E+00
 -1      2912-1.44313E+01-1.00486E+01-2.98600E+00-3.33551E-01 2.93329E-01 3.46921E-01
 -1      2913 1.74779E+01 2.01042E+01 9.79304E-01 3.58480E+00 5.49345E-01-3.08018E-01
 -1      2914-1.45072E+01-1.57437E+01-4.36887E+00-1.28359E+00 6.18229E-02 2.03582E-01
 -1      2915 1.31707E+01 1.56141E+01 3.42638E+00 1.66748E+00 1.51507E+00 2.27213E+00
 -1      2916-7.80928E+00-8.74158E+00-3.82214E+00 1.11443E+00-7.69735E-01 1.61026E+00
 -1      2917-2.49725E+01-2.90724E+01-4.55884E+00-6.66624E-02-3.39123E+00 9.01343E-01
 -1      2918 1.39885E+01 2.00623E+01 4.00422E+00 1.24723E+00 4.04061E+00-2.97054E+00
 -1      2919 1.72931E+01 1.60353E+01-1.42042E+00-3.86380E-01-2.75543E+00-1.56969E+00
 -1      2920 6.56067E+00 7.92814E+00 1.63911E+00-4.36469E-01 3.20892E+00-2.60660E+00
 -1      2921-1.69191E+01-1.87704E+01-3.27264E+00 2.40776E+00-1.59702E-01-3.04146E-01
 -1      2922 1.55590E+01 1.35330E+01 1.00522E+00-1.54530E+00 8.17786E-02 2.39083E+00
 -1      2923-1.73323E+01-1.69962E+01-5.67187E+00 4.11301E+00 6.50522E-02 7.95795E-01
 -1      2924 5.79687E+00 5.94352E+00-2.13634E+00 1.88706E+00-3.22145E+00-2.25741E+00
 -1      2925 2.12516E+01 2.63187E+01-1.36926E+00 1.27792E+00 3.36089E+00-1.60658E+00
 -1      2926 2.73894E+01 2.55494E+01-2.36684E+00 3.40804E+00 1.28090E+00-3.33763E+00
 -1      2927 1.80755E+01 1.80677E+01-2.55426E+00-1.02428E-01 2.29702E+00 1.82789E+00
 -1      2928-9.84095E+00-9.70122E+00-3.76047E+00-1.17837E+00-5.78088E-01 1.04782E+00
 -1      2929-2.67242E+01-2.56722E+01-4.65450E+00-1.36885E+00-1.98961E+00 3.12801E-01
 -1      2930 1.74014E+01 1.40767E+01-2.83830E+00-1.05676E-01-5.31491E-01 2.43836E+00
 -1      2931-1.79828E+01-1.72682E+01-1.82413E+00 1.97761E+00 2.44057E-01 8.76670E-01
 -1      2932 1.80421E+01 1.36536E+01-8.17327E-01 6.47639E-01-1.12119E+00 2.50205E+00
 -1      2933 5.67045E+00 4.10584E+00-3.93322E+00-2.87042E-01-4.31496E-01 2.99104E+00
 -1      2934 2.25752E+01 1.85229E+01-1.88206E+00-7.51401E-01-1.11197E+00 2.25676E+00
 -1      2935 2.36626E+01 2.44217E+01 9.92452E-01-4.28490E-01 1.91627E+00-2.26319E+00
 -1      2936-2.23797E+01-2.01066E+01-1.80350E+00 1.22799E-01 2.78991E+00 1.97787E+00
 -1      2937-1.77917E+01-1.69182E+01-7.42097E+00-1.24307E+00 1.15316E+00-4.80442E-01
 -1      2938 2.35170E+00 3.24704E+00 1.43139E+00 9.95197E-01-1.01900E+00 3.17452E-01
 -1      2939-1.98939E+01-2.17059E+01-9.26179E+00-1.19377E+00 9.86906E-01 9.82453E-01
 -1      2940-1.92108E+01-1.89694E+01-1.30191E+00 3.16481E+00-5.59648E-01 1.85069E+00
 -1      2941-2.11142E+01-2.28760E+01-3.24077E+00-1.28924E+00-8.17260E-01-1.65567E+00
 -1      2942-1.32566E+01-1.23608E+01-2.27247E+00 3.30222E-02-1.31741E-01 1.20643E+00
 -1      2943 2.32472E+01 1.82333E+01 2.98219E+00-2.51829E+00-1.60957E+00-1.48638E+00
 -1      2944 1.67965E+01 1.41924E+01 3.44767E+00 6.05331E-01-1.25702E+00-1.02799E+00
 -1      2945-1.60765E+01-1.53049E+01-4.62179E+00 1.77159E-01-7.44957E-01 1.44222E+00
 -1      2946-3.09407E+01-3.05358E+01-5.40687E+00 7.35428E-02 2.37637E+00-1.39072E+00
 -1      2947 4.96487E+00 6.61527E+00 2.22629E+00-8.45683E-01 1.92940E+00-1.74245E+00
 -1      2948-3.04086E+00-3.27846E+00-4.47039E-01 8.48684E-02 1.78802E+00 2.00302E-01
 -1      2949 1.01366E+01 1.39269E+01 5.05830E+00 5.39154E-01-4.49584E+00-1.66987E+00
 -1      2950 1.25386E+01 9.57001E+00 2.78766E+00-5.62192E-02 2.82258E+00-2.58296E+00
 -1      2951-1.84836E+01-1.49470E+01-4.25064E+00 1.38581E+00-1.04429E+00 1.42873E+00
 -1      2952-2.34097E+01-2.66572E+01-1.66275E+00 2.31886E+00 1.15303E+00 3.08300E+00
 -1      2953 2.30091E+01 2.32105E+01-4.06122E+00-1.80527E+00 2.90085E+00 9.88402E-01
 -1      2954 1.54440E+01 1.68461E+01 1.76326E+00-2.27237E+00-2.15301E+00 1.25877E+00
 -1      2955-3.55918E+01-2.85183E+01-3.82398E+00-1.77547E+00-3.24832E+00-3.28816E+00
 -1      2956 1.88270E+01 1.75939E+01-8.16672E-01-3.00675E+00 1.06271E+00-1.24949E-01
 -1      2957-2.52544E+01-2.47263E+01-3.63568E+00 3.11580E-01 1.51866E+00-5.78244E-01
 -1      2958 1.03168E+01 7.24777E+00 1.59667E+00 2.74415E-03-3.02990E+00-2.06210E+00
 -1      2959-1.53166E+01-1.99870E+01-6.33474E+00 2.00438E+00-1.14801E+00-1.80853E+00
 -1      2960 1.90036E+01 1.11473E+01 1.50707E+00 8.10740E-02 4.89148E-01-3.54563E+00
 -1      2961-1.41542E+01-1.47116E+01-4.23061E+00 2.22597E+00-1.10279E+00-1.12916E-01
 -1      2962-2.72052E+00-2.81172E+00-5.21891E-02 2.15361E-01 8.42298E-01 1.49278E+00
 -1      2963-2.31607E+00-2.62044E+00-3.35820E+00 5.86244E-01 6.57543E-01 2.97229E+00
 -1      2964-2.83741E+01-2.92997E+01-8.27844E+00-4.84900E-02-8.59774E-01 5.20910E+00
 -1      2965-2.53485E+00-2.58369E+00-8.23512E-01 1.71980E-01-1.83772E-01 2.56202E+00
 -1      2966-4.57214E+00-2.92193E+00-3.29935E-01-7.75231E-01 2.13568E+00-3.92874E-01
 -1      2967-3.71545E+01-3.94959E+01-1.29563E+01-1.12671E+00-4.45388E-01 1.40708E+00
 -1      2968-3.28155E+00-3.87215E+00-2.95008E-01-5.06956E-01-4.63794E-01 2.28374E+00
 -1      2969-2.80613E+01-2.61398E+01-8.69521E+00 2.62220E+00 6.65333E-01-1.56252E+00
 -1      2970 1.56578E+01 1.45984E+01 5.15642E+00 4.02260E-01 1.64169E+00 2.69510E+00
 -1      2971-3.09666E+00-2.88800E+00-2.74192E-01-2.60964E-01 8.19275E-01-1.55388E+00
 -1      2972-2.23452E+00-2.68664E+00-3.17999E+00-5.84068E-01 2.09288E+00-1.89255E+00
 -1      2973-2.46523E+00-2.71601E+00-1.70585E-01 1.59622E-01-4.35206E-01-1.46690E+00
 -1      2974-1.53240E+00-2.87377E+00-3.71624E+00 4.01230E-01-1.27136E+00-2.73588E+00
 -1      2975-2.34150E+00-3.83046E+00-1.35858E-02 3.33522E-01 1.96405E+00 7.27586E-01
 -1      2976-4.36474E+00-5.26281E+00-1.42063E+00 7.10073E-01 2.30054E+00 2.38751E+00
 -1      2977 1.63327E+01 1.19739E+01 1.64035E+00-2.24099E+00 1.74067E+00-3.36756E+00
 -1      2978-1.57541E+01-1.78607E+01-6.47406E+00-1.23131E+00 1.93437E+00-1.50583E+00
 -1      2979 1.09638E+01 1.65457E+01 3.92141E+00-2.10673E+00-2.20286E+00 2.86894E+00
 -1      2980 1.77159E+01 1.98955E+01 3.42226E+00-1.34239E-01 3.86899E+00-4.61835E-01
 -1      2981-8.19114E+00-9.84093E+00-5.20305E+00 2.77547E-02-5.83326E-01 5.61762E+00
 -1      2982 1.01027E+01 1.37392E+01 8.42646E-02-1.33077E+00 2.25458E+00-1.70104E+00
 -1      2983-3.62884E+00-2.39104E+00-3.10158E+00 7.21851E-01 2.72956E+00 9.47722E-01
 -1      2984-7.98015E+00-7.59248E+00-3.61628E+00-2.46234E+00 8.74221E-03-3.59727E-01
 -1      2985-3.13100E+00-2.15106E+00-2.99023E+00-7.08630E-01 2.45029E+00-1.01794E+00
 -1      2986-2.92509E+01-2.26898E+01-6.30669E+00-1.25880E+00 1.15943E+00-4.22605E-01
 -1      2987-3.19132E+00-3.67793E+00-5.64902E-03-1.65703E-02 9.86371E-01-1.56743E+00
 -1      2988-2.09369E+00-2.73711E+00-2.28464E+00 4.05984E-01-2.74467E+00 3.99408E-01
 -1      2989-2.29440E+00-2.37159E+00-4.10453E+00-6.87149E-01-2.59802E+00 1.98757E+00
 -1      2990-3.22805E+01-3.44036E+01-1.05528E+01 7.40333E-01 1.28567E-01-4.65064E+00
 -1      2991-2.63264E+00-2.37237E+00 3.85274E-03-1.69783E-01-1.54552E+00 2.40957E-01
 -1      2992-2.87596E+00-1.66891E+00-3.69794E+00-2.82006E-01-2.97856E+00-4.77185E-01
 -1      2993-3.41438E+01-3.67062E+01-8.53020E+00-2.36571E+00-3.45161E+00-1.00295E+00
 -1      2994 1.00966E+01 8.60101E+00-4.51141E-01-5.62227E-01-3.20954E+00 3.25930E+00
 -1      2995-3.51790E+00-3.01580E+00-1.38177E-01-1.24809E-01-1.47352E+00-1.09781E+00
 -1      2996-2.70562E+01-2.18589E+01-7.58362E+00-3.95868E+00 5.95765E-02-4.25422E-02
 -1      2997-1.99958E+01-2.35064E+01-7.68074E+00 1.96158E+00-1.69028E+00-1.44042E+00
 -1      2998-2.78597E+00-1.91598E+00-2.15301E+00-2.86842E-01-2.24608E-01-2.53518E+00
 -1      2999 1.02558E+01 9.62428E+00 1.96584E+00 9.00439E-02-2.37819E-01 2.80331E+00
 -1      3000-2.49856E+01-2.45080E+01-3.18408E+00 1.48641E-01 1.55070E+00-8.84293E-02
 -1      3001-3.71934E+00-3.35409E+00-7.61800E-01 2.48722E-01-1.05830E+00 2.36918E+00
 -1      3002-3.15826E+01-3.57703E+01-5.61622E+00 8.02407E-01-6.94729E+00 6.63115E-01
 -1      3003-3.02760E+00-2.25778E+00-3.25616E+00 9.09770E-01-2.77225E+00-6.56899E-01
 -1      3004-4.08039E+00-3.13392E+00-5.03062E-01-7.06170E-01-2.42637E+00-1.86034E-01
 -1      3005-8.84577E+00-7.41736E+00-3.92878E+00 8.37148E-01 3.55469E+00 2.15818E+00
 -1      3006-2.91014E+00-2.26862E+00-7.02688E-01 2.76924E-01 1.43120E+00-1.49124E+00
 -1      3007-6.69159E+00-6.70504E+00-3.22396E+00 8.62079E-01 2.53774E+00 3.33625E+00
 -1      3008-3.57215E+01-3.59372E+01-1.17868E+01-2.25240E+00 2.89472E+00-2.73819E+00
 -1      3009-3.38126E+01-3.75317E+01-1.10208E+01 1.23798E+00-2.66812E+00 1.69088E+00
 -1      3010-2.66717E+00-3.08715E+00-2.03388E+00-2.71549E-01-2.34157E+00-1.24084E+00
 -1      3011-5.28361E+00-4.50250E+00-3.28026E+00 2.73626E-01-3.12235E+00 9.34925E-01
 -1      3012-9.77178E+00-8.88316E+00-4.68255E+00 5.19422E-01-2.75248E+00-1.96848E+00
 -1      3013-1.03489E+01-7.15099E+00-3.07861E+00-7.84035E-01 3.74202E+00 6.09419E-01
 -1      3014-9.05498E+00-8.21709E+00-5.59614E+00-2.66382E-01-3.65037E+00 6.91747E-01
 -1      3015-1.86561E+00-2.68491E+00-3.16537E+00-5.59236E-01-1.07222E+00 2.42244E+00
 -1      3016-3.71751E+00-3.10426E+00-3.39126E+00 5.64946E-01 2.28530E+00 1.80666E+00
 -1      3017-2.60178E+00-2.81822E+00-6.22619E-01-1.39746E-01-1.76999E+00-1.86733E+00
 -1      3018-9.96176E+00-1.13320E+01-4.35330E+00 7.74629E-01-2.03192E+00-1.99373E+00
 -1      3019-2.11321E+00-2.09419E+00-5.22575E-01 4.04714E-01-1.53814E+00 1.40580E+00
 -1      3020-4.26187E+01-3.60442E+01-1.20637E+01 9.59939E-01-1.58281E+00-1.51050E+00
 -1      3021-2.30124E+00-3.01053E+00-3.90592E+00-8.32835E-01 9.56156E-01-3.13246E+00
 -1      3022-3.05412E+01-3.28236E+01-3.39131E+00-1.11784E+00-3.43792E+00 2.48874E+00
 -1      3023-2.82073E+00-3.01891E+00-6.27122E-01-4.08150E-03 2.13319E+00-9.96457E-01
 -1      3024-6.56153E+00-7.73145E+00-4.44409E+00-7.88027E-01 1.60271E+00-3.87269E+00
 -1      3025-3.39244E+01-3.80054E+01-6.07231E+00-3.19082E-01 4.89016E+00-8.57744E-01
 -1      3026-3.88623E+00-2.69597E+00 7.37587E-02 8.38006E-01 1.84360E+00-8.27387E-01
 -1      3027-6.64702E+00-3.77024E+00-5.77596E-01 6.11741E-01 2.96194E+00 1.06836E-01
 -1      3028-1.02969E+01-8.41598E+00-3.61381E+00 3.94113E-01 3.29703E+00-7.44259E-01
 -1      3029-3.12472E+01-3.00124E+01-3.70207E+00-1.48689E+00 1.81743E+00 5.54766E+00
 -1      3030-1.69917E+00-3.50003E+00-2.95481E+00-2.40775E-01 2.13733E-01 2.66280E+00
 -1      3031-3.62782E+00-3.40468E+00-7.06750E-01 2.00233E-01 1.91859E+00 1.74037E+00
 -1      3032-2.43269E+00-2.67028E+00-3.47922E+00 8.75972E-01-1.75468E+00-2.41437E+00
 -1      3033-6.79287E+00-6.35801E+00-3.76105E+00-1.51910E+00 3.25625E+00-2.51499E+00
 -1      3034-1.26676E+01-1.03513E+01-3.92848E+00 1.04999E+00 1.35634E+00 2.79684E+00
 -1      3035-3.16804E+00-3.38620E+00-4.69269E-01-1.04368E-01-1.31582E+00 1.15241E+00
 -1      3036-7.94319E+00-7.42677E+00-1.66598E+00-1.59524E+00-7.63881E-01 2.25362E+00
 -1      3037-5.41279E+00-6.88397E+00-3.53267E+00 2.54016E-01 2.92830E-01-3.90013E+00
 -1      3038-7.94825E+00-5.94940E+00-3.12330E+00-4.62658E-01-3.54407E+00 1.35281E+00
 -1      3039-3.84743E+01-4.56511E+01-1.00582E+01-2.14368E+00-2.76600E+00-2.42060E+00
 -1      3040-2.81789E+00-3.25481E+00-4.28597E-01-2.15162E-01 4.69227E-01-1.67192E+00
 -1      3041-1.53448E+00-3.48317E+00-3.38875E+00-3.14979E-02-3.34557E-01-2.88202E+00
 -1      3042-3.60774E+01-3.64169E+01-8.47504E+00 3.84286E+00 3.14799E+00 2.30504E+00
 -1      3043-3.64263E+00-3.11311E+00-1.20674E+00 8.53359E-02-2.57643E+00 7.56838E-02
 -1      3044-9.91014E+00-9.15546E+00-3.92407E+00 9.38170E-01-2.27947E+00-1.89580E+00
 -1      3045-9.21823E+00-7.67681E+00-3.46354E+00 1.22561E+00-2.59762E+00 2.14305E+00
 -1      3046-1.26717E+01-1.39657E+01-1.16326E+01-5.20969E-02 2.51862E+00 7.01596E+00
 -1      3047-8.90107E+00-7.46454E+00-2.68749E+00-1.18500E+00-3.14663E+00 2.49057E+00
 -1      3048-1.13483E+01-1.11212E+01-4.66200E+00-7.32278E-01 3.11762E+00-5.35869E-01
 -1      3049-8.01943E+00-1.00771E+01-3.81263E+00-2.67866E-01 6.23073E-01 2.82560E+00
 -1      3050-2.50491E+00-2.65614E+00-6.59337E-01 2.24906E-01-1.29697E+00 1.58093E+00
 -1      3051-4.49100E+00-2.25790E+00-3.66035E+00-6.32500E-02 2.97481E+00-5.47289E-01
 -1      3052-8.15247E+00-1.00901E+01-3.09396E+00-6.40870E-01 2.05445E+00-1.84442E+00
 -1      3053-2.95084E+00-2.75567E+00-1.76992E+00 1.31094E-01 3.30822E-02-2.33865E+00
 -1      3054-8.37400E+00-9.77524E+00-5.10597E+00-1.43475E-01-1.40371E+00-3.32110E+00
 -1      3055-3.06546E+00-2.90568E+00-4.79179E-01 8.31375E-02-1.09395E+00-1.06221E+00
 -1      3056-8.43931E+00-6.70785E+00-1.73051E+00 6.21988E-01-3.14378E+00 1.55181E-02
 -1      3057-9.29268E+00-8.50527E+00-3.04136E+00 1.23175E+00-7.35344E-01-2.05480E+00
 -1      3058-9.92328E+00-1.18859E+01-5.48455E+00-1.16000E+00-1.52591E+00 3.15008E+00
 -1      3059-4.04454E+00-6.31770E+00-9.50588E-01-2.00824E-02 7.27772E-01 2.49455E+00
 -1      3060-2.84601E+00-3.09397E+00-1.63053E+00-3.35103E-01-1.12739E+00-2.24537E+00
 -1      3061-6.04883E+00-9.13970E+00-2.30073E+00-1.33281E-01 1.17487E+00-1.65957E+00
 -1      3062-1.03025E+01-1.25349E+01-6.37370E+00 3.94463E-01-2.96402E+00-3.05401E+00
 -1      3063-5.54022E+00-6.45886E+00-3.60071E+00-1.04638E+00-2.19481E+00 2.65880E+00
 -1      3064-9.63943E+00-6.44914E+00-4.35067E+00-2.66198E-01 4.57868E+00-7.23145E-01
 -1      3065-9.30947E+00-6.46059E+00-6.00090E+00 1.75561E+00 4.90206E+00 2.05425E+00
 -1      3066-7.08828E+00-1.14666E+01-2.30189E+00-3.85089E-01 2.88811E+00 1.35701E+00
 -1      3067-2.00991E+00-2.33186E+00-5.83213E+00-1.18497E+00 1.85000E+00-1.72486E+00
 -1      3068-2.83946E+00-2.35622E+00-6.24664E+00-1.98616E+00-3.57459E+00 2.20195E+00
 -1      3069-6.02285E+00-6.32002E+00-1.77273E+00 4.11962E-01-5.73943E-03 2.49255E+00
 -1      3070-2.15386E+00-6.59285E+00-5.33791E+00 6.28325E-02 9.85154E-01 3.65624E+00
 -1      3071-8.92204E+00-3.67077E+00-7.93142E+00-2.49991E-01 2.73279E+00 1.60108E-01
 -1      3072-3.46269E+00-2.50934E+00-2.86964E+00 5.65834E-01 3.92875E-01 2.44812E-02
 -1      3073 1.75294E+00 2.66945E-01-4.27119E+00 7.43961E-02-1.16651E+00-3.87907E+00
 -1      3074-9.20495E-01-1.90518E+00-2.65272E+00-6.49412E-01-6.27316E-01-3.21137E+00
 -1      3075 1.27952E+00-3.19802E-01-8.34875E+00 5.26015E-03-3.25178E-01 1.86297E+00
 -1      3076 2.67013E+00 8.21217E+00 1.93785E+00-6.75806E-01 3.20425E+00-1.40081E+00
 -1      3077-1.65131E+00-1.54184E+00-9.66463E-01 8.10476E-01-1.26257E+00 1.02663E+00
 -1      3078 6.83864E+00 4.75527E+00 1.30496E+00 7.55919E-01 6.31000E-01-8.13072E-01
 -1      3079-1.66783E+01-1.26178E+01-7.54720E+00-2.78364E+00-1.89624E+00 3.77857E-01
 -1      3080 9.63550E-01 2.09256E+00-5.41637E+00 9.46401E-01-2.33379E+00-3.29442E+00
 -1      3081 4.37975E+00 4.69515E+00-1.15485E+00 1.12864E+00-1.57724E+00-1.15139E+00
 -1      3082-9.70655E+00-4.61009E+00-4.19900E+00-3.31695E+00 3.10597E+00-1.60200E+00
 -1      3083 2.81221E+00 7.86093E+00-5.07615E-01-1.88481E+00-2.76897E+00 1.64034E-01
 -1      3084 2.42151E-01-1.47627E+00-2.24810E+00-3.78254E-01 1.54103E-01 1.70151E+00
 -1      3085-3.22120E+01-1.99166E+01-1.12466E+01-5.56068E+00-2.48315E-01 1.62471E+00
 -1      3086-1.32014E+01-1.63362E+01-1.01834E+01-5.13305E-01 8.21638E-02-2.55007E-01
 -1      3087-7.47723E+00-7.78157E+00-4.80148E+00 2.90360E+00 2.06526E+00 1.16598E+00
 -1      3088-3.60787E+00-4.40885E+00-4.68250E+00 3.21492E-01-2.90916E+00-1.31794E+00
 -1      3089-1.78322E+01-2.13559E+01-6.31836E+00 9.85492E-01 3.08902E-01 1.55545E+00
 -1      3090-1.10397E-01-6.75097E-01-1.94365E+00-5.68241E-01 2.03273E+00-8.73003E-01
 -1      3091-2.88416E+00-4.27442E+00-4.40342E+00 6.62190E-01 5.69075E-01-6.99720E-01
 -1      3092-2.15747E+01-2.00481E+01-1.17269E+01 2.29711E+00-1.59448E+00-8.15094E-01
 -1      3093-2.67820E+00-2.35475E+00-1.36710E-02 6.45600E-01-6.76983E-01 5.55567E-02
 -1      3094-2.13588E+01-1.69197E+01-9.00431E+00 2.23029E-01 7.93092E-01-4.08828E-01
 -1      3095-2.85746E+01-2.72962E+01-7.82243E+00 1.27077E+00-1.94483E+00-2.34198E+00
 -1      3096-3.10278E+00-5.43408E+00-4.01657E+00 5.18133E-01-4.60360E-01-3.65458E+00
 -1      3097-5.36170E+00-2.46807E+00 2.74493E-01 3.16725E-01-4.13486E+00-1.10525E+00
 -1      3098-1.54096E+00-8.66218E-01-6.01228E+00-1.52325E+00-2.65196E+00 2.56390E+00
 -1      3099-3.65338E+00-3.35978E+00-3.42680E+00-5.03814E-01-1.97362E+00 7.81966E-01
 -1      3100-9.37076E+00-4.26360E+00-7.63012E+00 8.35232E-01 1.97694E+00 1.27645E+00
 -1      3101-1.90449E+01-1.69692E+01-1.06984E+01-3.08099E+00-5.33922E-01-8.24638E-01
 -1      3102-1.26302E+01-1.89998E+01-7.20688E+00-2.42598E-01-1.09171E+00-1.78197E+00
 -1      3103-1.66059E+01-1.98983E+01-1.07024E+01-3.26394E+00 6.42686E-01-1.03687E-01
 -1      3104-5.67872E+00-8.62556E+00-7.18309E+00-1.38939E-01 9.20102E-01-2.96156E+00
 -1      3105-6.24316E+00-3.76293E+00-3.25519E+00 9.61433E-01 7.69011E-01 9.76012E-01
 -1      3106-2.60666E+01-1.85666E+01-1.04915E+01 3.96387E+00 1.02190E+00 8.63277E-01
 -1      3107-1.52663E+01-1.46345E+01-5.07756E+00-6.20535E-01-1.34608E+00 1.30653E+00
 -1      3108-1.40068E+01-1.29487E+01-5.98965E+00 7.89397E-01 3.38533E-01-1.70323E-01
 -1      3109-9.67802E-01-2.01796E+00-4.03473E+00 8.85252E-01-1.88526E+00-2.04901E+00
 -1      3110-4.81720E+00-7.12132E-01-1.40153E+00-2.20012E+00-3.37752E+00 1.99218E+00
 -1      3111-5.67085E+00-3.75426E+00 5.16618E-03-1.83762E-01-3.41223E+00-2.28420E+00
 -1      3112-2.11259E+01-2.29274E+01-1.41670E+01 2.03536E+00-3.02690E+00-8.98798E-01
 -1      3113-8.26640E+00-1.45718E+01-6.94888E+00-1.02714E+00 6.22682E-01-2.23763E-01
 -1      3114-1.73301E+01-1.68477E+01-6.17206E+00 1.74219E+00-6.61323E-01-3.21031E-01
 -1      3115-3.62170E+00-1.99795E+00-4.05399E-03-1.17292E+00 1.36475E+00-1.06260E+00
 -1      3116-1.23235E+00-2.62701E+00-6.09374E-02 1.38655E+00 1.47891E+00 2.71904E+00
 -1      3117-3.89103E+00-2.08452E+00-2.63495E+00 1.39254E-01 2.44210E+00-1.13527E+00
 -1      3118-4.96460E+00-4.02696E+00-2.95323E+00 6.21381E-01 1.54229E+00 1.19026E+00
 -1      3119-4.19511E+00-7.13635E+00-2.70962E+00-3.65767E-01 6.13907E-01-1.95143E+00
 -1      3120-3.60782E+00-1.56055E+00-1.39898E+00 1.17479E+00 1.22968E+00 1.75571E+00
 -1      3121-2.44624E+00-4.04149E+00-2.89795E+00-1.62502E-01 1.24523E+00-2.38852E+00
 -1      3122-5.24753E+00-4.42038E+00-1.05079E+00 1.06767E+00-2.50996E+00-9.49077E-01
 -1      3123-1.36587E+01-1.00950E+01-5.13600E+00-8.02263E-01-2.35143E+00 6.51498E-01
 -1      3124-4.53721E-01 1.25870E+00 1.10785E+00-1.41663E+00 3.49308E+00-2.28215E+00
 -1      3125-2.23672E+01-1.91119E+01-9.37402E+00-1.03782E+00 5.91007E-01 2.23720E-01
 -1      3126-1.19159E+00-2.70373E+00-3.72662E+00-1.56107E+00-9.25979E-01 1.75303E+00
 -1      3127-8.63744E-01-4.56615E+00-3.57062E+00 3.46593E-01 4.79881E-01 1.64881E+00
 -1      3128-3.98448E+00-3.25614E+00-3.05734E+00-1.72016E+00-1.99295E+00 1.55441E+00
 -1      3129-1.36563E+00-1.13904E+00-3.99407E-01-7.64081E-01-7.51199E-01-1.38234E+00
 -1      3130-2.76175E+01-2.53162E+01-1.06448E+01 1.93158E-01 1.79709E+00-1.47562E+00
 -1      3131-1.95915E+01-2.11617E+01-6.59638E+00-1.88056E+00-2.75140E+00-7.65138E-01
 -1      3132-1.27271E+01-1.38526E+01-7.69371E+00-7.99914E-01-3.04557E-01 6.74879E-01
 -3
 9999
