    1C
    1U meshsolid_t.inp                                                  
    1UUSER                                                              
    1UDATE              03.july.2016                                    
    1UTIME              00:38:21                                        
    1UHOST                                                              
    1UPGM               CalculiX                                        
    1UVERSION           Version 2.10                             
    1UCOMPILETIME       Sa 5. MÃ¤r 12:23:33 CET 2016                    
    1UDIR                                                               
    1UDBN                                                               
    1UMAT    1PDMS                                                      
    2C                          3154                                     1
 -1         1 2.63013E+00-4.74999E-01 3.49999E-01
 -1         2 2.63013E+00 4.74999E-01 3.49999E-01
 -1         3 2.63013E+00-4.74999E-01 1.70000E+00
 -1         4 9.21869E+00 9.50000E-01 1.70000E+00
 -1         5 5.98657E+00 4.74999E-01 1.70000E+00
 -1         6 9.21869E+00-9.50000E-01 1.70000E+00
 -1         7 9.21869E+00 4.74999E-01 1.70000E+00
 -1         8 9.21869E+00-4.74999E-01 1.70000E+00
 -1         9 1.25751E+01 4.74999E-01 3.49999E-01
 -1        10 1.25751E+01-4.74999E-01 1.70000E+00
 -1        11 5.98657E+00-4.74999E-01 1.70000E+00
 -1        12 9.21869E+00-4.74999E-01 3.49999E-01
 -1        13 1.25751E+01 4.74999E-01 1.70000E+00
 -1        14 2.63013E+00 4.74999E-01 1.70000E+00
 -1        15 5.98657E+00-4.74999E-01 3.49999E-01
 -1        16 5.98657E+00-9.50000E-01 1.70000E+00
 -1        17 5.98657E+00 9.50000E-01 1.70000E+00
 -1        18 2.61170E+00 5.67665E-01 1.70000E+00
 -1        19 8.69874E+00 3.08900E+00 1.70000E+00
 -1        20 5.34909E+00 2.72980E+00 1.70000E+00
 -1        21 5.71264E+00 1.85212E+00 1.70000E+00
 -1        22 8.15341E+00 4.40553E+00 1.70000E+00
 -1        23 1.14361E+01 5.25114E+00 3.49999E-01
 -1        24 1.17997E+01 4.37345E+00 1.70000E+00
 -1        25 1.14361E+01 5.25114E+00 1.70000E+00
 -1        26 8.33519E+00 3.96668E+00 1.70000E+00
 -1        27 8.33519E+00 3.96668E+00 3.49999E-01
 -1        28 2.24815E+00 1.44535E+00 1.70000E+00
 -1        29 5.71264E+00 1.85212E+00 3.49999E-01
 -1        30 5.89442E+00 1.41328E+00 1.70000E+00
 -1        31 5.16732E+00 3.16865E+00 1.70000E+00
 -1        32 5.34909E+00 2.72980E+00 3.49999E-01
 -1        33 8.69874E+00 3.08900E+00 3.49999E-01
 -1        34 8.88051E+00 2.65016E+00 1.70000E+00
 -1        35 8.88051E+00 2.65016E+00 3.49999E-01
 -1        36 8.15341E+00 4.40553E+00 3.49999E-01
 -1        37 5.89442E+00 1.41328E+00 3.49999E-01
 -1        38 5.16732E+00 3.16865E+00 3.49999E-01
 -1        39 2.19566E+00 1.52391E+00 3.49999E-01
 -1        40 6.18273E+00 6.85448E+00 1.70000E+00
 -1        41 6.85448E+00 6.18273E+00 1.70000E+00
 -1        42 2.19566E+00 1.52391E+00 1.70000E+00
 -1        43 9.22784E+00 8.55608E+00 1.70000E+00
 -1        44 8.55608E+00 9.22784E+00 1.70000E+00
 -1        45 4.56902E+00 3.89727E+00 3.49999E-01
 -1        46 6.18273E+00 6.85448E+00 3.49999E-01
 -1        47 1.52391E+00 2.19566E+00 1.70000E+00
 -1        48 4.56902E+00 3.89727E+00 1.70000E+00
 -1        49 4.90489E+00 3.56139E+00 1.70000E+00
 -1        50 3.56139E+00 4.90489E+00 1.70000E+00
 -1        51 3.89727E+00 4.56902E+00 1.70000E+00
 -1        52 7.19035E+00 5.84685E+00 1.70000E+00
 -1        53 5.84685E+00 7.19035E+00 1.70000E+00
 -1        54 4.90489E+00 3.56139E+00 3.49999E-01
 -1        55 5.84685E+00 7.19035E+00 3.49999E-01
 -1        56 5.67665E-01 2.61170E+00 1.70000E+00
 -1        57 2.65016E+00 8.88051E+00 1.70000E+00
 -1        58 1.41328E+00 5.89442E+00 1.70000E+00
 -1        59 3.08900E+00 8.69874E+00 1.70000E+00
 -1        60 1.44535E+00 2.24815E+00 1.70000E+00
 -1        61 4.37345E+00 1.17997E+01 1.70000E+00
 -1        62 2.72980E+00 5.34909E+00 1.70000E+00
 -1        63 5.25114E+00 1.14361E+01 1.70000E+00
 -1        64 3.96668E+00 8.33519E+00 1.70000E+00
 -1        65 1.85212E+00 5.71264E+00 1.70000E+00
 -1        66 2.72980E+00 5.34909E+00 3.49999E-01
 -1        67 1.41328E+00 5.89442E+00 3.49999E-01
 -1        68 1.85212E+00 5.71264E+00 3.49999E-01
 -1        69 4.40553E+00 8.15341E+00 1.70000E+00
 -1        70 3.96668E+00 8.33519E+00 3.49999E-01
 -1        71 4.40553E+00 8.15341E+00 3.49999E-01
 -1        72 3.16865E+00 5.16732E+00 1.70000E+00
 -1        73 4.74999E-01 2.63013E+00 1.70000E+00
 -1        74-4.74999E-01 2.63013E+00 1.70000E+00
 -1        75-4.74999E-01 9.21869E+00 1.70000E+00
 -1        76 4.74999E-01 1.25751E+01 1.70000E+00
 -1        77-4.74999E-01 1.25751E+01 1.70000E+00
 -1        78 4.74999E-01 2.63013E+00 3.49999E-01
 -1        79 4.74999E-01 9.21869E+00 1.70000E+00
 -1        80-4.74999E-01 9.21869E+00 3.49999E-01
 -1        81-4.74999E-01 5.98657E+00 1.70000E+00
 -1        82-4.74999E-01 5.98657E+00 3.49999E-01
 -1        83 4.74999E-01 5.98657E+00 1.70000E+00
 -1        84 9.50000E-01 5.98657E+00 3.49999E-01
 -1        85-9.50000E-01 5.98657E+00 1.70000E+00
 -1        86 9.50000E-01 9.21869E+00 3.49999E-01
 -1        87 9.50000E-01 9.21869E+00 1.70000E+00
 -1        88 9.50000E-01 5.98657E+00 1.70000E+00
 -1        89-9.50000E-01 9.21869E+00 3.49999E-01
 -1        90-9.50000E-01 9.21869E+00 1.70000E+00
 -1        91-1.44535E+00 2.24815E+00 3.49999E-01
 -1        92-1.41328E+00 5.89442E+00 1.70000E+00
 -1        93-1.44535E+00 2.24815E+00 1.70000E+00
 -1        94-1.85212E+00 5.71264E+00 1.70000E+00
 -1        95-2.65016E+00 8.88051E+00 1.70000E+00
 -1        96-2.72980E+00 5.34909E+00 1.70000E+00
 -1        97-3.96668E+00 8.33519E+00 1.70000E+00
 -1        98-3.16865E+00 5.16732E+00 1.70000E+00
 -1        99-4.37345E+00 1.17997E+01 1.70000E+00
 -1       100-4.40553E+00 8.15341E+00 1.70000E+00
 -1       101-4.37345E+00 1.17997E+01 3.49999E-01
 -1       102-5.25114E+00 1.14361E+01 1.70000E+00
 -1       103-5.67665E-01 2.61170E+00 1.70000E+00
 -1       104-3.08900E+00 8.69874E+00 1.70000E+00
 -1       105-3.08900E+00 8.69874E+00 3.49999E-01
 -1       106-1.85212E+00 5.71264E+00 3.49999E-01
 -1       107-3.16865E+00 5.16732E+00 3.49999E-01
 -1       108-2.19566E+00 1.52391E+00 1.70000E+00
 -1       109-6.18273E+00 6.85448E+00 1.70000E+00
 -1       110-6.85448E+00 6.18273E+00 1.70000E+00
 -1       111-4.90489E+00 3.56139E+00 1.70000E+00
 -1       112-3.89727E+00 4.56902E+00 1.70000E+00
 -1       113-8.55608E+00 9.22784E+00 1.70000E+00
 -1       114-1.52391E+00 2.19566E+00 1.70000E+00
 -1       115-9.22784E+00 8.55608E+00 1.70000E+00
 -1       116-6.85448E+00 6.18273E+00 3.49999E-01
 -1       117-2.19566E+00 1.52391E+00 3.49999E-01
 -1       118-3.56139E+00 4.90489E+00 1.70000E+00
 -1       119-3.89727E+00 4.56902E+00 3.49999E-01
 -1       120-4.56902E+00 3.89727E+00 3.49999E-01
 -1       121-4.56902E+00 3.89727E+00 1.70000E+00
 -1       122-6.18273E+00 6.85448E+00 3.49999E-01
 -1       123-5.84685E+00 7.19035E+00 1.70000E+00
 -1       124-5.84685E+00 7.19035E+00 3.49999E-01
 -1       125-4.90489E+00 3.56139E+00 3.49999E-01
 -1       126-7.19035E+00 5.84685E+00 1.70000E+00
 -1       127-2.24815E+00 1.44535E+00 1.70000E+00
 -1       128-1.17997E+01 4.37345E+00 1.70000E+00
 -1       129-8.15341E+00 4.40553E+00 1.70000E+00
 -1       130-5.34909E+00 2.72980E+00 1.70000E+00
 -1       131-8.33519E+00 3.96668E+00 1.70000E+00
 -1       132-2.61170E+00 5.67665E-01 1.70000E+00
 -1       133-1.14361E+01 5.25114E+00 3.49999E-01
 -1       134-5.34909E+00 2.72980E+00 3.49999E-01
 -1       135-1.14361E+01 5.25114E+00 1.70000E+00
 -1       136-8.69874E+00 3.08900E+00 3.49999E-01
 -1       137-5.16732E+00 3.16865E+00 1.70000E+00
 -1       138-5.71264E+00 1.85212E+00 1.70000E+00
 -1       139-5.71264E+00 1.85212E+00 3.49999E-01
 -1       140-5.89442E+00 1.41328E+00 3.49999E-01
 -1       141-8.33519E+00 3.96668E+00 3.49999E-01
 -1       142-8.88051E+00 2.65016E+00 3.49999E-01
 -1       143-8.69874E+00 3.08900E+00 1.70000E+00
 -1       144-8.88051E+00 2.65016E+00 1.70000E+00
 -1       145-5.89442E+00 1.41328E+00 1.70000E+00
 -1       146-2.63013E+00-4.74999E-01 1.70000E+00
 -1       147-1.25751E+01-4.74999E-01 1.70000E+00
 -1       148-5.98657E+00 4.74999E-01 1.70000E+00
 -1       149-5.98657E+00-4.74999E-01 1.70000E+00
 -1       150-9.21869E+00 4.74999E-01 1.70000E+00
 -1       151-5.98657E+00 9.50000E-01 1.70000E+00
 -1       152-9.21869E+00-4.74999E-01 1.70000E+00
 -1       153-5.98657E+00-9.50000E-01 1.70000E+00
 -1       154-2.63013E+00 4.74999E-01 1.70000E+00
 -1       155-1.25751E+01 4.74999E-01 1.70000E+00
 -1       156-5.98657E+00 4.74999E-01 3.49999E-01
 -1       157-9.21869E+00 4.74999E-01 3.49999E-01
 -1       158-5.98657E+00-4.74999E-01 3.49999E-01
 -1       159-9.21869E+00 9.50000E-01 1.70000E+00
 -1       160-9.21869E+00-4.74999E-01 3.49999E-01
 -1       161-9.21869E+00 9.50000E-01 3.49999E-01
 -1       162-9.21869E+00-9.50000E-01 1.70000E+00
 -1       163-2.61170E+00-5.67665E-01 1.70000E+00
 -1       164-5.34909E+00-2.72980E+00 1.70000E+00
 -1       165-5.16732E+00-3.16865E+00 1.70000E+00
 -1       166-8.15341E+00-4.40553E+00 1.70000E+00
 -1       167-8.33519E+00-3.96668E+00 1.70000E+00
 -1       168-5.89442E+00-1.41328E+00 1.70000E+00
 -1       169-8.88051E+00-2.65016E+00 1.70000E+00
 -1       170-1.17997E+01-4.37345E+00 1.70000E+00
 -1       171-1.14361E+01-5.25114E+00 1.70000E+00
 -1       172-5.71264E+00-1.85212E+00 1.70000E+00
 -1       173-8.69874E+00-3.08900E+00 3.49999E-01
 -1       174-8.69874E+00-3.08900E+00 1.70000E+00
 -1       175-8.33519E+00-3.96668E+00 3.49999E-01
 -1       176-2.24815E+00-1.44535E+00 1.70000E+00
 -1       177-5.34909E+00-2.72980E+00 3.49999E-01
 -1       178-5.16732E+00-3.16865E+00 3.49999E-01
 -1       179-1.52391E+00-2.19566E+00 1.70000E+00
 -1       180-2.19566E+00-1.52391E+00 1.70000E+00
 -1       181-4.90489E+00-3.56139E+00 1.70000E+00
 -1       182-5.84685E+00-7.19035E+00 1.70000E+00
 -1       183-7.19035E+00-5.84685E+00 1.70000E+00
 -1       184-6.18273E+00-6.85448E+00 1.70000E+00
 -1       185-8.55608E+00-9.22784E+00 3.49999E-01
 -1       186-8.55608E+00-9.22784E+00 1.70000E+00
 -1       187-4.56902E+00-3.89727E+00 3.49999E-01
 -1       188-6.85448E+00-6.18273E+00 1.70000E+00
 -1       189-9.22784E+00-8.55608E+00 1.70000E+00
 -1       190-6.18273E+00-6.85448E+00 3.49999E-01
 -1       191-1.52391E+00-2.19566E+00 3.49999E-01
 -1       192-3.89727E+00-4.56902E+00 1.70000E+00
 -1       193-3.89727E+00-4.56902E+00 3.49999E-01
 -1       194-4.56902E+00-3.89727E+00 1.70000E+00
 -1       195-3.56139E+00-4.90489E+00 3.49999E-01
 -1       196-6.85448E+00-6.18273E+00 3.49999E-01
 -1       197-5.84685E+00-7.19035E+00 3.49999E-01
 -1       198-3.56139E+00-4.90489E+00 1.70000E+00
 -1       199-1.44535E+00-2.24815E+00 3.49999E-01
 -1       200-3.16865E+00-5.16732E+00 1.70000E+00
 -1       201-1.85212E+00-5.71264E+00 1.70000E+00
 -1       202-5.67665E-01-2.61170E+00 1.70000E+00
 -1       203-2.72980E+00-5.34909E+00 1.70000E+00
 -1       204-1.44535E+00-2.24815E+00 1.70000E+00
 -1       205-3.08900E+00-8.69874E+00 1.70000E+00
 -1       206-4.37345E+00-1.17997E+01 1.70000E+00
 -1       207-1.41328E+00-5.89442E+00 1.70000E+00
 -1       208-5.25114E+00-1.14361E+01 3.49999E-01
 -1       209-3.96668E+00-8.33519E+00 1.70000E+00
 -1       210-5.25114E+00-1.14361E+01 1.70000E+00
 -1       211-1.85212E+00-5.71264E+00 3.49999E-01
 -1       212-1.41328E+00-5.89442E+00 3.49999E-01
 -1       213-2.65016E+00-8.88051E+00 1.70000E+00
 -1       214-3.16865E+00-5.16732E+00 3.49999E-01
 -1       215-4.40553E+00-8.15341E+00 1.70000E+00
 -1       216-2.65016E+00-8.88051E+00 3.49999E-01
 -1       217-4.74999E-01-2.63013E+00 1.70000E+00
 -1       218-4.74999E-01-5.98657E+00 1.70000E+00
 -1       219 4.74999E-01-2.63013E+00 1.70000E+00
 -1       220 4.74999E-01-9.21869E+00 1.70000E+00
 -1       221-4.74999E-01-1.25751E+01 1.70000E+00
 -1       222 4.74999E-01-1.25751E+01 1.70000E+00
 -1       223-4.74999E-01-9.21869E+00 3.49999E-01
 -1       224-4.74999E-01-1.25751E+01 3.49999E-01
 -1       225 4.74999E-01-9.21869E+00 3.49999E-01
 -1       226 4.74999E-01-2.63013E+00 3.49999E-01
 -1       227 4.74999E-01-5.98657E+00 1.70000E+00
 -1       228-4.74999E-01-5.98657E+00 3.49999E-01
 -1       229-9.50000E-01-5.98657E+00 1.70000E+00
 -1       230 4.74999E-01-5.98657E+00 3.49999E-01
 -1       231-4.74999E-01-9.21869E+00 1.70000E+00
 -1       232-9.50000E-01-9.21869E+00 1.70000E+00
 -1       233 9.50000E-01-9.21869E+00 1.70000E+00
 -1       234 9.50000E-01-5.98657E+00 1.70000E+00
 -1       235 4.37345E+00-1.17997E+01 1.70000E+00
 -1       236 5.25114E+00-1.14361E+01 1.70000E+00
 -1       237 3.16865E+00-5.16732E+00 1.70000E+00
 -1       238 3.96668E+00-8.33519E+00 1.70000E+00
 -1       239 3.08900E+00-8.69874E+00 1.70000E+00
 -1       240 1.85212E+00-5.71264E+00 1.70000E+00
 -1       241 1.44535E+00-2.24815E+00 1.70000E+00
 -1       242 2.65016E+00-8.88051E+00 1.70000E+00
 -1       243 5.25114E+00-1.14361E+01 3.49999E-01
 -1       244 5.67665E-01-2.61170E+00 3.49999E-01
 -1       245 5.67665E-01-2.61170E+00 1.70000E+00
 -1       246 4.37345E+00-1.17997E+01 3.49999E-01
 -1       247 2.72980E+00-5.34909E+00 1.70000E+00
 -1       248 1.85212E+00-5.71264E+00 3.49999E-01
 -1       249 1.41328E+00-5.89442E+00 1.70000E+00
 -1       250 2.65016E+00-8.88051E+00 3.49999E-01
 -1       251 3.96668E+00-8.33519E+00 3.49999E-01
 -1       252 1.41328E+00-5.89442E+00 3.49999E-01
 -1       253 4.40553E+00-8.15341E+00 1.70000E+00
 -1       254 2.19566E+00-1.52391E+00 1.70000E+00
 -1       255 7.19035E+00-5.84685E+00 1.70000E+00
 -1       256 6.85448E+00-6.18273E+00 1.70000E+00
 -1       257 8.55608E+00-9.22784E+00 1.70000E+00
 -1       258 9.22784E+00-8.55608E+00 1.70000E+00
 -1       259 3.89727E+00-4.56902E+00 3.49999E-01
 -1       260 1.52391E+00-2.19566E+00 1.70000E+00
 -1       261 8.55608E+00-9.22784E+00 3.49999E-01
 -1       262 6.18273E+00-6.85448E+00 1.70000E+00
 -1       263 6.85448E+00-6.18273E+00 3.49999E-01
 -1       264 4.56902E+00-3.89727E+00 1.70000E+00
 -1       265 3.89727E+00-4.56902E+00 1.70000E+00
 -1       266 3.56139E+00-4.90489E+00 3.49999E-01
 -1       267 4.90489E+00-3.56139E+00 1.70000E+00
 -1       268 6.18273E+00-6.85448E+00 3.49999E-01
 -1       269 5.84685E+00-7.19035E+00 1.70000E+00
 -1       270 7.19035E+00-5.84685E+00 3.49999E-01
 -1       271 3.56139E+00-4.90489E+00 1.70000E+00
 -1       272 5.84685E+00-7.19035E+00 3.49999E-01
 -1       273 4.90489E+00-3.56139E+00 3.49999E-01
 -1       274 2.61170E+00-5.67665E-01 3.49999E-01
 -1       275 2.61170E+00-5.67665E-01 1.70000E+00
 -1       276 2.24815E+00-1.44535E+00 1.70000E+00
 -1       277 5.71264E+00-1.85212E+00 1.70000E+00
 -1       278 8.15341E+00-4.40553E+00 1.70000E+00
 -1       279 5.16732E+00-3.16865E+00 1.70000E+00
 -1       280 1.17997E+01-4.37345E+00 1.70000E+00
 -1       281 8.69874E+00-3.08900E+00 1.70000E+00
 -1       282 1.14361E+01-5.25114E+00 1.70000E+00
 -1       283 5.34909E+00-2.72980E+00 1.70000E+00
 -1       284 5.34909E+00-2.72980E+00 3.49999E-01
 -1       285 5.16732E+00-3.16865E+00 3.49999E-01
 -1       286 5.71264E+00-1.85212E+00 3.49999E-01
 -1       287 8.33519E+00-3.96668E+00 3.49999E-01
 -1       288 8.33519E+00-3.96668E+00 1.70000E+00
 -1       289 8.88051E+00-2.65016E+00 1.70000E+00
 -1       290 8.69874E+00-3.08900E+00 3.49999E-01
 -1       291 8.88051E+00-2.65016E+00 3.49999E-01
 -1       292 5.89442E+00-1.41328E+00 1.70000E+00
 -1       293 9.44469E+00 1.41350E+01 3.49999E-01
 -1       294 1.70000E+01 0.00000E+00-3.49999E-01
 -1       295-6.50562E+00-1.57060E+01-3.49999E-01
 -1       296 1.57060E+01 6.50562E+00-3.49999E-01
 -1       297-1.41350E+01 9.44469E+00 3.49999E-01
 -1       298-1.57060E+01 6.50562E+00-3.49999E-01
 -1       299 1.41350E+01-9.44469E+00 3.49999E-01
 -1       300 1.20208E+01-1.20208E+01-3.49999E-01
 -1       301-1.57060E+01-6.50562E+00 3.49999E-01
 -1       302 6.50562E+00 1.57060E+01 3.49999E-01
 -1       303 3.31653E+00 1.66733E+01-3.49999E-01
 -1       304 3.31653E+00 1.66733E+01 3.49999E-01
 -1       305 6.50562E+00 1.57060E+01-3.49999E-01
 -1       306-1.66733E+01 3.31653E+00 3.49999E-01
 -1       307-1.20208E+01 1.20208E+01-3.49999E-01
 -1       308-3.31653E+00 1.66733E+01 3.49999E-01
 -1       309 0.00000E+00 1.70000E+01-3.49999E-01
 -1       310-3.31653E+00 1.66733E+01-3.49999E-01
 -1       311-1.20208E+01 1.20208E+01 3.49999E-01
 -1       312-9.44469E+00 1.41350E+01-3.49999E-01
 -1       313 1.66733E+01 3.31653E+00-3.49999E-01
 -1       314 1.70000E+01 0.00000E+00 3.49999E-01
 -1       315 9.44469E+00-1.41350E+01 3.49999E-01
 -1       316 1.57060E+01-6.50562E+00-3.49999E-01
 -1       317 1.66733E+01-3.31653E+00-3.49999E-01
 -1       318 9.44469E+00-1.41350E+01-3.49999E-01
 -1       319 1.41350E+01-9.44469E+00-3.49999E-01
 -1       320 1.41350E+01 9.44469E+00-3.49999E-01
 -1       321 1.20208E+01 1.20208E+01-3.49999E-01
 -1       322 9.44469E+00 1.41350E+01-3.49999E-01
 -1       323-3.31653E+00-1.66733E+01-3.49999E-01
 -1       324-6.50562E+00 1.57060E+01-3.49999E-01
 -1       325-1.41350E+01-9.44469E+00-3.49999E-01
 -1       326-1.41350E+01 9.44469E+00-3.49999E-01
 -1       327-1.66733E+01 3.31653E+00-3.49999E-01
 -1       328-1.66733E+01-3.31653E+00-3.49999E-01
 -1       329-1.70000E+01 0.00000E+00-3.49999E-01
 -1       330-1.25751E+01 4.74999E-01 3.49999E-01
 -1       331-1.17997E+01 4.37345E+00 3.49999E-01
 -1       332-9.21869E+00-9.50000E-01 3.49999E-01
 -1       333-1.25751E+01-4.74999E-01 3.49999E-01
 -1       334-1.66733E+01-3.31653E+00 3.49999E-01
 -1       335-1.70000E+01 0.00000E+00 3.49999E-01
 -1       336-8.15341E+00 4.40553E+00 3.49999E-01
 -1       337-7.19035E+00 5.84685E+00 3.49999E-01
 -1       338-9.22784E+00 8.55608E+00 3.49999E-01
 -1       339-9.22784E+00-8.55608E+00 3.49999E-01
 -1       340-8.15341E+00-4.40553E+00 3.49999E-01
 -1       341-1.20208E+01-1.20208E+01 3.49999E-01
 -1       342-1.14361E+01-5.25114E+00 3.49999E-01
 -1       343-1.17997E+01-4.37345E+00 3.49999E-01
 -1       344-5.16732E+00 3.16865E+00 3.49999E-01
 -1       345-3.96668E+00-8.33519E+00 3.49999E-01
 -1       346-7.19035E+00-5.84685E+00 3.49999E-01
 -1       347-4.90489E+00-3.56139E+00 3.49999E-01
 -1       348-3.96668E+00 8.33519E+00 3.49999E-01
 -1       349-5.25114E+00 1.14361E+01 3.49999E-01
 -1       350-3.56139E+00 4.90489E+00 3.49999E-01
 -1       351-4.40553E+00 8.15341E+00 3.49999E-01
 -1       352-2.61170E+00 5.67665E-01 3.49999E-01
 -1       353-5.98657E+00 9.50000E-01 3.49999E-01
 -1       354-2.63013E+00 4.74999E-01 3.49999E-01
 -1       355-2.19566E+00-1.52391E+00 3.49999E-01
 -1       356-2.24815E+00 1.44535E+00 3.49999E-01
 -1       357-2.72980E+00 5.34909E+00 3.49999E-01
 -1       358-1.52391E+00 2.19566E+00 3.49999E-01
 -1       359-9.50000E-01-5.98657E+00 3.49999E-01
 -1       360-5.67665E-01-2.61170E+00 3.49999E-01
 -1       361-2.72980E+00-5.34909E+00 3.49999E-01
 -1       362-2.24815E+00-1.44535E+00 3.49999E-01
 -1       363-2.63013E+00-4.74999E-01 3.49999E-01
 -1       364-2.61170E+00-5.67665E-01 3.49999E-01
 -1       365-5.71264E+00-1.85212E+00 3.49999E-01
 -1       366-5.98657E+00-9.50000E-01 3.49999E-01
 -1       367-8.88051E+00-2.65016E+00 3.49999E-01
 -1       368-5.89442E+00-1.41328E+00 3.49999E-01
 -1       369-4.40553E+00-8.15341E+00 3.49999E-01
 -1       370-9.50000E-01 5.98657E+00 3.49999E-01
 -1       371-4.74999E-01 2.63013E+00 3.49999E-01
 -1       372-5.67665E-01 2.61170E+00 3.49999E-01
 -1       373-1.41328E+00 5.89442E+00 3.49999E-01
 -1       374-4.74999E-01-2.63013E+00 3.49999E-01
 -1       375 4.74999E-01 9.21869E+00 3.49999E-01
 -1       376 9.50000E-01-5.98657E+00 3.49999E-01
 -1       377 5.67665E-01 2.61170E+00 3.49999E-01
 -1       378 4.74999E-01 5.98657E+00 3.49999E-01
 -1       379 2.24815E+00-1.44535E+00 3.49999E-01
 -1       380 4.56902E+00-3.89727E+00 3.49999E-01
 -1       381 1.52391E+00 2.19566E+00 3.49999E-01
 -1       382 2.19566E+00-1.52391E+00 3.49999E-01
 -1       383 4.40553E+00-8.15341E+00 3.49999E-01
 -1       384 3.56139E+00 4.90489E+00 3.49999E-01
 -1       385 3.89727E+00 4.56902E+00 3.49999E-01
 -1       386 5.89442E+00-1.41328E+00 3.49999E-01
 -1       387 2.61170E+00 5.67665E-01 3.49999E-01
 -1       388 2.24815E+00 1.44535E+00 3.49999E-01
 -1       389 5.98657E+00-9.50000E-01 3.49999E-01
 -1       390 1.20208E+01 1.20208E+01 3.49999E-01
 -1       391 9.22784E+00 8.55608E+00 3.49999E-01
 -1       392 5.25114E+00 1.14361E+01 3.49999E-01
 -1       393 8.55608E+00 9.22784E+00 3.49999E-01
 -1       394 4.37345E+00 1.17997E+01 3.49999E-01
 -1       395 2.65016E+00 8.88051E+00 3.49999E-01
 -1       396 3.08900E+00 8.69874E+00 3.49999E-01
 -1       397 0.00000E+00 1.70000E+01 3.49999E-01
 -1       398-4.74999E-01 1.25751E+01 3.49999E-01
 -1       399 4.74999E-01 1.25751E+01 3.49999E-01
 -1       400-2.65016E+00 8.88051E+00 3.49999E-01
 -1       401-6.50562E+00 1.57060E+01 3.49999E-01
 -1       402-9.44469E+00 1.41350E+01 3.49999E-01
 -1       403-8.55608E+00 9.22784E+00 3.49999E-01
 -1       404 1.41350E+01 9.44469E+00 3.49999E-01
 -1       405 7.19035E+00 5.84685E+00 3.49999E-01
 -1       406 6.85448E+00 6.18273E+00 3.49999E-01
 -1       407 1.66733E+01 3.31653E+00 3.49999E-01
 -1       408 1.57060E+01 6.50562E+00 3.49999E-01
 -1       409 1.66733E+01-3.31653E+00 3.49999E-01
 -1       410 1.25751E+01-4.74999E-01 3.49999E-01
 -1       411 1.17997E+01 4.37345E+00 3.49999E-01
 -1       412 9.21869E+00 9.50000E-01 3.49999E-01
 -1       413 9.21869E+00 4.74999E-01 3.49999E-01
 -1       414 1.57060E+01-6.50562E+00 3.49999E-01
 -1       415 9.21869E+00-9.50000E-01 3.49999E-01
 -1       416 1.17997E+01-4.37345E+00 3.49999E-01
 -1       417 1.20208E+01-1.20208E+01 3.49999E-01
 -1       418 1.14361E+01-5.25114E+00 3.49999E-01
 -1       419 9.22784E+00-8.55608E+00 3.49999E-01
 -1       420 8.15341E+00-4.40553E+00 3.49999E-01
 -1       421 3.08900E+00-8.69874E+00 3.49999E-01
 -1       422 9.50000E-01-9.21869E+00 3.49999E-01
 -1       423 4.74999E-01-1.25751E+01 3.49999E-01
 -1       424-4.37345E+00-1.17997E+01 3.49999E-01
 -1       425-9.50000E-01-9.21869E+00 3.49999E-01
 -1       426-3.08900E+00-8.69874E+00 3.49999E-01
 -1       427-3.31653E+00-1.66733E+01 3.49999E-01
 -1       428 0.00000E+00-1.70000E+01 3.49999E-01
 -1       429-9.44469E+00-1.41350E+01 3.49999E-01
 -1       430 5.98657E+00 9.50000E-01 3.49999E-01
 -1       431 5.98657E+00 4.74999E-01 3.49999E-01
 -1       432 3.16865E+00 5.16732E+00 3.49999E-01
 -1       433 3.16865E+00-5.16732E+00 3.49999E-01
 -1       434 1.44535E+00-2.24815E+00 3.49999E-01
 -1       435 2.72980E+00-5.34909E+00 3.49999E-01
 -1       436 1.52391E+00-2.19566E+00 3.49999E-01
 -1       437 1.44535E+00 2.24815E+00 3.49999E-01
 -1       438-1.57060E+01 6.50562E+00 3.49999E-01
 -1       439 0.00000E+00-1.70000E+01-3.49999E-01
 -1       440 3.31653E+00-1.66733E+01-3.49999E-01
 -1       441 6.50562E+00-1.57060E+01 3.49999E-01
 -1       442 3.31653E+00-1.66733E+01 3.49999E-01
 -1       443 6.50562E+00-1.57060E+01-3.49999E-01
 -1       444-9.44469E+00-1.41350E+01-3.49999E-01
 -1       445-6.50562E+00-1.57060E+01 3.49999E-01
 -1       446-1.57060E+01-6.50562E+00-3.49999E-01
 -1       447-1.41350E+01-9.44469E+00 3.49999E-01
 -1       448-1.20208E+01-1.20208E+01-3.49999E-01
 -1       449 2.63013E+00 4.74999E-01 1.02500E+00
 -1       450 2.63013E+00-4.74999E-01 1.02500E+00
 -1       451 4.30835E+00 4.74999E-01 1.70000E+00
 -1       452 4.30835E+00-4.74999E-01 1.70000E+00
 -1       453 7.60263E+00 9.50000E-01 1.70000E+00
 -1       454 7.60263E+00-9.50000E-01 1.70000E+00
 -1       455 1.08969E+01 4.74999E-01 1.70000E+00
 -1       456 1.08969E+01-4.74999E-01 1.70000E+00
 -1       457 1.25751E+01 4.74999E-01 1.02500E+00
 -1       458 1.25751E+01-4.74999E-01 1.02500E+00
 -1       459 4.30835E+00-4.74999E-01 3.49999E-01
 -1       460 5.98657E+00-4.74999E-01 1.02500E+00
 -1       461 9.21869E+00-4.74999E-01 1.02500E+00
 -1       462 1.08969E+01-4.74999E-01 3.49999E-01
 -1       463 1.08969E+01 4.74999E-01 3.49999E-01
 -1       464 9.21869E+00 4.74999E-01 1.02500E+00
 -1       465 5.98657E+00 4.74999E-01 1.02500E+00
 -1       466 4.30835E+00 4.74999E-01 3.49999E-01
 -1       467 5.98657E+00-9.50000E-01 1.02500E+00
 -1       468 5.98657E+00 9.50000E-01 1.02500E+00
 -1       469 9.21869E+00-9.50000E-01 1.02500E+00
 -1       470 9.21869E+00 9.50000E-01 1.02500E+00
 -1       471 7.60263E+00-9.50000E-01 3.49999E-01
 -1       472 7.60263E+00 9.50000E-01 3.49999E-01
 -1       473 2.24815E+00 1.44535E+00 1.02500E+00
 -1       474 2.61170E+00 5.67665E-01 1.02500E+00
 -1       475 1.02492E+01 3.73123E+00 1.70000E+00
 -1       476 9.88564E+00 4.60891E+00 1.70000E+00
 -1       477 7.38747E+00 2.03172E+00 1.70000E+00
 -1       478 6.66037E+00 3.78709E+00 1.70000E+00
 -1       479 4.16217E+00 1.20989E+00 1.70000E+00
 -1       480 3.79862E+00 2.08757E+00 1.70000E+00
 -1       481 1.14361E+01 5.25114E+00 1.02500E+00
 -1       482 1.17997E+01 4.37345E+00 1.02500E+00
 -1       483 4.16217E+00 1.20989E+00 3.49999E-01
 -1       484 5.71264E+00 1.85212E+00 1.02500E+00
 -1       485 8.69874E+00 3.08900E+00 1.02500E+00
 -1       486 1.02492E+01 3.73123E+00 3.49999E-01
 -1       487 9.88564E+00 4.60891E+00 3.49999E-01
 -1       488 8.33519E+00 3.96668E+00 1.02500E+00
 -1       489 5.34909E+00 2.72980E+00 1.02500E+00
 -1       490 3.79862E+00 2.08757E+00 3.49999E-01
 -1       491 5.89442E+00 1.41328E+00 1.02500E+00
 -1       492 5.16732E+00 3.16865E+00 1.02500E+00
 -1       493 8.88051E+00 2.65016E+00 1.02500E+00
 -1       494 8.15341E+00 4.40553E+00 1.02500E+00
 -1       495 7.38747E+00 2.03172E+00 3.49999E-01
 -1       496 6.66037E+00 3.78709E+00 3.49999E-01
 -1       497 1.52391E+00 2.19566E+00 1.02500E+00
 -1       498 2.19566E+00 1.52391E+00 1.02500E+00
 -1       499 8.04116E+00 7.36940E+00 1.70000E+00
 -1       500 7.36940E+00 8.04116E+00 1.70000E+00
 -1       501 6.04762E+00 4.70412E+00 1.70000E+00
 -1       502 4.70412E+00 6.04762E+00 1.70000E+00
 -1       503 3.38234E+00 2.71059E+00 1.70000E+00
 -1       504 2.71059E+00 3.38234E+00 1.70000E+00
 -1       505 8.55608E+00 9.22784E+00 1.02500E+00
 -1       506 9.22784E+00 8.55608E+00 1.02500E+00
 -1       507 4.56902E+00 3.89727E+00 1.02500E+00
 -1       508 3.38234E+00 2.71059E+00 3.49999E-01
 -1       509 6.85448E+00 6.18273E+00 1.02500E+00
 -1       510 8.04116E+00 7.36940E+00 3.49999E-01
 -1       511 7.36940E+00 8.04116E+00 3.49999E-01
 -1       512 6.18273E+00 6.85448E+00 1.02500E+00
 -1       513 3.89727E+00 4.56902E+00 1.02500E+00
 -1       514 2.71059E+00 3.38234E+00 3.49999E-01
 -1       515 4.90489E+00 3.56139E+00 1.02500E+00
 -1       516 3.56139E+00 4.90489E+00 1.02500E+00
 -1       517 7.19035E+00 5.84685E+00 1.02500E+00
 -1       518 5.84685E+00 7.19035E+00 1.02500E+00
 -1       519 6.04762E+00 4.70412E+00 3.49999E-01
 -1       520 4.70412E+00 6.04762E+00 3.49999E-01
 -1       521 5.67665E-01 2.61170E+00 1.02500E+00
 -1       522 1.44535E+00 2.24815E+00 1.02500E+00
 -1       523 2.03172E+00 7.38747E+00 1.70000E+00
 -1       524 4.60891E+00 9.88564E+00 1.70000E+00
 -1       525 3.73123E+00 1.02492E+01 1.70000E+00
 -1       526 2.08757E+00 3.79862E+00 1.70000E+00
 -1       527 1.20989E+00 4.16217E+00 1.70000E+00
 -1       528 3.78709E+00 6.66037E+00 1.70000E+00
 -1       529 5.25114E+00 1.14361E+01 1.02500E+00
 -1       530 4.37345E+00 1.17997E+01 1.02500E+00
 -1       531 2.72980E+00 5.34909E+00 1.02500E+00
 -1       532 2.08757E+00 3.79862E+00 3.49999E-01
 -1       533 3.96668E+00 8.33519E+00 1.02500E+00
 -1       534 4.60891E+00 9.88564E+00 3.49999E-01
 -1       535 3.73123E+00 1.02492E+01 3.49999E-01
 -1       536 3.08900E+00 8.69874E+00 1.02500E+00
 -1       537 1.85212E+00 5.71264E+00 1.02500E+00
 -1       538 1.20989E+00 4.16217E+00 3.49999E-01
 -1       539 3.16865E+00 5.16732E+00 1.02500E+00
 -1       540 1.41328E+00 5.89442E+00 1.02500E+00
 -1       541 4.40553E+00 8.15341E+00 1.02500E+00
 -1       542 2.65016E+00 8.88051E+00 1.02500E+00
 -1       543 3.78709E+00 6.66037E+00 3.49999E-01
 -1       544 2.03172E+00 7.38747E+00 3.49999E-01
 -1       545-4.74999E-01 2.63013E+00 1.02500E+00
 -1       546 4.74999E-01 2.63013E+00 1.02500E+00
 -1       547-9.50000E-01 7.60263E+00 1.70000E+00
 -1       548 4.74999E-01 1.08969E+01 1.70000E+00
 -1       549-4.74999E-01 1.08969E+01 1.70000E+00
 -1       550 4.74999E-01 4.30835E+00 1.70000E+00
 -1       551-4.74999E-01 4.30835E+00 1.70000E+00
 -1       552 9.50000E-01 7.60263E+00 1.70000E+00
 -1       553 4.74999E-01 1.25751E+01 1.02500E+00
 -1       554-4.74999E-01 1.25751E+01 1.02500E+00
 -1       555 4.74999E-01 5.98657E+00 1.02500E+00
 -1       556 4.74999E-01 4.30835E+00 3.49999E-01
 -1       557 4.74999E-01 9.21869E+00 1.02500E+00
 -1       558 4.74999E-01 1.08969E+01 3.49999E-01
 -1       559-4.74999E-01 1.08969E+01 3.49999E-01
 -1       560-4.74999E-01 9.21869E+00 1.02500E+00
 -1       561-4.74999E-01 5.98657E+00 1.02500E+00
 -1       562-4.74999E-01 4.30835E+00 3.49999E-01
 -1       563 9.50000E-01 5.98657E+00 1.02500E+00
 -1       564-9.50000E-01 5.98657E+00 1.02500E+00
 -1       565 9.50000E-01 9.21869E+00 1.02500E+00
 -1       566-9.50000E-01 9.21869E+00 1.02500E+00
 -1       567 9.50000E-01 7.60263E+00 3.49999E-01
 -1       568-9.50000E-01 7.60263E+00 3.49999E-01
 -1       569-1.44535E+00 2.24815E+00 1.02500E+00
 -1       570-5.67665E-01 2.61170E+00 1.02500E+00
 -1       571-2.03172E+00 7.38747E+00 1.70000E+00
 -1       572-1.20989E+00 4.16217E+00 1.70000E+00
 -1       573-2.08757E+00 3.79862E+00 1.70000E+00
 -1       574-3.73123E+00 1.02492E+01 1.70000E+00
 -1       575-4.60891E+00 9.88564E+00 1.70000E+00
 -1       576-3.78709E+00 6.66037E+00 1.70000E+00
 -1       577-4.37345E+00 1.17997E+01 1.02500E+00
 -1       578-5.25114E+00 1.14361E+01 1.02500E+00
 -1       579-1.85212E+00 5.71264E+00 1.02500E+00
 -1       580-1.20989E+00 4.16217E+00 3.49999E-01
 -1       581-3.08900E+00 8.69874E+00 1.02500E+00
 -1       582-3.73123E+00 1.02492E+01 3.49999E-01
 -1       583-4.60891E+00 9.88564E+00 3.49999E-01
 -1       584-3.96668E+00 8.33519E+00 1.02500E+00
 -1       585-2.72980E+00 5.34909E+00 1.02500E+00
 -1       586-2.08757E+00 3.79862E+00 3.49999E-01
 -1       587-1.41328E+00 5.89442E+00 1.02500E+00
 -1       588-3.16865E+00 5.16732E+00 1.02500E+00
 -1       589-2.65016E+00 8.88051E+00 1.02500E+00
 -1       590-4.40553E+00 8.15341E+00 1.02500E+00
 -1       591-2.03172E+00 7.38747E+00 3.49999E-01
 -1       592-3.78709E+00 6.66037E+00 3.49999E-01
 -1       593-1.52391E+00 2.19566E+00 1.02500E+00
 -1       594-2.19566E+00 1.52391E+00 1.02500E+00
 -1       595-7.36940E+00 8.04116E+00 1.70000E+00
 -1       596-8.04116E+00 7.36940E+00 1.70000E+00
 -1       597-4.70412E+00 6.04762E+00 1.70000E+00
 -1       598-6.04762E+00 4.70412E+00 1.70000E+00
 -1       599-2.71059E+00 3.38234E+00 1.70000E+00
 -1       600-3.38234E+00 2.71059E+00 1.70000E+00
 -1       601-8.55608E+00 9.22784E+00 1.02500E+00
 -1       602-9.22784E+00 8.55608E+00 1.02500E+00
 -1       603-3.89727E+00 4.56902E+00 1.02500E+00
 -1       604-2.71059E+00 3.38234E+00 3.49999E-01
 -1       605-6.18273E+00 6.85448E+00 1.02500E+00
 -1       606-7.36940E+00 8.04116E+00 3.49999E-01
 -1       607-8.04116E+00 7.36940E+00 3.49999E-01
 -1       608-6.85448E+00 6.18273E+00 1.02500E+00
 -1       609-4.56902E+00 3.89727E+00 1.02500E+00
 -1       610-3.38234E+00 2.71059E+00 3.49999E-01
 -1       611-3.56139E+00 4.90489E+00 1.02500E+00
 -1       612-4.90489E+00 3.56139E+00 1.02500E+00
 -1       613-5.84685E+00 7.19035E+00 1.02500E+00
 -1       614-7.19035E+00 5.84685E+00 1.02500E+00
 -1       615-4.70412E+00 6.04762E+00 3.49999E-01
 -1       616-6.04762E+00 4.70412E+00 3.49999E-01
 -1       617-2.24815E+00 1.44535E+00 1.02500E+00
 -1       618-2.61170E+00 5.67665E-01 1.02500E+00
 -1       619-9.88564E+00 4.60891E+00 1.70000E+00
 -1       620-1.02492E+01 3.73123E+00 1.70000E+00
 -1       621-6.66037E+00 3.78709E+00 1.70000E+00
 -1       622-7.38747E+00 2.03172E+00 1.70000E+00
 -1       623-3.79862E+00 2.08757E+00 1.70000E+00
 -1       624-4.16217E+00 1.20989E+00 1.70000E+00
 -1       625-1.14361E+01 5.25114E+00 1.02500E+00
 -1       626-1.17997E+01 4.37345E+00 1.02500E+00
 -1       627-3.79862E+00 2.08757E+00 3.49999E-01
 -1       628-5.34909E+00 2.72980E+00 1.02500E+00
 -1       629-8.33519E+00 3.96668E+00 1.02500E+00
 -1       630-9.88564E+00 4.60891E+00 3.49999E-01
 -1       631-1.02492E+01 3.73123E+00 3.49999E-01
 -1       632-8.69874E+00 3.08900E+00 1.02500E+00
 -1       633-5.71264E+00 1.85212E+00 1.02500E+00
 -1       634-4.16217E+00 1.20989E+00 3.49999E-01
 -1       635-5.16732E+00 3.16865E+00 1.02500E+00
 -1       636-5.89442E+00 1.41328E+00 1.02500E+00
 -1       637-8.15341E+00 4.40553E+00 1.02500E+00
 -1       638-8.88051E+00 2.65016E+00 1.02500E+00
 -1       639-6.66037E+00 3.78709E+00 3.49999E-01
 -1       640-7.38747E+00 2.03172E+00 3.49999E-01
 -1       641-2.63013E+00 4.74999E-01 1.02500E+00
 -1       642-2.63013E+00-4.74999E-01 1.02500E+00
 -1       643-1.08969E+01 4.74999E-01 1.70000E+00
 -1       644-1.08969E+01-4.74999E-01 1.70000E+00
 -1       645-7.60263E+00 9.50000E-01 1.70000E+00
 -1       646-7.60263E+00-9.50000E-01 1.70000E+00
 -1       647-4.30835E+00 4.74999E-01 1.70000E+00
 -1       648-4.30835E+00-4.74999E-01 1.70000E+00
 -1       649-1.25751E+01 4.74999E-01 1.02500E+00
 -1       650-1.25751E+01-4.74999E-01 1.02500E+00
 -1       651-4.30835E+00 4.74999E-01 3.49999E-01
 -1       652-5.98657E+00 4.74999E-01 1.02500E+00
 -1       653-9.21869E+00 4.74999E-01 1.02500E+00
 -1       654-1.08969E+01 4.74999E-01 3.49999E-01
 -1       655-1.08969E+01-4.74999E-01 3.49999E-01
 -1       656-9.21869E+00-4.74999E-01 1.02500E+00
 -1       657-5.98657E+00-4.74999E-01 1.02500E+00
 -1       658-4.30835E+00-4.74999E-01 3.49999E-01
 -1       659-5.98657E+00 9.50000E-01 1.02500E+00
 -1       660-5.98657E+00-9.50000E-01 1.02500E+00
 -1       661-9.21869E+00 9.50000E-01 1.02500E+00
 -1       662-9.21869E+00-9.50000E-01 1.02500E+00
 -1       663-7.60263E+00 9.50000E-01 3.49999E-01
 -1       664-7.60263E+00-9.50000E-01 3.49999E-01
 -1       665-2.61170E+00-5.67665E-01 1.02500E+00
 -1       666-2.24815E+00-1.44535E+00 1.02500E+00
 -1       667-3.79862E+00-2.08757E+00 1.70000E+00
 -1       668-4.16217E+00-1.20989E+00 1.70000E+00
 -1       669-6.66037E+00-3.78709E+00 1.70000E+00
 -1       670-7.38747E+00-2.03172E+00 1.70000E+00
 -1       671-9.88564E+00-4.60891E+00 1.70000E+00
 -1       672-1.02492E+01-3.73123E+00 1.70000E+00
 -1       673-1.17997E+01-4.37345E+00 1.02500E+00
 -1       674-1.14361E+01-5.25114E+00 1.02500E+00
 -1       675-4.16217E+00-1.20989E+00 3.49999E-01
 -1       676-5.71264E+00-1.85212E+00 1.02500E+00
 -1       677-8.69874E+00-3.08900E+00 1.02500E+00
 -1       678-1.02492E+01-3.73123E+00 3.49999E-01
 -1       679-9.88564E+00-4.60891E+00 3.49999E-01
 -1       680-8.33519E+00-3.96668E+00 1.02500E+00
 -1       681-5.34909E+00-2.72980E+00 1.02500E+00
 -1       682-3.79862E+00-2.08757E+00 3.49999E-01
 -1       683-5.89442E+00-1.41328E+00 1.02500E+00
 -1       684-5.16732E+00-3.16865E+00 1.02500E+00
 -1       685-8.88051E+00-2.65016E+00 1.02500E+00
 -1       686-8.15341E+00-4.40553E+00 1.02500E+00
 -1       687-7.38747E+00-2.03172E+00 3.49999E-01
 -1       688-6.66037E+00-3.78709E+00 3.49999E-01
 -1       689-2.19566E+00-1.52391E+00 1.02500E+00
 -1       690-1.52391E+00-2.19566E+00 1.02500E+00
 -1       691-2.71059E+00-3.38234E+00 1.70000E+00
 -1       692-3.38234E+00-2.71059E+00 1.70000E+00
 -1       693-4.70412E+00-6.04762E+00 1.70000E+00
 -1       694-6.04762E+00-4.70412E+00 1.70000E+00
 -1       695-7.36940E+00-8.04116E+00 1.70000E+00
 -1       696-8.04116E+00-7.36940E+00 1.70000E+00
 -1       697-9.22784E+00-8.55608E+00 1.02500E+00
 -1       698-8.55608E+00-9.22784E+00 1.02500E+00
 -1       699-3.38234E+00-2.71059E+00 3.49999E-01
 -1       700-4.56902E+00-3.89727E+00 1.02500E+00
 -1       701-6.85448E+00-6.18273E+00 1.02500E+00
 -1       702-8.04116E+00-7.36940E+00 3.49999E-01
 -1       703-6.18273E+00-6.85448E+00 1.02500E+00
 -1       704-7.36940E+00-8.04116E+00 3.49999E-01
 -1       705-3.89727E+00-4.56902E+00 1.02500E+00
 -1       706-2.71059E+00-3.38234E+00 3.49999E-01
 -1       707-4.90489E+00-3.56139E+00 1.02500E+00
 -1       708-3.56139E+00-4.90489E+00 1.02500E+00
 -1       709-7.19035E+00-5.84685E+00 1.02500E+00
 -1       710-5.84685E+00-7.19035E+00 1.02500E+00
 -1       711-6.04762E+00-4.70412E+00 3.49999E-01
 -1       712-4.70412E+00-6.04762E+00 3.49999E-01
 -1       713-5.67665E-01-2.61170E+00 1.02500E+00
 -1       714-1.44535E+00-2.24815E+00 1.02500E+00
 -1       715-3.78709E+00-6.66037E+00 1.70000E+00
 -1       716-1.20989E+00-4.16217E+00 1.70000E+00
 -1       717-2.08757E+00-3.79862E+00 1.70000E+00
 -1       718-3.73123E+00-1.02492E+01 1.70000E+00
 -1       719-4.60891E+00-9.88564E+00 1.70000E+00
 -1       720-2.03172E+00-7.38747E+00 1.70000E+00
 -1       721-5.25114E+00-1.14361E+01 1.02500E+00
 -1       722-4.37345E+00-1.17997E+01 1.02500E+00
 -1       723-2.08757E+00-3.79862E+00 3.49999E-01
 -1       724-2.72980E+00-5.34909E+00 1.02500E+00
 -1       725-3.96668E+00-8.33519E+00 1.02500E+00
 -1       726-4.60891E+00-9.88564E+00 3.49999E-01
 -1       727-3.08900E+00-8.69874E+00 1.02500E+00
 -1       728-3.73123E+00-1.02492E+01 3.49999E-01
 -1       729-1.85212E+00-5.71264E+00 1.02500E+00
 -1       730-1.20989E+00-4.16217E+00 3.49999E-01
 -1       731-3.16865E+00-5.16732E+00 1.02500E+00
 -1       732-1.41328E+00-5.89442E+00 1.02500E+00
 -1       733-4.40553E+00-8.15341E+00 1.02500E+00
 -1       734-2.65016E+00-8.88051E+00 1.02500E+00
 -1       735-3.78709E+00-6.66037E+00 3.49999E-01
 -1       736-2.03172E+00-7.38747E+00 3.49999E-01
 -1       737 4.74999E-01-2.63013E+00 1.02500E+00
 -1       738-4.74999E-01-2.63013E+00 1.02500E+00
 -1       739-9.50000E-01-7.60263E+00 1.70000E+00
 -1       740 4.74999E-01-4.30835E+00 1.70000E+00
 -1       741-4.74999E-01-4.30835E+00 1.70000E+00
 -1       742 4.74999E-01-1.08969E+01 1.70000E+00
 -1       743-4.74999E-01-1.08969E+01 1.70000E+00
 -1       744 9.50000E-01-7.60263E+00 1.70000E+00
 -1       745-4.74999E-01-1.25751E+01 1.02500E+00
 -1       746 4.74999E-01-1.25751E+01 1.02500E+00
 -1       747-4.74999E-01-4.30835E+00 3.49999E-01
 -1       748-4.74999E-01-5.98657E+00 1.02500E+00
 -1       749-4.74999E-01-9.21869E+00 1.02500E+00
 -1       750-4.74999E-01-1.08969E+01 3.49999E-01
 -1       751 4.74999E-01-9.21869E+00 1.02500E+00
 -1       752 4.74999E-01-1.08969E+01 3.49999E-01
 -1       753 4.74999E-01-5.98657E+00 1.02500E+00
 -1       754 4.74999E-01-4.30835E+00 3.49999E-01
 -1       755-9.50000E-01-5.98657E+00 1.02500E+00
 -1       756 9.50000E-01-5.98657E+00 1.02500E+00
 -1       757-9.50000E-01-9.21869E+00 1.02500E+00
 -1       758 9.50000E-01-9.21869E+00 1.02500E+00
 -1       759-9.50000E-01-7.60263E+00 3.49999E-01
 -1       760 9.50000E-01-7.60263E+00 3.49999E-01
 -1       761 1.44535E+00-2.24815E+00 1.02500E+00
 -1       762 5.67665E-01-2.61170E+00 1.02500E+00
 -1       763 3.78709E+00-6.66037E+00 1.70000E+00
 -1       764 4.60891E+00-9.88564E+00 1.70000E+00
 -1       765 3.73123E+00-1.02492E+01 1.70000E+00
 -1       766 2.08757E+00-3.79862E+00 1.70000E+00
 -1       767 1.20989E+00-4.16217E+00 1.70000E+00
 -1       768 2.03172E+00-7.38747E+00 1.70000E+00
 -1       769 4.37345E+00-1.17997E+01 1.02500E+00
 -1       770 5.25114E+00-1.14361E+01 1.02500E+00
 -1       771 1.20989E+00-4.16217E+00 3.49999E-01
 -1       772 1.85212E+00-5.71264E+00 1.02500E+00
 -1       773 3.08900E+00-8.69874E+00 1.02500E+00
 -1       774 3.73123E+00-1.02492E+01 3.49999E-01
 -1       775 3.96668E+00-8.33519E+00 1.02500E+00
 -1       776 4.60891E+00-9.88564E+00 3.49999E-01
 -1       777 2.72980E+00-5.34909E+00 1.02500E+00
 -1       778 2.08757E+00-3.79862E+00 3.49999E-01
 -1       779 1.41328E+00-5.89442E+00 1.02500E+00
 -1       780 3.16865E+00-5.16732E+00 1.02500E+00
 -1       781 2.65016E+00-8.88051E+00 1.02500E+00
 -1       782 4.40553E+00-8.15341E+00 1.02500E+00
 -1       783 2.03172E+00-7.38747E+00 3.49999E-01
 -1       784 3.78709E+00-6.66037E+00 3.49999E-01
 -1       785 2.19566E+00-1.52391E+00 1.02500E+00
 -1       786 1.52391E+00-2.19566E+00 1.02500E+00
 -1       787 3.38234E+00-2.71059E+00 1.70000E+00
 -1       788 2.71059E+00-3.38234E+00 1.70000E+00
 -1       789 6.04762E+00-4.70412E+00 1.70000E+00
 -1       790 4.70412E+00-6.04762E+00 1.70000E+00
 -1       791 8.04116E+00-7.36940E+00 1.70000E+00
 -1       792 7.36940E+00-8.04116E+00 1.70000E+00
 -1       793 9.22784E+00-8.55608E+00 1.02500E+00
 -1       794 8.55608E+00-9.22784E+00 1.02500E+00
 -1       795 2.71059E+00-3.38234E+00 3.49999E-01
 -1       796 3.89727E+00-4.56902E+00 1.02500E+00
 -1       797 6.18273E+00-6.85448E+00 1.02500E+00
 -1       798 7.36940E+00-8.04116E+00 3.49999E-01
 -1       799 8.04116E+00-7.36940E+00 3.49999E-01
 -1       800 6.85448E+00-6.18273E+00 1.02500E+00
 -1       801 4.56902E+00-3.89727E+00 1.02500E+00
 -1       802 3.38234E+00-2.71059E+00 3.49999E-01
 -1       803 3.56139E+00-4.90489E+00 1.02500E+00
 -1       804 4.90489E+00-3.56139E+00 1.02500E+00
 -1       805 5.84685E+00-7.19035E+00 1.02500E+00
 -1       806 7.19035E+00-5.84685E+00 1.02500E+00
 -1       807 4.70412E+00-6.04762E+00 3.49999E-01
 -1       808 6.04762E+00-4.70412E+00 3.49999E-01
 -1       809 2.61170E+00-5.67665E-01 1.02500E+00
 -1       810 2.24815E+00-1.44535E+00 1.02500E+00
 -1       811 4.16217E+00-1.20989E+00 1.70000E+00
 -1       812 3.79862E+00-2.08757E+00 1.70000E+00
 -1       813 7.38747E+00-2.03172E+00 1.70000E+00
 -1       814 6.66037E+00-3.78709E+00 1.70000E+00
 -1       815 1.02492E+01-3.73123E+00 1.70000E+00
 -1       816 9.88564E+00-4.60891E+00 1.70000E+00
 -1       817 1.17997E+01-4.37345E+00 1.02500E+00
 -1       818 1.14361E+01-5.25114E+00 1.02500E+00
 -1       819 3.79862E+00-2.08757E+00 3.49999E-01
 -1       820 5.34909E+00-2.72980E+00 1.02500E+00
 -1       821 8.33519E+00-3.96668E+00 1.02500E+00
 -1       822 9.88564E+00-4.60891E+00 3.49999E-01
 -1       823 1.02492E+01-3.73123E+00 3.49999E-01
 -1       824 8.69874E+00-3.08900E+00 1.02500E+00
 -1       825 5.71264E+00-1.85212E+00 1.02500E+00
 -1       826 4.16217E+00-1.20989E+00 3.49999E-01
 -1       827 5.16732E+00-3.16865E+00 1.02500E+00
 -1       828 5.89442E+00-1.41328E+00 1.02500E+00
 -1       829 8.15341E+00-4.40553E+00 1.02500E+00
 -1       830 8.88051E+00-2.65016E+00 1.02500E+00
 -1       831 6.66037E+00-3.78709E+00 3.49999E-01
 -1       832 7.38747E+00-2.03172E+00 3.49999E-01
 -1       833 1.07327E+01 1.30779E+01 3.49999E-01
 -1       834 1.07327E+01 1.30779E+01-3.49999E-01
 -1       835 1.68367E+01-1.65826E+00 3.49999E-01
 -1       836 1.68367E+01-1.65826E+00-3.49999E-01
 -1       837-4.91108E+00-1.61896E+01 3.49999E-01
 -1       838-4.91108E+00-1.61896E+01-3.49999E-01
 -1       839 1.61896E+01 4.91108E+00 3.49999E-01
 -1       840 1.61896E+01 4.91108E+00-3.49999E-01
 -1       841-4.91108E+00 1.61896E+01 3.49999E-01
 -1       842-4.91108E+00 1.61896E+01-3.49999E-01
 -1       843-1.49205E+01 7.97515E+00-3.49999E-01
 -1       844-1.49205E+01 7.97515E+00 3.49999E-01
 -1       845 1.30779E+01-1.07327E+01 3.49999E-01
 -1       846 1.30779E+01-1.07327E+01-3.49999E-01
 -1       847-1.49205E+01-7.97515E+00-3.49999E-01
 -1       848-1.49205E+01-7.97515E+00 3.49999E-01
 -1       849 1.49205E+01 7.97515E+00 3.49999E-01
 -1       850 1.49205E+01 7.97515E+00-3.49999E-01
 -1       851 1.30779E+01 1.07327E+01 3.49999E-01
 -1       852 1.30779E+01 1.07327E+01-3.49999E-01
 -1       853 7.97515E+00 1.49205E+01 3.49999E-01
 -1       854 7.97515E+00 1.49205E+01-3.49999E-01
 -1       855 1.65826E+00 1.68367E+01 3.49999E-01
 -1       856 1.65826E+00 1.68367E+01-3.49999E-01
 -1       857 4.91108E+00 1.61896E+01 3.49999E-01
 -1       858 4.91108E+00 1.61896E+01-3.49999E-01
 -1       859-1.68367E+01 1.65826E+00-3.49999E-01
 -1       860-1.68367E+01 1.65826E+00 3.49999E-01
 -1       861-1.30779E+01 1.07327E+01-3.49999E-01
 -1       862-1.30779E+01 1.07327E+01 3.49999E-01
 -1       863-7.97515E+00 1.49205E+01 3.49999E-01
 -1       864-7.97515E+00 1.49205E+01-3.49999E-01
 -1       865-1.65826E+00 1.68367E+01 3.49999E-01
 -1       866-1.65826E+00 1.68367E+01-3.49999E-01
 -1       867-1.07327E+01 1.30779E+01 3.49999E-01
 -1       868-1.07327E+01 1.30779E+01-3.49999E-01
 -1       869 1.68367E+01 1.65826E+00 3.49999E-01
 -1       870 1.68367E+01 1.65826E+00-3.49999E-01
 -1       871 7.97515E+00-1.49205E+01 3.49999E-01
 -1       872 7.97515E+00-1.49205E+01-3.49999E-01
 -1       873 1.49205E+01-7.97515E+00 3.49999E-01
 -1       874 1.49205E+01-7.97515E+00-3.49999E-01
 -1       875 1.61896E+01-4.91108E+00 3.49999E-01
 -1       876 1.61896E+01-4.91108E+00-3.49999E-01
 -1       877 1.07327E+01-1.30779E+01 3.49999E-01
 -1       878 1.07327E+01-1.30779E+01-3.49999E-01
 -1       879-1.65826E+00-1.68367E+01 3.49999E-01
 -1       880-1.65826E+00-1.68367E+01-3.49999E-01
 -1       881-1.07327E+01-1.30779E+01 3.49999E-01
 -1       882-1.07327E+01-1.30779E+01-3.49999E-01
 -1       883-1.68367E+01-1.65826E+00-3.49999E-01
 -1       884-1.68367E+01-1.65826E+00 3.49999E-01
 -1       885 4.91108E+00-1.61896E+01-3.49999E-01
 -1       886 1.65826E+00-1.68367E+01-3.49999E-01
 -1       887-7.97515E+00-1.49205E+01-3.49999E-01
 -1       888-1.30779E+01-1.07327E+01-3.49999E-01
 -1       889-1.61896E+01-4.91108E+00-3.49999E-01
 -1       890-1.61896E+01 4.91108E+00-3.49999E-01
 -1       891-1.61896E+01 4.91108E+00 3.49999E-01
 -1       892-1.30779E+01-1.07327E+01 3.49999E-01
 -1       893-1.61896E+01-4.91108E+00 3.49999E-01
 -1       894 4.91108E+00-1.61896E+01 3.49999E-01
 -1       895 1.65826E+00-1.68367E+01 3.49999E-01
 -1       896-7.97515E+00-1.49205E+01 3.49999E-01
 -1       897 5.14746E+00 4.74999E-01 1.70000E+00
 -1       898 3.46924E+00 4.74999E-01 1.70000E+00
 -1       899 5.14746E+00-4.74999E-01 1.70000E+00
 -1       900 6.79460E+00 9.50000E-01 1.70000E+00
 -1       901 1.00578E+01 4.74999E-01 1.70000E+00
 -1       902 1.17360E+01-4.74999E-01 1.70000E+00
 -1       903 1.00578E+01-4.74999E-01 3.49999E-01
 -1       904 1.17360E+01-4.74999E-01 3.49999E-01
 -1       905 1.00578E+01 4.74999E-01 3.49999E-01
 -1       906 3.46924E+00 4.74999E-01 3.49999E-01
 -1       907 8.41066E+00-9.50000E-01 3.49999E-01
 -1       908 8.41066E+00 9.50000E-01 3.49999E-01
 -1       909 6.79460E+00 9.50000E-01 3.49999E-01
 -1       910 3.38693E+00 8.88779E-01 1.70000E+00
 -1       911 4.93741E+00 1.53101E+00 1.70000E+00
 -1       912 3.02339E+00 1.76646E+00 1.70000E+00
 -1       913 9.47398E+00 3.41011E+00 3.49999E-01
 -1       914 1.10245E+01 4.05234E+00 3.49999E-01
 -1       915 9.11042E+00 4.28780E+00 3.49999E-01
 -1       916 3.02339E+00 1.76646E+00 3.49999E-01
 -1       917 8.13399E+00 2.34094E+00 3.49999E-01
 -1       918 7.40689E+00 4.09631E+00 3.49999E-01
 -1       919 5.91384E+00 3.47787E+00 3.49999E-01
 -1       920 5.27549E+00 6.61899E+00 1.70000E+00
 -1       921 4.13275E+00 5.47625E+00 1.70000E+00
 -1       922 2.78900E+00 2.11725E+00 1.70000E+00
 -1       923 3.97568E+00 3.30393E+00 1.70000E+00
 -1       924 2.11725E+00 2.78900E+00 1.70000E+00
 -1       925 3.97568E+00 3.30393E+00 3.49999E-01
 -1       926 7.44782E+00 6.77607E+00 3.49999E-01
 -1       927 8.63450E+00 7.96274E+00 3.49999E-01
 -1       928 6.77607E+00 7.44782E+00 3.49999E-01
 -1       929 2.11725E+00 2.78900E+00 3.49999E-01
 -1       930 6.61899E+00 5.27549E+00 3.49999E-01
 -1       931 5.27549E+00 6.61899E+00 3.49999E-01
 -1       932 4.13275E+00 5.47625E+00 3.49999E-01
 -1       933 1.72250E+00 6.64094E+00 1.70000E+00
 -1       934 3.41011E+00 9.47398E+00 1.70000E+00
 -1       935 3.47787E+00 5.91384E+00 1.70000E+00
 -1       936 4.09631E+00 7.40689E+00 1.70000E+00
 -1       937 2.40869E+00 4.57385E+00 3.49999E-01
 -1       938 4.93003E+00 1.06609E+01 3.49999E-01
 -1       939 3.41011E+00 9.47398E+00 3.49999E-01
 -1       940 8.88779E-01 3.38693E+00 3.49999E-01
 -1       941 4.09631E+00 7.40689E+00 3.49999E-01
 -1       942 2.34094E+00 8.13399E+00 3.49999E-01
 -1       943 1.72250E+00 6.64094E+00 3.49999E-01
 -1       944-9.50000E-01 6.79460E+00 1.70000E+00
 -1       945 4.74999E-01 3.46924E+00 1.70000E+00
 -1       946 4.74999E-01 5.14746E+00 1.70000E+00
 -1       947-4.74999E-01 3.46924E+00 1.70000E+00
 -1       948 9.50000E-01 8.41066E+00 1.70000E+00
 -1       949 4.74999E-01 5.14746E+00 3.49999E-01
 -1       950 4.74999E-01 1.00578E+01 3.49999E-01
 -1       951 4.74999E-01 1.17360E+01 3.49999E-01
 -1       952-4.74999E-01 1.00578E+01 3.49999E-01
 -1       953-4.74999E-01 3.46924E+00 3.49999E-01
 -1       954 9.50000E-01 6.79460E+00 3.49999E-01
 -1       955 9.50000E-01 8.41066E+00 3.49999E-01
 -1       956-9.50000E-01 8.41066E+00 3.49999E-01
 -1       957-9.50000E-01 6.79460E+00 3.49999E-01
 -1       958-2.34094E+00 8.13399E+00 1.70000E+00
 -1       959-4.09631E+00 7.40689E+00 1.70000E+00
 -1       960-3.47787E+00 5.91384E+00 1.70000E+00
 -1       961-1.53101E+00 4.93741E+00 3.49999E-01
 -1       962-4.05234E+00 1.10245E+01 3.49999E-01
 -1       963-4.28780E+00 9.11042E+00 3.49999E-01
 -1       964-1.76646E+00 3.02339E+00 3.49999E-01
 -1       965-1.72250E+00 6.64094E+00 3.49999E-01
 -1       966-2.34094E+00 8.13399E+00 3.49999E-01
 -1       967-4.09631E+00 7.40689E+00 3.49999E-01
 -1       968-3.47787E+00 5.91384E+00 3.49999E-01
 -1       969-5.27549E+00 6.61899E+00 1.70000E+00
 -1       970-2.11725E+00 2.78900E+00 1.70000E+00
 -1       971-3.30393E+00 3.97568E+00 1.70000E+00
 -1       972-2.78900E+00 2.11725E+00 1.70000E+00
 -1       973-3.30393E+00 3.97568E+00 3.49999E-01
 -1       974-6.77607E+00 7.44782E+00 3.49999E-01
 -1       975-7.96274E+00 8.63450E+00 3.49999E-01
 -1       976-7.44782E+00 6.77607E+00 3.49999E-01
 -1       977-2.78900E+00 2.11725E+00 3.49999E-01
 -1       978-4.13275E+00 5.47625E+00 3.49999E-01
 -1       979-5.27549E+00 6.61899E+00 3.49999E-01
 -1       980-6.61899E+00 5.27549E+00 3.49999E-01
 -1       981-5.47625E+00 4.13275E+00 3.49999E-01
 -1       982-9.47398E+00 3.41011E+00 1.70000E+00
 -1       983-7.40689E+00 4.09631E+00 1.70000E+00
 -1       984-3.02339E+00 1.76646E+00 1.70000E+00
 -1       985-4.57385E+00 2.40869E+00 1.70000E+00
 -1       986-3.38693E+00 8.88779E-01 1.70000E+00
 -1       987-4.57385E+00 2.40869E+00 3.49999E-01
 -1       988-1.06609E+01 4.93003E+00 3.49999E-01
 -1       989-9.47398E+00 3.41011E+00 3.49999E-01
 -1       990-3.38693E+00 8.88779E-01 3.49999E-01
 -1       991-5.91384E+00 3.47787E+00 3.49999E-01
 -1       992-7.40689E+00 4.09631E+00 3.49999E-01
 -1       993-8.13399E+00 2.34094E+00 3.49999E-01
 -1       994-6.64094E+00 1.72250E+00 3.49999E-01
 -1       995-8.41066E+00 9.50000E-01 1.70000E+00
 -1       996-3.46924E+00 4.74999E-01 1.70000E+00
 -1       997-5.14746E+00 4.74999E-01 1.70000E+00
 -1       998-3.46924E+00-4.74999E-01 1.70000E+00
 -1       999-5.14746E+00 4.74999E-01 3.49999E-01
 -1      1000-1.17360E+01 4.74999E-01 3.49999E-01
 -1      1001-1.00578E+01-4.74999E-01 3.49999E-01
 -1      1002-3.46924E+00-4.74999E-01 3.49999E-01
 -1      1003-6.79460E+00 9.50000E-01 3.49999E-01
 -1      1004-8.41066E+00 9.50000E-01 3.49999E-01
 -1      1005-8.41066E+00-9.50000E-01 3.49999E-01
 -1      1006-6.79460E+00-9.50000E-01 3.49999E-01
 -1      1007-3.02339E+00-1.76646E+00 1.70000E+00
 -1      1008-4.93741E+00-1.53101E+00 1.70000E+00
 -1      1009-6.64094E+00-1.72250E+00 1.70000E+00
 -1      1010-8.13399E+00-2.34094E+00 1.70000E+00
 -1      1011-1.10245E+01-4.05234E+00 1.70000E+00
 -1      1012-4.93741E+00-1.53101E+00 3.49999E-01
 -1      1013-9.47398E+00-3.41011E+00 3.49999E-01
 -1      1014-1.10245E+01-4.05234E+00 3.49999E-01
 -1      1015-9.11042E+00-4.28780E+00 3.49999E-01
 -1      1016-3.02339E+00-1.76646E+00 3.49999E-01
 -1      1017-6.64094E+00-1.72250E+00 3.49999E-01
 -1      1018-8.13399E+00-2.34094E+00 3.49999E-01
 -1      1019-7.40689E+00-4.09631E+00 3.49999E-01
 -1      1020-5.91384E+00-3.47787E+00 3.49999E-01
 -1      1021-3.30393E+00-3.97568E+00 1.70000E+00
 -1      1022-2.11725E+00-2.78900E+00 1.70000E+00
 -1      1023-3.97568E+00-3.30393E+00 1.70000E+00
 -1      1024-5.47625E+00-4.13275E+00 1.70000E+00
 -1      1025-6.61899E+00-5.27549E+00 1.70000E+00
 -1      1026-8.63450E+00-7.96274E+00 1.70000E+00
 -1      1027-3.97568E+00-3.30393E+00 3.49999E-01
 -1      1028-7.44782E+00-6.77607E+00 3.49999E-01
 -1      1029-8.63450E+00-7.96274E+00 3.49999E-01
 -1      1030-6.77607E+00-7.44782E+00 3.49999E-01
 -1      1031-2.11725E+00-2.78900E+00 3.49999E-01
 -1      1032-5.47625E+00-4.13275E+00 3.49999E-01
 -1      1033-6.61899E+00-5.27549E+00 3.49999E-01
 -1      1034-5.27549E+00-6.61899E+00 3.49999E-01
 -1      1035-4.13275E+00-5.47625E+00 3.49999E-01
 -1      1036-4.09631E+00-7.40689E+00 1.70000E+00
 -1      1037-8.88779E-01-3.38693E+00 1.70000E+00
 -1      1038-2.40869E+00-4.57385E+00 1.70000E+00
 -1      1039-1.72250E+00-6.64094E+00 1.70000E+00
 -1      1040-2.40869E+00-4.57385E+00 3.49999E-01
 -1      1041-4.93003E+00-1.06609E+01 3.49999E-01
 -1      1042-3.41011E+00-9.47398E+00 3.49999E-01
 -1      1043-8.88779E-01-3.38693E+00 3.49999E-01
 -1      1044-3.47787E+00-5.91384E+00 3.49999E-01
 -1      1045-4.09631E+00-7.40689E+00 3.49999E-01
 -1      1046-2.34094E+00-8.13399E+00 3.49999E-01
 -1      1047-1.72250E+00-6.64094E+00 3.49999E-01
 -1      1048-9.50000E-01-8.41066E+00 1.70000E+00
 -1      1049-4.74999E-01-5.14746E+00 1.70000E+00
 -1      1050 4.74999E-01-1.00578E+01 1.70000E+00
 -1      1051-4.74999E-01-1.17360E+01 1.70000E+00
 -1      1052-4.74999E-01-5.14746E+00 3.49999E-01
 -1      1053-4.74999E-01-1.17360E+01 3.49999E-01
 -1      1054 4.74999E-01-1.00578E+01 3.49999E-01
 -1      1055 4.74999E-01-3.46924E+00 3.49999E-01
 -1      1056-9.50000E-01-6.79460E+00 3.49999E-01
 -1      1057-9.50000E-01-8.41066E+00 3.49999E-01
 -1      1058 9.50000E-01-8.41066E+00 3.49999E-01
 -1      1059 9.50000E-01-6.79460E+00 3.49999E-01
 -1      1060 3.47787E+00-5.91384E+00 1.70000E+00
 -1      1061 1.76646E+00-3.02339E+00 1.70000E+00
 -1      1062 1.53101E+00-4.93741E+00 1.70000E+00
 -1      1063 1.72250E+00-6.64094E+00 1.70000E+00
 -1      1064 2.34094E+00-8.13399E+00 1.70000E+00
 -1      1065 1.53101E+00-4.93741E+00 3.49999E-01
 -1      1066 3.41011E+00-9.47398E+00 3.49999E-01
 -1      1067 4.05234E+00-1.10245E+01 3.49999E-01
 -1      1068 4.28780E+00-9.11042E+00 3.49999E-01
 -1      1069 1.76646E+00-3.02339E+00 3.49999E-01
 -1      1070 1.72250E+00-6.64094E+00 3.49999E-01
 -1      1071 2.34094E+00-8.13399E+00 3.49999E-01
 -1      1072 4.09631E+00-7.40689E+00 3.49999E-01
 -1      1073 3.47787E+00-5.91384E+00 3.49999E-01
 -1      1074 2.78900E+00-2.11725E+00 1.70000E+00
 -1      1075 3.30393E+00-3.97568E+00 1.70000E+00
 -1      1076 5.47625E+00-4.13275E+00 1.70000E+00
 -1      1077 7.44782E+00-6.77607E+00 1.70000E+00
 -1      1078 7.96274E+00-8.63450E+00 1.70000E+00
 -1      1079 6.77607E+00-7.44782E+00 3.49999E-01
 -1      1080 7.96274E+00-8.63450E+00 3.49999E-01
 -1      1081 7.44782E+00-6.77607E+00 3.49999E-01
 -1      1082 2.78900E+00-2.11725E+00 3.49999E-01
 -1      1083 5.27549E+00-6.61899E+00 3.49999E-01
 -1      1084 6.61899E+00-5.27549E+00 3.49999E-01
 -1      1085 5.47625E+00-4.13275E+00 3.49999E-01
 -1      1086 3.38693E+00-8.88779E-01 1.70000E+00
 -1      1087 4.57385E+00-2.40869E+00 1.70000E+00
 -1      1088 6.64094E+00-1.72250E+00 1.70000E+00
 -1      1089 9.47398E+00-3.41011E+00 1.70000E+00
 -1      1090 1.06609E+01-4.93003E+00 1.70000E+00
 -1      1091 9.11042E+00-4.28780E+00 3.49999E-01
 -1      1092 1.06609E+01-4.93003E+00 3.49999E-01
 -1      1093 9.47398E+00-3.41011E+00 3.49999E-01
 -1      1094 3.38693E+00-8.88779E-01 3.49999E-01
 -1      1095 7.40689E+00-4.09631E+00 3.49999E-01
 -1      1096 8.13399E+00-2.34094E+00 3.49999E-01
 -1      1097 6.64094E+00-1.72250E+00 3.49999E-01
 -1      1098 1.13768E+01 1.25493E+01 3.49999E-01
 -1      1099-5.70835E+00-1.59478E+01 3.49999E-01
 -1      1100-4.11380E+00 1.64315E+01 3.49999E-01
 -1      1101 1.25493E+01-1.13768E+01 3.49999E-01
 -1      1102-1.45278E+01-8.70992E+00-3.49999E-01
 -1      1103 1.53132E+01 7.24039E+00 3.49999E-01
 -1      1104 1.45278E+01 8.70992E+00-3.49999E-01
 -1      1105 1.25493E+01 1.13768E+01 3.49999E-01
 -1      1106 1.36065E+01 1.00887E+01 3.49999E-01
 -1      1107 1.25493E+01 1.13768E+01-3.49999E-01
 -1      1108 7.24039E+00 1.53132E+01 3.49999E-01
 -1      1109 8.70992E+00 1.45278E+01 3.49999E-01
 -1      1110 7.24039E+00 1.53132E+01-3.49999E-01
 -1      1111 4.11380E+00 1.64315E+01 3.49999E-01
 -1      1112 5.70835E+00 1.59478E+01 3.49999E-01
 -1      1113 4.11380E+00 1.64315E+01-3.49999E-01
 -1      1114-1.69183E+01 8.29132E-01-3.49999E-01
 -1      1115-1.36065E+01 1.00887E+01-3.49999E-01
 -1      1116-1.25493E+01 1.13768E+01 3.49999E-01
 -1      1117-8.70992E+00 1.45278E+01 3.49999E-01
 -1      1118-7.24039E+00 1.53132E+01 3.49999E-01
 -1      1119-8.70992E+00 1.45278E+01-3.49999E-01
 -1      1120-8.29132E-01 1.69183E+01 3.49999E-01
 -1      1121-2.48740E+00 1.67550E+01-3.49999E-01
 -1      1122-1.13768E+01 1.25493E+01 3.49999E-01
 -1      1123-1.00887E+01 1.36065E+01 3.49999E-01
 -1      1124-1.13768E+01 1.25493E+01-3.49999E-01
 -1      1125 1.67550E+01 2.48740E+00 3.49999E-01
 -1      1126 1.69183E+01 8.29132E-01 3.49999E-01
 -1      1127 1.67550E+01 2.48740E+00-3.49999E-01
 -1      1128 7.24039E+00-1.53132E+01 3.49999E-01
 -1      1129 1.53132E+01-7.24039E+00-3.49999E-01
 -1      1130 1.64315E+01-4.11380E+00 3.49999E-01
 -1      1131 1.59478E+01-5.70835E+00 3.49999E-01
 -1      1132 1.64315E+01-4.11380E+00-3.49999E-01
 -1      1133 1.13768E+01-1.25493E+01 3.49999E-01
 -1      1134 1.00887E+01-1.36065E+01 3.49999E-01
 -1      1135 1.13768E+01-1.25493E+01-3.49999E-01
 -1      1136-8.29132E-01-1.69183E+01 3.49999E-01
 -1      1137-2.48740E+00-1.67550E+01 3.49999E-01
 -1      1138-8.29132E-01-1.69183E+01-3.49999E-01
 -1      1139 4.11380E+00-1.64315E+01-3.49999E-01
 -1      1140 2.48740E+00-1.67550E+01-3.49999E-01
 -1      1141 8.29132E-01-1.69183E+01-3.49999E-01
 -1      1142-7.24039E+00-1.53132E+01-3.49999E-01
 -1      1143-8.70992E+00-1.45278E+01-3.49999E-01
 -1      1144-1.36065E+01-1.00887E+01-3.49999E-01
 -1      1145-1.64315E+01-4.11380E+00-3.49999E-01
 -1      1146-1.59478E+01 5.70835E+00-3.49999E-01
 -1      1147-1.64315E+01 4.11380E+00 3.49999E-01
 -1      1148-1.25493E+01-1.13768E+01 3.49999E-01
 -1      1149-1.59478E+01-5.70835E+00 3.49999E-01
 -1      1150 5.70835E+00-1.59478E+01 3.49999E-01
 -1      1151 2.48740E+00-1.67550E+01 3.49999E-01
 -1      1152-7.24039E+00-1.53132E+01 3.49999E-01
 -1      1153 3.46924E+00-4.74999E-01 1.70000E+00
 -1      1154 8.41066E+00 9.50000E-01 1.70000E+00
 -1      1155 8.41066E+00-9.50000E-01 1.70000E+00
 -1      1156 6.79460E+00-9.50000E-01 1.70000E+00
 -1      1157 1.17360E+01 4.74999E-01 1.70000E+00
 -1      1158 1.00578E+01-4.74999E-01 1.70000E+00
 -1      1159 5.14746E+00-4.74999E-01 3.49999E-01
 -1      1160 3.46924E+00-4.74999E-01 3.49999E-01
 -1      1161 1.17360E+01 4.74999E-01 3.49999E-01
 -1      1162 5.14746E+00 4.74999E-01 3.49999E-01
 -1      1163 6.79460E+00-9.50000E-01 3.49999E-01
 -1      1164 1.10245E+01 4.05234E+00 1.70000E+00
 -1      1165 9.47398E+00 3.41011E+00 1.70000E+00
 -1      1166 9.11042E+00 4.28780E+00 1.70000E+00
 -1      1167 1.06609E+01 4.93003E+00 1.70000E+00
 -1      1168 8.13399E+00 2.34094E+00 1.70000E+00
 -1      1169 6.64094E+00 1.72250E+00 1.70000E+00
 -1      1170 5.91384E+00 3.47787E+00 1.70000E+00
 -1      1171 7.40689E+00 4.09631E+00 1.70000E+00
 -1      1172 4.57385E+00 2.40869E+00 1.70000E+00
 -1      1173 4.93741E+00 1.53101E+00 3.49999E-01
 -1      1174 3.38693E+00 8.88779E-01 3.49999E-01
 -1      1175 1.06609E+01 4.93003E+00 3.49999E-01
 -1      1176 4.57385E+00 2.40869E+00 3.49999E-01
 -1      1177 6.64094E+00 1.72250E+00 3.49999E-01
 -1      1178 8.63450E+00 7.96274E+00 1.70000E+00
 -1      1179 7.44782E+00 6.77607E+00 1.70000E+00
 -1      1180 6.77607E+00 7.44782E+00 1.70000E+00
 -1      1181 7.96274E+00 8.63450E+00 1.70000E+00
 -1      1182 6.61899E+00 5.27549E+00 1.70000E+00
 -1      1183 5.47625E+00 4.13275E+00 1.70000E+00
 -1      1184 3.30393E+00 3.97568E+00 1.70000E+00
 -1      1185 2.78900E+00 2.11725E+00 3.49999E-01
 -1      1186 7.96274E+00 8.63450E+00 3.49999E-01
 -1      1187 3.30393E+00 3.97568E+00 3.49999E-01
 -1      1188 5.47625E+00 4.13275E+00 3.49999E-01
 -1      1189 2.34094E+00 8.13399E+00 1.70000E+00
 -1      1190 4.93003E+00 1.06609E+01 1.70000E+00
 -1      1191 4.28780E+00 9.11042E+00 1.70000E+00
 -1      1192 4.05234E+00 1.10245E+01 1.70000E+00
 -1      1193 8.88779E-01 3.38693E+00 1.70000E+00
 -1      1194 2.40869E+00 4.57385E+00 1.70000E+00
 -1      1195 1.76646E+00 3.02339E+00 1.70000E+00
 -1      1196 1.53101E+00 4.93741E+00 1.70000E+00
 -1      1197 1.76646E+00 3.02339E+00 3.49999E-01
 -1      1198 4.28780E+00 9.11042E+00 3.49999E-01
 -1      1199 4.05234E+00 1.10245E+01 3.49999E-01
 -1      1200 1.53101E+00 4.93741E+00 3.49999E-01
 -1      1201 3.47787E+00 5.91384E+00 3.49999E-01
 -1      1202-9.50000E-01 8.41066E+00 1.70000E+00
 -1      1203 4.74999E-01 1.17360E+01 1.70000E+00
 -1      1204 4.74999E-01 1.00578E+01 1.70000E+00
 -1      1205-4.74999E-01 1.00578E+01 1.70000E+00
 -1      1206-4.74999E-01 1.17360E+01 1.70000E+00
 -1      1207-4.74999E-01 5.14746E+00 1.70000E+00
 -1      1208 9.50000E-01 6.79460E+00 1.70000E+00
 -1      1209 4.74999E-01 3.46924E+00 3.49999E-01
 -1      1210-4.74999E-01 1.17360E+01 3.49999E-01
 -1      1211-4.74999E-01 5.14746E+00 3.49999E-01
 -1      1212-1.72250E+00 6.64094E+00 1.70000E+00
 -1      1213-1.53101E+00 4.93741E+00 1.70000E+00
 -1      1214-8.88779E-01 3.38693E+00 1.70000E+00
 -1      1215-1.76646E+00 3.02339E+00 1.70000E+00
 -1      1216-2.40869E+00 4.57385E+00 1.70000E+00
 -1      1217-4.05234E+00 1.10245E+01 1.70000E+00
 -1      1218-3.41011E+00 9.47398E+00 1.70000E+00
 -1      1219-4.28780E+00 9.11042E+00 1.70000E+00
 -1      1220-4.93003E+00 1.06609E+01 1.70000E+00
 -1      1221-8.88779E-01 3.38693E+00 3.49999E-01
 -1      1222-3.41011E+00 9.47398E+00 3.49999E-01
 -1      1223-4.93003E+00 1.06609E+01 3.49999E-01
 -1      1224-2.40869E+00 4.57385E+00 3.49999E-01
 -1      1225-7.96274E+00 8.63450E+00 1.70000E+00
 -1      1226-6.77607E+00 7.44782E+00 1.70000E+00
 -1      1227-7.44782E+00 6.77607E+00 1.70000E+00
 -1      1228-8.63450E+00 7.96274E+00 1.70000E+00
 -1      1229-4.13275E+00 5.47625E+00 1.70000E+00
 -1      1230-5.47625E+00 4.13275E+00 1.70000E+00
 -1      1231-6.61899E+00 5.27549E+00 1.70000E+00
 -1      1232-3.97568E+00 3.30393E+00 1.70000E+00
 -1      1233-2.11725E+00 2.78900E+00 3.49999E-01
 -1      1234-8.63450E+00 7.96274E+00 3.49999E-01
 -1      1235-3.97568E+00 3.30393E+00 3.49999E-01
 -1      1236-1.06609E+01 4.93003E+00 1.70000E+00
 -1      1237-9.11042E+00 4.28780E+00 1.70000E+00
 -1      1238-1.10245E+01 4.05234E+00 1.70000E+00
 -1      1239-5.91384E+00 3.47787E+00 1.70000E+00
 -1      1240-6.64094E+00 1.72250E+00 1.70000E+00
 -1      1241-8.13399E+00 2.34094E+00 1.70000E+00
 -1      1242-4.93741E+00 1.53101E+00 1.70000E+00
 -1      1243-3.02339E+00 1.76646E+00 3.49999E-01
 -1      1244-9.11042E+00 4.28780E+00 3.49999E-01
 -1      1245-1.10245E+01 4.05234E+00 3.49999E-01
 -1      1246-4.93741E+00 1.53101E+00 3.49999E-01
 -1      1247-1.17360E+01 4.74999E-01 1.70000E+00
 -1      1248-1.00578E+01 4.74999E-01 1.70000E+00
 -1      1249-1.00578E+01-4.74999E-01 1.70000E+00
 -1      1250-1.17360E+01-4.74999E-01 1.70000E+00
 -1      1251-6.79460E+00 9.50000E-01 1.70000E+00
 -1      1252-6.79460E+00-9.50000E-01 1.70000E+00
 -1      1253-8.41066E+00-9.50000E-01 1.70000E+00
 -1      1254-5.14746E+00-4.74999E-01 1.70000E+00
 -1      1255-3.46924E+00 4.74999E-01 3.49999E-01
 -1      1256-1.00578E+01 4.74999E-01 3.49999E-01
 -1      1257-1.17360E+01-4.74999E-01 3.49999E-01
 -1      1258-5.14746E+00-4.74999E-01 3.49999E-01
 -1      1259-4.57385E+00-2.40869E+00 1.70000E+00
 -1      1260-3.38693E+00-8.88779E-01 1.70000E+00
 -1      1261-5.91384E+00-3.47787E+00 1.70000E+00
 -1      1262-7.40689E+00-4.09631E+00 1.70000E+00
 -1      1263-9.11042E+00-4.28780E+00 1.70000E+00
 -1      1264-1.06609E+01-4.93003E+00 1.70000E+00
 -1      1265-9.47398E+00-3.41011E+00 1.70000E+00
 -1      1266-3.38693E+00-8.88779E-01 3.49999E-01
 -1      1267-1.06609E+01-4.93003E+00 3.49999E-01
 -1      1268-4.57385E+00-2.40869E+00 3.49999E-01
 -1      1269-2.78900E+00-2.11725E+00 1.70000E+00
 -1      1270-4.13275E+00-5.47625E+00 1.70000E+00
 -1      1271-5.27549E+00-6.61899E+00 1.70000E+00
 -1      1272-6.77607E+00-7.44782E+00 1.70000E+00
 -1      1273-7.96274E+00-8.63450E+00 1.70000E+00
 -1      1274-7.44782E+00-6.77607E+00 1.70000E+00
 -1      1275-2.78900E+00-2.11725E+00 3.49999E-01
 -1      1276-7.96274E+00-8.63450E+00 3.49999E-01
 -1      1277-3.30393E+00-3.97568E+00 3.49999E-01
 -1      1278-3.47787E+00-5.91384E+00 1.70000E+00
 -1      1279-1.53101E+00-4.93741E+00 1.70000E+00
 -1      1280-1.76646E+00-3.02339E+00 1.70000E+00
 -1      1281-4.93003E+00-1.06609E+01 1.70000E+00
 -1      1282-3.41011E+00-9.47398E+00 1.70000E+00
 -1      1283-4.05234E+00-1.10245E+01 1.70000E+00
 -1      1284-4.28780E+00-9.11042E+00 1.70000E+00
 -1      1285-2.34094E+00-8.13399E+00 1.70000E+00
 -1      1286-1.76646E+00-3.02339E+00 3.49999E-01
 -1      1287-4.28780E+00-9.11042E+00 3.49999E-01
 -1      1288-4.05234E+00-1.10245E+01 3.49999E-01
 -1      1289-1.53101E+00-4.93741E+00 3.49999E-01
 -1      1290-9.50000E-01-6.79460E+00 1.70000E+00
 -1      1291 4.74999E-01-3.46924E+00 1.70000E+00
 -1      1292 4.74999E-01-5.14746E+00 1.70000E+00
 -1      1293-4.74999E-01-3.46924E+00 1.70000E+00
 -1      1294 4.74999E-01-1.17360E+01 1.70000E+00
 -1      1295-4.74999E-01-1.00578E+01 1.70000E+00
 -1      1296 9.50000E-01-6.79460E+00 1.70000E+00
 -1      1297 9.50000E-01-8.41066E+00 1.70000E+00
 -1      1298-4.74999E-01-3.46924E+00 3.49999E-01
 -1      1299-4.74999E-01-1.00578E+01 3.49999E-01
 -1      1300 4.74999E-01-1.17360E+01 3.49999E-01
 -1      1301 4.74999E-01-5.14746E+00 3.49999E-01
 -1      1302 4.09631E+00-7.40689E+00 1.70000E+00
 -1      1303 4.28780E+00-9.11042E+00 1.70000E+00
 -1      1304 4.93003E+00-1.06609E+01 1.70000E+00
 -1      1305 4.05234E+00-1.10245E+01 1.70000E+00
 -1      1306 3.41011E+00-9.47398E+00 1.70000E+00
 -1      1307 2.40869E+00-4.57385E+00 1.70000E+00
 -1      1308 8.88779E-01-3.38693E+00 1.70000E+00
 -1      1309 8.88779E-01-3.38693E+00 3.49999E-01
 -1      1310 4.93003E+00-1.06609E+01 3.49999E-01
 -1      1311 2.40869E+00-4.57385E+00 3.49999E-01
 -1      1312 3.97568E+00-3.30393E+00 1.70000E+00
 -1      1313 2.11725E+00-2.78900E+00 1.70000E+00
 -1      1314 6.61899E+00-5.27549E+00 1.70000E+00
 -1      1315 5.27549E+00-6.61899E+00 1.70000E+00
 -1      1316 4.13275E+00-5.47625E+00 1.70000E+00
 -1      1317 8.63450E+00-7.96274E+00 1.70000E+00
 -1      1318 6.77607E+00-7.44782E+00 1.70000E+00
 -1      1319 3.30393E+00-3.97568E+00 3.49999E-01
 -1      1320 2.11725E+00-2.78900E+00 3.49999E-01
 -1      1321 8.63450E+00-7.96274E+00 3.49999E-01
 -1      1322 3.97568E+00-3.30393E+00 3.49999E-01
 -1      1323 4.13275E+00-5.47625E+00 3.49999E-01
 -1      1324 4.93741E+00-1.53101E+00 1.70000E+00
 -1      1325 3.02339E+00-1.76646E+00 1.70000E+00
 -1      1326 8.13399E+00-2.34094E+00 1.70000E+00
 -1      1327 7.40689E+00-4.09631E+00 1.70000E+00
 -1      1328 5.91384E+00-3.47787E+00 1.70000E+00
 -1      1329 1.10245E+01-4.05234E+00 1.70000E+00
 -1      1330 9.11042E+00-4.28780E+00 1.70000E+00
 -1      1331 4.57385E+00-2.40869E+00 3.49999E-01
 -1      1332 3.02339E+00-1.76646E+00 3.49999E-01
 -1      1333 1.10245E+01-4.05234E+00 3.49999E-01
 -1      1334 4.93741E+00-1.53101E+00 3.49999E-01
 -1      1335 5.91384E+00-3.47787E+00 3.49999E-01
 -1      1336 1.00887E+01 1.36065E+01 3.49999E-01
 -1      1337 1.00887E+01 1.36065E+01-3.49999E-01
 -1      1338 1.13768E+01 1.25493E+01-3.49999E-01
 -1      1339 1.67550E+01-2.48740E+00 3.49999E-01
 -1      1340 1.69183E+01-8.29132E-01 3.49999E-01
 -1      1341 1.69183E+01-8.29132E-01-3.49999E-01
 -1      1342 1.67550E+01-2.48740E+00-3.49999E-01
 -1      1343-4.11380E+00-1.64315E+01 3.49999E-01
 -1      1344-4.11380E+00-1.64315E+01-3.49999E-01
 -1      1345-5.70835E+00-1.59478E+01-3.49999E-01
 -1      1346 1.64315E+01 4.11380E+00 3.49999E-01
 -1      1347 1.59478E+01 5.70835E+00 3.49999E-01
 -1      1348 1.59478E+01 5.70835E+00-3.49999E-01
 -1      1349 1.64315E+01 4.11380E+00-3.49999E-01
 -1      1350-5.70835E+00 1.59478E+01 3.49999E-01
 -1      1351-5.70835E+00 1.59478E+01-3.49999E-01
 -1      1352-4.11380E+00 1.64315E+01-3.49999E-01
 -1      1353-1.53132E+01 7.24039E+00-3.49999E-01
 -1      1354-1.45278E+01 8.70992E+00-3.49999E-01
 -1      1355-1.45278E+01 8.70992E+00 3.49999E-01
 -1      1356-1.53132E+01 7.24039E+00 3.49999E-01
 -1      1357 1.36065E+01-1.00887E+01 3.49999E-01
 -1      1358 1.36065E+01-1.00887E+01-3.49999E-01
 -1      1359 1.25493E+01-1.13768E+01-3.49999E-01
 -1      1360-1.53132E+01-7.24039E+00-3.49999E-01
 -1      1361-1.53132E+01-7.24039E+00 3.49999E-01
 -1      1362-1.45278E+01-8.70992E+00 3.49999E-01
 -1      1363 1.45278E+01 8.70992E+00 3.49999E-01
 -1      1364 1.53132E+01 7.24039E+00-3.49999E-01
 -1      1365 1.36065E+01 1.00887E+01-3.49999E-01
 -1      1366 8.70992E+00 1.45278E+01-3.49999E-01
 -1      1367 2.48740E+00 1.67550E+01 3.49999E-01
 -1      1368 8.29132E-01 1.69183E+01 3.49999E-01
 -1      1369 8.29132E-01 1.69183E+01-3.49999E-01
 -1      1370 2.48740E+00 1.67550E+01-3.49999E-01
 -1      1371 5.70835E+00 1.59478E+01-3.49999E-01
 -1      1372-1.67550E+01 2.48740E+00-3.49999E-01
 -1      1373-1.67550E+01 2.48740E+00 3.49999E-01
 -1      1374-1.69183E+01 8.29132E-01 3.49999E-01
 -1      1375-1.25493E+01 1.13768E+01-3.49999E-01
 -1      1376-1.36065E+01 1.00887E+01 3.49999E-01
 -1      1377-7.24039E+00 1.53132E+01-3.49999E-01
 -1      1378-2.48740E+00 1.67550E+01 3.49999E-01
 -1      1379-8.29132E-01 1.69183E+01-3.49999E-01
 -1      1380-1.00887E+01 1.36065E+01-3.49999E-01
 -1      1381 1.69183E+01 8.29132E-01-3.49999E-01
 -1      1382 8.70992E+00-1.45278E+01 3.49999E-01
 -1      1383 8.70992E+00-1.45278E+01-3.49999E-01
 -1      1384 7.24039E+00-1.53132E+01-3.49999E-01
 -1      1385 1.45278E+01-8.70992E+00 3.49999E-01
 -1      1386 1.53132E+01-7.24039E+00 3.49999E-01
 -1      1387 1.45278E+01-8.70992E+00-3.49999E-01
 -1      1388 1.59478E+01-5.70835E+00-3.49999E-01
 -1      1389 1.00887E+01-1.36065E+01-3.49999E-01
 -1      1390-2.48740E+00-1.67550E+01-3.49999E-01
 -1      1391-1.13768E+01-1.25493E+01 3.49999E-01
 -1      1392-1.00887E+01-1.36065E+01 3.49999E-01
 -1      1393-1.00887E+01-1.36065E+01-3.49999E-01
 -1      1394-1.13768E+01-1.25493E+01-3.49999E-01
 -1      1395-1.67550E+01-2.48740E+00-3.49999E-01
 -1      1396-1.69183E+01-8.29132E-01-3.49999E-01
 -1      1397-1.69183E+01-8.29132E-01 3.49999E-01
 -1      1398-1.67550E+01-2.48740E+00 3.49999E-01
 -1      1399 5.70835E+00-1.59478E+01-3.49999E-01
 -1      1400-1.25493E+01-1.13768E+01-3.49999E-01
 -1      1401-1.59478E+01-5.70835E+00-3.49999E-01
 -1      1402-1.64315E+01 4.11380E+00-3.49999E-01
 -1      1403-1.59478E+01 5.70835E+00 3.49999E-01
 -1      1404-1.36065E+01-1.00887E+01 3.49999E-01
 -1      1405-1.64315E+01-4.11380E+00 3.49999E-01
 -1      1406 4.11380E+00-1.64315E+01 3.49999E-01
 -1      1407 8.29132E-01-1.69183E+01 3.49999E-01
 -1      1408-8.70992E+00-1.45278E+01 3.49999E-01
 -1      1409 2.49233E+00-1.82058E+00 3.49999E-01
 -1      1410 2.58923E+00-1.58663E+00 3.49999E-01
 -1      1411-7.28222E-01 2.99932E+00 3.49999E-01
 -1      1412-4.74999E-01 2.99932E+00 3.49999E-01
 -1      1413 7.28222E-01 2.99932E+00 3.49999E-01
 -1      1414 4.74999E-01 2.99932E+00 3.49999E-01
 -1      1415-1.00651E+00 2.42992E+00 3.49999E-01
 -1      1416 2.63577E+00 1.60591E+00 3.49999E-01
 -1      1417 2.45671E+00 1.78496E+00 3.49999E-01
 -1      1418 1.82058E+00 2.49233E+00 3.49999E-01
 -1      1419 1.58663E+00 2.58923E+00 3.49999E-01
 -1      1420-2.99932E+00 7.28222E-01 3.49999E-01
 -1      1421-2.99932E+00 4.74999E-01 3.49999E-01
 -1      1422-2.49233E+00-1.82058E+00 3.49999E-01
 -1      1423-2.58923E+00-1.58663E+00 3.49999E-01
 -1      1424 1.82058E+00-2.49233E+00 3.49999E-01
 -1      1425 1.58663E+00-2.58923E+00 3.49999E-01
 -1      1426-1.82058E+00-2.49233E+00 3.49999E-01
 -1      1427-1.58663E+00-2.58923E+00 3.49999E-01
 -1      1428 2.99932E+00 7.28222E-01 3.49999E-01
 -1      1429 2.99932E+00 4.74999E-01 3.49999E-01
 -1      1430-2.99932E+00-7.28222E-01 3.49999E-01
 -1      1431-2.99932E+00-4.74999E-01 3.49999E-01
 -1      1432 2.99932E+00-7.28222E-01 3.49999E-01
 -1      1433 2.99932E+00-4.74999E-01 3.49999E-01
 -1      1434-7.28222E-01-2.99932E+00 3.49999E-01
 -1      1435-4.74999E-01-2.99932E+00 3.49999E-01
 -1      1436-1.00651E+00-2.42992E+00 3.49999E-01
 -1      1437-1.82058E+00 2.49233E+00 3.49999E-01
 -1      1438-1.58663E+00 2.58923E+00 3.49999E-01
 -1      1439 7.28222E-01-2.99932E+00 3.49999E-01
 -1      1440 4.74999E-01-2.99932E+00 3.49999E-01
 -1      1441 1.67225E+00 2.34400E+00 3.49999E-01
 -1      1442 1.51246E+00 2.41018E+00 3.49999E-01
 -1      1443 1.00651E+00 2.42992E+00 3.49999E-01
 -1      1444-2.49233E+00 1.82058E+00 3.49999E-01
 -1      1445-2.58923E+00 1.58663E+00 3.49999E-01
 -1      1446-2.42992E+00-1.00651E+00 3.49999E-01
 -1      1447-1.85978E+00-1.85978E+00 3.49999E-01
 -1      1448 1.85978E+00 1.85978E+00 3.49999E-01
 -1      1449-2.63013E+00 0.00000E+00 3.49999E-01
 -1      1450 1.67225E+00-2.34400E+00 3.49999E-01
 -1      1451 1.51246E+00-2.41018E+00 3.49999E-01
 -1      1452-2.42992E+00 1.00651E+00 3.49999E-01
 -1      1453 1.00651E+00-2.42992E+00 3.49999E-01
 -1      1454 1.85978E+00-1.85978E+00 3.49999E-01
 -1      1455-2.80551E+00-6.47943E-01 3.49999E-01
 -1      1456-2.80551E+00-4.74999E-01 3.49999E-01
 -1      1457 0.00000E+00-2.63013E+00 3.49999E-01
 -1      1458-6.47943E-01 2.80551E+00 3.49999E-01
 -1      1459-4.74999E-01 2.80551E+00 3.49999E-01
 -1      1460 0.00000E+00 2.63013E+00 3.49999E-01
 -1      1461 2.42992E+00 1.00651E+00 3.49999E-01
 -1      1462-2.63013E+00-4.74999E-01 6.87499E-01
 -1      1463-2.34400E+00-1.67225E+00 3.49999E-01
 -1      1464-2.41018E+00-1.51246E+00 3.49999E-01
 -1      1465 1.44535E+00-2.24815E+00 6.87499E-01
 -1      1466 1.44535E+00 2.24815E+00 6.87499E-01
 -1      1467 2.63013E+00 0.00000E+00 3.49999E-01
 -1      1468 2.80551E+00-6.47943E-01 3.49999E-01
 -1      1469 2.80551E+00-4.74999E-01 3.49999E-01
 -1      1470-1.85978E+00 1.85978E+00 3.49999E-01
 -1      1471-2.61170E+00-5.67665E-01 6.87499E-01
 -1      1472 2.42992E+00-1.00651E+00 3.49999E-01
 -1      1473-2.34400E+00 1.67225E+00 3.49999E-01
 -1      1474-2.41018E+00 1.51246E+00 3.49999E-01
 -1      1475 2.63013E+00-4.74999E-01 6.87499E-01
 -1      1476 2.34400E+00-1.67225E+00 3.49999E-01
 -1      1477 2.41018E+00-1.51246E+00 3.49999E-01
 -1      1478-4.74999E-01 2.63013E+00 6.87499E-01
 -1      1479 1.52391E+00 2.19566E+00 6.87499E-01
 -1      1480-1.67225E+00 2.34400E+00 3.49999E-01
 -1      1481-1.51246E+00 2.41018E+00 3.49999E-01
 -1      1482 6.47943E-01-2.80551E+00 3.49999E-01
 -1      1483 4.74999E-01-2.80551E+00 3.49999E-01
 -1      1484-5.67665E-01 2.61170E+00 6.87499E-01
 -1      1485 6.47943E-01 2.80551E+00 3.49999E-01
 -1      1486 4.74999E-01 2.80551E+00 3.49999E-01
 -1      1487 5.67665E-01 2.61170E+00 6.87499E-01
 -1      1488 2.44196E+00 1.52563E+00 3.49999E-01
 -1      1489 2.31967E+00 1.64792E+00 3.49999E-01
 -1      1490-2.24815E+00-1.44535E+00 6.87499E-01
 -1      1491-2.19566E+00-1.52391E+00 6.87499E-01
 -1      1492 2.24815E+00 1.44535E+00 6.87499E-01
 -1      1493-2.19566E+00 1.52391E+00 6.87499E-01
 -1      1494 1.52391E+00-2.19566E+00 6.87499E-01
 -1      1495 2.80551E+00 6.47943E-01 3.49999E-01
 -1      1496 2.80551E+00 4.74999E-01 3.49999E-01
 -1      1497-6.47943E-01-2.80551E+00 3.49999E-01
 -1      1498-4.74999E-01-2.80551E+00 3.49999E-01
 -1      1499 5.67665E-01-2.61170E+00 6.87499E-01
 -1      1500-1.44535E+00 2.24815E+00 6.87499E-01
 -1      1501-2.24815E+00 1.44535E+00 6.87499E-01
 -1      1502-1.52391E+00 2.19566E+00 6.87499E-01
 -1      1503-2.80551E+00 6.47943E-01 3.49999E-01
 -1      1504-2.80551E+00 4.74999E-01 3.49999E-01
 -1      1505-2.63013E+00 4.74999E-01 6.87499E-01
 -1      1506-1.67225E+00-2.34400E+00 3.49999E-01
 -1      1507-1.51246E+00-2.41018E+00 3.49999E-01
 -1      1508 2.63013E+00 4.74999E-01 6.87499E-01
 -1      1509 4.74999E-01 2.63013E+00 6.87499E-01
 -1      1510 2.19566E+00-1.52391E+00 6.87499E-01
 -1      1511 4.74999E-01-2.63013E+00 6.87499E-01
 -1      1512 2.61170E+00 5.67665E-01 6.87499E-01
 -1      1513-2.61170E+00 5.67665E-01 6.87499E-01
 -1      1514 2.02772E+00-1.69185E+00 3.49999E-01
 -1      1515 2.61170E+00-5.67665E-01 6.87499E-01
 -1      1516 2.24815E+00-1.44535E+00 6.87499E-01
 -1      1517-5.67665E-01-2.61170E+00 6.87499E-01
 -1      1518 2.19566E+00 1.52391E+00 6.87499E-01
 -1      1519-1.52391E+00-2.19566E+00 6.87499E-01
 -1      1520-1.44535E+00-2.24815E+00 6.87499E-01
 -1      1521-4.74999E-01-2.63013E+00 6.87499E-01
 -1      1522-1.21556E+01 2.41790E+00 3.49999E-01
 -1      1523-6.88558E+00-1.03050E+01 3.49999E-01
 -1      1524 1.47836E+01-2.00254E-01 3.49999E-01
 -1      1525-4.67924E+00-1.39901E+01 3.49999E-01
 -1      1526-2.61794E+00-1.31613E+01 3.49999E-01
 -1      1527-1.04186E+00-1.47128E+01 3.49999E-01
 -1      1528 7.08348E+00-1.06013E+01-3.49999E-01
 -1      1529 1.39901E+01 4.67924E+00 3.49999E-01
 -1      1530-5.47244E+00 1.37349E+01 3.49999E-01
 -1      1531 1.15508E+01 8.94056E+00 3.49999E-01
 -1      1532 1.11346E+01-9.67677E+00 3.49999E-01
 -1      1533 2.64492E+00 1.41048E+01 3.49999E-01
 -1      1534 5.47244E+00 1.37349E+01 3.49999E-01
 -1      1535-1.17803E+01-4.87957E+00-3.49999E-01
 -1      1536-1.11346E+01 9.67677E+00 3.49999E-01
 -1      1537 0.00000E+00 1.27506E+01-3.49999E-01
 -1      1538-1.84565E+00 1.44896E+01 3.49999E-01
 -1      1539-1.03038E+00 1.47120E+01-3.49999E-01
 -1      1540 5.84244E+00-1.35816E+01 3.49999E-01
 -1      1541 1.40929E+01-3.83980E+00 3.49999E-01
 -1      1542 7.39061E+00-1.14636E+00-3.49999E-01
 -1      1543 8.10328E+00-1.18439E+01 3.49999E-01
 -1      1544-1.37515E+01-2.61012E+00-3.49999E-01
 -1      1545-1.47836E+01-2.00254E-01 3.49999E-01
 -1      1546-9.01529E+00-9.01529E+00-3.49999E-01
 -1      1547-7.96950E+00-1.16809E+01-3.49999E-01
 -1      1548 5.46806E+00 8.18367E+00-3.49999E-01
 -1      1549 1.31613E+01 2.61794E+00 3.49999E-01
 -1      1550-1.06013E+01 7.08348E+00-3.49999E-01
 -1      1551 1.29843E+01 3.88641E+00 3.49999E-01
 -1      1552-1.18333E+01-7.74205E+00-3.49999E-01
 -1      1553-1.33989E+01-6.28128E+00-3.49999E-01
 -1      1554-1.36384E+01 5.64931E+00 3.49999E-01
 -1      1555-1.03050E+01-6.88556E+00 3.49999E-01
 -1      1556 5.87143E+00 1.18685E+01-3.49999E-01
 -1      1557-8.32454E+00-1.21135E+01 3.49999E-01
 -1      1558-1.22519E+01 8.43811E+00-3.49999E-01
 -1      1559 9.26224E+00 9.21796E+00-3.49999E-01
 -1      1560 6.90186E+00-1.02887E+01 3.49999E-01
 -1      1561 2.64242E+00 1.03575E+01-3.49999E-01
 -1      1562-1.36384E+01-5.64931E+00 3.49999E-01
 -1      1563-9.59363E+00 6.41027E+00 3.49999E-01
 -1      1564 0.00000E+00 0.00000E+00 3.49999E-01
 -1      1565-1.03547E+01 1.01146E+01-3.49999E-01
 -1      1566 7.93427E+00 1.18745E+01 3.49999E-01
 -1      1567 1.06585E+01 7.12181E+00 3.49999E-01
 -1      1568 1.01563E+01 1.01563E+01 3.49999E-01
 -1      1569 1.38753E+01-1.91322E+00 3.49999E-01
 -1      1570-7.93427E+00 1.18745E+01 3.49999E-01
 -1      1571 1.23592E+01-7.53712E+00 3.49999E-01
 -1      1572-6.64386E+00-1.33276E+01 3.49999E-01
 -1      1573 3.43449E+00-1.40702E+01 3.49999E-01
 -1      1574 8.21490E+00-1.05160E+01 3.49999E-01
 -1      1575-1.42008E+01 1.84275E+00 3.49999E-01
 -1      1576-4.90242E-01-9.22869E+00-3.49999E-01
 -1      1577-1.04384E+01-1.04384E+01 3.49999E-01
 -1      1578-4.32865E+00 8.09882E+00-3.49999E-01
 -1      1579-1.07223E+01 8.61889E+00-3.49999E-01
 -1      1580-7.62229E+00 1.16093E+01-3.49999E-01
 -1      1581-1.18391E+01 9.88269E+00-3.49999E-01
 -1      1582-1.44541E+01 3.82501E+00 3.49999E-01
 -1      1583-6.33714E+00 6.23622E-01-3.49999E-01
 -1      1584-1.42115E+01 1.43906E-01-3.49999E-01
 -1      1585 8.66307E-01 2.37234E+00-3.49999E-01
 -1      1586-1.30012E+01 5.84212E+00-3.49999E-01
 -1      1587 9.92710E+00-1.13286E+01 3.49999E-01
 -1      1588 1.03521E+01 8.97323E+00 3.49999E-01
 -1      1589 1.17740E+01 7.71035E+00-3.49999E-01
 -1      1590 5.93493E+00 8.88226E+00 3.49999E-01
 -1      1591 2.08407E+00 1.04773E+01 3.49999E-01
 -1      1592-2.41790E+00 1.21556E+01 3.49999E-01
 -1      1593 6.75071E+00 1.35135E+01-3.49999E-01
 -1      1594-1.43360E+01 6.24567E+00-3.49999E-01
 -1      1595 2.41790E+00-1.21556E+01 3.49999E-01
 -1      1596 1.03050E+01-6.88558E+00 3.49999E-01
 -1      1597 4.71672E+00 1.01304E+01-3.49999E-01
 -1      1598 1.28659E+01 7.16714E+00 3.49999E-01
 -1      1599 9.51793E+00-1.09410E+01-3.49999E-01
 -1      1600 1.26994E+01 4.28773E+00-3.49999E-01
 -1      1601 1.12508E+01 9.77212E+00-3.49999E-01
 -1      1602-8.36305E+00 1.29951E+01-3.49999E-01
 -1      1603 1.27506E+01 0.00000E+00-3.49999E-01
 -1      1604-1.39152E+01 2.91526E+00-3.49999E-01
 -1      1605 4.04777E+00-5.77022E+00-3.49999E-01
 -1      1606 1.83538E+00 1.43853E+01-3.49999E-01
 -1      1607 8.78425E+00 1.06778E+01 3.49999E-01
 -1      1608 0.00000E+00 1.43631E+01 3.49999E-01
 -1      1609 1.18311E+01 1.02484E+01 3.49999E-01
 -1      1610 4.16431E+00 1.47273E+01 3.49999E-01
 -1      1611-6.72040E+00-1.18127E+01 3.49999E-01
 -1      1612-1.39834E+01-2.78144E+00 3.49999E-01
 -1      1613 1.27874E+01 5.29677E+00 3.49999E-01
 -1      1614 1.40143E+01 1.23294E+00 3.49999E-01
 -1      1615 2.71019E-01 1.55019E+01-3.49999E-01
 -1      1616-1.09836E+01 7.75129E+00 3.49999E-01
 -1      1617-1.47902E+01 5.79253E+00 3.49999E-01
 -1      1618-4.65050E+00-5.03653E+00-3.49999E-01
 -1      1619 1.34200E+01-5.77938E+00 3.49999E-01
 -1      1620 4.47832E-01 1.40955E+01-3.49999E-01
 -1      1621 1.44076E+01 4.80587E+00-3.49999E-01
 -1      1622 1.25103E+01-9.04389E+00 3.49999E-01
 -1      1623 3.49301E+00 8.53975E+00-3.49999E-01
 -1      1624-1.25805E+01-5.21106E+00 3.49999E-01
 -1      1625-3.12151E+00-1.48866E+01 3.49999E-01
 -1      1626-1.11910E+00 1.56126E+01 3.49999E-01
 -1      1627-1.39590E+01 6.98886E+00 3.49999E-01
 -1      1628 1.06620E+01-8.29834E+00 3.49999E-01
 -1      1629 2.48724E+00-1.25040E+01-3.49999E-01
 -1      1630-1.03198E+01 1.12928E+00-3.49999E-01
 -1      1631-5.37343E+00-1.28045E+01 3.49999E-01
 -1      1632 1.52079E+01-2.73829E+00 3.49999E-01
 -1      1633-1.46160E+01-5.73970E+00-3.49999E-01
 -1      1634 1.37292E+01-7.38482E-01 3.49999E-01
 -1      1635-8.41144E+00-1.30857E+01-3.49999E-01
 -1      1636 4.50839E+00-1.31849E+01 3.49999E-01
 -1      1637 1.54847E+01-1.38752E+00 3.49999E-01
 -1      1638-1.20682E+01 6.97895E+00-3.49999E-01
 -1      1639 1.51775E+00 1.55944E+01-3.49999E-01
 -1      1640 1.10963E+01-1.07231E+01-3.49999E-01
 -1      1641-1.36221E+01-4.19266E+00 3.49999E-01
 -1      1642-6.84535E+00 1.02448E+01 3.49999E-01
 -1      1643-3.66898E+00 1.34794E+01 3.49999E-01
 -1      1644 4.70597E+00 1.40783E+01-3.49999E-01
 -1      1645-2.09392E+00 1.05268E+01 3.49999E-01
 -1      1646 3.35161E+00 1.49886E+01-3.49999E-01
 -1      1647-1.53449E-01 1.47342E+01-3.49999E-01
 -1      1648-2.43129E+00 1.33960E+01 3.49999E-01
 -1      1649-4.66927E+00 1.29114E+01 3.49999E-01
 -1      1650-1.04774E+01 2.08408E+00 3.49999E-01
 -1      1651 9.96256E+00 1.17122E+01 3.49999E-01
 -1      1652 2.02209E+00 1.23279E+01-3.49999E-01
 -1      1653 6.97410E+00 9.88329E+00-3.49999E-01
 -1      1654-5.23945E+00-1.29668E+01-3.49999E-01
 -1      1655-1.95445E+00 1.55940E+01-3.49999E-01
 -1      1656 3.82996E+00 4.75319E+00-3.49999E-01
 -1      1657-1.09016E+01 6.44542E+00 3.49999E-01
 -1      1658 2.87791E+00 1.01485E+01 3.49999E-01
 -1      1659 2.77669E+00 1.54424E+01 3.49999E-01
 -1      1660-1.34959E+01 7.68600E+00-3.49999E-01
 -1      1661-9.97525E+00-1.09299E+01-3.49999E-01
 -1      1662-3.29776E+00 3.81440E+00-3.49999E-01
 -1      1663-8.93314E+00-1.07102E+01 3.49999E-01
 -1      1664-2.26216E+00-1.13727E+01 3.49999E-01
 -1      1665-3.88641E+00-1.29843E+01 3.49999E-01
 -1      1666 9.24904E+00 6.18001E+00 3.49999E-01
 -1      1667 9.47951E+00 9.47951E+00 3.49999E-01
 -1      1668-7.67411E+00-1.11543E+01 3.49999E-01
 -1      1669 5.90932E+00 1.05907E+01-3.49999E-01
 -1      1670 2.39760E+00 1.51792E+01-3.49999E-01
 -1      1671 1.15463E+01-6.53602E+00 3.49999E-01
 -1      1672-8.92619E+00 1.28466E+01 3.49999E-01
 -1      1673 1.05357E+01 8.49333E+00-3.49999E-01
 -1      1674-1.24825E+01-7.64474E+00 3.49999E-01
 -1      1675-1.49016E+01 4.08507E+00-3.49999E-01
 -1      1676-1.24480E+01 1.35685E+00-3.49999E-01
 -1      1677 9.43727E+00-1.01505E+01 3.49999E-01
 -1      1678 3.62084E+00 9.70745E+00-3.49999E-01
 -1      1679 1.51566E+01 4.16242E+00 3.49999E-01
 -1      1680 1.14041E+01 1.09758E+01-3.49999E-01
 -1      1681 1.21966E+01 1.05484E+01-3.49999E-01
 -1      1682-1.48955E+01 5.23780E+00-3.49999E-01
 -1      1683-8.92417E+00-5.96294E+00 3.49999E-01
 -1      1684 1.16355E+01 1.11657E+01 3.49999E-01
 -1      1685 9.10105E+00-5.90322E+00-3.49999E-01
 -1      1686 2.59758E+00 9.22862E+00-3.49999E-01
 -1      1687 1.09286E+01 8.11757E+00 3.49999E-01
 -1      1688 1.46729E+01 5.75697E+00 3.49999E-01
 -1      1689-1.38829E+01 5.33494E+00-3.49999E-01
 -1      1690-1.39590E+01-6.98886E+00 3.49999E-01
 -1      1691 6.94093E+00 1.38693E+01 3.49999E-01
 -1      1692-1.35228E+01-7.70038E+00-3.49999E-01
 -1      1693-1.14617E+01 3.75525E+00-3.49999E-01
 -1      1694 1.27468E+00 1.37446E+01 3.49999E-01
 -1      1695-9.06984E+00-1.30216E+01 3.49999E-01
 -1      1696-1.27127E+01 8.31239E+00 3.49999E-01
 -1      1697 7.01741E+00 1.03230E+01 3.49999E-01
 -1      1698-1.07705E+01 1.11540E+01 3.49999E-01
 -1      1699-6.45796E+00 1.24800E+01 3.49999E-01
 -1      1700-2.77736E+00 1.54492E+01 3.49999E-01
 -1      1701-1.38003E+01-1.31006E+00 3.49999E-01
 -1      1702 5.38721E+00 8.06253E+00 3.49999E-01
 -1      1703 1.20366E+01 7.92653E+00 3.49999E-01
 -1      1704-1.37279E+01 8.01975E+00 3.49999E-01
 -1      1705 1.09712E+01 9.68344E+00 3.49999E-01
 -1      1706-5.03944E+00-8.99337E+00-3.49999E-01
 -1      1707-7.07340E+00 5.17216E+00-3.49999E-01
 -1      1708 1.48753E+01 2.09295E-01-3.49999E-01
 -1      1709-1.53374E+01 2.71680E+00-3.49999E-01
 -1      1710-1.10166E+01 9.48422E+00-3.49999E-01
 -1      1711-1.43576E+01 7.20190E+00-3.49999E-01
 -1      1712 1.54751E+01 1.09394E+00 3.49999E-01
 -1      1713-1.43483E+01-6.77642E+00-3.49999E-01
 -1      1714-1.43213E+01 4.86016E+00 3.49999E-01
 -1      1715-8.63487E+00-1.04040E+01-3.49999E-01
 -1      1716 1.35656E+01 6.20094E+00 3.49999E-01
 -1      1717 2.09392E+00-1.05268E+01 3.49999E-01
 -1      1718 1.23749E+00 1.52908E+01 3.49999E-01
 -1      1719 3.96808E+00 1.22769E+01-3.49999E-01
 -1      1720-2.12846E+00-1.42403E+01 3.49999E-01
 -1      1721-1.55326E+01 1.94839E+00 3.49999E-01
 -1      1722 5.96048E+00-8.92048E+00 3.49999E-01
 -1      1723 6.66693E+00-1.17119E+01 3.49999E-01
 -1      1724 3.88062E+00-1.42275E+01-3.49999E-01
 -1      1725-1.54098E+01 1.09913E+00-3.49999E-01
 -1      1726-8.22723E+00-5.49630E+00-3.49999E-01
 -1      1727-1.13070E+01-1.08961E+01-3.49999E-01
 -1      1728 8.91843E+00-1.12438E+01 3.49999E-01
 -1      1729 1.11998E+01-1.09917E+01 3.49999E-01
 -1      1730 1.13255E+00 1.31205E+01-3.49999E-01
 -1      1731 5.66436E+00 9.90258E+00 3.49999E-01
 -1      1732-9.75009E-01 1.36650E+01 3.49999E-01
 -1      1733-3.95228E+00-1.44638E+01-3.49999E-01
 -1      1734-9.93987E+00 1.21000E+01 3.49999E-01
 -1      1735 8.94043E+00 1.15506E+01-3.49999E-01
 -1      1736 9.69933E+00 1.24753E+01-3.49999E-01
 -1      1737 7.44557E+00-1.11200E+01 3.49999E-01
 -1      1738-1.12548E+01 1.10091E+01-3.49999E-01
 -1      1739-1.55254E+01 3.40367E+00 3.49999E-01
 -1      1740-9.01251E+00-1.14126E+01-3.49999E-01
 -1      1741-4.09331E+00 1.26130E+01-3.49999E-01
 -1      1742-1.34090E+01 2.95124E+00 3.49999E-01
 -1      1743 2.99493E+00-1.48877E+00-3.49999E-01
 -1      1744 1.37399E+01-7.17136E+00 3.49999E-01
 -1      1745 2.49812E-01 6.17473E+00-3.49999E-01
 -1      1746 4.51627E+00 9.01858E+00-3.49999E-01
 -1      1747-7.03505E+00-7.61102E+00-3.49999E-01
 -1      1748 7.44481E+00 1.20850E+01-3.49999E-01
 -1      1749-1.02038E+01-6.34054E+00-3.49999E-01
 -1      1750-1.52970E+01-1.08801E+00-3.49999E-01
 -1      1751-2.39163E+00 6.29866E+00-3.49999E-01
 -1      1752 4.98794E+00 1.12028E+01-3.49999E-01
 -1      1753 1.20936E+01-9.38602E+00-3.49999E-01
 -1      1754 1.02106E+00 1.48177E+01-3.49999E-01
 -1      1755 1.74346E+00-1.37409E+01 3.49999E-01
 -1      1756 1.21183E+00 1.39041E+01-3.49999E-01
 -1      1757-1.39050E+01-1.22033E+00-3.49999E-01
 -1      1758-5.95228E+00-1.09391E+01-3.49999E-01
 -1      1759-1.00164E+01-5.82289E+00 3.49999E-01
 -1      1760-8.88227E-01 4.03905E+00-3.49999E-01
 -1      1761 1.54916E+01-1.10718E+00-3.49999E-01
 -1      1762 1.31423E+01-8.44171E+00-3.49999E-01
 -1      1763 1.57119E+01 1.12888E+00-3.49999E-01
 -1      1764-2.33683E+00-1.43913E-01-3.49999E-01
 -1      1765-1.30671E+00 1.84166E+00-3.49999E-01
 -1      1766 5.33806E+00-3.18275E+00-3.49999E-01
 -1      1767 9.73325E+00-8.38706E+00-3.49999E-01
 -1      1768-1.47209E+01-4.03026E+00-3.49999E-01
 -1      1769 3.28114E+00 1.47174E+01 3.49999E-01
 -1      1770-1.47902E+01-5.79253E+00 3.49999E-01
 -1      1771-2.33479E+00-1.17712E+01-3.49999E-01
 -1      1772-9.10580E-01 1.46050E+01 3.49999E-01
 -1      1773-1.73231E-01 9.90398E+00-3.49999E-01
 -1      1774 1.53365E+01 4.21699E+00-3.49999E-01
 -1      1775-1.50912E+01 6.00568E+00-3.49999E-01
 -1      1776 8.50212E+00 1.26841E+01-3.49999E-01
 -1      1777-1.43290E+01 4.65843E+00-3.49999E-01
 -1      1778 1.39255E+01-1.03780E+00-3.49999E-01
 -1      1779-3.43430E+00 1.68546E+00-3.49999E-01
 -1      1780-1.24180E+01 6.78634E+00 3.49999E-01
 -1      1781-1.02218E+01-1.17987E+01 3.49999E-01
 -1      1782 3.35810E+00-1.28836E+01 3.49999E-01
 -1      1783 2.43829E+00-1.31004E+01 3.49999E-01
 -1      1784-8.65930E-01 1.58093E+01-3.49999E-01
 -1      1785-1.31299E+01 4.25707E+00 3.49999E-01
 -1      1786 4.80287E+00-1.46361E+01 3.49999E-01
 -1      1787 3.16845E+00-3.71628E+00-3.49999E-01
 -1      1788-1.13569E+01 5.44388E+00-3.49999E-01
 -1      1789-1.19595E+01-6.30798E+00-3.49999E-01
 -1      1790-1.16416E+01 8.66835E+00 3.49999E-01
 -1      1791-1.31285E+01 7.34402E+00 3.49999E-01
 -1      1792 1.47267E+01-6.62754E-01-3.49999E-01
 -1      1793-1.07088E+01-1.95808E+00-3.49999E-01
 -1      1794-2.82164E+00 1.58987E+01-3.49999E-01
 -1      1795 1.25633E+01 4.54657E+00 3.49999E-01
 -1      1796-1.56712E+01-1.12487E+00 3.49999E-01
 -1      1797-1.58551E+01 3.05809E-01 3.49999E-01
 -1      1798-1.36373E+01 0.00000E+00 3.49999E-01
 -1      1799-3.90855E-01 2.80578E+00-3.49999E-01
 -1      1800-4.73950E+00 5.73373E+00-3.49999E-01
 -1      1801 5.16454E+00-9.55247E-01-3.49999E-01
 -1      1802-1.10933E+01-6.95436E+00-3.49999E-01
 -1      1803 7.13130E-01 3.96794E+00-3.49999E-01
 -1      1804-1.30260E+01 1.58909E+00 3.49999E-01
 -1      1805 4.26932E+00-1.39889E+01 3.49999E-01
 -1      1806 7.46916E+00-1.33584E+01 3.49999E-01
 -1      1807 5.61753E+00-1.42132E+01-3.49999E-01
 -1      1808 1.47962E+01 4.92373E+00 3.49999E-01
 -1      1809 5.67810E+00 9.38310E+00-3.49999E-01
 -1      1810 2.21482E+00 1.22436E+01 3.49999E-01
 -1      1811-1.38500E+01 1.50677E+00-3.49999E-01
 -1      1812-1.48050E+01 2.67247E+00 3.49999E-01
 -1      1813-1.26934E+01-6.43442E+00 3.49999E-01
 -1      1814 1.25529E+01 9.00533E+00-3.49999E-01
 -1      1815-9.59398E+00 1.17174E+01-3.49999E-01
 -1      1816 1.32504E+01 8.41945E+00 3.49999E-01
 -1      1817-5.87551E-01 1.36933E+01-3.49999E-01
 -1      1818-1.49013E+01 9.37957E-01 3.49999E-01
 -1      1819-4.16632E+00 1.48912E+01 3.49999E-01
 -1      1820 1.52580E+01 5.12015E+00-3.49999E-01
 -1      1821 2.01154E+00 5.39258E+00-3.49999E-01
 -1      1822-9.97788E+00-1.21365E+01-3.49999E-01
 -1      1823-1.17420E+01 1.06100E+01 3.49999E-01
 -1      1824-1.33184E+01-8.53584E+00 3.49999E-01
 -1      1825-1.31391E+01-4.06904E+00-3.49999E-01
 -1      1826-2.02846E+00 1.21407E+01-3.49999E-01
 -1      1827-1.30616E+01 2.24900E+00-3.49999E-01
 -1      1828 7.84615E+00 1.08480E+01-3.49999E-01
 -1      1829-1.10700E+01-5.69416E+00-3.49999E-01
 -1      1830-1.54654E+00 1.14823E+01 3.49999E-01
 -1      1831 1.59023E+01-3.40232E-01 3.49999E-01
 -1      1832 6.19648E+00-1.99537E+00-3.49999E-01
 -1      1833 4.89451E+00-1.18163E+01-3.49999E-01
 -1      1834-1.12734E+01 2.27584E+00-3.49999E-01
 -1      1835-3.98691E+00-1.06742E+01-3.49999E-01
 -1      1836-8.29932E-01-3.84987E+00-3.49999E-01
 -1      1837 9.85940E+00 1.26704E+01 3.49999E-01
 -1      1838 8.94004E+00 1.16887E+01 3.49999E-01
 -1      1839 9.49779E+00 2.10527E+00-3.49999E-01
 -1      1840-1.17665E+01 3.35725E+00 3.49999E-01
 -1      1841 1.13727E+01 2.26216E+00 3.49999E-01
 -1      1842 6.98235E+00-1.39468E+01-3.49999E-01
 -1      1843 4.02687E+00-2.52890E+00-3.49999E-01
 -1      1844-1.35622E+01-8.66615E+00-3.49999E-01
 -1      1845 6.37643E+00-1.45806E+01 3.49999E-01
 -1      1846-8.68938E+00-7.15025E+00-3.49999E-01
 -1      1847 1.17692E+01 6.80208E+00 3.49999E-01
 -1      1848 4.24776E+00 1.54380E+01-3.49999E-01
 -1      1849-1.21555E+01 1.29307E+00 3.49999E-01
 -1      1850-9.78705E+00 9.78705E+00 3.49999E-01
 -1      1851 7.82173E+00 1.08943E+01 3.49999E-01
 -1      1852-1.12019E+01-1.12573E+01 3.49999E-01
 -1      1853 2.43799E+00 3.69991E+00-3.49999E-01
 -1      1854-1.43021E+01 4.24734E-01 3.49999E-01
 -1      1855-3.53121E+00 1.03205E+01-3.49999E-01
 -1      1856 8.12239E+00 1.16212E+01-3.49999E-01
 -1      1857-5.47913E+00 3.67697E+00-3.49999E-01
 -1      1858 4.38971E-01-3.80556E-01-3.49999E-01
 -1      1859 9.82476E+00-7.75845E+00 3.49999E-01
 -1      1860-4.04421E+00 1.47669E+01-3.49999E-01
 -1      1861 1.66431E+00 4.40504E+00-3.49999E-01
 -1      1862-1.04067E+01-2.07002E+00 3.49999E-01
 -1      1863-1.32929E+01 8.75523E+00-3.49999E-01
 -1      1864-5.96296E+00-8.92419E+00 3.49999E-01
 -1      1865-5.94623E+00-1.06941E+01 3.49999E-01
 -1      1866-5.93841E+00-1.44798E+01 3.49999E-01
 -1      1867 1.26940E+01-3.02224E+00 3.49999E-01
 -1      1868 3.38078E+00 1.35693E+01-3.49999E-01
 -1      1869 4.29204E+00 1.55839E+01 3.49999E-01
 -1      1870-1.92946E+00 1.53403E+01 3.49999E-01
 -1      1871-5.05502E+00-1.01731E+01-3.49999E-01
 -1      1872 5.53737E+00 1.31045E+01-3.49999E-01
 -1      1873-1.27130E+01-4.30478E+00 3.49999E-01
 -1      1874-1.50168E+01-3.79786E+00 3.49999E-01
 -1      1875 1.28041E+00 9.84625E+00-3.49999E-01
 -1      1876 1.10962E+01-3.05692E+00-3.49999E-01
 -1      1877 1.52554E-01-1.16354E+01-3.49999E-01
 -1      1878 1.01821E+01 1.13054E+01-3.49999E-01
 -1      1879 3.70812E-01 1.35045E+01 3.49999E-01
 -1      1880-6.33378E+00 7.22891E+00-3.49999E-01
 -1      1881-1.25201E+01 9.52230E+00 3.49999E-01
 -1      1882-8.09466E+00-8.21517E+00-3.49999E-01
 -1      1883 1.41724E+00 1.27890E+01 3.49999E-01
 -1      1884-1.39991E+01-7.91159E+00 3.49999E-01
 -1      1885-4.85038E+00-1.16909E+01-3.49999E-01
 -1      1886-9.59682E+00 1.09611E+01 3.49999E-01
 -1      1887 8.33039E+00-1.25116E+01-3.49999E-01
 -1      1888 4.12371E+00-1.40084E+00-3.49999E-01
 -1      1889-1.27316E+01 9.90967E+00-3.49999E-01
 -1      1890-1.03824E+01 8.77407E+00 3.49999E-01
 -1      1891 1.34766E+01-8.62039E+00 3.49999E-01
 -1      1892-1.02284E+01 7.14319E+00 3.49999E-01
 -1      1893 8.95598E+00-1.28829E+01 3.49999E-01
 -1      1894 5.14608E+00-1.24236E+01 3.49999E-01
 -1      1895 6.46780E+00-1.47516E+01-3.49999E-01
 -1      1896-1.29235E+01 2.35286E+00 3.49999E-01
 -1      1897 1.21629E+01-1.01004E+01 3.49999E-01
 -1      1898-1.17255E+01 9.06898E+00-3.49999E-01
 -1      1899 4.29723E+00-3.62835E+00-3.49999E-01
 -1      1900-9.62868E+00-9.62868E+00 3.49999E-01
 -1      1901 6.32658E+00 1.24926E+01 3.49999E-01
 -1      1902-1.13873E+01 1.21123E+00-3.49999E-01
 -1      1903 6.57959E+00 1.25474E+01-3.49999E-01
 -1      1904 2.78522E+00 4.68744E+00-3.49999E-01
 -1      1905 1.15386E+01 8.77183E+00-3.49999E-01
 -1      1906 8.82239E+00-5.89493E+00 3.49999E-01
 -1      1907 7.60995E+00 7.80280E+00-3.49999E-01
 -1      1908-8.68272E+00 1.03029E+01-3.49999E-01
 -1      1909 4.09282E+00 1.46287E+01-3.49999E-01
 -1      1910 1.43880E+01 6.16666E+00-3.49999E-01
 -1      1911 1.44258E+01 6.74353E+00 3.49999E-01
 -1      1912 7.64877E+00-3.94929E+00-3.49999E-01
 -1      1913-9.27369E+00-1.32700E+01-3.49999E-01
 -1      1914 1.00407E+01-5.55163E-01-3.49999E-01
 -1      1915-1.45530E+01-6.49372E-01-3.49999E-01
 -1      1916-1.54379E+01 1.20092E-03-3.49999E-01
 -1      1917-3.32189E-01 1.61229E+01 3.49999E-01
 -1      1918 1.12157E+01-2.49430E+00 3.49999E-01
 -1      1919-3.12078E+00-1.21316E+01 3.49999E-01
 -1      1920 3.88800E+00 1.32363E+01 3.49999E-01
 -1      1921 4.29413E-01 1.33547E+01-3.49999E-01
 -1      1922-5.14666E+00-9.20878E+00 3.49999E-01
 -1      1923 6.09582E-01 1.12849E+01-3.49999E-01
 -1      1924-1.52530E+01 4.97568E+00 3.49999E-01
 -1      1925-4.74640E+00-1.09042E+01-3.49999E-01
 -1      1926 4.17961E+00 6.69257E+00-3.49999E-01
 -1      1927 8.55766E+00 1.30928E+01 3.49999E-01
 -1      1928-9.94183E+00-7.67165E+00-3.49999E-01
 -1      1929 3.35531E+00 1.17414E+00-3.49999E-01
 -1      1930-7.47272E+00 4.99312E+00 3.49999E-01
 -1      1931 5.58102E+00-1.43636E+01 3.49999E-01
 -1      1932-1.02803E+01 1.04694E+01 3.49999E-01
 -1      1933-7.08488E+00-9.62546E+00-3.49999E-01
 -1      1934-2.78085E+00 1.46285E+01-3.49999E-01
 -1      1935 4.63542E+00-8.77026E+00-3.49999E-01
 -1      1936-9.58605E+00-7.60453E+00 3.49999E-01
 -1      1937-9.04736E+00-8.04869E+00-3.49999E-01
 -1      1938-1.21632E+01-5.04603E-01-3.49999E-01
 -1      1939 3.35723E+00 3.93150E+00-3.49999E-01
 -1      1940 8.08664E+00-1.27269E+01 3.49999E-01
 -1      1941 7.42568E-01-1.11129E+00 3.49999E-01
 -1      1942 1.31086E+00 2.60780E-01 3.49999E-01
 -1      1943-1.31086E+00-2.60780E-01 3.49999E-01
 -1      1944 7.42555E-01-3.07557E-01 3.49999E-01
 -1      1945-7.42568E-01 1.11129E+00 3.49999E-01
 -1      1946-1.35324E+01 6.74215E+00-3.49999E-01
 -1      1947-1.14015E+01 7.80400E+00-3.49999E-01
 -1      1948-1.47253E+01-6.63437E+00 3.49999E-01
 -1      1949-7.90278E+00-1.35388E+01 3.49999E-01
 -1      1950-9.91438E+00-1.26631E+01 3.49999E-01
 -1      1951 7.90402E+00 1.36851E+01-3.49999E-01
 -1      1952 7.38503E+00 1.28457E+01 3.49999E-01
 -1      1953-9.85048E+00 1.26595E+01-3.49999E-01
 -1      1954-4.13237E+00-9.59530E+00-3.49999E-01
 -1      1955 1.02586E+01 9.48761E+00-3.49999E-01
 -1      1956-1.12486E+01 2.59245E+00 3.49999E-01
 -1      1957-8.49664E+00 8.01066E+00-3.49999E-01
 -1      1958-7.92273E+00-1.39387E+01-3.49999E-01
 -1      1959-1.41796E+01-8.05149E+00-3.49999E-01
 -1      1960-1.07594E+01-9.22670E+00-3.49999E-01
 -1      1961-9.20634E+00 5.44674E+00-3.49999E-01
 -1      1962-8.66758E+00-1.22332E+01-3.49999E-01
 -1      1963-1.56763E+01 3.57830E+00-3.49999E-01
 -1      1964-1.47125E+00 1.24802E+01 3.49999E-01
 -1      1965 2.29805E+00 1.33901E+01-3.49999E-01
 -1      1966-6.02787E+00 5.95754E+00-3.49999E-01
 -1      1967 6.50650E+00 9.57987E+00 3.49999E-01
 -1      1968-8.02814E+00-1.01513E+01 3.49999E-01
 -1      1969 1.03091E+01-1.19050E+01-3.49999E-01
 -1      1970 1.24165E+01 8.73192E+00 3.49999E-01
 -1      1971 1.18235E+01 2.13309E+00-3.49999E-01
 -1      1972 4.82684E-01 8.08977E+00-3.49999E-01
 -1      1973-1.60930E+01 5.67240E-01-3.49999E-01
 -1      1974 6.56293E+00-6.27304E+00-3.49999E-01
 -1      1975 8.63217E+00-1.34986E+01-3.49999E-01
 -1      1976 1.07415E+01-1.18326E+01 3.49999E-01
 -1      1977-6.80738E+00 9.30147E+00-3.49999E-01
 -1      1978 1.48275E+00 3.23667E+00-3.49999E-01
 -1      1979 6.41575E+00 1.13262E+01 3.49999E-01
 -1      1980-7.86426E+00-7.38798E+00-3.49999E-01
 -1      1981-7.43840E+00 1.03764E+01-3.49999E-01
 -1      1982-8.84052E+00 1.02361E+01 3.49999E-01
 -1      1983-7.54251E+00-1.06466E+01-3.49999E-01
 -1      1984-3.62548E+00-1.27617E+01-3.49999E-01
 -1      1985 2.45900E+00 7.10422E+00-3.49999E-01
 -1      1986 4.38274E+00 7.81927E+00-3.49999E-01
 -1      1987-5.91247E+00-1.20643E+01-3.49999E-01
 -1      1988-1.32932E+01-7.48002E+00 3.49999E-01
 -1      1989 2.10303E+00 1.33797E+01 3.49999E-01
 -1      1990-3.52427E+00 1.36775E+01-3.49999E-01
 -1      1991-6.84571E+00 1.36912E+01-3.49999E-01
 -1      1992-8.59063E+00 1.19826E+01-3.49999E-01
 -1      1993-1.02994E+01 1.10703E+01-3.49999E-01
 -1      1994 1.33663E+01 7.61675E+00-3.49999E-01
 -1      1995 9.42228E+00-1.27174E+01-3.49999E-01
 -1      1996-6.78284E+00-2.59056E+00-3.49999E-01
 -1      1997-1.59470E+01 1.98922E+00-3.49999E-01
 -1      1998 1.36595E+01 1.66307E+00-3.49999E-01
 -1      1999 5.84167E+00 1.42061E+01-3.49999E-01
 -1      2000-1.86149E+00 1.37451E+01-3.49999E-01
 -1      2001-1.33056E+01 9.02708E+00 3.49999E-01
 -1      2002-1.18575E+01 9.87046E+00 3.49999E-01
 -1      2003 2.24108E+00 2.04384E+00-3.49999E-01
 -1      2004 9.36221E+00 1.04203E+01-3.49999E-01
 -1      2005 1.06110E+01 1.04652E+01-3.49999E-01
 -1      2006 1.54583E-01-1.43199E+01-3.49999E-01
 -1      2007-1.14626E+00-1.06931E+01-3.49999E-01
 -1      2008 0.00000E+00-1.38450E+01 3.49999E-01
 -1      2009 1.30414E+01-5.26209E+00-3.49999E-01
 -1      2010-9.91137E+00-1.28807E+01-3.49999E-01
 -1      2011 1.22772E+01-1.71993E+00-3.49999E-01
 -1      2012-2.19293E+00-1.23162E+01 3.49999E-01
 -1      2013 1.25161E+01-5.18441E+00 3.49999E-01
 -1      2014-1.52034E+01 4.15747E+00 3.49999E-01
 -1      2015-1.53787E+01-2.46985E+00 3.49999E-01
 -1      2016-1.45340E+01-4.75321E+00 3.49999E-01
 -1      2017 8.86376E-01 5.23339E+00-3.49999E-01
 -1      2018-5.17456E+00 1.94416E+00-3.49999E-01
 -1      2019-4.43359E+00 4.46235E+00-3.49999E-01
 -1      2020-2.10130E+00 8.55328E+00-3.49999E-01
 -1      2021-1.81255E+00 1.04321E+01-3.49999E-01
 -1      2022 6.77031E-01 3.15932E+00-3.49999E-01
 -1      2023-1.37469E+01 1.09767E+00 3.49999E-01
 -1      2024-8.46984E+00 5.79647E+00 3.49999E-01
 -1      2025-1.19609E+01-1.03549E+01 3.49999E-01
 -1      2026 5.87973E+00 1.18719E+01 3.49999E-01
 -1      2027 7.27491E+00-1.42844E+01 3.49999E-01
 -1      2028-9.23522E+00 6.83492E+00-3.49999E-01
 -1      2029-1.02804E+01 4.52947E+00-3.49999E-01
 -1      2030-1.02823E+01 5.94256E+00-3.49999E-01
 -1      2031-1.26903E+01-8.21804E+00-3.49999E-01
 -1      2032 5.06770E+00-2.08330E+00-3.49999E-01
 -1      2033 6.57257E+00-1.22601E+01-3.49999E-01
 -1      2034 1.00556E+01 2.00018E+00 3.49999E-01
 -1      2035 1.24204E+01 1.66899E+00 3.49999E-01
 -1      2036-1.02276E+01 3.16062E+00-3.49999E-01
 -1      2037 9.66255E+00 5.30310E+00-3.49999E-01
 -1      2038-6.37336E+00-1.40262E+01-3.49999E-01
 -1      2039 6.51621E+00 1.72886E+00-3.49999E-01
 -1      2040 1.14620E+01-6.90362E+00-3.49999E-01
 -1      2041 5.23336E+00 7.08425E+00-3.49999E-01
 -1      2042-9.54176E+00 6.13415E+00-3.49999E-01
 -1      2043 1.32735E+01 5.47001E+00-3.49999E-01
 -1      2044 9.19343E+00 1.82869E+00 3.49999E-01
 -1      2045-1.03618E+01-7.06298E+00-3.49999E-01
 -1      2046-1.22757E+01-2.07157E+00-3.49999E-01
 -1      2047 9.68617E-01-6.43643E+00-3.49999E-01
 -1      2048 1.13488E+00-2.75418E+00-3.49999E-01
 -1      2049 2.42687E+00-2.65353E+00-3.49999E-01
 -1      2050-3.28511E+00-2.68884E+00-3.49999E-01
 -1      2051 9.82317E-01-1.29770E+01-3.49999E-01
 -1      2052-1.21773E+01 2.91250E+00-3.49999E-01
 -1      2053-1.45404E+01 9.60535E-01-3.49999E-01
 -1      2054-1.32364E+01 6.14621E-01-3.49999E-01
 -1      2055-1.23141E+01 4.24823E-01-3.49999E-01
 -1      2056 1.99022E+00 1.59572E+01 3.49999E-01
 -1      2057 1.34959E+00 9.99889E+00 3.49999E-01
 -1      2058-1.10209E+01-8.58683E+00 3.49999E-01
 -1      2059 3.87556E+00-1.28066E+01-3.49999E-01
 -1      2060 6.29333E+00-8.67316E-01-3.49999E-01
 -1      2061 7.55606E+00-1.16549E+01-3.49999E-01
 -1      2062-9.76416E+00-3.93490E+00-3.49999E-01
 -1      2063 6.21345E+00 1.05229E+01 3.49999E-01
 -1      2064-4.34045E+00 2.98394E+00-3.49999E-01
 -1      2065-1.09709E+00 1.27213E+01-3.49999E-01
 -1      2066-1.39494E+01-4.84087E+00-3.49999E-01
 -1      2067 2.82495E+00-7.56732E+00-3.49999E-01
 -1      2068 1.69291E+00-1.57468E+00-3.49999E-01
 -1      2069 5.08642E+00 1.26745E+01 3.49999E-01
 -1      2070 1.29345E+01-9.75751E-01-3.49999E-01
 -1      2071-1.07690E+00-1.19638E+01-3.49999E-01
 -1      2072-8.00055E+00 9.32375E+00-3.49999E-01
 -1      2073-4.35107E+00-1.35048E+01-3.49999E-01
 -1      2074-1.48169E+01-4.89408E+00-3.49999E-01
 -1      2075 9.09418E+00-2.42801E+00-3.49999E-01
 -1      2076-1.06568E+01-1.15317E+01-3.49999E-01
 -1      2077 1.50015E+01 2.60941E+00-3.49999E-01
 -1      2078 1.12157E+01 6.00878E-01-3.49999E-01
 -1      2079 6.61435E+00-3.20146E+00-3.49999E-01
 -1      2080 1.35073E+01 8.63683E+00-3.49999E-01
 -1      2081-1.14652E+01-6.47987E+00 3.49999E-01
 -1      2082-1.45376E+01 2.18071E+00-3.49999E-01
 -1      2083 3.25073E+00 1.18106E+01 3.49999E-01
 -1      2084 8.39575E+00 9.89533E+00-3.49999E-01
 -1      2085 4.75564E+00-1.50196E+01-3.49999E-01
 -1      2086-1.26665E+01-7.25154E+00-3.49999E-01
 -1      2087 6.56141E+00-1.27820E+01 3.49999E-01
 -1      2088-9.70859E+00 7.95213E+00-3.49999E-01
 -1      2089-3.23677E+00 1.16078E+01-3.49999E-01
 -1      2090-1.03756E-01 3.63849E+00-3.49999E-01
 -1      2091-8.89877E+00-6.92741E+00 3.49999E-01
 -1      2092 1.30523E+01-6.85315E+00-3.49999E-01
 -1      2093-3.74934E+00 6.77995E+00-3.49999E-01
 -1      2094-3.18048E+00 1.44450E+01 3.49999E-01
 -1      2095-1.19354E+01 7.76289E+00 3.49999E-01
 -1      2096 1.38675E+01-3.23034E+00-3.49999E-01
 -1      2097-1.24166E+01 4.66211E+00-3.49999E-01
 -1      2098-5.92556E+00 8.86823E+00 3.49999E-01
 -1      2099-2.66470E+00 1.30178E+01-3.49999E-01
 -1      2100-1.26643E+01-5.49408E+00-3.49999E-01
 -1      2101-1.00098E+01 1.28537E+01 3.49999E-01
 -1      2102-3.01624E+00 1.09995E+01 3.49999E-01
 -1      2103-1.40474E+01 3.80458E+00-3.49999E-01
 -1      2104-1.33725E+01 4.50054E+00-3.49999E-01
 -1      2105-1.90330E+00 1.46217E+01-3.49999E-01
 -1      2106 7.20174E+00 1.43573E+01-3.49999E-01
 -1      2107 1.77917E+00 8.21529E+00-3.49999E-01
 -1      2108 1.20884E+01-1.04596E+01-3.49999E-01
 -1      2109-1.46823E+01-2.00957E+00-3.49999E-01
 -1      2110-7.14827E+00 6.36044E+00-3.49999E-01
 -1      2111 1.50745E+00-1.26479E+01 3.49999E-01
 -1      2112 1.45439E+01-1.23359E+00 3.49999E-01
 -1      2113-8.31096E+00-1.28845E+01 3.49999E-01
 -1      2114 1.03620E+01-1.89315E+00-3.49999E-01
 -1      2115 1.42169E+01-2.85022E+00 3.49999E-01
 -1      2116-1.21655E+01-1.05229E+01-3.49999E-01
 -1      2117-2.84530E-01-1.56391E+01-3.49999E-01
 -1      2118-2.73392E+00 7.48874E+00-3.49999E-01
 -1      2119 9.57885E-01-1.52351E+01 3.49999E-01
 -1      2120 1.30005E+01 2.90996E+00-3.49999E-01
 -1      2121-1.41504E+01 6.23490E+00 3.49999E-01
 -1      2122-1.73987E+00 1.37293E+01 3.49999E-01
 -1      2123 7.46772E+00 9.46626E+00 3.49999E-01
 -1      2124-2.01861E+00-1.55541E+01 3.49999E-01
 -1      2125-4.30506E+00-1.51416E+01 3.49999E-01
 -1      2126 1.43213E+01-6.23782E+00-3.49999E-01
 -1      2127-7.60883E+00 9.58175E+00 3.49999E-01
 -1      2128-9.42521E+00 1.08253E+01-3.49999E-01
 -1      2129 1.22313E+01-6.06321E+00-3.49999E-01
 -1      2130-1.02653E+01 5.76968E+00 3.49999E-01
 -1      2131-9.30305E+00 7.30326E+00 3.49999E-01
 -1      2132 7.82868E+00 1.36463E+01 3.49999E-01
 -1      2133-3.09523E+00 1.27686E+01 3.49999E-01
 -1      2134 1.46844E+01-5.76043E+00 3.49999E-01
 -1      2135-1.12903E+01 6.40710E+00-3.49999E-01
 -1      2136 1.28605E+01-6.64070E+00 3.49999E-01
 -1      2137-2.01736E+00 3.11554E+00-3.49999E-01
 -1      2138 1.38727E+01-7.60350E+00-3.49999E-01
 -1      2139 2.01096E+00 1.61677E+01-3.49999E-01
 -1      2140 1.62025E+00 2.48662E+00-3.49999E-01
 -1      2141 1.80049E+00 1.45308E+01 3.49999E-01
 -1      2142 1.09040E+01-3.24680E+00 3.49999E-01
 -1      2143-9.59760E+00-9.92127E+00-3.49999E-01
 -1      2144-5.04541E+00 7.00510E+00-3.49999E-01
 -1      2145-1.02652E+01 2.14456E+00-3.49999E-01
 -1      2146-1.08701E+01-8.17604E+00-3.49999E-01
 -1      2147-1.47282E+01-1.14172E+00 3.49999E-01
 -1      2148 4.74848E+00-1.41482E+01-3.49999E-01
 -1      2149-3.41879E+00 1.18678E+01 3.49999E-01
 -1      2150 1.46845E+01-1.61583E+00-3.49999E-01
 -1      2151-9.48909E+00 9.94572E+00-3.49999E-01
 -1      2152 2.74452E-02 1.09294E+00-3.49999E-01
 -1      2153 9.41289E+00-1.41346E+00-3.49999E-01
 -1      2154 1.46984E+01 6.77082E-01 3.49999E-01
 -1      2155 5.30447E+00 1.48718E+01 3.49999E-01
 -1      2156 1.05982E+00 8.88704E+00-3.49999E-01
 -1      2157 8.37780E+00-1.36372E+01 3.49999E-01
 -1      2158 2.48203E-01 1.53212E+01 3.49999E-01
 -1      2159-2.68963E+00-4.60606E+00-3.49999E-01
 -1      2160 7.36939E+00-1.29597E+01-3.49999E-01
 -1      2161 5.96455E+00-1.11648E+01-3.49999E-01
 -1      2162-9.76788E+00-1.10290E+01 3.49999E-01
 -1      2163 1.26770E+01 9.70370E+00 3.49999E-01
 -1      2164-1.25788E+01-4.67396E+00-3.49999E-01
 -1      2165-1.34630E+01-6.39945E+00 3.49999E-01
 -1      2166-8.24585E+00 1.52697E+00-3.49999E-01
 -1      2167 9.39909E+00-4.16502E+00-3.49999E-01
 -1      2168 1.46491E+01 1.25539E+00-3.49999E-01
 -1      2169 1.27816E+01 9.95066E+00-3.49999E-01
 -1      2170 4.28309E+00 1.31997E+01-3.49999E-01
 -1      2171 2.76078E+00 1.42665E+01-3.49999E-01
 -1      2172 6.64610E+00 8.59548E+00-3.49999E-01
 -1      2173-6.99597E+00-9.00794E+00 3.49999E-01
 -1      2174 8.41466E+00 4.98599E-01-3.49999E-01
 -1      2175-8.81452E+00 3.90050E+00-3.49999E-01
 -1      2176-1.54940E+00-6.89809E+00-3.49999E-01
 -1      2177 1.49972E+01-4.11408E+00-3.49999E-01
 -1      2178 1.59262E+00 8.00665E+00 3.49999E-01
 -1      2179-9.76694E+00 8.96743E+00-3.49999E-01
 -1      2180 8.57752E-01 1.45081E+01 3.49999E-01
 -1      2181-7.23697E+00 8.11291E+00-3.49999E-01
 -1      2182-5.87146E+00-1.20703E+01 3.49999E-01
 -1      2183 4.80816E+00 1.42176E+01 3.49999E-01
 -1      2184 1.29642E+01-1.43011E+00 3.49999E-01
 -1      2185-7.19747E+00 3.03304E+00-3.49999E-01
 -1      2186-8.90989E+00-6.16560E-01-3.49999E-01
 -1      2187 1.38429E+00 1.49915E+00-3.49999E-01
 -1      2188-9.89445E+00 7.96743E+00 3.49999E-01
 -1      2189-9.12178E+00-6.13788E+00-3.49999E-01
 -1      2190 4.25292E+00-1.54550E+01 3.49999E-01
 -1      2191-1.25418E+01 5.19503E+00 3.49999E-01
 -1      2192-1.17296E+01-8.79778E+00-3.49999E-01
 -1      2193-3.54310E-01 1.63475E+01-3.49999E-01
 -1      2194 1.49059E+01-1.97267E+00 3.49999E-01
 -1      2195 4.06564E+00-1.25289E+01 3.49999E-01
 -1      2196-1.17717E+01 6.11809E+00 3.49999E-01
 -1      2197-2.32242E+00 1.10861E+00-3.49999E-01
 -1      2198-1.22144E+01 5.49713E+00-3.49999E-01
 -1      2199-3.44037E+00 5.49587E+00-3.49999E-01
 -1      2200-6.72198E+00 9.33165E+00 3.49999E-01
 -1      2201-1.25239E+00 2.70713E+00-3.49999E-01
 -1      2202-1.22636E+01-2.24831E+00 3.49999E-01
 -1      2203 1.45491E+01-6.69149E+00 3.49999E-01
 -1      2204-1.04773E+01 1.22484E+00 3.49999E-01
 -1      2205-1.30453E+01 3.49903E+00-3.49999E-01
 -1      2206-7.21131E+00 7.23573E+00-3.49999E-01
 -1      2207 9.86829E+00 7.95264E-01-3.49999E-01
 -1      2208 1.16247E+01-6.15191E-01-3.49999E-01
 -1      2209-1.15591E+01 4.60887E+00-3.49999E-01
 -1      2210 3.64540E+00-1.53667E+01-3.49999E-01
 -1      2211-1.31375E+01 1.53974E+00-3.49999E-01
 -1      2212-2.56419E+00-1.03241E+01-3.49999E-01
 -1      2213 1.37794E+01 3.80201E+00-3.49999E-01
 -1      2214-1.42541E+00-1.93266E+00-3.49999E-01
 -1      2215-1.56076E+01-3.42860E+00-3.49999E-01
 -1      2216 1.37722E+01 5.18236E-01-3.49999E-01
 -1      2217 1.01520E+01-9.70842E+00-3.49999E-01
 -1      2218-1.32458E+01 6.45142E+00 3.49999E-01
 -1      2219-2.76446E+00-1.53182E+01-3.49999E-01
 -1      2220 1.59357E+01 8.49470E-02-3.49999E-01
 -1      2221-8.11132E+00-9.51410E+00-3.49999E-01
 -1      2222-4.97554E-01-5.53734E+00-3.49999E-01
 -1      2223-1.01485E+01 2.87791E+00 3.49999E-01
 -1      2224 1.30234E+01-9.36413E+00-3.49999E-01
 -1      2225 1.09850E+01-8.71741E+00-3.49999E-01
 -1      2226-7.52241E+00-8.87208E+00-3.49999E-01
 -1      2227-1.10429E+00 5.52523E+00-3.49999E-01
 -1      2228-1.13164E+01-1.47678E+00 3.49999E-01
 -1      2229 8.03718E+00-7.49637E+00-3.49999E-01
 -1      2230 3.28032E-02-1.78846E+00-3.49999E-01
 -1      2231 1.18458E+01 3.37936E+00-3.49999E-01
 -1      2232 5.22123E+00 5.50357E+00-3.49999E-01
 -1      2233 9.64735E+00 1.08829E+01 3.49999E-01
 -1      2234-1.57613E+01-2.06347E+00-3.49999E-01
 -1      2235 1.28813E+01 1.00844E+00-3.49999E-01
 -1      2236 3.74948E+00 1.09624E+01-3.49999E-01
 -1      2237-2.10701E+00-3.37401E+00-3.49999E-01
 -1      2238-8.08899E+00 5.70468E+00-3.49999E-01
 -1      2239-1.61416E+01-1.17121E+00-3.49999E-01
 -1      2240 6.75738E+00 1.12553E+01-3.49999E-01
 -1      2241-5.12642E+00-6.98728E+00-3.49999E-01
 -1      2242 4.94310E+00 1.21815E+01-3.49999E-01
 -1      2243-9.27050E+00-4.98610E+00-3.49999E-01
 -1      2244 1.22830E+01-7.69356E+00-3.49999E-01
 -1      2245-9.05997E+00 1.26199E+01-3.49999E-01
 -1      2246 8.42104E+00-4.89197E+00-3.49999E-01
 -1      2247 9.26692E+00 3.22406E-02-3.49999E-01
 -1      2248 1.34085E+01-2.12116E+00-3.49999E-01
 -1      2249-1.53855E+00-1.55873E+01-3.49999E-01
 -1      2250 7.69285E+00 1.28797E+01-3.49999E-01
 -1      2251-1.26672E+01 3.47542E+00 3.49999E-01
 -1      2252 1.11269E+00-8.28893E+00-3.49999E-01
 -1      2253 4.70369E+00-1.02985E+01-3.49999E-01
 -1      2254-8.95535E+00 1.18247E+01 3.49999E-01
 -1      2255 5.30469E+00 3.35792E+00-3.49999E-01
 -1      2256-1.21316E+01 7.71211E+00-3.49999E-01
 -1      2257 7.98895E-01 1.22233E+01-3.49999E-01
 -1      2258 7.13688E+00 1.52837E-01-3.49999E-01
 -1      2259 8.36412E-03 1.18945E+01-3.49999E-01
 -1      2260 4.39982E+00 3.87851E+00-3.49999E-01
 -1      2261-4.99048E+00-1.50163E+01-3.49999E-01
 -1      2262 8.60967E+00 1.06536E+01-3.49999E-01
 -1      2263-3.64313E+00-1.39914E+01 3.49999E-01
 -1      2264-2.30691E+00-1.01033E+01 3.49999E-01
 -1      2265 1.20151E+01-5.84864E+00 3.49999E-01
 -1      2266-4.86153E+00 1.37080E+01-3.49999E-01
 -1      2267 8.29581E+00 5.54309E+00 3.49999E-01
 -1      2268 9.95013E+00 5.54956E+00 3.49999E-01
 -1      2269 7.69233E+00 9.01469E+00-3.49999E-01
 -1      2270 6.90040E+00 8.78946E+00 3.49999E-01
 -1      2271-7.11732E+00-6.26400E+00-3.49999E-01
 -1      2272 1.04137E+01-1.03716E+01 3.49999E-01
 -1      2273 4.13748E+00 5.40642E-03-3.49999E-01
 -1      2274-2.64112E+00-8.43799E+00-3.49999E-01
 -1      2275 1.43051E+00-1.17724E+01-3.49999E-01
 -1      2276-1.20414E+01 1.07024E+01-3.49999E-01
 -1      2277 6.09300E+00-1.08862E+01 3.49999E-01
 -1      2278 5.09098E+00-8.72348E+00 3.49999E-01
 -1      2279-4.51881E+00 1.39736E+01 3.49999E-01
 -1      2280-1.72755E+00-4.30724E+00-3.49999E-01
 -1      2281 5.39159E-01 9.51175E+00-3.49999E-01
 -1      2282-8.39223E+00 2.74679E+00-3.49999E-01
 -1      2283 1.00909E+01-2.46918E+00 3.49999E-01
 -1      2284-7.90543E+00 8.53756E+00-3.49999E-01
 -1      2285 1.54654E+00-1.14823E+01 3.49999E-01
 -1      2286 1.35946E+01 5.38896E+00 3.49999E-01
 -1      2287 3.02262E+00 1.58244E+01-3.49999E-01
 -1      2288 2.19716E+00 2.98001E+00-3.49999E-01
 -1      2289-9.75762E-01-5.76980E-01-3.49999E-01
 -1      2290 5.43444E+00-4.84626E+00-3.49999E-01
 -1      2291-3.33319E+00-6.35584E+00-3.49999E-01
 -1      2292 1.11482E+01-9.70019E+00-3.49999E-01
 -1      2293 7.40175E+00 4.51393E+00-3.49999E-01
 -1      2294 8.35441E+00-1.63829E+00-3.49999E-01
 -1      2295-1.39300E+01-4.04999E+00-3.49999E-01
 -1      2296 4.92591E+00 7.37214E+00 3.49999E-01
 -1      2297-1.15782E+01 6.97885E+00 3.49999E-01
 -1      2298-7.61322E+00 1.31942E+01 3.49999E-01
 -1      2299-6.87801E+00 1.14016E+01 3.49999E-01
 -1      2300-2.92795E+00-1.58117E+01 3.49999E-01
 -1      2301-9.33212E+00 1.58533E+00-3.49999E-01
 -1      2302-2.83927E+00-1.60777E+01-3.49999E-01
 -1      2303 8.43464E+00-9.52561E+00-3.49999E-01
 -1      2304 8.31945E-02-1.03647E+01-3.49999E-01
 -1      2305-7.63412E+00 2.21907E+00-3.49999E-01
 -1      2306-1.15413E+01-1.33676E+00-3.49999E-01
 -1      2307 7.30327E+00 1.45472E+01 3.49999E-01
 -1      2308 2.18509E+00-1.41733E+01-3.49999E-01
 -1      2309 2.49142E+00-6.02579E+00-3.49999E-01
 -1      2310 1.00433E+01-2.90769E+00-3.49999E-01
 -1      2311-1.81369E-02-1.48826E+01 3.49999E-01
 -1      2312 1.13390E+01-7.53500E+00 3.49999E-01
 -1      2313-4.41067E+00-1.44166E-01-3.49999E-01
 -1      2314 4.22651E+00 5.68291E+00-3.49999E-01
 -1      2315-1.07939E+01-5.70511E+00 3.49999E-01
 -1      2316 1.06585E+01 1.10088E+01 3.49999E-01
 -1      2317-8.09066E+00-5.40601E+00 3.49999E-01
 -1      2318 1.53742E+01 2.76998E+00 3.49999E-01
 -1      2319 1.41494E+01 3.40248E+00 3.49999E-01
 -1      2320 1.00934E+01-9.25335E+00 3.49999E-01
 -1      2321-7.78256E+00 1.07972E+01 3.49999E-01
 -1      2322-2.18529E+00-5.78479E+00-3.49999E-01
 -1      2323-9.20878E+00-5.14666E+00 3.49999E-01
 -1      2324 4.32506E+00-7.27348E+00-3.49999E-01
 -1      2325 5.97674E+00-9.79628E+00-3.49999E-01
 -1      2326-2.90738E-01-7.73206E+00-3.49999E-01
 -1      2327 8.50606E-01-1.34394E+01 3.49999E-01
 -1      2328-3.42578E+00-1.36824E+01-3.49999E-01
 -1      2329-9.78837E+00-8.55711E+00-3.49999E-01
 -1      2330-1.54390E+01 4.66429E+00-3.49999E-01
 -1      2331 9.25142E+00-3.29567E+00-3.49999E-01
 -1      2332 5.87308E+00-7.73307E+00-3.49999E-01
 -1      2333-6.25196E+00-1.30196E+01-3.49999E-01
 -1      2334-7.38504E+00-9.69427E+00 3.49999E-01
 -1      2335-9.12742E+00 8.49486E+00-3.49999E-01
 -1      2336 6.53995E+00-4.39370E+00-3.49999E-01
 -1      2337-5.81664E+00-5.78546E+00-3.49999E-01
 -1      2338-4.99312E+00-7.47272E+00 3.49999E-01
 -1      2339 3.72355E+00-8.17877E+00-3.49999E-01
 -1      2340-6.96202E+00-1.43144E+01 3.49999E-01
 -1      2341-1.38348E+01-5.62248E+00-3.49999E-01
 -1      2342 1.37130E+01 3.99635E+00 3.49999E-01
 -1      2343 1.43561E+01 2.30062E+00 3.49999E-01
 -1      2344-3.34683E+00 4.94049E-01-3.49999E-01
 -1      2345-5.51929E+00 8.09738E+00-3.49999E-01
 -1      2346-5.10297E+00-1.47644E+01 3.49999E-01
 -1      2347 3.45685E+00-9.58856E+00-3.49999E-01
 -1      2348 8.21097E+00-3.03615E+00-3.49999E-01
 -1      2349-1.75335E+00 8.81468E+00 3.49999E-01
 -1      2350-8.04515E+00-3.76914E+00-3.49999E-01
 -1      2351-6.67889E+00-1.04205E+01-3.49999E-01
 -1      2352 9.29060E-01 5.50534E-01-3.49999E-01
 -1      2353-1.18530E+01-3.43965E+00-3.49999E-01
 -1      2354 3.80955E+00-4.65701E+00-3.49999E-01
 -1      2355 1.40552E+01-7.97711E+00 3.49999E-01
 -1      2356 1.32343E+01-9.38173E+00 3.49999E-01
 -1      2357 1.25111E+00-1.53723E+01-3.49999E-01
 -1      2358 1.43560E+00-1.43560E+00 3.49999E-01
 -1      2359 9.87615E+00-1.26908E+01 3.49999E-01
 -1      2360 1.18456E+01-9.41074E+00 3.49999E-01
 -1      2361-5.84408E+00-8.02332E+00-3.49999E-01
 -1      2362 9.95077E+00-5.81096E+00 3.49999E-01
 -1      2363 8.02143E+00-5.35975E+00 3.49999E-01
 -1      2364 1.39408E+01 7.65349E+00 3.49999E-01
 -1      2365 8.54669E+00-3.87248E+00-3.49999E-01
 -1      2366-5.46032E+00-9.99778E+00 3.49999E-01
 -1      2367-7.95557E+00 3.56076E+00-3.49999E-01
 -1      2368 7.53393E+00 1.21943E+00-3.49999E-01
 -1      2369 1.78538E+00 1.11705E+01-3.49999E-01
 -1      2370-1.57671E+01-3.28901E+00 3.49999E-01
 -1      2371-1.60190E+01-1.90482E+00 3.49999E-01
 -1      2372 1.24698E+00 1.24698E+00 3.49999E-01
 -1      2373-8.61588E-01-1.28942E+00 3.49999E-01
 -1      2374 0.00000E+00 1.76346E+00 3.49999E-01
 -1      2375-9.27179E+00-1.19477E+01 3.49999E-01
 -1      2376 8.78471E+00 1.35321E+01-3.49999E-01
 -1      2377 6.47265E+00-1.31775E+01-3.49999E-01
 -1      2378-2.69989E+00 1.08077E+01-3.49999E-01
 -1      2379-4.66610E+00 1.12574E+01-3.49999E-01
 -1      2380 3.46309E+00-1.13628E+01-3.49999E-01
 -1      2381 1.03504E+01 6.82945E+00-3.49999E-01
 -1      2382 1.33791E+01 6.54082E+00-3.49999E-01
 -1      2383 1.19299E+01 1.64257E-01-3.49999E-01
 -1      2384 1.11870E+01-1.16367E+01-3.49999E-01
 -1      2385 3.18340E+00-5.37310E+00-3.49999E-01
 -1      2386-4.74276E+00-1.42301E+01-3.49999E-01
 -1      2387-7.85756E+00 1.38950E+01-3.49999E-01
 -1      2388 2.42587E+00-1.14637E+01-3.49999E-01
 -1      2389-7.29734E+00 1.26739E+01-3.49999E-01
 -1      2390 8.47835E+00 9.10810E+00-3.49999E-01
 -1      2391-4.84006E+00-6.02371E+00-3.49999E-01
 -1      2392 1.15780E+01-4.59243E+00-3.49999E-01
 -1      2393-1.05703E+01 1.20048E+01-3.49999E-01
 -1      2394 1.42856E+01 7.17947E+00-3.49999E-01
 -1      2395 1.40949E+01 8.00621E+00-3.49999E-01
 -1      2396-1.20300E+01-5.85180E+00 3.49999E-01
 -1      2397 9.02881E+00-1.18055E+01-3.49999E-01
 -1      2398 4.27801E+00 1.15499E+01-3.49999E-01
 -1      2399 1.23123E+00 7.11650E+00-3.49999E-01
 -1      2400 5.17788E+00 1.49944E+01-3.49999E-01
 -1      2401 1.27644E+01 1.98761E+00-3.49999E-01
 -1      2402 1.96948E+00-1.57466E+01 3.49999E-01
 -1      2403-3.25417E+00 8.51815E+00-3.49999E-01
 -1      2404-1.18666E+00 7.28949E+00-3.49999E-01
 -1      2405 1.46903E+01 3.51296E+00-3.49999E-01
 -1      2406-2.70249E+00-1.45680E+00-3.49999E-01
 -1      2407-3.07005E+00-1.44902E+01-3.49999E-01
 -1      2408-8.21959E+00 7.01677E+00-3.49999E-01
 -1      2409 7.30302E+00-2.28743E+00-3.49999E-01
 -1      2410-1.29024E+00-1.21555E+01 3.49999E-01
 -1      2411-1.38038E+01-4.91904E+00 3.49999E-01
 -1      2412-1.91721E+00 7.72364E+00-3.49999E-01
 -1      2413-7.46619E-01 8.67100E+00-3.49999E-01
 -1      2414 1.56045E+01 3.32245E+00-3.49999E-01
 -1      2415 1.40027E+01 2.77077E+00-3.49999E-01
 -1      2416-3.98173E-01-1.10282E+01-3.49999E-01
 -1      2417-2.62114E+00 9.59475E+00-3.49999E-01
 -1      2418-9.18298E+00 5.20894E+00 3.49999E-01
 -1      2419 6.61984E+00-1.38083E+01 3.49999E-01
 -1      2420-4.03941E+00 1.17914E+01-3.49999E-01
 -1      2421 1.18653E+01 6.14951E+00-3.49999E-01
 -1      2422 4.92661E+00 6.29622E+00-3.49999E-01
 -1      2423-1.06072E+01 5.23558E+00-3.49999E-01
 -1      2424 5.69389E+00-8.77628E+00-3.49999E-01
 -1      2425-3.08858E+00-9.40085E+00-3.49999E-01
 -1      2426-1.28058E+01 7.28452E+00-3.49999E-01
 -1      2427 1.00337E+01-6.98821E+00-3.49999E-01
 -1      2428 9.35218E+00 1.02065E+01 3.49999E-01
 -1      2429 1.25352E+01 7.06881E+00-3.49999E-01
 -1      2430 1.75129E+00-2.32405E+00-3.49999E-01
 -1      2431 1.04391E+01-3.90417E+00-3.49999E-01
 -1      2432 3.20513E+00-2.31219E+00-3.49999E-01
 -1      2433 7.80060E+00-1.36982E+01-3.49999E-01
 -1      2434-5.05064E+00-3.23292E+00-3.49999E-01
 -1      2435 3.08545E+00 5.79387E+00-3.49999E-01
 -1      2436 1.70862E+00-7.31073E+00-3.49999E-01
 -1      2437-1.20778E+01 2.09381E+00-3.49999E-01
 -1      2438 3.81800E+00 1.24123E+01 3.49999E-01
 -1      2439-1.32101E+01-4.34263E-01-3.49999E-01
 -1      2440-1.12579E+01 1.19366E-01-3.49999E-01
 -1      2441-1.21817E+01-9.10364E+00 3.49999E-01
 -1      2442-1.11586E+01-9.64756E+00 3.49999E-01
 -1      2443 1.08479E+01 7.61631E+00-3.49999E-01
 -1      2444-3.90836E+00 1.25522E+01 3.49999E-01
 -1      2445 5.76625E+00-1.39025E+00-3.49999E-01
 -1      2446 8.71417E-01-1.09589E+01-3.49999E-01
 -1      2447-4.68210E+00 3.70456E+00-3.49999E-01
 -1      2448-3.29857E+00 2.74560E+00-3.49999E-01
 -1      2449-4.26647E+00 2.07015E+00-3.49999E-01
 -1      2450 5.32102E+00 4.43300E+00-3.49999E-01
 -1      2451 6.56163E-01-7.39258E+00-3.49999E-01
 -1      2452 8.73909E+00 6.63739E+00-3.49999E-01
 -1      2453 5.13972E+00-1.10146E+01-3.49999E-01
 -1      2454 1.12476E+01-3.85276E+00-3.49999E-01
 -1      2455 5.77132E+00 1.30256E+01 3.49999E-01
 -1      2456 8.81468E+00-1.75335E+00 3.49999E-01
 -1      2457-1.11777E+01-7.51958E+00 3.49999E-01
 -1      2458-1.26830E+01-6.50249E+00-3.49999E-01
 -1      2459-3.06162E+00-5.46248E+00-3.49999E-01
 -1      2460-3.27372E+00 1.24439E+01-3.49999E-01
 -1      2461 6.87143E+00-1.68040E+00-3.49999E-01
 -1      2462 2.70420E+00 8.01777E+00-3.49999E-01
 -1      2463 3.23343E-01-1.60331E+01 3.49999E-01
 -1      2464-1.45912E+00 6.39272E+00-3.49999E-01
 -1      2465 2.43850E+00-1.46782E+01 3.49999E-01
 -1      2466-1.48469E+00-1.38946E+01-3.49999E-01
 -1      2467-6.21609E+00-6.88498E+00-3.49999E-01
 -1      2468 8.16212E+00 1.00328E+01 3.49999E-01
 -1      2469-1.15766E+00-1.60041E+01 3.49999E-01
 -1      2470 4.30394E+00-9.55072E+00-3.49999E-01
 -1      2471-8.63808E+00 6.68721E+00 3.49999E-01
 -1      2472-2.13859E+00 4.41579E+00-3.49999E-01
 -1      2473 1.45000E+01-7.05305E+00-3.49999E-01
 -1      2474 1.56409E+01-2.23881E+00-3.49999E-01
 -1      2475 6.15049E+00 1.44159E+01 3.49999E-01
 -1      2476 1.15265E+00-1.40086E+01-3.49999E-01
 -1      2477-1.09097E+01-4.11383E+00-3.49999E-01
 -1      2478-1.26943E+01-9.40514E+00-3.49999E-01
 -1      2479-1.20223E+01 6.22631E+00-3.49999E-01
 -1      2480-3.58114E+00 4.63715E+00-3.49999E-01
 -1      2481-1.21815E+01-3.34359E+00 3.49999E-01
 -1      2482-9.72419E+00 1.65448E+00 3.49999E-01
 -1      2483-1.13004E+01 1.65444E+00 3.49999E-01
 -1      2484 1.35019E+01 4.62856E+00-3.49999E-01
 -1      2485-6.92021E+00-4.79284E+00-3.49999E-01
 -1      2486 7.85127E+00-6.22043E+00-3.49999E-01
 -1      2487-1.45479E+00-8.12210E+00-3.49999E-01
 -1      2488-3.10132E-02-2.97300E+00-3.49999E-01
 -1      2489 1.06528E+01 2.77739E+00-3.49999E-01
 -1      2490 2.98100E+00 1.17656E+01-3.49999E-01
 -1      2491 1.67455E+00-1.25489E+01-3.49999E-01
 -1      2492-1.04830E+01-7.87116E-01-3.49999E-01
 -1      2493 1.12518E+01 6.81021E+00-3.49999E-01
 -1      2494 1.24265E+00-9.64657E+00-3.49999E-01
 -1      2495-2.43318E+00 2.15210E+00-3.49999E-01
 -1      2496-4.57781E+00 9.78569E-01-3.49999E-01
 -1      2497 6.33827E+00 5.06775E+00-3.49999E-01
 -1      2498 8.87739E+00 7.90110E+00-3.49999E-01
 -1      2499 4.30314E+00-1.11971E+01-3.49999E-01
 -1      2500 1.25940E+01-3.69492E+00-3.49999E-01
 -1      2501 9.68914E+00-1.68986E+00 3.49999E-01
 -1      2502-1.27334E+01-9.91112E+00 3.49999E-01
 -1      2503-4.13429E+00 5.16873E+00-3.49999E-01
 -1      2504-2.79500E+00 4.94917E+00-3.49999E-01
 -1      2505-6.63043E+00-5.58045E+00-3.49999E-01
 -1      2506-6.94132E+00-3.68610E+00-3.49999E-01
 -1      2507-5.72238E+00-4.32814E+00-3.49999E-01
 -1      2508 1.05151E+01 1.68559E+00-3.49999E-01
 -1      2509 3.80068E+00-1.04346E+01-3.49999E-01
 -1      2510 1.30348E+01-2.92539E+00-3.49999E-01
 -1      2511 1.07468E+01-1.53352E+00 3.49999E-01
 -1      2512 1.18603E+01-1.58486E+00 3.49999E-01
 -1      2513 5.24436E+00-6.32670E+00-3.49999E-01
 -1      2514-2.32303E+00-2.39002E+00-3.49999E-01
 -1      2515 7.07013E+00 1.20267E+01 3.49999E-01
 -1      2516 2.08888E+00-8.21301E+00-3.49999E-01
 -1      2517-8.09418E+00 1.09088E+01-3.49999E-01
 -1      2518-1.05228E+01-1.01498E+01-3.49999E-01
 -1      2519 8.62643E+00-8.43450E+00-3.49999E-01
 -1      2520-1.02485E+00-7.47321E+00-3.49999E-01
 -1      2521 1.09830E+01 6.15972E+00 3.49999E-01
 -1      2522-6.66817E+00-8.47752E+00-3.49999E-01
 -1      2523-1.41661E+01 3.10761E+00 3.49999E-01
 -1      2524-1.13234E+00-1.35448E+01 3.49999E-01
 -1      2525-1.57159E+01 1.13143E+00 3.49999E-01
 -1      2526-1.97598E+00-1.09725E+01-3.49999E-01
 -1      2527-1.61929E+00-9.60205E+00-3.49999E-01
 -1      2528 2.12360E+00-1.33002E+01-3.49999E-01
 -1      2529-2.14455E+00 9.62680E+00 3.49999E-01
 -1      2530 1.09603E+01 3.11090E+00 3.49999E-01
 -1      2531-5.41087E+00-1.54760E+00-3.49999E-01
 -1      2532-8.84371E+00 5.37558E-01-3.49999E-01
 -1      2533 1.08788E+00-4.59693E+00-3.49999E-01
 -1      2534-5.66575E-02 4.69919E+00-3.49999E-01
 -1      2535-2.65171E-01 5.51210E+00-3.49999E-01
 -1      2536-3.96995E+00-5.67432E+00-3.49999E-01
 -1      2537 6.17030E+00 6.28668E+00-3.49999E-01
 -1      2538-5.55399E+00 4.86526E+00-3.49999E-01
 -1      2539 1.17780E+01 5.98895E+00 3.49999E-01
 -1      2540-1.04773E+01-1.21890E+00 3.49999E-01
 -1      2541 3.43871E+00 1.39171E+01 3.49999E-01
 -1      2542 1.34489E+01-6.05487E+00-3.49999E-01
 -1      2543 1.51071E+01-5.88865E+00-3.49999E-01
 -1      2544-6.11074E+00-8.04349E+00 3.49999E-01
 -1      2545-7.02031E+00 4.09592E+00-3.49999E-01
 -1      2546-5.89778E+00-1.00945E+01-3.49999E-01
 -1      2547-8.83667E+00 1.75773E+00 3.49999E-01
 -1      2548-1.01199E+01-8.83392E+00 3.49999E-01
 -1      2549-9.72846E+00 9.07116E+00 3.49999E-01
 -1      2550 1.20495E+01 3.29703E+00 3.49999E-01
 -1      2551-7.29480E+00 1.24178E+01 3.49999E-01
 -1      2552 9.01602E+00 1.26162E+00-3.49999E-01
 -1      2553 8.79996E+00-5.06153E+00 3.49999E-01
 -1      2554 8.93489E+00 7.06901E+00 3.49999E-01
 -1      2555 6.44190E+00 9.33317E+00-3.49999E-01
 -1      2556-7.26008E+00-1.44664E+01-3.49999E-01
 -1      2557 6.78770E+00-4.53540E+00 3.49999E-01
 -1      2558-6.08438E+00 2.67742E+00-3.49999E-01
 -1      2559 9.09716E+00-7.48472E+00-3.49999E-01
 -1      2560-3.86773E+00-3.92089E+00-3.49999E-01
 -1      2561 1.38557E+01-4.40936E+00-3.49999E-01
 -1      2562-7.18984E+00-8.96131E-01-3.49999E-01
 -1      2563 8.07194E-01-1.24933E+00-3.49999E-01
 -1      2564 1.56440E+01-2.12392E+00 3.49999E-01
 -1      2565 1.34749E+01-4.71190E+00 3.49999E-01
 -1      2566 5.68765E+00 4.92339E-01-3.49999E-01
 -1      2567 1.44363E+00 1.13164E+01 3.49999E-01
 -1      2568 7.16949E+00-5.32581E+00-3.49999E-01
 -1      2569 1.31013E+01-2.27237E+00 3.49999E-01
 -1      2570 1.07784E+01 5.75536E+00-3.49999E-01
 -1      2571-1.18548E+01-8.27579E+00 3.49999E-01
 -1      2572 3.65253E-01 8.81730E-01 3.49999E-01
 -1      2573 3.63533E-01-1.82750E+00 3.49999E-01
 -1      2574 9.36364E+00-1.19896E+01 3.49999E-01
 -1      2575-3.55528E+00-4.73906E+00-3.49999E-01
 -1      2576 1.05495E+01-7.83070E+00-3.49999E-01
 -1      2577 2.31200E+00 9.86094E-01-3.49999E-01
 -1      2578-2.23784E+00-7.56696E+00-3.49999E-01
 -1      2579-4.14468E+00-3.03614E+00-3.49999E-01
 -1      2580-4.32414E+00 7.31413E+00-3.49999E-01
 -1      2581-9.37128E+00 2.57804E+00-3.49999E-01
 -1      2582-2.75874E+00 3.27959E+00-3.49999E-01
 -1      2583 3.32122E+00-6.21238E+00-3.49999E-01
 -1      2584 1.21830E+01-5.20419E+00-3.49999E-01
 -1      2585 1.01381E+01 6.41058E+00 3.49999E-01
 -1      2586 1.08473E+01-1.99844E-01-3.49999E-01
 -1      2587 3.05318E+00-1.32437E+01-3.49999E-01
 -1      2588 5.08580E+00-4.03191E+00-3.49999E-01
 -1      2589-4.15834E+00-1.76496E+00-3.49999E-01
 -1      2590-4.77369E+00-4.11766E+00-3.49999E-01
 -1      2591-8.26001E+00-2.04928E+00-3.49999E-01
 -1      2592 2.34219E+00-9.32909E+00-3.49999E-01
 -1      2593 9.63624E+00 8.39400E+00-3.49999E-01
 -1      2594-6.87810E+00-1.15352E+01-3.49999E-01
 -1      2595-3.44858E+00-1.16560E+01-3.49999E-01
 -1      2596 1.06638E+01 4.23870E+00-3.49999E-01
 -1      2597-1.40662E+00-5.21634E+00-3.49999E-01
 -1      2598-4.13856E+00-1.21126E+01-3.49999E-01
 -1      2599 4.62152E+00 1.17544E+00-3.49999E-01
 -1      2600 9.29111E+00-5.04115E+00-3.49999E-01
 -1      2601 3.03613E+00-1.40979E+01-3.49999E-01
 -1      2602 3.53479E+00 2.55270E+00-3.49999E-01
 -1      2603 6.74132E+00 9.07289E-01-3.49999E-01
 -1      2604 6.49062E+00 7.42410E+00-3.49999E-01
 -1      2605-6.01909E-01 6.30523E+00-3.49999E-01
 -1      2606-8.43584E+00-4.60113E+00-3.49999E-01
 -1      2607-3.78531E+00 1.10559E+01-3.49999E-01
 -1      2608-1.62475E+00 9.44162E+00-3.49999E-01
 -1      2609 1.08508E+01 1.44418E+00 3.49999E-01
 -1      2610-1.97709E+00 1.12793E+01-3.49999E-01
 -1      2611 1.32984E+01 1.74718E+00 3.49999E-01
 -1      2612-4.15096E+00-6.48168E+00-3.49999E-01
 -1      2613-3.48787E-01-1.30831E+01-3.49999E-01
 -1      2614 4.86887E+00 3.87971E-01-3.49999E-01
 -1      2615 3.98778E+00 1.79276E+00-3.49999E-01
 -1      2616 1.12967E+01-1.55394E+00-3.49999E-01
 -1      2617 8.28822E+00-1.17715E+01-3.49999E-01
 -1      2618-3.98868E-01 1.89633E+00-3.49999E-01
 -1      2619-5.05963E+00 3.08427E+00-3.49999E-01
 -1      2620-5.38085E+00 8.05300E+00 3.49999E-01
 -1      2621-1.18207E+00-1.62519E+01-3.49999E-01
 -1      2622-7.11729E+00 1.41993E+01 3.49999E-01
 -1      2623 1.10723E+01-5.69751E+00-3.49999E-01
 -1      2624-4.80259E+00-7.97817E+00-3.49999E-01
 -1      2625 3.41595E-01-1.62184E+01-3.49999E-01
 -1      2626 8.69265E+00-1.10446E+01-3.49999E-01
 -1      2627 1.47737E+01 1.46868E+00 3.49999E-01
 -1      2628 9.00698E+00-1.02098E+01-3.49999E-01
 -1      2629-1.39239E+00-1.00231E+01 3.49999E-01
 -1      2630 1.34922E+01-3.26202E+00 3.49999E-01
 -1      2631 1.60393E+00-3.99217E-01-3.49999E-01
 -1      2632 1.85805E+00-3.69460E+00-3.49999E-01
 -1      2633 1.56296E+01-3.28302E+00-3.49999E-01
 -1      2634 1.50243E+01-4.60438E+00 3.49999E-01
 -1      2635-6.70541E+00 1.33711E+01 3.49999E-01
 -1      2636 5.05091E+00-1.29966E+01-3.49999E-01
 -1      2637-1.44015E+01-1.98234E+00 3.49999E-01
 -1      2638-3.61271E-01 1.90164E-01-3.49999E-01
 -1      2639-3.01068E+00-3.57240E+00-3.49999E-01
 -1      2640 1.39350E+01 1.60192E-01 3.49999E-01
 -1      2641-8.80510E+00 9.49045E+00-3.49999E-01
 -1      2642-7.34140E+00-1.82863E+00-3.49999E-01
 -1      2643 6.74929E+00-1.14456E+01-3.49999E-01
 -1      2644 7.23629E+00-6.96155E+00-3.49999E-01
 -1      2645 1.43553E+01-5.25565E+00-3.49999E-01
 -1      2646-7.58157E+00 3.22751E-01-3.49999E-01
 -1      2647 5.69632E+00-8.06903E+00 3.49999E-01
 -1      2648 5.64664E+00-9.90991E+00 3.49999E-01
 -1      2649-3.37032E+00-1.89477E+00-3.49999E-01
 -1      2650-3.35792E+00-1.01644E+01-3.49999E-01
 -1      2651 7.02367E-01-3.66512E+00-3.49999E-01
 -1      2652-8.00665E+00 1.59262E+00 3.49999E-01
 -1      2653-6.27697E+00 5.20053E+00-3.49999E-01
 -1      2654-6.15611E+00 4.23082E+00-3.49999E-01
 -1      2655-7.92421E+00 4.59076E+00-3.49999E-01
 -1      2656-7.96657E+00-1.24845E+00-3.49999E-01
 -1      2657-1.59262E+00-8.00665E+00 3.49999E-01
 -1      2658-9.39217E+00 4.57688E+00-3.49999E-01
 -1      2659 2.21264E+00-4.77711E+00-3.49999E-01
 -1      2660 5.96789E+00-3.75956E+00-3.49999E-01
 -1      2661 2.36870E+00-1.13188E+01 3.49999E-01
 -1      2662-6.12664E+00-1.27795E+01 3.49999E-01
 -1      2663-2.95257E+00-1.23023E+01-3.49999E-01
 -1      2664-4.17783E+00 9.29862E+00-3.49999E-01
 -1      2665-1.15729E+01-9.75502E+00-3.49999E-01
 -1      2666 3.33129E+00-1.19471E+01 3.49999E-01
 -1      2667-5.51148E+00 1.06874E+00-3.49999E-01
 -1      2668-1.57824E+00-2.74223E+00-3.49999E-01
 -1      2669-6.64894E-01-1.00296E+01-3.49999E-01
 -1      2670-8.86479E-01 3.32282E+00-3.49999E-01
 -1      2671-1.85515E+00-9.85432E-01-3.49999E-01
 -1      2672 4.32783E+00-1.57019E+01-3.49999E-01
 -1      2673 1.16632E+01-2.36771E+00-3.49999E-01
 -1      2674-6.36839E+00 1.66992E+00-3.49999E-01
 -1      2675 1.04272E+01 5.01923E+00-3.49999E-01
 -1      2676 1.02678E+01-1.05474E+01-3.49999E-01
 -1      2677-1.29330E+01 5.80125E+00 3.49999E-01
 -1      2678-3.77406E+00-1.54689E+01-3.49999E-01
 -1      2679-5.91762E-01-6.55143E+00-3.49999E-01
 -1      2680 5.85370E-01 1.03979E+01-3.49999E-01
 -1      2681 1.61126E+01 5.03141E-01 3.49999E-01
 -1      2682 9.48975E+00 7.19466E+00-3.49999E-01
 -1      2683 1.07757E+01-5.74922E+00 3.49999E-01
 -1      2684-4.67334E+00-1.01510E+00-3.49999E-01
 -1      2685 8.71954E+00-7.53249E-01-3.49999E-01
 -1      2686 8.28442E+00 7.32658E+00-3.49999E-01
 -1      2687-1.51891E+01-2.69027E+00-3.49999E-01
 -1      2688 4.47199E+00-8.02358E+00-3.49999E-01
 -1      2689 1.79834E+00-6.48447E+00-3.49999E-01
 -1      2690 8.36376E+00 5.39092E+00-3.49999E-01
 -1      2691-1.01569E+01-5.37410E+00-3.49999E-01
 -1      2692 3.26857E+00 6.68634E+00-3.49999E-01
 -1      2693 1.43945E+01 2.04235E+00-3.49999E-01
 -1      2694 1.04764E+00-1.43287E+01 3.49999E-01
 -1      2695 9.60256E+00 6.24829E+00-3.49999E-01
 -1      2696 2.69116E+00-1.50442E+01-3.49999E-01
 -1      2697 1.67931E+00-5.55164E+00-3.49999E-01
 -1      2698 1.42637E+01-2.41684E+00-3.49999E-01
 -1      2699-9.60298E+00-1.56403E+00-3.49999E-01
 -1      2700 8.24593E+00 2.26076E+00-3.49999E-01
 -1      2701-5.95608E+00-1.49042E+01-3.49999E-01
 -1      2702 8.20518E+00 8.34832E+00-3.49999E-01
 -1      2703 1.20755E+01-2.42053E+00 3.49999E-01
 -1      2704 5.43155E-01-5.48523E+00-3.49999E-01
 -1      2705 7.34374E+00 6.57003E+00-3.49999E-01
 -1      2706 6.03507E+00 1.15540E+00-3.49999E-01
 -1      2707-5.75057E+00 1.46519E+01-3.49999E-01
 -1      2708 1.28416E+01-3.97930E+00 3.49999E-01
 -1      2709 1.00845E+01-4.69422E+00-3.49999E-01
 -1      2710 6.21929E+00-5.38517E+00-3.49999E-01
 -1      2711-2.95911E+00-1.07618E+01 3.49999E-01
 -1      2712-7.38072E-01 1.09591E+01-3.49999E-01
 -1      2713-1.16738E+00-5.98653E+00-3.49999E-01
 -1      2714-1.32292E+00-1.29203E+01-3.49999E-01
 -1      2715 9.12437E+00 5.18881E+00 3.49999E-01
 -1      2716 3.50064E+00-6.91553E-01-3.49999E-01
 -1      2717 4.43979E+00-7.00744E-01-3.49999E-01
 -1      2718-3.60265E+00-8.48409E-01-3.49999E-01
 -1      2719 4.66013E-01-2.40579E+00-3.49999E-01
 -1      2720-1.02908E+01 1.61657E-01-3.49999E-01
 -1      2721-5.22517E+00 1.47714E+01 3.49999E-01
 -1      2722-7.41133E-01-1.40721E+00-3.49999E-01
 -1      2723 1.68502E-01-6.22356E+00-3.49999E-01
 -1      2724 6.76892E+00 3.18183E+00-3.49999E-01
 -1      2725 7.47272E+00 4.99312E+00 3.49999E-01
 -1      2726-3.73292E+00-1.57159E+01 3.49999E-01
 -1      2727 1.01057E+01-5.98295E+00-3.49999E-01
 -1      2728 9.79449E+00-7.66852E+00-3.49999E-01
 -1      2729-8.10290E-01 1.16320E+00-3.49999E-01
 -1      2730-1.84050E+00-9.25282E+00 3.49999E-01
 -1      2731 1.36667E+00-1.00086E+01 3.49999E-01
 -1      2732 3.03813E+00 1.91640E+00-3.49999E-01
 -1      2733-1.09864E+01-4.90434E+00-3.49999E-01
 -1      2734-8.76341E-01-1.47612E+01-3.49999E-01
 -1      2735-9.09770E+00-4.26344E+00-3.49999E-01
 -1      2736 1.49311E+01 3.41394E+00 3.49999E-01
 -1      2737 1.58329E+01 3.49693E+00 3.49999E-01
 -1      2738 7.16830E+00-9.32137E+00-3.49999E-01
 -1      2739-7.11663E+00-1.34260E+01-3.49999E-01
 -1      2740-3.09876E+00-1.09287E+01-3.49999E-01
 -1      2741 7.02171E+00-9.19829E+00 3.49999E-01
 -1      2742-8.61796E+00 6.31457E+00-3.49999E-01
 -1      2743-4.54597E+00 1.02471E+01-3.49999E-01
 -1      2744-6.37369E+00-1.70491E+00-3.49999E-01
 -1      2745 4.37699E+00-1.34351E+01-3.49999E-01
 -1      2746-1.34391E+00-1.12274E+01 3.49999E-01
 -1      2747-7.01250E-01-8.43895E+00-3.49999E-01
 -1      2748 7.95294E+00 3.43571E+00-3.49999E-01
 -1      2749-6.78771E+00-4.53540E+00 3.49999E-01
 -1      2750 2.56747E+00-9.76970E+00 3.49999E-01
 -1      2751-6.37480E+00 8.47321E+00-3.49999E-01
 -1      2752-2.64545E+00 4.85982E-01-3.49999E-01
 -1      2753 5.71867E+00-1.34259E+01-3.49999E-01
 -1      2754-3.59541E+00-7.61371E+00-3.49999E-01
 -1      2755-5.47035E+00 9.37042E+00-3.49999E-01
 -1      2756-5.74551E+00 1.24044E+01-3.49999E-01
 -1      2757-7.21732E+00 1.44598E+01-3.49999E-01
 -1      2758 1.57586E+00-5.72512E-01 3.49999E-01
 -1      2759 1.99007E+00-1.59556E+01-3.49999E-01
 -1      2760 2.05845E+00-1.04092E+01-3.49999E-01
 -1      2761 3.05689E+00-8.78277E+00-3.49999E-01
 -1      2762-1.27814E+01-2.97717E+00-3.49999E-01
 -1      2763-4.16621E+00-8.66187E+00-3.49999E-01
 -1      2764 1.12384E+01-8.87097E+00 3.49999E-01
 -1      2765 8.04385E+00-6.19315E+00 3.49999E-01
 -1      2766-5.57615E+00-2.67736E-01-3.49999E-01
 -1      2767 1.85491E+00 1.03856E+01-3.49999E-01
 -1      2768 7.91787E+00-5.46258E+00-3.49999E-01
 -1      2769-1.58922E+00-1.06190E+00 3.49999E-01
 -1      2770-5.74935E+00-2.50111E+00-3.49999E-01
 -1      2771-5.48794E+00 1.23819E+01 3.49999E-01
 -1      2772 1.29112E+01 1.12558E+00 3.49999E-01
 -1      2773-2.29266E+00 1.12752E+01 3.49999E-01
 -1      2774 3.28162E+00-1.21955E+01-3.49999E-01
 -1      2775-1.07642E+01 1.19861E+01 3.49999E-01
 -1      2776 1.22061E+00 6.14531E+00-3.49999E-01
 -1      2777-2.44935E+00-1.37346E+01-3.49999E-01
 -1      2778-1.86241E+00 5.72145E+00-3.49999E-01
 -1      2779-8.97083E+00-3.16581E+00-3.49999E-01
 -1      2780 1.21954E+01 1.42310E+00-3.49999E-01
 -1      2781-1.99192E+00-1.47257E+01-3.49999E-01
 -1      2782-7.45398E+00-4.24945E+00-3.49999E-01
 -1      2783 8.04477E+00-2.31280E+00-3.49999E-01
 -1      2784-4.05644E-01 7.80156E+00-3.49999E-01
 -1      2785-1.25911E+01-8.38045E+00 3.49999E-01
 -1      2786 1.22847E+01 5.21965E+00-3.49999E-01
 -1      2787-7.71743E+00-2.85485E+00-3.49999E-01
 -1      2788-6.19295E+00 1.03848E+01-3.49999E-01
 -1      2789 9.04619E+00-6.95771E+00 3.49999E-01
 -1      2790-1.33154E+01-7.05223E-01 3.49999E-01
 -1      2791 2.76922E+00-1.00186E+01-3.49999E-01
 -1      2792 4.24638E-03-4.54359E+00-3.49999E-01
 -1      2793-4.09446E-01-1.56247E+01 3.49999E-01
 -1      2794-1.04026E+01-7.95085E+00 3.49999E-01
 -1      2795-4.95904E+00 1.28226E+01-3.49999E-01
 -1      2796 3.13306E+00-1.55633E+01 3.49999E-01
 -1      2797 1.43133E+01-3.82439E+00-3.49999E-01
 -1      2798-1.36230E+00 4.72893E+00-3.49999E-01
 -1      2799 1.40448E+01-5.27638E+00 3.49999E-01
 -1      2800 6.46091E+00 1.48289E+01-3.49999E-01
 -1      2801-1.04866E+01-3.06602E+00-3.49999E-01
 -1      2802-1.31639E+01-3.32350E+00 3.49999E-01
 -1      2803-1.11332E+01-2.93103E+00 3.49999E-01
 -1      2804-6.48325E-01-2.34575E+00-3.49999E-01
 -1      2805-9.74081E+00-1.58625E+00 3.49999E-01
 -1      2806 8.42536E+00 4.35721E+00-3.49999E-01
 -1      2807 4.73252E-01-9.03518E+00-3.49999E-01
 -1      2808 5.68322E+00-3.24368E-01-3.49999E-01
 -1      2809-6.16543E+00-4.96226E+00-3.49999E-01
 -1      2810-5.34028E+00 1.06649E+01-3.49999E-01
 -1      2811 5.92666E+00-6.86540E+00-3.49999E-01
 -1      2812 3.19797E+00-1.10998E+01 3.49999E-01
 -1      2813-5.90307E+00-8.89100E+00-3.49999E-01
 -1      2814-1.62394E+00-1.28971E+01 3.49999E-01
 -1      2815-1.90384E+00-8.82131E+00-3.49999E-01
 -1      2816 6.91637E+00 5.76845E+00-3.49999E-01
 -1      2817 1.52760E+01-4.98750E+00-3.49999E-01
 -1      2818-6.23067E+00 3.44902E+00-3.49999E-01
 -1      2819 8.98355E+00 4.90916E+00-3.49999E-01
 -1      2820 9.27808E+00-6.69441E+00-3.49999E-01
 -1      2821 8.28559E+00 6.44416E+00 3.49999E-01
 -1      2822 9.77895E+00 7.67512E+00 3.49999E-01
 -1      2823-6.22174E+00 8.08074E+00 3.49999E-01
 -1      2824 1.08507E+01-4.92784E+00-3.49999E-01
 -1      2825 5.95327E+00 2.57523E+00-3.49999E-01
 -1      2826 1.15112E+01 5.43033E+00-3.49999E-01
 -1      2827 1.14310E+01-7.94812E+00-3.49999E-01
 -1      2828 2.51864E+00-3.37960E+00-3.49999E-01
 -1      2829-9.44652E+00 3.38815E+00-3.49999E-01
 -1      2830-4.75568E+00-2.40704E+00-3.49999E-01
 -1      2831 3.50184E+00-7.04689E+00-3.49999E-01
 -1      2832 3.84746E+00 3.29380E+00-3.49999E-01
 -1      2833-7.11670E+00 1.12396E+00-3.49999E-01
 -1      2834-1.34782E+01-3.35340E+00-3.49999E-01
 -1      2835 1.10339E+01 3.50520E+00-3.49999E-01
 -1      2836-4.35423E+00-7.28329E+00-3.49999E-01
 -1      2837-5.85332E+00 1.36644E+01-3.49999E-01
 -1      2838-1.02530E+01-4.57654E+00-3.49999E-01
 -1      2839 7.89112E+00-8.86767E+00-3.49999E-01
 -1      2840-8.31266E-01 9.46018E+00-3.49999E-01
 -1      2841 1.13289E+01 1.44263E+00-3.49999E-01
 -1      2842 2.73563E-01-1.24880E+01-3.49999E-01
 -1      2843-4.92171E+00 7.36586E+00 3.49999E-01
 -1      2844-7.97936E+00 1.40447E+01 3.49999E-01
 -1      2845 6.04143E+00 3.30836E+00-3.49999E-01
 -1      2846 8.13472E+00-1.03580E+01-3.49999E-01
 -1      2847 2.30470E+00-9.37264E-01-3.49999E-01
 -1      2848 1.57636E+01-3.47592E+00 3.49999E-01
 -1      2849 5.66024E+00-1.23154E+01-3.49999E-01
 -1      2850 9.75871E+00 4.39041E+00-3.49999E-01
 -1      2851-2.90926E+00-1.30884E+01-3.49999E-01
 -1      2852-3.37407E+00 9.31305E+00-3.49999E-01
 -1      2853-5.13956E+00 9.21172E+00 3.49999E-01
 -1      2854 8.06277E+00 6.16129E+00-3.49999E-01
 -1      2855 5.78558E+00 1.85330E+00-3.49999E-01
 -1      2856 1.00672E+01 7.73274E+00-3.49999E-01
 -1      2857 3.71952E+00 7.35718E+00-3.49999E-01
 -1      2858 2.93909E+00-1.58836E+01-3.49999E-01
 -1      2859-1.16330E+00 1.17901E+01-3.49999E-01
 -1      2860-5.06998E+00 1.52784E+01-3.49999E-01
 -1      2861 1.50074E+01-2.75408E+00-3.49999E-01
 -1      2862 7.34478E+00 2.11284E+00-3.49999E-01
 -1      2863 1.16545E+01 4.43134E+00-3.49999E-01
 -1      2864-3.38243E+00-1.14063E+01 3.49999E-01
 -1      2865-2.14139E+00-1.26209E+01-3.49999E-01
 -1      2866 3.19903E+00 2.23460E-01-3.49999E-01
 -1      2867-2.85195E+00-7.07808E-01-3.49999E-01
 -1      2868-9.72408E+00-4.47045E-01-3.49999E-01
 -1      2869-6.15950E+00 1.44465E+01 3.49999E-01
 -1      2870-4.76152E+00 1.54126E+01 3.49999E-01
 -1      2871-1.43204E+00 3.44366E-01-3.49999E-01
 -1      2872-6.63422E+00 1.18896E+01-3.49999E-01
 -1      2873-6.45707E+00 1.29098E+01-3.49999E-01
 -1      2874 8.98181E+00 3.06827E+00-3.49999E-01
 -1      2875 1.84067E+00-9.25368E+00 3.49999E-01
 -1      2876-6.45740E+00 1.43531E+01-3.49999E-01
 -1      2877 1.01355E+01 3.51200E+00-3.49999E-01
 -1      2878 1.18476E+01-8.24507E+00 3.49999E-01
 -1      2879-3.38490E+00-8.67774E+00-3.49999E-01
 -1      2880-5.05070E+00 3.34361E-01-3.49999E-01
 -1      2881-6.29460E+00-8.08921E-01-3.49999E-01
 -1      2882 4.08807E+00-1.20059E+01-3.49999E-01
 -1      2883-6.02200E+00-3.41885E+00-3.49999E-01
 -1      2884-9.10765E+00-2.29418E+00-3.49999E-01
 -1      2885 2.10483E+00 6.28250E+00-3.49999E-01
 -1      2886 1.20678E+01-8.52630E+00-3.49999E-01
 -1      2887 6.55020E+00-7.33939E+00-3.49999E-01
 -1      2888-6.05243E+00 1.08460E+01 3.49999E-01
 -1      2889-1.13321E+01-2.65931E+00-3.49999E-01
 -1      2890-1.01463E+01-2.88340E+00 3.49999E-01
 -1      2891-8.84649E-01-3.08024E+00-3.49999E-01
 -1      2892 2.81936E+00-4.08905E-01-3.49999E-01
 -1      2893-5.51324E+00 1.15416E+01-3.49999E-01
 -1      2894 7.56685E+00 5.29896E+00-3.49999E-01
 -1      2895 7.25297E+00-7.80366E+00-3.49999E-01
 -1      2896 4.08395E+00-6.54075E+00-3.49999E-01
 -1      2897 4.46947E+00 2.59487E+00-3.49999E-01
 -1      2898 1.16716E+01 1.30504E+00 3.49999E-01
 -1      2899-4.51084E-01-1.23532E+01-3.49999E-01
 -1      2900 6.55392E+00 4.10033E+00-3.49999E-01
 -1      2901 1.49479E+01-3.74791E+00 3.49999E-01
 -1      2902 5.87569E+00-1.20019E+01 3.49999E-01
 -1      2903-5.88688E+00 9.85077E+00 3.49999E-01
 -1      2904-1.62926E+00 6.74859E-01 3.49999E-01
 -1      2905-6.93866E+00 1.10811E+01-3.49999E-01
 -1      2906 9.10419E+00 3.88569E+00-3.49999E-01
 -1      2907 1.62976E+00-8.92448E+00-3.49999E-01
 -1      2908 4.96168E+00 1.92974E+00-3.49999E-01
 -1      2909 5.21561E+00 2.62403E+00-3.49999E-01
 -1      2910-8.17411E-01-1.97341E+00 3.49999E-01
 -1      2911 2.21221E+00-3.32339E-01-3.49999E-01
 -1      2912-1.78473E+00 2.30610E+00-3.49999E-01
 -1      2913-1.66022E+00-3.15243E-01-3.49999E-01
 -1      2914 2.55905E-01 2.64179E+00-3.49999E-01
 -1      2915 5.78632E-01-3.00584E+00-3.49999E-01
 -1      2916 2.36815E+00-1.89904E+00-3.49999E-01
 -1      2917-1.11406E+00 1.66729E+00 3.49999E-01
 -1      2918-2.04446E+00-1.64241E+00-3.49999E-01
 -1      2919-7.75586E-01 2.35441E+00-3.49999E-01
 -1      2920 2.86706E-01-2.75003E+00-3.49999E-01
 -1      2921-2.30898E+00-6.86584E-01-3.49999E-01
 -1      2922 3.08657E-01 1.93516E+00-3.49999E-01
 -1      2923-1.90678E+00-1.27408E+00 3.49999E-01
 -1      2924 1.05235E+00-1.95021E+00-3.49999E-01
 -1      2925 8.74859E-01 1.78718E+00-3.49999E-01
 -1      2926 7.71061E-01 1.86151E+00 3.49999E-01
 -1      2927 1.34813E+00 2.02972E+00-3.49999E-01
 -1      2928-2.59095E+00-4.29005E-01-3.49999E-01
 -1      2929 1.84645E+00-1.05943E+00 3.49999E-01
 -1      2930 1.85749E+00 7.91356E-01 3.49999E-01
 -1      2931 1.73405E+00 4.07888E-01-3.49999E-01
 -1      2932 4.42702E-01-2.22556E+00 3.49999E-01
 -1      2933-2.77943E+00 1.58772E+00-3.49999E-01
 -1      2934-4.17373E-01 2.09821E+00 3.49999E-01
 -1      2935 3.44088E-01 2.13838E+00 3.49999E-01
 -1      2936 1.98807E+00 1.49563E+00-3.49999E-01
 -1      2937-1.81457E+00-2.27840E+00-3.49999E-01
 -1      2938-3.13668E-01 2.35034E+00-3.49999E-01
 -1      2939-1.77878E+00 1.18856E+00 3.49999E-01
 -1      2940-1.56472E+00 1.09058E+00-3.49999E-01
 -1      2941 2.50104E+00 3.08794E-01-3.49999E-01
 -1      2942-2.04153E+00 3.91321E-01-3.49999E-01
 -1      2943-4.85890E-01-2.80328E+00-3.49999E-01
 -1      2944-4.36067E-01-2.19220E+00 3.49999E-01
 -1      2945-1.30377E+00-1.66140E+00 3.49999E-01
 -1      2946 2.05455E+00 0.00000E+00 3.49999E-01
 -1      2947 2.48688E+00-5.99879E-01-3.49999E-01
 -1      2948-1.34680E+00 2.27861E+00-3.49999E-01
 -1      2949-1.96671E+00-3.91219E-01 3.49999E-01
 -1      2950-1.24357E-01-2.41733E+00-3.49999E-01
 -1      2951-2.28014E+00-1.21874E+00-3.49999E-01
 -1      2952 2.49423E+00-1.40774E+00-3.49999E-01
 -1      2953-1.10844E+00 2.05540E+00 3.49999E-01
 -1      2954 1.83642E+00-3.00685E+00-3.49999E-01
 -1      2955 2.05600E+00-1.31086E+00-3.49999E-01
 -1      2956-2.47453E+00-1.90787E+00-3.49999E-01
 -1      2957 6.63889E-01 2.73991E+00-3.49999E-01
 -1      2958 5.95536E-01-2.69207E+00-3.49999E-01
 -1      2959-2.38138E+00-1.57766E+00-3.49999E-01
 -1      2960 4.70829E-01 2.30255E+00-3.49999E-01
 -1      2961 1.23050E+00 1.84155E+00 3.49999E-01
 -1      2962 2.09394E+00-6.03251E-01 3.49999E-01
 -1      2963 2.57220E+00 1.55854E+00-3.49999E-01
 -1      2964 2.91031E+00 7.59106E-01-3.49999E-01
 -1      2965 9.78479E-01-1.84742E+00 3.49999E-01
 -1      2966 1.49269E+00-1.96723E+00-3.49999E-01
 -1      2967-1.39625E+00-2.35737E+00-3.49999E-01
 -1      2968-2.99024E+00 1.00307E+00-3.49999E-01
 -1      2969-2.23973E+00 1.64501E+00-3.49999E-01
 -1      2970 2.86507E+00 3.89084E-01-3.49999E-01
 -1      2971 1.75064E+00 1.28501E+00 3.49999E-01
 -1      2972-2.29545E+00-4.56602E-01 3.49999E-01
 -1      2973-1.71309E+00 2.76484E+00-3.49999E-01
 -1      2974-2.46148E+00-4.89623E-01 3.49999E-01
 -1      2975 2.16592E+00 4.47944E-01 3.49999E-01
 -1      2976-1.17899E+00-2.00196E+00 3.49999E-01
 -1      2977-2.06231E+00 2.37500E-01 3.49999E-01
 -1      2978 1.96891E+00-2.64067E+00 9.48279E-01
 -1      2979-2.30357E+00 4.58217E-01 3.49999E-01
 -1      2980 4.82557E-01-2.42595E+00 3.49999E-01
 -1      2981 1.97967E+00-1.32278E+00 3.49999E-01
 -1      2982-4.69761E-01 2.36162E+00 3.49999E-01
 -1      2983 1.67655E+00-2.80631E+00 9.16972E-01
 -1      2984 1.35892E+00 2.03376E+00 3.49999E-01
 -1      2985 1.67655E+00 2.80631E+00 9.16972E-01
 -1      2986 1.19031E+00 2.79544E+00-3.49999E-01
 -1      2987 2.07899E+00 1.11821E+00 3.49999E-01
 -1      2988 3.19313E+00-8.08500E-01 9.48278E-01
 -1      2989 2.80631E+00-1.67655E+00 9.16972E-01
 -1      2990-2.80631E+00-1.67655E+00 9.16972E-01
 -1      2991-1.93823E+00 1.32396E+00-3.49999E-01
 -1      2992-2.06679E+00-1.38099E+00 3.49999E-01
 -1      2993-4.79198E-01-2.40906E+00 3.49999E-01
 -1      2994-8.08500E-01 3.19313E+00 9.48278E-01
 -1      2995-3.32118E+00-4.74999E-01 1.02500E+00
 -1      2996 2.39713E+00 4.76824E-01 3.49999E-01
 -1      2997-3.05634E+00-7.51840E-01 8.56249E-01
 -1      2998-2.42963E+00-1.00722E+00 8.54088E-01
 -1      2999 2.30167E+00-2.86777E-01 3.49999E-01
 -1      3000-1.40393E+00 1.86558E+00 3.49999E-01
 -1      3001 1.37488E+00-1.82782E+00 3.49999E-01
 -1      3002-4.74999E-01 3.23428E+00 9.16972E-01
 -1      3003 1.96891E+00 2.64067E+00 9.48279E-01
 -1      3004-2.64067E+00-1.96891E+00 9.48279E-01
 -1      3005 1.18842E+00-2.07515E+00 3.49999E-01
 -1      3006-1.45708E+00-1.91071E+00 3.49999E-01
 -1      3007 1.85978E+00-1.85978E+00 8.54628E-01
 -1      3008-3.00171E+00 5.64603E-03-3.49999E-01
 -1      3009 6.82386E-01 2.26805E+00 3.49999E-01
 -1      3010 1.00580E+00-2.43022E+00 8.54088E-01
 -1      3011-2.46563E+00 4.90447E-01 3.49999E-01
 -1      3012-1.96891E+00 2.64067E+00 9.48279E-01
 -1      3013 1.99612E+00 1.36167E+00 3.49999E-01
 -1      3014-2.63013E+00 7.67997E-04 8.54088E-01
 -1      3015 2.35003E+00-5.44939E-01 3.49999E-01
 -1      3016 1.00651E+00 2.42992E+00 8.53008E-01
 -1      3017-1.67655E+00 2.80631E+00 9.16972E-01
 -1      3018 8.08500E-01-3.19313E+00 9.48278E-01
 -1      3019-4.74999E-01-3.23428E+00 9.16972E-01
 -1      3020 2.42992E+00-1.00651E+00 8.54629E-01
 -1      3021 3.23428E+00 4.74999E-01 9.16972E-01
 -1      3022 7.67997E-04 2.63013E+00 8.54088E-01
 -1      3023-2.00209E+00 1.33776E+00 3.49999E-01
 -1      3024 1.86033E+00 1.85924E+00 8.54088E-01
 -1      3025 7.05744E-01-2.94505E+00 7.06511E-01
 -1      3026 2.81639E+00-1.00455E+00-3.49999E-01
 -1      3027 2.63013E+00 7.67997E-04 8.54088E-01
 -1      3028-1.32502E+00 2.06765E+00 3.49999E-01
 -1      3029 1.39228E+00-2.03488E+00 3.49999E-01
 -1      3030-1.85978E+00 1.85978E+00 8.53007E-01
 -1      3031-3.23428E+00 4.74999E-01 9.16972E-01
 -1      3032-2.97379E+00 4.74999E-01 6.92750E-01
 -1      3033-1.35736E+00-2.07617E+00 3.49999E-01
 -1      3034 3.23428E+00-4.74999E-01 9.16972E-01
 -1      3035 4.74999E-01 3.23428E+00 9.16972E-01
 -1      3036-3.19313E+00 8.08500E-01 9.48278E-01
 -1      3037 2.64067E+00-1.96891E+00 9.48279E-01
 -1      3038 1.77905E+00-2.45080E+00 7.06511E-01
 -1      3039 4.47742E-01 2.37408E+00 3.49999E-01
 -1      3040 8.08500E-01 3.19313E+00 9.48278E-01
 -1      3041 3.19313E+00 8.08500E-01 9.48278E-01
 -1      3042 1.57686E+00-2.56565E+00 6.92750E-01
 -1      3043 2.10397E+00-1.40583E+00 3.49999E-01
 -1      3044-1.00651E+00 2.42992E+00 8.53008E-01
 -1      3045-4.74999E-01 2.97379E+00 6.92750E-01
 -1      3046-1.57686E+00 2.56565E+00 6.92750E-01
 -1      3047 2.42992E+00 1.00651E+00 8.53008E-01
 -1      3048-3.02705E+00-4.74999E-01 7.51012E-01
 -1      3049-1.85924E+00-1.86033E+00 8.54088E-01
 -1      3050 1.57686E+00 2.56565E+00 6.92750E-01
 -1      3051 7.05744E-01 2.94505E+00 7.06511E-01
 -1      3052 2.94505E+00-7.05744E-01 7.06511E-01
 -1      3053 2.56565E+00-1.57686E+00 6.92750E-01
 -1      3054-7.67997E-04-2.63013E+00 8.54088E-01
 -1      3055-1.96891E+00-2.64067E+00 9.48279E-01
 -1      3056 2.45080E+00-1.77905E+00 7.06511E-01
 -1      3057-2.42992E+00 1.00651E+00 8.53008E-01
 -1      3058-1.01793E+00-2.63210E+00-3.49999E-01
 -1      3059-8.08500E-01-3.19313E+00 9.48278E-01
 -1      3060 4.74999E-01 2.97379E+00 6.92750E-01
 -1      3061 1.77905E+00 2.45080E+00 7.06511E-01
 -1      3062 2.62286E+00 1.95111E+00 9.16969E-01
 -1      3063 2.97379E+00-4.74999E-01 6.92750E-01
 -1      3064 2.97379E+00 4.74999E-01 6.92750E-01
 -1      3065-7.05744E-01 2.94505E+00 7.06511E-01
 -1      3066-2.80631E+00 1.67655E+00 9.16972E-01
 -1      3067-2.64067E+00 1.96891E+00 9.48279E-01
 -1      3068-1.77905E+00 2.45080E+00 7.06511E-01
 -1      3069-2.45080E+00 1.77905E+00 7.06511E-01
 -1      3070-1.77905E+00-2.45080E+00 7.06511E-01
 -1      3071-1.63406E+00-2.70374E+00 8.56249E-01
 -1      3072 2.94505E+00 7.05744E-01 7.06511E-01
 -1      3073 2.82958E+00 1.68618E+00 9.48278E-01
 -1      3074 2.43866E+00 1.76691E+00 6.92749E-01
 -1      3075 2.58150E+00 1.58343E+00 7.06511E-01
 -1      3076 4.74999E-01-3.23428E+00 9.16972E-01
 -1      3077-2.45080E+00-1.77905E+00 7.06511E-01
 -1      3078-1.00651E+00-2.42992E+00 8.53008E-01
 -1      3079-2.94505E+00 7.05744E-01 7.06511E-01
 -1      3080 4.74999E-01-2.97379E+00 6.92750E-01
 -1      3081-4.74999E-01-2.97379E+00 6.92750E-01
 -1      3082-2.56565E+00 1.57686E+00 6.92750E-01
 -1      3083-1.55737E+00-2.51858E+00 6.37018E-01
 -1      3084-7.05744E-01-2.94505E+00 7.06511E-01
 -1      3085 1.59441E+00 2.38621E+00 2.18069E-02
 -1      3086-2.37131E+00-4.71688E-01 1.20975E-02
 -1      3087-5.59878E-01 2.81472E+00 9.02174E-03
 -1      3088 5.08977E-01-2.55879E+00-1.35805E-02
 -1      3089-4.81604E-01 2.42116E+00 7.49505E-03
 -1      3090-2.06679E+00-1.38099E+00-2.27204E-02
 -1      3091 1.35892E+00 2.03376E+00 3.80725E-02
 -1      3092-2.37726E+00-1.58843E+00 2.64336E-02
 -1      3093 2.66826E+00-5.30748E-01-2.36546E-02
 -1      3094 1.59441E+00-2.38621E+00 9.14668E-03
 -1      3095-2.20820E+00-1.47547E+00 1.28201E-01
 -1      3096 2.00714E+00 1.34114E+00 3.19380E-02
 -1      3097 1.47866E+00 2.21296E+00 1.23339E-01
 -1      3098 1.37658E+00-2.06019E+00 1.28116E-02
 -1      3099 2.38621E+00-1.59441E+00-3.73915E-03
 -1      3100-5.07925E-01-2.55351E+00-3.99413E-02
 -1      3101-1.59441E+00 2.38621E+00-9.71723E-04
 -1      3102-2.81472E+00-5.59878E-01 1.28644E-02
 -1      3103-2.54793E+00-5.06816E-01 1.44556E-01
 -1      3104 2.39713E+00 4.76824E-01 1.09006E-02
 -1      3105-1.36622E+00 2.04469E+00 2.06654E-03
 -1      3106 1.97986E+00 2.18471E+00 8.05159E-02
 -1      3107 5.59878E-01-2.81472E+00 1.31336E-01
 -1      3108 4.71009E-01 2.36789E+00 4.60830E-02
 -1      3109 5.59878E-01 2.81472E+00 1.77600E-02
 -1      3110-5.20655E-01 2.61751E+00 1.23514E-01
 -1      3111-2.46563E+00 4.90447E-01-3.61052E-03
 -1      3112 5.23011E-01-2.62936E+00 1.64262E-01
 -1      3113 2.38621E+00 1.59441E+00 3.85912E-03
 -1      3114-1.59441E+00-2.38621E+00 8.42415E-04
 -1      3115-1.48080E+00 2.21617E+00 1.18184E-01
 -1      3116-2.18471E+00-1.97986E+00 7.95924E-02
 -1      3117 1.48610E+00-2.22410E+00 1.27098E-01
 -1      3118-2.77607E+00-9.93097E-01 7.88388E-02
 -1      3119 1.81341E-01-2.77288E+00 3.08031E-02
 -1      3120 1.26716E+00-2.61668E+00 9.53837E-02
 -1      3121-2.38621E+00 1.59441E+00 1.23305E-02
 -1      3122 2.81472E+00 5.59878E-01 6.83850E-03
 -1      3123-5.59878E-01-2.81472E+00 1.17004E-01
 -1      3124 2.51382E+00 5.00032E-01 1.80450E-01
 -1      3125-2.61668E+00 1.26716E+00 9.61818E-02
 -1      3126 2.71782E+00-5.40605E-01 1.75804E-01
 -1      3127-2.18471E+00 1.97986E+00 7.87353E-02
 -1      3128 1.26716E+00 2.61668E+00 9.84662E-02
 -1      3129-1.69344E-01 2.90241E+00 9.53541E-02
 -1      3130-2.00209E+00 1.33776E+00 4.84688E-02
 -1      3131-9.93097E-01 2.77607E+00 7.80737E-02
 -1      3132 1.97986E+00-2.18471E+00 7.81001E-02
 -1      3133-1.37471E+00-2.05739E+00 1.66074E-02
 -1      3134 8.86358E-01-2.61878E+00 3.63095E-02
 -1      3135 2.42005E+00-1.25949E+00 1.03553E-01
 -1      3136 5.16433E-01 2.59628E+00 1.13537E-01
 -1      3137-1.48714E+00-2.22566E+00 1.25257E-01
 -1      3138 2.20138E+00 1.47091E+00 1.09652E-01
 -1      3139 2.10397E+00-1.40583E+00 4.18599E-02
 -1      3140-2.77607E+00-9.93097E-01 6.02265E-01
 -1      3141-2.81472E+00 5.59878E-01 5.24245E-02
 -1      3142-2.55018E+00 5.07264E-01 1.73194E-01
 -1      3143 2.91562E+00-1.59083E-01 3.93787E-02
 -1      3144 2.48623E+00-4.94545E-01 1.63398E-01
 -1      3145 2.71086E+00 5.39220E-01 1.77583E-01
 -1      3146-5.01272E-01-2.52006E+00 1.69959E-01
 -1      3147 2.25929E+00-1.50961E+00 1.46210E-01
 -1      3148 2.66520E+00 1.26075E+00 7.70162E-02
 -1      3149-2.30406E+00 1.53952E+00 1.84469E-01
 -1      3150-2.13307E+00 1.42527E+00 1.80715E-01
 -1      3151-2.90241E+00-1.69344E-01 9.63162E-02
 -1      3152-1.78511E-01-2.90241E+00 1.13682E-01
 -1      3153-9.93097E-01-2.77607E+00 8.50536E-02
 -1      3154 2.71469E+00-9.39903E-01 5.07177E-02
 -3
    3C                          9558                                     1
 -1         1    3    0    1
 -2       460        15       909      1163
 -1         2    3    0    1
 -2      1738      1698      1993      2393
 -1         3    3    0    1
 -2      1731      1590      1809      1967
 -1         4    3    0    1
 -2       535       534       939      1678
 -1         5    3    0    1
 -2      2048      1069      2954      3120
 -1         6    3    0    1
 -2       742      1054       752       750
 -1         7    3    0    1
 -2      1347       296      1348      1688
 -1         8    3    0    1
 -2       559      1923      2680      2712
 -1         9    3    0    1
 -2      1320      2049      2828      2954
 -1        10    3    0    1
 -2      2352      1564      2572      2638
 -1        11    3    0    1
 -2       933       531      1201       935
 -1        12    3    0    1
 -2      1288      1835      1885      1925
 -1        13    3    0    1
 -2      1477      1472      1516      3053
 -1        14    3    0    1
 -2      1635      1695      1949      2113
 -1        15    3    0    1
 -2      1354      1355      1704      1863
 -1        16    3    0    1
 -2       684       164       681      1261
 -1        17    3    0    1
 -2       882      1394      1781      1822
 -1        18    3    0    1
 -2       604       610      1235      1662
 -1        19    3    0    1
 -2       528      1201       943       543
 -1        20    3    0    1
 -2      2255        54      2260      2897
 -1        21    3    0    1
 -2      1467         2      1496      3145
 -1        22    3    0    1
 -2       384       385      1187      1656
 -1        23    3    0    1
 -2       309       397      1120      2193
 -1        24    3    0    1
 -2       950        86      1875      2057
 -1        25    3    0    1
 -2       501      1188       932       519
 -1        26    3    0    1
 -2      1682      1689      1714      1777
 -1        27    3    0    1
 -2       644      1257       643       655
 -1        28    3    0    1
 -2       174       677      1263      1265
 -1        29    3    0    1
 -2      1686      1875      2057      2767
 -1        30    3    0    1
 -2        12       413       905      2247
 -1        31    3    0    1
 -2       431       430       465       909
 -1        32    3    0    1
 -2      2241      2338      2361      2624
 -1        33    3    0    1
 -2       745      1294       221       746
 -1        34    3    0    1
 -2       460        15       465       909
 -1        35    3    0    1
 -2       820       277       825      1324
 -1        36    3    0    1
 -2       492       489       919      1170
 -1        37    3    0    1
 -2       536        57       542      1189
 -1        38    3    0    1
 -2      1804      1676      2054      2211
 -1        39    3    0    1
 -2      1069      1439      3025      3042
 -1        40    3    0    1
 -2      1246       985       628      1242
 -1        41    3    0    1
 -2       567       957       547       568
 -1        42    3    0    1
 -2      1626      1539      1647      1772
 -1        43    3    0    1
 -2        20       484       489      1169
 -1        44    3    0    1
 -2        40       518       512       920
 -1        45    3    0    1
 -2      3044      1415      3046      3065
 -1        46    3    0    1
 -2      2037      1666      2690      2715
 -1        47    3    0    1
 -2        46       509       512       931
 -1        48    3    0    1
 -2       329      1397      1396      1797
 -1        49    3    0    1
 -2      1117       402      1602      2844
 -1        50    3    0    1
 -2      1041      1758      1871      1925
 -1        51    3    0    1
 -2      1568      1588      1667      1955
 -1        52    3    0    1
 -2       711      1032      1035      1618
 -1        53    3    0    1
 -2      1758       208      1865      2182
 -1        54    3    0    1
 -2      1908      1982      2128      2151
 -1        55    3    0    1
 -2      1054       752      2446      2731
 -1        56    3    0    1
 -2      1758       208      1885      1925
 -1        57    3    0    1
 -2        75        79       557      1204
 -1        58    3    0    1
 -2       622       992       640       993
 -1        59    3    0    1
 -2      1977      2098      2751      2755
 -1        60    3    0    1
 -2       578        99       102      1217
 -1        61    3    0    1
 -2        46       406       509       930
 -1        62    3    0    1
 -2       890      1146      1924      2330
 -1        63    3    0    1
 -2      3090      3095      1447      2992
 -1        64    3    0    1
 -2       708       705      1035      1270
 -1        65    3    0    1
 -2      1712      1708      2154      2168
 -1        66    3    0    1
 -2      2201       964      2670      2973
 -1        67    3    0    1
 -2      1383       315       318      1975
 -1        68    3    0    1
 -2       112      1232       121       609
 -1        69    3    0    1
 -2        40        41       509      1179
 -1        70    3    0    1
 -2      1094      1332      1743      1888
 -1        71    3    0    1
 -2      1097       832       831      2079
 -1        72    3    0    1
 -2       480       910       912      3041
 -1        73    3    0    1
 -2       772       247       777      1062
 -1        74    3    0    1
 -2       375        80       950      1773
 -1        75    3    0    1
 -2       173       175      2350      2787
 -1        76    3    0    1
 -2      1675      1582      1714      2014
 -1        77    3    0    1
 -2       605      1227       608       109
 -1        78    3    0    1
 -2        94        92       579      1212
 -1        79    3    0    1
 -2      1876      2142      2310      2431
 -1        80    3    0    1
 -2      1198       934       536      1191
 -1        81    3    0    1
 -2      1420      1421      3141      1503
 -1        82    3    0    1
 -2      1668      1547      1715      1983
 -1        83    3    0    1
 -2      1889      1823      2002      2276
 -1        84    3    0    1
 -2       502       932       501       921
 -1        85    3    0    1
 -2       525       939       535       524
 -1        86    3    0    1
 -2       856       855      1639      2139
 -1        87    3    0    1
 -2       228       230       753      1059
 -1        88    3    0    1
 -2       926      1180       509      1179
 -1        89    3    0    1
 -2       981      1857      2019      2447
 -1        90    3    0    1
 -2       529       938      1192      1199
 -1        91    3    0    1
 -2      1243       990      1420      3079
 -1        92    3    0    1
 -2       678      2801      2803      2890
 -1        93    3    0    1
 -2      2006      2051      2327      2476
 -1        94    3    0    1
 -2       532       514       929      2288
 -1        95    3    0    1
 -2       721       206       722      1283
 -1        96    3    0    1
 -2       652       659      1003      1251
 -1        97    3    0    1
 -2      1663      1661      1715      1740
 -1        98    3    0    1
 -2       748      1292       218       753
 -1        99    3    0    1
 -2      2025      2441      2442      2665
 -1       100    3    0    1
 -2      1683      1726      2189      2243
 -1       101    3    0    1
 -2       284       286      1097      1832
 -1       102    3    0    1
 -2      1531      1703      1905      1970
 -1       103    3    0    1
 -2       739       744       760      1059
 -1       104    3    0    1
 -2         7       461       464       901
 -1       105    3    0    1
 -2       729       732      1039      1047
 -1       106    3    0    1
 -2       586      1221       580      2994
 -1       107    3    0    1
 -2      1047       361       729       211
 -1       108    3    0    1
 -2      1881      1558      1889      1898
 -1       109    3    0    1
 -2       719       718      1042      1282
 -1       110    3    0    1
 -2      1867      2500      2510      2630
 -1       111    3    0    1
 -2      3091      2961      2971      1448
 -1       112    3    0    1
 -2       471       832      1542      2294
 -1       113    3    0    1
 -2       883      1398      1395      2371
 -1       114    3    0    1
 -2       315      1893      1975      2157
 -1       115    3    0    1
 -2        78       377      3136      1486
 -1       116    3    0    1
 -2      1395       328      2215      2370
 -1       117    3    0    1
 -2       559      1210      2259      2712
 -1       118    3    0    1
 -2      1629      1783      2528      2587
 -1       119    3    0    1
 -2       335      1374      1797      1973
 -1       120    3    0    1
 -2       386       389      2060      2445
 -1       121    3    0    1
 -2      1920      1868      1989      2541
 -1       122    3    0    1
 -2       820       284       825      1097
 -1       123    3    0    1
 -2      1461      1428      3148      3072
 -1       124    3    0    1
 -2      1186      1907       510       511
 -1       125    3    0    1
 -2      1669      1979      2063      2240
 -1       126    3    0    1
 -2        97       584       958       959
 -1       127    3    0    1
 -2       555       561       944       957
 -1       128    3    0    1
 -2      1338      1098      1651      1878
 -1       129    3    0    1
 -2       705       700      1021      1277
 -1       130    3    0    1
 -2      1276      1026       697      1273
 -1       131    3    0    1
 -2       509        46       512       928
 -1       132    3    0    1
 -2      1786      1724      1805      2148
 -1       133    3    0    1
 -2      1589      1567      1687      2443
 -1       134    3    0    1
 -2      2463      2117      2625      2793
 -1       135    3    0    1
 -2      1334      1331       826      1888
 -1       136    3    0    1
 -2      2938      1799      3089      3129
 -1       137    3    0    1
 -2      1029       702      1846      2091
 -1       138    3    0    1
 -2      2949      1764      3086      2977
 -1       139    3    0    1
 -2      1366      1109      1951      2376
 -1       140    3    0    1
 -2      1585      2926      3091      3009
 -1       141    3    0    1
 -2       813       814      1095      1327
 -1       142    3    0    1
 -2       528       941       543       523
 -1       143    3    0    1
 -2       703       701      1030      1272
 -1       144    3    0    1
 -2       175       173       680      1018
 -1       145    3    0    1
 -2        27        33       485       917
 -1       146    3    0    1
 -2      1420      1243      3079      3082
 -1       147    3    0    1
 -2       991       621       994      1240
 -1       148    3    0    1
 -2       533       541       936       941
 -1       149    3    0    1
 -2      1461       387      2996      3124
 -1       150    3    0    1
 -2      1267       679      2691      2838
 -1       151    3    0    1
 -2       607       606       976      2206
 -1       152    3    0    1
 -2       918        36      2293      2725
 -1       153    3    0    1
 -2       550       556       562      1211
 -1       154    3    0    1
 -2       585       961      1216      1224
 -1       155    3    0    1
 -2       700       192      1024      1270
 -1       156    3    0    1
 -2        48       507       921      1183
 -1       157    3    0    1
 -2      2034      1839      2489      2508
 -1       158    3    0    1
 -2       371       372      1459      3110
 -1       159    3    0    1
 -2       615       597       616       981
 -1       160    3    0    1
 -2      1438      1415      3131      3046
 -1       161    3    0    1
 -2      1688       296      1820      1910
 -1       162    3    0    1
 -2       934      1198       939       524
 -1       163    3    0    1
 -2      1452      1445      1474      3125
 -1       164    3    0    1
 -2       501       920       930       931
 -1       165    3    0    1
 -2      1112      1371      2155      2400
 -1       166    3    0    1
 -2      1798      1584      1854      2054
 -1       167    3    0    1
 -2       362      1446      1464      1490
 -1       168    3    0    1
 -2        45       507       513      1187
 -1       169    3    0    1
 -2        21        20       484       911
 -1       170    3    0    1
 -2       396       939      1198      1623
 -1       171    3    0    1
 -2       633       991       994      1240
 -1       172    3    0    1
 -2      1604      1709      1812      2523
 -1       173    3    0    1
 -2      1197      1413      1419      3050
 -1       174    3    0    1
 -2      1994      2364      2394      2395
 -1       175    3    0    1
 -2      2152      2352      2572      2638
 -1       176    3    0    1
 -2       839      1348       840      1820
 -1       177    3    0    1
 -2      1581      1881      1889      1898
 -1       178    3    0    1
 -2       416       418      2392      2584
 -1       179    3    0    1
 -2      1337      1736      1837      2376
 -1       180    3    0    1
 -2      1450      3094      1451      3117
 -1       181    3    0    1
 -2       149       660       153      1252
 -1       182    3    0    1
 -2      2187      2372      2930      2971
 -1       183    3    0    1
 -2      1425      1453      3120      3042
 -1       184    3    0    1
 -2       653      1249       656       150
 -1       185    3    0    1
 -2      1134      1389      1893      1995
 -1       186    3    0    1
 -2      1460      3089      3110      3129
 -1       187    3    0    1
 -2       104        97       581       958
 -1       188    3    0    1
 -2      1715      1663      1900      2143
 -1       189    3    0    1
 -2      1868      1719      1920      2438
 -1       190    3    0    1
 -2      1116       861      1375      2276
 -1       191    3    0    1
 -2       633       991       134       994
 -1       192    3    0    1
 -2      1341      1761      1831      2220
 -1       193    3    0    1
 -2       605      1227       976       608
 -1       194    3    0    1
 -2       963       581      1218      1219
 -1       195    3    0    1
 -2       357       107      2199      2504
 -1       196    3    0    1
 -2      2043      1613      2421      2786
 -1       197    3    0    1
 -2        71      1198      1702      1746
 -1       198    3    0    1
 -2       375        86       955      2156
 -1       199    3    0    1
 -2      1562      2100      2341      2411
 -1       200    3    0    1
 -2       625       988      1238      1245
 -1       201    3    0    1
 -2       736      2176      2520      2578
 -1       202    3    0    1
 -2      1467      3122      3124      3145
 -1       203    3    0    1
 -2      1246      2018      2449      2496
 -1       204    3    0    1
 -2      1771      1664      1919      2012
 -1       205    3    0    1
 -2      2983      1309       778      3018
 -1       206    3    0    1
 -2       907       461       908      1154
 -1       207    3    0    1
 -2       380       259      1322      1899
 -1       208    3    0    1
 -2       529        61       530      1192
 -1       209    3    0    1
 -2        80       955       956      1972
 -1       210    3    0    1
 -2      1619      2013      2129      2265
 -1       211    3    0    1
 -2      1257       655      2306      2440
 -1       212    3    0    1
 -2       991       633       134       628
 -1       213    3    0    1
 -2      2446      2494      2731      2760
 -1       214    3    0    1
 -2      1615      1639      1718      1754
 -1       215    3    0    1
 -2       584       581       958       966
 -1       216    3    0    1
 -2       985      1246       628       987
 -1       217    3    0    1
 -2      1680      1609      1681      1684
 -1       218    3    0    1
 -2       824       830      1096      1326
 -1       219    3    0    1
 -2       457         9       904      1161
 -1       220    3    0    1
 -2      1669      1556      1979      2240
 -1       221    3    0    1
 -2       843      1356      1353      1711
 -1       222    3    0    1
 -2      2671      2913      2921      3086
 -1       223    3    0    1
 -2      2022      1413      3109      2986
 -1       224    3    0    1
 -2      1504      1449      1505      3032
 -1       225    3    0    1
 -2       909       472      2258      2603
 -1       226    3    0    1
 -2       477       917       918      1171
 -1       227    3    0    1
 -2       109      1227       608       110
 -1       228    3    0    1
 -2       826      1094       819      2988
 -1       229    3    0    1
 -2      1084       268       263       797
 -1       230    3    0    1
 -2       105       348       584       963
 -1       231    3    0    1
 -2       896      1958      2340      2556
 -1       232    3    0    1
 -2      1597       534      1746      1809
 -1       233    3    0    1
 -2      1003      1252       645      1006
 -1       234    3    0    1
 -2      1665      1525      2073      2263
 -1       235    3    0    1
 -2       750      1300      1053      1877
 -1       236    3    0    1
 -2       661       150       653       995
 -1       237    3    0    1
 -2       133       331      2097      2209
 -1       238    3    0    1
 -2      1579      1616      1790      1947
 -1       239    3    0    1
 -2       696      1029       695      1026
 -1       240    3    0    1
 -2       112      1230       609       121
 -1       241    3    0    1
 -2       291      1093      2075      2283
 -1       242    3    0    1
 -2      3132      1454      3038      3056
 -1       243    3    0    1
 -2      1804      1575      1811      2023
 -1       244    3    0    1
 -2      1032       693       711      1035
 -1       245    3    0    1
 -2        36      2690      2806      2894
 -1       246    3    0    1
 -2       629       131       632      1241
 -1       247    3    0    1
 -2       953      1221      2670      1411
 -1       248    3    0    1
 -2       471      1097      1163      1542
 -1       249    3    0    1
 -2      3099      1477      3135      3147
 -1       250    3    0    1
 -2       575      1222       583       574
 -1       251    3    0    1
 -2      1107       321      1680      1684
 -1       252    3    0    1
 -2       308      1352       310      1794
 -1       253    3    0    1
 -2       555       563       954      1208
 -1       254    3    0    1
 -2      3099      1476      1477      3147
 -1       255    3    0    1
 -2      1539      1626      1655      1870
 -1       256    3    0    1
 -2       480      1176      1172       479
 -1       257    3    0    1
 -2       680       677      1015      1263
 -1       258    3    0    1
 -2       557        75       560      1202
 -1       259    3    0    1
 -2      1532      1640      1729      2272
 -1       260    3    0    1
 -2       943        67      2776      2885
 -1       261    3    0    1
 -2       480      1176       479       490
 -1       262    3    0    1
 -2       485        27       488       915
 -1       263    3    0    1
 -2       724       200       731      1278
 -1       264    3    0    1
 -2       603      1232       112       609
 -1       265    3    0    1
 -2      1055      1309      2651      2915
 -1       266    3    0    1
 -2      2967      1436      3137      3153
 -1       267    3    0    1
 -2       603       611       978      1229
 -1       268    3    0    1
 -2       116       122       979      1966
 -1       269    3    0    1
 -2        33        27       485       915
 -1       270    3    0    1
 -2       150      1253       152       656
 -1       271    3    0    1
 -2       578       962      1217      1220
 -1       272    3    0    1
 -2       461       464       908      1154
 -1       273    3    0    1
 -2       677      1013      1015      1263
 -1       274    3    0    1
 -2      1825      1873      2353      2481
 -1       275    3    0    1
 -2       431       430       909      2603
 -1       276    3    0    1
 -2      1587      1599      1969      2397
 -1       277    3    0    1
 -2      1666      2037      2690      2695
 -1       278    3    0    1
 -2       455       905       903       901
 -1       279    3    0    1
 -2        70       533       536       942
 -1       280    3    0    1
 -2       719      1287      1042       726
 -1       281    3    0    1
 -2        51        48       513       921
 -1       282    3    0    1
 -2      1424      2430      3094      3132
 -1       283    3    0    1
 -2       706      1031      2237      2514
 -1       284    3    0    1
 -2       629       637       983       992
 -1       285    3    0    1
 -2      1415       372      3110      3131
 -1       286    3    0    1
 -2       510       926      1907      2686
 -1       287    3    0    1
 -2      1049      1301       748      1052
 -1       288    3    0    1
 -2       342       343       673      1014
 -1       289    3    0    1
 -2       173       677       680      1018
 -1       290    3    0    1
 -2      1813      1789      2081      2086
 -1       291    3    0    1
 -2      1470      1473      1493      3069
 -1       292    3    0    1
 -2      1706      1871      2366      2546
 -1       293    3    0    1
 -2      1695      1635      1913      1962
 -1       294    3    0    1
 -2       652      1254       148       657
 -1       295    3    0    1
 -2       408       296      1910      1911
 -1       296    3    0    1
 -2       447      1362      1824      1844
 -1       297    3    0    1
 -2       139       134       633      1246
 -1       298    3    0    1
 -2       717      1040       723       716
 -1       299    3    0    1
 -2      1470      1437      3127      3068
 -1       300    3    0    1
 -2       853      1951      2132      2307
 -1       301    3    0    1
 -2      1100       308      1700      1794
 -1       302    3    0    1
 -2       919       484        32      1177
 -1       303    3    0    1
 -2       426       345       727      1046
 -1       304    3    0    1
 -2      1923       951      2257      2259
 -1       305    3    0    1
 -2       453      1155       907      1154
 -1       306    3    0    1
 -2       674       170       171      1011
 -1       307    3    0    1
 -2       452      1159       459       451
 -1       308    3    0    1
 -2       465       430       468       909
 -1       309    3    0    1
 -2      1436      2967      3058      3153
 -1       310    3    0    1
 -2        58        65       537       933
 -1       311    3    0    1
 -2      1082      1409      3038      3056
 -1       312    3    0    1
 -2      1679      1774      1808      1820
 -1       313    3    0    1
 -2      1713      1690      1884      1959
 -1       314    3    0    1
 -2        93      1215      2994      3044
 -1       315    3    0    1
 -2       633      1239       130       628
 -1       316    3    0    1
 -2      1146      1682      1924      2330
 -1       317    3    0    1
 -2       478       477       918      1171
 -1       318    3    0    1
 -2      1595      1629      1783      2111
 -1       319    3    0    1
 -2      1446      1423      1464      3140
 -1       320    3    0    1
 -2       492        20       489      1170
 -1       321    3    0    1
 -2      1416      1461      3148      3075
 -1       322    3    0    1
 -2      1633      1562      2165      2341
 -1       323    3    0    1
 -2      1602      1570      2389      2551
 -1       324    3    0    1
 -2      1553      1562      2100      2341
 -1       325    3    0    1
 -2      1334      1801      1888      2717
 -1       326    3    0    1
 -2      1439      1453      3025      3042
 -1       327    3    0    1
 -2      1414      2022      3109      3129
 -1       328    3    0    1
 -2      1709      1373      1721      1739
 -1       329    3    0    1
 -2      1003       156      1006      1583
 -1       330    3    0    1
 -2      1198        70      1623      1746
 -1       331    3    0    1
 -2       675      1266      2649      2718
 -1       332    3    0    1
 -2      1125      1127      1763      2318
 -1       333    3    0    1
 -2      2947      2892      3093      3026
 -1       334    3    0    1
 -2       287       290       824      1091
 -1       335    3    0    1
 -2       824      1089      1091      1093
 -1       336    3    0    1
 -2        84       378       954      1745
 -1       337    3    0    1
 -2      1639      1368      1718      2056
 -1       338    3    0    1
 -2      2418      1961      2655      2658
 -1       339    3    0    1
 -2      2016      1633      2066      2341
 -1       340    3    0    1
 -2      1978      1197      2140      2288
 -1       341    3    0    1
 -2       807       789      1083      1084
 -1       342    3    0    1
 -2      1043      1286      3059      3071
 -1       343    3    0    1
 -2      1532      2225      2292      2320
 -1       344    3    0    1
 -2      1963      1402      2014      2330
 -1       345    3    0    1
 -2      1771      2012      2663      2865
 -1       346    3    0    1
 -2       775       773      1068      1303
 -1       347    3    0    1
 -2      1992      1672      2245      2254
 -1       348    3    0    1
 -2       978       615      1800      2538
 -1       349    3    0    1
 -2       697       185      1029      1276
 -1       350    3    0    1
 -2       460       465       900       909
 -1       351    3    0    1
 -2       509        40       512       920
 -1       352    3    0    1
 -2      1041      1758      1865      1871
 -1       353    3    0    1
 -2        20       492        31      1170
 -1       354    3    0    1
 -2      2524       224      2613      2714
 -1       355    3    0    1
 -2      1090      1333      1092       815
 -1       356    3    0    1
 -2      1714      1582      1777      2103
 -1       357    3    0    1
 -2      1405      1874      2215      2370
 -1       358    3    0    1
 -2      1661      1663      1715      2143
 -1       359    3    0    1
 -2       619      1244       989       630
 -1       360    3    0    1
 -2      1461       387      3124      3145
 -1       361    3    0    1
 -2       264       796      1075      1312
 -1       362    3    0    1
 -2       826      1334      1888      2717
 -1       363    3    0    1
 -2      1571      2040      2092      2244
 -1       364    3    0    1
 -2      1719      2069      2170      2438
 -1       365    3    0    1
 -2       319       299      1891      2356
 -1       366    3    0    1
 -2      1597       938      1669      1752
 -1       367    3    0    1
 -2        64        59       533      1189
 -1       368    3    0    1
 -2       456       904       462       455
 -1       369    3    0    1
 -2       285       284      1335      1766
 -1       370    3    0    1
 -2      1773       950      2281      2680
 -1       371    3    0    1
 -2       509       920       930      1182
 -1       372    3    0    1
 -2       122       979      1966      2144
 -1       373    3    0    1
 -2      1136      1138      2117      2625
 -1       374    3    0    1
 -2      1575      1604      1811      2082
 -1       375    3    0    1
 -2      1199      1752      2236      2398
 -1       376    3    0    1
 -2       726       728      1041      1835
 -1       377    3    0    1
 -2      1790      1558      1898      1947
 -1       378    3    0    1
 -2       866      1626      1655      1784
 -1       379    3    0    1
 -2      2246       420      2363      2553
 -1       380    3    0    1
 -2      1610      1646      1769      1869
 -1       381    3    0    1
 -2       547       948       956      1202
 -1       382    3    0    1
 -2       476       913      1165      1166
 -1       383    3    0    1
 -2      1429      1433      1467      3143
 -1       384    3    0    1
 -2       475       476       913      1165
 -1       385    3    0    1
 -2      1612      1544      2202      2802
 -1       386    3    0    1
 -2      1854      1818      2023      2053
 -1       387    3    0    1
 -2       621       622       640       994
 -1       388    3    0    1
 -2       527       526       937      1194
 -1       389    3    0    1
 -2       908      2174      2368      2552
 -1       390    3    0    1
 -2      1920      1719      2170      2438
 -1       391    3    0    1
 -2       771       778      1309      3018
 -1       392    3    0    1
 -2       274         1      3126      3144
 -1       393    3    0    1
 -2      1416       916      1428      3148
 -1       394    3    0    1
 -2       677      1013      1263      1265
 -1       395    3    0    1
 -2      1412      1460      3129      3045
 -1       396    3    0    1
 -2       461         7       464      1154
 -1       397    3    0    1
 -2       226      1457      3119      1483
 -1       398    3    0    1
 -2       413        12       464       908
 -1       399    3    0    1
 -2      1862      2801      2884      2890
 -1       400    3    0    1
 -2       536       542       942      1189
 -1       401    3    0    1
 -2       488        22       494      1171
 -1       402    3    0    1
 -2        41       517        52      1182
 -1       403    3    0    1
 -2       672       671       678      1013
 -1       404    3    0    1
 -2       462      1161       463       455
 -1       405    3    0    1
 -2      1646      1659      1769      1869
 -1       406    3    0    1
 -2       507        45       513       932
 -1       407    3    0    1
 -2      2372      2925      2926      2961
 -1       408    3    0    1
 -2      1276      1546      2221       185
 -1       409    3    0    1
 -2       164       681      1008      1259
 -1       410    3    0    1
 -2       775       251      1071      1072
 -1       411    3    0    1
 -2       357       107       585       968
 -1       412    3    0    1
 -2        83        81       555       946
 -1       413    3    0    1
 -2        50       513       516       921
 -1       414    3    0    1
 -2         5       460       465       900
 -1       415    3    0    1
 -2       528       943       933       523
 -1       416    3    0    1
 -2      2273       459      2716      2717
 -1       417    3    0    1
 -2      2006      2008      2051      2613
 -1       418    3    0    1
 -2      1177       478       919      1169
 -1       419    3    0    1
 -2      1188       919      2255      2845
 -1       420    3    0    1
 -2       917       488       918      1171
 -1       421    3    0    1
 -2      1554      1946      2121      2218
 -1       422    3    0    1
 -2      1465       761      3010      3042
 -1       423    3    0    1
 -2      1378      1121      1655      1794
 -1       424    3    0    1
 -2       525       524       938      1190
 -1       425    3    0    1
 -2       813      1095      1326      1327
 -1       426    3    0    1
 -2       266      1323      1605      2354
 -1       427    3    0    1
 -2      2926      2961      3091      1443
 -1       428    3    0    1
 -2      1832      1097      2409      2461
 -1       429    3    0    1
 -2       590        97       100       959
 -1       430    3    0    1
 -2      1705      1609      2005      2316
 -1       431    3    0    1
 -2       601       338       975      1234
 -1       432    3    0    1
 -2      2222       228      2679      2723
 -1       433    3    0    1
 -2      1016       682      1266      2649
 -1       434    3    0    1
 -2      1098      1651      1878      2316
 -1       435    3    0    1
 -2       467        11        16      1156
 -1       436    3    0    1
 -2       485       913       915      1166
 -1       437    3    0    1
 -2       990      1243       627      3036
 -1       438    3    0    1
 -2       348       105       584       966
 -1       439    3    0    1
 -2       573      1224      1216       572
 -1       440    3    0    1
 -2       984       132       986      3036
 -1       441    3    0    1
 -2       730      1043       723      3059
 -1       442    3    0    1
 -2       940      1803      1978      2022
 -1       443    3    0    1
 -2       699       682      2050      2579
 -1       444    3    0    1
 -2      1663      1547      1557      1740
 -1       445    3    0    1
 -2       525       939       524       934
 -1       446    3    0    1
 -2       581       963      1218      1222
 -1       447    3    0    1
 -2       461        12       464       905
 -1       448    3    0    1
 -2       471       453       907       908
 -1       449    3    0    1
 -2      1428      1929      2964      3148
 -1       450    3    0    1
 -2      1946      1627      2121      2218
 -1       451    3    0    1
 -2       548      1205       549       952
 -1       452    3    0    1
 -2      1581      1536      1823      2002
 -1       453    3    0    1
 -2       583       574       582      1223
 -1       454    3    0    1
 -2      3049       690      3055      3070
 -1       455    3    0    1
 -2       391       393      1559      2390
 -1       456    3    0    1
 -2      2969      2991      3127      3130
 -1       457    3    0    1
 -2      1553      1988      2086      2165
 -1       458    3    0    1
 -2       926      1180       499       928
 -1       459    3    0    1
 -2       377      1443      1485      1487
 -1       460    3    0    1
 -2       933      1201       943       528
 -1       461    3    0    1
 -2       557        80       560       952
 -1       462    3    0    1
 -2      1897      1357      2224      2356
 -1       463    3    0    1
 -2       985      1246       987       624
 -1       464    3    0    1
 -2      1454      1409      3132      1514
 -1       465    3    0    1
 -2      1593      1691      2106      2475
 -1       466    3    0    1
 -2       499       500       511       928
 -1       467    3    0    1
 -2       603       119       609       981
 -1       468    3    0    1
 -2       653       157       656      1001
 -1       469    3    0    1
 -2       958       584       966       967
 -1       470    3    0    1
 -2      1796      1750      2234      2239
 -1       471    3    0    1
 -2       507      1184       923        48
 -1       472    3    0    1
 -2        48      1184        51       513
 -1       473    3    0    1
 -2        65        62       537       933
 -1       474    3    0    1
 -2       457       458       902       904
 -1       475    3    0    1
 -2      1688      1347      1808      1820
 -1       476    3    0    1
 -2       397       309      1368      2193
 -1       477    3    0    1
 -2      1870      1538      1934      2105
 -1       478    3    0    1
 -2      2345       351      2843      1578
 -1       479    3    0    1
 -2       902      1161       904       455
 -1       480    3    0    1
 -2      1828      1653      2084      2468
 -1       481    3    0    1
 -2      1288      1885       208      1925
 -1       482    3    0    1
 -2        80       557       950       952
 -1       483    3    0    1
 -2       871      1384      1128      2027
 -1       484    3    0    1
 -2       487       915      2819      2850
 -1       485    3    0    1
 -2      1577      1661      1727      2518
 -1       486    3    0    1
 -2       396        70       536       942
 -1       487    3    0    1
 -2       136       141       629       993
 -1       488    3    0    1
 -2      1381       869       870      1763
 -1       489    3    0    1
 -2       539        62        72       935
 -1       490    3    0    1
 -2       907       461      1154      1155
 -1       491    3    0    1
 -2      1977      2098      2200      2751
 -1       492    3    0    1
 -2      1309      2983       778      1069
 -1       493    3    0    1
 -2       513       516       921       932
 -1       494    3    0    1
 -2       869      1125      1763      2318
 -1       495    3    0    1
 -2       823      1093      2310      2331
 -1       496    3    0    1
 -2       393      2084      2123      2468
 -1       497    3    0    1
 -2       682       699      2050      2649
 -1       498    3    0    1
 -2      1097      1335      1832      2079
 -1       499    3    0    1
 -2       403      2072      2284      2641
 -1       500    3    0    1
 -2      1659      1670      2056      2139
 -1       501    3    0    1
 -2       626       625      1238      1245
 -1       502    3    0    1
 -2       796       801      1076      1085
 -1       503    3    0    1
 -2        95       104       581       958
 -1       504    3    0    1
 -2        70       396      1198      1623
 -1       505    3    0    1
 -2      1626      1539      1772      1870
 -1       506    3    0    1
 -2      2192      2441      2478      2665
 -1       507    3    0    1
 -2      2474      1339      2564      2633
 -1       508    3    0    1
 -2       906      1429      3063      3064
 -1       509    3    0    1
 -2      1807      1399      1931      2085
 -1       510    3    0    1
 -2       509        40      1179      1180
 -1       511    3    0    1
 -2       109      1231       110       608
 -1       512    3    0    1
 -2       318       315      1893      1975
 -1       513    3    0    1
 -2      1350       324      1351      2707
 -1       514    3    0    1
 -2       825       828      1088      1097
 -1       515    3    0    1
 -2       768      1070      1063       763
 -1       516    3    0    1
 -2      1735      1607      1838      1856
 -1       517    3    0    1
 -2      1646      1610      1769      1909
 -1       518    3    0    1
 -2       621       622       994      1240
 -1       519    3    0    1
 -2       585       961      1213      1216
 -1       520    3    0    1
 -2      2994      1215      3017      3044
 -1       521    3    0    1
 -2         6       461       469      1155
 -1       522    3    0    1
 -2        11       467       460      1156
 -1       523    3    0    1
 -2      2709      1092      2727      2824
 -1       524    3    0    1
 -2       821       281       824      1326
 -1       525    3    0    1
 -2      1394       448      1852      2076
 -1       526    3    0    1
 -2        10       457       458       902
 -1       527    3    0    1
 -2      1332       819      2988      2989
 -1       528    3    0    1
 -2       488       917      1168      1171
 -1       529    3    0    1
 -2       533        70       941       942
 -1       530    3    0    1
 -2       429      1393      1392      1913
 -1       531    3    0    1
 -2       379      1472      3135      3043
 -1       532    3    0    1
 -2       955       567      1972      2178
 -1       533    3    0    1
 -2       290       824      1091      1093
 -1       534    3    0    1
 -2      1425      1451      1453      3042
 -1       535    3    0    1
 -2      3014      3031      3032      3048
 -1       536    3    0    1
 -2       259       380       801      1085
 -1       537    3    0    1
 -2      1709      1721      1997      2082
 -1       538    3    0    1
 -2      2155      1999      2400      2800
 -1       539    3    0    1
 -2       543       520      1201      2314
 -1       540    3    0    1
 -2       628       130       633      1242
 -1       541    3    0    1
 -2      1670      1639      2056      2139
 -1       542    3    0    1
 -2      3123      1434      1497      3153
 -1       543    3    0    1
 -2       392      1669      1979      2063
 -1       544    3    0    1
 -2      1768      1612      1874      2295
 -1       545    3    0    1
 -2      1453      1451      1465      3042
 -1       546    3    0    1
 -2       265       803       796      1316
 -1       547    3    0    1
 -2       484        32        29      1173
 -1       548    3    0    1
 -2       156       158      1006      1583
 -1       549    3    0    1
 -2      1340      1341      1761      1831
 -1       550    3    0    1
 -2      1443      3016      3050      3051
 -1       551    3    0    1
 -2      1584      1798      1915      2439
 -1       552    3    0    1
 -2      1721      1725      1997      2082
 -1       553    3    0    1
 -2       815      1093       823       822
 -1       554    3    0    1
 -2      1634      1603      1778      2070
 -1       555    3    0    1
 -2       380       259       801      1322
 -1       556    3    0    1
 -2      1945      2618      2729      2917
 -1       557    3    0    1
 -2       936       533       942      1189
 -1       558    3    0    1
 -2      1445      3121      1474      3125
 -1       559    3    0    1
 -2       136       629       632       993
 -1       560    3    0    1
 -2       238       775      1064      1302
 -1       561    3    0    1
 -2       535      1597      1678      2236
 -1       562    3    0    1
 -2      1776      1566      1927      1952
 -1       563    3    0    1
 -2       331       133      1245      2209
 -1       564    3    0    1
 -2         7      1155       461         8
 -1       565    3    0    1
 -2      2302      2300      2678      2726
 -1       566    3    0    1
 -2      1604      1742      1827      2205
 -1       567    3    0    1
 -2       512       509       920       931
 -1       568    3    0    1
 -2      1560      1528      1574      1737
 -1       569    3    0    1
 -2      1175      2268      2570      2675
 -1       570    3    0    1
 -2      1629      1595      2388      2491
 -1       571    3    0    1
 -2       509        46       930       931
 -1       572    3    0    1
 -2       702      1028      1747      1980
 -1       573    3    0    1
 -2       557        75      1204      1205
 -1       574    3    0    1
 -2      2366      1922      2546      2813
 -1       575    3    0    1
 -2      1063       247       772       240
 -1       576    3    0    1
 -2       344       134       991      2619
 -1       577    3    0    1
 -2      1764      1449      2977      3111
 -1       578    3    0    1
 -2       977      1444      3068      3069
 -1       579    3    0    1
 -2       518       512       920       931
 -1       580    3    0    1
 -2       557        80       955       956
 -1       581    3    0    1
 -2       777      1070      1060       772
 -1       582    3    0    1
 -2       208      1041      1758      1865
 -1       583    3    0    1
 -2      2570      2268      2585      2695
 -1       584    3    0    1
 -2       187       193       705      1035
 -1       585    3    0    1
 -2      1637      1340      1761      1831
 -1       586    3    0    1
 -2       264      1316       265       796
 -1       587    3    0    1
 -2      2106      1691      2307      2475
 -1       588    3    0    1
 -2      1601      1531      1705      1905
 -1       589    3    0    1
 -2       850       849      1104      2395
 -1       590    3    0    1
 -2       627       987      2064      2449
 -1       591    3    0    1
 -2      1749      1555      1802      2045
 -1       592    3    0    1
 -2      1030       197      2361      2467
 -1       593    3    0    1
 -2      2788      1642      2888      2905
 -1       594    3    0    1
 -2       360      1436      2993      3146
 -1       595    3    0    1
 -2       773      1066      1068      1303
 -1       596    3    0    1
 -2      1580      1570      1992      2517
 -1       597    3    0    1
 -2       758       220       233      1297
 -1       598    3    0    1
 -2       264       796       801      1076
 -1       599    3    0    1
 -2      1432      1468      1472      3052
 -1       600    3    0    1
 -2      1084       808      2336      2710
 -1       601    3    0    1
 -2       579       585       961      1213
 -1       602    3    0    1
 -2       902      1161       455      1157
 -1       603    3    0    1
 -2       574      1222       583       582
 -1       604    3    0    1
 -2      1289      1038       724      1279
 -1       605    3    0    1
 -2       221      1294       222       746
 -1       606    3    0    1
 -2       962       574      1220      1223
 -1       607    3    0    1
 -2      1354       297      1355      1863
 -1       608    3    0    1
 -2      1539      1538      1772      1870
 -1       609    3    0    1
 -2      1028       695      1030      1272
 -1       610    3    0    1
 -2       171       674      1011      1264
 -1       611    3    0    1
 -2       595      1227       596       976
 -1       612    3    0    1
 -2       605      1227       109      1226
 -1       613    3    0    1
 -2       481       914      1167      1175
 -1       614    3    0    1
 -2       584       348       966       967
 -1       615    3    0    1
 -2       283       277       820      1324
 -1       616    3    0    1
 -2      1450      3094      3117      3132
 -1       617    3    0    1
 -2       154       146      2995      3014
 -1       618    3    0    1
 -2      2364      1911      2382      2394
 -1       619    3    0    1
 -2      1056       759      2176      2520
 -1       620    3    0    1
 -2      1557      1695      1962      2113
 -1       621    3    0    1
 -2      3116      1422      3070      3077
 -1       622    3    0    1
 -2       504      1187      1184       503
 -1       623    3    0    1
 -2      1064       775      1072      1302
 -1       624    3    0    1
 -2       843      1660      1704      1711
 -1       625    3    0    1
 -2       532      1197      1978      2288
 -1       626    3    0    1
 -2       501       519       520       931
 -1       627    3    0    1
 -2      1054       750      1299      2304
 -1       628    3    0    1
 -2       453       471       472       908
 -1       629    3    0    1
 -2      1722      2332      2424      2647
 -1       630    3    0    1
 -2       938      1597      1669      1731
 -1       631    3    0    1
 -2      1708      1524      2154      2640
 -1       632    3    0    1
 -2      1556       392      1669      1979
 -1       633    3    0    1
 -2      2690        36      2806      2819
 -1       634    3    0    1
 -2       238       782       775      1302
 -1       635    3    0    1
 -2      3095       355      1447      2992
 -1       636    3    0    1
 -2         7      1158         8       461
 -1       637    3    0    1
 -2       435       248       777      1065
 -1       638    3    0    1
 -2        95       581       589       958
 -1       639    3    0    1
 -2      1338      1651      1736      1878
 -1       640    3    0    1
 -2       250      1066      2592      2761
 -1       641    3    0    1
 -2       701       184       703      1271
 -1       642    3    0    1
 -2       209       725      1036      1285
 -1       643    3    0    1
 -2       798      1321       799       791
 -1       644    3    0    1
 -2      1120      1626      1784      1917
 -1       645    3    0    1
 -2      1244       336      2175      2658
 -1       646    3    0    1
 -2       805       262       797      1315
 -1       647    3    0    1
 -2       603      1232       971       112
 -1       648    3    0    1
 -2      1806      2087      2377      2419
 -1       649    3    0    1
 -2       749       757      1048      1057
 -1       650    3    0    1
 -2       106       357       965      1751
 -1       651    3    0    1
 -2      1013       671      1015      1263
 -1       652    3    0    1
 -2      1977      1642      1981      2127
 -1       653    3    0    1
 -2       431        15       465      1162
 -1       654    3    0    1
 -2      1249       653      1001      1248
 -1       655    3    0    1
 -2       733       209       725      1036
 -1       656    3    0    1
 -2      1821       937      1861      1904
 -1       657    3    0    1
 -2       634       627       990      1779
 -1       658    3    0    1
 -2      1636      2059      2195      2636
 -1       659    3    0    1
 -2       461       901       903       905
 -1       660    3    0    1
 -2       677       167       680      1010
 -1       661    3    0    1
 -2       418      2392      2623      2824
 -1       662    3    0    1
 -2       476      1175      1167       475
 -1       663    3    0    1
 -2      1961      1563      2024      2042
 -1       664    3    0    1
 -2      1833       243      2161      2453
 -1       665    3    0    1
 -2      1068      2339      2347      2761
 -1       666    3    0    1
 -2       296      1348      1688      1820
 -1       667    3    0    1
 -2      1566      1748      1776      1856
 -1       668    3    0    1
 -2       643      1249      1001      1248
 -1       669    3    0    1
 -2      1427      1436      1507      3083
 -1       670    3    0    1
 -2      1789      1813      2396      2458
 -1       671    3    0    1
 -2       702      1028      1030      1747
 -1       672    3    0    1
 -2       920       501       930      1182
 -1       673    3    0    1
 -2      1652      2257      2369      2567
 -1       674    3    0    1
 -2       223       225      1054      1576
 -1       675    3    0    1
 -2      1640      1532      2108      2292
 -1       676    3    0    1
 -2        82       378       555       949
 -1       677    3    0    1
 -2      1026      1276      1029       695
 -1       678    3    0    1
 -2      1403      1146      1775      1924
 -1       679    3    0    1
 -2       676       164       681      1008
 -1       680    3    0    1
 -2       653      1249       150      1248
 -1       681    3    0    1
 -2       385        45      1187      2260
 -1       682    3    0    1
 -2      1115      1863      1889      2001
 -1       683    3    0    1
 -2      1761      1637      1792      2112
 -1       684    3    0    1
 -2       645       646       664      1006
 -1       685    3    0    1
 -2       660       657      1006      1252
 -1       686    3    0    1
 -2       111       121       609      1230
 -1       687    3    0    1
 -2      1356       843       844      1711
 -1       688    3    0    1
 -2      1408       429      1695      1913
 -1       689    3    0    1
 -2       119       973      1235      1662
 -1       690    3    0    1
 -2      1805      1636      2148      2745
 -1       691    3    0    1
 -2      1049      1301      1052       740
 -1       692    3    0    1
 -2       777       433       780      1073
 -1       693    3    0    1
 -2      1211       961      2227      2798
 -1       694    3    0    1
 -2       789      1315       790      1083
 -1       695    3    0    1
 -2       656       662      1005      1253
 -1       696    3    0    1
 -2       888       892      2116      2502
 -1       697    3    0    1
 -2       131       629       632      1237
 -1       698    3    0    1
 -2      1568      1705      1955      2005
 -1       699    3    0    1
 -2       524       534       535       938
 -1       700    3    0    1
 -2      1084      2336      2568      2710
 -1       701    3    0    1
 -2       826       459      1334      2717
 -1       702    3    0    1
 -2       560       557       952      1205
 -1       703    3    0    1
 -2      1824       447      1844      2478
 -1       704    3    0    1
 -2       581       105       584       963
 -1       705    3    0    1
 -2       534      1597      1731      1809
 -1       706    3    0    1
 -2       584       581       963      1219
 -1       707    3    0    1
 -2      1415      1438      3131      1481
 -1       708    3    0    1
 -2       437      1442      1443      1466
 -1       709    3    0    1
 -2       489       484       911      1173
 -1       710    3    0    1
 -2      1227       974       605       976
 -1       711    3    0    1
 -2      2944      2804      3100      3146
 -1       712    3    0    1
 -2        43      1181        44       505
 -1       713    3    0    1
 -2        80       557       560       956
 -1       714    3    0    1
 -2      1927      1776      1951      2376
 -1       715    3    0    1
 -2       192      1023      1021       700
 -1       716    3    0    1
 -2      1188       921       507      1183
 -1       717    3    0    1
 -2      1099      1866      2346      2701
 -1       718    3    0    1
 -2      1085       808       807      2290
 -1       719    3    0    1
 -2      2904      2939      2940      3130
 -1       720    3    0    1
 -2      1277       699       706      2639
 -1       721    3    0    1
 -2      1079       268      2644      2887
 -1       722    3    0    1
 -2       535       939      1658      1678
 -1       723    3    0    1
 -2      2274       426      2754      2879
 -1       724    3    0    1
 -2       584       958       959       967
 -1       725    3    0    1
 -2      2135      2196      2297      2479
 -1       726    3    0    1
 -2      1532      1897      2292      2360
 -1       727    3    0    1
 -2      1892      2028      2088      2131
 -1       728    3    0    1
 -2      1433      3093      3126      3143
 -1       729    3    0    1
 -2      3122      1496      1495      3145
 -1       730    3    0    1
 -2       832       813      1095      1096
 -1       731    3    0    1
 -2       770      1067      1304      1310
 -1       732    3    0    1
 -2       608       614       980      1231
 -1       733    3    0    1
 -2       284       286       825      1097
 -1       734    3    0    1
 -2        71        70      1198      1746
 -1       735    3    0    1
 -2       131       629       983      1241
 -1       736    3    0    1
 -2       595       596       607       976
 -1       737    3    0    1
 -2       980       616      1707      2653
 -1       738    3    0    1
 -2      1005      2186      2591      2699
 -1       739    3    0    1
 -2      1587      1599      2272      2676
 -1       740    3    0    1
 -2      1609      1601      1705      2005
 -1       741    3    0    1
 -2       553      1206       951      1203
 -1       742    3    0    1
 -2       627       634       990      3036
 -1       743    3    0    1
 -2       653       661       995      1004
 -1       744    3    0    1
 -2       663       645       664      1006
 -1       745    3    0    1
 -2       193       187      2560      2590
 -1       746    3    0    1
 -2       965       585       960       968
 -1       747    3    0    1
 -2      2488      1055      3119      3152
 -1       748    3    0    1
 -2        82       555       561      1211
 -1       749    3    0    1
 -2      1244       982       632      1237
 -1       750    3    0    1
 -2       575      1223      1220       574
 -1       751    3    0    1
 -2       130       138       633      1242
 -1       752    3    0    1
 -2       991       633      1239      1240
 -1       753    3    0    1
 -2       178       347      2434      2579
 -1       754    3    0    1
 -2       111       609       612      1230
 -1       755    3    0    1
 -2       465       460       897      1162
 -1       756    3    0    1
 -2      1796      2015      2109      2147
 -1       757    3    0    1
 -2       693       711       712      1034
 -1       758    3    0    1
 -2      1041       726      1835      1925
 -1       759    3    0    1
 -2      1143      1408      1635      1913
 -1       760    3    0    1
 -2       779       772      1063      1070
 -1       761    3    0    1
 -2       157       160       656      1001
 -1       762    3    0    1
 -2      2358      2924      3098      3001
 -1       763    3    0    1
 -2       374       360      2993      3146
 -1       764    3    0    1
 -2       844       843      1704      1711
 -1       765    3    0    1
 -2        82       564       561       957
 -1       766    3    0    1
 -2       621       992       639       640
 -1       767    3    0    1
 -2       601      1228       113       602
 -1       768    3    0    1
 -2      1608      1732      1817      1879
 -1       769    3    0    1
 -2      2109      1757      2147      2637
 -1       770    3    0    1
 -2      1239       633       130      1240
 -1       771    3    0    1
 -2       688       687      1017      1996
 -1       772    3    0    1
 -2      1632      2474      2633      2861
 -1       773    3    0    1
 -2       680       175      1018      1019
 -1       774    3    0    1
 -2       978      1230       597       981
 -1       775    3    0    1
 -2      1648      1643      1990      2099
 -1       776    3    0    1
 -2       462      1161       455       904
 -1       777    3    0    1
 -2      1453      3098      3117      3120
 -1       778    3    0    1
 -2        75       557       560      1205
 -1       779    3    0    1
 -2       662       152       162      1253
 -1       780    3    0    1
 -2       605      1231       109       608
 -1       781    3    0    1
 -2      1599      1587      1677      1728
 -1       782    3    0    1
 -2      1751       357      2199      2504
 -1       783    3    0    1
 -2       500      1186       499       511
 -1       784    3    0    1
 -2        80       375       557       955
 -1       785    3    0    1
 -2        81       564        85       944
 -1       786    3    0    1
 -2      1243      3066      3079      3082
 -1       787    3    0    1
 -2       604       973      1224      1662
 -1       788    3    0    1
 -2      1322       802      1331      1843
 -1       789    3    0    1
 -2      1732       398      1964      2065
 -1       790    3    0    1
 -2       913      2034      2489      2530
 -1       791    3    0    1
 -2       597       598       616       981
 -1       792    3    0    1
 -2        63        61       529      1192
 -1       793    3    0    1
 -2       605       116       979       980
 -1       794    3    0    1
 -2      3087      1459      3110      3129
 -1       795    3    0    1
 -2        99       578       577      1217
 -1       796    3    0    1
 -2       560       566       956      1202
 -1       797    3    0    1
 -2       143       638       632      1241
 -1       798    3    0    1
 -2      1224       586      1662      2472
 -1       799    3    0    1
 -2      1590      1548      1702      1746
 -1       800    3    0    1
 -2       531        66       537       943
 -1       801    3    0    1
 -2      2039      1177      2724      2825
 -1       802    3    0    1
 -2      1568      1955      2004      2005
 -1       803    3    0    1
 -2       950      1205       557      1204
 -1       804    3    0    1
 -2      1436      2967      3133      3058
 -1       805    3    0    1
 -2      1646      1610      1848      1869
 -1       806    3    0    1
 -2      1567      1589      1687      1847
 -1       807    3    0    1
 -2        81      1208       555       944
 -1       808    3    0    1
 -2       553      1206      1203        76
 -1       809    3    0    1
 -2       555        82       561       957
 -1       810    3    0    1
 -2      1601      1673      1705      1955
 -1       811    3    0    1
 -2       638       143       144      1241
 -1       812    3    0    1
 -2      1671      2040      2129      2136
 -1       813    3    0    1
 -2      1008      1268       681      1012
 -1       814    3    0    1
 -2      1095       287      1912      2348
 -1       815    3    0    1
 -2      1620      1608      1879      2180
 -1       816    3    0    1
 -2       164       172       676      1009
 -1       817    3    0    1
 -2        80       375       955      1972
 -1       818    3    0    1
 -2       122       116       605       974
 -1       819    3    0    1
 -2      1922      1706      2366      2546
 -1       820    3    0    1
 -2      1187       925      1939      2260
 -1       821    3    0    1
 -2       223       225       751      1054
 -1       822    3    0    1
 -2      3057      3036      3066      3079
 -1       823    3    0    1
 -2      1791      1696      2256      2426
 -1       824    3    0    1
 -2      1657      2135      2196      2297
 -1       825    3    0    1
 -2      1674      1988      2031      2785
 -1       826    3    0    1
 -2      1830      2021      2610      2712
 -1       827    3    0    1
 -2       555       944       954       957
 -1       828    3    0    1
 -2      2989       810      3020      3053
 -1       829    3    0    1
 -2      1039       715      1044      1047
 -1       830    3    0    1
 -2      1823      1581      2002      2276
 -1       831    3    0    1
 -2      1038      1289      1040       716
 -1       832    3    0    1
 -2       720      1047       736       715
 -1       833    3    0    1
 -2      1630       161      2301      2482
 -1       834    3    0    1
 -2       702      1276       704       695
 -1       835    3    0    1
 -2       507       513       921       932
 -1       836    3    0    1
 -2      1543      1887      2397      2574
 -1       837    3    0    1
 -2      2020       956      2349      2412
 -1       838    3    0    1
 -2      1560      1528      1737      2277
 -1       839    3    0    1
 -2       507      1184        48       513
 -1       840    3    0    1
 -2       515        45       507      1188
 -1       841    3    0    1
 -2       148      1254       149       657
 -1       842    3    0    1
 -2       639       621       640       994
 -1       843    3    0    1
 -2       533       536       942      1189
 -1       844    3    0    1
 -2      1091      1093      2167      2331
 -1       845    3    0    1
 -2       660       149       657      1252
 -1       846    3    0    1
 -2      1254       652       997      1258
 -1       847    3    0    1
 -2       765      1067      1304      1305
 -1       848    3    0    1
 -2       184       701      1025      1271
 -1       849    3    0    1
 -2       695      1274      1028       696
 -1       850    3    0    1
 -2      1816      1598      1994      2364
 -1       851    3    0    1
 -2      2912      1233      1437      2973
 -1       852    3    0    1
 -2       116       979       980      1966
 -1       853    3    0    1
 -2       700       192       194      1024
 -1       854    3    0    1
 -2       741      1052       740      1049
 -1       855    3    0    1
 -2      1637      1524      1761      1792
 -1       856    3    0    1
 -2       270      2486      2568      2768
 -1       857    3    0    1
 -2       920       509       930       931
 -1       858    3    0    1
 -2      2981      3139      3043      1514
 -1       859    3    0    1
 -2       387      1495      1496      3145
 -1       860    3    0    1
 -2       906      1160      1433      3143
 -1       861    3    0    1
 -2       525      1199      1192       938
 -1       862    3    0    1
 -2       555        81       561      1207
 -1       863    3    0    1
 -2      1148      1400      1727      1852
 -1       864    3    0    1
 -2      3100      2804      3058      3153
 -1       865    3    0    1
 -2       133      2191      2196      2198
 -1       866    3    0    1
 -2       772      1060       247      1063
 -1       867    3    0    1
 -2      3104      2946      1467      2996
 -1       868    3    0    1
 -2       454      1163      1156       453
 -1       869    3    0    1
 -2      1698       311      1738      1823
 -1       870    3    0    1
 -2       944       555       954      1208
 -1       871    3    0    1
 -2       881      1394      1391      1781
 -1       872    3    0    1
 -2      1332      1094       819      1888
 -1       873    3    0    1
 -2      1654      1866      2038      2386
 -1       874    3    0    1
 -2      1033       711      2337      2809
 -1       875    3    0    1
 -2      1842      1806      2027      2433
 -1       876    3    0    1
 -2       975      1977      2181      2284
 -1       877    3    0    1
 -2      1600      1613      1795      2484
 -1       878    3    0    1
 -2      1651      1735      1736      1878
 -1       879    3    0    1
 -2      1913      1392      1950      2010
 -1       880    3    0    1
 -2      2278      1722      2424      2647
 -1       881    3    0    1
 -2       825       820      1324      1334
 -1       882    3    0    1
 -2      1972       956      2413      2784
 -1       883    3    0    1
 -2       212       211      2597      2713
 -1       884    3    0    1
 -2      2096      1541      2115      2630
 -1       885    3    0    1
 -2       682      2050      2579      2589
 -1       886    3    0    1
 -2       453       909       471      1163
 -1       887    3    0    1
 -2       683       676      1009      1017
 -1       888    3    0    1
 -2      1579      1790      1898      1947
 -1       889    3    0    1
 -2       521        56      3016      3040
 -1       890    3    0    1
 -2       812      1325      2988      2989
 -1       891    3    0    1
 -2      2092      1744      2126      2542
 -1       892    3    0    1
 -2      1880       974      2181      2206
 -1       893    3    0    1
 -2        24        25       481      1164
 -1       894    3    0    1
 -2       469       461       907      1155
 -1       895    3    0    1
 -2       561       564       944       957
 -1       896    3    0    1
 -2       770       243      1067      1310
 -1       897    3    0    1
 -2      1135      1969      1976      2384
 -1       898    3    0    1
 -2       385        45       513      1187
 -1       899    3    0    1
 -2       506       505       927      1178
 -1       900    3    0    1
 -2       129       131       629       983
 -1       901    3    0    1
 -2      1876      2142      2431      2454
 -1       902    3    0    1
 -2       564        81       561       944
 -1       903    3    0    1
 -2      1797      1725      1916      1973
 -1       904    3    0    1
 -2       620       989       619       982
 -1       905    3    0    1
 -2      1298      1434      1435      3123
 -1       906    3    0    1
 -2      2230      2719      2932      2950
 -1       907    3    0    1
 -2       615       616      1966      2538
 -1       908    3    0    1
 -2      1088       820      1335      1328
 -1       909    3    0    1
 -2       487      2037      2268      2675
 -1       910    3    0    1
 -2      1197       940       532      1978
 -1       911    3    0    1
 -2      2277      2161      2453      2648
 -1       912    3    0    1
 -2       399      1730      1879      1883
 -1       913    3    0    1
 -2        20        21       484      1169
 -1       914    3    0    1
 -2       461       464       901       905
 -1       915    3    0    1
 -2        79        75       557       948
 -1       916    3    0    1
 -2      1588      1559      1667      1955
 -1       917    3    0    1
 -2        96       585      1213      1216
 -1       918    3    0    1
 -2        19       485       488      1166
 -1       919    3    0    1
 -2       605       613       969       979
 -1       920    3    0    1
 -2        86      1875      2156      2281
 -1       921    3    0    1
 -2      1968      1523      1983      2334
 -1       922    3    0    1
 -2       116       122       605       979
 -1       923    3    0    1
 -2      1410      3099      1477      3135
 -1       924    3    0    1
 -2      3014      2995      3031      3048
 -1       925    3    0    1
 -2       523       943       544       543
 -1       926    3    0    1
 -2       517       509       930      1182
 -1       927    3    0    1
 -2       797       800      1077      1081
 -1       928    3    0    1
 -2       488       494       918      1171
 -1       929    3    0    1
 -2       421       251      1068      2761
 -1       930    3    0    1
 -2      1368      1615      1639      1718
 -1       931    3    0    1
 -2       372       371      2982      3110
 -1       932    3    0    1
 -2       624       987       985       623
 -1       933    3    0    1
 -2      2577      3113      3138      3148
 -1       934    3    0    1
 -2       109       613       123       969
 -1       935    3    0    1
 -2       348       590       351       967
 -1       936    3    0    1
 -2       557       565       948       955
 -1       937    3    0    1
 -2       955       567       547       956
 -1       938    3    0    1
 -2       960       579        96       585
 -1       939    3    0    1
 -2       612       609       981      1230
 -1       940    3    0    1
 -2      1679      1621      1774      2405
 -1       941    3    0    1
 -2       773      1066      1303      1306
 -1       942    3    0    1
 -2      1205       950       557       952
 -1       943    3    0    1
 -2      3105      2953      3115      3028
 -1       944    3    0    1
 -2         2      1467      3124      3145
 -1       945    3    0    1
 -2       702       704      1882      1980
 -1       946    3    0    1
 -2      2938      3089      1460      3129
 -1       947    3    0    1
 -2       404      1363      1816      2080
 -1       948    3    0    1
 -2      2732       916      2963      3148
 -1       949    3    0    1
 -2      1450      1424      1454      3038
 -1       950    3    0    1
 -2      1599      1587      1969      2676
 -1       951    3    0    1
 -2       484        20       489       911
 -1       952    3    0    1
 -2       539        66       531      1201
 -1       953    3    0    1
 -2       482       481       914      1164
 -1       954    3    0    1
 -2       950      1205       548       952
 -1       955    3    0    1
 -2       581       589       958       966
 -1       956    3    0    1
 -2      1991      2298      2387      2389
 -1       957    3    0    1
 -2       585       965       960       579
 -1       958    3    0    1
 -2        83       563       555      1208
 -1       959    3    0    1
 -2        97       590       584       959
 -1       960    3    0    1
 -2      3096      2577      3138      3148
 -1       961    3    0    1
 -2       357       106       585       961
 -1       962    3    0    1
 -2       489        20      1169      1170
 -1       963    3    0    1
 -2       116       605       608       980
 -1       964    3    0    1
 -2       597       615       616       980
 -1       965    3    0    1
 -2      1891      2224      1622      1762
 -1       966    3    0    1
 -2        76      1206        77       554
 -1       967    3    0    1
 -2      1862      2699      2805      2884
 -1       968    3    0    1
 -2       950      1205      1204       548
 -1       969    3    0    1
 -2      2487       759      2520      2657
 -1       970    3    0    1
 -2      1003       994      2674      2833
 -1       971    3    0    1
 -2       862      1881      1889      2002
 -1       972    3    0    1
 -2      3098      2358      1454      2068
 -1       973    3    0    1
 -2       495       917      2368      2700
 -1       974    3    0    1
 -2       579       106       585       965
 -1       975    3    0    1
 -2      2072      1977      2127      2284
 -1       976    3    0    1
 -2        66       937      1821      1904
 -1       977    3    0    1
 -2      2048      1439      3120      3134
 -1       978    3    0    1
 -2       983       629       993      1241
 -1       979    3    0    1
 -2       677       173       680      1015
 -1       980    3    0    1
 -2      1890      2088      2179      2188
 -1       981    3    0    1
 -2       283       820      1087      1324
 -1       982    3    0    1
 -2       802      2049      2432      2828
 -1       983    3    0    1
 -2       728      1288      1835      2740
 -1       984    3    0    1
 -2       502       931       920       501
 -1       985    3    0    1
 -2      1169       489       919       484
 -1       986    3    0    1
 -2       130       628       985      1242
 -1       987    3    0    1
 -2      1347       839      1808      1820
 -1       988    3    0    1
 -2       913       476       915      1166
 -1       989    3    0    1
 -2       625       128       626      1238
 -1       990    3    0    1
 -2       592       967      2580      2843
 -1       991    3    0    1
 -2       579       960        96      1212
 -1       992    3    0    1
 -2      1676      1804      1849      2437
 -1       993    3    0    1
 -2      2293       930      2725      2894
 -1       994    3    0    1
 -2      2015      1796      2234      2371
 -1       995    3    0    1
 -2      1928      1846      1936      1937
 -1       996    3    0    1
 -2      1765      2940      3000      3130
 -1       997    3    0    1
 -2      2217       261      2303      2628
 -1       998    3    0    1
 -2        40      1182       509        41
 -1       999    3    0    1
 -2       525       524       535       938
 -1      1000    3    0    1
 -2       571       591       592       967
 -1      1001    3    0    1
 -2      1594      1554      1946      2121
 -1      1002    3    0    1
 -2       502       932       520       501
 -1      1003    3    0    1
 -2        81       555       946      1207
 -1      1004    3    0    1
 -2       105       581       584       966
 -1      1005    3    0    1
 -2       547       567       568       956
 -1      1006    3    0    1
 -2      1333      1092      2431      2824
 -1      1007    3    0    1
 -2       692      1027       691      1023
 -1      1008    3    0    1
 -2       789      1085       807      1323
 -1      1009    3    0    1
 -2       357       585       965       968
 -1      1010    3    0    1
 -2       378        82       555       954
 -1      1011    3    0    1
 -2       133       626       331      1245
 -1      1012    3    0    1
 -2       512       509       928      1180
 -1      1013    3    0    1
 -2      1571      1762      2878      2886
 -1      1014    3    0    1
 -2        62       531       933       935
 -1      1015    3    0    1
 -2       418      2623      2683      2824
 -1      1016    3    0    1
 -2      2577      2963      3113      3148
 -1      1017    3    0    1
 -2      2035      2401      2611      2772
 -1      1018    3    0    1
 -2      1543      1887      1940      2061
 -1      1019    3    0    1
 -2      1751       968      2093      2199
 -1      1020    3    0    1
 -2      1544      1701      1757      2637
 -1      1021    3    0    1
 -2       548       549       559       952
 -1      1022    3    0    1
 -2      1866      2038      2386      2701
 -1      1023    3    0    1
 -2       821       824      1096      1326
 -1      1024    3    0    1
 -2       921      1188       507       932
 -1      1025    3    0    1
 -2       669       687       688      1019
 -1      1026    3    0    1
 -2      1699      2389      2551      2635
 -1      1027    3    0    1
 -2      1627      1660      1704      1791
 -1      1028    3    0    1
 -2       266       433      2354      2385
 -1      1029    3    0    1
 -2        71        70      1746      1986
 -1      1030    3    0    1
 -2      1017       681      1009      1020
 -1      1031    3    0    1
 -2       327       306      1739      1963
 -1      1032    3    0    1
 -2      2117      2006      2311      2357
 -1      1033    3    0    1
 -2        48       507       513       921
 -1      1034    3    0    1
 -2      1750      1545      1915      1916
 -1      1035    3    0    1
 -2       524      1198       939       534
 -1      1036    3    0    1
 -2      1059       230      2047      2723
 -1      1037    3    0    1
 -2       312      1123      1380      1672
 -1      1038    3    0    1
 -2       383      2324      2647      2688
 -1      1039    3    0    1
 -2      1410      1743      3099      3135
 -1      1040    3    0    1
 -2       220       749       751      1050
 -1      1041    3    0    1
 -2       938       525      1190      1192
 -1      1042    3    0    1
 -2      1849      1676      1902      2055
 -1      1043    3    0    1
 -2       797       800      1084      1314
 -1      1044    3    0    1
 -2       566        75        90      1202
 -1      1045    3    0    1
 -2      3089      1799      3110      3129
 -1      1046    3    0    1
 -2       120       119       609      1235
 -1      1047    3    0    1
 -2      3114      1436      1507      3153
 -1      1048    3    0    1
 -2      1356       844      1627      1711
 -1      1049    3    0    1
 -2       347       187      2434      2579
 -1      1050    3    0    1
 -2       749       220       751      1297
 -1      1051    3    0    1
 -2        59        57       536      1189
 -1      1052    3    0    1
 -2       585       107       588       968
 -1      1053    3    0    1
 -2      2847      1472      3135      3154
 -1      1054    3    0    1
 -2      1298      2943      3123      3152
 -1      1055    3    0    1
 -2       847      1361       848      1713
 -1      1056    3    0    1
 -2       952       950      1773      2680
 -1      1057    3    0    1
 -2      1403       438      1617      1775
 -1      1058    3    0    1
 -2       119       120       609       981
 -1      1059    3    0    1
 -2      1623       939      1678      1686
 -1      1060    3    0    1
 -2      2924      2932      3088      3134
 -1      1061    3    0    1
 -2      1593      1951      2132      2250
 -1      1062    3    0    1
 -2      1615      1784      1917      2193
 -1      1063    3    0    1
 -2       888      1404       892      2502
 -1      1064    3    0    1
 -2      2049      1320      2430      2954
 -1      1065    3    0    1
 -2       813      1097       832       831
 -1      1066    3    0    1
 -2       466       459       451      3021
 -1      1067    3    0    1
 -2      2955      2916      3099      3139
 -1      1068    3    0    1
 -2       814      1097      1088       813
 -1      1069    3    0    1
 -2       982      1244       989       619
 -1      1070    3    0    1
 -2       556       940      1209      1803
 -1      1071    3    0    1
 -2       256       797       800      1077
 -1      1072    3    0    1
 -2       764      1310       774       776
 -1      1073    3    0    1
 -2       119       603       609      1235
 -1      1074    3    0    1
 -2       771      2533      2632      2659
 -1      1075    3    0    1
 -2       765      1310       774       764
 -1      1076    3    0    1
 -2      1093       291      2075      2331
 -1      1077    3    0    1
 -2       712      2391      2536      2612
 -1      1078    3    0    1
 -2       596      1234       595       607
 -1      1079    3    0    1
 -2      2016      1768      2066      2074
 -1      1080    3    0    1
 -2       819       812       811      2988
 -1      1081    3    0    1
 -2       885      1150      1399      2085
 -1      1082    3    0    1
 -2      2043      1621      2286      2484
 -1      1083    3    0    1
 -2       863       864      2757      2844
 -1      1084    3    0    1
 -2       239       773      1303      1306
 -1      1085    3    0    1
 -2       627      2064      2448      2449
 -1      1086    3    0    1
 -2       821       287       824      1091
 -1      1087    3    0    1
 -2      1576       425      2527      2669
 -1      1088    3    0    1
 -2      1871       726      1922      2366
 -1      1089    3    0    1
 -2      2248      2011      2510      2569
 -1      1090    3    0    1
 -2       152       662       656      1253
 -1      1091    3    0    1
 -2       284       820       825      1334
 -1      1092    3    0    1
 -2       485       488       917      1168
 -1      1093    3    0    1
 -2       476       487       913       915
 -1      1094    3    0    1
 -2       720      1036      1046      1285
 -1      1095    3    0    1
 -2      1124       867      1122      2775
 -1      1096    3    0    1
 -2      1765      2917      2953      3105
 -1      1097    3    0    1
 -2       765       764      1066      1306
 -1      1098    3    0    1
 -2       805       797      1083      1315
 -1      1099    3    0    1
 -2       284      1331      1334      2032
 -1      1100    3    0    1
 -2       227       756       234      1296
 -1      1101    3    0    1
 -2      1796      1397      1797      2239
 -1      1102    3    0    1
 -2       288       281       821      1326
 -1      1103    3    0    1
 -2        25       481      1164      1167
 -1      1104    3    0    1
 -2      1524      1761      1792      1831
 -1      1105    3    0    1
 -2       867       868      2101      2393
 -1      1106    3    0    1
 -2         7      1155      1154       461
 -1      1107    3    0    1
 -2       926      1180      1179       499
 -1      1108    3    0    1
 -2       564        82       370       957
 -1      1109    3    0    1
 -2      1364      1910      1911      2394
 -1      1110    3    0    1
 -2       138       130       633      1240
 -1      1111    3    0    1
 -2       652      1252       148      1251
 -1      1112    3    0    1
 -2      1627      1594      1946      2121
 -1      1113    3    0    1
 -2      1212        96       579        94
 -1      1114    3    0    1
 -2      1598      2382      2421      2429
 -1      1115    3    0    1
 -2       287       420      1095      1912
 -1      1116    3    0    1
 -2       966       591      2118      2412
 -1      1117    3    0    1
 -2      1945      2152      2638      2729
 -1      1118    3    0    1
 -2      1677      1599      1728      2628
 -1      1119    3    0    1
 -2         7      1158       461       901
 -1      1120    3    0    1
 -2      1704      1696      1863      2001
 -1      1121    3    0    1
 -2      1235      1662      2064      2447
 -1      1122    3    0    1
 -2       256      1318       797      1077
 -1      1123    3    0    1
 -2       460         5       465       897
 -1      1124    3    0    1
 -2      1734      1672      1953      2101
 -1      1125    3    0    1
 -2       989      1244      2175      2829
 -1      1126    3    0    1
 -2       965       576       960      1212
 -1      1127    3    0    1
 -2       581       104      1218      1219
 -1      1128    3    0    1
 -2       600      1235      1232       599
 -1      1129    3    0    1
 -2      2253      1310      2453      2648
 -1      1130    3    0    1
 -2      1524      1634      1792      2112
 -1      1131    3    0    1
 -2       636       633       994      1240
 -1      1132    3    0    1
 -2      1758      1611      1865      2594
 -1      1133    3    0    1
 -2      1320      2049      2430      3132
 -1      1134    3    0    1
 -2      2756      2771      2837      2873
 -1      1135    3    0    1
 -2       954        82       957      1745
 -1      1136    3    0    1
 -2       667      1268       675       682
 -1      1137    3    0    1
 -2       793       261       794      1080
 -1      1138    3    0    1
 -2      2184      2011      2248      2569
 -1      1139    3    0    1
 -2       273       285      1085      1766
 -1      1140    3    0    1
 -2      2114      1914      2511      2616
 -1      1141    3    0    1
 -2       456       904       455       902
 -1      1142    3    0    1
 -2        45       385       513       932
 -1      1143    3    0    1
 -2        62        65       537      1196
 -1      1144    3    0    1
 -2       762      3010      3018      3025
 -1      1145    3    0    1
 -2      1276       702       704      1882
 -1      1146    3    0    1
 -2       295      1099      1345      2701
 -1      1147    3    0    1
 -2       770       236      1304      1305
 -1      1148    3    0    1
 -2      1757      1701      2147      2637
 -1      1149    3    0    1
 -2      1853       532      1861      1978
 -1      1150    3    0    1
 -2       613       109       605       969
 -1      1151    3    0    1
 -2      1369      1368      1615      1639
 -1      1152    3    0    1
 -2      2033      1723      2087      2160
 -1      1153    3    0    1
 -2      1400      1148      1727      2116
 -1      1154    3    0    1
 -2      1700      1378      1655      1794
 -1      1155    3    0    1
 -2      2498      2554      2682      2822
 -1      1156    3    0    1
 -2       745      1294       746      1300
 -1      1157    3    0    1
 -2       629       632       993      1241
 -1      1158    3    0    1
 -2      3094      1425      1451      3120
 -1      1159    3    0    1
 -2        97       104       581      1219
 -1      1160    3    0    1
 -2      1563      2024      2042      2742
 -1      1161    3    0    1
 -2      1013       671      1263      1265
 -1      1162    3    0    1
 -2       670      1017       669       687
 -1      1163    3    0    1
 -2      1398       883       884      2371
 -1      1164    3    0    1
 -2       281       821       824      1330
 -1      1165    3    0    1
 -2       729      1039      1044      1047
 -1      1166    3    0    1
 -2      1430      2867      3102      3118
 -1      1167    3    0    1
 -2       974       606      2181      2206
 -1      1168    3    0    1
 -2      1926       520      2314      2422
 -1      1169    3    0    1
 -2      1321       798       799      2229
 -1      1170    3    0    1
 -2      1299       223      1576      2669
 -1      1171    3    0    1
 -2      1401       301       446      1770
 -1      1172    3    0    1
 -2       777       435      1065      1311
 -1      1173    3    0    1
 -2       770       235       236      1305
 -1      1174    3    0    1
 -2       119       603       978       981
 -1      1175    3    0    1
 -2       135       128       625      1238
 -1      1176    3    0    1
 -2       532       526       538      3040
 -1      1177    3    0    1
 -2       102       578      1217      1220
 -1      1178    3    0    1
 -2      1114      1374      1973      2525
 -1      1179    3    0    1
 -2      1374       329      1114      1973
 -1      1180    3    0    1
 -2       585       588       960       968
 -1      1181    3    0    1
 -2      1404      1144      2478      2502
 -1      1182    3    0    1
 -2       419      1767      2217      2303
 -1      1183    3    0    1
 -2       819       826      1331      1888
 -1      1184    3    0    1
 -2       337       116      1707      2110
 -1      1185    3    0    1
 -2       712      1034      2241      2612
 -1      1186    3    0    1
 -2       671      1267       678       679
 -1      1187    3    0    1
 -2      1523      1933      1983      2334
 -1      1188    3    0    1
 -2       748       228       753      1059
 -1      1189    3    0    1
 -2       797      1077      1079      1081
 -1      1190    3    0    1
 -2      1551      1600      1795      2484
 -1      1191    3    0    1
 -2        64       533       936      1189
 -1      1192    3    0    1
 -2       531       943       933      1201
 -1      1193    3    0    1
 -2       484        32      1173       489
 -1      1194    3    0    1
 -2        59        64       533      1191
 -1      1195    3    0    1
 -2      1604      1575      1811      1827
 -1      1196    3    0    1
 -2      1448      3106      3061      3074
 -1      1197    3    0    1
 -2      1525      1733      2073      2263
 -1      1198    3    0    1
 -2      1071       783      1072      2067
 -1      1199    3    0    1
 -2       284       285      1331      1766
 -1      1200    3    0    1
 -2      2125       838      2261      2678
 -1      1201    3    0    1
 -2       594       108      3030      3067
 -1      1202    3    0    1
 -2       653      1253       150       656
 -1      1203    3    0    1
 -2      1716      1598      2364      2382
 -1      1204    3    0    1
 -2      1461       387      1495      1512
 -1      1205    3    0    1
 -2      1728      1599      2397      2626
 -1      1206    3    0    1
 -2      2231      2489      2530      2835
 -1      1207    3    0    1
 -2      1642      2200      2788      2903
 -1      1208    3    0    1
 -2      2925      2926      2961      3091
 -1      1209    3    0    1
 -2      1732       398      1817      1879
 -1      1210    3    0    1
 -2       424      1288      2595      2598
 -1      1211    3    0    1
 -2      2023      1584      2053      2054
 -1      1212    3    0    1
 -2       905       413      2207      2247
 -1      1213    3    0    1
 -2       764       776      1066      1068
 -1      1214    3    0    1
 -2       211      2322      2597      2713
 -1      1215    3    0    1
 -2       430       431      2566      2706
 -1      1216    3    0    1
 -2      1754      1606      2141      2180
 -1      1217    3    0    1
 -2       906      1929      2273      2866
 -1      1218    3    0    1
 -2      1113       857      1111      1869
 -1      1219    3    0    1
 -2       792      1080       791      1078
 -1      1220    3    0    1
 -2      2015      2109      2147      2637
 -1      1221    3    0    1
 -2       193       187       705      1277
 -1      1222    3    0    1
 -2      3114      2967      3137      3153
 -1      1223    3    0    1
 -2       680       686      1019      1262
 -1      1224    3    0    1
 -2       674       673      1011      1014
 -1      1225    3    0    1
 -2       669       670      1019      1262
 -1      1226    3    0    1
 -2        26        19       488      1166
 -1      1227    3    0    1
 -2       576       967       959       571
 -1      1228    3    0    1
 -2       402       312      1602      1672
 -1      1229    3    0    1
 -2      1842      1806      2377      2419
 -1      1230    3    0    1
 -2      2234      2015      2370      2687
 -1      1231    3    0    1
 -2       622       992       983       621
 -1      1232    3    0    1
 -2       698       697      1273      1276
 -1      1233    3    0    1
 -2      1691      1593      1951      2132
 -1      1234    3    0    1
 -2      2623      1596      2683      2727
 -1      1235    3    0    1
 -2       160       157       656      1005
 -1      1236    3    0    1
 -2       643      1249       644      1001
 -1      1237    3    0    1
 -2        82       957      1745      2605
 -1      1238    3    0    1
 -2       729       361       724      1289
 -1      1239    3    0    1
 -2      1872      1556      2069      2242
 -1      1240    3    0    1
 -2      1575      1811      2053      2082
 -1      1241    3    0    1
 -2      1470      1765      3000      3130
 -1      1242    3    0    1
 -2       393       391      1559      1667
 -1      1243    3    0    1
 -2       332      2186      2699      2868
 -1      1244    3    0    1
 -2      1556      1901      1979      2515
 -1      1245    3    0    1
 -2      1414      1460      3129      1486
 -1      1246    3    0    1
 -2      2452      1666      2821      2854
 -1      1247    3    0    1
 -2      2406      1423      3092      3118
 -1      1248    3    0    1
 -2       116       605       974       976
 -1      1249    3    0    1
 -2         5       899       460        11
 -1      1250    3    0    1
 -2      2837      2635      2869      2876
 -1      1251    3    0    1
 -2      2051      1755      2476      2528
 -1      1252    3    0    1
 -2       394      1719      2083      2438
 -1      1253    3    0    1
 -2      2804      1436      3100      3146
 -1      1254    3    0    1
 -2       576       967       571       592
 -1      1255    3    0    1
 -2      1432      1332      3052      3053
 -1      1256    3    0    1
 -2      1356      1594      1711      2121
 -1      1257    3    0    1
 -2       106       579       585       961
 -1      1258    3    0    1
 -2      2299      1642      2321      2905
 -1      1259    3    0    1
 -2      1622      1897      2224      2356
 -1      1260    3    0    1
 -2        12       907      2174      2685
 -1      1261    3    0    1
 -2      1547      1663      1715      1740
 -1      1262    3    0    1
 -2      1890      1579      2088      2188
 -1      1263    3    0    1
 -2      1047      2291      2322      2578
 -1      1264    3    0    1
 -2      1034       197      2241      2338
 -1      1265    3    0    1
 -2      1321      1078       793      1317
 -1      1266    3    0    1
 -2       553       398       951      1210
 -1      1267    3    0    1
 -2       605       116       608       976
 -1      1268    3    0    1
 -2       295      1152       445      2701
 -1      1269    3    0    1
 -2       257       793       794      1078
 -1      1270    3    0    1
 -2       695      1274      1272      1028
 -1      1271    3    0    1
 -2      3095      3090      1446      2992
 -1      1272    3    0    1
 -2       694      1033       693      1025
 -1      1273    3    0    1
 -2      1045       369      2338      2624
 -1      1274    3    0    1
 -2      1561      1591      2369      2767
 -1      1275    3    0    1
 -2       729       724      1279      1289
 -1      1276    3    0    1
 -2       704      1747      1882      1980
 -1      1277    3    0    1
 -2      1011      1267       674      1014
 -1      1278    3    0    1
 -2      1534      1593      1999      2475
 -1      1279    3    0    1
 -2      1536      1579      1710      1890
 -1      1280    3    0    1
 -2      2028      1563      2042      2742
 -1      1281    3    0    1
 -2      1413      3109      3128      1485
 -1      1282    3    0    1
 -2       978      1230       603      1229
 -1      1283    3    0    1
 -2      1460      1478      3022      3045
 -1      1284    3    0    1
 -2       488       485       915      1166
 -1      1285    3    0    1
 -2         6         8       461      1155
 -1      1286    3    0    1
 -2       575       963      1218      1219
 -1      1287    3    0    1
 -2       718      1288      1283      1041
 -1      1288    3    0    1
 -2      2222       359      2597      2713
 -1      1289    3    0    1
 -2       306      1373      1709      1739
 -1      1290    3    0    1
 -2       134       139       633       994
 -1      1291    3    0    1
 -2       945        73      3022      3035
 -1      1292    3    0    1
 -2       619       630       631       988
 -1      1293    3    0    1
 -2      1545      1750      1915      2147
 -1      1294    3    0    1
 -2      1145      1405      2215      2370
 -1      1295    3    0    1
 -2      1421      1449      1504      3032
 -1      1296    3    0    1
 -2       890      1403       891      1924
 -1      1297    3    0    1
 -2       603      1230       112      1229
 -1      1298    3    0    1
 -2      2011       410      2208      2512
 -1      1299    3    0    1
 -2       248      2309      2689      2697
 -1      1300    3    0    1
 -2       228      2222      2679      2713
 -1      1301    3    0    1
 -2      1675      1582      1739      1812
 -1      1302    3    0    1
 -2      1806      1842      2027      2419
 -1      1303    3    0    1
 -2       954      1745      2399      2776
 -1      1304    3    0    1
 -2      1729      1640      2108      2384
 -1      1305    3    0    1
 -2      1453       244      3134      1482
 -1      1306    3    0    1
 -2       263       797       800      1084
 -1      1307    3    0    1
 -2      1021       700      1027      1277
 -1      1308    3    0    1
 -2      2804      1436      3058      3153
 -1      1309    3    0    1
 -2       520      2232      2314      2422
 -1      1310    3    0    1
 -2      1373      1372      1709      1997
 -1      1311    3    0    1
 -2       251      1071      1072      2067
 -1      1312    3    0    1
 -2      1600      1551      2120      2213
 -1      1313    3    0    1
 -2       653      1249      1001       656
 -1      1314    3    0    1
 -2      1721      1709      1739      1812
 -1      1315    3    0    1
 -2      1415      1438      1481      3046
 -1      1316    3    0    1
 -2      1953      1734      2101      2393
 -1      1317    3    0    1
 -2      3114      3137      1506      1507
 -1      1318    3    0    1
 -2       692      1027       699       691
 -1      1319    3    0    1
 -2      1788      2030      2130      2423
 -1      1320    3    0    1
 -2       377        78      3136      3039
 -1      1321    3    0    1
 -2       757       231       749      1048
 -1      1322    3    0    1
 -2      1051      1300      1053       742
 -1      1323    3    0    1
 -2      1593      1534      1691      2475
 -1      1324    3    0    1
 -2       489      1169       919      1170
 -1      1325    3    0    1
 -2      1590       534      1731      1809
 -1      1326    3    0    1
 -2       797       263       800      1081
 -1      1327    3    0    1
 -2      2022      2914      3109      3129
 -1      1328    3    0    1
 -2        12       413       464       905
 -1      1329    3    0    1
 -2       278       821       829      1327
 -1      1330    3    0    1
 -2      1672      1602      1992      2245
 -1      1331    3    0    1
 -2       514       508       929      2288
 -1      1332    3    0    1
 -2        58       537       540       933
 -1      1333    3    0    1
 -2      1442      1443      1466      3050
 -1      1334    3    0    1
 -2       527      1200      1196       937
 -1      1335    3    0    1
 -2       894      1406      2190      2672
 -1      1336    3    0    1
 -2       750      2304      2416      2669
 -1      1337    3    0    1
 -2       533        70       536      1198
 -1      1338    3    0    1
 -2      1982       403      2072      2127
 -1      1339    3    0    1
 -2         9       410       904      2383
 -1      1340    3    0    1
 -2      1161       902       457      1157
 -1      1341    3    0    1
 -2      1156       460       900      1163
 -1      1342    3    0    1
 -2      2215      2234      2370      2687
 -1      1343    3    0    1
 -2      2185       993      2282      2305
 -1      1344    3    0    1
 -2      2236      2083      2398      2490
 -1      1345    3    0    1
 -2       535      1561      1658      2236
 -1      1346    3    0    1
 -2      1666      2452      2682      2695
 -1      1347    3    0    1
 -2      1452      2904      3111      3130
 -1      1348    3    0    1
 -2       173      2350      2779      2787
 -1      1349    3    0    1
 -2        81      1208        83       555
 -1      1350    3    0    1
 -2       803       259       796      1323
 -1      1351    3    0    1
 -2      1547      1557      1611      1668
 -1      1352    3    0    1
 -2       458         9       410       904
 -1      1353    3    0    1
 -2      1070       777      1060      1073
 -1      1354    3    0    1
 -2       885       894      2085      2672
 -1      1355    3    0    1
 -2      2577      2931      2941      3104
 -1      1356    3    0    1
 -2       941       523       936       942
 -1      1357    3    0    1
 -2      1003      1252       652      1251
 -1      1358    3    0    1
 -2       802      1082      2978      3037
 -1      1359    3    0    1
 -2       398      1537      1817      1879
 -1      1360    3    0    1
 -2       141       136       629      1244
 -1      1361    3    0    1
 -2       375        80       557       950
 -1      1362    3    0    1
 -2      1319      1311      1787      2354
 -1      1363    3    0    1
 -2      1453      1465      3010      3042
 -1      1364    3    0    1
 -2       671       679      1013      1015
 -1      1365    3    0    1
 -2       177       365       676      1012
 -1      1366    3    0    1
 -2       110       614       608      1231
 -1      1367    3    0    1
 -2      1459       371      1460      1478
 -1      1368    3    0    1
 -2      1525      1631      1654      1866
 -1      1369    3    0    1
 -2       156       652       657      1258
 -1      1370    3    0    1
 -2       703       182       710      1271
 -1      1371    3    0    1
 -2      2098      2200      2751      2823
 -1      1372    3    0    1
 -2      1575      1811      2023      2053
 -1      1373    3    0    1
 -2       418      1092      2392      2824
 -1      1374    3    0    1
 -2      2202      2046      2228      2889
 -1      1375    3    0    1
 -2       256      1315      1314       797
 -1      1376    3    0    1
 -2      1768      2016      2066      2295
 -1      1377    3    0    1
 -2       777       772      1062      1065
 -1      1378    3    0    1
 -2       477      1177       496       495
 -1      1379    3    0    1
 -2      1978       940      2022      2986
 -1      1380    3    0    1
 -2      1887      1893      1940      1975
 -1      1381    3    0    1
 -2        46       509       926       928
 -1      1382    3    0    1
 -2      1661      1577      2143      2518
 -1      1383    3    0    1
 -2      1602      1570      1672      1992
 -1      1384    3    0    1
 -2       413        12      2174      2247
 -1      1385    3    0    1
 -2      1719       394      2069      2438
 -1      1386    3    0    1
 -2       518        40        53       920
 -1      1387    3    0    1
 -2       156       652      1003      1006
 -1      1388    3    0    1
 -2      2176      1056      2520      2679
 -1      1389    3    0    1
 -2       765       764       774      1066
 -1      1390    3    0    1
 -2       156       158       657      1006
 -1      1391    3    0    1
 -2      1551      2120      2213      2319
 -1      1392    3    0    1
 -2      1464      1446      3140      1490
 -1      1393    3    0    1
 -2      1449      1421      1504      3151
 -1      1394    3    0    1
 -2       158       156       657      1258
 -1      1395    3    0    1
 -2       185      1715      1900      2143
 -1      1396    3    0    1
 -2       208      1758      1987      2182
 -1      1397    3    0    1
 -2      1552      1674      2081      2086
 -1      1398    3    0    1
 -2      2022      1413      1414      3109
 -1      1399    3    0    1
 -2       652       156       999      1258
 -1      1400    3    0    1
 -2      1085       273      1766      2588
 -1      1401    3    0    1
 -2      1644      1534      1872      1999
 -1      1402    3    0    1
 -2      1496      3122      1495      1429
 -1      1403    3    0    1
 -2        91      1415      1481      1500
 -1      1404    3    0    1
 -2      1761      1792      1831      2220
 -1      1405    3    0    1
 -2       684       177       178      1020
 -1      1406    3    0    1
 -2       652      1254       997       148
 -1      1407    3    0    1
 -2      1010       680      1019      1262
 -1      1408    3    0    1
 -2       681      1017      1009       676
 -1      1409    3    0    1
 -2       148      1252       657       149
 -1      1410    3    0    1
 -2      1816      1994      2080      2395
 -1      1411    3    0    1
 -2      1045       720      1036      1046
 -1      1412    3    0    1
 -2      1444      1445      3121      1473
 -1      1413    3    0    1
 -2      1738      1698      2393      2775
 -1      1414    3    0    1
 -2      3105      3115      3000      3028
 -1      1415    3    0    1
 -2       678       671       679      1013
 -1      1416    3    0    1
 -2       670      1017      1009       669
 -1      1417    3    0    1
 -2       167       680      1010      1262
 -1      1418    3    0    1
 -2      1106      1365      2163      2169
 -1      1419    3    0    1
 -2       383      1068      1935      2278
 -1      1420    3    0    1
 -2      1033       711       693      1034
 -1      1421    3    0    1
 -2       616      1966      2538      2653
 -1      1422    3    0    1
 -2      3099      1409      1476      3132
 -1      1423    3    0    1
 -2       660       158       366      1006
 -1      1424    3    0    1
 -2       652       156       657      1006
 -1      1425    3    0    1
 -2      1017      1009       669      1020
 -1      1426    3    0    1
 -2       672       671      1013      1265
 -1      1427    3    0    1
 -2       670      1010      1019      1262
 -1      1428    3    0    1
 -2      2267       405      2821      2854
 -1      1429    3    0    1
 -2      2361      2338      2544      2624
 -1      1430    3    0    1
 -2      1536      1581      1898      2002
 -1      1431    3    0    1
 -2      1009       669      1020      1261
 -1      1432    3    0    1
 -2      2020      2349      2413      2608
 -1      1433    3    0    1
 -2       172       164       676      1008
 -1      1434    3    0    1
 -2       326       297      1354      1863
 -1      1435    3    0    1
 -2       164       676       681      1009
 -1      1436    3    0    1
 -2       387      1461      1495      3145
 -1      1437    3    0    1
 -2      1708      1524      1792      1831
 -1      1438    3    0    1
 -2       384       932      1656      2314
 -1      1439    3    0    1
 -2       177       676       681      1012
 -1      1440    3    0    1
 -2      1738      1581      1823      2276
 -1      1441    3    0    1
 -2      1610      1644      2400      2183
 -1      1442    3    0    1
 -2      1844      1362      1884      1959
 -1      1443    3    0    1
 -2      1431      1421      3032      3151
 -1      1444    3    0    1
 -2      1267      1011       674      1264
 -1      1445    3    0    1
 -2       964      1233      2137      2973
 -1      1446    3    0    1
 -2       173       175       680      1015
 -1      1447    3    0    1
 -2       677       685      1010      1018
 -1      1448    3    0    1
 -2      1776      1566      1838      1927
 -1      1449    3    0    1
 -2      1701      1545      1798      1915
 -1      1450    3    0    1
 -2       353       156      1003      1583
 -1      1451    3    0    1
 -2       919      2724      2825      2845
 -1      1452    3    0    1
 -2      1107      1680      1681      1684
 -1      1453    3    0    1
 -2      1132      1130      2177      2634
 -1      1454    3    0    1
 -2       192      1023       700       194
 -1      1455    3    0    1
 -2       365       177       676      1017
 -1      1456    3    0    1
 -2      1804       330      2023      2054
 -1      1457    3    0    1
 -2       343      1535      2353      2477
 -1      1458    3    0    1
 -2       170       674       673      1011
 -1      1459    3    0    1
 -2      1115       326      1863      2001
 -1      1460    3    0    1
 -2      1766      1085      2588      2660
 -1      1461    3    0    1
 -2      1448      3024      1518      3074
 -1      1462    3    0    1
 -2       514       532      1853      2288
 -1      1463    3    0    1
 -2      1908      1982      2127      2321
 -1      1464    3    0    1
 -2       174       167       677      1010
 -1      1465    3    0    1
 -2       606       607      1234      1957
 -1      1466    3    0    1
 -2      1159      1801      2614      2808
 -1      1467    3    0    1
 -2       381       437      1442      3097
 -1      1468    3    0    1
 -2       669       670       687      1019
 -1      1469    3    0    1
 -2      2126      2134      2203      2543
 -1      1470    3    0    1
 -2      1577      1781      1852      2076
 -1      1471    3    0    1
 -2       680       677      1010      1018
 -1      1472    3    0    1
 -2       833      1337       834      1837
 -1      1473    3    0    1
 -2       196       190       701      1028
 -1      1474    3    0    1
 -2      2381      2682      2822      2856
 -1      1475    3    0    1
 -2      2512      1918      2616      2673
 -1      1476    3    0    1
 -2      1424      1450      1454      3132
 -1      1477    3    0    1
 -2      1025       701      1034      1271
 -1      1478    3    0    1
 -2       184      1274       701      1272
 -1      1479    3    0    1
 -2        68        66      1200      1821
 -1      1480    3    0    1
 -2      1024       693      1035      1270
 -1      1481    3    0    1
 -2       701      1028      1030      1272
 -1      1482    3    0    1
 -2        66        68       537       943
 -1      1483    3    0    1
 -2      1380       867       868      2101
 -1      1484    3    0    1
 -2       321      1338      1680      1684
 -1      1485    3    0    1
 -2       696       695       702      1028
 -1      1486    3    0    1
 -2      2176      1047      2322      2578
 -1      1487    3    0    1
 -2        81       555       561       944
 -1      1488    3    0    1
 -2      1696      1558      1863      1881
 -1      1489    3    0    1
 -2      2040      1571      2092      2136
 -1      1490    3    0    1
 -2       669       688      1017      1020
 -1      1491    3    0    1
 -2      1558      1863      1881      1889
 -1      1492    3    0    1
 -2      1540      2087      2753      2849
 -1      1493    3    0    1
 -2       701       703      1034      1271
 -1      1494    3    0    1
 -2      1725      1721      1818      2082
 -1      1495    3    0    1
 -2       681       164      1009      1261
 -1      1496    3    0    1
 -2       697       186       698      1273
 -1      1497    3    0    1
 -2       726      1041      1871      1925
 -1      1498    3    0    1
 -2       696      1029       702       695
 -1      1499    3    0    1
 -2       909       471      1163      2258
 -1      1500    3    0    1
 -2      2243      1759      2323      2691
 -1      1501    3    0    1
 -2       408       296      1347      1688
 -1      1502    3    0    1
 -2      1685      1906      2246      2768
 -1      1503    3    0    1
 -2      1767       419      2217      2320
 -1      1504    3    0    1
 -2      1908       403      1982      2641
 -1      1505    3    0    1
 -2      1687      1589      1703      1847
 -1      1506    3    0    1
 -2      1409      1082      1424      3132
 -1      1507    3    0    1
 -2       701       190       703      1030
 -1      1508    3    0    1
 -2       190       701      1028      1030
 -1      1509    3    0    1
 -2      1468       274      1469      3126
 -1      1510    3    0    1
 -2       855      1368      1639      2056
 -1      1511    3    0    1
 -2      1041       718      1281      1283
 -1      1512    3    0    1
 -2      2319      2077      2405      2736
 -1      1513    3    0    1
 -2      1409      1454      3132      3056
 -1      1514    3    0    1
 -2       735       715       736      1047
 -1      1515    3    0    1
 -2      1536      1565      1710      1738
 -1      1516    3    0    1
 -2       487       913       915      2850
 -1      1517    3    0    1
 -2      1566      1776      1838      1856
 -1      1518    3    0    1
 -2       707       700      1024      1032
 -1      1519    3    0    1
 -2      2401      2235      2611      2772
 -1      1520    3    0    1
 -2       724       201       729      1279
 -1      1521    3    0    1
 -2      1734      1815      1993      2393
 -1      1522    3    0    1
 -2       201       724       729      1039
 -1      1523    3    0    1
 -2      1825      1873      2481      2802
 -1      1524    3    0    1
 -2      1693      1245      1840      1956
 -1      1525    3    0    1
 -2       694      1033       711       693
 -1      1526    3    0    1
 -2       189       186       697      1026
 -1      1527    3    0    1
 -2       188       184       701      1025
 -1      1528    3    0    1
 -2      1933      2173      2226      2334
 -1      1529    3    0    1
 -2      2077      2318      2414      2736
 -1      1530    3    0    1
 -2       201       203       724      1039
 -1      1531    3    0    1
 -2       739      1296       744      1059
 -1      1532    3    0    1
 -2       251       773       775      1071
 -1      1533    3    0    1
 -2      1143       429      1408      1913
 -1      1534    3    0    1
 -2       701       190      1033      1034
 -1      1535    3    0    1
 -2       190       196       701      1033
 -1      1536    3    0    1
 -2       184      1274       188       701
 -1      1537    3    0    1
 -2       700       187       705      1035
 -1      1538    3    0    1
 -2       929      1185      2003      2288
 -1      1539    3    0    1
 -2       703       710      1034      1271
 -1      1540    3    0    1
 -2       205       209       725      1284
 -1      1541    3    0    1
 -2      1643      1649      1741      2444
 -1      1542    3    0    1
 -2       403       975      2072      2127
 -1      1543    3    0    1
 -2       187       700      1032      1035
 -1      1544    3    0    1
 -2       726       718       728      1042
 -1      1545    3    0    1
 -2      1803       538      1861      2017
 -1      1546    3    0    1
 -2       220       749      1048      1297
 -1      1547    3    0    1
 -2      1436       360      1497      3153
 -1      1548    3    0    1
 -2       939       395      1658      1686
 -1      1549    3    0    1
 -2       311      1116      1738      1823
 -1      1550    3    0    1
 -2      1818      1575      2023      2053
 -1      1551    3    0    1
 -2       647       651       658      1258
 -1      1552    3    0    1
 -2      1999      2155      2475      2800
 -1      1553    3    0    1
 -2       727       734      1046      1285
 -1      1554    3    0    1
 -2       711       693       712      1035
 -1      1555    3    0    1
 -2       808       831      2336      2660
 -1      1556    3    0    1
 -2       718       719      1041      1281
 -1      1557    3    0    1
 -2      1593      1901      1903      1952
 -1      1558    3    0    1
 -2       284      1335      1766      2079
 -1      1559    3    0    1
 -2      2526      2007      2629      2746
 -1      1560    3    0    1
 -2       556       538       940      1803
 -1      1561    3    0    1
 -2      1177       919      2724      2825
 -1      1562    3    0    1
 -2      1922      2361      2544      2624
 -1      1563    3    0    1
 -2       745      1294      1051       221
 -1      1564    3    0    1
 -2       543      1201      1926      2314
 -1      1565    3    0    1
 -2      1676      1849      1902      2437
 -1      1566    3    0    1
 -2       751       758      1058      1297
 -1      1567    3    0    1
 -2       847      1362      1102      1959
 -1      1568    3    0    1
 -2      1603         9      2216      2235
 -1      1569    3    0    1
 -2       749       751      1058      1297
 -1      1570    3    0    1
 -2       187       700       705      1277
 -1      1571    3    0    1
 -2       810       276      2989      3020
 -1      1572    3    0    1
 -2       247       777      1062      1307
 -1      1573    3    0    1
 -2       718       719       726      1041
 -1      1574    3    0    1
 -2       220      1295       231       749
 -1      1575    3    0    1
 -2       208      1041      1288      1925
 -1      1576    3    0    1
 -2       701      1028      1272      1274
 -1      1577    3    0    1
 -2       177       681      1017      1020
 -1      1578    3    0    1
 -2      1865      1758      2351      2546
 -1      1579    3    0    1
 -2      2943      3100      3123      3152
 -1      1580    3    0    1
 -2       743      1299       742       750
 -1      1581    3    0    1
 -2      1301      1049       748      1292
 -1      1582    3    0    1
 -2      1809      1731      1967      2555
 -1      1583    3    0    1
 -2      2935      2938      3089      1460
 -1      1584    3    0    1
 -2       977      1779      2495      2933
 -1      1585    3    0    1
 -2       720      1045       736      1046
 -1      1586    3    0    1
 -2       725       345      1045      1046
 -1      1587    3    0    1
 -2      1309      2048      2651      2915
 -1      1588    3    0    1
 -2      2771      1530      2795      2837
 -1      1589    3    0    1
 -2       275       809      2988      3020
 -1      1590    3    0    1
 -2       729      1044       361      1047
 -1      1591    3    0    1
 -2       743      1299      1295       742
 -1      1592    3    0    1
 -2      1323       259      2290      2354
 -1      1593    3    0    1
 -2       748      1292      1049       218
 -1      1594    3    0    1
 -2       756       227       753      1296
 -1      1595    3    0    1
 -2      1562      1553      1813      2165
 -1      1596    3    0    1
 -2      1048       749      1058      1297
 -1      1597    3    0    1
 -2      1835      1288      1885      2598
 -1      1598    3    0    1
 -2      1617      1682      1689      1714
 -1      1599    3    0    1
 -2      1002      1255       651      2995
 -1      1600    3    0    1
 -2      1188       932       519      2232
 -1      1601    3    0    1
 -2      1325      2988      2989      3020
 -1      1602    3    0    1
 -2       741      1052       747       740
 -1      1603    3    0    1
 -2      1708      1712      2154      2681
 -1      1604    3    0    1
 -2       712       711      1035      1618
 -1      1605    3    0    1
 -2      1447      3116      3070      3077
 -1      1606    3    0    1
 -2      1397       329       335      1797
 -1      1607    3    0    1
 -2      1467         1      2999      3144
 -1      1608    3    0    1
 -2      1646      1659      1670      1769
 -1      1609    3    0    1
 -2      1669      1731      1967      2063
 -1      1610    3    0    1
 -2      2083      1199      2236      2398
 -1      1611    3    0    1
 -2      1855      1222      2664      2852
 -1      1612    3    0    1
 -2       763       768      1072      1302
 -1      1613    3    0    1
 -2      1645      1830      2021      2610
 -1      1614    3    0    1
 -2      1719       394      2083      2398
 -1      1615    3    0    1
 -2       338      2179      2188      2549
 -1      1616    3    0    1
 -2       651       634      2344      2496
 -1      1617    3    0    1
 -2      3100      3123      3146      3153
 -1      1618    3    0    1
 -2      1300      1051       745      1294
 -1      1619    3    0    1
 -2       749       223      1054      1299
 -1      1620    3    0    1
 -2      1067       770      1304      1305
 -1      1621    3    0    1
 -2      1310       765      1067      1304
 -1      1622    3    0    1
 -2       743      1053       750       742
 -1      1623    3    0    1
 -2      1851      1748      2240      2515
 -1      1624    3    0    1
 -2      1641      1825      2066      2295
 -1      1625    3    0    1
 -2      1663      1661      1740      2162
 -1      1626    3    0    1
 -2       230       228       753      1301
 -1      1627    3    0    1
 -2      1422      1447      1463      3077
 -1      1628    3    0    1
 -2       749       223       751      1054
 -1      1629    3    0    1
 -2      1461      3096      2987      3138
 -1      1630    3    0    1
 -2       775       773      1064      1071
 -1      1631    3    0    1
 -2       308       310      1121      1794
 -1      1632    3    0    1
 -2       385       384       932      1656
 -1      1633    3    0    1
 -2       218      1292       227       753
 -1      1634    3    0    1
 -2       717      1040       716      1038
 -1      1635    3    0    1
 -2       916      1416      1428      3072
 -1      1636    3    0    1
 -2       775       782      1072      1302
 -1      1637    3    0    1
 -2      1410      1332      1432      3053
 -1      1638    3    0    1
 -2      1452      1445      3125      3082
 -1      1639    3    0    1
 -2       773       781      1064      1071
 -1      1640    3    0    1
 -2       256      1315       797       262
 -1      1641    3    0    1
 -2      1912      1095      2336      2557
 -1      1642    3    0    1
 -2      2915      2958      3107      3134
 -1      1643    3    0    1
 -2        82      1211      2227      2535
 -1      1644    3    0    1
 -2       435       777      1070      1073
 -1      1645    3    0    1
 -2      2175       336      2655      2658
 -1      1646    3    0    1
 -2       756       230       376      1059
 -1      1647    3    0    1
 -2      2062       678      2477      2838
 -1      1648    3    0    1
 -2       237       777       780      1060
 -1      1649    3    0    1
 -2       435       433       777      1073
 -1      1650    3    0    1
 -2      1421      1449      3032      3151
 -1      1651    3    0    1
 -2       759       739       760      1059
 -1      1652    3    0    1
 -2       248       772       777      1065
 -1      1653    3    0    1
 -2       777       780      1060      1073
 -1      1654    3    0    1
 -2      1028       702      1846      1980
 -1      1655    3    0    1
 -2       239       781       242      1064
 -1      1656    3    0    1
 -2       789      1315      1083      1314
 -1      1657    3    0    1
 -2      1062      1311       777      1065
 -1      1658    3    0    1
 -2       235       770       769      1305
 -1      1659    3    0    1
 -2      1781       881      1822      1950
 -1      1660    3    0    1
 -2       774       764       776      1066
 -1      1661    3    0    1
 -2      1064       775      1071      1072
 -1      1662    3    0    1
 -2       125      1235      2064      2447
 -1      1663    3    0    1
 -2       177       178      2434      2830
 -1      1664    3    0    1
 -2      1732      1539      2000      2122
 -1      1665    3    0    1
 -2       568       956      2404      2412
 -1      1666    3    0    1
 -2       196      2337      2467      2505
 -1      1667    3    0    1
 -2      1872      1556      1901      2455
 -1      1668    3    0    1
 -2      1066       764      1068      1303
 -1      1669    3    0    1
 -2      1796       884      2239      2371
 -1      1670    3    0    1
 -2      1716      1910      2043      2382
 -1      1671    3    0    1
 -2       323      1137      1390      2302
 -1      1672    3    0    1
 -2      1093       823       822      2167
 -1      1673    3    0    1
 -2       773       251       775      1068
 -1      1674    3    0    1
 -2      1201       943       543      2692
 -1      1675    3    0    1
 -2      1736      1651      1837      1838
 -1      1676    3    0    1
 -2      1790      1536      1898      2002
 -1      1677    3    0    1
 -2       728      2650      2711      2740
 -1      1678    3    0    1
 -2      1035       712      1618      2391
 -1      1679    3    0    1
 -2      1650      1630      2204      2483
 -1      1680    3    0    1
 -2      1660      1558      1696      2426
 -1      1681    3    0    1
 -2      1593      1691      1901      1952
 -1      1682    3    0    1
 -2       793       794      1078      1080
 -1      1683    3    0    1
 -2       965       591      2404      2412
 -1      1684    3    0    1
 -2      1060       772       247       777
 -1      1685    3    0    1
 -2       721      1041      1283      1288
 -1      1686    3    0    1
 -2       788      1319       787      1075
 -1      1687    3    0    1
 -2      1078      1321       793      1080
 -1      1688    3    0    1
 -2       248       435       777      1070
 -1      1689    3    0    1
 -2       772       248       777      1070
 -1      1690    3    0    1
 -2      1041       208      1758      1925
 -1      1691    3    0    1
 -2      2988      1332      3052      1094
 -1      1692    3    0    1
 -2      1621      1529      2286      2484
 -1      1693    3    0    1
 -2       829       821      1095      1327
 -1      1694    3    0    1
 -2      1624      1535      2100      2164
 -1      1695    3    0    1
 -2       238       239       773      1303
 -1      1696    3    0    1
 -2      1054      1299      1576      2304
 -1      1697    3    0    1
 -2      2142       823      2310      2431
 -1      1698    3    0    1
 -2       256      1318       262       797
 -1      1699    3    0    1
 -2      1316       796      1076      1323
 -1      1700    3    0    1
 -2      2912      1765      2948      3105
 -1      1701    3    0    1
 -2        66       432      1904      2435
 -1      1702    3    0    1
 -2       763       768       783      1072
 -1      1703    3    0    1
 -2       124       979      2144      2843
 -1      1704    3    0    1
 -2      1744      1619      2126      2542
 -1      1705    3    0    1
 -2       268       263       797      1079
 -1      1706    3    0    1
 -2      1076       796      1085      1323
 -1      1707    3    0    1
 -2       793       261      1080      1321
 -1      1708    3    0    1
 -2       790      1323      1316       789
 -1      1709    3    0    1
 -2      1680      1609      1684      2316
 -1      1710    3    0    1
 -2       800       806      1084      1314
 -1      1711    3    0    1
 -2      1582      1675      1714      1777
 -1      1712    3    0    1
 -2       265       264       796      1075
 -1      1713    3    0    1
 -2       788      1319       795       787
 -1      1714    3    0    1
 -2       803       265       271      1316
 -1      1715    3    0    1
 -2       257      1317       258       793
 -1      1716    3    0    1
 -2       262       805       269      1315
 -1      1717    3    0    1
 -2       263       797      1079      1081
 -1      1718    3    0    1
 -2       812      1331       819       811
 -1      1719    3    0    1
 -2      2983      1061      3010      3018
 -1      1720    3    0    1
 -2      1762      1744      1891      2355
 -1      1721    3    0    1
 -2       259       796       801      1322
 -1      1722    3    0    1
 -2      1579      1550      1616      1947
 -1      1723    3    0    1
 -2      2172      1590      2270      2555
 -1      1724    3    0    1
 -2      2914      2957      3109      3136
 -1      1725    3    0    1
 -2      1546       339      1937      2329
 -1      1726    3    0    1
 -2      2034       905      2207      2609
 -1      1727    3    0    1
 -2       792      1080       798       791
 -1      1728    3    0    1
 -2       722       721      1283      1288
 -1      1729    3    0    1
 -2      2181       974      2751      2823
 -1      1730    3    0    1
 -2      2318      2077      2343      2736
 -1      1731    3    0    1
 -2       579        96      1213        94
 -1      1732    3    0    1
 -2       853       854      1951      2307
 -1      1733    3    0    1
 -2       645       663       664      1005
 -1      1734    3    0    1
 -2      1810      1652      1883      1989
 -1      1735    3    0    1
 -2      2469      2117      1136      2621
 -1      1736    3    0    1
 -2       682      1016      1266      2990
 -1      1737    3    0    1
 -2      2592      2347      2750      2791
 -1      1738    3    0    1
 -2       228       748      1056      1059
 -1      1739    3    0    1
 -2       534       535       938      1597
 -1      1740    3    0    1
 -2      1078      1321      1080       791
 -1      1741    3    0    1
 -2      1223       349      2379      2810
 -1      1742    3    0    1
 -2       337       116       980      1707
 -1      1743    3    0    1
 -2       821       287      1095      1096
 -1      1744    3    0    1
 -2      1887      1893      1975      1995
 -1      1745    3    0    1
 -2      1100      1352      1794      1819
 -1      1746    3    0    1
 -2      2953      3105      3000      3028
 -1      1747    3    0    1
 -2       818       280       817      1329
 -1      1748    3    0    1
 -2       771       766       778      3018
 -1      1749    3    0    1
 -2       277       820       825      1088
 -1      1750    3    0    1
 -2       425      1299      2629      2669
 -1      1751    3    0    1
 -2       789       807       808      1084
 -1      1752    3    0    1
 -2       380       273       801      1085
 -1      1753    3    0    1
 -2       796       259       801      1085
 -1      1754    3    0    1
 -2      1551      1795      2342      2484
 -1      1755    3    0    1
 -2      1088      1335      1097       814
 -1      1756    3    0    1
 -2       278       288       821      1327
 -1      1757    3    0    1
 -2       704       702      1030      1747
 -1      1758    3    0    1
 -2       817       818      1329      1333
 -1      1759    3    0    1
 -2       821       288      1326      1327
 -1      1760    3    0    1
 -2      2357      2308      2465      2696
 -1      1761    3    0    1
 -2       453      1155       454       907
 -1      1762    3    0    1
 -2      1590      1548      1746      1809
 -1      1763    3    0    1
 -2      1610      1769      1909      2541
 -1      1764    3    0    1
 -2       533        59       536      1189
 -1      1765    3    0    1
 -2      2941      2964      3104      3122
 -1      1766    3    0    1
 -2      1712      1763      2077      2318
 -1      1767    3    0    1
 -2      1908      1982      2072      2127
 -1      1768    3    0    1
 -2        39      1448      3138      3013
 -1      1769    3    0    1
 -2       791      1081      1079      1077
 -1      1770    3    0    1
 -2      2078      2508      2609      2841
 -1      1771    3    0    1
 -2      1652      1810      2369      2490
 -1      1772    3    0    1
 -2       816      1092       822       815
 -1      1773    3    0    1
 -2       849      1103      1911      2394
 -1      1774    3    0    1
 -2      1748      1566      1776      2250
 -1      1775    3    0    1
 -2       801       796      1312      1322
 -1      1776    3    0    1
 -2       814      1335      1097       831
 -1      1777    3    0    1
 -2      3122      1467      1496      3145
 -1      1778    3    0    1
 -2       280       818       282      1329
 -1      1779    3    0    1
 -2      1452      1420      3125      1503
 -1      1780    3    0    1
 -2      1097       820      1088       825
 -1      1781    3    0    1
 -2      1280       204      3059      3078
 -1      1782    3    0    1
 -2       772       247      1062       240
 -1      1783    3    0    1
 -2       534      1198      1746      1809
 -1      1784    3    0    1
 -2       839      1346      1679      1774
 -1      1785    3    0    1
 -2       629       141       992       993
 -1      1786    3    0    1
 -2       826      1888      2716      2717
 -1      1787    3    0    1
 -2       208      1758      1885      1987
 -1      1788    3    0    1
 -2      1095       821      1326      1327
 -1      1789    3    0    1
 -2      1581      1536      1710      1738
 -1      1790    3    0    1
 -2       499      1180       500       928
 -1      1791    3    0    1
 -2      1333      1090       818      1329
 -1      1792    3    0    1
 -2      1581      1881      1898      2002
 -1      1793    3    0    1
 -2      1792      1708      1831      2220
 -1      1794    3    0    1
 -2      3010       762      1499      3025
 -1      1795    3    0    1
 -2       693      1025      1034      1271
 -1      1796    3    0    1
 -2       816      1093      1089       815
 -1      1797    3    0    1
 -2      1458      3087      3110      3131
 -1      1798    3    0    1
 -2      1116       311      1738      2276
 -1      1799    3    0    1
 -2      1771      1664      2012      2410
 -1      1800    3    0    1
 -2      1162       466      2599      2614
 -1      1801    3    0    1
 -2       290       287       824      1096
 -1      1802    3    0    1
 -2       287       821       824      1096
 -1      1803    3    0    1
 -2      1934      1538      2000      2105
 -1      1804    3    0    1
 -2      2310       823      2331      2431
 -1      1805    3    0    1
 -2      1666      2452      2690      2854
 -1      1806    3    0    1
 -2      2009      2561      2565      2799
 -1      1807    3    0    1
 -2       544       523       941       942
 -1      1808    3    0    1
 -2       720      1045      1036       715
 -1      1809    3    0    1
 -2      1387       874      2138      2355
 -1      1810    3    0    1
 -2       311       307      1738      2276
 -1      1811    3    0    1
 -2        75       566       560      1202
 -1      1812    3    0    1
 -2      1865      1523      2351      2594
 -1      1813    3    0    1
 -2      2591       173      2779      2787
 -1      1814    3    0    1
 -2      2591       687      2642      2656
 -1      1815    3    0    1
 -2       190       701       703      1034
 -1      1816    3    0    1
 -2         5       899       897       460
 -1      1817    3    0    1
 -2      2227      1211      2534      2535
 -1      1818    3    0    1
 -2      2382      1598      2421      2539
 -1      1819    3    0    1
 -2       464       470       908      1154
 -1      1820    3    0    1
 -2       982      1244       632       989
 -1      1821    3    0    1
 -2      1593      1691      1951      2106
 -1      1822    3    0    1
 -2      1797      1725      1818      1916
 -1      1823    3    0    1
 -2        15       431       465       909
 -1      1824    3    0    1
 -2      2102      2089      2378      2607
 -1      1825    3    0    1
 -2      1553      1690      1988      2165
 -1      1826    3    0    1
 -2      1097       832      2409      2461
 -1      1827    3    0    1
 -2      1403       890      1146      1924
 -1      1828    3    0    1
 -2       720      1047       715      1039
 -1      1829    3    0    1
 -2      1727      2025      2442      2665
 -1      1830    3    0    1
 -2      2466      2524      2613      2714
 -1      1831    3    0    1
 -2       867      1380      1123      2101
 -1      1832    3    0    1
 -2      3003       922      3024      3062
 -1      1833    3    0    1
 -2      1660      1696      1704      1791
 -1      1834    3    0    1
 -2        35      1839      2034      2044
 -1      1835    3    0    1
 -2      1752       394      2242      2398
 -1      1836    3    0    1
 -2      1598      1994      2382      2429
 -1      1837    3    0    1
 -2       718       726       728      1041
 -1      1838    3    0    1
 -2       420      1912      2246      2568
 -1      1839    3    0    1
 -2       739       759       760      1058
 -1      1840    3    0    1
 -2      1044       729       361       724
 -1      1841    3    0    1
 -2      2013      2009      2584      2708
 -1      1842    3    0    1
 -2      1929      1174      1428      2964
 -1      1843    3    0    1
 -2       499      1181      1178       927
 -1      1844    3    0    1
 -2       865      1120      1626      1784
 -1      1845    3    0    1
 -2      2227       961      2778      2798
 -1      1846    3    0    1
 -2       586      1760      2137      2472
 -1      1847    3    0    1
 -2      1593      1691      1952      2132
 -1      1848    3    0    1
 -2      2328      1526      2777      2851
 -1      1849    3    0    1
 -2      1373      1709      1721      1997
 -1      1850    3    0    1
 -2       505       927      1181      1186
 -1      1851    3    0    1
 -2       133       988      1245      2209
 -1      1852    3    0    1
 -2      1527      2249      2734      2793
 -1      1853    3    0    1
 -2      1617      1682      1714      1924
 -1      1854    3    0    1
 -2      1626      1784      1917      2158
 -1      1855    3    0    1
 -2        62       531       537       933
 -1      1856    3    0    1
 -2         2       387      1496      3145
 -1      1857    3    0    1
 -2      1884       847      1362       848
 -1      1858    3    0    1
 -2      1348      1347      1688      1820
 -1      1859    3    0    1
 -2      1696      1660      1704      1863
 -1      1860    3    0    1
 -2      1441      1418      1448      3106
 -1      1861    3    0    1
 -2       243      2161      2277      2902
 -1      1862    3    0    1
 -2      1563      1550      1892      2028
 -1      1863    3    0    1
 -2      1876      1867      2500      2703
 -1      1864    3    0    1
 -2       119       973      1662      2480
 -1      1865    3    0    1
 -2       209       733       215      1036
 -1      1866    3    0    1
 -2       558       951      1923      2259
 -1      1867    3    0    1
 -2      1790      1558      1881      1898
 -1      1868    3    0    1
 -2       420      2363      2568      2768
 -1      1869    3    0    1
 -2        43      1181       505      1178
 -1      1870    3    0    1
 -2      2197      1452      3111      3130
 -1      1871    3    0    1
 -2        40       509       512      1180
 -1      1872    3    0    1
 -2        40      1182       920       509
 -1      1873    3    0    1
 -2      1985       942      2107       544
 -1      1874    3    0    1
 -2       406        46       509       926
 -1      1875    3    0    1
 -2      1344       323      2678      2726
 -1      1876    3    0    1
 -2        68        66       537      1200
 -1      1877    3    0    1
 -2       185       339       697      1029
 -1      1878    3    0    1
 -2      1581      1536      1738      1823
 -1      1879    3    0    1
 -2       750      1300       752       742
 -1      1880    3    0    1
 -2       465       468       900       909
 -1      1881    3    0    1
 -2      1467      3027      3063      3064
 -1      1882    3    0    1
 -2       377      1443      3136      1485
 -1      1883    3    0    1
 -2      1628      1767      2225      2320
 -1      1884    3    0    1
 -2       797       256       800      1314
 -1      1885    3    0    1
 -2      1742      1575      1827      1896
 -1      1886    3    0    1
 -2       301      1401      1149      1770
 -1      1887    3    0    1
 -2      2622       863      2757      2844
 -1      1888    3    0    1
 -2       129       629       637       983
 -1      1889    3    0    1
 -2      3102      2928      3008      3151
 -1      1890    3    0    1
 -2       555        82       949      1211
 -1      1891    3    0    1
 -2      1739      1675      1963      2014
 -1      1892    3    0    1
 -2      2090      3087       953      2670
 -1      1893    3    0    1
 -2       726      1287      1706      1922
 -1      1894    3    0    1
 -2       974      1227       595       976
 -1      1895    3    0    1
 -2      1737      1543      2061      2617
 -1      1896    3    0    1
 -2      1641      1768      1874      2295
 -1      1897    3    0    1
 -2       974      1227      1226       595
 -1      1898    3    0    1
 -2      1887      1893      2397      2574
 -1      1899    3    0    1
 -2       601      1228       975      1225
 -1      1900    3    0    1
 -2       150       661       159       995
 -1      1901    3    0    1
 -2      1198      1590      1746      1809
 -1      1902    3    0    1
 -2      2150      1637      2194      2474
 -1      1903    3    0    1
 -2       763       783       784      1072
 -1      1904    3    0    1
 -2       712       711      1618      2337
 -1      1905    3    0    1
 -2      1349       839       840      1774
 -1      1906    3    0    1
 -2       581        97       584       958
 -1      1907    3    0    1
 -2      2238       976      2408      2742
 -1      1908    3    0    1
 -2       477       495       496       918
 -1      1909    3    0    1
 -2       488        27       917       918
 -1      1910    3    0    1
 -2        24       481       482      1164
 -1      1911    3    0    1
 -2        68        67       943      2885
 -1      1912    3    0    1
 -2      1662       120      2019      2447
 -1      1913    3    0    1
 -2      1139      1406      2796      2858
 -1      1914    3    0    1
 -2      1977       975      2181      2200
 -1      1915    3    0    1
 -2      1811      2023      2053      2054
 -1      1916    3    0    1
 -2      2750      1717      2760      2791
 -1      1917    3    0    1
 -2       225       223       751      1058
 -1      1918    3    0    1
 -2       342       343      1535      1624
 -1      1919    3    0    1
 -2      1554      1594      1689      2121
 -1      1920    3    0    1
 -2       419      1628      1767      1859
 -1      1921    3    0    1
 -2      2097      1785      2104      2205
 -1      1922    3    0    1
 -2       283       820      1088      1328
 -1      1923    3    0    1
 -2       452      1159       451       899
 -1      1924    3    0    1
 -2      1945      2729      2904      2940
 -1      1925    3    0    1
 -2      1914       462      2511      2586
 -1      1926    3    0    1
 -2      1010       680      1018      1019
 -1      1927    3    0    1
 -2       766      1311       771       778
 -1      1928    3    0    1
 -2      1188      2255      2450      2845
 -1      1929    3    0    1
 -2       556      3002       953      3035
 -1      1930    3    0    1
 -2       796       264       801      1312
 -1      1931    3    0    1
 -2      2228      1793      2306      2540
 -1      1932    3    0    1
 -2      2126      2134      2543      2645
 -1      1933    3    0    1
 -2       343      1014      2353      2481
 -1      1934    3    0    1
 -2       704       702      1747      1980
 -1      1935    3    0    1
 -2      1796      1797      1916      2239
 -1      1936    3    0    1
 -2      1671      1571      2040      2136
 -1      1937    3    0    1
 -2      1134      1389      1995      2359
 -1      1938    3    0    1
 -2      1658      1561      1678      1686
 -1      1939    3    0    1
 -2      1051      1300       745      1053
 -1      1940    3    0    1
 -2       865       866      1626      1655
 -1      1941    3    0    1
 -2      2507       711      2749      2809
 -1      1942    3    0    1
 -2      1837      1776      2376      1736
 -1      1943    3    0    1
 -2       849      1364      1103      2394
 -1      1944    3    0    1
 -2       391      1559      1667      2593
 -1      1945    3    0    1
 -2      3101      1415      3131      1481
 -1      1946    3    0    1
 -2      1408      1635      1949      1958
 -1      1947    3    0    1
 -2      1009      1020       681      1261
 -1      1948    3    0    1
 -2      1116      1738      1823      2276
 -1      1949    3    0    1
 -2       676       168       683      1009
 -1      1950    3    0    1
 -2      1676       330      1804      2054
 -1      1951    3    0    1
 -2      2972      1446      2974      3103
 -1      1952    3    0    1
 -2       432      1656      1904      2435
 -1      1953    3    0    1
 -2      1575      1604      1742      1827
 -1      1954    3    0    1
 -2      1361       848      1713      1948
 -1      1955    3    0    1
 -2      1908      1982      2321      2517
 -1      1956    3    0    1
 -2       211       212      1047      2322
 -1      1957    3    0    1
 -2       750      1299      2304      2669
 -1      1958    3    0    1
 -2      2125      1733      2261      2386
 -1      1959    3    0    1
 -2      1637      1524      1792      2112
 -1      1960    3    0    1
 -2       237       247       777      1060
 -1      1961    3    0    1
 -2      1199       394      1752      2398
 -1      1962    3    0    1
 -2       648      1258      1254       647
 -1      1963    3    0    1
 -2      3010      2983      3025      3042
 -1      1964    3    0    1
 -2       902      1161       457       904
 -1      1965    3    0    1
 -2         5      1156        11       460
 -1      1966    3    0    1
 -2         5      1156       460       900
 -1      1967    3    0    1
 -2       454      1163       453       471
 -1      1968    3    0    1
 -2       453       909       472       471
 -1      1969    3    0    1
 -2         5       468        17       900
 -1      1970    3    0    1
 -2       468         5       465       900
 -1      1971    3    0    1
 -2       901       461       903      1158
 -1      1972    3    0    1
 -2        10      1157        13       457
 -1      1973    3    0    1
 -2      1841      2231      2530      2550
 -1      1974    3    0    1
 -2      2944      1457      2993      3146
 -1      1975    3    0    1
 -2       435       433      1073      2385
 -1      1976    3    0    1
 -2       455      1158       903       456
 -1      1977    3    0    1
 -2      1093       816      1091       822
 -1      1978    3    0    1
 -2       802      1322      1787      1843
 -1      1979    3    0    1
 -2      1847      1589      2429      2493
 -1      1980    3    0    1
 -2       462       905       903       455
 -1      1981    3    0    1
 -2       456       455       462       903
 -1      1982    3    0    1
 -2      1806      1842      2160      2433
 -1      1983    3    0    1
 -2       390       321      1105      1684
 -1      1984    3    0    1
 -2      1639       855      2056      2139
 -1      1985    3    0    1
 -2       455      1158       901       903
 -1      1986    3    0    1
 -2         9       458       457       904
 -1      1987    3    0    1
 -2       897       460      1159      1162
 -1      1988    3    0    1
 -2        10      1157       457       902
 -1      1989    3    0    1
 -2      1777      1675      1924      2330
 -1      1990    3    0    1
 -2      1043      1298      2891      1434
 -1      1991    3    0    1
 -2       462       905       455       463
 -1      1992    3    0    1
 -2        12       461       903       905
 -1      1993    3    0    1
 -2      2910      2804      2944      3146
 -1      1994    3    0    1
 -2       453       454       471       907
 -1      1995    3    0    1
 -2      1180       926       509       928
 -1      1996    3    0    1
 -2       393      1186      2269      2390
 -1      1997    3    0    1
 -2       505       927      1178      1181
 -1      1998    3    0    1
 -2      1719      2083      2438      2490
 -1      1999    3    0    1
 -2       469        12       415       907
 -1      2000    3    0    1
 -2        12       469       461       907
 -1      2001    3    0    1
 -2       481       914      1164      1167
 -1      2002    3    0    1
 -2      1397      1396      1797      2239
 -1      2003    3    0    1
 -2       461        12       907       908
 -1      2004    3    0    1
 -2        12       461       464       908
 -1      2005    3    0    1
 -2       412       464       470       908
 -1      2006    3    0    1
 -2       412       413       464       908
 -1      2007    3    0    1
 -2      1352       308      1100      1794
 -1      2008    3    0    1
 -2      1887      1893      1995      2397
 -1      2009    3    0    1
 -2       728      1835      2650      2740
 -1      2010    3    0    1
 -2       486       475       487       913
 -1      2011    3    0    1
 -2      1653      1669      1967      2063
 -1      2012    3    0    1
 -2      1587      1640      1729      1976
 -1      2013    3    0    1
 -2      1332       819      1743      1888
 -1      2014    3    0    1
 -2       855      1370      1367      2139
 -1      2015    3    0    1
 -2       475       476       487       913
 -1      2016    3    0    1
 -2       807      1073      1323      1605
 -1      2017    3    0    1
 -2       308      1121      1378      1794
 -1      2018    3    0    1
 -2       815      1333      1092       823
 -1      2019    3    0    1
 -2       383      1072      2324      2688
 -1      2020    3    0    1
 -2      1420      2968      3125      3141
 -1      2021    3    0    1
 -2      1439      1425      3120      3042
 -1      2022    3    0    1
 -2       482        23       411       914
 -1      2023    3    0    1
 -2        23       482       481       914
 -1      2024    3    0    1
 -2       493       485       917      1168
 -1      2025    3    0    1
 -2      1590      1548      1809      2172
 -1      2026    3    0    1
 -2        33       485       913       915
 -1      2027    3    0    1
 -2      1714      1785      2103      2104
 -1      2028    3    0    1
 -2      1418      1185      3061      3074
 -1      2029    3    0    1
 -2       938       534      1597      1731
 -1      2030    3    0    1
 -2        26       488      1168      1171
 -1      2031    3    0    1
 -2        27       485       488       917
 -1      2032    3    0    1
 -2      1556      1872      1901      1903
 -1      2033    3    0    1
 -2       493        33        35       917
 -1      2034    3    0    1
 -2        33       493       485       917
 -1      2035    3    0    1
 -2       478       477       496       918
 -1      2036    3    0    1
 -2        27       494        36       918
 -1      2037    3    0    1
 -2       494        27       488       918
 -1      2038    3    0    1
 -2       495       477       917       918
 -1      2039    3    0    1
 -2       478       919      1169      1170
 -1      2040    3    0    1
 -2       492        32        38       919
 -1      2041    3    0    1
 -2        32       492       489       919
 -1      2042    3    0    1
 -2        50        51       513       921
 -1      2043    3    0    1
 -2       395      1591      1686      2057
 -1      2044    3    0    1
 -2       887      1408       896      1958
 -1      2045    3    0    1
 -2      2031      1824      2478      2785
 -1      2046    3    0    1
 -2       296       408      1103      1911
 -1      2047    3    0    1
 -2      2404       957      2464      2605
 -1      2048    3    0    1
 -2      1537       398      2065      2259
 -1      2049    3    0    1
 -2      1845      1128      1895      2027
 -1      2050    3    0    1
 -2       504      1187       503       514
 -1      2051    3    0    1
 -2        32      1177       484        29
 -1      2052    3    0    1
 -2      1723      2161      2277      2643
 -1      2053    3    0    1
 -2      1582      1675      1739      2014
 -1      2054    3    0    1
 -2       491        29       484      1177
 -1      2055    3    0    1
 -2       484       919        32       489
 -1      2056    3    0    1
 -2       921      1188       501      1183
 -1      2057    3    0    1
 -2      2161      1723      2277      2902
 -1      2058    3    0    1
 -2      2252       422      2807      2907
 -1      2059    3    0    1
 -2      1605      1323      2290      2354
 -1      2060    3    0    1
 -2      2962      2999      3015      3144
 -1      2061    3    0    1
 -2      1826      1830      2610      2859
 -1      2062    3    0    1
 -2      1625      2125      2678      2726
 -1      2063    3    0    1
 -2        27      2748      2806      2906
 -1      2064    3    0    1
 -2       505       391       506       927
 -1      2065    3    0    1
 -2      1184       507       923      1187
 -1      2066    3    0    1
 -2       507      1184       513      1187
 -1      2067    3    0    1
 -2       500      1186      1181       499
 -1      2068    3    0    1
 -2      1938      1000       330      1257
 -1      2069    3    0    1
 -2       510       499       511       928
 -1      2070    3    0    1
 -2      1831       314      2220      2681
 -1      2071    3    0    1
 -2       499       510       926       928
 -1      2072    3    0    1
 -2       505       391       927      1186
 -1      2073    3    0    1
 -2      1765      1470      3000      3105
 -1      2074    3    0    1
 -2      1309      1069      1439      3025
 -1      2075    3    0    1
 -2      2904      2940      2942      3130
 -1      2076    3    0    1
 -2      1708      2154      2216      2640
 -1      2077    3    0    1
 -2        70       396       536      1198
 -1      2078    3    0    1
 -2       557       560       956      1202
 -1      2079    3    0    1
 -2       948       557       956      1202
 -1      2080    3    0    1
 -2      2241      1034      2337      2467
 -1      2081    3    0    1
 -2       502       931       501       520
 -1      2082    3    0    1
 -2      1969      1640      1976      2384
 -1      2083    3    0    1
 -2       406       405       509       930
 -1      2084    3    0    1
 -2       509       405       517       930
 -1      2085    3    0    1
 -2        46       518        55       931
 -1      2086    3    0    1
 -2       518        46       512       931
 -1      2087    3    0    1
 -2       519       501       930       931
 -1      2088    3    0    1
 -2       519       501       520       932
 -1      2089    3    0    1
 -2       385       384       513       932
 -1      2090    3    0    1
 -2       513       384       516       932
 -1      2091    3    0    1
 -2        62       539       531       935
 -1      2092    3    0    1
 -2       528       941       523       936
 -1      2093    3    0    1
 -2        64       541        69       936
 -1      2094    3    0    1
 -2       541        64       533       936
 -1      2095    3    0    1
 -2       526       532       538       937
 -1      2096    3    0    1
 -2      1707       116      1966      2110
 -1      2097    3    0    1
 -2       527       526       538       937
 -1      2098    3    0    1
 -2      2022       940      1413      2986
 -1      2099    3    0    1
 -2       515       507      1183      1188
 -1      2100    3    0    1
 -2      1653      1697      1967      2123
 -1      2101    3    0    1
 -2        45       515        54      1188
 -1      2102    3    0    1
 -2       507        45       932      1188
 -1      2103    3    0    1
 -2       943       531       933       537
 -1      2104    3    0    1
 -2      1710      1850      2179      1565
 -1      2105    3    0    1
 -2       525      1199       938       535
 -1      2106    3    0    1
 -2       185      1029      1276      1546
 -1      2107    3    0    1
 -2       185       339      1029      1546
 -1      2108    3    0    1
 -2       534       524       535       939
 -1      2109    3    0    1
 -2      1579      1536      1710      1790
 -1      2110    3    0    1
 -2      1571      1744      1762      2138
 -1      2111    3    0    1
 -2       616       980      1966      2653
 -1      2112    3    0    1
 -2      1835       726      1871      1925
 -1      2113    3    0    1
 -2       627       610      1779      2448
 -1      2114    3    0    1
 -2      1713      1633      1948      2165
 -1      2115    3    0    1
 -2      1310       774       776      2253
 -1      2116    3    0    1
 -2       537       540       933       943
 -1      2117    3    0    1
 -2       523       543       544       941
 -1      2118    3    0    1
 -2      1735      1736      1776      1838
 -1      2119    3    0    1
 -2        82       555       954       957
 -1      2120    3    0    1
 -2       541        70        71       941
 -1      2121    3    0    1
 -2        70       541       533       941
 -1      2122    3    0    1
 -2       936       533       941       942
 -1      2123    3    0    1
 -2       395       396       536       942
 -1      2124    3    0    1
 -2       395       536       542       942
 -1      2125    3    0    1
 -2       943      1985      2692      2885
 -1      2126    3    0    1
 -2        68        67       537       943
 -1      2127    3    0    1
 -2       537        67       540       943
 -1      2128    3    0    1
 -2       528       943       523       543
 -1      2129    3    0    1
 -2       563        83        88      1208
 -1      2130    3    0    1
 -2       552       955       567       547
 -1      2131    3    0    1
 -2       590       584       959       967
 -1      2132    3    0    1
 -2       548      1206      1203       951
 -1      2133    3    0    1
 -2       552       955       547       948
 -1      2134    3    0    1
 -2        79       565        87       948
 -1      2135    3    0    1
 -2       565        79       557       948
 -1      2136    3    0    1
 -2       960       579       965      1212
 -1      2137    3    0    1
 -2      2777      1526      2814      2865
 -1      2138    3    0    1
 -2      1174       916       490      1929
 -1      2139    3    0    1
 -2       551      1211      1207       550
 -1      2140    3    0    1
 -2        66       539       432      1201
 -1      2141    3    0    1
 -2       539       531       935      1201
 -1      2142    3    0    1
 -2       396       395       939      1686
 -1      2143    3    0    1
 -2      3102      3103      1455      3118
 -1      2144    3    0    1
 -2       581       105       963      1222
 -1      2145    3    0    1
 -2      2030      1961      2130      2423
 -1      2146    3    0    1
 -2      3089      2934      1460      2982
 -1      2147    3    0    1
 -2       549      1210       548       559
 -1      2148    3    0    1
 -2       398       399       553       951
 -1      2149    3    0    1
 -2      2560       187      2579      2590
 -1      2150    3    0    1
 -2       549      1210      1206       548
 -1      2151    3    0    1
 -2      1769      1533      2171      2541
 -1      2152    3    0    1
 -2       378        82       954      1745
 -1      2153    3    0    1
 -2       558       548       559       952
 -1      2154    3    0    1
 -2       343      1535      1624      2164
 -1      2155    3    0    1
 -2      1603         9      2235      2383
 -1      2156    3    0    1
 -2       548       558       950       952
 -1      2157    3    0    1
 -2       953      1412      3087      3129
 -1      2158    3    0    1
 -2       953      1209      1414      3129
 -1      2159    3    0    1
 -2       167       677       680      1263
 -1      2160    3    0    1
 -2       552       547       567       954
 -1      2161    3    0    1
 -2       567       957       954       547
 -1      2162    3    0    1
 -2       547       957       954       944
 -1      2163    3    0    1
 -2        84       378       555       954
 -1      2164    3    0    1
 -2        84       555       563       954
 -1      2165    3    0    1
 -2       547      1208       944       954
 -1      2166    3    0    1
 -2      2353      2481      2803      2889
 -1      2167    3    0    1
 -2       375        86       557       955
 -1      2168    3    0    1
 -2       557        86       565       955
 -1      2169    3    0    1
 -2      2009      2013      2565      2708
 -1      2170    3    0    1
 -2       579        92       587      1212
 -1      2171    3    0    1
 -2       955       547       948       956
 -1      2172    3    0    1
 -2       948       557       955       956
 -1      2173    3    0    1
 -2        80       566        89       956
 -1      2174    3    0    1
 -2       566        80       560       956
 -1      2175    3    0    1
 -2      1105       851      1609      1681
 -1      2176    3    0    1
 -2        96       588        98       960
 -1      2177    3    0    1
 -2       588        96       585       960
 -1      2178    3    0    1
 -2      1059      1070      2436      2689
 -1      2179    3    0    1
 -2       603      1230       609       112
 -1      2180    3    0    1
 -2       113      1228       115       602
 -1      2181    3    0    1
 -2       577       578       962      1217
 -1      2182    3    0    1
 -2      2217      1532      2272      2292
 -1      2183    3    0    1
 -2       571       576       965      1212
 -1      2184    3    0    1
 -2      1906      2486      2765      2768
 -1      2185    3    0    1
 -2       101       578       349       962
 -1      2186    3    0    1
 -2       578       101       577       962
 -1      2187    3    0    1
 -2      1028      1683      1726      1846
 -1      2188    3    0    1
 -2       306      1402      1147      1963
 -1      2189    3    0    1
 -2        97       581       584      1219
 -1      2190    3    0    1
 -2      1030      1747      2361      2544
 -1      2191    3    0    1
 -2      1822      1950      2010      2375
 -1      2192    3    0    1
 -2      2891      1298      2943      3123
 -1      2193    3    0    1
 -2      1586      2191      2198      2677
 -1      2194    3    0    1
 -2       106       357       585       965
 -1      2195    3    0    1
 -2      1201      2314      2435      2692
 -1      2196    3    0    1
 -2       605      1231       969       109
 -1      2197    3    0    1
 -2       591       571       592       965
 -1      2198    3    0    1
 -2       576       968       965       960
 -1      2199    3    0    1
 -2       571       576       592       965
 -1      2200    3    0    1
 -2       106       587       373       965
 -1      2201    3    0    1
 -2       587       106       579       965
 -1      2202    3    0    1
 -2       576       968       592       965
 -1      2203    3    0    1
 -2       579        96       585      1213
 -1      2204    3    0    1
 -2       425      2527      2730      2815
 -1      2205    3    0    1
 -2       589       105       400       966
 -1      2206    3    0    1
 -2       105       589       581       966
 -1      2207    3    0    1
 -2      2124      2249      2469      2621
 -1      2208    3    0    1
 -2       590       348       584       967
 -1      2209    3    0    1
 -2       958       571       959       967
 -1      2210    3    0    1
 -2       571       966       591       967
 -1      2211    3    0    1
 -2       966       571       958       967
 -1      2212    3    0    1
 -2       606       975      2181      2284
 -1      2213    3    0    1
 -2      1523      1983      2351      2594
 -1      2214    3    0    1
 -2      2006      2117      2311      2734
 -1      2215    3    0    1
 -2       625       988      1236      1238
 -1      2216    3    0    1
 -2       620       619       988      1236
 -1      2217    3    0    1
 -2       601      1228      1225       113
 -1      2218    3    0    1
 -2       349       101      2379      2893
 -1      2219    3    0    1
 -2       633       628       991      1239
 -1      2220    3    0    1
 -2       600      1235       599       610
 -1      2221    3    0    1
 -2       974      1227       605      1226
 -1      2222    3    0    1
 -2      1594      1356      1775      2121
 -1      2223    3    0    1
 -2       622       983       993      1241
 -1      2224    3    0    1
 -2       993       142      2282      2547
 -1      2225    3    0    1
 -2       927       391      2498      2702
 -1      2226    3    0    1
 -2       134      2018      2558      2619
 -1      2227    3    0    1
 -2       787       802      2978      3037
 -1      2228    3    0    1
 -2      1423      1464      3140      1490
 -1      2229    3    0    1
 -2       851      1107       852      1681
 -1      2230    3    0    1
 -2       329       335      1797      1973
 -1      2231    3    0    1
 -2       338       403       601       975
 -1      2232    3    0    1
 -2       416      1333      2142      2454
 -1      2233    3    0    1
 -2       603      1232       609      1235
 -1      2234    3    0    1
 -2       596      1234      1228       595
 -1      2235    3    0    1
 -2      1533      1868      1965      2171
 -1      2236    3    0    1
 -2      1745        84      2017      2776
 -1      2237    3    0    1
 -2       606       595       607       976
 -1      2238    3    0    1
 -2      1185       929      2003      3106
 -1      2239    3    0    1
 -2      1878      2004      2005      2233
 -1      2240    3    0    1
 -2       595       606       974       976
 -1      2241    3    0    1
 -2      1682      1777      1924      2330
 -1      2242    3    0    1
 -2      2990      1423      3140      1490
 -1      2243    3    0    1
 -2       400      1222      2417      2852
 -1      2244    3    0    1
 -2       620      1245      1238       988
 -1      2245    3    0    1
 -2       620       989       631       619
 -1      2246    3    0    1
 -2       988       620      1236      1238
 -1      2247    3    0    1
 -2       119       611       350       978
 -1      2248    3    0    1
 -2       611       119       603       978
 -1      2249    3    0    1
 -2      2265       418      2623      2683
 -1      2250    3    0    1
 -2       613       122       124       979
 -1      2251    3    0    1
 -2       122       613       605       979
 -1      2252    3    0    1
 -2       614       110       126      1231
 -1      2253    3    0    1
 -2       598       597       616       980
 -1      2254    3    0    1
 -2      1231       605       980       608
 -1      2255    3    0    1
 -2       605      1231       980       969
 -1      2256    3    0    1
 -2       969       605       979       980
 -1      2257    3    0    1
 -2       116       614       337       980
 -1      2258    3    0    1
 -2       614       116       608       980
 -1      2259    3    0    1
 -2       597       979       615       980
 -1      2260    3    0    1
 -2       979       597       969       980
 -1      2261    3    0    1
 -2       597      1231       969       980
 -1      2262    3    0    1
 -2       612       120       125       981
 -1      2263    3    0    1
 -2       120       612       609       981
 -1      2264    3    0    1
 -2       597       615       978       981
 -1      2265    3    0    1
 -2       623       987       627       634
 -1      2266    3    0    1
 -2       108       972      3012      3067
 -1      2267    3    0    1
 -2      1532      2225      2320      2764
 -1      2268    3    0    1
 -2       785       254      3007      3037
 -1      2269    3    0    1
 -2      1982      1850      2151      2641
 -1      2270    3    0    1
 -2       143       632       982      1237
 -1      2271    3    0    1
 -2       143       131       632      1237
 -1      2272    3    0    1
 -2       135       625      1236      1238
 -1      2273    3    0    1
 -2       624       987       623       634
 -1      2274    3    0    1
 -2       150      1249       656       152
 -1      2275    3    0    1
 -2       993      2166      2282      2305
 -1      2276    3    0    1
 -2       620       619       631       988
 -1      2277    3    0    1
 -2       620      1245       988       631
 -1      2278    3    0    1
 -2       327       306      1709      1739
 -1      2279    3    0    1
 -2      1723      2033      2087      2902
 -1      2280    3    0    1
 -2      1823       862      1889      2002
 -1      2281    3    0    1
 -2       630       619       631       989
 -1      2282    3    0    1
 -2       643      1256      1001       654
 -1      2283    3    0    1
 -2      2229       799      2559      2789
 -1      2284    3    0    1
 -2       977      1233      1437      3127
 -1      2285    3    0    1
 -2       653       157      1001      1256
 -1      2286    3    0    1
 -2      3007       786      1494      3038
 -1      2287    3    0    1
 -2      1094       826       819      1888
 -1      2288    3    0    1
 -2       984       127      3036      3057
 -1      2289    3    0    1
 -2       223      1054      1299      1576
 -1      2290    3    0    1
 -2       668      1268       675       667
 -1      2291    3    0    1
 -2       653      1253       995       150
 -1      2292    3    0    1
 -2       134       635       344       991
 -1      2293    3    0    1
 -2       635       134       628       991
 -1      2294    3    0    1
 -2       637       141       336       992
 -1      2295    3    0    1
 -2       141       637       629       992
 -1      2296    3    0    1
 -2       622       992       621       640
 -1      2297    3    0    1
 -2      1187      1853      1904      1939
 -1      2298    3    0    1
 -2      1960      2058      2442      2548
 -1      2299    3    0    1
 -2       983       629       992       993
 -1      2300    3    0    1
 -2       992       622       983       993
 -1      2301    3    0    1
 -2       136       638       142       993
 -1      2302    3    0    1
 -2      1754      1620      1756      2180
 -1      2303    3    0    1
 -2       638       136       632       993
 -1      2304    3    0    1
 -2       636       139       140       994
 -1      2305    3    0    1
 -2       139       636       633       994
 -1      2306    3    0    1
 -2       621       639       991       994
 -1      2307    3    0    1
 -2      1673      1588      1705      1955
 -1      2308    3    0    1
 -2       648      1258       647       658
 -1      2309    3    0    1
 -2       164       684       165      1261
 -1      2310    3    0    1
 -2       155       147       649      1247
 -1      2311    3    0    1
 -2       624      1246       987       634
 -1      2312    3    0    1
 -2       643      1256      1248      1001
 -1      2313    3    0    1
 -2       643      1250      1247      1000
 -1      2314    3    0    1
 -2      1941      2230      2563      2573
 -1      2315    3    0    1
 -2       649      1250       147       650
 -1      2316    3    0    1
 -2       652      1254       657      1258
 -1      2317    3    0    1
 -2       644      1257      1250       643
 -1      2318    3    0    1
 -2       643       644       655      1001
 -1      2319    3    0    1
 -2       654       643       655      1001
 -1      2320    3    0    1
 -2      2579       682      2589      2830
 -1      2321    3    0    1
 -2       357       107       968      2199
 -1      2322    3    0    1
 -2      2975      3104      1461      2996
 -1      2323    3    0    1
 -2       274         1      1469      3126
 -1      2324    3    0    1
 -2      1952      1593      2132      2250
 -1      2325    3    0    1
 -2       684       681      1020      1261
 -1      2326    3    0    1
 -2      1221       964      2670      3131
 -1      2327    3    0    1
 -2      1570      1580      2389      2551
 -1      2328    3    0    1
 -2      3101      1415      3115      3131
 -1      2329    3    0    1
 -2       156       659       353      1003
 -1      2330    3    0    1
 -2       659       156       652      1003
 -1      2331    3    0    1
 -2      2217      1532      2292      2320
 -1      2332    3    0    1
 -2       661       157       161      1004
 -1      2333    3    0    1
 -2       157       661       653      1004
 -1      2334    3    0    1
 -2       701       709      1025      1033
 -1      2335    3    0    1
 -2       646       645       664      1005
 -1      2336    3    0    1
 -2      1253       653      1005       656
 -1      2337    3    0    1
 -2       653       157      1004      1005
 -1      2338    3    0    1
 -2       157       653       656      1005
 -1      2339    3    0    1
 -2       653      1253      1005       995
 -1      2340    3    0    1
 -2       995       653      1004      1005
 -1      2341    3    0    1
 -2       160       662       332      1005
 -1      2342    3    0    1
 -2       662       160       656      1005
 -1      2343    3    0    1
 -2      1901      1556      1979      2026
 -1      2344    3    0    1
 -2       645      1004       663      1005
 -1      2345    3    0    1
 -2      1004       645       995      1005
 -1      2346    3    0    1
 -2       645      1253       995      1005
 -1      2347    3    0    1
 -2       158       660       657      1006
 -1      2348    3    0    1
 -2       645       663      1003      1006
 -1      2349    3    0    1
 -2       172       168       676      1009
 -1      2350    3    0    1
 -2       169       677       685      1010
 -1      2351    3    0    1
 -2       169       174       677      1010
 -1      2352    3    0    1
 -2       681       676      1008      1012
 -1      2353    3    0    1
 -2       192       700       705      1270
 -1      2354    3    0    1
 -2      2011      2512      2616      2673
 -1      2355    3    0    1
 -2      1408      1143      1635      1958
 -1      2356    3    0    1
 -2      3101      1438      1480      1481
 -1      2357    3    0    1
 -2       668      1268      1012       675
 -1      2358    3    0    1
 -2       708       192       705      1270
 -1      2359    3    0    1
 -2      1669       938      1731      2063
 -1      2360    3    0    1
 -2      1588      1568      1705      1955
 -1      2361    3    0    1
 -2       896      1408      1949      1958
 -1      2362    3    0    1
 -2       342       673       674      1014
 -1      2363    3    0    1
 -2      1027       699      2050      2579
 -1      2364    3    0    1
 -2      1538      1700      1870      1934
 -1      2365    3    0    1
 -2       523       936       942      1189
 -1      2366    3    0    1
 -2       173       677      1013      1015
 -1      2367    3    0    1
 -2       687       669       688      1017
 -1      2368    3    0    1
 -2       676       177       681      1017
 -1      2369    3    0    1
 -2       724      1039      1044       729
 -1      2370    3    0    1
 -2       700       192       705      1021
 -1      2371    3    0    1
 -2       365       683       368      1017
 -1      2372    3    0    1
 -2       683       365       676      1017
 -1      2373    3    0    1
 -2      1782      2059      2587      2774
 -1      2374    3    0    1
 -2       685       173       367      1018
 -1      2375    3    0    1
 -2       173       685       677      1018
 -1      2376    3    0    1
 -2      1712       869      1763      2318
 -1      2377    3    0    1
 -2      1768       889      1874      2215
 -1      2378    3    0    1
 -2       175       686       340      1019
 -1      2379    3    0    1
 -2       490       916      3041      3073
 -1      2380    3    0    1
 -2       686       175       680      1019
 -1      2381    3    0    1
 -2       670      1018       687      1019
 -1      2382    3    0    1
 -2       167       174       677      1263
 -1      2383    3    0    1
 -2      1018       670      1010      1019
 -1      2384    3    0    1
 -2       177       684       681      1020
 -1      2385    3    0    1
 -2       694      1032      1024       693
 -1      2386    3    0    1
 -2      2347      1066      2592      2750
 -1      2387    3    0    1
 -2      1853       514      2602      2832
 -1      2388    3    0    1
 -2       694      1032       693       711
 -1      2389    3    0    1
 -2       700       181       707      1024
 -1      2390    3    0    1
 -2       194       181       700      1024
 -1      2391    3    0    1
 -2       183       701       709      1025
 -1      2392    3    0    1
 -2       183       188       701      1025
 -1      2393    3    0    1
 -2      1039       724      1044      1278
 -1      2394    3    0    1
 -2      1233       977       604      2582
 -1      2395    3    0    1
 -2       699      1277       706       691
 -1      2396    3    0    1
 -2      1023      1021       700      1027
 -1      2397    3    0    1
 -2       192       708       198      1270
 -1      2398    3    0    1
 -2       184       182       703      1271
 -1      2399    3    0    1
 -2       700      1024      1035      1270
 -1      2400    3    0    1
 -2       203       201       724      1279
 -1      2401    3    0    1
 -2       691      1277      1021      1027
 -1      2402    3    0    1
 -2      1023       691      1021      1027
 -1      2403    3    0    1
 -2       186       697      1026      1273
 -1      2404    3    0    1
 -2      1586      1554      1594      1689
 -1      2405    3    0    1
 -2       491       484      1169      1177
 -1      2406    3    0    1
 -2       392       938      1199      1752
 -1      2407    3    0    1
 -2         9      2216      2235      2772
 -1      2408    3    0    1
 -2      1006       664      2562      2642
 -1      2409    3    0    1
 -2       695       702      1028      1030
 -1      2410    3    0    1
 -2       702       695       704      1030
 -1      2411    3    0    1
 -2      2217      1677      2628      2676
 -1      2412    3    0    1
 -2      1569      1778      2150      2248
 -1      2413    3    0    1
 -2      1450       436      1454      3132
 -1      2414    3    0    1
 -2       725       345       727      1287
 -1      2415    3    0    1
 -2      2978      3007      3037      3056
 -1      2416    3    0    1
 -2       435      1073      2309      2385
 -1      2417    3    0    1
 -2       345       426       727      1287
 -1      2418    3    0    1
 -2      1427      3114      1506      1507
 -1      2419    3    0    1
 -2       715      1045       735       736
 -1      2420    3    0    1
 -2       187       707       347      1032
 -1      2421    3    0    1
 -2       707       187       700      1032
 -1      2422    3    0    1
 -2       725       733      1036      1045
 -1      2423    3    0    1
 -2      2109      1612      2637      2687
 -1      2424    3    0    1
 -2       709       196       346      1033
 -1      2425    3    0    1
 -2       196       709       701      1033
 -1      2426    3    0    1
 -2      1033       693      1025      1034
 -1      2427    3    0    1
 -2       184       701       703      1272
 -1      2428    3    0    1
 -2      1025       701      1033      1034
 -1      2429    3    0    1
 -2       190       710       197      1034
 -1      2430    3    0    1
 -2       710       190       703      1034
 -1      2431    3    0    1
 -2      1032      1024       693      1035
 -1      2432    3    0    1
 -2       700      1024      1032      1035
 -1      2433    3    0    1
 -2       708       193       195      1035
 -1      2434    3    0    1
 -2       193       708       705      1035
 -1      2435    3    0    1
 -2      2500      1867      2673      2703
 -1      2436    3    0    1
 -2       201       732       207      1039
 -1      2437    3    0    1
 -2       732       201       729      1039
 -1      2438    3    0    1
 -2      2009      1619      2129      2542
 -1      2439    3    0    1
 -2       716       723       730      1040
 -1      2440    3    0    1
 -2       755       218       229      1290
 -1      2441    3    0    1
 -2       203       200       724      1278
 -1      2442    3    0    1
 -2       715      1039      1044      1278
 -1      2443    3    0    1
 -2       360      3123      1497      3153
 -1      2444    3    0    1
 -2       724       731      1044      1278
 -1      2445    3    0    1
 -2       141       136      1244      2175
 -1      2446    3    0    1
 -2       916      1174      3041      3072
 -1      2447    3    0    1
 -2      1840      1693      2052      2251
 -1      2448    3    0    1
 -2      1053       224      2071      2899
 -1      2449    3    0    1
 -2       203       724      1039      1278
 -1      2450    3    0    1
 -2       719       718       726      1042
 -1      2451    3    0    1
 -2       860      1373      1721      1997
 -1      2452    3    0    1
 -2      2085       894      2190      2672
 -1      2453    3    0    1
 -2       760      1059      1070      2436
 -1      2454    3    0    1
 -2      1566      1838      1851      1856
 -1      2455    3    0    1
 -2       231       757       232      1048
 -1      2456    3    0    1
 -2       251       421       773      1071
 -1      2457    3    0    1
 -2       378        82      1745      2535
 -1      2458    3    0    1
 -2       231       220       749      1048
 -1      2459    3    0    1
 -2       562       953      1221      1760
 -1      2460    3    0    1
 -2       214       724       731      1044
 -1      2461    3    0    1
 -2       214       361       724      1044
 -1      2462    3    0    1
 -2       733       345       369      1045
 -1      2463    3    0    1
 -2       345       733       725      1045
 -1      2464    3    0    1
 -2       720      1045       715       736
 -1      2465    3    0    1
 -2       345       725       727      1046
 -1      2466    3    0    1
 -2      1897       846      2108      2224
 -1      2467    3    0    1
 -2      1036       725      1045      1046
 -1      2468    3    0    1
 -2       216       426       727      1046
 -1      2469    3    0    1
 -2       216       727       734      1046
 -1      2470    3    0    1
 -2      1875       950      2057      2680
 -1      2471    3    0    1
 -2       732       211       212      1047
 -1      2472    3    0    1
 -2       211       732       729      1047
 -1      2473    3    0    1
 -2       715       735      1044      1047
 -1      2474    3    0    1
 -2       756       753      1059      1296
 -1      2475    3    0    1
 -2      1127      2077      2318      2414
 -1      2476    3    0    1
 -2      1638      1780      2426      2479
 -1      2477    3    0    1
 -2       743      1053       742      1051
 -1      2478    3    0    1
 -2       748      1296       753       218
 -1      2479    3    0    1
 -2       747      1301       754       740
 -1      2480    3    0    1
 -2       716      1289      1040       730
 -1      2481    3    0    1
 -2       748       755      1056      1290
 -1      2482    3    0    1
 -2      1296      1056       739      1290
 -1      2483    3    0    1
 -2       809      2988      3020      3052
 -1      2484    3    0    1
 -2       748      1296      1059       753
 -1      2485    3    0    1
 -2       218       755       748      1290
 -1      2486    3    0    1
 -2       543       520      1926      2296
 -1      2487    3    0    1
 -2       888      2116      2478      2502
 -1      2488    3    0    1
 -2       749       751      1050      1054
 -1      2489    3    0    1
 -2       348       967      1578      2403
 -1      2490    3    0    1
 -2       220      1295       749      1050
 -1      2491    3    0    1
 -2      2577      2930      3104      2987
 -1      2492    3    0    1
 -2       892      2025      2116      2502
 -1      2493    3    0    1
 -2       238       773       775      1303
 -1      2494    3    0    1
 -2       290       287      2348      2365
 -1      2495    3    0    1
 -2       773       238       775      1064
 -1      2496    3    0    1
 -2       239       238       773      1064
 -1      2497    3    0    1
 -2       573       572      1214      2994
 -1      2498    3    0    1
 -2       228       755       359      1056
 -1      2499    3    0    1
 -2       755       228       748      1056
 -1      2500    3    0    1
 -2      1854      1584      2023      2054
 -1      2501    3    0    1
 -2       757       223       425      1057
 -1      2502    3    0    1
 -2       223       757       749      1057
 -1      2503    3    0    1
 -2       396       939      1623      1686
 -1      2504    3    0    1
 -2      1368      1369      1615      1917
 -1      2505    3    0    1
 -2       744       739       760      1058
 -1      2506    3    0    1
 -2       749       223      1057      1058
 -1      2507    3    0    1
 -2       223       749       751      1058
 -1      2508    3    0    1
 -2       739      1297      1058       744
 -1      2509    3    0    1
 -2      1048       749      1057      1058
 -1      2510    3    0    1
 -2       225       758       422      1058
 -1      2511    3    0    1
 -2       758       225       751      1058
 -1      2512    3    0    1
 -2       739      1057       759      1058
 -1      2513    3    0    1
 -2      1057       739      1048      1058
 -1      2514    3    0    1
 -2       739      1297      1048      1058
 -1      2515    3    0    1
 -2       230       756       753      1059
 -1      2516    3    0    1
 -2       739       759      1056      1059
 -1      2517    3    0    1
 -2       779       240       249      1063
 -1      2518    3    0    1
 -2       240       779       772      1063
 -1      2519    3    0    1
 -2       768      1070       763       783
 -1      2520    3    0    1
 -2       781       239       773      1064
 -1      2521    3    0    1
 -2      1940      1806      2160      2433
 -1      2522    3    0    1
 -2      1817      1620      1879      1921
 -1      2523    3    0    1
 -2      2719      2924      3088      3134
 -1      2524    3    0    1
 -2       782       238       253      1302
 -1      2525    3    0    1
 -2       768      1064      1072      1302
 -1      2526    3    0    1
 -2       706      2050      2237      2639
 -1      2527    3    0    1
 -2      1824      1692      1884      1988
 -1      2528    3    0    1
 -2       471       472       908      2174
 -1      2529    3    0    1
 -2      3115      3101      1480      1481
 -1      2530    3    0    1
 -2       663      1004      2166      2646
 -1      2531    3    0    1
 -2       606       607      1957      2181
 -1      2532    3    0    1
 -2      1776      1927      1951      2250
 -1      2533    3    0    1
 -2      1874      1768      2016      2074
 -1      2534    3    0    1
 -2      1153       898      3021      3027
 -1      2535    3    0    1
 -2       243       246       769      1067
 -1      2536    3    0    1
 -2       243       769       770      1067
 -1      2537    3    0    1
 -2       769       770      1067      1305
 -1      2538    3    0    1
 -2       421       251       773      1068
 -1      2539    3    0    1
 -2       120       119      1235      1662
 -1      2540    3    0    1
 -2       421       773      1066      1068
 -1      2541    3    0    1
 -2      2214      2937      2967      3114
 -1      2542    3    0    1
 -2       783       763       784      1070
 -1      2543    3    0    1
 -2       772      1060      1063      1070
 -1      2544    3    0    1
 -2      2414      1679      2736      2737
 -1      2545    3    0    1
 -2       763      1073      1070      1060
 -1      2546    3    0    1
 -2       248       779       252      1070
 -1      2547    3    0    1
 -2       779       248       772      1070
 -1      2548    3    0    1
 -2      1060       763      1063      1070
 -1      2549    3    0    1
 -2       763      1073       784      1070
 -1      2550    3    0    1
 -2       421       250       773      1071
 -1      2551    3    0    1
 -2       773       250       781      1071
 -1      2552    3    0    1
 -2       251       782       383      1072
 -1      2553    3    0    1
 -2      1539      1538      2000      2122
 -1      2554    3    0    1
 -2       782       251       775      1072
 -1      2555    3    0    1
 -2       768      1071       783      1072
 -1      2556    3    0    1
 -2      1071       768      1064      1072
 -1      2557    3    0    1
 -2       264      1316       796      1076
 -1      2558    3    0    1
 -2       790      1323       789       807
 -1      2559    3    0    1
 -2       789      1085       808       807
 -1      2560    3    0    1
 -2       264       804       267      1076
 -1      2561    3    0    1
 -2       804       264       801      1076
 -1      2562    3    0    1
 -2      1077       797      1079      1318
 -1      2563    3    0    1
 -2       869      1712      1763      2681
 -1      2564    3    0    1
 -2      1354       843      1660      1704
 -1      2565    3    0    1
 -2      2931      2930      2975      3104
 -1      2566    3    0    1
 -2       791      1318      1079       792
 -1      2567    3    0    1
 -2       290       287      1096      2348
 -1      2568    3    0    1
 -2       798      1081      1079       791
 -1      2569    3    0    1
 -2      1454      1424      3132      3038
 -1      2570    3    0    1
 -2       792       791       798      1079
 -1      2571    3    0    1
 -2      1762      1571      2092      2244
 -1      2572    3    0    1
 -2      2097      1586      2104      2191
 -1      2573    3    0    1
 -2       791      1318      1077      1079
 -1      2574    3    0    1
 -2       257      1317       793      1078
 -1      2575    3    0    1
 -2      1652      1810      1965      1989
 -1      2576    3    0    1
 -2       798      1081       791       799
 -1      2577    3    0    1
 -2       329      1374       335      1973
 -1      2578    3    0    1
 -2       230      2222      2704      2723
 -1      2579    3    0    1
 -2      1450      1454      1494      3038
 -1      2580    3    0    1
 -2       419       261       793      1321
 -1      2581    3    0    1
 -2       789       790       807      1083
 -1      2582    3    0    1
 -2      1657       133      1788      2130
 -1      2583    3    0    1
 -2      1735      1607      1856      2262
 -1      2584    3    0    1
 -2       801       804      1076      1085
 -1      2585    3    0    1
 -2      2003      1185      1417      3113
 -1      2586    3    0    1
 -2       805       268       272      1083
 -1      2587    3    0    1
 -2       268       805       797      1083
 -1      2588    3    0    1
 -2      1083       797      1314      1315
 -1      2589    3    0    1
 -2       263       806       270      1084
 -1      2590    3    0    1
 -2       806       263       800      1084
 -1      2591    3    0    1
 -2       801       273       804      1085
 -1      2592    3    0    1
 -2       277       283       820      1088
 -1      2593    3    0    1
 -2        15      1163      2060      2258
 -1      2594    3    0    1
 -2       277       828       292      1088
 -1      2595    3    0    1
 -2       828       277       825      1088
 -1      2596    3    0    1
 -2      1089       824      1091      1330
 -1      2597    3    0    1
 -2       824       821      1091      1330
 -1      2598    3    0    1
 -2      1091       816      1089      1330
 -1      2599    3    0    1
 -2       816      1092       815      1090
 -1      2600    3    0    1
 -2       410      1603      2208      2383
 -1      2601    3    0    1
 -2      1529      1621      2213      2484
 -1      2602    3    0    1
 -2      2707      1350      2721      2860
 -1      2603    3    0    1
 -2      1019       340      2350      2782
 -1      2604    3    0    1
 -2       816      1093      1091      1089
 -1      2605    3    0    1
 -2       394       392      1752      2242
 -1      2606    3    0    1
 -2       323       427      2302      2726
 -1      2607    3    0    1
 -2      1424      2430      3132      1320
 -1      2608    3    0    1
 -2       815       822       823      1092
 -1      2609    3    0    1
 -2       281       288       821      1330
 -1      2610    3    0    1
 -2       329      1797      1916      1973
 -1      2611    3    0    1
 -2       286       284       825      1334
 -1      2612    3    0    1
 -2      2149       962      2420      2607
 -1      2613    3    0    1
 -2       816      1093       815       822
 -1      2614    3    0    1
 -2       654      1256      1630      2204
 -1      2615    3    0    1
 -2      1602       402      1672      2844
 -1      2616    3    0    1
 -2       968       592       965      1751
 -1      2617    3    0    1
 -2       813       814       831      1095
 -1      2618    3    0    1
 -2       813       831       832      1095
 -1      2619    3    0    1
 -2      1930      1707      2545      2655
 -1      2620    3    0    1
 -2      1688       408      1910      1911
 -1      2621    3    0    1
 -2       829       287       420      1095
 -1      2622    3    0    1
 -2       287       829       821      1095
 -1      2623    3    0    1
 -2       290       830       291      1096
 -1      2624    3    0    1
 -2       830       290       824      1096
 -1      2625    3    0    1
 -2      1355       843      1354      1704
 -1      2626    3    0    1
 -2       828       286       386      1097
 -1      2627    3    0    1
 -2       286       828       825      1097
 -1      2628    3    0    1
 -2       814      1097       813       831
 -1      2629    3    0    1
 -2       917       908      2368      2700
 -1      2630    3    0    1
 -2      1563      1657      1892      2030
 -1      2631    3    0    1
 -2      1268      1008       681      1259
 -1      2632    3    0    1
 -2       331       133      2097      2191
 -1      2633    3    0    1
 -2      1368      1615      1718      2158
 -1      2634    3    0    1
 -2       592       591       965      1751
 -1      2635    3    0    1
 -2      1977      1642      2127      2200
 -1      2636    3    0    1
 -2      1082      1409      2916      3132
 -1      2637    3    0    1
 -2       591       568      2404      2412
 -1      2638    3    0    1
 -2      1068       251      1935      2339
 -1      2639    3    0    1
 -2       705       700      1035      1270
 -1      2640    3    0    1
 -2      1648      1934      1990      2094
 -1      2641    3    0    1
 -2      1648      1934      2000      2099
 -1      2642    3    0    1
 -2      2091      1749      1759      2189
 -1      2643    3    0    1
 -2      2119      2625      1407      2463
 -1      2644    3    0    1
 -2      2441      2025      2502      2665
 -1      2645    3    0    1
 -2      1655      1700      1794      1934
 -1      2646    3    0    1
 -2      1589      1703      1847      2429
 -1      2647    3    0    1
 -2       223      1576      2747      2807
 -1      2648    3    0    1
 -2      2037      2268      2570      2695
 -1      2649    3    0    1
 -2      1753      1622      2224      2886
 -1      2650    3    0    1
 -2      1936      2045      2794      1555
 -1      2651    3    0    1
 -2      1781      1661      1822      2076
 -1      2652    3    0    1
 -2        55        46       931      2041
 -1      2653    3    0    1
 -2      2486       270      2765      2768
 -1      2654    3    0    1
 -2      1392       881      1950      2010
 -1      2655    3    0    1
 -2      1849      1000      1902      2483
 -1      2656    3    0    1
 -2      1640      1587      1969      1976
 -1      2657    3    0    1
 -2      2046      1701      2202      2790
 -1      2658    3    0    1
 -2       178      1268      2434      2830
 -1      2659    3    0    1
 -2      1117       312      1119      1602
 -1      2660    3    0    1
 -2      1626       865      1655      1870
 -1      2661    3    0    1
 -2      2015      1796      2109      2234
 -1      2662    3    0    1
 -2      1658      1561      2083      2236
 -1      2663    3    0    1
 -2      1797       329      1916      2239
 -1      2664    3    0    1
 -2      1058       225      2747      2807
 -1      2665    3    0    1
 -2      2181      1977      2200      2751
 -1      2666    3    0    1
 -2        75       557       948      1202
 -1      2667    3    0    1
 -2      1885      1288       208       424
 -1      2668    3    0    1
 -2      1147       891      2014      2330
 -1      2669    3    0    1
 -2       531        66       943      1201
 -1      2670    3    0    1
 -2      1163      1542      2060      2258
 -1      2671    3    0    1
 -2      2087      2033      2160      2377
 -1      2672    3    0    1
 -2      1811      2023      2054      2211
 -1      2673    3    0    1
 -2       508       925      2602      2832
 -1      2674    3    0    1
 -2      2149      2089      2420      2460
 -1      2675    3    0    1
 -2      1056      1059      2451      2679
 -1      2676    3    0    1
 -2       216      2264      2425      2730
 -1      2677    3    0    1
 -2      2731      2750      2760      2875
 -1      2678    3    0    1
 -2       364       363      2974      3103
 -1      2679    3    0    1
 -2      1814      1601      2163      2169
 -1      2680    3    0    1
 -2       394       392      1199      1752
 -1      2681    3    0    1
 -2      1876      2142      2283      2310
 -1      2682    3    0    1
 -2       321       390      1098      1684
 -1      2683    3    0    1
 -2       527      1200       937       538
 -1      2684    3    0    1
 -2       538      1803      1861      1978
 -1      2685    3    0    1
 -2      2038      2340      2556      2701
 -1      2686    3    0    1
 -2      1008      1268      1012       668
 -1      2687    3    0    1
 -2      1601      1609      2163      2169
 -1      2688    3    0    1
 -2      1927      1951      2132      2376
 -1      2689    3    0    1
 -2       287       420      1912      2365
 -1      2690    3    0    1
 -2       851      1609      1681      2163
 -1      2691    3    0    1
 -2      1345      1099      2261      2701
 -1      2692    3    0    1
 -2      1656       932      2232      2314
 -1      2693    3    0    1
 -2      2566      1162      2599      2614
 -1      2694    3    0    1
 -2       903       905      1914      2247
 -1      2695    3    0    1
 -2      2084      1607      2262      2468
 -1      2696    3    0    1
 -2      1609      1105      1681      1684
 -1      2697    3    0    1
 -2      1524      1637      1761      1831
 -1      2698    3    0    1
 -2      1200       937       538      1861
 -1      2699    3    0    1
 -2      1256      1630      2532      2720
 -1      2700    3    0    1
 -2      1032       187      1035      1618
 -1      2701    3    0    1
 -2      1556       392      1979      2026
 -1      2702    3    0    1
 -2      1661      1781      1822      2162
 -1      2703    3    0    1
 -2      2097      1785      2205      2251
 -1      2704    3    0    1
 -2      1706      1864      2361      2813
 -1      2705    3    0    1
 -2      1568      1705      2005      2316
 -1      2706    3    0    1
 -2       664      2562      2642      2656
 -1      2707    3    0    1
 -2      1932      1565      2128      2151
 -1      2708    3    0    1
 -2       606       607      2181      2206
 -1      2709    3    0    1
 -2       187      1027      2560      2579
 -1      2710    3    0    1
 -2      1151      2402      2796      2858
 -1      2711    3    0    1
 -2      1612      1768      1874      2687
 -1      2712    3    0    1
 -2       578       962      1220      1223
 -1      2713    3    0    1
 -2      1627      1660      1791      1946
 -1      2714    3    0    1
 -2      1945      2152      2374      2572
 -1      2715    3    0    1
 -2      1732      1539      1817      2000
 -1      2716    3    0    1
 -2      1080      2229      2519      2839
 -1      2717    3    0    1
 -2       807       784      1073      1605
 -1      2718    3    0    1
 -2      1657      1788      2030      2130
 -1      2719    3    0    1
 -2      2009      1619      2542      2799
 -1      2720    3    0    1
 -2       398       399      1537      1879
 -1      2721    3    0    1
 -2       987       125      1235      2064
 -1      2722    3    0    1
 -2       586       604      1224      1662
 -1      2723    3    0    1
 -2       131       143       632      1241
 -1      2724    3    0    1
 -2       628       635       991      1239
 -1      2725    3    0    1
 -2      1546      1276      2221      1882
 -1      2726    3    0    1
 -2      1642      1977      1981      2788
 -1      2727    3    0    1
 -2        67        68      1821      2776
 -1      2728    3    0    1
 -2      1360      1361      1713      1948
 -1      2729    3    0    1
 -2      1580      2389      2551      2872
 -1      2730    3    0    1
 -2      2381      2570      2585      2695
 -1      2731    3    0    1
 -2      1245       331      1693      1840
 -1      2732    3    0    1
 -2        43       505       506      1178
 -1      2733    3    0    1
 -2      1798      1701      1915      2790
 -1      2734    3    0    1
 -2      1789      1552      2081      2086
 -1      2735    3    0    1
 -2      1393      1392      1913      2010
 -1      2736    3    0    1
 -2      1964      1648      2000      2099
 -1      2737    3    0    1
 -2      1873       343      2353      2481
 -1      2738    3    0    1
 -2       932       520      2232      2314
 -1      2739    3    0    1
 -2      1585      3091      1443      3009
 -1      2740    3    0    1
 -2      1836      1298      2488      2891
 -1      2741    3    0    1
 -2      2075      2153      2456      2501
 -1      2742    3    0    1
 -2      1839       913      2034      2489
 -1      2743    3    0    1
 -2      1558      1696      1790      1881
 -1      2744    3    0    1
 -2      1370       855       856      2139
 -1      2745    3    0    1
 -2      2317       340      2485      2782
 -1      2746    3    0    1
 -2       663      1003      2646      2833
 -1      2747    3    0    1
 -2       406       405       930      2816
 -1      2748    3    0    1
 -2      1396       329      1797      2239
 -1      2749    3    0    1
 -2       841      1350      2860      2870
 -1      2750    3    0    1
 -2        19        26       488      1168
 -1      2751    3    0    1
 -2       865      1379      1120      1784
 -1      2752    3    0    1
 -2      1657      1550      2030      2135
 -1      2753    3    0    1
 -2      1957       606      2181      2284
 -1      2754    3    0    1
 -2       812      1331       811      1087
 -1      2755    3    0    1
 -2       675       668       667      2990
 -1      2756    3    0    1
 -2      1670      1639      1718      2056
 -1      2757    3    0    1
 -2      1393       429       444      1913
 -1      2758    3    0    1
 -2       511      1907      2172      2269
 -1      2759    3    0    1
 -2      2752      1764      3111      3008
 -1      2760    3    0    1
 -2      1548        55      1702      2041
 -1      2761    3    0    1
 -2      3139      3099      3147      1514
 -1      2762    3    0    1
 -2      1788      1657      2030      2135
 -1      2763    3    0    1
 -2      2577      2930      2931      3104
 -1      2764    3    0    1
 -2      1912      1095      2557      2568
 -1      2765    3    0    1
 -2       420      1095      1912      2568
 -1      2766    3    0    1
 -2       385      1187      1656      1939
 -1      2767    3    0    1
 -2       639       991      2558      2818
 -1      2768    3    0    1
 -2      2440       655      2492      2720
 -1      2769    3    0    1
 -2       718      1288      1041       728
 -1      2770    3    0    1
 -2       580       562      1221      1760
 -1      2771    3    0    1
 -2      1642      1981      2321      2905
 -1      2772    3    0    1
 -2       978       119      2019      2503
 -1      2773    3    0    1
 -2      2077      2319      2343      2736
 -1      2774    3    0    1
 -2      1859      2427      2728      2789
 -1      2775    3    0    1
 -2      1613      2043      2286      2484
 -1      2776    3    0    1
 -2       276       275      2988      3020
 -1      2777    3    0    1
 -2      1138       428       439      2625
 -1      2778    3    0    1
 -2       937      1200      1821      1861
 -1      2779    3    0    1
 -2       616       639      2545      2654
 -1      2780    3    0    1
 -2      1838      1607      1851      1856
 -1      2781    3    0    1
 -2       704      1276      1882      2226
 -1      2782    3    0    1
 -2      1029      1276      1546      1882
 -1      2783    3    0    1
 -2      2092      2129      2136      2542
 -1      2784    3    0    1
 -2      1054       752       750      2304
 -1      2785    3    0    1
 -2      1547      1663      1668      1715
 -1      2786    3    0    1
 -2      2358      2068      2631      2929
 -1      2787    3    0    1
 -2      2166      2282      2301      2547
 -1      2788    3    0    1
 -2      1655      1539      1870      2105
 -1      2789    3    0    1
 -2      2034      1841      2489      2530
 -1      2790    3    0    1
 -2      1694      1620      1879      2180
 -1      2791    3    0    1
 -2        29      2825      2855      2909
 -1      2792    3    0    1
 -2       851      1106      2163      2169
 -1      2793    3    0    1
 -2      1073      2309      2385      2583
 -1      2794    3    0    1
 -2      1640      1532      1897      2108
 -1      2795    3    0    1
 -2       423      2051      2111      2327
 -1      2796    3    0    1
 -2      2097      1586      2191      2198
 -1      2797    3    0    1
 -2      2051       423      2111      2275
 -1      2798    3    0    1
 -2      1056      1296       739      1059
 -1      2799    3    0    1
 -2      1056      1296      1059       748
 -1      2800    3    0    1
 -2      2200       606      2751      2823
 -1      2801    3    0    1
 -2      1652      1883      2257      2567
 -1      2802    3    0    1
 -2       913        35      1839      2034
 -1      2803    3    0    1
 -2       373       106       965      2464
 -1      2804    3    0    1
 -2      2166       663      2646      2833
 -1      2805    3    0    1
 -2       699      1027      1268      2579
 -1      2806    3    0    1
 -2       161      1630      2301      2532
 -1      2807    3    0    1
 -2      1906      1685      2553      2600
 -1      2808    3    0    1
 -2      2004      1607      2262      2428
 -1      2809    3    0    1
 -2      2156      2178      1972      2107
 -1      2810    3    0    1
 -2      1663      1900      2143      2162
 -1      2811    3    0    1
 -2       681       177      1012      1268
 -1      2812    3    0    1
 -2      2087      1540      2377      2419
 -1      2813    3    0    1
 -2      1538      1648      1934      2000
 -1      2814    3    0    1
 -2       433      1311      2354      2385
 -1      2815    3    0    1
 -2      1621      1529      1679      1808
 -1      2816    3    0    1
 -2       392       394      2069      2242
 -1      2817    3    0    1
 -2      2049      1082      2916      3132
 -1      2818    3    0    1
 -2       877      1135       878      1976
 -1      2819    3    0    1
 -2       894      1786      2085      2190
 -1      2820    3    0    1
 -2      2421      1847      2493      2539
 -1      2821    3    0    1
 -2      1042       728      2650      2711
 -1      2822    3    0    1
 -2       297      1115      1376      2001
 -1      2823    3    0    1
 -2      1288      1041       728      1835
 -1      2824    3    0    1
 -2      1540      1807      1845      1931
 -1      2825    3    0    1
 -2       391       393      2390      2702
 -1      2826    3    0    1
 -2      1095      1096      2348      2409
 -1      2827    3    0    1
 -2       315      1383      1382      1975
 -1      2828    3    0    1
 -2       859      1373       860      1997
 -1      2829    3    0    1
 -2       649      1250      1000      1247
 -1      2830    3    0    1
 -2       649      1250      1247       147
 -1      2831    3    0    1
 -2       652      1252       657       148
 -1      2832    3    0    1
 -2      1573      1724      1805      2190
 -1      2833    3    0    1
 -2       486       913      2489      2530
 -1      2834    3    0    1
 -2      1309      2048      2632      2651
 -1      2835    3    0    1
 -2       453       907       908      1154
 -1      2836    3    0    1
 -2       464         4       470      1154
 -1      2837    3    0    1
 -2         7         4       464      1154
 -1      2838    3    0    1
 -2       467       460      1156      1163
 -1      2839    3    0    1
 -2        15       467       389      1163
 -1      2840    3    0    1
 -2      1837      1776      1838      1927
 -1      2841    3    0    1
 -2      1663      1668      1715      1968
 -1      2842    3    0    1
 -2       899       897       460      1159
 -1      2843    3    0    1
 -2       459      1162       466       451
 -1      2844    3    0    1
 -2      1365      2080      2163      2169
 -1      2845    3    0    1
 -2      1549      1998      2415      2611
 -1      2846    3    0    1
 -2       811      1334      1331       826
 -1      2847    3    0    1
 -2       820      1097      1088      1335
 -1      2848    3    0    1
 -2      1881      1790      1898      2002
 -1      2849    3    0    1
 -2       827       284       820      1335
 -1      2850    3    0    1
 -2      1554      1586      2218      2677
 -1      2851    3    0    1
 -2      1587      1599      1677      2272
 -1      2852    3    0    1
 -2       900       460       909      1163
 -1      2853    3    0    1
 -2       451      1162       897      1159
 -1      2854    3    0    1
 -2       899       451       897      1159
 -1      2855    3    0    1
 -2      1714      1682      1777      1924
 -1      2856    3    0    1
 -2        15       460       465      1162
 -1      2857    3    0    1
 -2      1394       881       882      1781
 -1      2858    3    0    1
 -2      1453      3010      3025      3042
 -1      2859    3    0    1
 -2       481        23       914      1175
 -1      2860    3    0    1
 -2       459      1162       451      1159
 -1      2861    3    0    1
 -2       460        15      1159      1162
 -1      2862    3    0    1
 -2       467        15       460      1163
 -1      2863    3    0    1
 -2       485        19       488      1168
 -1      2864    3    0    1
 -2       453      1156       900      1163
 -1      2865    3    0    1
 -2       909       453       900      1163
 -1      2866    3    0    1
 -2       485        19      1165      1166
 -1      2867    3    0    1
 -2       913       485      1165      1166
 -1      2868    3    0    1
 -2       914       475      1164      1167
 -1      2869    3    0    1
 -2       476      1175       475       487
 -1      2870    3    0    1
 -2        20       489       911      1172
 -1      2871    3    0    1
 -2        19       493        34      1168
 -1      2872    3    0    1
 -2       493        19       485      1168
 -1      2873    3    0    1
 -2       478      1177       496       477
 -1      2874    3    0    1
 -2       491        21        30      1169
 -1      2875    3    0    1
 -2        21       491       484      1169
 -1      2876    3    0    1
 -2       478      1177       919       496
 -1      2877    3    0    1
 -2        26        22       488      1171
 -1      2878    3    0    1
 -2       917       477      1168      1171
 -1      2879    3    0    1
 -2       297      1355      1863      2001
 -1      2880    3    0    1
 -2      2058      2192      2441      2571
 -1      2881    3    0    1
 -2       484       919      1169      1177
 -1      2882    3    0    1
 -2      1198       939       534      1678
 -1      2883    3    0    1
 -2      1043      1286       723      3059
 -1      2884    3    0    1
 -2      2219      2124      2300      2302
 -1      2885    3    0    1
 -2        29       491        37      1177
 -1      2886    3    0    1
 -2      2612      1045      2754       735
 -1      2887    3    0    1
 -2       161      2301      2482      2547
 -1      2888    3    0    1
 -2       398      1732      1817      2065
 -1      2889    3    0    1
 -2       475       486       487      1175
 -1      2890    3    0    1
 -2       914       475      1167      1175
 -1      2891    3    0    1
 -2       489        32      1173      1176
 -1      2892    3    0    1
 -2       486       475       914      1175
 -1      2893    3    0    1
 -2       911       489      1173      1176
 -1      2894    3    0    1
 -2       489       911      1172      1176
 -1      2895    3    0    1
 -2       298      1403      1146      1775
 -1      2896    3    0    1
 -2       490       479       483      1176
 -1      2897    3    0    1
 -2       911       479      1172      1176
 -1      2898    3    0    1
 -2      1173       479       911      1176
 -1      2899    3    0    1
 -2       479      1173       483      1176
 -1      2900    3    0    1
 -2       478      1177       477      1169
 -1      2901    3    0    1
 -2       517        41       509      1182
 -1      2902    3    0    1
 -2       921      1188       932       501
 -1      2903    3    0    1
 -2       515        48        49      1183
 -1      2904    3    0    1
 -2        48       515       507      1183
 -1      2905    3    0    1
 -2      1557      1740      1962      2375
 -1      2906    3    0    1
 -2      2381      2493      2521      2570
 -1      2907    3    0    1
 -2      2940      2939      3000      3130
 -1      2908    3    0    1
 -2      1452      1420      3079      3082
 -1      2909    3    0    1
 -2      2410      2714      2814      2865
 -1      2910    3    0    1
 -2       499      1181       927      1186
 -1      2911    3    0    1
 -2      2442      1960      2518      2665
 -1      2912    3    0    1
 -2      1757      1701      2046      2790
 -1      2913    3    0    1
 -2      1730       399      1879      1921
 -1      2914    3    0    1
 -2       499       510       511      1186
 -1      2915    3    0    1
 -2       393       391       505      1186
 -1      2916    3    0    1
 -2       510       499       927      1186
 -1      2917    3    0    1
 -2       507        45       925      1187
 -1      2918    3    0    1
 -2       925       503       923      1187
 -1      2919    3    0    1
 -2       503      1184       923      1187
 -1      2920    3    0    1
 -2       925       514       508       503
 -1      2921    3    0    1
 -2       923       507       925      1187
 -1      2922    3    0    1
 -2        59       533       536      1191
 -1      2923    3    0    1
 -2       934      1198       536       939
 -1      2924    3    0    1
 -2        59       536       934      1191
 -1      2925    3    0    1
 -2       529       938      1190      1192
 -1      2926    3    0    1
 -2        63       529      1190      1192
 -1      2927    3    0    1
 -2       937       527      1194      1196
 -1      2928    3    0    1
 -2      2577      1461      3122      3148
 -1      2929    3    0    1
 -2       940      1197      2985      3051
 -1      2930    3    0    1
 -2       531        62       537      1196
 -1      2931    3    0    1
 -2       531       937      1194      1196
 -1      2932    3    0    1
 -2        62       531      1194      1196
 -1      2933    3    0    1
 -2      1960      1900      2442      2518
 -1      2934    3    0    1
 -2       550       551       562      3002
 -1      2935    3    0    1
 -2      1209      2022      1413      1414
 -1      2936    3    0    1
 -2      2919      2618      2938      3089
 -1      2937    3    0    1
 -2      1416      1461      1488      3148
 -1      2938    3    0    1
 -2       508       503       514      3003
 -1      2939    3    0    1
 -2      2967      2804      3133      3058
 -1      2940    3    0    1
 -2       533       536      1191      1198
 -1      2941    3    0    1
 -2       536       396       939      1198
 -1      2942    3    0    1
 -2       934      1198       524      1191
 -1      2943    3    0    1
 -2      1029       702      1882      1980
 -1      2944    3    0    1
 -2       530       529      1192      1199
 -1      2945    3    0    1
 -2      1815      1734      1886      2254
 -1      2946    3    0    1
 -2      1126       869      1763      2681
 -1      2947    3    0    1
 -2       392       530       394      1199
 -1      2948    3    0    1
 -2       529       392       938      1199
 -1      2949    3    0    1
 -2       530       392       529      1199
 -1      2950    3    0    1
 -2       531       937      1196      1200
 -1      2951    3    0    1
 -2       537       531      1196      1200
 -1      2952    3    0    1
 -2        66       531       537      1200
 -1      2953    3    0    1
 -2      1538      1648      2000      2122
 -1      2954    3    0    1
 -2       134       987      1246      2018
 -1      2955    3    0    1
 -2       531        66       937      1200
 -1      2956    3    0    1
 -2       933      1201       528       935
 -1      2957    3    0    1
 -2       553      1206        76       554
 -1      2958    3    0    1
 -2       579       587       965      1212
 -1      2959    3    0    1
 -2       551      1211       550       562
 -1      2960    3    0    1
 -2       547      1208       954       552
 -1      2961    3    0    1
 -2        37        29      1177      2039
 -1      2962    3    0    1
 -2      1737      1543      2617      2626
 -1      2963    3    0    1
 -2      3138      3113      1488      3148
 -1      2964    3    0    1
 -2      1209       953      2090      3129
 -1      2965    3    0    1
 -2       839      1349      1346      1774
 -1      2966    3    0    1
 -2       548      1206       951      1210
 -1      2967    3    0    1
 -2       553      1206       554      1210
 -1      2968    3    0    1
 -2      1206       553       951      1210
 -1      2969    3    0    1
 -2      2389      2298      2551      2635
 -1      2970    3    0    1
 -2       548       558       559      1210
 -1      2971    3    0    1
 -2       398       553       554      1210
 -1      2972    3    0    1
 -2       558       548       951      1210
 -1      2973    3    0    1
 -2       909      1177      2039      2706
 -1      2974    3    0    1
 -2       561       555      1207      1211
 -1      2975    3    0    1
 -2       555       946      1207      1211
 -1      2976    3    0    1
 -2       550       949       556      1211
 -1      2977    3    0    1
 -2       949       550       946      1211
 -1      2978    3    0    1
 -2       550      1207       946      1211
 -1      2979    3    0    1
 -2       946       555       949      1211
 -1      2980    3    0    1
 -2       723       716       730      3059
 -1      2981    3    0    1
 -2       595      1228      1225       975
 -1      2982    3    0    1
 -2       961       572      1213      1216
 -1      2983    3    0    1
 -2       573      1224       572       586
 -1      2984    3    0    1
 -2      1597       534      1678      1746
 -1      2985    3    0    1
 -2      1085       285      1335      1766
 -1      2986    3    0    1
 -2      1222       575       963      1218
 -1      2987    3    0    1
 -2      1744      1571      1762      1891
 -1      2988    3    0    1
 -2       575      1222       963       583
 -1      2989    3    0    1
 -2       585       357       961      1224
 -1      2990    3    0    1
 -2       962       574      1217      1220
 -1      2991    3    0    1
 -2       575      1223       574       583
 -1      2992    3    0    1
 -2       996       146       998      2995
 -1      2993    3    0    1
 -2      1287       369      1706      1922
 -1      2994    3    0    1
 -2      1298      2891      1434      3123
 -1      2995    3    0    1
 -2      1785      1742      2103      2205
 -1      2996    3    0    1
 -2       399      1537      1921      2257
 -1      2997    3    0    1
 -2      1438      1437      2973      3101
 -1      2998    3    0    1
 -2      1824      1692      1844      1884
 -1      2999    3    0    1
 -2       861      1376      1115      1889
 -1      3000    3    0    1
 -2      1369       855      1368      1639
 -1      3001    3    0    1
 -2       575      1222       574      1218
 -1      3002    3    0    1
 -2       578       349       962      1223
 -1      3003    3    0    1
 -2       582       574       962      1223
 -1      3004    3    0    1
 -2       471       832      1097      1542
 -1      3005    3    0    1
 -2      1399      1150      1895      1931
 -1      3006    3    0    1
 -2       228       359      2222      2713
 -1      3007    3    0    1
 -2       586       572       580      1224
 -1      3008    3    0    1
 -2       961       572      1216      1224
 -1      3009    3    0    1
 -2       580       572       961      1224
 -1      3010    3    0    1
 -2       978      1230       981       603
 -1      3011    3    0    1
 -2       603      1230       981       609
 -1      3012    3    0    1
 -2      1230       978       597      1229
 -1      3013    3    0    1
 -2       597      1230       598       981
 -1      3014    3    0    1
 -2       611       112       118      1229
 -1      3015    3    0    1
 -2       112       611       603      1229
 -1      3016    3    0    1
 -2       597      1231       980       598
 -1      3017    3    0    1
 -2       400      2020      2417      2529
 -1      3018    3    0    1
 -2       146       642      2995      3014
 -1      3019    3    0    1
 -2      2930      1942      2931      2975
 -1      3020    3    0    1
 -2       266       259      1323      2354
 -1      3021    3    0    1
 -2       785      3007      1510      3056
 -1      3022    3    0    1
 -2       988       133      1788      2209
 -1      3023    3    0    1
 -2      1446      2998      3140      1490
 -1      3024    3    0    1
 -2      1690      1553      1692      1713
 -1      3025    3    0    1
 -2       592       591      1751      2118
 -1      3026    3    0    1
 -2       595      1228       975      1234
 -1      3027    3    0    1
 -2       601      1228       602      1234
 -1      3028    3    0    1
 -2      1228       601       975      1234
 -1      3029    3    0    1
 -2      1804      1676      1827      2437
 -1      3030    3    0    1
 -2      1609      1601      1680      1681
 -1      3031    3    0    1
 -2       595       606       607      1234
 -1      3032    3    0    1
 -2       338       601       602      1234
 -1      3033    3    0    1
 -2       606       595       975      1234
 -1      3034    3    0    1
 -2       599       604       610      1235
 -1      3035    3    0    1
 -2      1232       603       971      1235
 -1      3036    3    0    1
 -2       603       119       973      1235
 -1      3037    3    0    1
 -2       599       973       604      1235
 -1      3038    3    0    1
 -2       973       599       971      1235
 -1      3039    3    0    1
 -2       599      1232       971      1235
 -1      3040    3    0    1
 -2       971       603       973      1235
 -1      3041    3    0    1
 -2       632       638       993      1241
 -1      3042    3    0    1
 -2       635       130       137      1239
 -1      3043    3    0    1
 -2       130       635       628      1239
 -1      3044    3    0    1
 -2       138       636       145      1240
 -1      3045    3    0    1
 -2       636       138       633      1240
 -1      3046    3    0    1
 -2       621       991      1239      1240
 -1      3047    3    0    1
 -2      1424      1409      3132      3038
 -1      3048    3    0    1
 -2      1828      1697      1851      2240
 -1      3049    3    0    1
 -2      1255      2344      1420      1421
 -1      3050    3    0    1
 -2      1243      2933      1444      3121
 -1      3051    3    0    1
 -2       629       632      1237      1244
 -1      3052    3    0    1
 -2       629       136       632      1244
 -1      3053    3    0    1
 -2       982      1244       619      1237
 -1      3054    3    0    1
 -2      1627       844      1704      1711
 -1      3055    3    0    1
 -2       632       136       989      1244
 -1      3056    3    0    1
 -2       625       133       988      1245
 -1      3057    3    0    1
 -2       626       133       625      1245
 -1      3058    3    0    1
 -2      1592      1826      1830      2773
 -1      3059    3    0    1
 -2       633       628      1242      1246
 -1      3060    3    0    1
 -2       134       628       633      1246
 -1      3061    3    0    1
 -2       558       559      1923      2680
 -1      3062    3    0    1
 -2       985      1246       624      1242
 -1      3063    3    0    1
 -2       628       134       987      1246
 -1      3064    3    0    1
 -2      1003      1252      1006       652
 -1      3065    3    0    1
 -2       652      1252      1006       657
 -1      3066    3    0    1
 -2      1252      1003       645      1251
 -1      3067    3    0    1
 -2       645      1252       646      1006
 -1      3068    3    0    1
 -2       659       148       151      1251
 -1      3069    3    0    1
 -2       148       659       652      1251
 -1      3070    3    0    1
 -2       645      1253      1005       646
 -1      3071    3    0    1
 -2      1609      1681      2163      2169
 -1      3072    3    0    1
 -2      3109      1443      3128      1485
 -1      3073    3    0    1
 -2      1449      3014      1505      3032
 -1      3074    3    0    1
 -2      1539      1538      1870      2105
 -1      3075    3    0    1
 -2       653      1001      1248      1256
 -1      3076    3    0    1
 -2       348       105       966      2118
 -1      3077    3    0    1
 -2       711      1618      2337      2809
 -1      3078    3    0    1
 -2       228      1052      1301      2222
 -1      3079    3    0    1
 -2       643      1250      1000      1257
 -1      3080    3    0    1
 -2       649      1250       650      1257
 -1      3081    3    0    1
 -2      1250       649      1000      1257
 -1      3082    3    0    1
 -2       392       938      1669      2063
 -1      3083    3    0    1
 -2      1096       291      2075      2456
 -1      3084    3    0    1
 -2       927       510      1186      2702
 -1      3085    3    0    1
 -2       643       654       655      1257
 -1      3086    3    0    1
 -2       330       650       333      1257
 -1      3087    3    0    1
 -2       650       330       649      1257
 -1      3088    3    0    1
 -2       649       330      1000      1257
 -1      3089    3    0    1
 -2       654       643      1000      1257
 -1      3090    3    0    1
 -2       647       999       651      1258
 -1      3091    3    0    1
 -2       999       647       997      1258
 -1      3092    3    0    1
 -2       647      1254       997      1258
 -1      3093    3    0    1
 -2       997       652       999      1258
 -1      3094    3    0    1
 -2       680       166       686      1262
 -1      3095    3    0    1
 -2       167       166       680      1262
 -1      3096    3    0    1
 -2       704      2173      2226      2522
 -1      3097    3    0    1
 -2       855      1367      2056      2139
 -1      3098    3    0    1
 -2      3088      3107      3112      3119
 -1      3099    3    0    1
 -2       672      1267       678       671
 -1      3100    3    0    1
 -2      1011      1267      1014       672
 -1      3101    3    0    1
 -2       672      1267      1014       678
 -1      3102    3    0    1
 -2       356      1452      1474      3125
 -1      3103    3    0    1
 -2      1562      1633      2411      2341
 -1      3104    3    0    1
 -2      2924      2358      2965      3001
 -1      3105    3    0    1
 -2      1197      2140      3085      3128
 -1      3106    3    0    1
 -2      1160       906      1433      3063
 -1      3107    3    0    1
 -2       674       342      1014      1267
 -1      3108    3    0    1
 -2      1437      2912      3101      3127
 -1      3109    3    0    1
 -2      1233       977      2495      3127
 -1      3110    3    0    1
 -2      2969      2495      3121      3127
 -1      3111    3    0    1
 -2      1401       446      1633      1770
 -1      3112    3    0    1
 -2       672      1267       671      1264
 -1      3113    3    0    1
 -2      1011      1267       672      1264
 -1      3114    3    0    1
 -2      1648      1964      2000      2122
 -1      3115    3    0    1
 -2      1690      1553      1713      2165
 -1      3116    3    0    1
 -2       668      1268       667      1259
 -1      3117    3    0    1
 -2      1008      1268       668      1259
 -1      3118    3    0    1
 -2      1594      1617      1689      2121
 -1      3119    3    0    1
 -2      1705      1601      1955      2005
 -1      3120    3    0    1
 -2      1026      1276       697      1029
 -1      3121    3    0    1
 -2       802       819      1843      2432
 -1      3122    3    0    1
 -2      1621      1679      1774      1808
 -1      3123    3    0    1
 -2      3098      1454      3117      3132
 -1      3124    3    0    1
 -2      1785      2097      2104      2191
 -1      3125    3    0    1
 -2      2916      1409      3099      3132
 -1      3126    3    0    1
 -2      1454       436      3117      3132
 -1      3127    3    0    1
 -2       436      1450      3117      3132
 -1      3128    3    0    1
 -2      1266      2718      2867      3118
 -1      3129    3    0    1
 -2      2430      2966      3094      3132
 -1      3130    3    0    1
 -2      1320      1082      2049      3132
 -1      3131    3    0    1
 -2      2966      2068      1454      3132
 -1      3132    3    0    1
 -2       185       697       698      1276
 -1      3133    3    0    1
 -2       702      1276       695      1029
 -1      3134    3    0    1
 -2      1026      1276       695      1273
 -1      3135    3    0    1
 -2       699      1277       691      1027
 -1      3136    3    0    1
 -2       700       187      1027      1277
 -1      3137    3    0    1
 -2      1038      1289       724      1040
 -1      3138    3    0    1
 -2       203       724      1038      1279
 -1      3139    3    0    1
 -2      1452      1513      3057      3079
 -1      3140    3    0    1
 -2      1436      3100      3146      3153
 -1      3141    3    0    1
 -2      1286      1427      1434      3153
 -1      3142    3    0    1
 -2       719      1287      1284      1042
 -1      3143    3    0    1
 -2      1042       719      1282      1284
 -1      3144    3    0    1
 -2       209       205       725      1285
 -1      3145    3    0    1
 -2       725       205       727      1285
 -1      3146    3    0    1
 -2       210       206       721      1283
 -1      3147    3    0    1
 -2       721      1041      1281      1283
 -1      3148    3    0    1
 -2       210       721      1281      1283
 -1      3149    3    0    1
 -2       205       725       727      1284
 -1      3150    3    0    1
 -2       727      1042      1282      1284
 -1      3151    3    0    1
 -2       205       727      1282      1284
 -1      3152    3    0    1
 -2       725       727      1046      1285
 -1      3153    3    0    1
 -2      1036       725      1046      1285
 -1      3154    3    0    1
 -2       734       205       213      1285
 -1      3155    3    0    1
 -2       205       734       727      1285
 -1      3156    3    0    1
 -2      1774      1621      1808      1820
 -1      3157    3    0    1
 -2      1435      1457      1498      3081
 -1      3158    3    0    1
 -2      2374      2618      2934      2938
 -1      3159    3    0    1
 -2      1445      1420      3125      3082
 -1      3160    3    0    1
 -2       727      1042      1284      1287
 -1      3161    3    0    1
 -2       725       727      1284      1287
 -1      3162    3    0    1
 -2       727       426      1042      1287
 -1      3163    3    0    1
 -2      2144       592      2580      2843
 -1      3164    3    0    1
 -2      1977       975      2127      2284
 -1      3165    3    0    1
 -2       208       722       424      1288
 -1      3166    3    0    1
 -2       721       208      1041      1288
 -1      3167    3    0    1
 -2       722       208       721      1288
 -1      3168    3    0    1
 -2      1634      1778      1792      2112
 -1      3169    3    0    1
 -2      1690      1692      1884      1959
 -1      3170    3    0    1
 -2      1038      1289       716      1279
 -1      3171    3    0    1
 -2       724       361      1040      1289
 -1      3172    3    0    1
 -2      1940      1887      1975      2433
 -1      3173    3    0    1
 -2       748      1296       218      1290
 -1      3174    3    0    1
 -2       218      1296       753       227
 -1      3175    3    0    1
 -2      1056      1296       748      1290
 -1      3176    3    0    1
 -2       220       758       751      1297
 -1      3177    3    0    1
 -2      1692      1690      1713      1959
 -1      3178    3    0    1
 -2       191      1447      1506      1519
 -1      3179    3    0    1
 -2      2230      2373      2910      2944
 -1      3180    3    0    1
 -2      1325       276      2988      3020
 -1      3181    3    0    1
 -2       742      1054       750      1299
 -1      3182    3    0    1
 -2      1295       749      1050      1299
 -1      3183    3    0    1
 -2      1050       749      1054      1299
 -1      3184    3    0    1
 -2      1054       742      1050      1299
 -1      3185    3    0    1
 -2       742      1295      1050      1299
 -1      3186    3    0    1
 -2       224       746       423      1300
 -1      3187    3    0    1
 -2       750      1300       742      1053
 -1      3188    3    0    1
 -2       745       224      1053      1300
 -1      3189    3    0    1
 -2       746       224       745      1300
 -1      3190    3    0    1
 -2      1051      1300       742      1294
 -1      3191    3    0    1
 -2       748      1292       753      1301
 -1      3192    3    0    1
 -2       228       748       753      1301
 -1      3193    3    0    1
 -2       747      1301       740      1052
 -1      3194    3    0    1
 -2       748       228      1052      1301
 -1      3195    3    0    1
 -2      1049      1301       740      1292
 -1      3196    3    0    1
 -2       765      1310      1067       774
 -1      3197    3    0    1
 -2      1066       764      1303      1306
 -1      3198    3    0    1
 -2      1311      1062       777      1307
 -1      3199    3    0    1
 -2       767      1311       771       766
 -1      3200    3    0    1
 -2      1062      1311      1065       767
 -1      3201    3    0    1
 -2       767      1311      1065       771
 -1      3202    3    0    1
 -2      1457      1440      3119      1483
 -1      3203    3    0    1
 -2      1554      1785      2104      2191
 -1      3204    3    0    1
 -2       950        80       952      1773
 -1      3205    3    0    1
 -2      1547      1557      1635      2113
 -1      3206    3    0    1
 -2      1031      2668      2937      3114
 -1      3207    3    0    1
 -2      1286      1426      1427      3114
 -1      3208    3    0    1
 -2      2668      1286      1427      3114
 -1      3209    3    0    1
 -2      2668      2967      3114      3153
 -1      3210    3    0    1
 -2       765      1310       764      1304
 -1      3211    3    0    1
 -2       965       357       968      1751
 -1      3212    3    0    1
 -2      2577      2941      2964      3104
 -1      3213    3    0    1
 -2      2941      2946      2931      2911
 -1      3214    3    0    1
 -2       767      1311       766      1307
 -1      3215    3    0    1
 -2      1062      1311       767      1307
 -1      3216    3    0    1
 -2      1083       797      1084      1314
 -1      3217    3    0    1
 -2       789      1083      1084      1314
 -1      3218    3    0    1
 -2       800       255       806      1314
 -1      3219    3    0    1
 -2       256       255       800      1314
 -1      3220    3    0    1
 -2       384       432      1656      1904
 -1      3221    3    0    1
 -2       937      1187      1853      1904
 -1      3222    3    0    1
 -2      1631       208      1885      2182
 -1      3223    3    0    1
 -2       391       927      2498      2822
 -1      3224    3    0    1
 -2       796       259      1085      1323
 -1      3225    3    0    1
 -2      1075      1322       796      1319
 -1      3226    3    0    1
 -2       869      1127       870      1763
 -1      3227    3    0    1
 -2       795      1322       802       787
 -1      3228    3    0    1
 -2       259       803       266      1323
 -1      3229    3    0    1
 -2       803       796      1316      1323
 -1      3230    3    0    1
 -2      1069       778      2632      2954
 -1      3231    3    0    1
 -2      1322      1075       796      1312
 -1      3232    3    0    1
 -2      1075      1322      1319       787
 -1      3233    3    0    1
 -2       294      1341      1831      2220
 -1      3234    3    0    1
 -2      2946      2931      2975      3104
 -1      3235    3    0    1
 -2      2946      2941      2931      3104
 -1      3236    3    0    1
 -2      3016      2985      3050      3051
 -1      3237    3    0    1
 -2       798      1321       791      1080
 -1      3238    3    0    1
 -2      1078      1321       791      1317
 -1      3239    3    0    1
 -2      1685      1906      2362      2600
 -1      3240    3    0    1
 -2      2989      3020      3052      3053
 -1      3241    3    0    1
 -2       881      1393       882      2010
 -1      3242    3    0    1
 -2      2020       400      2349      2529
 -1      3243    3    0    1
 -2       416       818       817      1333
 -1      3244    3    0    1
 -2       795      1322       787      1319
 -1      3245    3    0    1
 -2       796       259      1319      1322
 -1      3246    3    0    1
 -2      1075      1322       787      1312
 -1      3247    3    0    1
 -2       789      1316      1076      1323
 -1      3248    3    0    1
 -2      1085       789      1076      1323
 -1      3249    3    0    1
 -2      1095       821      1096      1326
 -1      3250    3    0    1
 -2       813      1095      1096      1326
 -1      3251    3    0    1
 -2       830       281       289      1326
 -1      3252    3    0    1
 -2       281       830       824      1326
 -1      3253    3    0    1
 -2       729       361      1289       211
 -1      3254    3    0    1
 -2       820       279       827      1328
 -1      3255    3    0    1
 -2       283       279       820      1328
 -1      3256    3    0    1
 -2      1090      1333       818      1092
 -1      3257    3    0    1
 -2       282       818      1090      1329
 -1      3258    3    0    1
 -2       281       824      1089      1330
 -1      3259    3    0    1
 -2      1814      1816      1994      2080
 -1      3260    3    0    1
 -2      1087      1334       820      1331
 -1      3261    3    0    1
 -2       826       811       819      1331
 -1      3262    3    0    1
 -2       820       284      1097      1335
 -1      3263    3    0    1
 -2      1557      1547      1635      1962
 -1      3264    3    0    1
 -2      1571      1744      2092      2136
 -1      3265    3    0    1
 -2       989       631      2036      2223
 -1      3266    3    0    1
 -2       827       820      1328      1335
 -1      3267    3    0    1
 -2       284       827       285      1335
 -1      3268    3    0    1
 -2      1087      1334      1331       811
 -1      3269    3    0    1
 -2      1334      1087       820      1324
 -1      3270    3    0    1
 -2      1090      1333       815      1329
 -1      3271    3    0    1
 -2       818       418      1092      1333
 -1      3272    3    0    1
 -2       818       416       418      1333
 -1      3273    3    0    1
 -2      1121       865      1378      1655
 -1      3274    3    0    1
 -2      1087      1334       811      1324
 -1      3275    3    0    1
 -2       820       284      1331      1334
 -1      3276    3    0    1
 -2      1088      1335       814      1328
 -1      3277    3    0    1
 -2      1399      1150      1931      2085
 -1      3278    3    0    1
 -2       101       962      2379      2420
 -1      3279    3    0    1
 -2       301       446      1770      1948
 -1      3280    3    0    1
 -2      1781      1661      2076      2162
 -1      3281    3    0    1
 -2      1776      1736      1837      1838
 -1      3282    3    0    1
 -2       273       380      1899      2588
 -1      3283    3    0    1
 -2       847      1884      1362      1959
 -1      3284    3    0    1
 -2      2196      1780      2479      2677
 -1      3285    3    0    1
 -2      1645      2021      2378      2610
 -1      3286    3    0    1
 -2      2008      2006      2051      2327
 -1      3287    3    0    1
 -2      1747       704      2226      2522
 -1      3288    3    0    1
 -2      1977      1981      2072      2127
 -1      3289    3    0    1
 -2       296      1103      1364      1911
 -1      3290    3    0    1
 -2       975      1977      2127      2200
 -1      3291    3    0    1
 -2      1399       441       443      1895
 -1      3292    3    0    1
 -2      1620      1608      1817      1879
 -1      3293    3    0    1
 -2      1981      1908      2072      2127
 -1      3294    3    0    1
 -2      2077      2318      2343      2627
 -1      3295    3    0    1
 -2       591      1751      2118      2412
 -1      3296    3    0    1
 -2      1943      1945      2638      2871
 -1      3297    3    0    1
 -2      2125      2261      2346      2386
 -1      3298    3    0    1
 -2      1668      1547      1983      2594
 -1      3299    3    0    1
 -2      1028      1683      1846      2091
 -1      3300    3    0    1
 -2       297       326      1115      2001
 -1      3301    3    0    1
 -2      3078      3071      3083      3084
 -1      3302    3    0    1
 -2      2292      1532      2360      2764
 -1      3303    3    0    1
 -2      1619      2126      2134      2203
 -1      3304    3    0    1
 -2      1654      1525      1866      2386
 -1      3305    3    0    1
 -2      2197      2752      3111      3141
 -1      3306    3    0    1
 -2       197      1034      2241      2467
 -1      3307    3    0    1
 -2       270      1084      2363      2568
 -1      3308    3    0    1
 -2       408       296      1688      1910
 -1      3309    3    0    1
 -2      1029      1846      1882      1937
 -1      3310    3    0    1
 -2      1030      1747      2271      2467
 -1      3311    3    0    1
 -2      2495      1233      2912      2973
 -1      3312    3    0    1
 -2        33        35       917      2700
 -1      3313    3    0    1
 -2       942       395      2107      2178
 -1      3314    3    0    1
 -2       286       386      1097      1832
 -1      3315    3    0    1
 -2      2441      2192      2442      2665
 -1      3316    3    0    1
 -2       134       987      2018      2619
 -1      3317    3    0    1
 -2       359      1052      2222      2597
 -1      3318    3    0    1
 -2      1794      1700      1860      1934
 -1      3319    3    0    1
 -2       394      1719      2069      2242
 -1      3320    3    0    1
 -2      1175       487      2268      2675
 -1      3321    3    0    1
 -2       846       845      1897      2108
 -1      3322    3    0    1
 -2       532       929      1197      2288
 -1      3323    3    0    1
 -2      1558      1947      2095      2256
 -1      3324    3    0    1
 -2      1004      2166      2301      2547
 -1      3325    3    0    1
 -2       906       466       459      2273
 -1      3326    3    0    1
 -2       949      1745      2017      2535
 -1      3327    3    0    1
 -2      1554      1617      1689      1714
 -1      3328    3    0    1
 -2      1598      1703      1994      2429
 -1      3329    3    0    1
 -2      1814      1531      1905      1970
 -1      3330    3    0    1
 -2      1584      1854      2023      2053
 -1      3331    3    0    1
 -2       834      1338      1651      1736
 -1      3332    3    0    1
 -2      2500      2096      2630      2708
 -1      3333    3    0    1
 -2      1848      1646      1869      2287
 -1      3334    3    0    1
 -2      1663       185      1715      1900
 -1      3335    3    0    1
 -2      1413      1197      1419      3128
 -1      3336    3    0    1
 -2      1408      1635      1695      1949
 -1      3337    3    0    1
 -2      1668      1715      1968      1983
 -1      3338    3    0    1
 -2       562       556       953      2090
 -1      3339    3    0    1
 -2      2172       511      2269      2270
 -1      3340    3    0    1
 -2      1621      1688      1808      1820
 -1      3341    3    0    1
 -2      1335      1097       831      2079
 -1      3342    3    0    1
 -2       373       370      2227      2464
 -1      3343    3    0    1
 -2      1620      1756      1879      1921
 -1      3344    3    0    1
 -2      1276       185      2221      2334
 -1      3345    3    0    1
 -2      1223       349      2810      2888
 -1      3346    3    0    1
 -2      1600      1613      2043      2786
 -1      3347    3    0    1
 -2       941       543      1926      2296
 -1      3348    3    0    1
 -2       394      1719      2242      2398
 -1      3349    3    0    1
 -2      1361       847      1360      1713
 -1      3350    3    0    1
 -2      1783      2111      2491      2528
 -1      3351    3    0    1
 -2      1740      1663      2162      2375
 -1      3352    3    0    1
 -2      2972      3086      3103      1449
 -1      3353    3    0    1
 -2       105       963      1222      2852
 -1      3354    3    0    1
 -2        45       925      1187      2260
 -1      3355    3    0    1
 -2      1549      1998      2120      2415
 -1      3356    3    0    1
 -2      1854      1584      1916      2053
 -1      3357    3    0    1
 -2       879      2124      2469      2621
 -1      3358    3    0    1
 -2       259      1319      1899      2354
 -1      3359    3    0    1
 -2       866       865      1626      1784
 -1      3360    3    0    1
 -2      1633      2016      2066      2074
 -1      3361    3    0    1
 -2      1152       295      1142      2701
 -1      3362    3    0    1
 -2      1840      1693      1956      2052
 -1      3363    3    0    1
 -2      1648      1538      1934      2094
 -1      3364    3    0    1
 -2       939      1658      1678      1686
 -1      3365    3    0    1
 -2      2372      2187      2925      2961
 -1      3366    3    0    1
 -2        67      1821      2017      2776
 -1      3367    3    0    1
 -2      1113      1848      1869      2287
 -1      3368    3    0    1
 -2       855      1369       856      1639
 -1      3369    3    0    1
 -2      1109       853      1951      2132
 -1      3370    3    0    1
 -2      1013      1015      2062      2735
 -1      3371    3    0    1
 -2       342      1829      2081      2396
 -1      3372    3    0    1
 -2      1559       393      1667      2084
 -1      3373    3    0    1
 -2       520       931      1926      2296
 -1      3374    3    0    1
 -2      1533      1659      1670      2141
 -1      3375    3    0    1
 -2      1627      1594      1711      1946
 -1      3376    3    0    1
 -2       321      1098      1338      1684
 -1      3377    3    0    1
 -2      1601      1609      1680      2005
 -1      3378    3    0    1
 -2      1998      1614      2343      2611
 -1      3379    3    0    1
 -2       975       606      1957      2284
 -1      3380    3    0    1
 -2       344       991      1857      2619
 -1      3381    3    0    1
 -2       819      1331      1843      1888
 -1      3382    3    0    1
 -2      1569      2184      2248      2569
 -1      3383    3    0    1
 -2      1199      1658      2083      2236
 -1      3384    3    0    1
 -2       384      1187      1904      1939
 -1      3385    3    0    1
 -2      1933      1523      2351      2546
 -1      3386    3    0    1
 -2       331      1245      1693      2209
 -1      3387    3    0    1
 -2      1607      1851      1856      2262
 -1      3388    3    0    1
 -2      1878      1651      2233      2316
 -1      3389    3    0    1
 -2       466      2273      2599      2614
 -1      3390    3    0    1
 -2      1637      2194      2474      2564
 -1      3391    3    0    1
 -2      1600      1551      2213      2484
 -1      3392    3    0    1
 -2       604       610      1662      2582
 -1      3393    3    0    1
 -2      1858      1564      2352      2638
 -1      3394    3    0    1
 -2      1881      1376      1889      2001
 -1      3395    3    0    1
 -2       839       840      1774      1820
 -1      3396    3    0    1
 -2      1550      1563      1892      2030
 -1      3397    3    0    1
 -2      2179      2151      2549      2641
 -1      3398    3    0    1
 -2      1625      1733      2125      2263
 -1      3399    3    0    1
 -2       224      1053      2071      2410
 -1      3400    3    0    1
 -2      1553      1690      1692      1988
 -1      3401    3    0    1
 -2       640      2305      2674      2833
 -1      3402    3    0    1
 -2      2092      1744      2138      2473
 -1      3403    3    0    1
 -2      1622      1753      1897      2360
 -1      3404    3    0    1
 -2      1408       887      1143      1958
 -1      3405    3    0    1
 -2       320      1106      1365      2080
 -1      3406    3    0    1
 -2       286       386      1832      2445
 -1      3407    3    0    1
 -2       312      1602      1672      2245
 -1      3408    3    0    1
 -2      1647      1626      1772      2158
 -1      3409    3    0    1
 -2      1703      1589      1994      2429
 -1      3410    3    0    1
 -2      1095      2363      2557      2568
 -1      3411    3    0    1
 -2      1606      1754      1756      2180
 -1      3412    3    0    1
 -2      1522      1840      1956      2052
 -1      3413    3    0    1
 -2      1956      1834      2036      2145
 -1      3414    3    0    1
 -2      1289      1040      2280      2597
 -1      3415    3    0    1
 -2      1585      2925      2926      3108
 -1      3416    3    0    1
 -2      1543      1723      1737      2061
 -1      3417    3    0    1
 -2      2352      1942      2372      2572
 -1      3418    3    0    1
 -2      2178      2156      1972       955
 -1      3419    3    0    1
 -2      1550      1616      1892      2188
 -1      3420    3    0    1
 -2       913       915      2850      2906
 -1      3421    3    0    1
 -2       730      1043      1836      2237
 -1      3422    3    0    1
 -2      1536      1710      1790      1898
 -1      3423    3    0    1
 -2      1378      1700      1655      1870
 -1      3424    3    0    1
 -2      1735      1607      2004      2233
 -1      3425    3    0    1
 -2      1030       704      2522      2544
 -1      3426    3    0    1
 -2      2106      1593      2475      2800
 -1      3427    3    0    1
 -2       682      2050      2589      2649
 -1      3428    3    0    1
 -2       361       211      1047      2322
 -1      3429    3    0    1
 -2      1595      1629      2111      2491
 -1      3430    3    0    1
 -2      1765      1470      2991      3130
 -1      3431    3    0    1
 -2       293      1366       322      2376
 -1      3432    3    0    1
 -2      1761      1637      2150      2474
 -1      3433    3    0    1
 -2      1800       978      2019      2503
 -1      3434    3    0    1
 -2       389        15      1163      2060
 -1      3435    3    0    1
 -2       325      1362       447      1844
 -1      3436    3    0    1
 -2       298      1356       438      1775
 -1      3437    3    0    1
 -2      1123      1380      1672      2101
 -1      3438    3    0    1
 -2      2318      1125      2414      2737
 -1      3439    3    0    1
 -2      1670      1533      2141      2171
 -1      3440    3    0    1
 -2      2037       487      2268      2715
 -1      3441    3    0    1
 -2      1938      1257      2306      2440
 -1      3442    3    0    1
 -2      1846      1029      1936      1937
 -1      3443    3    0    1
 -2      1940      1806      2087      2160
 -1      3444    3    0    1
 -2      1572      2038      2333      2662
 -1      3445    3    0    1
 -2      1824      1692      1988      2031
 -1      3446    3    0    1
 -2      1222      1855      2417      2852
 -1      3447    3    0    1
 -2      2650      2212      2711      2740
 -1      3448    3    0    1
 -2       330      1798      2054      2439
 -1      3449    3    0    1
 -2      1833       243      1894      2849
 -1      3450    3    0    1
 -2       965      1751      2412      2464
 -1      3451    3    0    1
 -2      1403       298       438      1775
 -1      3452    3    0    1
 -2       951       558      1923      2567
 -1      3453    3    0    1
 -2      1700      1100      1794      1819
 -1      3454    3    0    1
 -2       348       351       963      1578
 -1      3455    3    0    1
 -2      1993      1734      2393      2775
 -1      3456    3    0    1
 -2      1288       424      1885      2598
 -1      3457    3    0    1
 -2      1701      1757      1915      2790
 -1      3458    3    0    1
 -2      1356      1617      1775      2121
 -1      3459    3    0    1
 -2      2452      1666      2690      2695
 -1      3460    3    0    1
 -2      1782      1573      2059      2745
 -1      3461    3    0    1
 -2      2524       224      2714      2814
 -1      3462    3    0    1
 -2      1608      1647      1772      2158
 -1      3463    3    0    1
 -2       466       906      1929      2273
 -1      3464    3    0    1
 -2      1335       284      1832      2079
 -1      3465    3    0    1
 -2       839      1679      1808      1820
 -1      3466    3    0    1
 -2      1353      1356      1594      1711
 -1      3467    3    0    1
 -2      1597      1199      1752      2236
 -1      3468    3    0    1
 -2      1673      1588      1955      2593
 -1      3469    3    0    1
 -2       177      1020      1996      2770
 -1      3470    3    0    1
 -2      1577      1661      2143      2162
 -1      3471    3    0    1
 -2      1536      1581      1710      1898
 -1      3472    3    0    1
 -2      1043       730       723      2237
 -1      3473    3    0    1
 -2      2013      2009      2129      2584
 -1      3474    3    0    1
 -2       326       297      1863      2001
 -1      3475    3    0    1
 -2      1392      1695      1913      1950
 -1      3476    3    0    1
 -2       296      1364      1910      1911
 -1      3477    3    0    1
 -2       427      2300      2302      2726
 -1      3478    3    0    1
 -2      1712      1708      2220      2681
 -1      3479    3    0    1
 -2      1721      1575      1818      2082
 -1      3480    3    0    1
 -2      1629      1782      1783      2587
 -1      3481    3    0    1
 -2      2531      1258      2684      2766
 -1      3482    3    0    1
 -2       187       193      1035      1618
 -1      3483    3    0    1
 -2      1595      2111      2275      2491
 -1      3484    3    0    1
 -2      1860      2266      2721      2860
 -1      3485    3    0    1
 -2      1749      1829      2315      2691
 -1      3486    3    0    1
 -2      2626      1574      2628      2846
 -1      3487    3    0    1
 -2      1146      1682      1775      1924
 -1      3488    3    0    1
 -2      1609      1680      2005      2316
 -1      3489    3    0    1
 -2      2402      1151      2759      2858
 -1      3490    3    0    1
 -2       119      1662      2019      2480
 -1      3491    3    0    1
 -2      1286      1043       723      2237
 -1      3492    3    0    1
 -2        32        38       919      2255
 -1      3493    3    0    1
 -2      1846      1029      1882      1980
 -1      3494    3    0    1
 -2      1594      1617      1682      1689
 -1      3495    3    0    1
 -2      1547      1663      1557      1668
 -1      3496    3    0    1
 -2      1561       535      1678      2236
 -1      3497    3    0    1
 -2      1828      1748      1851      1856
 -1      3498    3    0    1
 -2      1974       270      2486      2568
 -1      3499    3    0    1
 -2      2269      2172      2270      2555
 -1      3500    3    0    1
 -2      1636      1540      2148      2636
 -1      3501    3    0    1
 -2       403      1908      1982      2072
 -1      3502    3    0    1
 -2       353       156      1583      2667
 -1      3503    3    0    1
 -2       831       808      2336      2557
 -1      3504    3    0    1
 -2       702      1276      1029      1882
 -1      3505    3    0    1
 -2      1841      2231      2489      2530
 -1      3506    3    0    1
 -2      1568      2005      2233      2316
 -1      3507    3    0    1
 -2       394      1199      2083      2398
 -1      3508    3    0    1
 -2      1595      2275      2388      2491
 -1      3509    3    0    1
 -2      1097      1163      1542      2461
 -1      3510    3    0    1
 -2       843      1355       844      1704
 -1      3511    3    0    1
 -2      1103      1364      1911      2394
 -1      3512    3    0    1
 -2      1020      1996      2770      2883
 -1      3513    3    0    1
 -2      1125       407      2414      2737
 -1      3514    3    0    1
 -2      1561       535      1658      1678
 -1      3515    3    0    1
 -2      2347      1066      2750      2791
 -1      3516    3    0    1
 -2      1661      1663      2143      2162
 -1      3517    3    0    1
 -2      1594      1627      1711      2121
 -1      3518    3    0    1
 -2       807       808      1084      2710
 -1      3519    3    0    1
 -2      1751       357      2504      2778
 -1      3520    3    0    1
 -2      2219      1625      2407      2678
 -1      3521    3    0    1
 -2      1028       346      1726      2317
 -1      3522    3    0    1
 -2      1934      1860      1990      2094
 -1      3523    3    0    1
 -2       931       520      1926      2422
 -1      3524    3    0    1
 -2      1617      1403      1775      1924
 -1      3525    3    0    1
 -2      1356       298      1353      1775
 -1      3526    3    0    1
 -2      1971      1841      2231      2489
 -1      3527    3    0    1
 -2       939      1198      1623      1678
 -1      3528    3    0    1
 -2      1288      1041      1835      1925
 -1      3529    3    0    1
 -2       849      1911      2364      2394
 -1      3530    3    0    1
 -2      1695      1635      1962      2113
 -1      3531    3    0    1
 -2       190       196      1033      2337
 -1      3532    3    0    1
 -2      1830       559      2021      2712
 -1      3533    3    0    1
 -2       122      1880      2110      2206
 -1      3534    3    0    1
 -2      1567      2381      2585      2822
 -1      3535    3    0    1
 -2      1356      1353      1594      1775
 -1      3536    3    0    1
 -2      1017      1996      2642      2744
 -1      3537    3    0    1
 -2      1573      1724      2190      2210
 -1      3538    3    0    1
 -2      1893       318      1975      1995
 -1      3539    3    0    1
 -2       359       212      2597      2713
 -1      3540    3    0    1
 -2      1759      1683      2091      2189
 -1      3541    3    0    1
 -2      2069      1920      2170      2438
 -1      3542    3    0    1
 -2       938       392      1669      1752
 -1      3543    3    0    1
 -2      1834      1522      1956      2052
 -1      3544    3    0    1
 -2       357       106       961      2778
 -1      3545    3    0    1
 -2      1616      1579      1790      1890
 -1      3546    3    0    1
 -2       190      2271       196      2467
 -1      3547    3    0    1
 -2      1850      1565      2151      2179
 -1      3548    3    0    1
 -2       881       882      1781      1822
 -1      3549    3    0    1
 -2      1872      2069      2170      2242
 -1      3550    3    0    1
 -2      1376       861       862      1889
 -1      3551    3    0    1
 -2      1730      1652      1883      2257
 -1      3552    3    0    1
 -2      1693      1245      2029      2209
 -1      3553    3    0    1
 -2      1707       980      1930      2545
 -1      3554    3    0    1
 -2       559      1645      1830      2021
 -1      3555    3    0    1
 -2      1645      1222      2417      2529
 -1      3556    3    0    1
 -2       392      1556      1669      1752
 -1      3557    3    0    1
 -2      1187       384      1656      1939
 -1      3558    3    0    1
 -2      2129      1671      2136      2265
 -1      3559    3    0    1
 -2        70        71       941      1986
 -1      3560    3    0    1
 -2      1589      1703      1814      1905
 -1      3561    3    0    1
 -2      1393       881      1392      2010
 -1      3562    3    0    1
 -2       976       974      2110      2206
 -1      3563    3    0    1
 -2       706      1031      3004      3055
 -1      3564    3    0    1
 -2      1350      2721      2860      2870
 -1      3565    3    0    1
 -2      2098      2345      2751      2755
 -1      3566    3    0    1
 -2      1949       896      1958      2340
 -1      3567    3    0    1
 -2      3109      1585      3128      3136
 -1      3568    3    0    1
 -2      1362      1824      1844      1884
 -1      3569    3    0    1
 -2      1105      1107      1681      1684
 -1      3570    3    0    1
 -2      1586      1554      2191      2677
 -1      3571    3    0    1
 -2      1757      2046      2439      2790
 -1      3572    3    0    1
 -2      1289       211      2322      2597
 -1      3573    3    0    1
 -2      1176      2615      2897      2908
 -1      3574    3    0    1
 -2       906       459      1160      2273
 -1      3575    3    0    1
 -2      1641      2016      2066      2411
 -1      3576    3    0    1
 -2       211       361      1289      2322
 -1      3577    3    0    1
 -2      1545      1584      1915      1916
 -1      3578    3    0    1
 -2      1630      1650      2482      2145
 -1      3579    3    0    1
 -2      1372       306      1373      1709
 -1      3580    3    0    1
 -2      1735      1651      1736      1838
 -1      3581    3    0    1
 -2      1738      1698      1823      1932
 -1      3582    3    0    1
 -2      1730       399      1921      2257
 -1      3583    3    0    1
 -2      2077      2168      2627      2693
 -1      3584    3    0    1
 -2       393       391      1186      2702
 -1      3585    3    0    1
 -2      1760       562      2090      2534
 -1      3586    3    0    1
 -2      1918      2114      2616      2673
 -1      3587    3    0    1
 -2       243       246      1833      1894
 -1      3588    3    0    1
 -2       848      1690      1713      1948
 -1      3589    3    0    1
 -2       392      1556      1752      2242
 -1      3590    3    0    1
 -2      1682      1617      1775      1924
 -1      3591    3    0    1
 -2      1033      2337      2505      2809
 -1      3592    3    0    1
 -2       968       978      1800      2199
 -1      3593    3    0    1
 -2      1793      2228      2306      2889
 -1      3594    3    0    1
 -2      1340       835      1637      1761
 -1      3595    3    0    1
 -2       223       425      1576      2669
 -1      3596    3    0    1
 -2       105       400       966      2403
 -1      3597    3    0    1
 -2       175      2350      2735      2779
 -1      3598    3    0    1
 -2      1777      1714      2103      2104
 -1      3599    3    0    1
 -2      1538      1539      2000      2105
 -1      3600    3    0    1
 -2      1635      1557      1962      2113
 -1      3601    3    0    1
 -2       847      1713      1884      1959
 -1      3602    3    0    1
 -2       196       346      1033      2505
 -1      3603    3    0    1
 -2      1002       658      2313      2718
 -1      3604    3    0    1
 -2      1851      1828      1856      2262
 -1      3605    3    0    1
 -2      1406       885      1139      2672
 -1      3606    3    0    1
 -2       664      1005      2646      2656
 -1      3607    3    0    1
 -2      1893      1940      1975      2157
 -1      3608    3    0    1
 -2      1301       230      2222      2704
 -1      3609    3    0    1
 -2       726      1706      1871      1922
 -1      3610    3    0    1
 -2       538       532       940      1978
 -1      3611    3    0    1
 -2       446      1633      1770      1948
 -1      3612    3    0    1
 -2      1362       325      1102      1844
 -1      3613    3    0    1
 -2      1528      2161      2277      2325
 -1      3614    3    0    1
 -2       952       559      1773      2712
 -1      3615    3    0    1
 -2      1200      1821      1861      2017
 -1      3616    3    0    1
 -2      1549      2120      2319      2415
 -1      3617    3    0    1
 -2       161       157      1256      1630
 -1      3618    3    0    1
 -2      1530      1649      2266      2279
 -1      3619    3    0    1
 -2      2738       798      2839      2895
 -1      3620    3    0    1
 -2      1539      1626      1647      1784
 -1      3621    3    0    1
 -2      1776      1837      2376      1927
 -1      3622    3    0    1
 -2       915        27      2806      2906
 -1      3623    3    0    1
 -2       760      1059      2436      2451
 -1      3624    3    0    1
 -2       654      1630      1902      2204
 -1      3625    3    0    1
 -2       852       851      1681      2169
 -1      3626    3    0    1
 -2      1012       675      2589      2684
 -1      3627    3    0    1
 -2      2152      1945      2618      2729
 -1      3628    3    0    1
 -2      1969       877      1976      2359
 -1      3629    3    0    1
 -2      1127       869      1125      1763
 -1      3630    3    0    1
 -2      1791      1627      1946      2218
 -1      3631    3    0    1
 -2      1685      2246      2553      2600
 -1      3632    3    0    1
 -2       212      1047      2322      2713
 -1      3633    3    0    1
 -2      1783      1573      2465      2601
 -1      3634    3    0    1
 -2       420      2246      2363      2768
 -1      3635    3    0    1
 -2      1595      2388      2661      2666
 -1      3636    3    0    1
 -2      1363      1816      2080      2395
 -1      3637    3    0    1
 -2       884      1397      1796      2239
 -1      3638    3    0    1
 -2      1872      1534      2069      2455
 -1      3639    3    0    1
 -2      1785       331      2097      2191
 -1      3640    3    0    1
 -2      1616      1550      1657      2297
 -1      3641    3    0    1
 -2       869      1381      1126      1763
 -1      3642    3    0    1
 -2      1984      1919      2595      2598
 -1      3643    3    0    1
 -2       385      1187      1939      2260
 -1      3644    3    0    1
 -2       881       882      1950      2010
 -1      3645    3    0    1
 -2      2066      2016      2341      2411
 -1      3646    3    0    1
 -2      1310      1067       774      2253
 -1      3647    3    0    1
 -2      1542      1163      2060      2461
 -1      3648    3    0    1
 -2      1548        71      1702      1746
 -1      3649    3    0    1
 -2       272       383      2324      2647
 -1      3650    3    0    1
 -2       308      1378      1700      1794
 -1      3651    3    0    1
 -2       877       878      1969      1976
 -1      3652    3    0    1
 -2      1135       877      1133      1976
 -1      3653    3    0    1
 -2       438      1356      1617      1775
 -1      3654    3    0    1
 -2      1679       839      1774      1820
 -1      3655    3    0    1
 -2       141       336      2367      2655
 -1      3656    3    0    1
 -2      2779      1013      2884      2890
 -1      3657    3    0    1
 -2      1054       225      2494      2807
 -1      3658    3    0    1
 -2      1947      2095      2256      2297
 -1      3659    3    0    1
 -2       534       535      1597      1678
 -1      3660    3    0    1
 -2      1622      1762      2224      2886
 -1      3661    3    0    1
 -2      1716      1688      1910      1911
 -1      3662    3    0    1
 -2      2166      2305      2652      2833
 -1      3663    3    0    1
 -2      1595      1629      1782      1783
 -1      3664    3    0    1
 -2      1932      1565      1993      2128
 -1      3665    3    0    1
 -2      1000      1849      1902      2055
 -1      3666    3    0    1
 -2      1652      1730      1883      1965
 -1      3667    3    0    1
 -2      1958      1949      2340      2739
 -1      3668    3    0    1
 -2      1379      1120      1784      2193
 -1      3669    3    0    1
 -2       350       978      2199      2503
 -1      3670    3    0    1
 -2      1607      1735      1838      2233
 -1      3671    3    0    1
 -2      1547      1557      1740      1962
 -1      3672    3    0    1
 -2      1735      1651      1838      2233
 -1      3673    3    0    1
 -2       556       550       562      3002
 -1      3674    3    0    1
 -2      1300       750       752      1877
 -1      3675    3    0    1
 -2      1806      2087      2160      2377
 -1      3676    3    0    1
 -2      1868      1719      2438      2490
 -1      3677    3    0    1
 -2      1708      1831      2220      2681
 -1      3678    3    0    1
 -2      1894      1540      2753      2849
 -1      3679    3    0    1
 -2      1125      1127      2318      2414
 -1      3680    3    0    1
 -2      1690       848      1713      1884
 -1      3681    3    0    1
 -2       883      2234      2239      2371
 -1      3682    3    0    1
 -2      1619      2129      2136      2265
 -1      3683    3    0    1
 -2      1621      1688      1820      1910
 -1      3684    3    0    1
 -2      1575      1721      1812      2082
 -1      3685    3    0    1
 -2      1881      1581      1889      2002
 -1      3686    3    0    1
 -2       311      1698      1738      2775
 -1      3687    3    0    1
 -2      1609      1601      1681      2169
 -1      3688    3    0    1
 -2       327       306      1372      1709
 -1      3689    3    0    1
 -2      1651      1735      1878      2233
 -1      3690    3    0    1
 -2      1579      1536      1790      1890
 -1      3691    3    0    1
 -2      1243       990       627      1779
 -1      3692    3    0    1
 -2      1842      1806      2160      2377
 -1      3693    3    0    1
 -2      2026       392      2069      2242
 -1      3694    3    0    1
 -2       833      1338      1098      1651
 -1      3695    3    0    1
 -2      1397       883      1396      2239
 -1      3696    3    0    1
 -2       808      1084      2336      2557
 -1      3697    3    0    1
 -2      2591       332      2699      2884
 -1      3698    3    0    1
 -2       307       311      1738      2775
 -1      3699    3    0    1
 -2      1082      1409      1424      3038
 -1      3700    3    0    1
 -2       157       160      1001      2868
 -1      3701    3    0    1
 -2      1376      1115      1889      2001
 -1      3702    3    0    1
 -2      2910      2230      2804      2722
 -1      3703    3    0    1
 -2      1631      1525      1654      2073
 -1      3704    3    0    1
 -2      1610      1646      1848      1909
 -1      3705    3    0    1
 -2      1628       419      1767      2320
 -1      3706    3    0    1
 -2      1793      1862      2228      2803
 -1      3707    3    0    1
 -2      1841      2034      2508      2609
 -1      3708    3    0    1
 -2      1584      1545      1798      1854
 -1      3709    3    0    1
 -2       835       836      1637      1761
 -1      3710    3    0    1
 -2      2095      1638      2256      2297
 -1      3711    3    0    1
 -2      2202      2353      2481      2762
 -1      3712    3    0    1
 -2      1035       214      1044      2536
 -1      3713    3    0    1
 -2      3092      1423      1464      3118
 -1      3714    3    0    1
 -2      1058       760      2252      2451
 -1      3715    3    0    1
 -2      1744      1571      2092      2138
 -1      3716    3    0    1
 -2      1591      1561      1658      1686
 -1      3717    3    0    1
 -2      1683      1028      1726      2317
 -1      3718    3    0    1
 -2      1559       393      2084      2390
 -1      3719    3    0    1
 -2      2203       316      2473      2543
 -1      3720    3    0    1
 -2      1703      1814      1905      1970
 -1      3721    3    0    1
 -2        86       950      1875      2281
 -1      3722    3    0    1
 -2       881       882      1822      1950
 -1      3723    3    0    1
 -2       351       348       967      1578
 -1      3724    3    0    1
 -2      1197       929      2140      2288
 -1      3725    3    0    1
 -2       556       538      1803      2017
 -1      3726    3    0    1
 -2       532       538      1861      1978
 -1      3727    3    0    1
 -2      1597      1669      1731      1809
 -1      3728    3    0    1
 -2      1198      1623      1678      1746
 -1      3729    3    0    1
 -2      1729      1640      1897      2108
 -1      3730    3    0    1
 -2      2380      1067      2499      2509
 -1      3731    3    0    1
 -2       835      1341       836      1761
 -1      3732    3    0    1
 -2       895       886      2357      2759
 -1      3733    3    0    1
 -2      1692      1553      1988      2086
 -1      3734    3    0    1
 -2      2040      1596      2427      2576
 -1      3735    3    0    1
 -2      2264      1042      2650      2711
 -1      3736    3    0    1
 -2      1947      1616      2095      2297
 -1      3737    3    0    1
 -2      1710      1579      1790      1898
 -1      3738    3    0    1
 -2      1046      2487      2578      2657
 -1      3739    3    0    1
 -2      1982      1908      2128      2517
 -1      3740    3    0    1
 -2      1730      1694      1879      1883
 -1      3741    3    0    1
 -2      1582      1675      1777      2103
 -1      3742    3    0    1
 -2      2142      1333      2431      2454
 -1      3743    3    0    1
 -2      1654      1631      1885      1987
 -1      3744    3    0    1
 -2       395      1591      1658      1686
 -1      3745    3    0    1
 -2      1543      1887      2061      2617
 -1      3746    3    0    1
 -2      1592      1648      1964      2099
 -1      3747    3    0    1
 -2        55      1702      2041      2296
 -1      3748    3    0    1
 -2      2531      1012      2589      2684
 -1      3749    3    0    1
 -2      1199       938       535      1597
 -1      3750    3    0    1
 -2      1666      2452      2554      2682
 -1      3751    3    0    1
 -2       319      1891      2224      2356
 -1      3752    3    0    1
 -2      1911      1910      2382      2394
 -1      3753    3    0    1
 -2      2450      1188      2845      2900
 -1      3754    3    0    1
 -2      1199       938      1597      1752
 -1      3755    3    0    1
 -2      1335      1085      1766      2660
 -1      3756    3    0    1
 -2      1352      1794      1819      1860
 -1      3757    3    0    1
 -2      1553      1562      1813      2100
 -1      3758    3    0    1
 -2      1747       704      1882      2226
 -1      3759    3    0    1
 -2      1404       888      1144      2502
 -1      3760    3    0    1
 -2       849       850      2394      2395
 -1      3761    3    0    1
 -2        86       395      2107      2156
 -1      3762    3    0    1
 -2       339      1029      1546      1937
 -1      3763    3    0    1
 -2      1650      1834      1956      2145
 -1      3764    3    0    1
 -2      1923      2369      2567      2680
 -1      3765    3    0    1
 -2      1786      1807      1931      2085
 -1      3766    3    0    1
 -2      1694      1620      1756      1879
 -1      3767    3    0    1
 -2      1880       122      1966      2144
 -1      3768    3    0    1
 -2      1556       392      2026      2242
 -1      3769    3    0    1
 -2      1554      1586      1946      2218
 -1      3770    3    0    1
 -2      1692      1988      2031      2086
 -1      3771    3    0    1
 -2       185      1663      1715      1968
 -1      3772    3    0    1
 -2      1363       320      1104      2080
 -1      3773    3    0    1
 -2         9       904      1161      2383
 -1      3774    3    0    1
 -2      1858      1564      1941      1944
 -1      3775    3    0    1
 -2      1900      1577      2143      2162
 -1      3776    3    0    1
 -2       784       783      2583      2831
 -1      3777    3    0    1
 -2      2011      2070      2184      2248
 -1      3778    3    0    1
 -2      1987      1631      2182      2662
 -1      3779    3    0    1
 -2      1550      1616      1657      1892
 -1      3780    3    0    1
 -2      1105       321      1107      1684
 -1      3781    3    0    1
 -2      1674      1552      2031      2086
 -1      3782    3    0    1
 -2       878       877      1969      2359
 -1      3783    3    0    1
 -2      2021      1645      2417      2529
 -1      3784    3    0    1
 -2       802       819      1331      1843
 -1      3785    3    0    1
 -2      2352      2187      2372      2931
 -1      3786    3    0    1
 -2      1373       859      1372      1997
 -1      3787    3    0    1
 -2      1338       833       834      1651
 -1      3788    3    0    1
 -2      2246      1906      2553      2768
 -1      3789    3    0    1
 -2      1337       833      1336      1837
 -1      3790    3    0    1
 -2      1424      3094      1450      3132
 -1      3791    3    0    1
 -2      2035      1971      2780      2898
 -1      3792    3    0    1
 -2      1804      1827      1896      2437
 -1      3793    3    0    1
 -2      1659      1670      2139      2287
 -1      3794    3    0    1
 -2       866       865      1121      1655
 -1      3795    3    0    1
 -2      1565      1738      1932      1993
 -1      3796    3    0    1
 -2      1198       534      1590      1809
 -1      3797    3    0    1
 -2       538       940      1803      1978
 -1      3798    3    0    1
 -2      1571      1762      2092      2138
 -1      3799    3    0    1
 -2      1924      1675      2014      2330
 -1      3800    3    0    1
 -2      2070      1778      2184      2248
 -1      3801    3    0    1
 -2       678      1013      2062      2801
 -1      3802    3    0    1
 -2       420      1091      2246      2365
 -1      3803    3    0    1
 -2      1174       490       483      1929
 -1      3804    3    0    1
 -2      1617      1594      1682      1775
 -1      3805    3    0    1
 -2       375       955      1972      2156
 -1      3806    3    0    1
 -2      1659      1533      1670      1769
 -1      3807    3    0    1
 -2       225      1054      1576      2807
 -1      3808    3    0    1
 -2      1913      2375      1962      2010
 -1      3809    3    0    1
 -2       941      1926      1986      2296
 -1      3810    3    0    1
 -2      1256      1001       654      2720
 -1      3811    3    0    1
 -2      1795      1529      2342      2484
 -1      3812    3    0    1
 -2      1974      1084      2568      2710
 -1      3813    3    0    1
 -2      2264      2212      2526      2711
 -1      3814    3    0    1
 -2      1031      1286      2237      2668
 -1      3815    3    0    1
 -2       848       847      1713      1884
 -1      3816    3    0    1
 -2       270       263      1974      2486
 -1      3817    3    0    1
 -2      1390      2124      2249      2302
 -1      3818    3    0    1
 -2      1376       862      1881      1889
 -1      3819    3    0    1
 -2      1601      1531      1609      1705
 -1      3820    3    0    1
 -2      1006      1003      1583      2646
 -1      3821    3    0    1
 -2       406       930      2537      2816
 -1      3822    3    0    1
 -2      1774      1679      2414      2737
 -1      3823    3    0    1
 -2       185       339      1546      1900
 -1      3824    3    0    1
 -2      1626      1539      1655      1784
 -1      3825    3    0    1
 -2       956      2404      2413      2784
 -1      3826    3    0    1
 -2      1649      1643      2266      2279
 -1      3827    3    0    1
 -2       534      1198      1678      1746
 -1      3828    3    0    1
 -2       133      2097      2198      2209
 -1      3829    3    0    1
 -2      1994      2364      2382      2394
 -1      3830    3    0    1
 -2      1697      1653      1967      2063
 -1      3831    3    0    1
 -2      2255        38      2897      2909
 -1      3832    3    0    1
 -2       359       228      1056      2679
 -1      3833    3    0    1
 -2      1672      1734      1953      2245
 -1      3834    3    0    1
 -2      1640      1729      1976      2384
 -1      3835    3    0    1
 -2       395      1686      2107      2156
 -1      3836    3    0    1
 -2      1565      1536      1710      1850
 -1      3837    3    0    1
 -2       615       978       981      2538
 -1      3838    3    0    1
 -2      1198      1590      1702      1746
 -1      3839    3    0    1
 -2      2913      1764      2921      3086
 -1      3840    3    0    1
 -2       337       976      2110      2238
 -1      3841    3    0    1
 -2      1107       851      1105      1681
 -1      3842    3    0    1
 -2      1709      1675      1739      1812
 -1      3843    3    0    1
 -2      1987      1611      2333      2662
 -1      3844    3    0    1
 -2      1753      2225      2764      2886
 -1      3845    3    0    1
 -2       562       953      1760      2090
 -1      3846    3    0    1
 -2       340      2317      2606      2782
 -1      3847    3    0    1
 -2       402       312      1117      1602
 -1      3848    3    0    1
 -2      2194      1632      2474      2564
 -1      3849    3    0    1
 -2      1545      1584      1798      1915
 -1      3850    3    0    1
 -2      1531      1588      1673      1687
 -1      3851    3    0    1
 -2      1644      1920      2170      2183
 -1      3852    3    0    1
 -2      1783      2308      2528      2601
 -1      3853    3    0    1
 -2      1575      1804      1811      1827
 -1      3854    3    0    1
 -2      1341       835      1340      1761
 -1      3855    3    0    1
 -2      1660      1627      1704      1711
 -1      3856    3    0    1
 -2      1991      2635      2837      2876
 -1      3857    3    0    1
 -2      1359       845       846      2108
 -1      3858    3    0    1
 -2      1883      1652      1965      1989
 -1      3859    3    0    1
 -2      2040      1596      2623      2727
 -1      3860    3    0    1
 -2       759      1056      1059      2326
 -1      3861    3    0    1
 -2       330      1676      1804      1849
 -1      3862    3    0    1
 -2       865      1378      1655      1870
 -1      3863    3    0    1
 -2      1738      1698      1932      1993
 -1      3864    3    0    1
 -2      1645      1830      2610      2773
 -1      3865    3    0    1
 -2       907      1096      2294      2456
 -1      3866    3    0    1
 -2       639      2545      2654      2818
 -1      3867    3    0    1
 -2      1700      1655      1870      1934
 -1      3868    3    0    1
 -2       702      1029      1846      1980
 -1      3869    3    0    1
 -2      1760       562      2534      2798
 -1      3870    3    0    1
 -2       312       402      1123      1672
 -1      3871    3    0    1
 -2      1655      1870      1934      2105
 -1      3872    3    0    1
 -2      2006      2008      2466      2734
 -1      3873    3    0    1
 -2      2554       510      2686      2821
 -1      3874    3    0    1
 -2       973       604      1235      1662
 -1      3875    3    0    1
 -2       931        55      2041      2296
 -1      3876    3    0    1
 -2      1929       916      2615      2732
 -1      3877    3    0    1
 -2       863      1377      1118      2757
 -1      3878    3    0    1
 -2      1029      1846      1936      2091
 -1      3879    3    0    1
 -2      1818      1854      1916      2053
 -1      3880    3    0    1
 -2      1147      1739      1963      2014
 -1      3881    3    0    1
 -2       606       974       976      2206
 -1      3882    3    0    1
 -2      1749      2091      1759      1555
 -1      3883    3    0    1
 -2      1606      1533      1965      2171
 -1      3884    3    0    1
 -2      1981      1908      2127      2321
 -1      3885    3    0    1
 -2      2585      1666      2682      2695
 -1      3886    3    0    1
 -2      1619      2009      2013      2565
 -1      3887    3    0    1
 -2       107       350      2199      2480
 -1      3888    3    0    1
 -2       357       968      1751      2199
 -1      3889    3    0    1
 -2      1862      1793      2801      2803
 -1      3890    3    0    1
 -2      2199       107      2480      2504
 -1      3891    3    0    1
 -2       627       977      1243      1779
 -1      3892    3    0    1
 -2      2214      1447      3133      3006
 -1      3893    3    0    1
 -2       627       610       977      1779
 -1      3894    3    0    1
 -2       928      1702      2172      2604
 -1      3895    3    0    1
 -2      1807      1399      1895      1931
 -1      3896    3    0    1
 -2      1763      1712      2077      2627
 -1      3897    3    0    1
 -2      1379       865       866      1784
 -1      3898    3    0    1
 -2       837      2125      2261      2346
 -1      3899    3    0    1
 -2       879       880      2124      2621
 -1      3900    3    0    1
 -2      1529      1621      1688      1808
 -1      3901    3    0    1
 -2      1544      1757      2109      2637
 -1      3902    3    0    1
 -2      1082       795      1320      2049
 -1      3903    3    0    1
 -2       556      1803      2090      2534
 -1      3904    3    0    1
 -2       556       562      1211      2534
 -1      3905    3    0    1
 -2      2554      2498      2682      2686
 -1      3906    3    0    1
 -2       795      1322      1319      1787
 -1      3907    3    0    1
 -2      1099       837      2261      2346
 -1      3908    3    0    1
 -2       383      2339      1935       251
 -1      3909    3    0    1
 -2      1951      1109      2132      2376
 -1      3910    3    0    1
 -2       834      1337      1736      1837
 -1      3911    3    0    1
 -2       875      1388      1131      2817
 -1      3912    3    0    1
 -2      1611      1572      2113      2739
 -1      3913    3    0    1
 -2      1322       795       802      1787
 -1      3914    3    0    1
 -2       979      1800      1966      2144
 -1      3915    3    0    1
 -2      1145      1405      1874      2215
 -1      3916    3    0    1
 -2      1082       802       795      2049
 -1      3917    3    0    1
 -2       142       136      2581      2829
 -1      3918    3    0    1
 -2      1864      2522      2544      2813
 -1      3919    3    0    1
 -2      1887      1940      2160      2433
 -1      3920    3    0    1
 -2      1571      2040      2244      2312
 -1      3921    3    0    1
 -2       967       351      2580      2843
 -1      3922    3    0    1
 -2       845      1358       846      2224
 -1      3923    3    0    1
 -2      1031       699      1275      2050
 -1      3924    3    0    1
 -2      1031       706       699      2050
 -1      3925    3    0    1
 -2      2087      2033      2377      2849
 -1      3926    3    0    1
 -2      2223       989      2581      2829
 -1      3927    3    0    1
 -2      1824      1844      2031      2478
 -1      3928    3    0    1
 -2       833       834      1651      1837
 -1      3929    3    0    1
 -2      1651       834      1736      1837
 -1      3930    3    0    1
 -2      1900      1546      2143      2329
 -1      3931    3    0    1
 -2      1029       339      1936      1937
 -1      3932    3    0    1
 -2      1546      1029      1882      1937
 -1      3933    3    0    1
 -2      1387      1762      1891      2355
 -1      3934    3    0    1
 -2      1311       795      1319      1787
 -1      3935    3    0    1
 -2       345       369      1045      2754
 -1      3936    3    0    1
 -2       778       795      1311      1787
 -1      3937    3    0    1
 -2      1814      1816      2080      2163
 -1      3938    3    0    1
 -2      1801      1334      1888      2032
 -1      3939    3    0    1
 -2      2008      2006      2466      2613
 -1      3940    3    0    1
 -2      1338      1680      1684      2316
 -1      3941    3    0    1
 -2       823      1093      2283      2310
 -1      3942    3    0    1
 -2      1956      1650      2145      2223
 -1      3943    3    0    1
 -2      1558      1660      1696      1863
 -1      3944    3    0    1
 -2      1660      1354      1704      1863
 -1      3945    3    0    1
 -2      2224      1891      1622      2356
 -1      3946    3    0    1
 -2      1256      1630      2204      2482
 -1      3947    3    0    1
 -2      2592      2750      2760      2791
 -1      3948    3    0    1
 -2      1793      1862      2699      2805
 -1      3949    3    0    1
 -2      1903      1593      1952      2250
 -1      3950    3    0    1
 -2      1700      1819      1860      2094
 -1      3951    3    0    1
 -2      1696      1558      1790      2095
 -1      3952    3    0    1
 -2       290       291      2075      2348
 -1      3953    3    0    1
 -2      1548      1986      2041      2296
 -1      3954    3    0    1
 -2      1357      1358      2224      2356
 -1      3955    3    0    1
 -2      1790      1558      1947      2095
 -1      3956    3    0    1
 -2      1621      1529      2213      2405
 -1      3957    3    0    1
 -2      2318      2414      2736      2737
 -1      3958    3    0    1
 -2      2213      1529      2342      2405
 -1      3959    3    0    1
 -2      1643      1648      1990      2094
 -1      3960    3    0    1
 -2      1700      1860      1934      2094
 -1      3961    3    0    1
 -2      1654      1665      2073      2598
 -1      3962    3    0    1
 -2      1331      1766      1843      2032
 -1      3963    3    0    1
 -2      1657      1550      1892      2030
 -1      3964    3    0    1
 -2      1826      1592      2099      2460
 -1      3965    3    0    1
 -2      2485      1033      2505      2809
 -1      3966    3    0    1
 -2      1938       330      2439       333
 -1      3967    3    0    1
 -2      1331       284      1766      2032
 -1      3968    3    0    1
 -2       927      2498      2686      2702
 -1      3969    3    0    1
 -2      1815      1886      2128      2254
 -1      3970    3    0    1
 -2      1968      1983      2221      2334
 -1      3971    3    0    1
 -2       904       410      2208      2383
 -1      3972    3    0    1
 -2      1334      1331      1888      2032
 -1      3973    3    0    1
 -2      1845      1807      1895      1931
 -1      3974    3    0    1
 -2       706       699      2050      2639
 -1      3975    3    0    1
 -2       980       337      1707      1930
 -1      3976    3    0    1
 -2      1800       968       615       978
 -1      3977    3    0    1
 -2       836       835      1637      2564
 -1      3978    3    0    1
 -2      1614      1998      2216      2235
 -1      3979    3    0    1
 -2      1616      1550      2088      2188
 -1      3980    3    0    1
 -2      1159       389      1334      1801
 -1      3981    3    0    1
 -2       389       386      1334      1801
 -1      3982    3    0    1
 -2      1988      1674      2031      2086
 -1      3983    3    0    1
 -2      1877      1053      2071      2899
 -1      3984    3    0    1
 -2      1536      1565      1738      1932
 -1      3985    3    0    1
 -2      1536      1710      1850      1890
 -1      3986    3    0    1
 -2       160       157      1005      2532
 -1      3987    3    0    1
 -2      1666      2037      2268      2715
 -1      3988    3    0    1
 -2      1575      1804      1827      1896
 -1      3989    3    0    1
 -2      1692      1824      1844      2031
 -1      3990    3    0    1
 -2      1246      2018      2496      2667
 -1      3991    3    0    1
 -2      2124      1625      2219      2300
 -1      3992    3    0    1
 -2      1725      1818      2053      2082
 -1      3993    3    0    1
 -2      2129      1619      2136      2542
 -1      3994    3    0    1
 -2      1818      1575      2053      2082
 -1      3995    3    0    1
 -2      1897      1753      2292      2360
 -1      3996    3    0    1
 -2      2100      1789      2396      2458
 -1      3997    3    0    1
 -2      1732      1539      1772      1817
 -1      3998    3    0    1
 -2      1620      1608      1647      1817
 -1      3999    3    0    1
 -2      1785      2103      2104      2205
 -1      4000    3    0    1
 -2      1539      1647      1772      1817
 -1      4001    3    0    1
 -2       567      1972      2107      2399
 -1      4002    3    0    1
 -2      1091      2167      2246      2365
 -1      4003    3    0    1
 -2      1389       318      1893      1995
 -1      4004    3    0    1
 -2      1647      1608      1772      1817
 -1      4005    3    0    1
 -2      1863      1696      1881      2001
 -1      4006    3    0    1
 -2      1725      1818      1916      2053
 -1      4007    3    0    1
 -2       750       752      1877      2416
 -1      4008    3    0    1
 -2       919       496      2845      2900
 -1      4009    3    0    1
 -2      1608      1732      1772      1817
 -1      4010    3    0    1
 -2       634       627      1779      2449
 -1      4011    3    0    1
 -2        42        47      3003      3024
 -1      4012    3    0    1
 -2      1619      1744      2126      2203
 -1      4013    3    0    1
 -2      1941      2230      2373      2722
 -1      4014    3    0    1
 -2      1583      1003      2674      2833
 -1      4015    3    0    1
 -2      1348       839      1347      1820
 -1      4016    3    0    1
 -2       798      1080      2839      2895
 -1      4017    3    0    1
 -2      2025      2116      2502      2665
 -1      4018    3    0    1
 -2      2577      3096      1461      3148
 -1      4019    3    0    1
 -2      2293        36      2748      2806
 -1      4020    3    0    1
 -2        66       937      1200      1821
 -1      4021    3    0    1
 -2      1548        71      1746      1986
 -1      4022    3    0    1
 -2       332       160      1005      2186
 -1      4023    3    0    1
 -2      2364       849      2394      2395
 -1      4024    3    0    1
 -2      2266      1530      2707      2837
 -1      4025    3    0    1
 -2      1522      1840      2052      2251
 -1      4026    3    0    1
 -2      2345      2098      2751      2823
 -1      4027    3    0    1
 -2      1559      1667      1955      2004
 -1      4028    3    0    1
 -2      1588      1673      1705      1905
 -1      4029    3    0    1
 -2      1531      1601      1814      1905
 -1      4030    3    0    1
 -2        67        68      1200      1821
 -1      4031    3    0    1
 -2      1914       905      2207      2247
 -1      4032    3    0    1
 -2       139       134      1246      2018
 -1      4033    3    0    1
 -2      1673      1601      1705      1905
 -1      4034    3    0    1
 -2      1536      1738      1823      1932
 -1      4035    3    0    1
 -2      1842      1845      1895      2027
 -1      4036    3    0    1
 -2      1384       871       872      2027
 -1      4037    3    0    1
 -2      1209      1803      2022      2090
 -1      4038    3    0    1
 -2      1776      1735      1838      1856
 -1      4039    3    0    1
 -2      2106      1691      2132      2307
 -1      4040    3    0    1
 -2       975       606      2181      2200
 -1      4041    3    0    1
 -2      2229      1321      2519      2559
 -1      4042    3    0    1
 -2       532       538       937      1861
 -1      4043    3    0    1
 -2       532       937      1853      1861
 -1      4044    3    0    1
 -2       978       119       981      2019
 -1      4045    3    0    1
 -2      1748      1566      1851      1856
 -1      4046    3    0    1
 -2      1616      1790      1947      2095
 -1      4047    3    0    1
 -2      1533      1670      1769      2171
 -1      4048    3    0    1
 -2       610       627      2064      2448
 -1      4049    3    0    1
 -2      1721      1709      1812      2082
 -1      4050    3    0    1
 -2        82       949      1211      2535
 -1      4051    3    0    1
 -2       314       294      1340      1831
 -1      4052    3    0    1
 -2      1340       294      1341      1831
 -1      4053    3    0    1
 -2      1546       185      1715      2221
 -1      4054    3    0    1
 -2       974       124      1880      2823
 -1      4055    3    0    1
 -2       949      2017      2534      2535
 -1      4056    3    0    1
 -2      1715      1968      1983      2221
 -1      4057    3    0    1
 -2      1715       185      1968      2221
 -1      4058    3    0    1
 -2      1017      1006      2562      2642
 -1      4059    3    0    1
 -2      1886      1982      2128      2254
 -1      4060    3    0    1
 -2       284      1097      1335      1832
 -1      4061    3    0    1
 -2      1161         9      2780      2898
 -1      4062    3    0    1
 -2      2016      1641      2066      2295
 -1      4063    3    0    1
 -2       981       125      1857      2447
 -1      4064    3    0    1
 -2      1908      1982      2151      2641
 -1      4065    3    0    1
 -2       320       404      1106      2080
 -1      4066    3    0    1
 -2       444       429      1143      1913
 -1      4067    3    0    1
 -2      1675      1709      1739      1963
 -1      4068    3    0    1
 -2      1544      1612      1701      2637
 -1      4069    3    0    1
 -2      2340      1142      2556      2701
 -1      4070    3    0    1
 -2       429      1392      1695      1913
 -1      4071    3    0    1
 -2      2380      1067      2509      2812
 -1      4072    3    0    1
 -2      1661      1577      2076      2162
 -1      4073    3    0    1
 -2       330      1676      1849      2055
 -1      4074    3    0    1
 -2      1733      2125      2261      2678
 -1      4075    3    0    1
 -2      1951      2106      2132      2307
 -1      4076    3    0    1
 -2      2192      2058      2441      2442
 -1      4077    3    0    1
 -2      1000      1938       330      2055
 -1      4078    3    0    1
 -2       863      1118      2622      2757
 -1      4079    3    0    1
 -2       359       228      2679      2713
 -1      4080    3    0    1
 -2       807       784      1605      2896
 -1      4081    3    0    1
 -2      1656       384      1904      1939
 -1      4082    3    0    1
 -2      1886      1932      1993      2128
 -1      4083    3    0    1
 -2      1611      1547      1668      2594
 -1      4084    3    0    1
 -2      2213      1551      2342      2484
 -1      4085    3    0    1
 -2       975       606      1234      1957
 -1      4086    3    0    1
 -2      1701      1544      1757      2046
 -1      4087    3    0    1
 -2      1522      1804      1896      2437
 -1      4088    3    0    1
 -2       391      2498      2593      2822
 -1      4089    3    0    1
 -2      1336      1337      1837      2376
 -1      4090    3    0    1
 -2      1734      1815      2245      2254
 -1      4091    3    0    1
 -2       747       730      1836      2597
 -1      4092    3    0    1
 -2      1000       654      1902      2483
 -1      4093    3    0    1
 -2      2210      1573      2696      2796
 -1      4094    3    0    1
 -2      1832      1097      2079      2409
 -1      4095    3    0    1
 -2       330      1798      2023      2054
 -1      4096    3    0    1
 -2      1000       330      1849      2055
 -1      4097    3    0    1
 -2      1858      1564      1944      2352
 -1      4098    3    0    1
 -2      1573      1724      2210      2601
 -1      4099    3    0    1
 -2      1804      1522      1849      2437
 -1      4100    3    0    1
 -2       432       384      1656      2435
 -1      4101    3    0    1
 -2      1836       730      2280      2597
 -1      4102    3    0    1
 -2      2154      1614      2216      2640
 -1      4103    3    0    1
 -2      2494       422      2731      2875
 -1      4104    3    0    1
 -2      1828      2084      2262      2468
 -1      4105    3    0    1
 -2      1723      2033      2061      2160
 -1      4106    3    0    1
 -2      1740      1661      1822      2162
 -1      4107    3    0    1
 -2      2131      2028      2408      2471
 -1      4108    3    0    1
 -2      2114      1876      2283      2310
 -1      4109    3    0    1
 -2       747      1043      1298      1836
 -1      4110    3    0    1
 -2       747       730      1043      1836
 -1      4111    3    0    1
 -2      2159      1040      2322      2597
 -1      4112    3    0    1
 -2      1162       459       466      2614
 -1      4113    3    0    1
 -2      1591      1686      2057      2767
 -1      4114    3    0    1
 -2      1919       424      2595      2598
 -1      4115    3    0    1
 -2       403      2284      2335      2641
 -1      4116    3    0    1
 -2      1794      1700      1819      1860
 -1      4117    3    0    1
 -2      1014      2353      2481      2803
 -1      4118    3    0    1
 -2       187       347      1027      2579
 -1      4119    3    0    1
 -2      1940      1975      2157      2433
 -1      4120    3    0    1
 -2      1666      2267      2821      2854
 -1      4121    3    0    1
 -2      2036      1956      2145      2223
 -1      4122    3    0    1
 -2      2005      1878      2233      2316
 -1      4123    3    0    1
 -2      1723      1940      2087      2160
 -1      4124    3    0    1
 -2      2243      1015      2323      2606
 -1      4125    3    0    1
 -2       831      1095      1912      2079
 -1      4126    3    0    1
 -2      1622      1753      2360      2886
 -1      4127    3    0    1
 -2      1618      1035      2391      2536
 -1      4128    3    0    1
 -2      1530      2266      2795      2837
 -1      4129    3    0    1
 -2      2168      1614      2627      2693
 -1      4130    3    0    1
 -2      1571      1622      1762      1891
 -1      4131    3    0    1
 -2        80       952      1773      2840
 -1      4132    3    0    1
 -2      2117      2249      2469      2793
 -1      4133    3    0    1
 -2      1384       872      1842      2027
 -1      4134    3    0    1
 -2       992       639       640      2185
 -1      4135    3    0    1
 -2      1321      1859      2559      2789
 -1      4136    3    0    1
 -2      1617      1554      1689      2121
 -1      4137    3    0    1
 -2       341      1400      1148      1852
 -1      4138    3    0    1
 -2      1394       341      1391      1852
 -1      4139    3    0    1
 -2      1400       448      1727      1852
 -1      4140    3    0    1
 -2      1400       341       448      1852
 -1      4141    3    0    1
 -2       651      1255      2313      2344
 -1      4142    3    0    1
 -2       341      1394       448      1852
 -1      4143    3    0    1
 -2      1588      1531      1673      1905
 -1      4144    3    0    1
 -2       403      1908      2072      2641
 -1      4145    3    0    1
 -2      2324      1072      2339      2688
 -1      4146    3    0    1
 -2      2932      2944      2950      1457
 -1      4147    3    0    1
 -2      1830      1826      2610      2773
 -1      4148    3    0    1
 -2      2263      1733      2328      2407
 -1      4149    3    0    1
 -2      1665      1984      2073      2598
 -1      4150    3    0    1
 -2      1150      1845      1895      1931
 -1      4151    3    0    1
 -2      1525      1654      2073      2386
 -1      4152    3    0    1
 -2       728      1835      1954      2650
 -1      4153    3    0    1
 -2      1589      1847      2443      2493
 -1      4154    3    0    1
 -2      1572      1949      2113      2739
 -1      4155    3    0    1
 -2       951       558      1210      2259
 -1      4156    3    0    1
 -2       514       532       937      1853
 -1      4157    3    0    1
 -2      2190      1406      2210      2672
 -1      4158    3    0    1
 -2       514       937      1187      1853
 -1      4159    3    0    1
 -2      1726      2243      2323      2606
 -1      4160    3    0    1
 -2      2434       177      2770      2883
 -1      4161    3    0    1
 -2       808       807      2290      2710
 -1      4162    3    0    1
 -2      1027      1277      2560      2639
 -1      4163    3    0    1
 -2       783      2309      2583      2831
 -1      4164    3    0    1
 -2       702      1028      1846      2091
 -1      4165    3    0    1
 -2      1537       398      1817      2065
 -1      4166    3    0    1
 -2      2493      1847      2521      2539
 -1      4167    3    0    1
 -2       868      1953      2101      2393
 -1      4168    3    0    1
 -2       119       120       981      2019
 -1      4169    3    0    1
 -2       120       119      1662      2019
 -1      4170    3    0    1
 -2      1930       336      2238      2655
 -1      4171    3    0    1
 -2       981       344       991      1857
 -1      4172    3    0    1
 -2       125       344       981      1857
 -1      4173    3    0    1
 -2      1656       385      1939      2260
 -1      4174    3    0    1
 -2      1660      1627      1711      1946
 -1      4175    3    0    1
 -2      2699       332      2805      2884
 -1      4176    3    0    1
 -2       886      1151      1140      2759
 -1      4177    3    0    1
 -2      1653      1697      1828      2240
 -1      4178    3    0    1
 -2      1961      1563      2130      2418
 -1      4179    3    0    1
 -2       520       932      1201      2314
 -1      4180    3    0    1
 -2       878      1135      1969      1976
 -1      4181    3    0    1
 -2       404      1106      2080      2163
 -1      4182    3    0    1
 -2      1601      1531      1814      2163
 -1      4183    3    0    1
 -2      2088       338      2179      2188
 -1      4184    3    0    1
 -2      1562      1553      2165      2341
 -1      4185    3    0    1
 -2        86       955      2156      2178
 -1      4186    3    0    1
 -2      2128      1992      2254      2517
 -1      4187    3    0    1
 -2       616       980      1707      2545
 -1      4188    3    0    1
 -2       459       826      2716      2717
 -1      4189    3    0    1
 -2       391       927      1186      2702
 -1      4190    3    0    1
 -2       272      1079      2332      2887
 -1      4191    3    0    1
 -2       395        86      2107      2178
 -1      4192    3    0    1
 -2      1853       532      1978      2288
 -1      4193    3    0    1
 -2      1523      1864      1933      2173
 -1      4194    3    0    1
 -2       399      1537      1879      1921
 -1      4195    3    0    1
 -2      1756      1694      1879      1921
 -1      4196    3    0    1
 -2      1730      1694      1756      1921
 -1      4197    3    0    1
 -2      1537      1817      1879      1921
 -1      4198    3    0    1
 -2      1694      1730      1879      1921
 -1      4199    3    0    1
 -2      1573      1783      2587      2601
 -1      4200    3    0    1
 -2       142       136       993      2282
 -1      4201    3    0    1
 -2       858      1113      1848      1869
 -1      4202    3    0    1
 -2       857      1113       858      1869
 -1      4203    3    0    1
 -2      1686        86      1875      2156
 -1      4204    3    0    1
 -2      1863      1881      1889      2001
 -1      4205    3    0    1
 -2      1355      1704      1863      2001
 -1      4206    3    0    1
 -2       463      2078      2609      2898
 -1      4207    3    0    1
 -2       314       294      2220      2681
 -1      4208    3    0    1
 -2       838       837      2125      2261
 -1      4209    3    0    1
 -2      1187       514      1853      1939
 -1      4210    3    0    1
 -2      1350      2707      2721      2869
 -1      4211    3    0    1
 -2      1386       316      1129      2203
 -1      4212    3    0    1
 -2       230       376      1059      2047
 -1      4213    3    0    1
 -2      1816       404      2080      2163
 -1      4214    3    0    1
 -2       270      1081      2486      2765
 -1      4215    3    0    1
 -2      1106      1365      2080      2163
 -1      4216    3    0    1
 -2      2151      1850      2179      2549
 -1      4217    3    0    1
 -2      1768      1641      1874      2016
 -1      4218    3    0    1
 -2       378       949      1745      2017
 -1      4219    3    0    1
 -2       568       591       956      2412
 -1      4220    3    0    1
 -2       889      1405       893      1874
 -1      4221    3    0    1
 -2       884       883      2239      2371
 -1      4222    3    0    1
 -2      2154      1614      2168      2216
 -1      4223    3    0    1
 -2      1405       889      1145      1874
 -1      4224    3    0    1
 -2      1603      1634      1778      2216
 -1      4225    3    0    1
 -2      1708      2154      2168      2216
 -1      4226    3    0    1
 -2      1867      2500      2630      2708
 -1      4227    3    0    1
 -2       591       965      1751      2412
 -1      4228    3    0    1
 -2       291       290      2075      2331
 -1      4229    3    0    1
 -2      2046      2228       333      2202
 -1      4230    3    0    1
 -2      1255      1002      2313      2344
 -1      4231    3    0    1
 -2      1788       133      2198      2209
 -1      4232    3    0    1
 -2      1950      1913      2375      1695
 -1      4233    3    0    1
 -2       224      2410      2714      2814
 -1      4234    3    0    1
 -2      1545      1750      1796      1916
 -1      4235    3    0    1
 -2      2007       750      2629      2746
 -1      4236    3    0    1
 -2       472       908      2174      2368
 -1      4237    3    0    1
 -2       567       568       956      2784
 -1      4238    3    0    1
 -2      1628      1767      1859      2576
 -1      4239    3    0    1
 -2      1635      1408      1695      1913
 -1      4240    3    0    1
 -2      1748      1828      1851      2240
 -1      4241    3    0    1
 -2       419      1767      2303      2519
 -1      4242    3    0    1
 -2       882      1822      1950      2010
 -1      4243    3    0    1
 -2      1610      1848      1869      2400
 -1      4244    3    0    1
 -2       410      1603      1634      2070
 -1      4245    3    0    1
 -2       845      1359      1101      2108
 -1      4246    3    0    1
 -2      1733      1525      2125      2263
 -1      4247    3    0    1
 -2       861       862      1889      2276
 -1      4248    3    0    1
 -2      1913      2375      1695      1962
 -1      4249    3    0    1
 -2      1371       857       858      2400
 -1      4250    3    0    1
 -2      1709       327      1739      1963
 -1      4251    3    0    1
 -2      2012      1526      2663      2865
 -1      4252    3    0    1
 -2      2007      2527      2629      2669
 -1      4253    3    0    1
 -2       124       122       974      1880
 -1      4254    3    0    1
 -2       832      1097      1542      2461
 -1      4255    3    0    1
 -2      1857       991      2558      2619
 -1      4256    3    0    1
 -2      1796      1750      2109      2234
 -1      4257    3    0    1
 -2      1848      1610      1909      2400
 -1      4258    3    0    1
 -2      2126      2203      2473      2543
 -1      4259    3    0    1
 -2      1646      1659      1869      2287
 -1      4260    3    0    1
 -2      1534      1644      2170      2183
 -1      4261    3    0    1
 -2       208       424      1631      1885
 -1      4262    3    0    1
 -2      1692      1690      1884      1988
 -1      4263    3    0    1
 -2       679       678      1013      2062
 -1      4264    3    0    1
 -2      1649       101      1741      2444
 -1      4265    3    0    1
 -2      1565      1536      1850      1932
 -1      4266    3    0    1
 -2       441      1150      1845      1895
 -1      4267    3    0    1
 -2      2363      1084      2557      2568
 -1      4268    3    0    1
 -2      1128       441      1845      1895
 -1      4269    3    0    1
 -2      1384       441      1128      1895
 -1      4270    3    0    1
 -2       441      1399      1150      1895
 -1      4271    3    0    1
 -2       441      1384       443      1895
 -1      4272    3    0    1
 -2      1850      1710      2179      1890
 -1      4273    3    0    1
 -2      1754      1718      2158      2180
 -1      4274    3    0    1
 -2      2283      2114      2501      2511
 -1      4275    3    0    1
 -2      1758      1865      2351      2594
 -1      4276    3    0    1
 -2      1387       299      1385      1891
 -1      4277    3    0    1
 -2       319      1387      1762      1891
 -1      4278    3    0    1
 -2       299      1387       319      1891
 -1      4279    3    0    1
 -2      1185       929       508      2288
 -1      4280    3    0    1
 -2      1380      1672      1953      2245
 -1      4281    3    0    1
 -2      1389       315      1134      1893
 -1      4282    3    0    1
 -2      1605       266      2354      2385
 -1      4283    3    0    1
 -2       315      1389       318      1893
 -1      4284    3    0    1
 -2      2486      1906      2820      1685
 -1      4285    3    0    1
 -2       214       195      2459      2536
 -1      4286    3    0    1
 -2      1784      1615      1917      2158
 -1      4287    3    0    1
 -2       343      1624      1873      2164
 -1      4288    3    0    1
 -2      1073      1323      1605      2385
 -1      4289    3    0    1
 -2      1276      2221      2226      2334
 -1      4290    3    0    1
 -2      1640      1532      1729      1897
 -1      4291    3    0    1
 -2      1720      2407      2777      2781
 -1      4292    3    0    1
 -2      2084      2004      2262      2428
 -1      4293    3    0    1
 -2      2255        32      2825      2845
 -1      4294    3    0    1
 -2      1322      1787      1843      1899
 -1      4295    3    0    1
 -2      1387       873       874      2355
 -1      4296    3    0    1
 -2       259      1319      1322      1899
 -1      4297    3    0    1
 -2      1322      1319      1787      1899
 -1      4298    3    0    1
 -2      1331      1322      1843      1899
 -1      4299    3    0    1
 -2       273       285      1766      1899
 -1      4300    3    0    1
 -2       285      1331      1766      1899
 -1      4301    3    0    1
 -2      1766      1331      1843      1899
 -1      4302    3    0    1
 -2       273       380      1322      1899
 -1      4303    3    0    1
 -2       273      1322      1331      1899
 -1      4304    3    0    1
 -2       285       273      1331      1899
 -1      4305    3    0    1
 -2       937      1853      1861      1904
 -1      4306    3    0    1
 -2      1072       383      2339      2688
 -1      4307    3    0    1
 -2      1742      1604      2103      2205
 -1      4308    3    0    1
 -2      1749      1829      2081      2315
 -1      4309    3    0    1
 -2       937       384      1187      1904
 -1      4310    3    0    1
 -2        66       432       937      1904
 -1      4311    3    0    1
 -2       432       384       937      1904
 -1      4312    3    0    1
 -2      1673      1531      1687      1905
 -1      4313    3    0    1
 -2      1589      1687      1703      1905
 -1      4314    3    0    1
 -2      1531      1588      1705      1905
 -1      4315    3    0    1
 -2      1687      1531      1703      1905
 -1      4316    3    0    1
 -2      1258      2313      2684      2766
 -1      4317    3    0    1
 -2      1607      2084      2262      2428
 -1      4318    3    0    1
 -2      1829      1789      2081      2396
 -1      4319    3    0    1
 -2      1789      1813      2081      2396
 -1      4320    3    0    1
 -2       774      1066      2347      2791
 -1      4321    3    0    1
 -2      1607      2004      2233      2428
 -1      4322    3    0    1
 -2      2004      1568      2233      2428
 -1      4323    3    0    1
 -2      1798      1915      2439      2790
 -1      4324    3    0    1
 -2      1910      1716      1911      2382
 -1      4325    3    0    1
 -2       510       926       928      1907
 -1      4326    3    0    1
 -2      1364       849       850      2394
 -1      4327    3    0    1
 -2       616       615       981      2538
 -1      4328    3    0    1
 -2      1590       928      2172      2270
 -1      4329    3    0    1
 -2      2512      1918      2673      2703
 -1      4330    3    0    1
 -2       511       510       928      1907
 -1      4331    3    0    1
 -2       687       664      1017      2642
 -1      4332    3    0    1
 -2      2111      2051      2275      2491
 -1      4333    3    0    1
 -2       211       212      2322      2713
 -1      4334    3    0    1
 -2       873       874      2355      2473
 -1      4335    3    0    1
 -2       185      1968      2221      2334
 -1      4336    3    0    1
 -2      1633      1562      2411      1770
 -1      4337    3    0    1
 -2      1631      1654      1866      2038
 -1      4338    3    0    1
 -2      1553      1713      2165      2341
 -1      4339    3    0    1
 -2      2272      2217      2292      2676
 -1      4340    3    0    1
 -2      1104      1363      2080      2395
 -1      4341    3    0    1
 -2      2298      1991      2622      2635
 -1      4342    3    0    1
 -2       287      1912      2348      2365
 -1      4343    3    0    1
 -2       320      1363       404      2080
 -1      4344    3    0    1
 -2      1627      1356      1711      2121
 -1      4345    3    0    1
 -2       448      1727      1852      2076
 -1      4346    3    0    1
 -2      1781      1391      1852      2076
 -1      4347    3    0    1
 -2      1394      1781      1822      2076
 -1      4348    3    0    1
 -2      1816      1814      1970      2163
 -1      4349    3    0    1
 -2      1391      1394      1852      2076
 -1      4350    3    0    1
 -2      1656       384      2314      2435
 -1      4351    3    0    1
 -2       190      1033      1034      2337
 -1      4352    3    0    1
 -2      1394      1391      1781      2076
 -1      4353    3    0    1
 -2       284      1766      1832      2079
 -1      4354    3    0    1
 -2       415        12       903      1914
 -1      4355    3    0    1
 -2       654       655      1257      2440
 -1      4356    3    0    1
 -2      1584      1545      1854      1916
 -1      4357    3    0    1
 -2      1545      1796      1797      1916
 -1      4358    3    0    1
 -2      1545      1797      1818      1916
 -1      4359    3    0    1
 -2      1545      1818      1854      1916
 -1      4360    3    0    1
 -2       252      1070      2047      2689
 -1      4361    3    0    1
 -2      1637      2112      2150      2194
 -1      4362    3    0    1
 -2      2112      1569      2150      2194
 -1      4363    3    0    1
 -2      1534      1999      2155      2475
 -1      4364    3    0    1
 -2       975      2072      2127      2284
 -1      4365    3    0    1
 -2      1661      1577      1727      2076
 -1      4366    3    0    1
 -2      2527       425      2629      2669
 -1      4367    3    0    1
 -2      1727      1577      1852      2076
 -1      4368    3    0    1
 -2      1619      1744      2136      2542
 -1      4369    3    0    1
 -2      1005      1018      2591      2656
 -1      4370    3    0    1
 -2       687       664      2642      2656
 -1      4371    3    0    1
 -2       141       336       992      2367
 -1      4372    3    0    1
 -2      1005       687      1018      2656
 -1      4373    3    0    1
 -2       736      2487      2520      2657
 -1      4374    3    0    1
 -2       328      1145      2215      2370
 -1      4375    3    0    1
 -2      1405       328       334      2370
 -1      4376    3    0    1
 -2      1672      1380      1953      2101
 -1      4377    3    0    1
 -2      2336      1912      2557      2568
 -1      4378    3    0    1
 -2      1763      1712      2220      2681
 -1      4379    3    0    1
 -2      1173        37      2566      2706
 -1      4380    3    0    1
 -2      1398       328      1395      2370
 -1      4381    3    0    1
 -2      1395      2215      2234      2370
 -1      4382    3    0    1
 -2      1810      1652      2369      2567
 -1      4383    3    0    1
 -2        15       431       909      2258
 -1      4384    3    0    1
 -2      2015      1398      2234      2370
 -1      4385    3    0    1
 -2      1826      1592      1830      1964
 -1      4386    3    0    1
 -2       832      1542      2294      2783
 -1      4387    3    0    1
 -2      1555      1749      2081      2315
 -1      4388    3    0    1
 -2      1550      1563      2030      2042
 -1      4389    3    0    1
 -2      1460      3109      3129      1486
 -1      4390    3    0    1
 -2      1749      1555      1759      2315
 -1      4391    3    0    1
 -2      1911      1716      2364      2382
 -1      4392    3    0    1
 -2      2339      1068      2347      2470
 -1      4393    3    0    1
 -2      2117      2119      2311      2463
 -1      4394    3    0    1
 -2      2618      1765      2729      2917
 -1      4395    3    0    1
 -2      1659      1646      1670      2287
 -1      4396    3    0    1
 -2      1563      1550      2028      2042
 -1      4397    3    0    1
 -2      1573      1782      2059      2587
 -1      4398    3    0    1
 -2      1782      1573      1783      2587
 -1      4399    3    0    1
 -2      2041       931      2296      2422
 -1      4400    3    0    1
 -2      1201      1926      2314      2692
 -1      4401    3    0    1
 -2      1780      1638      2095      2297
 -1      4402    3    0    1
 -2      2492      1001      2540      2805
 -1      4403    3    0    1
 -2      1141       428      1407      2625
 -1      4404    3    0    1
 -2      1638      1780      2256      2426
 -1      4405    3    0    1
 -2      1946      1791      2218      2426
 -1      4406    3    0    1
 -2      1652      1810      1883      2567
 -1      4407    3    0    1
 -2       799      2486      2765      2789
 -1      4408    3    0    1
 -2       333      1938      2046      2439
 -1      4409    3    0    1
 -2      1543      1887      1893      1940
 -1      4410    3    0    1
 -2       316      1386       414      2203
 -1      4411    3    0    1
 -2       157      1004      1005      2532
 -1      4412    3    0    1
 -2      1214       103      1215      2994
 -1      4413    3    0    1
 -2       535      1199      1597      2236
 -1      4414    3    0    1
 -2      1522      1827      1896      2052
 -1      4415    3    0    1
 -2      2930      2187      2971      3096
 -1      4416    3    0    1
 -2      1563      2028      2471      2742
 -1      4417    3    0    1
 -2      2274      1046      2487      2578
 -1      4418    3    0    1
 -2      1657      1550      2135      2297
 -1      4419    3    0    1
 -2       580      1760      2472      2798
 -1      4420    3    0    1
 -2      2554      2585      2682      2822
 -1      4421    3    0    1
 -2       466       906      1174      1929
 -1      4422    3    0    1
 -2       483       466      1174      1929
 -1      4423    3    0    1
 -2      1460      2914      3129      3136
 -1      4424    3    0    1
 -2       503       504       514      3003
 -1      4425    3    0    1
 -2      2957      2914      3108      3136
 -1      4426    3    0    1
 -2      1044       214      2459      2536
 -1      4427    3    0    1
 -2      1660      1696      1791      2426
 -1      4428    3    0    1
 -2       889      1145      1874      2215
 -1      4429    3    0    1
 -2      1703      1598      1847      2429
 -1      4430    3    0    1
 -2      1969      1995      2359      2574
 -1      4431    3    0    1
 -2      2804      2943      2950      3100
 -1      4432    3    0    1
 -2      1693      1834      1956      2052
 -1      4433    3    0    1
 -2       950      1875      2281      2680
 -1      4434    3    0    1
 -2      1833      1894      2636      2849
 -1      4435    3    0    1
 -2      2533       771      2632      2651
 -1      4436    3    0    1
 -2      2585      2381      2682      2822
 -1      4437    3    0    1
 -2      1858      1941      2373      2722
 -1      4438    3    0    1
 -2       251       383      1068      1935
 -1      4439    3    0    1
 -2      1577      1781      2076      2162
 -1      4440    3    0    1
 -2      1867       416      2500      2708
 -1      4441    3    0    1
 -2      1323       266      1605      2385
 -1      4442    3    0    1
 -2      1288       728      2711      2740
 -1      4443    3    0    1
 -2       771      1309      2632      2651
 -1      4444    3    0    1
 -2      1333      1092       823      2431
 -1      4445    3    0    1
 -2       836      1637      2474      2564
 -1      4446    3    0    1
 -2      1672      1734      2245      2254
 -1      4447    3    0    1
 -2       963       348      2664      2852
 -1      4448    3    0    1
 -2      1791      1696      2095      2256
 -1      4449    3    0    1
 -2       510       927      2686      2702
 -1      4450    3    0    1
 -2      2871      2904      2942      2977
 -1      4451    3    0    1
 -2      1554      1586      1594      1946
 -1      4452    3    0    1
 -2      1667      1568      1955      2004
 -1      4453    3    0    1
 -2      1810      2083      2369      2490
 -1      4454    3    0    1
 -2      1109      1927      2132      2376
 -1      4455    3    0    1
 -2      1914       903      2153      2501
 -1      4456    3    0    1
 -2       891      1924      2014      2330
 -1      4457    3    0    1
 -2      1398      2015      2234      2371
 -1      4458    3    0    1
 -2       903       415      1914      2153
 -1      4459    3    0    1
 -2       133      2097      2191      2198
 -1      4460    3    0    1
 -2      2047       230      2704      2723
 -1      4461    3    0    1
 -2      1858      1564      2289      2373
 -1      4462    3    0    1
 -2       472      2174      2258      2368
 -1      4463    3    0    1
 -2       975       403      2072      2284
 -1      4464    3    0    1
 -2      1612      1641      1874      2295
 -1      4465    3    0    1
 -2       343      1535      2477      2733
 -1      4466    3    0    1
 -2      1360       301      1361      1948
 -1      4467    3    0    1
 -2       446       301      1360      1948
 -1      4468    3    0    1
 -2      1633       446      1713      1948
 -1      4469    3    0    1
 -2       446      1360      1713      1948
 -1      4470    3    0    1
 -2      1692      1844      1884      1959
 -1      4471    3    0    1
 -2      1713      1633      2165      2341
 -1      4472    3    0    1
 -2      1102      1362      1844      1959
 -1      4473    3    0    1
 -2      1544      2762      2802      2834
 -1      4474    3    0    1
 -2      1712      1708      1763      2220
 -1      4475    3    0    1
 -2      1569      1778      2112      2150
 -1      4476    3    0    1
 -2      1366       853       854      1951
 -1      4477    3    0    1
 -2       853      1366      1109      1951
 -1      4478    3    0    1
 -2      1785      1742      2205      2251
 -1      4479    3    0    1
 -2       331      1785      2097      2251
 -1      4480    3    0    1
 -2      1041       726      1871      2366
 -1      4481    3    0    1
 -2       177      1020      2770      2883
 -1      4482    3    0    1
 -2      1014       678      2477      2801
 -1      4483    3    0    1
 -2      1529      1795      2286      2484
 -1      4484    3    0    1
 -2       776      1310      2253      2648
 -1      4485    3    0    1
 -2       726      1835      1871      1954
 -1      4486    3    0    1
 -2      1287       726      1706      1954
 -1      4487    3    0    1
 -2      1706       726      1871      1954
 -1      4488    3    0    1
 -2      1940      1723      2061      2160
 -1      4489    3    0    1
 -2      1660      1791      1946      2426
 -1      4490    3    0    1
 -2      2225      1532      2292      2764
 -1      4491    3    0    1
 -2      2069      1719      2170      2242
 -1      4492    3    0    1
 -2       704      2173      2522      2544
 -1      4493    3    0    1
 -2      1287      1042       726      1954
 -1      4494    3    0    1
 -2       736      1046      2578      2657
 -1      4495    3    0    1
 -2       726       728      1835      1954
 -1      4496    3    0    1
 -2       728       726      1042      1954
 -1      4497    3    0    1
 -2       994       640      2674      2833
 -1      4498    3    0    1
 -2       630       631       988      2029
 -1      4499    3    0    1
 -2      1015       175      2606      2735
 -1      4500    3    0    1
 -2      2285      1595      2388      2661
 -1      4501    3    0    1
 -2      1625      1733      2263      2407
 -1      4502    3    0    1
 -2       306      1147      1739      1963
 -1      4503    3    0    1
 -2      1425      2954      1424      1069
 -1      4504    3    0    1
 -2      1402       306       327      1963
 -1      4505    3    0    1
 -2       331      1693      2097      2209
 -1      4506    3    0    1
 -2      1128      1384      1895      2027
 -1      4507    3    0    1
 -2      1331      1843      1888      2032
 -1      4508    3    0    1
 -2      1766       284      1832      2032
 -1      4509    3    0    1
 -2      2311      1527      2734      2793
 -1      4510    3    0    1
 -2       339      1936      1937      2329
 -1      4511    3    0    1
 -2      1788      1657      2135      2196
 -1      4512    3    0    1
 -2      1615      1368      1917      2158
 -1      4513    3    0    1
 -2       133      1657      1788      2196
 -1      4514    3    0    1
 -2      1097       386      2060      2445
 -1      4515    3    0    1
 -2      1234       338      2088      2131
 -1      4516    3    0    1
 -2      1957      1234      2088      2131
 -1      4517    3    0    1
 -2      1486      1460      1509      3060
 -1      4518    3    0    1
 -2       759      1056      2326      2520
 -1      4519    3    0    1
 -2      1368       309      1369      2193
 -1      4520    3    0    1
 -2      1687      1673      1905      2443
 -1      4521    3    0    1
 -2      2235      1998      2401      2611
 -1      4522    3    0    1
 -2      1577      1727      1852      2025
 -1      4523    3    0    1
 -2       243      1310      2277      2453
 -1      4524    3    0    1
 -2      1577      1727      2025      2442
 -1      4525    3    0    1
 -2      1733      2073      2263      2328
 -1      4526    3    0    1
 -2      2516       250      2592      2761
 -1      4527    3    0    1
 -2      2421      1598      1847      2539
 -1      4528    3    0    1
 -2      1598      2421      1847      2429
 -1      4529    3    0    1
 -2       615       979      1800      1966
 -1      4530    3    0    1
 -2       979       615       980      1966
 -1      4531    3    0    1
 -2      2421      2493      2521      2539
 -1      4532    3    0    1
 -2       615       616       980      1966
 -1      4533    3    0    1
 -2      1186      2269      2390      2702
 -1      4534    3    0    1
 -2      1907       510      2686      2702
 -1      4535    3    0    1
 -2      2037      1666      2268      2695
 -1      4536    3    0    1
 -2       375        86      2156      2281
 -1      4537    3    0    1
 -2      1141      1407      2357      2625
 -1      4538    3    0    1
 -2       688      1017      1020      1996
 -1      4539    3    0    1
 -2      1564      1943      2289      2373
 -1      4540    3    0    1
 -2      1644      1534      1999      2183
 -1      4541    3    0    1
 -2      1826      1592      1964      2099
 -1      4542    3    0    1
 -2      1986      1926      2041      2296
 -1      4543    3    0    1
 -2      1737      1528      2061      2643
 -1      4544    3    0    1
 -2      1798      1854      2023      2054
 -1      4545    3    0    1
 -2      1634      1569      1778      2112
 -1      4546    3    0    1
 -2      1822      1740      2162      2375
 -1      4547    3    0    1
 -2       711      1032      1618      2507
 -1      4548    3    0    1
 -2      1570      1580      2299      2321
 -1      4549    3    0    1
 -2      1611      1758      1865      2182
 -1      4550    3    0    1
 -2      1592      2089      2149      2460
 -1      4551    3    0    1
 -2       395        86      1686      2156
 -1      4552    3    0    1
 -2      1579      1890      2088      2179
 -1      4553    3    0    1
 -2      2357      2402      1407       895
 -1      4554    3    0    1
 -2      2404       965      2412      2464
 -1      4555    3    0    1
 -2      1383      1382      1975      2157
 -1      4556    3    0    1
 -2       519       520       931      2232
 -1      4557    3    0    1
 -2       930       519       931      2232
 -1      4558    3    0    1
 -2      1759      2189      2243      2323
 -1      4559    3    0    1
 -2      1927      1952      2132      2250
 -1      4560    3    0    1
 -2      1130      1132      2177      2848
 -1      4561    3    0    1
 -2      2024      1961      2238      2418
 -1      4562    3    0    1
 -2      1101      1359      1729      2108
 -1      4563    3    0    1
 -2      2696      2402      2759      2858
 -1      4564    3    0    1
 -2        70      1623      1746      1986
 -1      4565    3    0    1
 -2      1988      1824      2031      2785
 -1      4566    3    0    1
 -2      1642      1981      2127      2321
 -1      4567    3    0    1
 -2      1343       323      1344      2726
 -1      4568    3    0    1
 -2        71      1548      1702      1986
 -1      4569    3    0    1
 -2      1339      2474       836      1342
 -1      4570    3    0    1
 -2      1724      1573      1805      2745
 -1      4571    3    0    1
 -2       270       263      1084      1974
 -1      4572    3    0    1
 -2       735      1044      1047      2291
 -1      4573    3    0    1
 -2      1275      1031      2050      2514
 -1      4574    3    0    1
 -2       736       735      1047      2291
 -1      4575    3    0    1
 -2      1755      2051      2111      2528
 -1      4576    3    0    1
 -2      2289      1858      2373      2722
 -1      4577    3    0    1
 -2      1033       711      1034      2337
 -1      4578    3    0    1
 -2      1631      1654      1665      2073
 -1      4579    3    0    1
 -2      1934      1648      1990      2099
 -1      4580    3    0    1
 -2      1964      2000      2065      2099
 -1      4581    3    0    1
 -2      2107        86      2156      2178
 -1      4582    3    0    1
 -2       926      1907      2686      2705
 -1      4583    3    0    1
 -2      1829       342      2315      2733
 -1      4584    3    0    1
 -2      1097      1832      2060      2461
 -1      4585    3    0    1
 -2      1826      1964      2065      2099
 -1      4586    3    0    1
 -2      1867       416      2142      2454
 -1      4587    3    0    1
 -2      2602       490      2615      2897
 -1      4588    3    0    1
 -2       311       307      1122      2775
 -1      4589    3    0    1
 -2       490       483      1929      2615
 -1      4590    3    0    1
 -2      1607      1735      2004      2262
 -1      4591    3    0    1
 -2      2173      1933      2226      2522
 -1      4592    3    0    1
 -2      1867       416      2454      2500
 -1      4593    3    0    1
 -2      1611      1572      2333      2662
 -1      4594    3    0    1
 -2      2514      1031      2668      2937
 -1      4595    3    0    1
 -2      2059      1573      2587      2745
 -1      4596    3    0    1
 -2       180       179      3004      3049
 -1      4597    3    0    1
 -2       365       177      1996      2770
 -1      4598    3    0    1
 -2      1523      1668      1968      1983
 -1      4599    3    0    1
 -2      1027       347      1268      2579
 -1      4600    3    0    1
 -2       339      1546      1900      2329
 -1      4601    3    0    1
 -2      1722      1079      2332      2647
 -1      4602    3    0    1
 -2       687      2591      2642      2787
 -1      4603    3    0    1
 -2       914       486      1175      2596
 -1      4604    3    0    1
 -2      1829       342      2081      2315
 -1      4605    3    0    1
 -2      1933      1523      2173      2334
 -1      4606    3    0    1
 -2      1998      1614      2168      2693
 -1      4607    3    0    1
 -2      2593      1673      2822      2856
 -1      4608    3    0    1
 -2       783       760      1070      2436
 -1      4609    3    0    1
 -2       760       783      2252      2436
 -1      4610    3    0    1
 -2      2566       431      2603      2706
 -1      4611    3    0    1
 -2      2360      1753      2764      2886
 -1      4612    3    0    1
 -2      2155      1999      2183      2400
 -1      4613    3    0    1
 -2      1730      1883      1965      1989
 -1      4614    3    0    1
 -2      1730      1694      1883      1989
 -1      4615    3    0    1
 -2      1533      1606      1965      1989
 -1      4616    3    0    1
 -2      1868      1533      1965      1989
 -1      4617    3    0    1
 -2      1744      2092      2136      2542
 -1      4618    3    0    1
 -2      1810      1868      1965      1989
 -1      4619    3    0    1
 -2      1798      1584      2054      2439
 -1      4620    3    0    1
 -2      1694      1730      1756      1989
 -1      4621    3    0    1
 -2      1606      1694      1756      1989
 -1      4622    3    0    1
 -2      1756      1730      1965      1989
 -1      4623    3    0    1
 -2      1606      1756      1965      1989
 -1      4624    3    0    1
 -2      1690      1713      1948      2165
 -1      4625    3    0    1
 -2      2589       675      2649      2718
 -1      4626    3    0    1
 -2      1618       712      2337      2391
 -1      4627    3    0    1
 -2      2352      2152      2572      2925
 -1      4628    3    0    1
 -2      2500      2009      2561      2708
 -1      4629    3    0    1
 -2      1654      1631      1665      2598
 -1      4630    3    0    1
 -2      1001      2492      2720      2868
 -1      4631    3    0    1
 -2      1083      1974      2513      2710
 -1      4632    3    0    1
 -2       915      2806      2819      2906
 -1      4633    3    0    1
 -2        29        32      1177      2825
 -1      4634    3    0    1
 -2      1056      2326      2520      2679
 -1      4635    3    0    1
 -2      1363       849      2364      2395
 -1      4636    3    0    1
 -2      1734      1815      1886      1993
 -1      4637    3    0    1
 -2      1698      1886      1932      1993
 -1      4638    3    0    1
 -2      1698      1734      1886      1993
 -1      4639    3    0    1
 -2      1813      2100      2396      2458
 -1      4640    3    0    1
 -2      1703      1589      1814      1994
 -1      4641    3    0    1
 -2      1350       401      2707      2869
 -1      4642    3    0    1
 -2      1814      1816      1970      1994
 -1      4643    3    0    1
 -2      1703      1814      1970      1994
 -1      4644    3    0    1
 -2      2167      1091      2331      2365
 -1      4645    3    0    1
 -2      2045      1936      2794      1928
 -1      4646    3    0    1
 -2      1535       342      1624      2396
 -1      4647    3    0    1
 -2      2331       290      2348      2365
 -1      4648    3    0    1
 -2      1912       420      2246      2365
 -1      4649    3    0    1
 -2      1598      1703      1816      1994
 -1      4650    3    0    1
 -2      1816      1703      1970      1994
 -1      4651    3    0    1
 -2        84        67      2017      2776
 -1      4652    3    0    1
 -2       365       177      1017      1996
 -1      4653    3    0    1
 -2      2299      2872      2888      2905
 -1      4654    3    0    1
 -2      1804      1811      1827      2211
 -1      4655    3    0    1
 -2      2827      2244      2878      2886
 -1      4656    3    0    1
 -2       976      2110      2238      2408
 -1      4657    3    0    1
 -2      2124       880      2249      2621
 -1      4658    3    0    1
 -2       432        66      1201      2435
 -1      4659    3    0    1
 -2      1614      2343      2627      2693
 -1      4660    3    0    1
 -2      1017       177      1020      1996
 -1      4661    3    0    1
 -2      2369      1591      2567      2767
 -1      4662    3    0    1
 -2      2327      2006      2476      2694
 -1      4663    3    0    1
 -2      1177        37      2039      2706
 -1      4664    3    0    1
 -2       957       370      2464      2605
 -1      4665    3    0    1
 -2      2764      2225      2878      2886
 -1      4666    3    0    1
 -2       384       432       932      2435
 -1      4667    3    0    1
 -2       161       157      1630      2532
 -1      4668    3    0    1
 -2       243       246      1067      2499
 -1      4669    3    0    1
 -2       993      2166      2305      2652
 -1      4670    3    0    1
 -2      1762      1622      2878      2886
 -1      4671    3    0    1
 -2       369      1706      2624      2763
 -1      4672    3    0    1
 -2      1085       808      2290      2660
 -1      4673    3    0    1
 -2      1614      1998      2343      2693
 -1      4674    3    0    1
 -2       520       543      1926      2314
 -1      4675    3    0    1
 -2       157       161      1004      2532
 -1      4676    3    0    1
 -2      1004       161      2301      2532
 -1      4677    3    0    1
 -2      1606      1694      1989      2141
 -1      4678    3    0    1
 -2      1579      1616      2088      2188
 -1      4679    3    0    1
 -2      2230      2563      2573      2924
 -1      4680    3    0    1
 -2       431       909      2258      2603
 -1      4681    3    0    1
 -2      1702      1548      2172      2604
 -1      4682    3    0    1
 -2      1533      1606      1989      2141
 -1      4683    3    0    1
 -2       472       909      2368      2603
 -1      4684    3    0    1
 -2      1846      2045      2091      2189
 -1      4685    3    0    1
 -2      2892      1432      1433      3093
 -1      4686    3    0    1
 -2      1277      2159      2575      2639
 -1      4687    3    0    1
 -2      1461      1488      1492      3075
 -1      4688    3    0    1
 -2      1417      1448      3106      1489
 -1      4689    3    0    1
 -2      1550      1892      2088      2188
 -1      4690    3    0    1
 -2       307       311      1116      2276
 -1      4691    3    0    1
 -2      1758      1611      1987      2182
 -1      4692    3    0    1
 -2      1674      1552      2457      2571
 -1      4693    3    0    1
 -2      1623        70      2462      2857
 -1      4694    3    0    1
 -2      1815      1886      1993      2128
 -1      4695    3    0    1
 -2       466       459      2273      2614
 -1      4696    3    0    1
 -2       966       591       967      2118
 -1      4697    3    0    1
 -2      2319      2213      2342      2405
 -1      4698    3    0    1
 -2      2060        15      2258      2808
 -1      4699    3    0    1
 -2       591       592       967      2118
 -1      4700    3    0    1
 -2       348       966       967      2118
 -1      4701    3    0    1
 -2       592      1751      2093      2118
 -1      4702    3    0    1
 -2       967       592      2093      2118
 -1      4703    3    0    1
 -2       968       592      1751      2093
 -1      4704    3    0    1
 -2      1571      1671      2040      2312
 -1      4705    3    0    1
 -2      1012      2531      2589      2830
 -1      4706    3    0    1
 -2       712      2241      2391      2612
 -1      4707    3    0    1
 -2       197      2241      2361      2467
 -1      4708    3    0    1
 -2      1617      1594      1775      2121
 -1      4709    3    0    1
 -2      2020       966      2118      2412
 -1      4710    3    0    1
 -2      1689      1714      1777      2104
 -1      4711    3    0    1
 -2      1974       268      2513      2811
 -1      4712    3    0    1
 -2      1529      2213      2342      2484
 -1      4713    3    0    1
 -2      1714      1675      1924      1777
 -1      4714    3    0    1
 -2      1675      1714      1924      2014
 -1      4715    3    0    1
 -2      1402      1147      1963      2014
 -1      4716    3    0    1
 -2      2036      2223      2581      2829
 -1      4717    3    0    1
 -2      1787       802      1843      2432
 -1      4718    3    0    1
 -2      1093      2075      2310      2331
 -1      4719    3    0    1
 -2       974       116       976      2110
 -1      4720    3    0    1
 -2       328      1398       334      2370
 -1      4721    3    0    1
 -2      1527      2466      2734      2781
 -1      4722    3    0    1
 -2      1614      1998      2168      2216
 -1      4723    3    0    1
 -2      1395      1398      2234      2371
 -1      4724    3    0    1
 -2      1962      1822      2010      2375
 -1      4725    3    0    1
 -2       883      1397       884      2239
 -1      4726    3    0    1
 -2      1527      1720      2466      2781
 -1      4727    3    0    1
 -2        84       378      1745      2017
 -1      4728    3    0    1
 -2      1211       949      2534      2535
 -1      4729    3    0    1
 -2       538      1200      1861      2017
 -1      4730    3    0    1
 -2      1200        67      1821      2017
 -1      4731    3    0    1
 -2       556       949      1200      2017
 -1      4732    3    0    1
 -2       949        84      1200      2017
 -1      4733    3    0    1
 -2       378        84       949      2017
 -1      4734    3    0    1
 -2       538       556      1200      2017
 -1      4735    3    0    1
 -2        84        67      1200      2017
 -1      4736    3    0    1
 -2      1559       391      2390      2498
 -1      4737    3    0    1
 -2       519      1188      2232      2450
 -1      4738    3    0    1
 -2      2266      2707      2721      2860
 -1      4739    3    0    1
 -2      1817      1732      2000      2065
 -1      4740    3    0    1
 -2      2235         9      2772      2780
 -1      4741    3    0    1
 -2      1390      1137      2124      2302
 -1      4742    3    0    1
 -2      1799      2090      3087      3129
 -1      4743    3    0    1
 -2      2306      1793      2492      2540
 -1      4744    3    0    1
 -2      1716      2382      2421      2539
 -1      4745    3    0    1
 -2      1599      1587      1728      2397
 -1      4746    3    0    1
 -2      1538      1700      1934      2094
 -1      4747    3    0    1
 -2      3089      1415      2982      3110
 -1      4748    3    0    1
 -2       956        80      1972      2413
 -1      4749    3    0    1
 -2      1855      2102      2378      2607
 -1      4750    3    0    1
 -2       905       463      2207      2609
 -1      4751    3    0    1
 -2       940      1209      1803      2022
 -1      4752    3    0    1
 -2        80      1773      2281      2413
 -1      4753    3    0    1
 -2       558      1923      2567      2680
 -1      4754    3    0    1
 -2       559       952      1645      2021
 -1      4755    3    0    1
 -2       330      1938      1257       333
 -1      4756    3    0    1
 -2      1630       654      1902      2440
 -1      4757    3    0    1
 -2      1676       330      2054      2055
 -1      4758    3    0    1
 -2       520       519       932      2232
 -1      4759    3    0    1
 -2      2309       435      2385      2659
 -1      4760    3    0    1
 -2      1696      1558      2095      2256
 -1      4761    3    0    1
 -2      1734      1815      1953      2245
 -1      4762    3    0    1
 -2      1842      1845      2027      2419
 -1      4763    3    0    1
 -2       988      2029      2209      2423
 -1      4764    3    0    1
 -2      1755      2308      2476      2528
 -1      4765    3    0    1
 -2       350      2199      2480      2503
 -1      4766    3    0    1
 -2        15       909      1163      2258
 -1      4767    3    0    1
 -2       961      2472      2778      2798
 -1      4768    3    0    1
 -2       314       294      1831      2220
 -1      4769    3    0    1
 -2      1066      2347      2592      2761
 -1      4770    3    0    1
 -2       284       286      1832      2032
 -1      4771    3    0    1
 -2       607      2181      2206      2408
 -1      4772    3    0    1
 -2      1388       875       876      2817
 -1      4773    3    0    1
 -2      1718      1615      1754      2158
 -1      4774    3    0    1
 -2      1384      1842      1895      2027
 -1      4775    3    0    1
 -2      1608      1620      1647      2180
 -1      4776    3    0    1
 -2      1750      1796      1916      2239
 -1      4777    3    0    1
 -2       410         9      1603      2383
 -1      4778    3    0    1
 -2      1874      1768      2215      2687
 -1      4779    3    0    1
 -2      2498       927      2554      2822
 -1      4780    3    0    1
 -2      1724      2085      2190      2210
 -1      4781    3    0    1
 -2       927      2498      2554      2686
 -1      4782    3    0    1
 -2      1040      2159      2280      2597
 -1      4783    3    0    1
 -2      1788       988      2130       133
 -1      4784    3    0    1
 -2      1245       988       631      2029
 -1      4785    3    0    1
 -2      2040      2244      2312      2827
 -1      4786    3    0    1
 -2       286       284      1334      2032
 -1      4787    3    0    1
 -2      1549      2035      2401      2611
 -1      4788    3    0    1
 -2      2509       774      2791      2812
 -1      4789    3    0    1
 -2       105       966      2118      2403
 -1      4790    3    0    1
 -2      2088      1892      2131      2188
 -1      4791    3    0    1
 -2      1781      1822      2162      2375
 -1      4792    3    0    1
 -2      1702      1548      2041      2296
 -1      4793    3    0    1
 -2       851      1365      1106      2169
 -1      4794    3    0    1
 -2       393      1186      2390      2702
 -1      4795    3    0    1
 -2      1813      1789      2086      2458
 -1      4796    3    0    1
 -2      2353      1014      2477      2803
 -1      4797    3    0    1
 -2      1670      1646      1769      2171
 -1      4798    3    0    1
 -2      1824      2441      2478      2785
 -1      4799    3    0    1
 -2       136      2175      2282      2829
 -1      4800    3    0    1
 -2      1091      1093       822      2167
 -1      4801    3    0    1
 -2       287      1095      1096      2348
 -1      4802    3    0    1
 -2      2176      1056      2679      2713
 -1      4803    3    0    1
 -2      1813      1553      2100      2458
 -1      4804    3    0    1
 -2      1245      1693      2029      2036
 -1      4805    3    0    1
 -2       631      1245      2029      2036
 -1      4806    3    0    1
 -2      1834      1693      1956      2036
 -1      4807    3    0    1
 -2       682       675      1266      2649
 -1      4808    3    0    1
 -2       223       225      1576      2807
 -1      4809    3    0    1
 -2      1693      1245      1956      2036
 -1      4810    3    0    1
 -2      1753      1897      2108      2224
 -1      4811    3    0    1
 -2       891       890      1924      2330
 -1      4812    3    0    1
 -2      1753      1622      1897      2224
 -1      4813    3    0    1
 -2      1245       631      1956      2036
 -1      4814    3    0    1
 -2      1613      1716      2043      2382
 -1      4815    3    0    1
 -2      1800       615      1966      2538
 -1      4816    3    0    1
 -2      1734      2101      2393      2775
 -1      4817    3    0    1
 -2      2031      2192      2571      2785
 -1      4818    3    0    1
 -2      2564      1632      2633      2848
 -1      4819    3    0    1
 -2       511      1186      1907      2269
 -1      4820    3    0    1
 -2      1552      1802      2081      2457
 -1      4821    3    0    1
 -2       641      3014      3031      3032
 -1      4822    3    0    1
 -2       409      1339      2633      2848
 -1      4823    3    0    1
 -2      1598      1994      2364      2382
 -1      4824    3    0    1
 -2       216       426      1046      2274
 -1      4825    3    0    1
 -2       430       909      2603      2706
 -1      4826    3    0    1
 -2       398       951      1210      2259
 -1      4827    3    0    1
 -2      1311       771       778      2659
 -1      4828    3    0    1
 -2       136       989      1244      2175
 -1      4829    3    0    1
 -2      3090      2951      3095      1446
 -1      4830    3    0    1
 -2      1878      1735      2004      2233
 -1      4831    3    0    1
 -2       907       471      1542      2294
 -1      4832    3    0    1
 -2      1674      1552      2081      2457
 -1      4833    3    0    1
 -2      1892      1563      2028      2131
 -1      4834    3    0    1
 -2        23      2539      2786      2826
 -1      4835    3    0    1
 -2      2570      1175      2675      2826
 -1      4836    3    0    1
 -2      1381      1126      1763      2681
 -1      4837    3    0    1
 -2       679      2062      2243      2838
 -1      4838    3    0    1
 -2       951      1923      2257      2567
 -1      4839    3    0    1
 -2      1728      1543      2397      2574
 -1      4840    3    0    1
 -2      2257      1923      2369      2567
 -1      4841    3    0    1
 -2      2004      1568      2005      2233
 -1      4842    3    0    1
 -2      1900      1960      2442      2548
 -1      4843    3    0    1
 -2      2006      2119      2311      2357
 -1      4844    3    0    1
 -2      2051      1755      2111      2327
 -1      4845    3    0    1
 -2      1186      1907      2269      2702
 -1      4846    3    0    1
 -2      1531      1601      1609      2163
 -1      4847    3    0    1
 -2      1697      1828      1851      2468
 -1      4848    3    0    1
 -2      1667      1568      2004      2428
 -1      4849    3    0    1
 -2      2087      2377      2753      2849
 -1      4850    3    0    1
 -2      1720      1625      2263      2407
 -1      4851    3    0    1
 -2       136      2282      2581      2829
 -1      4852    3    0    1
 -2      1893      1134      1995      2359
 -1      4853    3    0    1
 -2      1587      1969      1976      2359
 -1      4854    3    0    1
 -2      1068       776      1935      2278
 -1      4855    3    0    1
 -2       845       846      1897      2224
 -1      4856    3    0    1
 -2       340       175      2350      2606
 -1      4857    3    0    1
 -2      1901      1593      1903      2455
 -1      4858    3    0    1
 -2      2075      2114      2283      2310
 -1      4859    3    0    1
 -2      1671      1596      2040      2312
 -1      4860    3    0    1
 -2      1059       252      1070      2047
 -1      4861    3    0    1
 -2      1834      1522      2052      2437
 -1      4862    3    0    1
 -2       376       252      1059      2047
 -1      4863    3    0    1
 -2      1522      1827      2052      2437
 -1      4864    3    0    1
 -2      1803       556      2017      2534
 -1      4865    3    0    1
 -2      2161       243      2849      2902
 -1      4866    3    0    1
 -2      1912       831      2079      2336
 -1      4867    3    0    1
 -2      1035       712      2391      2536
 -1      4868    3    0    1
 -2       195      1277      2159      2575
 -1      4869    3    0    1
 -2       631      1956      2036      2223
 -1      4870    3    0    1
 -2      2008      2006      2327      2694
 -1      4871    3    0    1
 -2       932      1201      2314      2435
 -1      4872    3    0    1
 -2      1680      1878      2005      2316
 -1      4873    3    0    1
 -2      1098      1338      1684      2316
 -1      4874    3    0    1
 -2      1338      1098      1878      2316
 -1      4875    3    0    1
 -2      2011      2184      2512      2703
 -1      4876    3    0    1
 -2      1887      1940      2061      2160
 -1      4877    3    0    1
 -2       967       351      1578      2580
 -1      4878    3    0    1
 -2      2234      1796      2239      2371
 -1      4879    3    0    1
 -2       337      1707      1930      2238
 -1      4880    3    0    1
 -2      2225      2827      2878      2886
 -1      4881    3    0    1
 -2       384       932      2314      2435
 -1      4882    3    0    1
 -2      1821        66      1904      2435
 -1      4883    3    0    1
 -2      1630       654      2440      2720
 -1      4884    3    0    1
 -2      2363       270      2568      2768
 -1      4885    3    0    1
 -2        86       395      1686      2057
 -1      4886    3    0    1
 -2        86      1686      1875      2057
 -1      4887    3    0    1
 -2      1589      1687      1905      2443
 -1      4888    3    0    1
 -2      2101       867      2393      2775
 -1      4889    3    0    1
 -2      1066       421      1068      2761
 -1      4890    3    0    1
 -2      1369      1615      1917      2193
 -1      4891    3    0    1
 -2      1709      1604      1812      2082
 -1      4892    3    0    1
 -2       309      1120      1379      2193
 -1      4893    3    0    1
 -2      1701      1545      1915      2147
 -1      4894    3    0    1
 -2      1750      1796      2109      2147
 -1      4895    3    0    1
 -2      1750      1545      1796      2147
 -1      4896    3    0    1
 -2       418      2392      2584      2623
 -1      4897    3    0    1
 -2       942      1985      2107      2462
 -1      4898    3    0    1
 -2       251       421      2339      2761
 -1      4899    3    0    1
 -2       386       389      1163      2060
 -1      4900    3    0    1
 -2      1097       386      1163      2060
 -1      4901    3    0    1
 -2       940      1209      2022      1413
 -1      4902    3    0    1
 -2      1723      1543      1940      2061
 -1      4903    3    0    1
 -2      1413      3109      2986      3128
 -1      4904    3    0    1
 -2      2031      2192      2441      2478
 -1      4905    3    0    1
 -2       679      1013      1015      2062
 -1      4906    3    0    1
 -2       431      2258      2566      2603
 -1      4907    3    0    1
 -2      1933      1864      2546      2813
 -1      4908    3    0    1
 -2      3112      3107      3134      1482
 -1      4909    3    0    1
 -2      2190      1573      2210      2796
 -1      4910    3    0    1
 -2       989       142      2581      2829
 -1      4911    3    0    1
 -2       916      1185      2732      1416
 -1      4912    3    0    1
 -2      1864      1523      1933      2546
 -1      4913    3    0    1
 -2       268       272      2811      2887
 -1      4914    3    0    1
 -2      1380       312      1672      2245
 -1      4915    3    0    1
 -2       224       423      2613      2842
 -1      4916    3    0    1
 -2       610       987      1235      2064
 -1      4917    3    0    1
 -2       610       977      1779      2448
 -1      4918    3    0    1
 -2       344       125       987      2064
 -1      4919    3    0    1
 -2       610       627       987      2064
 -1      4920    3    0    1
 -2      1819      1860      2721      2860
 -1      4921    3    0    1
 -2       966      2020      2349      2412
 -1      4922    3    0    1
 -2       580       562      1760      2798
 -1      4923    3    0    1
 -2      1876      1867      2142      2454
 -1      4924    3    0    1
 -2      2015      2109      2637      2687
 -1      4925    3    0    1
 -2       251       421      1071      2067
 -1      4926    3    0    1
 -2      1095       831      2336      2557
 -1      4927    3    0    1
 -2       398      2065      2259      2859
 -1      4928    3    0    1
 -2       783       784      1072      2067
 -1      4929    3    0    1
 -2      1093      2075      2283      2310
 -1      4930    3    0    1
 -2      1095      1912      2079      2348
 -1      4931    3    0    1
 -2      1961       630      2130      2423
 -1      4932    3    0    1
 -2      2142       823      2283      2310
 -1      4933    3    0    1
 -2      1332      1082      1743      2432
 -1      4934    3    0    1
 -2       639      2185      2545      2818
 -1      4935    3    0    1
 -2      1258       999      2313      2880
 -1      4936    3    0    1
 -2      2011       410      2184      2070
 -1      4937    3    0    1
 -2       956       568      2404      2784
 -1      4938    3    0    1
 -2       862      1823      1889      2276
 -1      4939    3    0    1
 -2       291       290      1096      2348
 -1      4940    3    0    1
 -2       400      2020      2403      2417
 -1      4941    3    0    1
 -2      1562      1624      2100      2411
 -1      4942    3    0    1
 -2       263       270      1081      2486
 -1      4943    3    0    1
 -2      1525      1631      1665      2073
 -1      4944    3    0    1
 -2       889      1768      1874      2074
 -1      4945    3    0    1
 -2       893       889      1874      2074
 -1      4946    3    0    1
 -2      1633      1401      1770      2074
 -1      4947    3    0    1
 -2      1633      1770      2016      2074
 -1      4948    3    0    1
 -2      1401      1149      1770      2074
 -1      4949    3    0    1
 -2       893      1874      2016      2074
 -1      4950    3    0    1
 -2      1149       893      2016      2074
 -1      4951    3    0    1
 -2       889       893      1149      2074
 -1      4952    3    0    1
 -2       889      1149      1401      2074
 -1      4953    3    0    1
 -2      1770      1149      2016      2074
 -1      4954    3    0    1
 -2      2089      2149      2420      2607
 -1      4955    3    0    1
 -2      1365       851       852      2169
 -1      4956    3    0    1
 -2      1702        71      1986      2296
 -1      4957    3    0    1
 -2      1056      1059      2326      2451
 -1      4958    3    0    1
 -2      1559      1667      2004      2428
 -1      4959    3    0    1
 -2      1708      1712      1763      2168
 -1      4960    3    0    1
 -2      2492      1001      2699      2868
 -1      4961    3    0    1
 -2      1681       851      2163      2169
 -1      4962    3    0    1
 -2      1894      2087      2849      2902
 -1      4963    3    0    1
 -2      1874      2215      2370      2687
 -1      4964    3    0    1
 -2      2080      1814      2163      2169
 -1      4965    3    0    1
 -2       190       197      1030      2467
 -1      4966    3    0    1
 -2      2367       992      2545      2655
 -1      4967    3    0    1
 -2      2452      1666      2554      2821
 -1      4968    3    0    1
 -2       486       487      2596      2850
 -1      4969    3    0    1
 -2      1551      1549      2120      2319
 -1      4970    3    0    1
 -2      2328      2263      2407      2777
 -1      4971    3    0    1
 -2      1768      1641      2016      2295
 -1      4972    3    0    1
 -2      1563      1961      2024      2418
 -1      4973    3    0    1
 -2      1559      2004      2084      2428
 -1      4974    3    0    1
 -2      2729      1945      2917      2940
 -1      4975    3    0    1
 -2      1607      2084      2428      2468
 -1      4976    3    0    1
 -2      1555      1749      1802      2081
 -1      4977    3    0    1
 -2      1813      2086      2165      2458
 -1      4978    3    0    1
 -2      1553      1813      2165      2458
 -1      4979    3    0    1
 -2      1789      1802      1829      2081
 -1      4980    3    0    1
 -2      1802      1749      1829      2081
 -1      4981    3    0    1
 -2      1789      1552      1802      2081
 -1      4982    3    0    1
 -2      1398      1395      2234      2370
 -1      4983    3    0    1
 -2      1561      1591      1658      2083
 -1      4984    3    0    1
 -2      2175       141      2367      2655
 -1      4985    3    0    1
 -2       391      2390      2498      2702
 -1      4986    3    0    1
 -2      1559      1588      1667      2593
 -1      4987    3    0    1
 -2      1960      1900      2143      2548
 -1      4988    3    0    1
 -2      2496       999      2667      2880
 -1      4989    3    0    1
 -2      1586      1554      2104      2191
 -1      4990    3    0    1
 -2      1150      1786      1931      2085
 -1      4991    3    0    1
 -2      1150       894      1786      2085
 -1      4992    3    0    1
 -2       885       894      1150      2085
 -1      4993    3    0    1
 -2      1674      1813      2081      2086
 -1      4994    3    0    1
 -2      1813      1674      1988      2086
 -1      4995    3    0    1
 -2      1992      1815      2128      2254
 -1      4996    3    0    1
 -2      1592      1826      2089      2460
 -1      4997    3    0    1
 -2      1550      1892      2028      2088
 -1      4998    3    0    1
 -2       932       432      1201      2435
 -1      4999    3    0    1
 -2      1550      1579      1616      2088
 -1      5000    3    0    1
 -2      1616      1579      1890      2188
 -1      5001    3    0    1
 -2       987       344      2064      2619
 -1      5002    3    0    1
 -2      1683      1726      1846      2189
 -1      5003    3    0    1
 -2      2045      1749      2091      2189
 -1      5004    3    0    1
 -2      1286      2668      1426      3114
 -1      5005    3    0    1
 -2      1437       964      1438      2973
 -1      5006    3    0    1
 -2      1209       556      1803      2090
 -1      5007    3    0    1
 -2      1209       953       556      2090
 -1      5008    3    0    1
 -2      1724      1786      1805      2190
 -1      5009    3    0    1
 -2      1555      1936      2045      2091
 -1      5010    3    0    1
 -2      1749      1555      2045      2091
 -1      5011    3    0    1
 -2      1846      1928      1936      2091
 -1      5012    3    0    1
 -2      1936      1928      2045      2091
 -1      5013    3    0    1
 -2      1786      1724      2085      2190
 -1      5014    3    0    1
 -2      1928      1846      2045      2091
 -1      5015    3    0    1
 -2      1563      1657      2030      2130
 -1      5016    3    0    1
 -2      2023      1804      2054      2211
 -1      5017    3    0    1
 -2      1006       368      1017      2744
 -1      5018    3    0    1
 -2      1081       799      2486      2765
 -1      5019    3    0    1
 -2      1407       428      2463      2625
 -1      5020    3    0    1
 -2       615       592       968      2093
 -1      5021    3    0    1
 -2      1548      1590      1702      2172
 -1      5022    3    0    1
 -2       968      1800       615      2093
 -1      5023    3    0    1
 -2       928       511      2172      2270
 -1      5024    3    0    1
 -2      1573      1724      2587      2745
 -1      5025    3    0    1
 -2       880      1390      2124      2249
 -1      5026    3    0    1
 -2      1850      1565      1932      2151
 -1      5027    3    0    1
 -2      1620      1694      1756      2180
 -1      5028    3    0    1
 -2      1756      1694      2141      2180
 -1      5029    3    0    1
 -2      1608      1647      2158      2180
 -1      5030    3    0    1
 -2       397      1368      1917      2193
 -1      5031    3    0    1
 -2      1603      1634      2216      2640
 -1      5032    3    0    1
 -2      2404       957      2605      2784
 -1      5033    3    0    1
 -2      1631      1885      1987      2182
 -1      5034    3    0    1
 -2      1533      1606      2141      2171
 -1      5035    3    0    1
 -2      2298      1602      2387      2389
 -1      5036    3    0    1
 -2      1630      1902      2204      2483
 -1      5037    3    0    1
 -2      1988      1813      2086      2165
 -1      5038    3    0    1
 -2      1562      1624      1813      2100
 -1      5039    3    0    1
 -2      1380       868      1953      2101
 -1      5040    3    0    1
 -2       421       250      1071      2761
 -1      5041    3    0    1
 -2       842       841      2860      2870
 -1      5042    3    0    1
 -2       224      2613      2714      2899
 -1      5043    3    0    1
 -2       349       962      1223      2379
 -1      5044    3    0    1
 -2      2254      1570      2321      2517
 -1      5045    3    0    1
 -2      2478      2441      2502      2665
 -1      5046    3    0    1
 -2      1720      1527      2466      2524
 -1      5047    3    0    1
 -2      1582      1714      1785      2103
 -1      5048    3    0    1
 -2      1689      1554      1714      2104
 -1      5049    3    0    1
 -2      1586      1554      1689      2104
 -1      5050    3    0    1
 -2      2196      1780      2297      2479
 -1      5051    3    0    1
 -2       346       196      2271      2505
 -1      5052    3    0    1
 -2      1714      1554      1785      2104
 -1      5053    3    0    1
 -2      1244       989      2658      2829
 -1      5054    3    0    1
 -2       952      1645      2021      2529
 -1      5055    3    0    1
 -2      2110       976      2206      2408
 -1      5056    3    0    1
 -2      2921      3086      3102      3103
 -1      5057    3    0    1
 -2      1382       315      1975      2157
 -1      5058    3    0    1
 -2      1848       858      1869      2400
 -1      5059    3    0    1
 -2      1999      1644      2183      2400
 -1      5060    3    0    1
 -2       858       857      1869      2400
 -1      5061    3    0    1
 -2      1683      1846      2091      2189
 -1      5062    3    0    1
 -2      1101      1729      1897      2108
 -1      5063    3    0    1
 -2       845      1101      1897      2108
 -1      5064    3    0    1
 -2      1053      2071      2410      2746
 -1      5065    3    0    1
 -2      1133      1135      1976      2384
 -1      5066    3    0    1
 -2      1053       750      2416      2746
 -1      5067    3    0    1
 -2       750      2007      2416      2746
 -1      5068    3    0    1
 -2      2349        89      2413      2608
 -1      5069    3    0    1
 -2      2315      1267      2691      2733
 -1      5070    3    0    1
 -2       122       116       974      2110
 -1      5071    3    0    1
 -2       122      1880      1966      2110
 -1      5072    3    0    1
 -2       116       122      1966      2110
 -1      5073    3    0    1
 -2      1885       208      1987      2182
 -1      5074    3    0    1
 -2      2919      1765      2953      3105
 -1      5075    3    0    1
 -2       116       337       976      2110
 -1      5076    3    0    1
 -2      1557      1547      1611      2113
 -1      5077    3    0    1
 -2      1042       728      1954      2650
 -1      5078    3    0    1
 -2      1675      1963      2014      2330
 -1      5079    3    0    1
 -2       120       981      2019      2447
 -1      5080    3    0    1
 -2      1300      2111      2275      2285
 -1      5081    3    0    1
 -2      2111      1595      2275      2285
 -1      5082    3    0    1
 -2      1784      1120      1917      2193
 -1      5083    3    0    1
 -2      1368      1369      1917      2193
 -1      5084    3    0    1
 -2      1120       397      1917      2193
 -1      5085    3    0    1
 -2      1727      1148      1852      2116
 -1      5086    3    0    1
 -2      1727      1852      2025      2116
 -1      5087    3    0    1
 -2       888      1148      1400      2116
 -1      5088    3    0    1
 -2      1638      2135      2297      2479
 -1      5089    3    0    1
 -2      1780      1638      2297      2479
 -1      5090    3    0    1
 -2      1148       892      2025      2116
 -1      5091    3    0    1
 -2       888       892      1148      2116
 -1      5092    3    0    1
 -2      1852      1148      2025      2116
 -1      5093    3    0    1
 -2      3097       381      1448      3106
 -1      5094    3    0    1
 -2      2285      1717      2446      2731
 -1      5095    3    0    1
 -2      1776      1566      1952      2250
 -1      5096    3    0    1
 -2      1748      1903      1952      2250
 -1      5097    3    0    1
 -2       752       750      2304      2416
 -1      5098    3    0    1
 -2      3107      1440      1482      1483
 -1      5099    3    0    1
 -2      1788       988      2209      2423
 -1      5100    3    0    1
 -2       957       965      2404      2464
 -1      5101    3    0    1
 -2       333      1798      2439      2790
 -1      5102    3    0    1
 -2      3094      1451      3117      3120
 -1      5103    3    0    1
 -2       981       978      2019      2538
 -1      5104    3    0    1
 -2       348       105      2118      2403
 -1      5105    3    0    1
 -2      1676      1804      1827      2211
 -1      5106    3    0    1
 -2      1151       886       895      2759
 -1      5107    3    0    1
 -2       966       400      2020      2403
 -1      5108    3    0    1
 -2      1995      1893      2359      2574
 -1      5109    3    0    1
 -2      1811      1804      2023      2211
 -1      5110    3    0    1
 -2      1779       990      2344      2968
 -1      5111    3    0    1
 -2      2474      1339       836      2564
 -1      5112    3    0    1
 -2      1539      1732      1772      2122
 -1      5113    3    0    1
 -2      1538      1539      1772      2122
 -1      5114    3    0    1
 -2      2000      1964      2065      2122
 -1      5115    3    0    1
 -2      1732      2000      2065      2122
 -1      5116    3    0    1
 -2      1964      1732      2065      2122
 -1      5117    3    0    1
 -2       338      2088      2179      2335
 -1      5118    3    0    1
 -2      1527      2124      2249      2469
 -1      5119    3    0    1
 -2       339      1936      2329      2794
 -1      5120    3    0    1
 -2      2045      1555      2457      2794
 -1      5121    3    0    1
 -2      1936      1928      2329      2794
 -1      5122    3    0    1
 -2      2329      2146      2548      2794
 -1      5123    3    0    1
 -2      2345       124      2620      2823
 -1      5124    3    0    1
 -2       879      1390      1137      2124
 -1      5125    3    0    1
 -2      1233      2137      2495      2582
 -1      5126    3    0    1
 -2      1390       879       880      2124
 -1      5127    3    0    1
 -2       606       974      2181      2823
 -1      5128    3    0    1
 -2       976       607      2408      2471
 -1      5129    3    0    1
 -2      1613      1600      2043      2484
 -1      5130    3    0    1
 -2       836      1637      1761      2474
 -1      5131    3    0    1
 -2      1747      1030      2522      2544
 -1      5132    3    0    1
 -2      1834      1650      1956      2483
 -1      5133    3    0    1
 -2       919        32      2255      2845
 -1      5134    3    0    1
 -2      1570      1602      1672      2298
 -1      5135    3    0    1
 -2      2044      1839      2207      2552
 -1      5136    3    0    1
 -2      1159       459      2614      2717
 -1      5137    3    0    1
 -2       559       952      1773      2680
 -1      5138    3    0    1
 -2      1612      1544      1701      2202
 -1      5139    3    0    1
 -2      2009      1619      2013      2129
 -1      5140    3    0    1
 -2      1701      1544      2046      2202
 -1      5141    3    0    1
 -2       874       873      1129      2473
 -1      5142    3    0    1
 -2      1563      2030      2042      2130
 -1      5143    3    0    1
 -2      1070      1059      2047      2689
 -1      5144    3    0    1
 -2      2030      1961      2042      2130
 -1      5145    3    0    1
 -2      2277      1560      2325      2648
 -1      5146    3    0    1
 -2      2028      1957      2088      2131
 -1      5147    3    0    1
 -2       655      2306      2440      2492
 -1      5148    3    0    1
 -2      1691      1951      2106      2132
 -1      5149    3    0    1
 -2      2399       943      2776      2885
 -1      5150    3    0    1
 -2      1163      1097      2060      2461
 -1      5151    3    0    1
 -2       832      1542      2409      2461
 -1      5152    3    0    1
 -2      1643      1990      2099      2133
 -1      5153    3    0    1
 -2      1648      1643      2099      2133
 -1      5154    3    0    1
 -2      1592      1648      2099      2133
 -1      5155    3    0    1
 -2       395       942      2107      2462
 -1      5156    3    0    1
 -2      1579      1710      1890      2179
 -1      5157    3    0    1
 -2      1972       567      2107      2178
 -1      5158    3    0    1
 -2       197      1030      2361      2544
 -1      5159    3    0    1
 -2      1864      1922      2361      2544
 -1      5160    3    0    1
 -2      2173      1864      2522      2544
 -1      5161    3    0    1
 -2      1996       688      2506      2883
 -1      5162    3    0    1
 -2      2338       197      2361      2544
 -1      5163    3    0    1
 -2      1923       559      2259      2712
 -1      5164    3    0    1
 -2      2096      2561      2630      2708
 -1      5165    3    0    1
 -2      2040      2092      2129      2136
 -1      5166    3    0    1
 -2      1129       873      1386      2473
 -1      5167    3    0    1
 -2       874      2138      2355      2473
 -1      5168    3    0    1
 -2      2138      1744      2355      2473
 -1      5169    3    0    1
 -2       160       157      2532      2868
 -1      5170    3    0    1
 -2      1788       133      2196      2198
 -1      5171    3    0    1
 -2      1779       634      2449      2496
 -1      5172    3    0    1
 -2      1699      2756      2771      2872
 -1      5173    3    0    1
 -2      1016      1275      2649      2956
 -1      5174    3    0    1
 -2      2635      1991      2837      2873
 -1      5175    3    0    1
 -2      1779       627      2448      2449
 -1      5176    3    0    1
 -2       987       627       634      2449
 -1      5177    3    0    1
 -2       798      1321      1080      2229
 -1      5178    3    0    1
 -2       586       964      1233      2137
 -1      5179    3    0    1
 -2       604       586      1233      2137
 -1      5180    3    0    1
 -2      1277      1040      2159      2639
 -1      5181    3    0    1
 -2      1425      1069      1439      3120
 -1      5182    3    0    1
 -2      1639      1670      1718      2141
 -1      5183    3    0    1
 -2      1639      1718      1754      2141
 -1      5184    3    0    1
 -2      1694      1606      1756      2141
 -1      5185    3    0    1
 -2      1718      1670      2056      2141
 -1      5186    3    0    1
 -2      1670      1659      2056      2141
 -1      5187    3    0    1
 -2      1639      1606      1670      2141
 -1      5188    3    0    1
 -2      1606      1639      1754      2141
 -1      5189    3    0    1
 -2      1546       185      1900      2143
 -1      5190    3    0    1
 -2       185      1546      1715      2143
 -1      5191    3    0    1
 -2      1814      1531      1970      2163
 -1      5192    3    0    1
 -2       124       122      1880      2144
 -1      5193    3    0    1
 -2       122       124       979      2144
 -1      5194    3    0    1
 -2      1900      1577      2442      2518
 -1      5195    3    0    1
 -2      2084       393      2269      2390
 -1      5196    3    0    1
 -2       979       615      1800      2144
 -1      5197    3    0    1
 -2      1800       615      2093      2144
 -1      5198    3    0    1
 -2      2145      2036      2223      2581
 -1      5199    3    0    1
 -2      1602      2298      2387      2844
 -1      5200    3    0    1
 -2      1119      1117      1602      2844
 -1      5201    3    0    1
 -2      1762       319      1891      2224
 -1      5202    3    0    1
 -2       272      2332      2811      2887
 -1      5203    3    0    1
 -2      1606      1670      2141      2171
 -1      5204    3    0    1
 -2      1605      1073      2583      2896
 -1      5205    3    0    1
 -2      1850      1890      2179      2549
 -1      5206    3    0    1
 -2      2086      1553      2165      2458
 -1      5207    3    0    1
 -2      2039        29      2825      2855
 -1      5208    3    0    1
 -2      1564      1858      2289      2638
 -1      5209    3    0    1
 -2      1757      1701      1915      2147
 -1      5210    3    0    1
 -2      1915      1750      2109      2147
 -1      5211    3    0    1
 -2      1757      1915      2109      2147
 -1      5212    3    0    1
 -2      1786      1807      2085      2148
 -1      5213    3    0    1
 -2      1724      1786      2085      2148
 -1      5214    3    0    1
 -2      1807      1786      1931      2148
 -1      5215    3    0    1
 -2      1540      1807      1931      2148
 -1      5216    3    0    1
 -2      2339       383      1935      2688
 -1      5217    3    0    1
 -2      1805      1636      1931      2148
 -1      5218    3    0    1
 -2      1786      1805      1931      2148
 -1      5219    3    0    1
 -2      1636      1540      1931      2148
 -1      5220    3    0    1
 -2      1612      1544      2109      2637
 -1      5221    3    0    1
 -2       389       386      1801      2445
 -1      5222    3    0    1
 -2      2291       735      2612      2754
 -1      5223    3    0    1
 -2      2229      2486      2789      2820
 -1      5224    3    0    1
 -2       544       942      2107      2178
 -1      5225    3    0    1
 -2      1792      1761      2112      2150
 -1      5226    3    0    1
 -2      1778      1792      2112      2150
 -1      5227    3    0    1
 -2      1761      1637      2112      2150
 -1      5228    3    0    1
 -2       999      1246      2496      2667
 -1      5229    3    0    1
 -2      1782      1636      2059      2195
 -1      5230    3    0    1
 -2      1718      1754      2141      2180
 -1      5231    3    0    1
 -2      1647      1754      2158      2180
 -1      5232    3    0    1
 -2      1606      1756      2141      2180
 -1      5233    3    0    1
 -2       421      1071      2067      2761
 -1      5234    3    0    1
 -2      1982      1886      2128      2151
 -1      5235    3    0    1
 -2      1886      1932      2128      2151
 -1      5236    3    0    1
 -2      1850      1886      1982      2151
 -1      5237    3    0    1
 -2      1886      1850      1932      2151
 -1      5238    3    0    1
 -2      1843       819      1888      2432
 -1      5239    3    0    1
 -2      1969      1587      2397      2574
 -1      5240    3    0    1
 -2       367      2591      2779      2884
 -1      5241    3    0    1
 -2      1695      1557      1962      2375
 -1      5242    3    0    1
 -2      1822      1781      1950      2375
 -1      5243    3    0    1
 -2      1887      1543      1893      2574
 -1      5244    3    0    1
 -2       338      2088      2131      2188
 -1      5245    3    0    1
 -2      1625      2124      2219      2781
 -1      5246    3    0    1
 -2      1640      2272      2292      2676
 -1      5247    3    0    1
 -2       175      2350      2606      2735
 -1      5248    3    0    1
 -2       678      2062      2477      2801
 -1      5249    3    0    1
 -2       459      1162      1159      2614
 -1      5250    3    0    1
 -2      2243      1015      2606      2735
 -1      5251    3    0    1
 -2      2291      1044      2459      2536
 -1      5252    3    0    1
 -2      1971      1549      2035      2401
 -1      5253    3    0    1
 -2       664      1006      2562      2646
 -1      5254    3    0    1
 -2      2638      1945      2729      2871
 -1      5255    3    0    1
 -2      1860      1352      2860      2870
 -1      5256    3    0    1
 -2      1626      1647      1784      2158
 -1      5257    3    0    1
 -2      1615      1647      1754      2158
 -1      5258    3    0    1
 -2      1647      1615      1784      2158
 -1      5259    3    0    1
 -2      1647      1620      1754      2180
 -1      5260    3    0    1
 -2      1726      1683      2317      2323
 -1      5261    3    0    1
 -2      1707       337      2110      2238
 -1      5262    3    0    1
 -2      1573      2465      2696      2796
 -1      5263    3    0    1
 -2      1472      2981      3135      3043
 -1      5264    3    0    1
 -2      2671      2722      2769      2945
 -1      5265    3    0    1
 -2      2099      1592      2133      2460
 -1      5266    3    0    1
 -2       950       375      1773      2281
 -1      5267    3    0    1
 -2      1040       195      1277      2159
 -1      5268    3    0    1
 -2       361       214      1040      2159
 -1      5269    3    0    1
 -2       214       195      1040      2159
 -1      5270    3    0    1
 -2       514       508      2288      2602
 -1      5271    3    0    1
 -2      1719      1868      1920      2170
 -1      5272    3    0    1
 -2      1534      1872      2069      2170
 -1      5273    3    0    1
 -2      1534      1644      1872      2170
 -1      5274    3    0    1
 -2      1633      1770      1948      2165
 -1      5275    3    0    1
 -2      1633      1562      1770      2165
 -1      5276    3    0    1
 -2      2213      1551      2319      2342
 -1      5277    3    0    1
 -2      1563      2028      2131      2471
 -1      5278    3    0    1
 -2      1569      2115      2248      2698
 -1      5279    3    0    1
 -2       407       313      2414      2737
 -1      5280    3    0    1
 -2      2487       736      2520      2578
 -1      5281    3    0    1
 -2      2124      2219      2249      2302
 -1      5282    3    0    1
 -2      1085      2290      2588      2660
 -1      5283    3    0    1
 -2       343      1535      2164      2353
 -1      5284    3    0    1
 -2       447       325      1844      2478
 -1      5285    3    0    1
 -2      1683      1726      2243      2323
 -1      5286    3    0    1
 -2       831      2079      2336      2660
 -1      5287    3    0    1
 -2      1335      1766      2079      2660
 -1      5288    3    0    1
 -2      2146      2045      2457      2794
 -1      5289    3    0    1
 -2      2923      3090      1447      2992
 -1      5290    3    0    1
 -2      1014       343      2353      2477
 -1      5291    3    0    1
 -2      2191      2196      2198      2677
 -1      5292    3    0    1
 -2       177      2434      2770      2830
 -1      5293    3    0    1
 -2      1564      1858      1941      2373
 -1      5294    3    0    1
 -2      2228      2046       333      2306
 -1      5295    3    0    1
 -2      1938       333      2046      2306
 -1      5296    3    0    1
 -2      1448      3096      3138      3013
 -1      5297    3    0    1
 -2       116      1707      1966      2653
 -1      5298    3    0    1
 -2      1707      1930      2238      2655
 -1      5299    3    0    1
 -2      2192      2441      2571      2785
 -1      5300    3    0    1
 -2      2084       393      2428      2468
 -1      5301    3    0    1
 -2      1028      1747      1980      2271
 -1      5302    3    0    1
 -2      1590       928      1702      2172
 -1      5303    3    0    1
 -2      1543      1728      2397      2617
 -1      5304    3    0    1
 -2       907       471       908      2174
 -1      5305    3    0    1
 -2       412       413       908      2174
 -1      5306    3    0    1
 -2       413        12       908      2174
 -1      5307    3    0    1
 -2       903       415      2153      2501
 -1      5308    3    0    1
 -2        12       907       908      2174
 -1      5309    3    0    1
 -2      1359      1101      1729      2384
 -1      5310    3    0    1
 -2      1359      1729      2108      2384
 -1      5311    3    0    1
 -2      1906      1685      2246      2553
 -1      5312    3    0    1
 -2      2114      2075      2283      2501
 -1      5313    3    0    1
 -2      1708      1524      1831      2681
 -1      5314    3    0    1
 -2       380       273      1085      2588
 -1      5315    3    0    1
 -2      1091       420      2246      2553
 -1      5316    3    0    1
 -2      2421      1847      2429      2493
 -1      5317    3    0    1
 -2       836      2564      1339       835
 -1      5318    3    0    1
 -2      1311      2354      2385      2659
 -1      5319    3    0    1
 -2      1311      1787      2354      2659
 -1      5320    3    0    1
 -2       336       141      1244      2175
 -1      5321    3    0    1
 -2      1802      1555      2081      2457
 -1      5322    3    0    1
 -2      1882      1276      2221      2226
 -1      5323    3    0    1
 -2      1358       845      1357      2224
 -1      5324    3    0    1
 -2      1357       845      1897      2224
 -1      5325    3    0    1
 -2      1532      1897      2108      2292
 -1      5326    3    0    1
 -2      1674      2031      2571      2785
 -1      5327    3    0    1
 -2      1556      2026      2069      2242
 -1      5328    3    0    1
 -2       841      1352      1100      2870
 -1      5329    3    0    1
 -2       759       736      1047      2176
 -1      5330    3    0    1
 -2       101      2771      2795      2893
 -1      5331    3    0    1
 -2       759      1047      1056      2176
 -1      5332    3    0    1
 -2      2707      1530      2721      2869
 -1      5333    3    0    1
 -2       654       655      2440      2720
 -1      5334    3    0    1
 -2      2119      2117      2311      2357
 -1      5335    3    0    1
 -2      1999      1534      2155      2183
 -1      5336    3    0    1
 -2      1998      1549      2120      2401
 -1      5337    3    0    1
 -2      1644      1610      2400      1909
 -1      5338    3    0    1
 -2      2069      1534      2170      2183
 -1      5339    3    0    1
 -2      1920      2069      2170      2183
 -1      5340    3    0    1
 -2      1634       410      2070      2184
 -1      5341    3    0    1
 -2      1755      2327      2476      2694
 -1      5342    3    0    1
 -2      1569      1634      1778      2184
 -1      5343    3    0    1
 -2      1778      1634      2070      2184
 -1      5344    3    0    1
 -2       190      2271      1028       196
 -1      5345    3    0    1
 -2      1257       333      1938      2306
 -1      5346    3    0    1
 -2       992       640       993      2185
 -1      5347    3    0    1
 -2      2135      1788      2196      2479
 -1      5348    3    0    1
 -2       799      1321      2229      2559
 -1      5349    3    0    1
 -2      1780      1586      2426      2479
 -1      5350    3    0    1
 -2      2184      2011      2569      2703
 -1      5351    3    0    1
 -2       419      1321      1859      2559
 -1      5352    3    0    1
 -2      1767       419      1859      2559
 -1      5353    3    0    1
 -2      2599      1173      2706      2855
 -1      5354    3    0    1
 -2      2293       930      2497      2900
 -1      5355    3    0    1
 -2       419      1767      2519      2559
 -1      5356    3    0    1
 -2      1100      1352      1819      2870
 -1      5357    3    0    1
 -2       831       808      1335      2660
 -1      5358    3    0    1
 -2        46      2537      2604      2705
 -1      5359    3    0    1
 -2      1567      2381      2443      2493
 -1      5360    3    0    1
 -2      2038      1631      2333      2662
 -1      5361    3    0    1
 -2      2477      1014      2801      2803
 -1      5362    3    0    1
 -2      1530      2707      2837      2869
 -1      5363    3    0    1
 -2      2707      2837      2869      2876
 -1      5364    3    0    1
 -2       862       861      1116      2276
 -1      5365    3    0    1
 -2      1918      1876      2114      2673
 -1      5366    3    0    1
 -2      1899       380      2354      2588
 -1      5367    3    0    1
 -2      1716      1613      2043      2286
 -1      5368    3    0    1
 -2      1960      2058      2146      2192
 -1      5369    3    0    1
 -2      1949      1572      2340      2739
 -1      5370    3    0    1
 -2      2333      1611      2594      2739
 -1      5371    3    0    1
 -2      1960      2058      2192      2442
 -1      5372    3    0    1
 -2      1005       332      2186      2699
 -1      5373    3    0    1
 -2       630      1961      2029      2423
 -1      5374    3    0    1
 -2      1534      1593      1691      2455
 -1      5375    3    0    1
 -2       688      1020      2507      2883
 -1      5376    3    0    1
 -2       246      1833      1894      2195
 -1      5377    3    0    1
 -2       968      1800      2093      2199
 -1      5378    3    0    1
 -2      1031      2237      2514      2668
 -1      5379    3    0    1
 -2      2007       750      2416      2669
 -1      5380    3    0    1
 -2      1542       832      2409      2783
 -1      5381    3    0    1
 -2       634      1779      2344      2496
 -1      5382    3    0    1
 -2      2874       913      2877      2906
 -1      5383    3    0    1
 -2       634      1246      2449      2496
 -1      5384    3    0    1
 -2      2913      2671      2949      3086
 -1      5385    3    0    1
 -2        33      2700      2748      2874
 -1      5386    3    0    1
 -2      2313       651      2344      2496
 -1      5387    3    0    1
 -2      1540      1807      2148      2753
 -1      5388    3    0    1
 -2      1868      1533      1989      2541
 -1      5389    3    0    1
 -2      1129      1386      2203      2473
 -1      5390    3    0    1
 -2       968       107       978      2199
 -1      5391    3    0    1
 -2       107       350       978      2199
 -1      5392    3    0    1
 -2       316      1129      2203      2473
 -1      5393    3    0    1
 -2       569      3017      3044      3046
 -1      5394    3    0    1
 -2       627       623       634      3036
 -1      5395    3    0    1
 -2      1472      2962      3015      3144
 -1      5396    3    0    1
 -2      1298      2488      2891      2943
 -1      5397    3    0    1
 -2      1650      1630      2482      2204
 -1      5398    3    0    1
 -2       907       471      2174      2685
 -1      5399    3    0    1
 -2       380       259      1899      2354
 -1      5400    3    0    1
 -2      1649      1530      2266      2795
 -1      5401    3    0    1
 -2      1319      1787      1899      2354
 -1      5402    3    0    1
 -2      1827      1742      1896      2205
 -1      5403    3    0    1
 -2      1827      1896      2052      2205
 -1      5404    3    0    1
 -2      1827      1522      1896      2437
 -1      5405    3    0    1
 -2       862      1116      1823      2276
 -1      5406    3    0    1
 -2      1984      1665      2073      2328
 -1      5407    3    0    1
 -2      2073      1665      2263      2328
 -1      5408    3    0    1
 -2      2539      2421      2786      2826
 -1      5409    3    0    1
 -2       974       122      2110      2206
 -1      5410    3    0    1
 -2       122       974      1880      2206
 -1      5411    3    0    1
 -2       798       799      2229      2895
 -1      5412    3    0    1
 -2      1783      2528      2587      2601
 -1      5413    3    0    1
 -2      1839      2034      2044      2207
 -1      5414    3    0    1
 -2      1724      1573      2587      2601
 -1      5415    3    0    1
 -2       905       412      2034      2207
 -1      5416    3    0    1
 -2      2034       412      2044      2207
 -1      5417    3    0    1
 -2       413       412       905      2207
 -1      5418    3    0    1
 -2      1065      2533      2697      2704
 -1      5419    3    0    1
 -2       410       904      2208      2512
 -1      5420    3    0    1
 -2      2011       410      2070      2208
 -1      5421    3    0    1
 -2       410      1603      2070      2208
 -1      5422    3    0    1
 -2      2493      2421      2521      2570
 -1      5423    3    0    1
 -2      1245       988      2029      2209
 -1      5424    3    0    1
 -2       248       435      1070      2309
 -1      5425    3    0    1
 -2      1744      1762      2138      2355
 -1      5426    3    0    1
 -2       261      1080      2519      2839
 -1      5427    3    0    1
 -2       431       430      2603      2706
 -1      5428    3    0    1
 -2       831      1335      2079      2660
 -1      5429    3    0    1
 -2      1541      2177      2634      2797
 -1      5430    3    0    1
 -2      2610      1830      2712      2859
 -1      5431    3    0    1
 -2      2368       495      2700      2862
 -1      5432    3    0    1
 -2      1177       495      2368      2862
 -1      5433    3    0    1
 -2      1563      1961      2130      2042
 -1      5434    3    0    1
 -2      1727      2442      2518      2665
 -1      5435    3    0    1
 -2       423      1300      2111      2275
 -1      5436    3    0    1
 -2       426       345      2754      2879
 -1      5437    3    0    1
 -2      1767      1859      2576      2728
 -1      5438    3    0    1
 -2      1045      2612      2754      2836
 -1      5439    3    0    1
 -2      1019      2350      2506      2782
 -1      5440    3    0    1
 -2      2298      1602      2389      2551
 -1      5441    3    0    1
 -2      2271      1030       190      1028
 -1      5442    3    0    1
 -2       106       357      1751      2778
 -1      5443    3    0    1
 -2       607      1957      2181      2408
 -1      5444    3    0    1
 -2      1551      1600      2120      2231
 -1      5445    3    0    1
 -2       711       712      1034      2337
 -1      5446    3    0    1
 -2       520       931      2232      2422
 -1      5447    3    0    1
 -2      1979      1851      2240      2515
 -1      5448    3    0    1
 -2      1561      2083      2236      2490
 -1      5449    3    0    1
 -2      1031       706      2050      2514
 -1      5450    3    0    1
 -2       197       190      1034      2467
 -1      5451    3    0    1
 -2      1747      1030      2361      2467
 -1      5452    3    0    1
 -2      2179      1890      2188      2549
 -1      5453    3    0    1
 -2      1402      1147      2014      2330
 -1      5454    3    0    1
 -2      1951      1927      2132      2250
 -1      5455    3    0    1
 -2      1927      1776      1952      2250
 -1      5456    3    0    1
 -2       687      1017      1996      2642
 -1      5457    3    0    1
 -2        23      2521      2539      2826
 -1      5458    3    0    1
 -2      1566      1748      1952      2250
 -1      5459    3    0    1
 -2      2485      1019      2506      2782
 -1      5460    3    0    1
 -2      1342      1339      2474      2633
 -1      5461    3    0    1
 -2       610       977      2448      2582
 -1      5462    3    0    1
 -2       759       736      2176      2520
 -1      5463    3    0    1
 -2        46       406      2537      2705
 -1      5464    3    0    1
 -2       317       409      1339      2633
 -1      5465    3    0    1
 -2      1632      2474      2564      2633
 -1      5466    3    0    1
 -2       230       228      1301      2222
 -1      5467    3    0    1
 -2       556       949      2017      2534
 -1      5468    3    0    1
 -2       876       875      2634      2817
 -1      5469    3    0    1
 -2      1619      2009      2565      2799
 -1      5470    3    0    1
 -2       949       556      1211      2534
 -1      5471    3    0    1
 -2       615       592      2144      2843
 -1      5472    3    0    1
 -2      2008      2466      2524      2613
 -1      5473    3    0    1
 -2      1972       375      2156      2281
 -1      5474    3    0    1
 -2      1125       313      1127      2414
 -1      5475    3    0    1
 -2       228       359      1052      2222
 -1      5476    3    0    1
 -2      1288      1835      2595      2598
 -1      5477    3    0    1
 -2      1631      1654      1885      2598
 -1      5478    3    0    1
 -2      1211      2227      2534      2798
 -1      5479    3    0    1
 -2      2363      1906      2765      2768
 -1      5480    3    0    1
 -2      1815      1734      1953      2393
 -1      5481    3    0    1
 -2      1276       704      2173      2226
 -1      5482    3    0    1
 -2      1744      2203      2355      2473
 -1      5483    3    0    1
 -2      2203       873      2355      2473
 -1      5484    3    0    1
 -2      1386       873      2203      2473
 -1      5485    3    0    1
 -2      2126      2134      2645      2799
 -1      5486    3    0    1
 -2      1065      2533      2659      2697
 -1      5487    3    0    1
 -2       562      1211      2534      2798
 -1      5488    3    0    1
 -2      2381      2585      2682      2695
 -1      5489    3    0    1
 -2      1744      2126      2203      2473
 -1      5490    3    0    1
 -2      1744      2092      2126      2473
 -1      5491    3    0    1
 -2       373       370       961      2227
 -1      5492    3    0    1
 -2       106       373       961      2227
 -1      5493    3    0    1
 -2       961       370      1211      2227
 -1      5494    3    0    1
 -2       370        82      1211      2227
 -1      5495    3    0    1
 -2      1783      1755      2308      2465
 -1      5496    3    0    1
 -2      2035      2235      2772      2780
 -1      5497    3    0    1
 -2      1847      1567      2493      2521
 -1      5498    3    0    1
 -2      1667      1559      2084      2428
 -1      5499    3    0    1
 -2      1587      1969      2359      2574
 -1      5500    3    0    1
 -2      2804      2230      2944      2950
 -1      5501    3    0    1
 -2       873      1387      1385      2355
 -1      5502    3    0    1
 -2      1337       293       322      2376
 -1      5503    3    0    1
 -2      2083      1719      2398      2490
 -1      5504    3    0    1
 -2      1893      1995      2397      2574
 -1      5505    3    0    1
 -2      1636      1782      2059      2745
 -1      5506    3    0    1
 -2       412      2044      2207      2552
 -1      5507    3    0    1
 -2       832       907      1096      2294
 -1      5508    3    0    1
 -2       399      1730      1883      2257
 -1      5509    3    0    1
 -2      1059       760      2326      2451
 -1      5510    3    0    1
 -2      1857       981      2538      2654
 -1      5511    3    0    1
 -2      1071       250      2516      2761
 -1      5512    3    0    1
 -2       510       927      2554      2686
 -1      5513    3    0    1
 -2      2040      1671      2623      2683
 -1      5514    3    0    1
 -2       760      1058      2326      2451
 -1      5515    3    0    1
 -2      1058      2252      2326      2451
 -1      5516    3    0    1
 -2      1163       471      1542      2258
 -1      5517    3    0    1
 -2       471       472      2174      2258
 -1      5518    3    0    1
 -2      1638      1780      2095      2256
 -1      5519    3    0    1
 -2       832       471       907      2294
 -1      5520    3    0    1
 -2       951       399      1883      2257
 -1      5521    3    0    1
 -2       909       472       471      2258
 -1      5522    3    0    1
 -2      1199       535      1658      2236
 -1      5523    3    0    1
 -2       711      1033      2749      2809
 -1      5524    3    0    1
 -2      1566      1748      1851      2515
 -1      5525    3    0    1
 -2      1901      1556      1903      2515
 -1      5526    3    0    1
 -2       723      1031      1286      2237
 -1      5527    3    0    1
 -2       723       706      1031      2237
 -1      5528    3    0    1
 -2      1095       832      1096      2409
 -1      5529    3    0    1
 -2      2109      2015      2234      2687
 -1      5530    3    0    1
 -2       568       957      2404      2784
 -1      5531    3    0    1
 -2      2079      1095      2348      2409
 -1      5532    3    0    1
 -2      1097       832      2079      2409
 -1      5533    3    0    1
 -2      1930       336      2024      2238
 -1      5534    3    0    1
 -2       337      1930      2024      2238
 -1      5535    3    0    1
 -2       976       337      2024      2238
 -1      5536    3    0    1
 -2      1596      1671      2040      2683
 -1      5537    3    0    1
 -2      1697      1653      2063      2240
 -1      5538    3    0    1
 -2      1653      1669      2063      2240
 -1      5539    3    0    1
 -2      1979      1697      2063      2240
 -1      5540    3    0    1
 -2      1851      1697      1979      2240
 -1      5541    3    0    1
 -2      1866      1572      2038      2340
 -1      5542    3    0    1
 -2      2111      2051      2491      2528
 -1      5543    3    0    1
 -2      2346      1866      2386      2701
 -1      5544    3    0    1
 -2      1095       420      2363      2568
 -1      5545    3    0    1
 -2       675      2589      2684      2718
 -1      5546    3    0    1
 -2       640       993      2185      2305
 -1      5547    3    0    1
 -2      2038      1866      2340      2701
 -1      5548    3    0    1
 -2      1669      1731      1809      2555
 -1      5549    3    0    1
 -2       252       248      1070      2689
 -1      5550    3    0    1
 -2       251       421      2067      2339
 -1      5551    3    0    1
 -2      2058      1960      2146      2548
 -1      5552    3    0    1
 -2      2084      1653      2123      2468
 -1      5553    3    0    1
 -2      1662       610      2448      2582
 -1      5554    3    0    1
 -2      1082       802      2049      2432
 -1      5555    3    0    1
 -2      1624      1813      2100      2396
 -1      5556    3    0    1
 -2      1535      1624      2100      2396
 -1      5557    3    0    1
 -2        12       903      1914      2247
 -1      5558    3    0    1
 -2       903        12       905      2247
 -1      5559    3    0    1
 -2      2452      2554      2682      2686
 -1      5560    3    0    1
 -2      1664      2711      2740      2864
 -1      5561    3    0    1
 -2        71       941      1986      2296
 -1      5562    3    0    1
 -2      1918      1876      2673      2703
 -1      5563    3    0    1
 -2      1749      1759      2189      2691
 -1      5564    3    0    1
 -2      1778      1569      2184      2248
 -1      5565    3    0    1
 -2      1034       190      2337      2467
 -1      5566    3    0    1
 -2       776      1068      1935      2470
 -1      5567    3    0    1
 -2      1935      1068      2339      2470
 -1      5568    3    0    1
 -2      2561      1541      2630      2708
 -1      5569    3    0    1
 -2       776      1066      1068      2470
 -1      5570    3    0    1
 -2       925       514       503      1187
 -1      5571    3    0    1
 -2      1068      1066      2347      2470
 -1      5572    3    0    1
 -2      1896      2052      2205      2251
 -1      5573    3    0    1
 -2      1742      1896      2205      2251
 -1      5574    3    0    1
 -2      1896      1522      2052      2251
 -1      5575    3    0    1
 -2      1693       331      2097      2251
 -1      5576    3    0    1
 -2       331      1693      1840      2251
 -1      5577    3    0    1
 -2      2052      1693      2205      2251
 -1      5578    3    0    1
 -2      1693      2097      2205      2251
 -1      5579    3    0    1
 -2      1815      1992      2245      2254
 -1      5580    3    0    1
 -2       307      1116      1375      2276
 -1      5581    3    0    1
 -2      1581      1889      2002      2276
 -1      5582    3    0    1
 -2      1982      2254      2321      2517
 -1      5583    3    0    1
 -2      1079       272      2332      2647
 -1      5584    3    0    1
 -2       976       607      2206      2408
 -1      5585    3    0    1
 -2      1570      1672      1992      2254
 -1      5586    3    0    1
 -2      1981      1908      2321      2517
 -1      5587    3    0    1
 -2      1587      1640      1969      2676
 -1      5588    3    0    1
 -2      2048      3094      3098      3120
 -1      5589    3    0    1
 -2      1548      1702      1986      2296
 -1      5590    3    0    1
 -2      1872      1901      1903      2455
 -1      5591    3    0    1
 -2      2664       583      2743      2755
 -1      5592    3    0    1
 -2      1091       822      2553      2600
 -1      5593    3    0    1
 -2        32       919      2825      2845
 -1      5594    3    0    1
 -2      1907      1186       510      2702
 -1      5595    3    0    1
 -2      2595      1771      2740      2864
 -1      5596    3    0    1
 -2      2167      1091      2246      2600
 -1      5597    3    0    1
 -2        38        54      1188      2255
 -1      5598    3    0    1
 -2       919        38      1188      2255
 -1      5599    3    0    1
 -2      1971      1841      2841      2898
 -1      5600    3    0    1
 -2      1059      2047      2436      2451
 -1      5601    3    0    1
 -2        32       919      1177      2825
 -1      5602    3    0    1
 -2       559       558      1923      2259
 -1      5603    3    0    1
 -2       558       559      1210      2259
 -1      5604    3    0    1
 -2      2343      1549      2415      2611
 -1      5605    3    0    1
 -2       399       398      1537      2259
 -1      5606    3    0    1
 -2       398       399       951      2259
 -1      5607    3    0    1
 -2       399      1537      2257      2259
 -1      5608    3    0    1
 -2       951       399      2257      2259
 -1      5609    3    0    1
 -2      2089      1592      2149      2773
 -1      5610    3    0    1
 -2      2252       760      2436      2451
 -1      5611    3    0    1
 -2      1664      1771      1919      2864
 -1      5612    3    0    1
 -2        45        54       925      2260
 -1      5613    3    0    1
 -2      2039       909      2368      1177
 -1      5614    3    0    1
 -2       909      2039      2368      2603
 -1      5615    3    0    1
 -2       988       630      2029      2423
 -1      5616    3    0    1
 -2      1345       837       838      2261
 -1      5617    3    0    1
 -2      1410      1472      1477      3053
 -1      5618    3    0    1
 -2       837      1345      1099      2261
 -1      5619    3    0    1
 -2      1936      1928      1937      2329
 -1      5620    3    0    1
 -2      1859      2427      2576      2728
 -1      5621    3    0    1
 -2      2096      2500      2561      2708
 -1      5622    3    0    1
 -2       486      2596      2835      2877
 -1      5623    3    0    1
 -2      1859      1767      2559      2728
 -1      5624    3    0    1
 -2      2009      2500      2584      2708
 -1      5625    3    0    1
 -2      1541      2561      2565      2708
 -1      5626    3    0    1
 -2       416      2013      2584      2708
 -1      5627    3    0    1
 -2      1649      1643      1741      2266
 -1      5628    3    0    1
 -2      1741      1643      1990      2266
 -1      5629    3    0    1
 -2      2489       486      2530      2877
 -1      5630    3    0    1
 -2      1015       679      2243      2323
 -1      5631    3    0    1
 -2      1759      1683      2189      2323
 -1      5632    3    0    1
 -2      2152      2374      2572      2922
 -1      5633    3    0    1
 -2      2051      2008      2327      2613
 -1      5634    3    0    1
 -2      1697      1653      1828      2468
 -1      5635    3    0    1
 -2      1653      2084      2123      2269
 -1      5636    3    0    1
 -2      2084       393      2123      2269
 -1      5637    3    0    1
 -2      1653      1697      2123      2468
 -1      5638    3    0    1
 -2       393      1186      2123      2269
 -1      5639    3    0    1
 -2      1186      2123      2269      2270
 -1      5640    3    0    1
 -2       511      1186      2269      2270
 -1      5641    3    0    1
 -2       981       616      2538      2654
 -1      5642    3    0    1
 -2      1066      1068      2347      2761
 -1      5643    3    0    1
 -2      1915      1757      2439      2790
 -1      5644    3    0    1
 -2      1706      1871      1922      2366
 -1      5645    3    0    1
 -2       346      1028      1726      2271
 -1      5646    3    0    1
 -2      1607      1851      2262      2468
 -1      5647    3    0    1
 -2      1851      1828      2262      2468
 -1      5648    3    0    1
 -2      1028      1030      1747      2271
 -1      5649    3    0    1
 -2      1726      1028      1846      2271
 -1      5650    3    0    1
 -2      1846      1028      1980      2271
 -1      5651    3    0    1
 -2       270      2363      2765      2768
 -1      5652    3    0    1
 -2      1058      2252      2516      2907
 -1      5653    3    0    1
 -2       346       196      1028      2271
 -1      5654    3    0    1
 -2      1883       951      2257      2567
 -1      5655    3    0    1
 -2      3104      1461      2996      3124
 -1      5656    3    0    1
 -2      2532       157      2720      2868
 -1      5657    3    0    1
 -2      1334      1159      1801      2717
 -1      5658    3    0    1
 -2       736      1047      2176      2578
 -1      5659    3    0    1
 -2      1801      1159      2614      2717
 -1      5660    3    0    1
 -2      1591      1810      2369      2567
 -1      5661    3    0    1
 -2      1586      1780      2218      2677
 -1      5662    3    0    1
 -2       197      2241      2338      2361
 -1      5663    3    0    1
 -2      1876      1918      2142      2703
 -1      5664    3    0    1
 -2      1532      1640      2272      2292
 -1      5665    3    0    1
 -2      1897      1753      2108      2292
 -1      5666    3    0    1
 -2      1299       750      2007      2669
 -1      5667    3    0    1
 -2      1755      1783      2308      2528
 -1      5668    3    0    1
 -2      1567      2381      2493      2521
 -1      5669    3    0    1
 -2      1057       759      1058      2326
 -1      5670    3    0    1
 -2       759       760      1058      2326
 -1      5671    3    0    1
 -2      1819      1860      2094      2279
 -1      5672    3    0    1
 -2      1643      1990      2266      2279
 -1      5673    3    0    1
 -2      1990      1643      2094      2279
 -1      5674    3    0    1
 -2      1860      1990      2094      2279
 -1      5675    3    0    1
 -2      1990      1860      2266      2279
 -1      5676    3    0    1
 -2      1289      1040       730      2280
 -1      5677    3    0    1
 -2      1836       730      2237      2280
 -1      5678    3    0    1
 -2      2189      1683      2243      2323
 -1      5679    3    0    1
 -2       723      1040      2159      2280
 -1      5680    3    0    1
 -2       723       730      1040      2280
 -1      5681    3    0    1
 -2       723      2159      2237      2280
 -1      5682    3    0    1
 -2       730       723      2237      2280
 -1      5683    3    0    1
 -2       375        80      1773      2281
 -1      5684    3    0    1
 -2        86       375       950      2281
 -1      5685    3    0    1
 -2       678      1013      2801      2890
 -1      5686    3    0    1
 -2       346      1726      2485      2505
 -1      5687    3    0    1
 -2      2326      1056      2451      2679
 -1      5688    3    0    1
 -2      1233       604      2137      2582
 -1      5689    3    0    1
 -2      2137       586      2472      2582
 -1      5690    3    0    1
 -2       604       586      2137      2582
 -1      5691    3    0    1
 -2       586      1662      2472      2582
 -1      5692    3    0    1
 -2       610       604       977      2582
 -1      5693    3    0    1
 -2      1918      1876      2142      2283
 -1      5694    3    0    1
 -2      1876      1918      2114      2283
 -1      5695    3    0    1
 -2      1824      1404      2478      2502
 -1      5696    3    0    1
 -2      2078      1161      2383      2780
 -1      5697    3    0    1
 -2      1688      1716      1910      2286
 -1      5698    3    0    1
 -2      1910      1716      2043      2286
 -1      5699    3    0    1
 -2      1621      1529      1688      2286
 -1      5700    3    0    1
 -2        36      2293      2725      2894
 -1      5701    3    0    1
 -2      1699      2756      2872      2873
 -1      5702    3    0    1
 -2      1621      1688      1910      2286
 -1      5703    3    0    1
 -2      1621      1910      2043      2286
 -1      5704    3    0    1
 -2      1370      1367      2139      2287
 -1      5705    3    0    1
 -2      1111      1113      1869      2287
 -1      5706    3    0    1
 -2      2056      1659      2139      2287
 -1      5707    3    0    1
 -2      1367      2056      2139      2287
 -1      5708    3    0    1
 -2       303      1367      1370      2287
 -1      5709    3    0    1
 -2      1111       303      1113      2287
 -1      5710    3    0    1
 -2       303       304      1367      2287
 -1      5711    3    0    1
 -2       304       303      1111      2287
 -1      5712    3    0    1
 -2      1659       304      1869      2287
 -1      5713    3    0    1
 -2      1367      1659      2056      2287
 -1      5714    3    0    1
 -2      1367       304      1659      2287
 -1      5715    3    0    1
 -2       304      1111      1869      2287
 -1      5716    3    0    1
 -2      2930      2975      3104      1461
 -1      5717    3    0    1
 -2       991       134      2558      2619
 -1      5718    3    0    1
 -2      2050      1027      2579      2639
 -1      5719    3    0    1
 -2      2560      1277      2575      2639
 -1      5720    3    0    1
 -2      1027      2560      2579      2639
 -1      5721    3    0    1
 -2       103        93      2994      3044
 -1      5722    3    0    1
 -2      1437      1470      3127      1480
 -1      5723    3    0    1
 -2      1085       807      1323      2290
 -1      5724    3    0    1
 -2      1323       807      1605      2290
 -1      5725    3    0    1
 -2      1971      1841      2508      2841
 -1      5726    3    0    1
 -2       259      1085      1323      2290
 -1      5727    3    0    1
 -2      1762      1387      2138      2355
 -1      5728    3    0    1
 -2      1385      1387      1891      2355
 -1      5729    3    0    1
 -2       259       380      1085      2290
 -1      5730    3    0    1
 -2       962      2379      2420      2607
 -1      5731    3    0    1
 -2      1990      2099      2133      2460
 -1      5732    3    0    1
 -2       187       193      1618      2590
 -1      5733    3    0    1
 -2      1268       178      2434      2579
 -1      5734    3    0    1
 -2      1032      1618      2507      2590
 -1      5735    3    0    1
 -2       819      1082      1332      2432
 -1      5736    3    0    1
 -2      1717      2446      2731      2760
 -1      5737    3    0    1
 -2      2261      2346      2386      2701
 -1      5738    3    0    1
 -2      2261      1099      2346      2701
 -1      5739    3    0    1
 -2      1152      1142      2340      2701
 -1      5740    3    0    1
 -2      2510      1867      2569      2703
 -1      5741    3    0    1
 -2      1099       445      1866      2701
 -1      5742    3    0    1
 -2      1759      1749      2315      2691
 -1      5743    3    0    1
 -2      2125       838      2678      2726
 -1      5744    3    0    1
 -2       837       838      2125      2726
 -1      5745    3    0    1
 -2      2300      1625      2678      2726
 -1      5746    3    0    1
 -2       340      1019      2485      2782
 -1      5747    3    0    1
 -2      1550      1616      1947      2297
 -1      5748    3    0    1
 -2      1947      1638      2135      2297
 -1      5749    3    0    1
 -2      1638      1947      2256      2297
 -1      5750    3    0    1
 -2      1550      1947      2135      2297
 -1      5751    3    0    1
 -2      2161       243      2277      2453
 -1      5752    3    0    1
 -2      1235       610      2064      2448
 -1      5753    3    0    1
 -2      2011      2512      2673      2703
 -1      5754    3    0    1
 -2      1352       842      2860      2870
 -1      5755    3    0    1
 -2      1595      2275      2285      2388
 -1      5756    3    0    1
 -2      1092      2362      2709      2727
 -1      5757    3    0    1
 -2       225       422      2494      2807
 -1      5758    3    0    1
 -2      1902       654      2204      2483
 -1      5759    3    0    1
 -2      1900       339      2329      2548
 -1      5760    3    0    1
 -2       116       980      1707      2653
 -1      5761    3    0    1
 -2      2143      1900      2329      2548
 -1      5762    3    0    1
 -2      1630      1650      2145      2483
 -1      5763    3    0    1
 -2       323       427      1137      2302
 -1      5764    3    0    1
 -2      2124      1137      2300      2302
 -1      5765    3    0    1
 -2      1137       427      2300      2302
 -1      5766    3    0    1
 -2      2152      1945      2374      2618
 -1      5767    3    0    1
 -2      2924      2965      3098      3001
 -1      5768    3    0    1
 -2         9       410      1603      2640
 -1      5769    3    0    1
 -2      2077      1712      2318      2627
 -1      5770    3    0    1
 -2      2425      2264      2527      2730
 -1      5771    3    0    1
 -2       422       225      1058      2807
 -1      5772    3    0    1
 -2       949       378      1745      2535
 -1      5773    3    0    1
 -2       760       759      1059      2326
 -1      5774    3    0    1
 -2      1635      1949      1958      2739
 -1      5775    3    0    1
 -2      2304      1054      2494      2807
 -1      5776    3    0    1
 -2      2196      1788      2198      2479
 -1      5777    3    0    1
 -2      1864      2366      2546      2813
 -1      5778    3    0    1
 -2        15       431      2258      2808
 -1      5779    3    0    1
 -2       333      1257      2228      2306
 -1      5780    3    0    1
 -2      1257       655      2228      2306
 -1      5781    3    0    1
 -2      1110       853      1108      2307
 -1      5782    3    0    1
 -2      2051      1755      2327      2476
 -1      5783    3    0    1
 -2       854      1110      2106      2307
 -1      5784    3    0    1
 -2       853      1110       854      2307
 -1      5785    3    0    1
 -2      1951       854      2106      2307
 -1      5786    3    0    1
 -2       990      1255      2344      1420
 -1      5787    3    0    1
 -2      2561      1541      2634      2797
 -1      5788    3    0    1
 -2      1222       400      2417      2529
 -1      5789    3    0    1
 -2       967       348      2118      2403
 -1      5790    3    0    1
 -2      1578       967      2118      2403
 -1      5791    3    0    1
 -2      1070       435      1073      2309
 -1      5792    3    0    1
 -2      1073       784      1070      2309
 -1      5793    3    0    1
 -2       784       783      1070      2309
 -1      5794    3    0    1
 -2      2631      2847      2929      2955
 -1      5795    3    0    1
 -2       190       196      2337      2467
 -1      5796    3    0    1
 -2       658       651      1002      2313
 -1      5797    3    0    1
 -2      1876      1867      2454      2500
 -1      5798    3    0    1
 -2      1880       124      2144      2345
 -1      5799    3    0    1
 -2       651       658      1258      2313
 -1      5800    3    0    1
 -2      1866      1631      2038      2662
 -1      5801    3    0    1
 -2      1860      2266      2279      2721
 -1      5802    3    0    1
 -2      1613      1716      2421      2539
 -1      5803    3    0    1
 -2      1567      2381      2521      2585
 -1      5804    3    0    1
 -2      1523      1611      1668      2594
 -1      5805    3    0    1
 -2       913      2850      2877      2906
 -1      5806    3    0    1
 -2      1255      1002       651      2313
 -1      5807    3    0    1
 -2       999       651      1258      2313
 -1      5808    3    0    1
 -2      1819      1860      2279      2721
 -1      5809    3    0    1
 -2      2369      2567      2680      2767
 -1      5810    3    0    1
 -2      1001      2492      2699      2805
 -1      5811    3    0    1
 -2        12      2174      2247      2685
 -1      5812    3    0    1
 -2      3108      2935      3009      3039
 -1      5813    3    0    1
 -2      2166      1004      2301      2532
 -1      5814    3    0    1
 -2      1070       783      2436      2689
 -1      5815    3    0    1
 -2      1680      1338      1878      2316
 -1      5816    3    0    1
 -2      1406      1139      2210      2672
 -1      5817    3    0    1
 -2      2319      2077      2343      2415
 -1      5818    3    0    1
 -2      2217      1677      2272      2320
 -1      5819    3    0    1
 -2      1532      2217      2272      2320
 -1      5820    3    0    1
 -2      2077      2319      2405      2415
 -1      5821    3    0    1
 -2      1763      1127      2077      2318
 -1      5822    3    0    1
 -2      1722      2325      2424      2738
 -1      5823    3    0    1
 -2      2319      2213      2405      2415
 -1      5824    3    0    1
 -2      2120      2213      2319      2415
 -1      5825    3    0    1
 -2      2217       261       419      2303
 -1      5826    3    0    1
 -2       261      2217       419      2320
 -1      5827    3    0    1
 -2      2225      2217      2292      2320
 -1      5828    3    0    1
 -2      1767      2217      2225      2320
 -1      5829    3    0    1
 -2      1577      1727      2442      2518
 -1      5830    3    0    1
 -2      1698      1993      2393      2775
 -1      5831    3    0    1
 -2       867       868      2393      2775
 -1      5832    3    0    1
 -2      2291       361      1047      2322
 -1      5833    3    0    1
 -2       361      2291      1047      1044
 -1      5834    3    0    1
 -2      1665      1919      1984      2598
 -1      5835    3    0    1
 -2      1040       361      2159      2322
 -1      5836    3    0    1
 -2       361      1040      1289      2322
 -1      5837    3    0    1
 -2      1631       424      1665      2598
 -1      5838    3    0    1
 -2      1665       424      1919      2598
 -1      5839    3    0    1
 -2       424      1631      1885      2598
 -1      5840    3    0    1
 -2      2526      1664      2711      2740
 -1      5841    3    0    1
 -2      1631      1654      2038      2333
 -1      5842    3    0    1
 -2      1771      1664      2526      2740
 -1      5843    3    0    1
 -2       272      1072      1083      2324
 -1      5844    3    0    1
 -2       272       383      1072      2324
 -1      5845    3    0    1
 -2      1560      1528      2277      2325
 -1      5846    3    0    1
 -2      2381      1567      2443      2856
 -1      5847    3    0    1
 -2      1333       416      2392      2454
 -1      5848    3    0    1
 -2      1446       364      2974      3103
 -1      5849    3    0    1
 -2      1958      2340      2556      2739
 -1      5850    3    0    1
 -2      1611      1547      2594      2739
 -1      5851    3    0    1
 -2      2915      1440      3107      3119
 -1      5852    3    0    1
 -2      1572      1611      2333      2739
 -1      5853    3    0    1
 -2       699      1275      2050      2649
 -1      5854    3    0    1
 -2      2212      2526      2711      2740
 -1      5855    3    0    1
 -2       675       682      2589      2649
 -1      5856    3    0    1
 -2      1949      1635      2113      2739
 -1      5857    3    0    1
 -2      1298       747      1836      2792
 -1      5858    3    0    1
 -2      2146      2058      2548      2794
 -1      5859    3    0    1
 -2      1867      1876      2142      2703
 -1      5860    3    0    1
 -2      1030      2271       190      2467
 -1      5861    3    0    1
 -2      2465      2402      2696      2796
 -1      5862    3    0    1
 -2      1665      1526      2263      2328
 -1      5863    3    0    1
 -2       890       891      1147      2330
 -1      5864    3    0    1
 -2       890      1147      1402      2330
 -1      5865    3    0    1
 -2      1865      1041      1871      2366
 -1      5866    3    0    1
 -2       400       966      2020      2349
 -1      5867    3    0    1
 -2       290       291      1093      2331
 -1      5868    3    0    1
 -2      1299      2007      2629      2669
 -1      5869    3    0    1
 -2      2561      2177      2634      2645
 -1      5870    3    0    1
 -2      1083       272      2324      2332
 -1      5871    3    0    1
 -2      2050       706      2237      2514
 -1      5872    3    0    1
 -2      2117      1136      2625      2793
 -1      5873    3    0    1
 -2      2408       976      2471      2742
 -1      5874    3    0    1
 -2      1310      2277      2453      2648
 -1      5875    3    0    1
 -2      1067       774      2509      2812
 -1      5876    3    0    1
 -2      2161      2277      2325      2648
 -1      5877    3    0    1
 -2       373       106      2464      2778
 -1      5878    3    0    1
 -2      2173      1276      2226      2334
 -1      5879    3    0    1
 -2      1983      1933      2221      2334
 -1      5880    3    0    1
 -2      2221      1933      2226      2334
 -1      5881    3    0    1
 -2       338       403       975      2335
 -1      5882    3    0    1
 -2       975       403      2284      2335
 -1      5883    3    0    1
 -2      1957       975      2284      2335
 -1      5884    3    0    1
 -2      1234      1957      2088      2335
 -1      5885    3    0    1
 -2       338      1234      2088      2335
 -1      5886    3    0    1
 -2       338       975      1234      2335
 -1      5887    3    0    1
 -2      1234       975      1957      2335
 -1      5888    3    0    1
 -2      1268       675       682      2589
 -1      5889    3    0    1
 -2      1095       831      1912      2336
 -1      5890    3    0    1
 -2      1994      1816      2364      2395
 -1      5891    3    0    1
 -2      2350      1019      2506      2787
 -1      5892    3    0    1
 -2      1576      1054      2304      2807
 -1      5893    3    0    1
 -2       336       141      2175      2655
 -1      5894    3    0    1
 -2      2361      1864      2544      2813
 -1      5895    3    0    1
 -2      1591      1561      1686      2767
 -1      5896    3    0    1
 -2      1119       863      1117      2844
 -1      5897    3    0    1
 -2      1933      1523      1983      2351
 -1      5898    3    0    1
 -2        89      2413      2608      2840
 -1      5899    3    0    1
 -2       340       175      1019      2350
 -1      5900    3    0    1
 -2       223      1057      1058      2747
 -1      5901    3    0    1
 -2      1072       251      2067      2339
 -1      5902    3    0    1
 -2       783      2067      2436      2689
 -1      5903    3    0    1
 -2      2067       783      2309      2689
 -1      5904    3    0    1
 -2       383       251      1072      2339
 -1      5905    3    0    1
 -2      1977      1642      2200      2788
 -1      5906    3    0    1
 -2       290      2075      2331      2348
 -1      5907    3    0    1
 -2      1042      1954      2425      2650
 -1      5908    3    0    1
 -2      1903      1748      1952      2515
 -1      5909    3    0    1
 -2       885      1406       894      2672
 -1      5910    3    0    1
 -2      1235       120      1662      2447
 -1      5911    3    0    1
 -2      1942      2352      2372      2930
 -1      5912    3    0    1
 -2       990       634      1779      2344
 -1      5913    3    0    1
 -2       651       990      1255      2344
 -1      5914    3    0    1
 -2      2913      1764      2949      2977
 -1      5915    3    0    1
 -2      2985       940       532      1197
 -1      5916    3    0    1
 -2       651       634       990      2344
 -1      5917    3    0    1
 -2      1945      2618      2917      2934
 -1      5918    3    0    1
 -2      2058      2146      2457      2794
 -1      5919    3    0    1
 -2       879      1138       880      2621
 -1      5920    3    0    1
 -2      1136       879      2469      2621
 -1      5921    3    0    1
 -2      1138       879      1136      2621
 -1      5922    3    0    1
 -2      1900      1960      2143      2518
 -1      5923    3    0    1
 -2      1577      1900      2143      2518
 -1      5924    3    0    1
 -2       354       352      3011      3142
 -1      5925    3    0    1
 -2      1992      1570      2254      2517
 -1      5926    3    0    1
 -2       607      2131      2408      2471
 -1      5927    3    0    1
 -2       931      1926      2296      2422
 -1      5928    3    0    1
 -2      1267      2691      2733      2838
 -1      5929    3    0    1
 -2      1043      1836      2237      2891
 -1      5930    3    0    1
 -2      2353      1825      2481      2762
 -1      5931    3    0    1
 -2      1559       391      2498      2593
 -1      5932    3    0    1
 -2      2202      2046      2353      2762
 -1      5933    3    0    1
 -2      2732       916      1416      2963
 -1      5934    3    0    1
 -2       784      1073      1605      2896
 -1      5935    3    0    1
 -2      1679      2319      2405      2736
 -1      5936    3    0    1
 -2       250       421      1066      2761
 -1      5937    3    0    1
 -2      2067      1071      2516      2761
 -1      5938    3    0    1
 -2       730      1289      2280      2597
 -1      5939    3    0    1
 -2      1961       630      2029      2658
 -1      5940    3    0    1
 -2      1591      2057      2567      2767
 -1      5941    3    0    1
 -2      2059      2195      2636      2882
 -1      5942    3    0    1
 -2      3024       498      1518      3074
 -1      5943    3    0    1
 -2      1873       343      2164      2353
 -1      5944    3    0    1
 -2      1825      1873      2164      2353
 -1      5945    3    0    1
 -2      1650      2145      2223      2482
 -1      5946    3    0    1
 -2      2202      1544      2762      2802
 -1      5947    3    0    1
 -2      1256       161      1630      2482
 -1      5948    3    0    1
 -2      1733      1525      2073      2386
 -1      5949    3    0    1
 -2       259       266      1319      2354
 -1      5950    3    0    1
 -2       266      1311      1319      2354
 -1      5951    3    0    1
 -2       266       433      1311      2354
 -1      5952    3    0    1
 -2       299      1358      1357      2356
 -1      5953    3    0    1
 -2      1358       319      2224      2356
 -1      5954    3    0    1
 -2      1358       299       319      2356
 -1      5955    3    0    1
 -2       248       435      2309      2697
 -1      5956    3    0    1
 -2       252       248      2689      2697
 -1      5957    3    0    1
 -2       268      1974      2644      2887
 -1      5958    3    0    1
 -2       966      2020      2118      2403
 -1      5959    3    0    1
 -2      1717      2285      2446      2760
 -1      5960    3    0    1
 -2      1407       886      1141      2357
 -1      5961    3    0    1
 -2      2186      1005      2591      2656
 -1      5962    3    0    1
 -2       886      1407       895      2357
 -1      5963    3    0    1
 -2       980       116      1966      2653
 -1      5964    3    0    1
 -2       878      1969      1995      2359
 -1      5965    3    0    1
 -2       877      1389      1134      2359
 -1      5966    3    0    1
 -2      1389       878      1995      2359
 -1      5967    3    0    1
 -2      1389       877       878      2359
 -1      5968    3    0    1
 -2      1742      1785      2103      2523
 -1      5969    3    0    1
 -2      1582      1675      2103      2523
 -1      5970    3    0    1
 -2      2625      2119      1407      2357
 -1      5971    3    0    1
 -2      1706      1864      1922      2361
 -1      5972    3    0    1
 -2      1604      1742      2103      2523
 -1      5973    3    0    1
 -2      1785      1582      2103      2523
 -1      5974    3    0    1
 -2      1604      1575      1742      2523
 -1      5975    3    0    1
 -2      1675      1582      1812      2523
 -1      5976    3    0    1
 -2       992      1930      2545      2655
 -1      5977    3    0    1
 -2      1005      2186      2646      2656
 -1      5978    3    0    1
 -2      1321       419      2519      2559
 -1      5979    3    0    1
 -2       664       687      1005      2656
 -1      5980    3    0    1
 -2       139       134      2018      2558
 -1      5981    3    0    1
 -2      1560      1528      2738      2846
 -1      5982    3    0    1
 -2      2249      1527      2469      2793
 -1      5983    3    0    1
 -2      2387      2622      2757      2844
 -1      5984    3    0    1
 -2       606      2181      2200      2751
 -1      5985    3    0    1
 -2      1677      1599      2628      2676
 -1      5986    3    0    1
 -2       342      1535      1829      2396
 -1      5987    3    0    1
 -2       287       290      1091      2365
 -1      5988    3    0    1
 -2      1091       290      1093      2365
 -1      5989    3    0    1
 -2      1093       290      2331      2365
 -1      5990    3    0    1
 -2      1091      1093      2331      2365
 -1      5991    3    0    1
 -2       420       287      1091      2365
 -1      5992    3    0    1
 -2       161      1004      2301      2547
 -1      5993    3    0    1
 -2      2166       993      2282      2547
 -1      5994    3    0    1
 -2       141       992       993      2367
 -1      5995    3    0    1
 -2       993       992      2185      2367
 -1      5996    3    0    1
 -2       136       141       993      2367
 -1      5997    3    0    1
 -2       141       136      2175      2367
 -1      5998    3    0    1
 -2      2175       136      2282      2367
 -1      5999    3    0    1
 -2       993      2185      2282      2367
 -1      6000    3    0    1
 -2       136       993      2282      2367
 -1      6001    3    0    1
 -2      1173      2566      2599      2706
 -1      6002    3    0    1
 -2       908       495       917      2368
 -1      6003    3    0    1
 -2       472       495       908      2368
 -1      6004    3    0    1
 -2       495       472      1177      2368
 -1      6005    3    0    1
 -2       472       909      1177      2368
 -1      6006    3    0    1
 -2      2663      1526      2851      2865
 -1      6007    3    0    1
 -2      2714      2777      2814      2865
 -1      6008    3    0    1
 -2      1591      1810      2083      2369
 -1      6009    3    0    1
 -2      1084      2336      2557      2568
 -1      6010    3    0    1
 -2      1084       270      1974      2568
 -1      6011    3    0    1
 -2       328      1405      1145      2370
 -1      6012    3    0    1
 -2       883      1395      2234      2371
 -1      6013    3    0    1
 -2      1468       274      1472      1515
 -1      6014    3    0    1
 -2      2572      2922      2925      2152
 -1      6015    3    0    1
 -2      1913      1950      2375      2010
 -1      6016    3    0    1
 -2      1740      1822      1962      2375
 -1      6017    3    0    1
 -2      2722      2910      2945      3133
 -1      6018    3    0    1
 -2       977      1243      1779      2933
 -1      6019    3    0    1
 -2       486       913      2850      2877
 -1      6020    3    0    1
 -2      2867      2921      3102      3118
 -1      6021    3    0    1
 -2      2372      2187      2930      2931
 -1      6022    3    0    1
 -2      1942      2352      2930      2931
 -1      6023    3    0    1
 -2      1047       736      2291      2578
 -1      6024    3    0    1
 -2      2230      1941      2373      2573
 -1      6025    3    0    1
 -2      1557      1663      1740      2375
 -1      6026    3    0    1
 -2      2085      2190      2210      2672
 -1      6027    3    0    1
 -2       230       228      2222      2723
 -1      6028    3    0    1
 -2      1109       293      1927      2376
 -1      6029    3    0    1
 -2      1366       293      1109      2376
 -1      6030    3    0    1
 -2      1336      1837      1927      2376
 -1      6031    3    0    1
 -2       293      1336      1927      2376
 -1      6032    3    0    1
 -2       293      1337      1336      2376
 -1      6033    3    0    1
 -2      2349      2020      2529      2608
 -1      6034    3    0    1
 -2      1998      2343      2415      2611
 -1      6035    3    0    1
 -2       630      1961      2130      2418
 -1      6036    3    0    1
 -2      1998      1549      2401      2611
 -1      6037    3    0    1
 -2       365       368      2531      2744
 -1      6038    3    0    1
 -2      1006      1017      2562      2744
 -1      6039    3    0    1
 -2      2559      1859      2728      2789
 -1      6040    3    0    1
 -2       349       101       962      2379
 -1      6041    3    0    1
 -2      1377       863       864      2757
 -1      6042    3    0    1
 -2      3006       191      3137      3033
 -1      6043    3    0    1
 -2      2116      2478      2502      2665
 -1      6044    3    0    1
 -2      2025      1727      2116      2665
 -1      6045    3    0    1
 -2      1867      2510      2673      2703
 -1      6046    3    0    1
 -2      2721      1819      2860      2870
 -1      6047    3    0    1
 -2       919       496      2724      2845
 -1      6048    3    0    1
 -2      1991      2387      2622      2757
 -1      6049    3    0    1
 -2      1926      2041      2296      2422
 -1      6050    3    0    1
 -2       462       904      2208      2586
 -1      6051    3    0    1
 -2      1982      2128      2254      2517
 -1      6052    3    0    1
 -2      1310      2253      2453      2499
 -1      6053    3    0    1
 -2       416      2392      2454      2500
 -1      6054    3    0    1
 -2      1133       300      1135      2384
 -1      6055    3    0    1
 -2      1729       417      1976      2384
 -1      6056    3    0    1
 -2       300      1101      1359      2384
 -1      6057    3    0    1
 -2       417      1133      1976      2384
 -1      6058    3    0    1
 -2       417       300      1133      2384
 -1      6059    3    0    1
 -2      1101       417      1729      2384
 -1      6060    3    0    1
 -2       300       417      1101      2384
 -1      6061    3    0    1
 -2        82       378       949      2535
 -1      6062    3    0    1
 -2       562       556      2090      2534
 -1      6063    3    0    1
 -2       195       214      1035      2536
 -1      6064    3    0    1
 -2       433       266      1323      2385
 -1      6065    3    0    1
 -2      1073       433      1323      2385
 -1      6066    3    0    1
 -2      1525      1733      2125      2386
 -1      6067    3    0    1
 -2      1866      1525      2346      2386
 -1      6068    3    0    1
 -2      1525      2125      2346      2386
 -1      6069    3    0    1
 -2      2633      1632      2861      2901
 -1      6070    3    0    1
 -2      1632      2115      2861      2901
 -1      6071    3    0    1
 -2      2186       160      2532      2868
 -1      6072    3    0    1
 -2       125       120      1235      2447
 -1      6073    3    0    1
 -2       120       125       981      2447
 -1      6074    3    0    1
 -2       771       767       766      3018
 -1      6075    3    0    1
 -2      1941      2358      2563      2758
 -1      6076    3    0    1
 -2      1570      1580      1992      2389
 -1      6077    3    0    1
 -2      1602      1570      1992      2389
 -1      6078    3    0    1
 -2      2563      2358      2631      2758
 -1      6079    3    0    1
 -2       445      1152      2340      2701
 -1      6080    3    0    1
 -2      2189      1759      2243      2691
 -1      6081    3    0    1
 -2      1034      2241      2337      2391
 -1      6082    3    0    1
 -2       712      1034      2337      2391
 -1      6083    3    0    1
 -2      1034       712      2241      2391
 -1      6084    3    0    1
 -2       418      1092      1333      2392
 -1      6085    3    0    1
 -2       819      1743      1888      2432
 -1      6086    3    0    1
 -2       819      1332      1743      2432
 -1      6087    3    0    1
 -2       819       802      1082      2432
 -1      6088    3    0    1
 -2       393      1667      2084      2428
 -1      6089    3    0    1
 -2      2308      1783      2465      2601
 -1      6090    3    0    1
 -2       416       418      1333      2392
 -1      6091    3    0    1
 -2      1556      1872      2069      2455
 -1      6092    3    0    1
 -2      2153       415      2456      2501
 -1      6093    3    0    1
 -2      2402      2357      2465      2696
 -1      6094    3    0    1
 -2       943       954      2399      2776
 -1      6095    3    0    1
 -2      1104       849      1363      2395
 -1      6096    3    0    1
 -2      1816      1363      2364      2395
 -1      6097    3    0    1
 -2      1535      1789      1829      2396
 -1      6098    3    0    1
 -2      1789      1535      2100      2396
 -1      6099    3    0    1
 -2      3109      1414      3129      1486
 -1      6100    3    0    1
 -2      1069      1320      2828      2954
 -1      6101    3    0    1
 -2       195      2459      2536      2575
 -1      6102    3    0    1
 -2       193      1618      2560      2575
 -1      6103    3    0    1
 -2      1035       195      2536      2575
 -1      6104    3    0    1
 -2      1618      1035      2536      2575
 -1      6105    3    0    1
 -2       567       954      1972      2399
 -1      6106    3    0    1
 -2      1985       544      2107      2399
 -1      6107    3    0    1
 -2       943       544      1985      2399
 -1      6108    3    0    1
 -2       105       400      2403      2852
 -1      6109    3    0    1
 -2      1526      2263      2328      2777
 -1      6110    3    0    1
 -2      2107       544      2178      2399
 -1      6111    3    0    1
 -2       567      2107      2178      2399
 -1      6112    3    0    1
 -2       567       943       954      2399
 -1      6113    3    0    1
 -2       348      2403      2664      2852
 -1      6114    3    0    1
 -2       567       544       943      2399
 -1      6115    3    0    1
 -2       544       567      2178      2399
 -1      6116    3    0    1
 -2       857      1371      1112      2400
 -1      6117    3    0    1
 -2       857      1112      2155      2400
 -1      6118    3    0    1
 -2      1869       857      2155      2400
 -1      6119    3    0    1
 -2      1610      1869      2155      2400
 -1      6120    3    0    1
 -2      1610      2155      2183      2400
 -1      6121    3    0    1
 -2       435       248      2659      2697
 -1      6122    3    0    1
 -2       495      1177      2724      2862
 -1      6123    3    0    1
 -2       248      1065      2659      2697
 -1      6124    3    0    1
 -2       324      2707      2869      2876
 -1      6125    3    0    1
 -2       747      1301      1052      2792
 -1      6126    3    0    1
 -2      1131      1388      2543      2817
 -1      6127    3    0    1
 -2       463      2078      2207      2609
 -1      6128    3    0    1
 -2      2357      2119      2402      2465
 -1      6129    3    0    1
 -2       568       957       965      2404
 -1      6130    3    0    1
 -2       591       568       965      2404
 -1      6131    3    0    1
 -2      1529      1621      1679      2405
 -1      6132    3    0    1
 -2      1679      2319      2342      2405
 -1      6133    3    0    1
 -2      1346      1679      1774      2737
 -1      6134    3    0    1
 -2      1529      1679      2342      2405
 -1      6135    3    0    1
 -2      1748      1566      1952      2515
 -1      6136    3    0    1
 -2      1901      1903      1952      2515
 -1      6137    3    0    1
 -2      1446      3092      1464      3118
 -1      6138    3    0    1
 -2      2187      2352      2372      2925
 -1      6139    3    0    1
 -2       347       187      1032      2590
 -1      6140    3    0    1
 -2       157      1256      1630      2532
 -1      6141    3    0    1
 -2      1618       193      2560      2590
 -1      6142    3    0    1
 -2      2372      2352      2572      2925
 -1      6143    3    0    1
 -2      3095      3092      1463      1464
 -1      6144    3    0    1
 -2      2406      1016      1423      3118
 -1      6145    3    0    1
 -2      2028      1957      2131      2408
 -1      6146    3    0    1
 -2       607      1234      1957      2408
 -1      6147    3    0    1
 -2      1957      1234      2131      2408
 -1      6148    3    0    1
 -2       519      1188      2450      2900
 -1      6149    3    0    1
 -2      1234       607      2131      2408
 -1      6150    3    0    1
 -2       831      1095      2079      2409
 -1      6151    3    0    1
 -2       832       831      2079      2409
 -1      6152    3    0    1
 -2       831       832      1095      2409
 -1      6153    3    0    1
 -2      1057       759      2326      2747
 -1      6154    3    0    1
 -2      1374      1797      1973      2525
 -1      6155    3    0    1
 -2      1725      1797      1818      2525
 -1      6156    3    0    1
 -2       759      1057      2487      2747
 -1      6157    3    0    1
 -2      1058      1057      2326      2747
 -1      6158    3    0    1
 -2      1770      1633      2016      2411
 -1      6159    3    0    1
 -2      2016      1633      2341      2411
 -1      6160    3    0    1
 -2      2100      1624      2164      2411
 -1      6161    3    0    1
 -2      1825      1641      2066      2411
 -1      6162    3    0    1
 -2      1624      1873      2164      2411
 -1      6163    3    0    1
 -2      1641      1825      1873      2411
 -1      6164    3    0    1
 -2      1873      1825      2164      2411
 -1      6165    3    0    1
 -2      2100      2066      2341      2411
 -1      6166    3    0    1
 -2      2066      2100      2164      2411
 -1      6167    3    0    1
 -2      1825      2066      2164      2411
 -1      6168    3    0    1
 -2       956       591       966      2412
 -1      6169    3    0    1
 -2       956       966      2349      2412
 -1      6170    3    0    1
 -2       956      2404      2412      2413
 -1      6171    3    0    1
 -2      2020       956      2412      2413
 -1      6172    3    0    1
 -2      1288      1835      2740      2864
 -1      6173    3    0    1
 -2      1628      2225      2576      2827
 -1      6174    3    0    1
 -2      2192      2031      2441      2785
 -1      6175    3    0    1
 -2      2034      2207      2508      2609
 -1      6176    3    0    1
 -2       956      2020      2349      2413
 -1      6177    3    0    1
 -2      2508      1841      2609      2841
 -1      6178    3    0    1
 -2        89        80       956      2413
 -1      6179    3    0    1
 -2       375        80      2281      2413
 -1      6180    3    0    1
 -2        80       375      1972      2413
 -1      6181    3    0    1
 -2      1972       375      2281      2413
 -1      6182    3    0    1
 -2        89       956      2349      2413
 -1      6183    3    0    1
 -2       952      2021      2712      2840
 -1      6184    3    0    1
 -2       407       313      1125      2414
 -1      6185    3    0    1
 -2      1560      1528      2325      2738
 -1      6186    3    0    1
 -2      1549      2319      2343      2415
 -1      6187    3    0    1
 -2      1053      1877      2071      2416
 -1      6188    3    0    1
 -2      1053       750      1877      2416
 -1      6189    3    0    1
 -2      2192      1960      2442      2665
 -1      6190    3    0    1
 -2      1570      1602      2298      2551
 -1      6191    3    0    1
 -2      2021      1645      2378      2417
 -1      6192    3    0    1
 -2      2102      1855      2378      2417
 -1      6193    3    0    1
 -2      3030       594      3067      3069
 -1      6194    3    0    1
 -2      1793      2801      2803      2889
 -1      6195    3    0    1
 -2      1645      2102      2378      2417
 -1      6196    3    0    1
 -2       582      1855      2102      2417
 -1      6197    3    0    1
 -2       582      1222      1855      2417
 -1      6198    3    0    1
 -2      1645      1222      2102      2417
 -1      6199    3    0    1
 -2      1222       582      2102      2417
 -1      6200    3    0    1
 -2      1807      1540      1845      2419
 -1      6201    3    0    1
 -2      1042       426      2425      2879
 -1      6202    3    0    1
 -2      1845      1842      1895      2419
 -1      6203    3    0    1
 -2      1807      1845      1895      2419
 -1      6204    3    0    1
 -2      1753      2292      2360      2764
 -1      6205    3    0    1
 -2      1842      1807      1895      2419
 -1      6206    3    0    1
 -2       962       101      2149      2420
 -1      6207    3    0    1
 -2      2043      1613      2382      2421
 -1      6208    3    0    1
 -2      2358      3098      1454      3001
 -1      6209    3    0    1
 -2       508       503      3003      3062
 -1      6210    3    0    1
 -2      1944      1942      2352      2572
 -1      6211    3    0    1
 -2      1996       687      2642      2787
 -1      6212    3    0    1
 -2       175       173      1018      2787
 -1      6213    3    0    1
 -2      1552      1674      2031      2571
 -1      6214    3    0    1
 -2      2058      2146      2192      2571
 -1      6215    3    0    1
 -2      2421      1613      2539      2786
 -1      6216    3    0    1
 -2      1001       655      2492      2540
 -1      6217    3    0    1
 -2      1613      1716      2382      2421
 -1      6218    3    0    1
 -2      2146      2058      2457      2571
 -1      6219    3    0    1
 -2      1862      1793      2228      2540
 -1      6220    3    0    1
 -2       988      1788      2130      2423
 -1      6221    3    0    1
 -2       630       988      2130      2423
 -1      6222    3    0    1
 -2      1055      3019      3076      3080
 -1      6223    3    0    1
 -2       225       223      2747      2807
 -1      6224    3    0    1
 -2      2340      2038      2556      2739
 -1      6225    3    0    1
 -2      1572      2038      2340      2739
 -1      6226    3    0    1
 -2      1629      1783      2491      2528
 -1      6227    3    0    1
 -2      2225      1628      2320      2764
 -1      6228    3    0    1
 -2       802       795      2049      2828
 -1      6229    3    0    1
 -2       426       216      1042      2425
 -1      6230    3    0    1
 -2      1042       216      2264      2425
 -1      6231    3    0    1
 -2      1696      1558      2256      2426
 -1      6232    3    0    1
 -2      2095      1791      2256      2426
 -1      6233    3    0    1
 -2      1780      2095      2256      2426
 -1      6234    3    0    1
 -2      1586      1946      2218      2426
 -1      6235    3    0    1
 -2      1780      1586      2218      2426
 -1      6236    3    0    1
 -2      1791      1780      2218      2426
 -1      6237    3    0    1
 -2      1780      1791      2095      2426
 -1      6238    3    0    1
 -2         9      1603      2216      2640
 -1      6239    3    0    1
 -2      2290       808      2336      2660
 -1      6240    3    0    1
 -2      2214      2722      2945      3133
 -1      6241    3    0    1
 -2       193       187      1277      2560
 -1      6242    3    0    1
 -2      1311       778      1787      2828
 -1      6243    3    0    1
 -2      2327      2051      2613      2842
 -1      6244    3    0    1
 -2       333      2046      2202      2790
 -1      6245    3    0    1
 -2      2618      2919      2934      3089
 -1      6246    3    0    1
 -2      1634      1524      1792      2640
 -1      6247    3    0    1
 -2      1603       410      1634      2640
 -1      6248    3    0    1
 -2      1634      1778      2216      2640
 -1      6249    3    0    1
 -2      2956      2918      3092      3116
 -1      6250    3    0    1
 -2       961       580      2472      2798
 -1      6251    3    0    1
 -2      1160      2716      1432      1433
 -1      6252    3    0    1
 -2      2716      2892      1432      1433
 -1      6253    3    0    1
 -2      1410      3099      1476      1477
 -1      6254    3    0    1
 -2      1419      1197      3085      3128
 -1      6255    3    0    1
 -2       904      2208      2512      2616
 -1      6256    3    0    1
 -2      2331       823      2167      2431
 -1      6257    3    0    1
 -2       823      2331      2167      1093
 -1      6258    3    0    1
 -2      1544      1612      1768      2834
 -1      6259    3    0    1
 -2       823       822      2167      2431
 -1      6260    3    0    1
 -2       822       823      1092      2431
 -1      6261    3    0    1
 -2      1333       823      2142      2431
 -1      6262    3    0    1
 -2       872      1842      2027      2433
 -1      6263    3    0    1
 -2      1975      1383      2157      2433
 -1      6264    3    0    1
 -2       871       872      2027      2433
 -1      6265    3    0    1
 -2      1383      1382      2157      2433
 -1      6266    3    0    1
 -2      1806      1940      2157      2433
 -1      6267    3    0    1
 -2      2027      1806      2157      2433
 -1      6268    3    0    1
 -2       871      1383       872      2433
 -1      6269    3    0    1
 -2       871      2027      2157      2433
 -1      6270    3    0    1
 -2      1383       871      1382      2433
 -1      6271    3    0    1
 -2      1382       871      2157      2433
 -1      6272    3    0    1
 -2      1612      1544      2802      2834
 -1      6273    3    0    1
 -2      1081       799      2229      2486
 -1      6274    3    0    1
 -2      1524      1708      1792      2640
 -1      6275    3    0    1
 -2       160      1005      2186      2532
 -1      6276    3    0    1
 -2      2166      1004      2532      2646
 -1      6277    3    0    1
 -2       664       663      1006      2646
 -1      6278    3    0    1
 -2      1006      1583      2562      2646
 -1      6279    3    0    1
 -2       925      2602      2832      2897
 -1      6280    3    0    1
 -2      1602      1672      2298      2844
 -1      6281    3    0    1
 -2       178       347      1032      2434
 -1      6282    3    0    1
 -2      1020       178      1032      2434
 -1      6283    3    0    1
 -2       592       967      2093      2580
 -1      6284    3    0    1
 -2      1943      2289      2373      2769
 -1      6285    3    0    1
 -2      1629      1783      2111      2491
 -1      6286    3    0    1
 -2      1868      1920      1989      2438
 -1      6287    3    0    1
 -2      1810      1868      1989      2438
 -1      6288    3    0    1
 -2       413      2207      2247      2552
 -1      6289    3    0    1
 -2       774      2347      2509      2791
 -1      6290    3    0    1
 -2       330      2054      2055      2439
 -1      6291    3    0    1
 -2       330      1938      2439      2055
 -1      6292    3    0    1
 -2       330       333      1798      2439
 -1      6293    3    0    1
 -2      2266      1530      2279      2721
 -1      6294    3    0    1
 -2      1847      1567      2443      2493
 -1      6295    3    0    1
 -2      1613      1600      1795      2786
 -1      6296    3    0    1
 -2      1000      1257      1938      2440
 -1      6297    3    0    1
 -2      1000       654      1257      2440
 -1      6298    3    0    1
 -2      1000      1938      2055      2440
 -1      6299    3    0    1
 -2       654      1000      1902      2440
 -1      6300    3    0    1
 -2      1902      1000      2055      2440
 -1      6301    3    0    1
 -2      1733      1625      2125      2678
 -1      6302    3    0    1
 -2      1698      1734      1993      2775
 -1      6303    3    0    1
 -2      1567      1589      1847      2443
 -1      6304    3    0    1
 -2      1588      1559      1955      2593
 -1      6305    3    0    1
 -2      1067       246      2380      2499
 -1      6306    3    0    1
 -2       101      2149      2420      2444
 -1      6307    3    0    1
 -2      1741       101      2420      2444
 -1      6308    3    0    1
 -2       386      1097      1832      2445
 -1      6309    3    0    1
 -2      1832      1097      2060      2445
 -1      6310    3    0    1
 -2       386      1334      1801      2445
 -1      6311    3    0    1
 -2       286      1832      2032      2445
 -1      6312    3    0    1
 -2      1801      1334      2032      2445
 -1      6313    3    0    1
 -2      1334       286      2032      2445
 -1      6314    3    0    1
 -2       386       286      1334      2445
 -1      6315    3    0    1
 -2      2632       778      2828      2954
 -1      6316    3    0    1
 -2      2289      1943      2871      2913
 -1      6317    3    0    1
 -2      1054       752      2304      2446
 -1      6318    3    0    1
 -2      2304       752      2416      2446
 -1      6319    3    0    1
 -2       752      1877      2416      2446
 -1      6320    3    0    1
 -2       752      1300      1877      2446
 -1      6321    3    0    1
 -2      1877      1300      2275      2446
 -1      6322    3    0    1
 -2       977      1779      2448      2495
 -1      6323    3    0    1
 -2      2275      1300      2285      2446
 -1      6324    3    0    1
 -2      2957      2022      3109      2986
 -1      6325    3    0    1
 -2      1300       752      2285      2446
 -1      6326    3    0    1
 -2       610      1235      1662      2448
 -1      6327    3    0    1
 -2      1662      1235      2064      2448
 -1      6328    3    0    1
 -2      3007      2978      3038      3056
 -1      6329    3    0    1
 -2      1073       784      2309      2583
 -1      6330    3    0    1
 -2      1716      1598      2382      2539
 -1      6331    3    0    1
 -2       987      1246      2018      2449
 -1      6332    3    0    1
 -2      1246       987       634      2449
 -1      6333    3    0    1
 -2       978      1800      2019      2538
 -1      6334    3    0    1
 -2      2228      2306      2492      2540
 -1      6335    3    0    1
 -2        54      2255      2260      2450
 -1      6336    3    0    1
 -2        54      1188      2255      2450
 -1      6337    3    0    1
 -2        45        54      2260      2450
 -1      6338    3    0    1
 -2        54        45      1188      2450
 -1      6339    3    0    1
 -2        45       932      1188      2450
 -1      6340    3    0    1
 -2      1188       932      2232      2450
 -1      6341    3    0    1
 -2       385        45      2260      2450
 -1      6342    3    0    1
 -2      1656       385      2260      2450
 -1      6343    3    0    1
 -2        45       385       932      2450
 -1      6344    3    0    1
 -2       932      1656      2232      2450
 -1      6345    3    0    1
 -2       932       385      1656      2450
 -1      6346    3    0    1
 -2      1737      1574      2626      2846
 -1      6347    3    0    1
 -2      2246       420      2568      2768
 -1      6348    3    0    1
 -2       261      2303      2738      2839
 -1      6349    3    0    1
 -2       994      2185      2558      2674
 -1      6350    3    0    1
 -2       243      1067      1310      2499
 -1      6351    3    0    1
 -2      1590      1809      1967      2555
 -1      6352    3    0    1
 -2      1833       243      2453      2499
 -1      6353    3    0    1
 -2       243      1310      2453      2499
 -1      6354    3    0    1
 -2      1310      1067      2253      2499
 -1      6355    3    0    1
 -2       246       243      1833      2499
 -1      6356    3    0    1
 -2      1857       981      2019      2538
 -1      6357    3    0    1
 -2      1967      1653      2123      2555
 -1      6358    3    0    1
 -2      1731      1669      1967      2555
 -1      6359    3    0    1
 -2      1809      1590      2172      2555
 -1      6360    3    0    1
 -2      2538       616      2653      2654
 -1      6361    3    0    1
 -2      1691      1593      1901      2455
 -1      6362    3    0    1
 -2      1534      1872      1999      2455
 -1      6363    3    0    1
 -2      1593      1534      1999      2455
 -1      6364    3    0    1
 -2      1901      1556      2026      2455
 -1      6365    3    0    1
 -2      2026      1556      2069      2455
 -1      6366    3    0    1
 -2      1593      1872      1903      2455
 -1      6367    3    0    1
 -2      1872      1593      1999      2455
 -1      6368    3    0    1
 -2      2441      1824      2478      2502
 -1      6369    3    0    1
 -2       246      1067      2380      2666
 -1      6370    3    0    1
 -2      2075      2153      2294      2456
 -1      6371    3    0    1
 -2      1555      1802      2045      2457
 -1      6372    3    0    1
 -2       101      1741      2420      2795
 -1      6373    3    0    1
 -2       101      1649      1741      2795
 -1      6374    3    0    1
 -2      1802      1552      2146      2457
 -1      6375    3    0    1
 -2      2045      1802      2146      2457
 -1      6376    3    0    1
 -2      1267       678       679      2838
 -1      6377    3    0    1
 -2      2134      2543      2645      2817
 -1      6378    3    0    1
 -2       658       675      2684      2718
 -1      6379    3    0    1
 -2       361      2159      2322      2459
 -1      6380    3    0    1
 -2       361       214      2159      2459
 -1      6381    3    0    1
 -2      2291       361      2322      2459
 -1      6382    3    0    1
 -2        82       370       957      2605
 -1      6383    3    0    1
 -2       214       361      1044      2459
 -1      6384    3    0    1
 -2      1044       361      2291      2459
 -1      6385    3    0    1
 -2      1643      1990      2133      2460
 -1      6386    3    0    1
 -2      1643      1741      1990      2460
 -1      6387    3    0    1
 -2      2420      1741      2444      2460
 -1      6388    3    0    1
 -2      2149      2420      2444      2460
 -1      6389    3    0    1
 -2      1741      1643      2444      2460
 -1      6390    3    0    1
 -2      2133      1592      2149      2460
 -1      6391    3    0    1
 -2      2133      2149      2444      2460
 -1      6392    3    0    1
 -2      1643      2133      2444      2460
 -1      6393    3    0    1
 -2      1686       395      2107      2462
 -1      6394    3    0    1
 -2      1151      1140      2759      2858
 -1      6395    3    0    1
 -2      2696      2210      2796      2858
 -1      6396    3    0    1
 -2        70       941       942      2462
 -1      6397    3    0    1
 -2      2077      2343      2415      2693
 -1      6398    3    0    1
 -2      2343      1998      2415      2693
 -1      6399    3    0    1
 -2       395       396       942      2462
 -1      6400    3    0    1
 -2       396       395      1686      2462
 -1      6401    3    0    1
 -2      1623       396      1686      2462
 -1      6402    3    0    1
 -2      2343      2077      2627      2693
 -1      6403    3    0    1
 -2        70       396      1623      2462
 -1      6404    3    0    1
 -2       396        70       942      2462
 -1      6405    3    0    1
 -2      2357      2119      1407      2402
 -1      6406    3    0    1
 -2      3036       984      3057      3066
 -1      6407    3    0    1
 -2      1728      2397      2617      2626
 -1      6408    3    0    1
 -2      1543      1728      2617      2626
 -1      6409    3    0    1
 -2       832      1096      2409      2783
 -1      6410    3    0    1
 -2       957       373       965      2464
 -1      6411    3    0    1
 -2       370       373       957      2464
 -1      6412    3    0    1
 -2      2047       252      2689      2697
 -1      6413    3    0    1
 -2       462      2511      2586      2616
 -1      6414    3    0    1
 -2       663       994      1003      2833
 -1      6415    3    0    1
 -2       562       580       961      2798
 -1      6416    3    0    1
 -2       640       663      2652      2833
 -1      6417    3    0    1
 -2       961       106      2227      2778
 -1      6418    3    0    1
 -2       423      2327      2613      2842
 -1      6419    3    0    1
 -2      1222       963       583      2664
 -1      6420    3    0    1
 -2      1666      2267      2690      2715
 -1      6421    3    0    1
 -2       422      1058      2252      2807
 -1      6422    3    0    1
 -2      1725      1721      1997      2525
 -1      6423    3    0    1
 -2      1721       860      1997      2525
 -1      6424    3    0    1
 -2      1721      1725      1818      2525
 -1      6425    3    0    1
 -2      1797      1725      1973      2525
 -1      6426    3    0    1
 -2      2298      1991      2387      2622
 -1      6427    3    0    1
 -2      2633      2177      2848      2901
 -1      6428    3    0    1
 -2       345      1045      1046      2754
 -1      6429    3    0    1
 -2       776       774      1066      2470
 -1      6430    3    0    1
 -2      1066       774      2347      2470
 -1      6431    3    0    1
 -2        35       913      1839      2874
 -1      6432    3    0    1
 -2      1139      1406      2210      2796
 -1      6433    3    0    1
 -2      2126      1619      2134      2799
 -1      6434    3    0    1
 -2       961       580      1224      2472
 -1      6435    3    0    1
 -2      1726       346      2271      2505
 -1      6436    3    0    1
 -2       196      1033      2337      2505
 -1      6437    3    0    1
 -2      2271       196      2467      2505
 -1      6438    3    0    1
 -2       586       580      1760      2472
 -1      6439    3    0    1
 -2       580       586      1224      2472
 -1      6440    3    0    1
 -2       784       783      2309      2583
 -1      6441    3    0    1
 -2       925      1939      2260      2832
 -1      6442    3    0    1
 -2      2185       639      2558      2818
 -1      6443    3    0    1
 -2      1339      2564      2633      2848
 -1      6444    3    0    1
 -2       459      1159      1334      2717
 -1      6445    3    0    1
 -2      2487       736      2578      2657
 -1      6446    3    0    1
 -2      2062      1013      2779      2801
 -1      6447    3    0    1
 -2      1151       440      1140      2858
 -1      6448    3    0    1
 -2      1201       543      1926      2692
 -1      6449    3    0    1
 -2      2402      2696      2796      2858
 -1      6450    3    0    1
 -2       325      1404      1144      2478
 -1      6451    3    0    1
 -2       978      1800      2199      2503
 -1      6452    3    0    1
 -2      1404       325       447      2478
 -1      6453    3    0    1
 -2      2019       119      2480      2503
 -1      6454    3    0    1
 -2      1404       447      1824      2478
 -1      6455    3    0    1
 -2      1223      2379      2743      2810
 -1      6456    3    0    1
 -2      1033       346      2485      2505
 -1      6457    3    0    1
 -2       119       350       973      2480
 -1      6458    3    0    1
 -2       369      2624      2754      2763
 -1      6459    3    0    1
 -2       345       369      2754      2763
 -1      6460    3    0    1
 -2      2313       651      2496      2880
 -1      6461    3    0    1
 -2      1706      1287      1954      2763
 -1      6462    3    0    1
 -2      2145      1630      2301      2482
 -1      6463    3    0    1
 -2      1650      1834      2145      2483
 -1      6464    3    0    1
 -2      1522      1834      1956      2483
 -1      6465    3    0    1
 -2      1849      1902      2437      2483
 -1      6466    3    0    1
 -2      1522      1849      2437      2483
 -1      6467    3    0    1
 -2      1834      1522      2437      2483
 -1      6468    3    0    1
 -2      1902      1630      2145      2483
 -1      6469    3    0    1
 -2      1834      1902      2145      2483
 -1      6470    3    0    1
 -2      1902      1834      2437      2483
 -1      6471    3    0    1
 -2      1795      1613      2286      2484
 -1      6472    3    0    1
 -2       346      1726      2317      2485
 -1      6473    3    0    1
 -2      1841      2034      2489      2508
 -1      6474    3    0    1
 -2      2161      1528      2277      2643
 -1      6475    3    0    1
 -2      1047      2176      2322      2713
 -1      6476    3    0    1
 -2       401       324      2869      2876
 -1      6477    3    0    1
 -2       340      1019      2317      2485
 -1      6478    3    0    1
 -2      1033       346      2317      2485
 -1      6479    3    0    1
 -2      1004       663      2166      2652
 -1      6480    3    0    1
 -2      2373      2230      2573      2944
 -1      6481    3    0    1
 -2       187       347      2434      2590
 -1      6482    3    0    1
 -2      1724      1805      2148      2745
 -1      6483    3    0    1
 -2      2093       967      2118      2580
 -1      6484    3    0    1
 -2      1810      1868      2438      2490
 -1      6485    3    0    1
 -2      1810      1652      1965      2490
 -1      6486    3    0    1
 -2      1868      1810      1965      2490
 -1      6487    3    0    1
 -2      1591      1561      2369      2490
 -1      6488    3    0    1
 -2      1561      1591      2083      2490
 -1      6489    3    0    1
 -2      2083      1591      2369      2490
 -1      6490    3    0    1
 -2      2083      1810      2438      2490
 -1      6491    3    0    1
 -2       655      2228      2306      2492
 -1      6492    3    0    1
 -2      1530      2266      2707      2721
 -1      6493    3    0    1
 -2      1533      1868      2171      2541
 -1      6494    3    0    1
 -2      1570      1580      2321      2517
 -1      6495    3    0    1
 -2      1159       389      1801      2808
 -1      6496    3    0    1
 -2      1801       389      2445      2808
 -1      6497    3    0    1
 -2       389      2060      2445      2808
 -1      6498    3    0    1
 -2      2304      1054      2446      2494
 -1      6499    3    0    1
 -2      1185      2003      2288      2732
 -1      6500    3    0    1
 -2       225       422      1054      2494
 -1      6501    3    0    1
 -2      2374      2152      2618      2922
 -1      6502    3    0    1
 -2      2922      2572      2925      2926
 -1      6503    3    0    1
 -2       634       651      1246      2496
 -1      6504    3    0    1
 -2       651       999      1246      2496
 -1      6505    3    0    1
 -2      2492      2540      2699      2805
 -1      6506    3    0    1
 -2       930       519      2232      2497
 -1      6507    3    0    1
 -2      2232       519      2450      2497
 -1      6508    3    0    1
 -2        36      2267      2690      2725
 -1      6509    3    0    1
 -2      1574      2303      2628      2846
 -1      6510    3    0    1
 -2      1541      2177      2797      2901
 -1      6511    3    0    1
 -2      1523      1668      1983      2594
 -1      6512    3    0    1
 -2      1611      1987      2333      2594
 -1      6513    3    0    1
 -2      1669      1653      1967      2555
 -1      6514    3    0    1
 -2      1918      2114      2283      2511
 -1      6515    3    0    1
 -2      2033      1723      2061      2643
 -1      6516    3    0    1
 -2      2389      1991      2635      2873
 -1      6517    3    0    1
 -2       291      2075      2456      2501
 -1      6518    3    0    1
 -2      2075       291      2283      2501
 -1      6519    3    0    1
 -2      2114      1914      2153      2501
 -1      6520    3    0    1
 -2      2075      2114      2153      2501
 -1      6521    3    0    1
 -2      1144       888      2478      2502
 -1      6522    3    0    1
 -2       119       350      2480      2503
 -1      6523    3    0    1
 -2       350       119       978      2503
 -1      6524    3    0    1
 -2       175       173      2350      2779
 -1      6525    3    0    1
 -2      1662      1224      2472      2504
 -1      6526    3    0    1
 -2      1825      2481      2762      2802
 -1      6527    3    0    1
 -2        68        66      1821      2885
 -1      6528    3    0    1
 -2      2480       107       973      2504
 -1      6529    3    0    1
 -2      2756      1699      2771      2873
 -1      6530    3    0    1
 -2       173       367      2591      2779
 -1      6531    3    0    1
 -2       914       486      2596      2835
 -1      6532    3    0    1
 -2      2062      1013      2735      2779
 -1      6533    3    0    1
 -2      2389      1699      2872      2873
 -1      6534    3    0    1
 -2        66        68       943      2885
 -1      6535    3    0    1
 -2       973      1662      2480      2504
 -1      6536    3    0    1
 -2       973      1224      1662      2504
 -1      6537    3    0    1
 -2       107       357      1224      2504
 -1      6538    3    0    1
 -2       107      2480       973       350
 -1      6539    3    0    1
 -2       973      2504       107      1224
 -1      6540    3    0    1
 -2      1530      2635      2837      2873
 -1      6541    3    0    1
 -2      1971      1841      2489      2508
 -1      6542    3    0    1
 -2      1839      2034      2207      2508
 -1      6543    3    0    1
 -2       405       930      2816      2894
 -1      6544    3    0    1
 -2      2267      2690      2725      2894
 -1      6545    3    0    1
 -2      1066       250      2592      2750
 -1      6546    3    0    1
 -2       711      1020      1032      2507
 -1      6547    3    0    1
 -2       711       688      1020      2507
 -1      6548    3    0    1
 -2       421      2067      2339      2761
 -1      6549    3    0    1
 -2      1067      2253      2499      2509
 -1      6550    3    0    1
 -2      1067       774      2253      2509
 -1      6551    3    0    1
 -2       774      2347      2470      2509
 -1      6552    3    0    1
 -2       776       774      2470      2509
 -1      6553    3    0    1
 -2       774       776      2253      2509
 -1      6554    3    0    1
 -2      2253       776      2470      2509
 -1      6555    3    0    1
 -2      1887      1543      2397      2617
 -1      6556    3    0    1
 -2       462       903      1914      2511
 -1      6557    3    0    1
 -2      1914       903      2501      2511
 -1      6558    3    0    1
 -2      2114      1914      2501      2511
 -1      6559    3    0    1
 -2       807      1605      2290      2513
 -1      6560    3    0    1
 -2      1712      1763      2168      2627
 -1      6561    3    0    1
 -2      2511      1914      2586      2616
 -1      6562    3    0    1
 -2       410      2011      2184      2512
 -1      6563    3    0    1
 -2      2380      2388      2666      2812
 -1      6564    3    0    1
 -2      2388      2661      2666      2812
 -1      6565    3    0    1
 -2       268      1083      1974      2513
 -1      6566    3    0    1
 -2      1067      2380      2666      2812
 -1      6567    3    0    1
 -2      1664      2264      2526      2711
 -1      6568    3    0    1
 -2      2212      2264      2650      2711
 -1      6569    3    0    1
 -2      1422      3092      1463      3116
 -1      6570    3    0    1
 -2       929      1418      3085      3106
 -1      6571    3    0    1
 -2       377      3136      3009      3039
 -1      6572    3    0    1
 -2      1299      1576      2304      2669
 -1      6573    3    0    1
 -2      1556      1979      2240      2515
 -1      6574    3    0    1
 -2      1748      1903      2240      2515
 -1      6575    3    0    1
 -2      1903      1556      2240      2515
 -1      6576    3    0    1
 -2       783      2252      2436      2516
 -1      6577    3    0    1
 -2      1071       783      2067      2516
 -1      6578    3    0    1
 -2      2067       783      2436      2516
 -1      6579    3    0    1
 -2      2252       783      1058      2516
 -1      6580    3    0    1
 -2      1118      2622      2757      2876
 -1      6581    3    0    1
 -2      1058       783      1071      2516
 -1      6582    3    0    1
 -2       783      2252      1058       760
 -1      6583    3    0    1
 -2      1321      1080      2229      2519
 -1      6584    3    0    1
 -2      1547      1611      2113      2739
 -1      6585    3    0    1
 -2       261       419      2303      2519
 -1      6586    3    0    1
 -2       419       261      1321      2519
 -1      6587    3    0    1
 -2       261      1080      1321      2519
 -1      6588    3    0    1
 -2      1635      1547      2113      2739
 -1      6589    3    0    1
 -2      2038      1572      2333      2739
 -1      6590    3    0    1
 -2      2057       558      2567      2680
 -1      6591    3    0    1
 -2       559       558       952      2680
 -1      6592    3    0    1
 -2       950       558      2057      2680
 -1      6593    3    0    1
 -2       655      2228      2492      2540
 -1      6594    3    0    1
 -2      1552      2146      2457      2571
 -1      6595    3    0    1
 -2      2146      1552      2192      2571
 -1      6596    3    0    1
 -2      1552      2031      2192      2571
 -1      6597    3    0    1
 -2      2954      1425      3094      3120
 -1      6598    3    0    1
 -2      1030       704      1747      2522
 -1      6599    3    0    1
 -2       992      2185      2367      2545
 -1      6600    3    0    1
 -2       992       639      2185      2545
 -1      6601    3    0    1
 -2      1812      1575      2082      2523
 -1      6602    3    0    1
 -2      1604      1812      2082      2523
 -1      6603    3    0    1
 -2      1575      1604      2082      2523
 -1      6604    3    0    1
 -2      1709      1675      1812      2523
 -1      6605    3    0    1
 -2      1709      1604      2103      2523
 -1      6606    3    0    1
 -2      1675      1709      2103      2523
 -1      6607    3    0    1
 -2      1046       216      2274      2815
 -1      6608    3    0    1
 -2      2274       216      2425      2815
 -1      6609    3    0    1
 -2       860       859      1997      2525
 -1      6610    3    0    1
 -2      1374       859       860      2525
 -1      6611    3    0    1
 -2      1973      1725      1997      2525
 -1      6612    3    0    1
 -2       859      1114      1973      2525
 -1      6613    3    0    1
 -2       859      1374      1114      2525
 -1      6614    3    0    1
 -2       859      1973      1997      2525
 -1      6615    3    0    1
 -2       422      1054      2494      2731
 -1      6616    3    0    1
 -2      1221       580      1760      2670
 -1      6617    3    0    1
 -2      1541      2096      2561      2630
 -1      6618    3    0    1
 -2      2264      2212      2425      2527
 -1      6619    3    0    1
 -2      2212      2264      2526      2527
 -1      6620    3    0    1
 -2      1867      2510      2569      2630
 -1      6621    3    0    1
 -2      2622      1991      2757      2876
 -1      6622    3    0    1
 -2       405       406      2705      2816
 -1      6623    3    0    1
 -2      1092       822      2431      2709
 -1      6624    3    0    1
 -2      2096      2115      2248      2630
 -1      6625    3    0    1
 -2      1766       273      1899      2588
 -1      6626    3    0    1
 -2       380      1085      2290      2588
 -1      6627    3    0    1
 -2      1783      1755      2111      2528
 -1      6628    3    0    1
 -2      1864      1933      2173      2813
 -1      6629    3    0    1
 -2       908       412      2174      2552
 -1      6630    3    0    1
 -2      1580      1570      2299      2551
 -1      6631    3    0    1
 -2       413       412      2207      2552
 -1      6632    3    0    1
 -2      2249      2117      2469      2621
 -1      6633    3    0    1
 -2      1072       784      2324      2831
 -1      6634    3    0    1
 -2      1572      1866      2038      2662
 -1      6635    3    0    1
 -2      1032       187      1618      2590
 -1      6636    3    0    1
 -2      2434      1032      2507      2590
 -1      6637    3    0    1
 -2      1587      1728      2397      2574
 -1      6638    3    0    1
 -2       187      2434      2579      2590
 -1      6639    3    0    1
 -2      1542       907      2294      2685
 -1      6640    3    0    1
 -2      1941      1858      1944      2563
 -1      6641    3    0    1
 -2       808      1085      1335      2660
 -1      6642    3    0    1
 -2       347      1032      2434      2590
 -1      6643    3    0    1
 -2       365       368      1012      2531
 -1      6644    3    0    1
 -2       368       366      1012      2531
 -1      6645    3    0    1
 -2      1858      1941      2230      2563
 -1      6646    3    0    1
 -2      1012       366      1258      2531
 -1      6647    3    0    1
 -2      2057      1875      2680      2767
 -1      6648    3    0    1
 -2       243      1833      2161      2849
 -1      6649    3    0    1
 -2       332      1005      2591      2699
 -1      6650    3    0    1
 -2      2177      2634      2645      2817
 -1      6651    3    0    1
 -2      1004      2166      2547      2652
 -1      6652    3    0    1
 -2       640       993      2305      2652
 -1      6653    3    0    1
 -2       336       992      2367      2655
 -1      6654    3    0    1
 -2      2762      1825      2802      2834
 -1      6655    3    0    1
 -2      2150      1569      2248      2698
 -1      6656    3    0    1
 -2       754       771      1065      2533
 -1      6657    3    0    1
 -2      2115      2096      2248      2698
 -1      6658    3    0    1
 -2       754      1065      1301      2533
 -1      6659    3    0    1
 -2      2166       993      2547      2652
 -1      6660    3    0    1
 -2        82      1745      2535      2605
 -1      6661    3    0    1
 -2      2441      2031      2478      2785
 -1      6662    3    0    1
 -2      2041        46      2604        55
 -1      6663    3    0    1
 -2        46       406       930      2537
 -1      6664    3    0    1
 -2      2177       876      2634      2817
 -1      6665    3    0    1
 -2      2232       930      2497      2537
 -1      6666    3    0    1
 -2       931      2232      2422      2537
 -1      6667    3    0    1
 -2        46       931      2041      2537
 -1      6668    3    0    1
 -2      2041       931      2422      2537
 -1      6669    3    0    1
 -2        46       930       931      2537
 -1      6670    3    0    1
 -2       931       930      2232      2537
 -1      6671    3    0    1
 -2      1646      1769      2171      2541
 -1      6672    3    0    1
 -2      1769      1646      1909      2541
 -1      6673    3    0    1
 -2      1644      1610      1909      2541
 -1      6674    3    0    1
 -2      1644      1920      2183      2541
 -1      6675    3    0    1
 -2      1610      1644      2183      2541
 -1      6676    3    0    1
 -2      1920      1644      2170      2541
 -1      6677    3    0    1
 -2      1868      1920      2170      2541
 -1      6678    3    0    1
 -2      1868      1909      2171      2541
 -1      6679    3    0    1
 -2      1909      1646      2171      2541
 -1      6680    3    0    1
 -2      1868      1644      1909      2541
 -1      6681    3    0    1
 -2      1644      1868      2170      2541
 -1      6682    3    0    1
 -2       414       316      2203      2543
 -1      6683    3    0    1
 -2       679       678      2062      2838
 -1      6684    3    0    1
 -2       991       639      2654      2818
 -1      6685    3    0    1
 -2       316      1131      1388      2543
 -1      6686    3    0    1
 -2       316       414      1131      2543
 -1      6687    3    0    1
 -2      2134       414      2203      2543
 -1      6688    3    0    1
 -2      1131       414      2134      2543
 -1      6689    3    0    1
 -2      1991      2298      2389      2635
 -1      6690    3    0    1
 -2      2361      1747      2522      2544
 -1      6691    3    0    1
 -2      1018       687      2591      2656
 -1      6692    3    0    1
 -2      2562       664      2646      2656
 -1      6693    3    0    1
 -2       980       639       992      2545
 -1      6694    3    0    1
 -2       980       992      1930      2545
 -1      6695    3    0    1
 -2       616       639       980      2545
 -1      6696    3    0    1
 -2      1758      1865      1871      2546
 -1      6697    3    0    1
 -2      1871      1865      2366      2546
 -1      6698    3    0    1
 -2      1523      1865      2351      2546
 -1      6699    3    0    1
 -2      1523      1864      2366      2546
 -1      6700    3    0    1
 -2      1865      1523      2366      2546
 -1      6701    3    0    1
 -2      1741      1649      2266      2795
 -1      6702    3    0    1
 -2      2379       101      2420      2795
 -1      6703    3    0    1
 -2      1960      2143      2329      2548
 -1      6704    3    0    1
 -2      2146      1960      2329      2548
 -1      6705    3    0    1
 -2      1083       272      2332      2811
 -1      6706    3    0    1
 -2      1549      1551      2120      2550
 -1      6707    3    0    1
 -2      2120      1551      2231      2550
 -1      6708    3    0    1
 -2      1841      1971      2231      2550
 -1      6709    3    0    1
 -2      1600       411      2231      2550
 -1      6710    3    0    1
 -2      1551      1600      2231      2550
 -1      6711    3    0    1
 -2       411       914      2231      2550
 -1      6712    3    0    1
 -2      1600      1551      1795      2550
 -1      6713    3    0    1
 -2       411      1600      1795      2550
 -1      6714    3    0    1
 -2      1971      1841      2035      2550
 -1      6715    3    0    1
 -2      1549      1971      2035      2550
 -1      6716    3    0    1
 -2      1549      2120      2401      2550
 -1      6717    3    0    1
 -2      1971      1549      2401      2550
 -1      6718    3    0    1
 -2      1971      2120      2231      2550
 -1      6719    3    0    1
 -2      2120      1971      2401      2550
 -1      6720    3    0    1
 -2       412       413      2174      2552
 -1      6721    3    0    1
 -2      2174       413      2247      2552
 -1      6722    3    0    1
 -2      1866       445      2340      2701
 -1      6723    3    0    1
 -2      2011      2510      2569      2703
 -1      6724    3    0    1
 -2       295       445      1099      2701
 -1      6725    3    0    1
 -2       412       908      2044      2552
 -1      6726    3    0    1
 -2      1611      1758      1987      2594
 -1      6727    3    0    1
 -2      1596      2040      2623      2683
 -1      6728    3    0    1
 -2      2123      2269      2270      2555
 -1      6729    3    0    1
 -2      2123      1653      2269      2555
 -1      6730    3    0    1
 -2      1590      1967      2270      2555
 -1      6731    3    0    1
 -2      1967      2123      2270      2555
 -1      6732    3    0    1
 -2       896       887      1958      2556
 -1      6733    3    0    1
 -2      1142      1152      2340      2556
 -1      6734    3    0    1
 -2       887      1152      1142      2556
 -1      6735    3    0    1
 -2      1152       887       896      2556
 -1      6736    3    0    1
 -2      1152       896      2340      2556
 -1      6737    3    0    1
 -2      1438      3101      3131      1481
 -1      6738    3    0    1
 -2      2115      1569      2248      2569
 -1      6739    3    0    1
 -2      1640      1587      1729      2676
 -1      6740    3    0    1
 -2       117      1470      1473      1493
 -1      6741    3    0    1
 -2      1729      1587      2272      2676
 -1      6742    3    0    1
 -2       134       139       994      2558
 -1      6743    3    0    1
 -2       991       134       994      2558
 -1      6744    3    0    1
 -2      1640      1729      2272      2676
 -1      6745    3    0    1
 -2      1422      2956      3092      3116
 -1      6746    3    0    1
 -2      2040      2312      2576      2827
 -1      6747    3    0    1
 -2       639       991       994      2558
 -1      6748    3    0    1
 -2      1448      1441      1479      3061
 -1      6749    3    0    1
 -2      2185       994       639       640
 -1      6750    3    0    1
 -2       994      2185       639      2558
 -1      6751    3    0    1
 -2      1922      1706      2546      2813
 -1      6752    3    0    1
 -2       187      1027      1277      2560
 -1      6753    3    0    1
 -2       173       367      1018      2591
 -1      6754    3    0    1
 -2       967      1578      2118      2580
 -1      6755    3    0    1
 -2      1767      1628      2225      2576
 -1      6756    3    0    1
 -2      1787       802      2432      2828
 -1      6757    3    0    1
 -2      1596      2040      2312      2576
 -1      6758    3    0    1
 -2       783      1070      2309      2689
 -1      6759    3    0    1
 -2      2047      1059      2436      2689
 -1      6760    3    0    1
 -2      1636      2059      2636      2745
 -1      6761    3    0    1
 -2      1014       678      2801      2803
 -1      6762    3    0    1
 -2      1544      2046      2202      2762
 -1      6763    3    0    1
 -2      2148      1636      2636      2745
 -1      6764    3    0    1
 -2       822      2167      2431      2709
 -1      6765    3    0    1
 -2      2167       822      2600      2709
 -1      6766    3    0    1
 -2       822      2362      2600      2709
 -1      6767    3    0    1
 -2      1033      2485      2749      2809
 -1      6768    3    0    1
 -2      1618       711      2507      2809
 -1      6769    3    0    1
 -2      2485      2507      2749      2809
 -1      6770    3    0    1
 -2       808      2290      2336      2710
 -1      6771    3    0    1
 -2       508      1185      2288      2602
 -1      6772    3    0    1
 -2      2362      1906      2553      2600
 -1      6773    3    0    1
 -2       822      2362      2553      2600
 -1      6774    3    0    1
 -2      1922      1706      2361      2624
 -1      6775    3    0    1
 -2      1907       511      2172      2604
 -1      6776    3    0    1
 -2       511       928      2172      2604
 -1      6777    3    0    1
 -2       928       511      1907      2604
 -1      6778    3    0    1
 -2      2705      2686      2821      2854
 -1      6779    3    0    1
 -2      2246      1091      2553      2600
 -1      6780    3    0    1
 -2       369      1706      1922      2624
 -1      6781    3    0    1
 -2       430       431      1162      2566
 -1      6782    3    0    1
 -2       430      1162      1173      2566
 -1      6783    3    0    1
 -2        37       430      1173      2566
 -1      6784    3    0    1
 -2       822      1091      2167      2600
 -1      6785    3    0    1
 -2       799      2229      2486      2789
 -1      6786    3    0    1
 -2      1974       268      2811      2887
 -1      6787    3    0    1
 -2       687      1018      2591      2787
 -1      6788    3    0    1
 -2       558       950       952      2680
 -1      6789    3    0    1
 -2      1040      1289      2322      2597
 -1      6790    3    0    1
 -2      1175      2268      2521      2570
 -1      6791    3    0    1
 -2        23      1175      2521      2570
 -1      6792    3    0    1
 -2      1564      1944      2352      2572
 -1      6793    3    0    1
 -2      1016      1422      2956      3092
 -1      6794    3    0    1
 -2      1453      1439      3120      3042
 -1      6795    3    0    1
 -2      2722      2373      2769      2945
 -1      6796    3    0    1
 -2      1082      1332      1743      3099
 -1      6797    3    0    1
 -2      1409      1082      2916      3099
 -1      6798    3    0    1
 -2       157      1256      2532      2720
 -1      6799    3    0    1
 -2      2430      2048      2954      3094
 -1      6800    3    0    1
 -2      1839       913      2489      2877
 -1      6801    3    0    1
 -2      1256       654      1630      2720
 -1      6802    3    0    1
 -2      1995      1969      2397      2574
 -1      6803    3    0    1
 -2       214      2159      2459      2575
 -1      6804    3    0    1
 -2       195       214      2459      2575
 -1      6805    3    0    1
 -2       214       195      2159      2575
 -1      6806    3    0    1
 -2      1277       193      2560      2575
 -1      6807    3    0    1
 -2       193       195      1035      2575
 -1      6808    3    0    1
 -2       193      1035      1618      2575
 -1      6809    3    0    1
 -2       195       193      1277      2575
 -1      6810    3    0    1
 -2      1596      1859      2427      2576
 -1      6811    3    0    1
 -2      1628      1596      2312      2576
 -1      6812    3    0    1
 -2      1596      1628      1859      2576
 -1      6813    3    0    1
 -2       778       771      1309      2632
 -1      6814    3    0    1
 -2      1069       778      1309      2632
 -1      6815    3    0    1
 -2      1829      2315      2691      2733
 -1      6816    3    0    1
 -2       459      2273      2614      2717
 -1      6817    3    0    1
 -2      2352      1942      2631      2931
 -1      6818    3    0    1
 -2      2068      2631      2929      2955
 -1      6819    3    0    1
 -2      2352      2372      2930      2931
 -1      6820    3    0    1
 -2       347       178      1268      2579
 -1      6821    3    0    1
 -2       682       699      1268      2579
 -1      6822    3    0    1
 -2      2144       592      2093      2580
 -1      6823    3    0    1
 -2       592      2144      2093       615
 -1      6824    3    0    1
 -2       142       136      2282      2581
 -1      6825    3    0    1
 -2       682      1268      2589      2830
 -1      6826    3    0    1
 -2      2145      2223      2482      2581
 -1      6827    3    0    1
 -2      2282      2301      2547      2581
 -1      6828    3    0    1
 -2       142      2282      2547      2581
 -1      6829    3    0    1
 -2      2301      2145      2482      2581
 -1      6830    3    0    1
 -2      1268       682      2579      2830
 -1      6831    3    0    1
 -2      2301      2482      2547      2581
 -1      6832    3    0    1
 -2       989       142      2223      2581
 -1      6833    3    0    1
 -2      2223       142      2482      2581
 -1      6834    3    0    1
 -2      2482       142      2547      2581
 -1      6835    3    0    1
 -2       586       604      1662      2582
 -1      6836    3    0    1
 -2       977      1233      2495      2582
 -1      6837    3    0    1
 -2      2448       977      2495      2582
 -1      6838    3    0    1
 -2      1605      1073      2385      2583
 -1      6839    3    0    1
 -2      1954      1042      2425      2879
 -1      6840    3    0    1
 -2      2013      2129      2265      2584
 -1      6841    3    0    1
 -2       416      2392      2500      2584
 -1      6842    3    0    1
 -2      1687      1673      2443      2856
 -1      6843    3    0    1
 -2       418       416      2013      2584
 -1      6844    3    0    1
 -2       418      2013      2265      2584
 -1      6845    3    0    1
 -2      2521      2381      2570      2585
 -1      6846    3    0    1
 -2      2268      2521      2570      2585
 -1      6847    3    0    1
 -2      2208       904      2383      2586
 -1      6848    3    0    1
 -2      1763      2077      2168      2627
 -1      6849    3    0    1
 -2      1728      1599      2626      2628
 -1      6850    3    0    1
 -2      1161       463      2078      2586
 -1      6851    3    0    1
 -2      1161       462       463      2586
 -1      6852    3    0    1
 -2       462       905       463      2586
 -1      6853    3    0    1
 -2       905      1914      2207      2586
 -1      6854    3    0    1
 -2      1161      2078      2383      2586
 -1      6855    3    0    1
 -2       904      1161      2383      2586
 -1      6856    3    0    1
 -2       462      1161       904      2586
 -1      6857    3    0    1
 -2      2078       463      2207      2586
 -1      6858    3    0    1
 -2       463       905      2207      2586
 -1      6859    3    0    1
 -2       905       462       903      2586
 -1      6860    3    0    1
 -2       903       462      1914      2586
 -1      6861    3    0    1
 -2       905       903      1914      2586
 -1      6862    3    0    1
 -2       259      2290      2354      2588
 -1      6863    3    0    1
 -2       380       259      2354      2588
 -1      6864    3    0    1
 -2       259       380      2290      2588
 -1      6865    3    0    1
 -2      1406      2190      2210      2796
 -1      6866    3    0    1
 -2        32        38      2255      2909
 -1      6867    3    0    1
 -2       784      1072      2067      2831
 -1      6868    3    0    1
 -2      1268      1012       675      2589
 -1      6869    3    0    1
 -2      1836       747      2597      2792
 -1      6870    3    0    1
 -2      1161         9      2383      2780
 -1      6871    3    0    1
 -2      1344       837      1343      2726
 -1      6872    3    0    1
 -2      2368       908      2552      2700
 -1      6873    3    0    1
 -2      1985       943      2399      2885
 -1      6874    3    0    1
 -2      1057       759      2487      2657
 -1      6875    3    0    1
 -2      2044      1839      2552      2700
 -1      6876    3    0    1
 -2       974      1880      2181      2751
 -1      6877    3    0    1
 -2      2098      2345      2620      2823
 -1      6878    3    0    1
 -2      1671      2265      2623      2683
 -1      6879    3    0    1
 -2      1588       391      1667      2593
 -1      6880    3    0    1
 -2       974      1880      2751      2823
 -1      6881    3    0    1
 -2      1611      1523      1865      2594
 -1      6882    3    0    1
 -2      1773       559      2680      2712
 -1      6883    3    0    1
 -2      1351      1350      2707      2860
 -1      6884    3    0    1
 -2       486       487      1175      2596
 -1      6885    3    0    1
 -2      1677      2217      2272      2676
 -1      6886    3    0    1
 -2      1160      2273      2716      2866
 -1      6887    3    0    1
 -2      1288       424      2595      2864
 -1      6888    3    0    1
 -2      1599      1677      2272      2676
 -1      6889    3    0    1
 -2      1919      1984      2663      2851
 -1      6890    3    0    1
 -2      1377      1118      2757      2876
 -1      6891    3    0    1
 -2      2427      2559      2789      2820
 -1      6892    3    0    1
 -2      1018       173      2591      2787
 -1      6893    3    0    1
 -2       212       211      1289      2597
 -1      6894    3    0    1
 -2       359       212      1289      2597
 -1      6895    3    0    1
 -2      1052       359      1289      2597
 -1      6896    3    0    1
 -2       747      1052      1289      2597
 -1      6897    3    0    1
 -2       730       747      1289      2597
 -1      6898    3    0    1
 -2      1835      1288      2595      2864
 -1      6899    3    0    1
 -2      1162      1173      2566      2599
 -1      6900    3    0    1
 -2       994       640      2185      2674
 -1      6901    3    0    1
 -2      2208      2011      2512      2616
 -1      6902    3    0    1
 -2       483       466      1929      2599
 -1      6903    3    0    1
 -2      1929       466      2273      2599
 -1      6904    3    0    1
 -2      2258       472      2368      2603
 -1      6905    3    0    1
 -2       916       490      1929      2615
 -1      6906    3    0    1
 -2       466       483      1173      2599
 -1      6907    3    0    1
 -2       243      1894      2849      2902
 -1      6908    3    0    1
 -2      1162       466      1173      2599
 -1      6909    3    0    1
 -2      1535       342      1829      2733
 -1      6910    3    0    1
 -2      1267      1014      2477      2733
 -1      6911    3    0    1
 -2       663      2166      2652      2833
 -1      6912    3    0    1
 -2      2305       640      2652      2833
 -1      6913    3    0    1
 -2      1853       514      2288      2602
 -1      6914    3    0    1
 -2      1003      1583      2646      2833
 -1      6915    3    0    1
 -2        46      2041      2604      2537
 -1      6916    3    0    1
 -2      1548        55      2041      2604
 -1      6917    3    0    1
 -2        55      1548      1702      2604
 -1      6918    3    0    1
 -2        46        55       928      2604
 -1      6919    3    0    1
 -2       928        55      1702      2604
 -1      6920    3    0    1
 -2      2227        82      2535      2605
 -1      6921    3    0    1
 -2       370        82      2227      2605
 -1      6922    3    0    1
 -2       370      2227      2464      2605
 -1      6923    3    0    1
 -2      1096       832      2294      2783
 -1      6924    3    0    1
 -2      1096      2348      2409      2783
 -1      6925    3    0    1
 -2      2317      1726      2323      2606
 -1      6926    3    0    1
 -2       175       340      1015      2606
 -1      6927    3    0    1
 -2      1015       340      2323      2606
 -1      6928    3    0    1
 -2       340      2317      2323      2606
 -1      6929    3    0    1
 -2      2089      2102      2149      2607
 -1      6930    3    0    1
 -2      1855       582      2102      2607
 -1      6931    3    0    1
 -2      2102       962      2149      2607
 -1      6932    3    0    1
 -2       582       962      2102      2607
 -1      6933    3    0    1
 -2      2021       952      2529      2608
 -1      6934    3    0    1
 -2      2417      2021      2529      2608
 -1      6935    3    0    1
 -2      2020      2417      2529      2608
 -1      6936    3    0    1
 -2        89      2349      2529      2608
 -1      6937    3    0    1
 -2       952        89      2529      2608
 -1      6938    3    0    1
 -2      2466      1720      2777      2781
 -1      6939    3    0    1
 -2      2124      1527      2249      2781
 -1      6940    3    0    1
 -2      2219      2124      2249      2781
 -1      6941    3    0    1
 -2      2207      2078      2508      2609
 -1      6942    3    0    1
 -2      2388      2380      2666      2774
 -1      6943    3    0    1
 -2      1056       359      2679      2713
 -1      6944    3    0    1
 -2      1629      1782      2587      2774
 -1      6945    3    0    1
 -2      1411      2670      3087      3131
 -1      6946    3    0    1
 -2       735      1044      2291      2612
 -1      6947    3    0    1
 -2      2291      1044      2536      2612
 -1      6948    3    0    1
 -2       428      1138      1136      2625
 -1      6949    3    0    1
 -2      1035       712      2536      2612
 -1      6950    3    0    1
 -2      1044      1035      2536      2612
 -1      6951    3    0    1
 -2       439       428      1141      2625
 -1      6952    3    0    1
 -2      2119      2117      2357      2625
 -1      6953    3    0    1
 -2      2117      2119      2463      2625
 -1      6954    3    0    1
 -2       712       735      1034      2612
 -1      6955    3    0    1
 -2      1034       735      1045      2612
 -1      6956    3    0    1
 -2       735       712      1044      2612
 -1      6957    3    0    1
 -2       712      1035      1044      2612
 -1      6958    3    0    1
 -2       224       423      2008      2613
 -1      6959    3    0    1
 -2       224      2008      2524      2613
 -1      6960    3    0    1
 -2      2008       423      2327      2613
 -1      6961    3    0    1
 -2      1929       483      2599      2615
 -1      6962    3    0    1
 -2         9      2035      2780      2898
 -1      6963    3    0    1
 -2       483       490      1176      2615
 -1      6964    3    0    1
 -2      1841      2609      2841      2898
 -1      6965    3    0    1
 -2       483      1173      2599      2615
 -1      6966    3    0    1
 -2      1173       483      1176      2615
 -1      6967    3    0    1
 -2      2208       462      2586      2616
 -1      6968    3    0    1
 -2      1918      2114      2511      2616
 -1      6969    3    0    1
 -2      2185       640      2305      2674
 -1      6970    3    0    1
 -2       904       462      2208      2616
 -1      6971    3    0    1
 -2      2511       904      2512      2616
 -1      6972    3    0    1
 -2      1918      2511      2512      2616
 -1      6973    3    0    1
 -2       462       904      2511      2616
 -1      6974    3    0    1
 -2      1614      2154      2168      2627
 -1      6975    3    0    1
 -2      2154      1712      2168      2627
 -1      6976    3    0    1
 -2      2488      1055      2651      2915
 -1      6977    3    0    1
 -2      2918      3090      3092      3095
 -1      6978    3    0    1
 -2       987      2064      2449      2619
 -1      6979    3    0    1
 -2      2018       987      2449      2619
 -1      6980    3    0    1
 -2       344       125      2064      2619
 -1      6981    3    0    1
 -2      2064       125      2447      2619
 -1      6982    3    0    1
 -2       125      1857      2447      2619
 -1      6983    3    0    1
 -2       125       344      1857      2619
 -1      6984    3    0    1
 -2       134       344       987      2619
 -1      6985    3    0    1
 -2      2387      2298      2622      2844
 -1      6986    3    0    1
 -2      2115      2797      2861      2901
 -1      6987    3    0    1
 -2      2177      2634      2848      2901
 -1      6988    3    0    1
 -2      1942      1944      2631      2758
 -1      6989    3    0    1
 -2      1454      3007      1494      3038
 -1      6990    3    0    1
 -2      1352       841       842      2870
 -1      6991    3    0    1
 -2      2500       416      2584      2708
 -1      6992    3    0    1
 -2      2561      2009      2565      2708
 -1      6993    3    0    1
 -2      1130      2177      2634      2848
 -1      6994    3    0    1
 -2      3109      1460      3136      1486
 -1      6995    3    0    1
 -2      2040      1671      2129      2623
 -1      6996    3    0    1
 -2      2265       418      2584      2623
 -1      6997    3    0    1
 -2      2129      2265      2584      2623
 -1      6998    3    0    1
 -2      2129      1671      2265      2623
 -1      6999    3    0    1
 -2      1862      1793      2540      2805
 -1      7000    3    0    1
 -2      3096      2577      1461      2987
 -1      7001    3    0    1
 -2      2338       369      2544      2624
 -1      7002    3    0    1
 -2       369      1922      2544      2624
 -1      7003    3    0    1
 -2      2061      1737      2617      2626
 -1      7004    3    0    1
 -2      1543      1574      1728      2626
 -1      7005    3    0    1
 -2      1574      1543      1737      2626
 -1      7006    3    0    1
 -2       261      1574      2303      2628
 -1      7007    3    0    1
 -2      2217      1677      2320      2628
 -1      7008    3    0    1
 -2       261      2217      2320      2628
 -1      7009    3    0    1
 -2      1574      1728      2626      2628
 -1      7010    3    0    1
 -2      1574       261      1677      2628
 -1      7011    3    0    1
 -2      1677       261      2320      2628
 -1      7012    3    0    1
 -2      1574      1677      1728      2628
 -1      7013    3    0    1
 -2       750      1299      2007      2629
 -1      7014    3    0    1
 -2      2264      2526      2527      2629
 -1      7015    3    0    1
 -2       223       425      1057      2747
 -1      7016    3    0    1
 -2       759      2487      2520      2747
 -1      7017    3    0    1
 -2       425       223      1576      2747
 -1      7018    3    0    1
 -2      2526      2007      2527      2629
 -1      7019    3    0    1
 -2      2248      2115      2569      2630
 -1      7020    3    0    1
 -2      2510      2248      2569      2630
 -1      7021    3    0    1
 -2      2500      2096      2510      2630
 -1      7022    3    0    1
 -2        29      1177      2039      2825
 -1      7023    3    0    1
 -2      2096      2248      2510      2630
 -1      7024    3    0    1
 -2      1256      1001      2720      2868
 -1      7025    3    0    1
 -2      2358      2068      2563      2631
 -1      7026    3    0    1
 -2      1858      1944      2563      2631
 -1      7027    3    0    1
 -2      1944      1858      2352      2631
 -1      7028    3    0    1
 -2      1942      1944      2352      2631
 -1      7029    3    0    1
 -2       895      2357      2402      2759
 -1      7030    3    0    1
 -2       317       409      2633      2848
 -1      7031    3    0    1
 -2      2402      2357      2696      2759
 -1      7032    3    0    1
 -2       398      1964      2065      2859
 -1      7033    3    0    1
 -2      1151       895      2402      2759
 -1      7034    3    0    1
 -2      2096      1541      2561      2797
 -1      7035    3    0    1
 -2      1210       398      2259      2859
 -1      7036    3    0    1
 -2       317      1339      1342      2633
 -1      7037    3    0    1
 -2      2636      1894      2753      2849
 -1      7038    3    0    1
 -2       663      1003      1006      2646
 -1      7039    3    0    1
 -2      1857       991      2654      2818
 -1      7040    3    0    1
 -2      1132       875      1130      2634
 -1      7041    3    0    1
 -2       876      1132      2177      2634
 -1      7042    3    0    1
 -2       875      1132       876      2634
 -1      7043    3    0    1
 -2      1540      1636      1894      2636
 -1      7044    3    0    1
 -2      1894      1636      2195      2636
 -1      7045    3    0    1
 -2      1943      1564      2289      2638
 -1      7046    3    0    1
 -2      1945      2152      2572      2638
 -1      7047    3    0    1
 -2      1080      2229      2839      2895
 -1      7048    3    0    1
 -2       425      2527      2629      2730
 -1      7049    3    0    1
 -2      2527      2264      2629      2730
 -1      7050    3    0    1
 -2      1564      1943      1945      2638
 -1      7051    3    0    1
 -2      1564      1945      2572      2638
 -1      7052    3    0    1
 -2       723       706      2237      2639
 -1      7053    3    0    1
 -2      2159       723      2237      2639
 -1      7054    3    0    1
 -2       699      1277      1027      2639
 -1      7055    3    0    1
 -2       699      1027      2050      2639
 -1      7056    3    0    1
 -2      1040       723      2159      2639
 -1      7057    3    0    1
 -2       706      1040      1277      2639
 -1      7058    3    0    1
 -2       706       723      1040      2639
 -1      7059    3    0    1
 -2      1778      1634      1792      2640
 -1      7060    3    0    1
 -2      1792      1708      2216      2640
 -1      7061    3    0    1
 -2      1778      1792      2216      2640
 -1      7062    3    0    1
 -2      2151      1850      2549      2641
 -1      7063    3    0    1
 -2       338      2179      2549      2641
 -1      7064    3    0    1
 -2      2179       338      2335      2641
 -1      7065    3    0    1
 -2       338       403      2335      2641
 -1      7066    3    0    1
 -2       403      1850      1982      2641
 -1      7067    3    0    1
 -2      1850       403      2549      2641
 -1      7068    3    0    1
 -2       403       338      2549      2641
 -1      7069    3    0    1
 -2       664      1006      1017      2642
 -1      7070    3    0    1
 -2      1723      1737      2061      2643
 -1      7071    3    0    1
 -2      1528      1737      2277      2643
 -1      7072    3    0    1
 -2      1737      1723      2277      2643
 -1      7073    3    0    1
 -2       263       268      1974      2644
 -1      7074    3    0    1
 -2       268       263      1079      2644
 -1      7075    3    0    1
 -2      2229      1081      2486      2644
 -1      7076    3    0    1
 -2      1079       263      1081      2644
 -1      7077    3    0    1
 -2       799      1081      2229      2644
 -1      7078    3    0    1
 -2       807      1605      2513      2896
 -1      7079    3    0    1
 -2       263      1974      2486      2644
 -1      7080    3    0    1
 -2      1081       263      2486      2644
 -1      7081    3    0    1
 -2      1593      1999      2475      2800
 -1      7082    3    0    1
 -2      2307      2106      2475      2800
 -1      7083    3    0    1
 -2      1110      2106      2307      2800
 -1      7084    3    0    1
 -2      1371      2155      2400      2800
 -1      7085    3    0    1
 -2       663       664      1005      2646
 -1      7086    3    0    1
 -2      2268      2037      2570      2675
 -1      7087    3    0    1
 -2      1004       663      1005      2646
 -1      7088    3    0    1
 -2      1004      1005      2532      2646
 -1      7089    3    0    1
 -2      1005      2186      2532      2646
 -1      7090    3    0    1
 -2       776      2253      2470      2648
 -1      7091    3    0    1
 -2      2325      1722      2424      2648
 -1      7092    3    0    1
 -2      1722      2278      2424      2648
 -1      7093    3    0    1
 -2       776      1935      2278      2648
 -1      7094    3    0    1
 -2      2278      1935      2424      2648
 -1      7095    3    0    1
 -2      1935       776      2470      2648
 -1      7096    3    0    1
 -2      2325      2253      2453      2648
 -1      7097    3    0    1
 -2      2161      2325      2453      2648
 -1      7098    3    0    1
 -2      2253      2325      2470      2648
 -1      7099    3    0    1
 -2      2325      2424      2470      2648
 -1      7100    3    0    1
 -2      2424      1935      2470      2648
 -1      7101    3    0    1
 -2       682      1016      1275      2649
 -1      7102    3    0    1
 -2       699       682      1275      2649
 -1      7103    3    0    1
 -2      2264      1042      2425      2650
 -1      7104    3    0    1
 -2      2212      2264      2425      2650
 -1      7105    3    0    1
 -2       559       952      2021      2712
 -1      7106    3    0    1
 -2       754       771      2533      2651
 -1      7107    3    0    1
 -2      2117      2311      2734      2793
 -1      7108    3    0    1
 -2      1298      1836      2488      2651
 -1      7109    3    0    1
 -2      1055      1298      2488      2651
 -1      7110    3    0    1
 -2       754      1055      1309      2651
 -1      7111    3    0    1
 -2       771       754      1309      2651
 -1      7112    3    0    1
 -2      1526      1665      1919      2851
 -1      7113    3    0    1
 -2      1665      1526      2328      2851
 -1      7114    3    0    1
 -2       991       981      1857      2654
 -1      7115    3    0    1
 -2       616      1707      2653      2654
 -1      7116    3    0    1
 -2      1707       616      2545      2654
 -1      7117    3    0    1
 -2      2690      2037      2715      2819
 -1      7118    3    0    1
 -2      2037       487      2715      2819
 -1      7119    3    0    1
 -2       639       616       991      2654
 -1      7120    3    0    1
 -2       616       981       991      2654
 -1      7121    3    0    1
 -2      1961      2238      2418      2655
 -1      7122    3    0    1
 -2      1311      1065       771      2659
 -1      7123    3    0    1
 -2      2238       336      2418      2655
 -1      7124    3    0    1
 -2       771      1065      2533      2659
 -1      7125    3    0    1
 -2       992       336      1930      2655
 -1      7126    3    0    1
 -2       336      2238      2418      2024
 -1      7127    3    0    1
 -2      2036       989      2223      2829
 -1      7128    3    0    1
 -2       759       736      2520      2657
 -1      7129    3    0    1
 -2      1068       251      2339      2761
 -1      7130    3    0    1
 -2      1054      2446      2494      2731
 -1      7131    3    0    1
 -2      1244       989       630      2658
 -1      7132    3    0    1
 -2       630      1961      2418      2658
 -1      7133    3    0    1
 -2      2434      1268      2579      2830
 -1      7134    3    0    1
 -2       336      2418      2655      2658
 -1      7135    3    0    1
 -2       630       631      2029      2658
 -1      7136    3    0    1
 -2       631       630       989      2658
 -1      7137    3    0    1
 -2      1244       630      2418      2658
 -1      7138    3    0    1
 -2       336      1244      2418      2658
 -1      7139    3    0    1
 -2       778       771      2632      2659
 -1      7140    3    0    1
 -2       136       989      2175      2829
 -1      7141    3    0    1
 -2       435      1065      1311      2659
 -1      7142    3    0    1
 -2      2385      1311       435       433
 -1      7143    3    0    1
 -2      2465      2308      2601      2696
 -1      7144    3    0    1
 -2      2039      1177      2368      2862
 -1      7145    3    0    1
 -2       435       248      1065      2659
 -1      7146    3    0    1
 -2      1991      2622      2635      2876
 -1      7147    3    0    1
 -2      1311      2385       435      2659
 -1      7148    3    0    1
 -2      1611      1987      2182      2662
 -1      7149    3    0    1
 -2      2333      1631      1987      2662
 -1      7150    3    0    1
 -2      1631      2333      1987      1654
 -1      7151    3    0    1
 -2      1919      1771      2012      2663
 -1      7152    3    0    1
 -2      1919      1984      2595      2663
 -1      7153    3    0    1
 -2      1771      1919      2595      2663
 -1      7154    3    0    1
 -2      1526      1919      2012      2663
 -1      7155    3    0    1
 -2      2098      2345      2755      2853
 -1      7156    3    0    1
 -2       368       365      1017      2744
 -1      7157    3    0    1
 -2      2562      1017      2642      2744
 -1      7158    3    0    1
 -2      1222       583       582      2664
 -1      7159    3    0    1
 -2       405      2816      2854      2894
 -1      7160    3    0    1
 -2      1222       582      1855      2664
 -1      7161    3    0    1
 -2       963       583      2664      2853
 -1      7162    3    0    1
 -2       963       348      1578      2664
 -1      7163    3    0    1
 -2      1578       348      2403      2664
 -1      7164    3    0    1
 -2       366       368      1006      2744
 -1      7165    3    0    1
 -2      1833       246      2499      2882
 -1      7166    3    0    1
 -2      2664       583      2755      2853
 -1      7167    3    0    1
 -2      2345      2098      2620      2853
 -1      7168    3    0    1
 -2       422      2494      2807      2907
 -1      7169    3    0    1
 -2       487      1175      2596      2675
 -1      7170    3    0    1
 -2      1764      2913      2949      3086
 -1      7171    3    0    1
 -2      1246       139      2018      2667
 -1      7172    3    0    1
 -2       353       140      1246      2667
 -1      7173    3    0    1
 -2       999       353      1246      2667
 -1      7174    3    0    1
 -2       156       353       999      2667
 -1      7175    3    0    1
 -2       140       139      1246      2667
 -1      7176    3    0    1
 -2       573      1214      1215      2994
 -1      7177    3    0    1
 -2      2514      1031      2937      1426
 -1      7178    3    0    1
 -2      3022       546      1509      3060
 -1      7179    3    0    1
 -2       425       223      1299      2669
 -1      7180    3    0    1
 -2       953      1760      2090      2670
 -1      7181    3    0    1
 -2       953      1221      1760      2670
 -1      7182    3    0    1
 -2      1221       586       580      2670
 -1      7183    3    0    1
 -2       580       586      1760      2670
 -1      7184    3    0    1
 -2      1760       586      2137      2670
 -1      7185    3    0    1
 -2      1221       964       586      2670
 -1      7186    3    0    1
 -2       586       964      2137      2670
 -1      7187    3    0    1
 -2        32        29      2908      2909
 -1      7188    3    0    1
 -2      1136       428      2625      2793
 -1      7189    3    0    1
 -2      2786        23      2826      2863
 -1      7190    3    0    1
 -2      2500      1867      2510      2673
 -1      7191    3    0    1
 -2      1641      1825      2295      2834
 -1      7192    3    0    1
 -2       140       139      2667      2674
 -1      7193    3    0    1
 -2       139       994      2558      2674
 -1      7194    3    0    1
 -2       139       140       994      2674
 -1      7195    3    0    1
 -2       353       140      2667      2674
 -1      7196    3    0    1
 -2      1583       353      2667      2674
 -1      7197    3    0    1
 -2      1003       353      1583      2674
 -1      7198    3    0    1
 -2       139      2018      2667      2674
 -1      7199    3    0    1
 -2      2018       139      2558      2674
 -1      7200    3    0    1
 -2      1768      1612      2295      2834
 -1      7201    3    0    1
 -2      1825      1641      2802      2834
 -1      7202    3    0    1
 -2       994       140      1003      2674
 -1      7203    3    0    1
 -2       140       353      1003      2674
 -1      7204    3    0    1
 -2      1780      1586      2479      2677
 -1      7205    3    0    1
 -2      2198      2196      2479      2677
 -1      7206    3    0    1
 -2      1586      2198      2479      2677
 -1      7207    3    0    1
 -2      1625      1733      2407      2678
 -1      7208    3    0    1
 -2      1625      2219      2300      2678
 -1      7209    3    0    1
 -2      2300      2219      2302      2678
 -1      7210    3    0    1
 -2      1596      2040      2427      2727
 -1      7211    3    0    1
 -2      2362      2600      2709      2727
 -1      7212    3    0    1
 -2      2303      1574      2738      2846
 -1      7213    3    0    1
 -2      2362      1685      2600      2727
 -1      7214    3    0    1
 -2      2134      2634      2645      2799
 -1      7215    3    0    1
 -2      1600       411      1795      2863
 -1      7216    3    0    1
 -2      1528      1574      1737      2846
 -1      7217    3    0    1
 -2      1524      1708      2154      2681
 -1      7218    3    0    1
 -2       294       314      1126      2681
 -1      7219    3    0    1
 -2      1381      1763      2220      2681
 -1      7220    3    0    1
 -2       294      1381      2220      2681
 -1      7221    3    0    1
 -2       294      1126      1381      2681
 -1      7222    3    0    1
 -2       606      2181      2751      2823
 -1      7223    3    0    1
 -2      1666      2554      2585      2682
 -1      7224    3    0    1
 -2      1880       124      2345      2823
 -1      7225    3    0    1
 -2      1092      1333      2392      2824
 -1      7226    3    0    1
 -2      1880      2345      2751      2823
 -1      7227    3    0    1
 -2      1258      1012      2531      2684
 -1      7228    3    0    1
 -2      1906      2363      2553      2768
 -1      7229    3    0    1
 -2      2363      2246      2553      2768
 -1      7230    3    0    1
 -2       658      1258      2313      2684
 -1      7231    3    0    1
 -2      1906      1685      2486      2768
 -1      7232    3    0    1
 -2      2567      2057      2680      2767
 -1      7233    3    0    1
 -2       658       675      1012      2684
 -1      7234    3    0    1
 -2       658      1012      1258      2684
 -1      7235    3    0    1
 -2       471       907      1542      2685
 -1      7236    3    0    1
 -2        12       415       907      2685
 -1      7237    3    0    1
 -2      1914        12      2247      2685
 -1      7238    3    0    1
 -2       471      1542      2258      2685
 -1      7239    3    0    1
 -2      2174       471      2258      2685
 -1      7240    3    0    1
 -2      2153      2294      2456      2685
 -1      7241    3    0    1
 -2       415      2153      2456      2685
 -1      7242    3    0    1
 -2      2294       907      2456      2685
 -1      7243    3    0    1
 -2       415      1914      2153      2685
 -1      7244    3    0    1
 -2       415        12      1914      2685
 -1      7245    3    0    1
 -2       907       415      2456      2685
 -1      7246    3    0    1
 -2      1544      1612      2109      2687
 -1      7247    3    0    1
 -2      1612      1544      1768      2687
 -1      7248    3    0    1
 -2      2015      1874      2370      2687
 -1      7249    3    0    1
 -2      1612      1874      2015      2687
 -1      7250    3    0    1
 -2      1612      2015      2637      2687
 -1      7251    3    0    1
 -2      2647      2324      2332      2688
 -1      7252    3    0    1
 -2      2324      2647      2332       272
 -1      7253    3    0    1
 -2      2332      2424      2647      2688
 -1      7254    3    0    1
 -2      1935       383      2278      2688
 -1      7255    3    0    1
 -2      1935      2278      2424      2688
 -1      7256    3    0    1
 -2      2424      2278      2647      2688
 -1      7257    3    0    1
 -2      2278       383      2647      2688
 -1      7258    3    0    1
 -2      1070       248      2309      2689
 -1      7259    3    0    1
 -2       917      2724      2862       495
 -1      7260    3    0    1
 -2      1569      2150      2194      2698
 -1      7261    3    0    1
 -2       495       917      2700      2862
 -1      7262    3    0    1
 -2        37       430      2566      2706
 -1      7263    3    0    1
 -2        23      1175      2570      2826
 -1      7264    3    0    1
 -2      2506      2485      2507      2749
 -1      7265    3    0    1
 -2      1019      2317      2485      2749
 -1      7266    3    0    1
 -2       430        37       909      2706
 -1      7267    3    0    1
 -2       909      2039      2603      2706
 -1      7268    3    0    1
 -2       679      2243      2323      2691
 -1      7269    3    0    1
 -2      1267       679      1759      2691
 -1      7270    3    0    1
 -2      1267      1759      2315      2691
 -1      7271    3    0    1
 -2      1759       679      2323      2691
 -1      7272    3    0    1
 -2      2210      1139      2796      2858
 -1      7273    3    0    1
 -2       440      1151       442      2858
 -1      7274    3    0    1
 -2      1084       268       797      1083
 -1      7275    3    0    1
 -2       543      1985       943       544
 -1      7276    3    0    1
 -2      1985       543       943      2692
 -1      7277    3    0    1
 -2      2308      1755      2476      2694
 -1      7278    3    0    1
 -2      1755      2308      2465      2694
 -1      7279    3    0    1
 -2      2006      2008      2311      2694
 -1      7280    3    0    1
 -2      2119      2006      2311      2694
 -1      7281    3    0    1
 -2      2006      2119      2357      2694
 -1      7282    3    0    1
 -2      2357      2119      2465      2694
 -1      7283    3    0    1
 -2      2308      2357      2465      2694
 -1      7284    3    0    1
 -2      2006      2357      2476      2694
 -1      7285    3    0    1
 -2      2357      2308      2476      2694
 -1      7286    3    0    1
 -2      2268      1666      2585      2695
 -1      7287    3    0    1
 -2      2177      2561      2634      2797
 -1      7288    3    0    1
 -2      1573      2465      2601      2696
 -1      7289    3    0    1
 -2      2210      1573      2601      2696
 -1      7290    3    0    1
 -2      2309       435      2659      2697
 -1      7291    3    0    1
 -2       376       252      2047      2697
 -1      7292    3    0    1
 -2      2134      1131      2543      2817
 -1      7293    3    0    1
 -2       248       252      1065      2697
 -1      7294    3    0    1
 -2      1177      2039      2724      2862
 -1      7295    3    0    1
 -2      2115      1569      2194      2698
 -1      7296    3    0    1
 -2      1793      2492      2540      2699
 -1      7297    3    0    1
 -2       423      2051      2327      2842
 -1      7298    3    0    1
 -2      2051       423      2275      2842
 -1      7299    3    0    1
 -2      2559      2229      2789      2820
 -1      7300    3    0    1
 -2      2035      1971      2401      2780
 -1      7301    3    0    1
 -2      2486      2765      2789      2820
 -1      7302    3    0    1
 -2      2235      2035      2401      2780
 -1      7303    3    0    1
 -2       908      2044      2552      2700
 -1      7304    3    0    1
 -2        35      1839      2044      2700
 -1      7305    3    0    1
 -2      2634      2134      2645      2817
 -1      7306    3    0    1
 -2       688      2506      2507      2749
 -1      7307    3    0    1
 -2      1301       754      2533      2792
 -1      7308    3    0    1
 -2       427       323      1343      2726
 -1      7309    3    0    1
 -2       930       918      2293      2725
 -1      7310    3    0    1
 -2      2622      1118      2869      2876
 -1      7311    3    0    1
 -2       688      1019      2506      2749
 -1      7312    3    0    1
 -2      2683      2623      2727      2824
 -1      7313    3    0    1
 -2      1301      2533      2704      2792
 -1      7314    3    0    1
 -2       908       917      2044      2700
 -1      7315    3    0    1
 -2       917        35      2044      2700
 -1      7316    3    0    1
 -2      2510      2011      2673      2703
 -1      7317    3    0    1
 -2      1876      2500      2673      2703
 -1      7318    3    0    1
 -2      1065      1301      2533      2704
 -1      7319    3    0    1
 -2      2047       376      2697      2704
 -1      7320    3    0    1
 -2       230       376      2047      2704
 -1      7321    3    0    1
 -2      1136      2621      2117      1138
 -1      7322    3    0    1
 -2       428      2463      2625      2793
 -1      7323    3    0    1
 -2      2311      2117      2463      2793
 -1      7324    3    0    1
 -2       252      1065      2697      2704
 -1      7325    3    0    1
 -2       376       252      2697      2704
 -1      7326    3    0    1
 -2       376       230      1301      2704
 -1      7327    3    0    1
 -2      1065       376      1301      2704
 -1      7328    3    0    1
 -2       252       376      1065      2704
 -1      7329    3    0    1
 -2       406        46       926      2705
 -1      7330    3    0    1
 -2       926       928      1907      2705
 -1      7331    3    0    1
 -2      1907       928      2604      2705
 -1      7332    3    0    1
 -2       926        46       928      2705
 -1      7333    3    0    1
 -2       928        46      2604      2705
 -1      7334    3    0    1
 -2       405       406       926      2705
 -1      7335    3    0    1
 -2       909        37      1177      2706
 -1      7336    3    0    1
 -2      1439      1453      3134      1482
 -1      7337    3    0    1
 -2       401       324      1350      2707
 -1      7338    3    0    1
 -2      2540      1793      2699      2805
 -1      7339    3    0    1
 -2       363      1449      1456      1462
 -1      7340    3    0    1
 -2      1941      1858      2230      2722
 -1      7341    3    0    1
 -2        67        68      2776      2885
 -1      7342    3    0    1
 -2       822      1092      2362      2709
 -1      7343    3    0    1
 -2      2046       333      2439      2790
 -1      7344    3    0    1
 -2      2290       807      2513      2710
 -1      7345    3    0    1
 -2       807      1083      2513      2710
 -1      7346    3    0    1
 -2      1083       807      1084      2710
 -1      7347    3    0    1
 -2      1974      1084       268       263
 -1      7348    3    0    1
 -2      2710       268      1084      1083
 -1      7349    3    0    1
 -2      1084      1974       268      2710
 -1      7350    3    0    1
 -2      1083       268      1974      2710
 -1      7351    3    0    1
 -2      2325      1560      2738      2741
 -1      7352    3    0    1
 -2      1722      2325      2738      2741
 -1      7353    3    0    1
 -2      2325      1722      2648      2741
 -1      7354    3    0    1
 -2      1560      2325      2648      2741
 -1      7355    3    0    1
 -2      1210       559      1830      2712
 -1      7356    3    0    1
 -2      1047      1056      2176      2713
 -1      7357    3    0    1
 -2       212       359      1056      2713
 -1      7358    3    0    1
 -2      1047       212      1056      2713
 -1      7359    3    0    1
 -2      2425       216      2730      2815
 -1      7360    3    0    1
 -2      1046      2274      2487      2815
 -1      7361    3    0    1
 -2      1447      1422      1463      3116
 -1      7362    3    0    1
 -2      2406      1016      2956      3092
 -1      7363    3    0    1
 -2      1743      1094      1888      2716
 -1      7364    3    0    1
 -2       459      1160      2273      2716
 -1      7365    3    0    1
 -2       157      1001      1256      2868
 -1      7366    3    0    1
 -2      1462       642      3014      3048
 -1      7367    3    0    1
 -2      2631      2911      2946      2962
 -1      7368    3    0    1
 -2      1094       826      1888      2716
 -1      7369    3    0    1
 -2       349      2379      2810      2893
 -1      7370    3    0    1
 -2       459      1094      1160      2716
 -1      7371    3    0    1
 -2       459       826      1094      2716
 -1      7372    3    0    1
 -2      2313       658      2684      2718
 -1      7373    3    0    1
 -2       332       160      2186      2868
 -1      7374    3    0    1
 -2       658      1002      1266      2718
 -1      7375    3    0    1
 -2       675       658      1266      2718
 -1      7376    3    0    1
 -2       655      1001      2492      2720
 -1      7377    3    0    1
 -2       655       654      1001      2720
 -1      7378    3    0    1
 -2      2635      1530      2837      2869
 -1      7379    3    0    1
 -2       795       788       787      2978
 -1      7380    3    0    1
 -2      2194      2150      2474      2861
 -1      7381    3    0    1
 -2      1632      2194      2474      2861
 -1      7382    3    0    1
 -2      2150      2194      2698      2861
 -1      7383    3    0    1
 -2      1059      2047      2451      2723
 -1      7384    3    0    1
 -2      1059      2451      2679      2723
 -1      7385    3    0    1
 -2       228       230      1059      2723
 -1      7386    3    0    1
 -2      1056      1059      2679      2723
 -1      7387    3    0    1
 -2       228      1056      2679      2723
 -1      7388    3    0    1
 -2      1056       228      1059      2723
 -1      7389    3    0    1
 -2      2521      2421      2539      2826
 -1      7390    3    0    1
 -2      2421      2521      2570      2826
 -1      7391    3    0    1
 -2      2061      1737      2626      2846
 -1      7392    3    0    1
 -2      1528      1737      2061      2846
 -1      7393    3    0    1
 -2      1177       919       496      2724
 -1      7394    3    0    1
 -2       711       688      2507      2749
 -1      7395    3    0    1
 -2       495       496       918      2724
 -1      7396    3    0    1
 -2       411        23      2786      2863
 -1      7397    3    0    1
 -2      1177       496       495      2724
 -1      7398    3    0    1
 -2      1919      1771      2595      2864
 -1      7399    3    0    1
 -2       917       495       918      2724
 -1      7400    3    0    1
 -2      2711      1288      2740      2864
 -1      7401    3    0    1
 -2      2521        23      2570      2826
 -1      7402    3    0    1
 -2       424      1919      2595      2864
 -1      7403    3    0    1
 -2      2317      1033      2485      2749
 -1      7404    3    0    1
 -2       838      1344      2678      2726
 -1      7405    3    0    1
 -2       837      1344       838      2726
 -1      7406    3    0    1
 -2       323      2302      2678      2726
 -1      7407    3    0    1
 -2      1596      2362      2683      2727
 -1      7408    3    0    1
 -2      2362      1092      2683      2727
 -1      7409    3    0    1
 -2       930      2293      2497      2894
 -1      7410    3    0    1
 -2       930      2497      2816      2894
 -1      7411    3    0    1
 -2      2690        36      2725      2894
 -1      7412    3    0    1
 -2      2389      1699      2551      2872
 -1      7413    3    0    1
 -2      1699      2299      2551      2872
 -1      7414    3    0    1
 -2      2299      1580      2551      2872
 -1      7415    3    0    1
 -2      2293        36      2806      2894
 -1      7416    3    0    1
 -2      2644      1079      2887      2895
 -1      7417    3    0    1
 -2       930      2497      2537      2816
 -1      7418    3    0    1
 -2       406      2537      2705      2816
 -1      7419    3    0    1
 -2      1080       798      2229      2895
 -1      7420    3    0    1
 -2      1131      2134      2634      2817
 -1      7421    3    0    1
 -2       752      2285      2446      2731
 -1      7422    3    0    1
 -2      1185      2288      2602      2732
 -1      7423    3    0    1
 -2       490      2602      2615      2732
 -1      7424    3    0    1
 -2       916       490      2615      2732
 -1      7425    3    0    1
 -2       651       658      1002      2995
 -1      7426    3    0    1
 -2      1417      3113      1488      1489
 -1      7427    3    0    1
 -2      2602      1185       490       508
 -1      7428    3    0    1
 -2       490       916      1185      2732
 -1      7429    3    0    1
 -2      1185      2602       490      2732
 -1      7430    3    0    1
 -2      1014       343      2477      2733
 -1      7431    3    0    1
 -2       342      1014      1267      2733
 -1      7432    3    0    1
 -2       343       342      1535      2733
 -1      7433    3    0    1
 -2       342       343      1014      2733
 -1      7434    3    0    1
 -2       342      1267      2315      2733
 -1      7435    3    0    1
 -2      2008      2006      2311      2734
 -1      7436    3    0    1
 -2      2466      2008      2524      2734
 -1      7437    3    0    1
 -2      1527      2466      2524      2734
 -1      7438    3    0    1
 -2      1527      2008      2311      2734
 -1      7439    3    0    1
 -2      2008      1527      2524      2734
 -1      7440    3    0    1
 -2       679      1015      2243      2735
 -1      7441    3    0    1
 -2      1015       679      2062      2735
 -1      7442    3    0    1
 -2      2062       679      2243      2735
 -1      7443    3    0    1
 -2         9      2235      2383      2780
 -1      7444    3    0    1
 -2       918      2293      2724      2900
 -1      7445    3    0    1
 -2      1679      1774      2414      2736
 -1      7446    3    0    1
 -2      1774      1679      2405      2736
 -1      7447    3    0    1
 -2       952        89      2608      2840
 -1      7448    3    0    1
 -2      2405      2077      2414      2736
 -1      7449    3    0    1
 -2      1774      2405      2414      2736
 -1      7450    3    0    1
 -2      1349      1346      1774      2737
 -1      7451    3    0    1
 -2       313       407      1346      2737
 -1      7452    3    0    1
 -2       313      1349      2414      2737
 -1      7453    3    0    1
 -2       313      1346      1349      2737
 -1      7454    3    0    1
 -2      1349      1774      2414      2737
 -1      7455    3    0    1
 -2      2771      2756      2795      2893
 -1      7456    3    0    1
 -2      1773       952      2712      2840
 -1      7457    3    0    1
 -2      2028      2408      2471      2742
 -1      7458    3    0    1
 -2        89        80      2413      2840
 -1      7459    3    0    1
 -2      2021       952      2608      2840
 -1      7460    3    0    1
 -2        80      1773      2413      2840
 -1      7461    3    0    1
 -2      2024       976      2238      2742
 -1      7462    3    0    1
 -2      1961      2024      2238      2742
 -1      7463    3    0    1
 -2       784      2324      2831      2896
 -1      7464    3    0    1
 -2      2583       784      2831      2896
 -1      7465    3    0    1
 -2      1560      1574      2738      2741
 -1      7466    3    0    1
 -2      1574       261      2303      2741
 -1      7467    3    0    1
 -2      2303       261      2738      2741
 -1      7468    3    0    1
 -2      1574      2303      2738      2741
 -1      7469    3    0    1
 -2      2024      1961      2042      2742
 -1      7470    3    0    1
 -2       976      2024      2471      2742
 -1      7471    3    0    1
 -2      2024      1563      2471      2742
 -1      7472    3    0    1
 -2      1859      1596      2427      2789
 -1      7473    3    0    1
 -2       582      1855      2664      2743
 -1      7474    3    0    1
 -2       583       582      2664      2743
 -1      7475    3    0    1
 -2       582       583      1223      2743
 -1      7476    3    0    1
 -2       962      2379      2607      2743
 -1      7477    3    0    1
 -2       962      1223      2379      2743
 -1      7478    3    0    1
 -2       962       582      1223      2743
 -1      7479    3    0    1
 -2       582       962      2607      2743
 -1      7480    3    0    1
 -2      1855       582      2607      2743
 -1      7481    3    0    1
 -2      1699      2389      2635      2873
 -1      7482    3    0    1
 -2      1782      1636      1805      2745
 -1      7483    3    0    1
 -2      1573      1782      1805      2745
 -1      7484    3    0    1
 -2      2264      2526      2629      2746
 -1      7485    3    0    1
 -2      2264      1664      2526      2746
 -1      7486    3    0    1
 -2      1664      1771      2526      2746
 -1      7487    3    0    1
 -2      1771      1664      2410      2746
 -1      7488    3    0    1
 -2      2071      1771      2410      2746
 -1      7489    3    0    1
 -2      2071      1053      2416      2746
 -1      7490    3    0    1
 -2      2071      2007      2526      2746
 -1      7491    3    0    1
 -2      1771      2071      2526      2746
 -1      7492    3    0    1
 -2      2007      2071      2416      2746
 -1      7493    3    0    1
 -2      2326       759      2520      2747
 -1      7494    3    0    1
 -2        15      1159      1162      2808
 -1      7495    3    0    1
 -2       225       223      1058      2747
 -1      7496    3    0    1
 -2       389        15      2060      2808
 -1      7497    3    0    1
 -2      2293       918      2724      2748
 -1      7498    3    0    1
 -2        36        27       918      2748
 -1      7499    3    0    1
 -2        36       918      2293      2748
 -1      7500    3    0    1
 -2       917        33      2700      2748
 -1      7501    3    0    1
 -2        27        33       917      2748
 -1      7502    3    0    1
 -2        27       917       918      2748
 -1      7503    3    0    1
 -2       918       917      2724      2748
 -1      7504    3    0    1
 -2      2724       917      2862      2748
 -1      7505    3    0    1
 -2       411      1600      2231      2863
 -1      7506    3    0    1
 -2      2431      1092      2709      2824
 -1      7507    3    0    1
 -2      1092      2683      2727      2824
 -1      7508    3    0    1
 -2      1540      2148      2636      2753
 -1      7509    3    0    1
 -2      1540      2377      2419      2753
 -1      7510    3    0    1
 -2      1807      1540      2419      2753
 -1      7511    3    0    1
 -2      1894      1540      2636      2753
 -1      7512    3    0    1
 -2      2037       487      2819      2850
 -1      7513    3    0    1
 -2      2377      1842      2419      2753
 -1      7514    3    0    1
 -2      1842      1807      2419      2753
 -1      7515    3    0    1
 -2      1540      2087      2377      2753
 -1      7516    3    0    1
 -2       795       802      1787      2828
 -1      7517    3    0    1
 -2       778       795      1787      2828
 -1      7518    3    0    1
 -2       426      1042      1287      2879
 -1      7519    3    0    1
 -2      2274      1046      2578      2754
 -1      7520    3    0    1
 -2       426      1046      2274      2754
 -1      7521    3    0    1
 -2       426       345      1046      2754
 -1      7522    3    0    1
 -2      1045       736      1046      2754
 -1      7523    3    0    1
 -2      1046       736      2578      2754
 -1      7524    3    0    1
 -2       736      2291      2578      2754
 -1      7525    3    0    1
 -2       736       735      2291      2754
 -1      7526    3    0    1
 -2      1045       735       736      2754
 -1      7527    3    0    1
 -2      2267      1666      2690      2854
 -1      7528    3    0    1
 -2      2705       405      2816      2854
 -1      7529    3    0    1
 -2      2821      2705       405       926
 -1      7530    3    0    1
 -2       799      1321      2559      2789
 -1      7531    3    0    1
 -2        37      2039      2706      2855
 -1      7532    3    0    1
 -2      2705      2821       405      2854
 -1      7533    3    0    1
 -2      2035      2235      2401      2772
 -1      7534    3    0    1
 -2       679      2243      2691      2838
 -1      7535    3    0    1
 -2      2216      1614      2235      2772
 -1      7536    3    0    1
 -2      1944      1941      2563      2758
 -1      7537    3    0    1
 -2      1944      2563      2631      2758
 -1      7538    3    0    1
 -2      1541      2096      2115      2797
 -1      7539    3    0    1
 -2      1301       747       754      2792
 -1      7540    3    0    1
 -2       754       747      1055      2792
 -1      7541    3    0    1
 -2      2285      2275      2446      2760
 -1      7542    3    0    1
 -2      2275      2285      2388      2760
 -1      7543    3    0    1
 -2      2388      2285      2661      2760
 -1      7544    3    0    1
 -2      1298      1836      2651      2792
 -1      7545    3    0    1
 -2      2533       754      2651      2792
 -1      7546    3    0    1
 -2      1717      2731      2750      2760
 -1      7547    3    0    1
 -2      2285      1717      2661      2760
 -1      7548    3    0    1
 -2       369      1287      1706      2763
 -1      7549    3    0    1
 -2       999      1258      2766      2880
 -1      7550    3    0    1
 -2       651       999      2496      2880
 -1      7551    3    0    1
 -2       999       651      2313      2880
 -1      7552    3    0    1
 -2      1258      2313      2766      2880
 -1      7553    3    0    1
 -2       369       345      1287      2763
 -1      7554    3    0    1
 -2      1753      2225      2292      2764
 -1      7555    3    0    1
 -2       795      1320      2049      2828
 -1      7556    3    0    1
 -2       366      1258      2531      2766
 -1      7557    3    0    1
 -2      1006       366      2744      2881
 -1      7558    3    0    1
 -2      2562      1006      2744      2881
 -1      7559    3    0    1
 -2       366       158      2766      2881
 -1      7560    3    0    1
 -2       156       158      1583      2766
 -1      7561    3    0    1
 -2       158       156      1258      2766
 -1      7562    3    0    1
 -2       246      1833      2195      2882
 -1      7563    3    0    1
 -2      2666      2195      2774      2882
 -1      7564    3    0    1
 -2      2195      2059      2774      2882
 -1      7565    3    0    1
 -2      2531       366      2766      2881
 -1      7566    3    0    1
 -2       156       999      1258      2766
 -1      7567    3    0    1
 -2       366       158      1258      2766
 -1      7568    3    0    1
 -2      2373      2289      2722      2769
 -1      7569    3    0    1
 -2      1417      1185      1418      3074
 -1      7570    3    0    1
 -2      2920      2915      3107      3119
 -1      7571    3    0    1
 -2      2289      2671      2722      2769
 -1      7572    3    0    1
 -2      2929      2068      2955      3139
 -1      7573    3    0    1
 -2       365      1996      2744      2770
 -1      7574    3    0    1
 -2      1996       365      2744      1017
 -1      7575    3    0    1
 -2       783       784      2067      2831
 -1      7576    3    0    1
 -2      2531       365      2744      2770
 -1      7577    3    0    1
 -2       490      1176      2615      2897
 -1      7578    3    0    1
 -2       783      2067      2309      2831
 -1      7579    3    0    1
 -2      1013       367      2779      2884
 -1      7580    3    0    1
 -2      1998      1614      2611      2772
 -1      7581    3    0    1
 -2      1614      1998      2235      2772
 -1      7582    3    0    1
 -2      2235      1998      2611      2772
 -1      7583    3    0    1
 -2      2216         9      2640      2772
 -1      7584    3    0    1
 -2      1614      2216      2640      2772
 -1      7585    3    0    1
 -2      2102      2089      2149      2773
 -1      7586    3    0    1
 -2      2102      1645      2378      2773
 -1      7587    3    0    1
 -2      2378      1645      2610      2773
 -1      7588    3    0    1
 -2      2089      2102      2378      2773
 -1      7589    3    0    1
 -2      1826      1592      2089      2773
 -1      7590    3    0    1
 -2      2089      2378      2610      2773
 -1      7591    3    0    1
 -2      1826      2089      2610      2773
 -1      7592    3    0    1
 -2      2059      1782      2195      2774
 -1      7593    3    0    1
 -2      1020       688      1996      2883
 -1      7594    3    0    1
 -2      1595      2388      2666      2774
 -1      7595    3    0    1
 -2      1595      1629      2388      2774
 -1      7596    3    0    1
 -2      1629      1595      1782      2774
 -1      7597    3    0    1
 -2      2506       688      2507      2883
 -1      7598    3    0    1
 -2      1032      2434      2507      2883
 -1      7599    3    0    1
 -2      2195      1782      2666      2774
 -1      7600    3    0    1
 -2      1782      1595      2666      2774
 -1      7601    3    0    1
 -2      1124       307      2393      2775
 -1      7602    3    0    1
 -2      1122       307      1124      2775
 -1      7603    3    0    1
 -2       868      1124      2393      2775
 -1      7604    3    0    1
 -2       867      1124       868      2775
 -1      7605    3    0    1
 -2       307      1738      2393      2775
 -1      7606    3    0    1
 -2       954        84      1745      2776
 -1      7607    3    0    1
 -2        67        84       954      2776
 -1      7608    3    0    1
 -2       943        67       954      2776
 -1      7609    3    0    1
 -2      2263      1720      2407      2777
 -1      7610    3    0    1
 -2      2350       340      2606      2782
 -1      7611    3    0    1
 -2      1019      2485      2506      2749
 -1      7612    3    0    1
 -2      1526      1720      2263      2777
 -1      7613    3    0    1
 -2       106       373      2227      2778
 -1      7614    3    0    1
 -2      2227       373      2464      2778
 -1      7615    3    0    1
 -2       965      1751      2464      2778
 -1      7616    3    0    1
 -2       106       965      2464      2778
 -1      7617    3    0    1
 -2       965       106      1751      2778
 -1      7618    3    0    1
 -2      1224      2472      2504      2778
 -1      7619    3    0    1
 -2      1224       961      2472      2778
 -1      7620    3    0    1
 -2       357       961      1224      2778
 -1      7621    3    0    1
 -2       357      1224      2504      2778
 -1      7622    3    0    1
 -2       173       175      1015      2779
 -1      7623    3    0    1
 -2      1015       175      2735      2779
 -1      7624    3    0    1
 -2      1013       173      1015      2779
 -1      7625    3    0    1
 -2      1013      1015      2735      2779
 -1      7626    3    0    1
 -2      1825      1641      1873      2802
 -1      7627    3    0    1
 -2      2481      2202      2762      2802
 -1      7628    3    0    1
 -2       367       173      1013      2779
 -1      7629    3    0    1
 -2         9      2035      2772      2780
 -1      7630    3    0    1
 -2      2249      1527      2734      2781
 -1      7631    3    0    1
 -2      1625      2219      2407      2781
 -1      7632    3    0    1
 -2      1720      1625      2407      2781
 -1      7633    3    0    1
 -2      1720      1527      2124      2781
 -1      7634    3    0    1
 -2      1625      1720      2124      2781
 -1      7635    3    0    1
 -2      2317      1726      2606      2782
 -1      7636    3    0    1
 -2      1726      2317      2485      2782
 -1      7637    3    0    1
 -2       291      2075      2348      2783
 -1      7638    3    0    1
 -2      1096       291      2348      2783
 -1      7639    3    0    1
 -2       291      1096      2075      2783
 -1      7640    3    0    1
 -2      2294      2075      2456      2783
 -1      7641    3    0    1
 -2      1096      2294      2456      2783
 -1      7642    3    0    1
 -2      2075      1096      2456      2783
 -1      7643    3    0    1
 -2       955       956      1972      2784
 -1      7644    3    0    1
 -2       567       955      1972      2784
 -1      7645    3    0    1
 -2       955       567       956      2784
 -1      7646    3    0    1
 -2       567       957       568      2784
 -1      7647    3    0    1
 -2       957      1745      2605      2784
 -1      7648    3    0    1
 -2       957       567       954      2784
 -1      7649    3    0    1
 -2       954       567      1972      2784
 -1      7650    3    0    1
 -2       957       954      1745      2784
 -1      7651    3    0    1
 -2       954      1972      2399      2784
 -1      7652    3    0    1
 -2      1745       954      2399      2784
 -1      7653    3    0    1
 -2      2225      1628      2764      2827
 -1      7654    3    0    1
 -2      2312      1628      2576      2827
 -1      7655    3    0    1
 -2       216       426      2274      2879
 -1      7656    3    0    1
 -2      1526      2777      2851      2865
 -1      7657    3    0    1
 -2      1835      2595      2740      2864
 -1      7658    3    0    1
 -2        23      1613      1795      2786
 -1      7659    3    0    1
 -2      1613        23      2539      2786
 -1      7660    3    0    1
 -2       411        23      1795      2786
 -1      7661    3    0    1
 -2      1018       687      1019      2787
 -1      7662    3    0    1
 -2       175      1019      2350      2787
 -1      7663    3    0    1
 -2       175      1018      1019      2787
 -1      7664    3    0    1
 -2       688      1996      2506      2787
 -1      7665    3    0    1
 -2       688       687      1996      2787
 -1      7666    3    0    1
 -2       687       688      1019      2787
 -1      7667    3    0    1
 -2      1019       688      2506      2787
 -1      7668    3    0    1
 -2      2771      1530      2837      2873
 -1      7669    3    0    1
 -2      2686      2452      2821      2854
 -1      7670    3    0    1
 -2      2353      2202      2481      2889
 -1      7671    3    0    1
 -2      2228      2046      2306      2889
 -1      7672    3    0    1
 -2      2229       799      2644      2895
 -1      7673    3    0    1
 -2      2452      2554      2686      2821
 -1      7674    3    0    1
 -2      2427      2559      2728      2789
 -1      7675    3    0    1
 -2      2686       926      2705      2821
 -1      7676    3    0    1
 -2      2522      2361      2544      2813
 -1      7677    3    0    1
 -2      1066       774      2750      2791
 -1      7678    3    0    1
 -2      1864      1706      1922      2813
 -1      7679    3    0    1
 -2       754      1055      2651      2792
 -1      7680    3    0    1
 -2      1052      2222      2597      2792
 -1      7681    3    0    1
 -2       747      1052      2597      2792
 -1      7682    3    0    1
 -2      1052      1301      2222      2792
 -1      7683    3    0    1
 -2      2222      1301      2704      2792
 -1      7684    3    0    1
 -2      1055      1298      2651      2792
 -1      7685    3    0    1
 -2      1055       747      1298      2792
 -1      7686    3    0    1
 -2      2249      2117      2734      2793
 -1      7687    3    0    1
 -2      2117      2469      1136      2793
 -1      7688    3    0    1
 -2       339      2329      2548      2794
 -1      7689    3    0    1
 -2      1928      2045      2146      2794
 -1      7690    3    0    1
 -2      1928      2146      2329      2794
 -1      7691    3    0    1
 -2      1530      1649      2771      2795
 -1      7692    3    0    1
 -2      1649       101      2771      2795
 -1      7693    3    0    1
 -2      1210      2259      2712      2859
 -1      7694    3    0    1
 -2      1830      1210      2712      2859
 -1      7695    3    0    1
 -2      1830      1826      1964      2859
 -1      7696    3    0    1
 -2      1210      1830      1964      2859
 -1      7697    3    0    1
 -2      1964      1826      2065      2859
 -1      7698    3    0    1
 -2       562       961      1211      2798
 -1      7699    3    0    1
 -2      2634      2561      2645      2799
 -1      7700    3    0    1
 -2      1619      2126      2542      2799
 -1      7701    3    0    1
 -2      1541      2561      2634      2799
 -1      7702    3    0    1
 -2      2561      1541      2565      2799
 -1      7703    3    0    1
 -2      2009      2542      2645      2799
 -1      7704    3    0    1
 -2      2561      2009      2645      2799
 -1      7705    3    0    1
 -2      2542      2126      2645      2799
 -1      7706    3    0    1
 -2      1108      1110      2307      2800
 -1      7707    3    0    1
 -2      1371      1112      2155      2800
 -1      7708    3    0    1
 -2      1110       302       305      2800
 -1      7709    3    0    1
 -2       302      1371       305      2800
 -1      7710    3    0    1
 -2       302      1110      1108      2800
 -1      7711    3    0    1
 -2      1108      2307      2475      2800
 -1      7712    3    0    1
 -2       302      1108      2475      2800
 -1      7713    3    0    1
 -2      2155       302      2475      2800
 -1      7714    3    0    1
 -2      1371       302      1112      2800
 -1      7715    3    0    1
 -2      1112       302      2155      2800
 -1      7716    3    0    1
 -2      1043      1298      1836      2891
 -1      7717    3    0    1
 -2      1437      2912      2973      3101
 -1      7718    3    0    1
 -2      2871      2904      2940      2942
 -1      7719    3    0    1
 -2        68      1821      2776      2885
 -1      7720    3    0    1
 -2      2801      1862      2803      2890
 -1      7721    3    0    1
 -2      2353      2477      2801      2803
 -1      7722    3    0    1
 -2      1013      2779      2801      2890
 -1      7723    3    0    1
 -2       117       356      3149      3150
 -1      7724    3    0    1
 -2      3121      1444      1473      3127
 -1      7725    3    0    1
 -2      2201      1438      2973      3101
 -1      7726    3    0    1
 -2      2928      2921      3086      3102
 -1      7727    3    0    1
 -2        36        27      2748      2806
 -1      7728    3    0    1
 -2      1526      1919      2663      2851
 -1      7729    3    0    1
 -2      1160       906      2273      2866
 -1      7730    3    0    1
 -2       250      1071      2516      2875
 -1      7731    3    0    1
 -2       250      2592      2750      2875
 -1      7732    3    0    1
 -2      1984      1665      2328      2851
 -1      7733    3    0    1
 -2        27        36       915      2806
 -1      7734    3    0    1
 -2      2252      1058      2326      2807
 -1      7735    3    0    1
 -2      2326      1058      2747      2807
 -1      7736    3    0    1
 -2      2258       431      2566      2808
 -1      7737    3    0    1
 -2      1162      1159      2614      2808
 -1      7738    3    0    1
 -2      2566      1162      2614      2808
 -1      7739    3    0    1
 -2       431      1162      2566      2808
 -1      7740    3    0    1
 -2       431        15      1162      2808
 -1      7741    3    0    1
 -2        15       389      1159      2808
 -1      7742    3    0    1
 -2       583      2743      2755      2810
 -1      7743    3    0    1
 -2      1943      1945      2871      2904
 -1      7744    3    0    1
 -2       583      1223      2743      2810
 -1      7745    3    0    1
 -2       268       272      1083      2811
 -1      7746    3    0    1
 -2       268      1083      2513      2811
 -1      7747    3    0    1
 -2       699      1031      1275      3004
 -1      7748    3    0    1
 -2       906      1429      1433      3063
 -1      7749    3    0    1
 -2      2729      2871      2904      2940
 -1      7750    3    0    1
 -2      1083      2324      2513      2811
 -1      7751    3    0    1
 -2      2324      1083      2332      2811
 -1      7752    3    0    1
 -2      2661      2388      2760      2812
 -1      7753    3    0    1
 -2      1717      2661      2760      2812
 -1      7754    3    0    1
 -2      1717      2760      2791      2812
 -1      7755    3    0    1
 -2      2750      1717      2791      2812
 -1      7756    3    0    1
 -2       774      2750      2791      2812
 -1      7757    3    0    1
 -2      2380      2509      2791      2812
 -1      7758    3    0    1
 -2      2388      2380      2791      2812
 -1      7759    3    0    1
 -2      2760      2388      2791      2812
 -1      7760    3    0    1
 -2      2173      1933      2522      2813
 -1      7761    3    0    1
 -2      1864      2173      2522      2813
 -1      7762    3    0    1
 -2      1864      1922      2366      2813
 -1      7763    3    0    1
 -2      2466      2524      2714      2814
 -1      7764    3    0    1
 -2      2466      1720      2524      2814
 -1      7765    3    0    1
 -2      1222       963      2664      2852
 -1      7766    3    0    1
 -2      1720      2466      2777      2814
 -1      7767    3    0    1
 -2      1526      1720      2777      2814
 -1      7768    3    0    1
 -2      2466      2714      2777      2814
 -1      7769    3    0    1
 -2      2527      2425      2730      2815
 -1      7770    3    0    1
 -2      1046      2487      2657      2815
 -1      7771    3    0    1
 -2      1057      2487      2747      2815
 -1      7772    3    0    1
 -2       425      1057      2747      2815
 -1      7773    3    0    1
 -2      1576       425      2747      2815
 -1      7774    3    0    1
 -2       425      1576      2527      2815
 -1      7775    3    0    1
 -2      2487      1057      2657      2815
 -1      7776    3    0    1
 -2       216      1046      2730      2815
 -1      7777    3    0    1
 -2      1057       425      2730      2815
 -1      7778    3    0    1
 -2      1046      2657      2730      2815
 -1      7779    3    0    1
 -2      2657      1057      2730      2815
 -1      7780    3    0    1
 -2       875      1131      2634      2817
 -1      7781    3    0    1
 -2       991      1857      2558      2818
 -1      7782    3    0    1
 -2        36       915      2806      2819
 -1      7783    3    0    1
 -2      2267      2690      2715      2819
 -1      7784    3    0    1
 -2      2267        36      2690      2819
 -1      7785    3    0    1
 -2      2756      2771      2872      2893
 -1      7786    3    0    1
 -2       627       623      3036      3066
 -1      7787    3    0    1
 -2      1919      1665      1984      2851
 -1      7788    3    0    1
 -2      2810      2788      2888      2893
 -1      7789    3    0    1
 -2       487       915      2715      2819
 -1      7790    3    0    1
 -2       915        36      2715      2819
 -1      7791    3    0    1
 -2        36      2267      2715      2819
 -1      7792    3    0    1
 -2      2362      1685      2727      2820
 -1      7793    3    0    1
 -2      1906      2486      2820      2765
 -1      7794    3    0    1
 -2      1596      2427      2789      2820
 -1      7795    3    0    1
 -2      1596      2362      2727      2820
 -1      7796    3    0    1
 -2      2427      1596      2727      2820
 -1      7797    3    0    1
 -2      1906      1685      2362      2820
 -1      7798    3    0    1
 -2      2765      1906      2789      2820
 -1      7799    3    0    1
 -2      2362      1596      2789      2820
 -1      7800    3    0    1
 -2      1906      2362      2789      2820
 -1      7801    3    0    1
 -2       510       926      2686      2821
 -1      7802    3    0    1
 -2      2078      2780      2841      2898
 -1      7803    3    0    1
 -2      1173        37      2706      2855
 -1      7804    3    0    1
 -2      1588       391      2593      2822
 -1      7805    3    0    1
 -2      1673      1588      2593      2822
 -1      7806    3    0    1
 -2      1588      1673      1687      2822
 -1      7807    3    0    1
 -2       543       941      1926      2857
 -1      7808    3    0    1
 -2        70       941      2462      2857
 -1      7809    3    0    1
 -2       543      1926      2692      2857
 -1      7810    3    0    1
 -2      1926       941      1986      2857
 -1      7811    3    0    1
 -2      1333      2431      2454      2824
 -1      7812    3    0    1
 -2      2392      1333      2454      2824
 -1      7813    3    0    1
 -2      1092       418      2683      2824
 -1      7814    3    0    1
 -2      1567      1687      2443      2856
 -1      7815    3    0    1
 -2      1567      2381      2822      2856
 -1      7816    3    0    1
 -2      1673      1687      2822      2856
 -1      7817    3    0    1
 -2      2498      2593      2822      2856
 -1      7818    3    0    1
 -2      2682      2498      2822      2856
 -1      7819    3    0    1
 -2       216      2274      2425      2879
 -1      7820    3    0    1
 -2       426       216      2425      2879
 -1      7821    3    0    1
 -2      2754       345      2763      2879
 -1      7822    3    0    1
 -2      1441       381      1448      1479
 -1      7823    3    0    1
 -2      1311      1787      2659      2828
 -1      7824    3    0    1
 -2      2632       778      2659      2828
 -1      7825    3    0    1
 -2       778      1311      2659      2828
 -1      7826    3    0    1
 -2       795       778      1320      2828
 -1      7827    3    0    1
 -2       778      1069      1320      2828
 -1      7828    3    0    1
 -2      2175      1244      2658      2829
 -1      7829    3    0    1
 -2       989       631      2658      2829
 -1      7830    3    0    1
 -2       631       989      2036      2829
 -1      7831    3    0    1
 -2       631      2029      2658      2829
 -1      7832    3    0    1
 -2      2029       631      2036      2829
 -1      7833    3    0    1
 -2       136       142       989      2829
 -1      7834    3    0    1
 -2      1268      1012      2589      2830
 -1      7835    3    0    1
 -2       177      1012      1268      2830
 -1      7836    3    0    1
 -2       365       177      2770      2830
 -1      7837    3    0    1
 -2      2531       365      2770      2830
 -1      7838    3    0    1
 -2       177       365      1012      2830
 -1      7839    3    0    1
 -2      1012       365      2531      2830
 -1      7840    3    0    1
 -2       178       177      1268      2830
 -1      7841    3    0    1
 -2      1072      2324      2339      2831
 -1      7842    3    0    1
 -2      2067      1072      2339      2831
 -1      7843    3    0    1
 -2       514      1853      1939      2832
 -1      7844    3    0    1
 -2       925      1939       514      1187
 -1      7845    3    0    1
 -2      1939       925       514      2832
 -1      7846    3    0    1
 -2       514       508      2602      2832
 -1      7847    3    0    1
 -2       930       519      2497      2900
 -1      7848    3    0    1
 -2       918       930      2293      2900
 -1      7849    3    0    1
 -2      2780      1971      2841      2898
 -1      7850    3    0    1
 -2       514      2832       925       508
 -1      7851    3    0    1
 -2       463      1161      2078      2898
 -1      7852    3    0    1
 -2       496       918      2724      2900
 -1      7853    3    0    1
 -2      1841      1971      2035      2898
 -1      7854    3    0    1
 -2       663       640       994      2833
 -1      7855    3    0    1
 -2      1612      1641      2295      2834
 -1      7856    3    0    1
 -2      1641      1612      2802      2834
 -1      7857    3    0    1
 -2      1771      1664      2740      2864
 -1      7858    3    0    1
 -2      2231      2530      2550      2835
 -1      7859    3    0    1
 -2       914      2231      2550      2835
 -1      7860    3    0    1
 -2       486       914      2530      2835
 -1      7861    3    0    1
 -2      2530       914      2550      2835
 -1      7862    3    0    1
 -2      1045      2624      2754       369
 -1      7863    3    0    1
 -2      2624      1045      2754      2836
 -1      7864    3    0    1
 -2      2338      1045      2624      2836
 -1      7865    3    0    1
 -2      2241      2338      2624      2836
 -1      7866    3    0    1
 -2      1034      2241      2612      2836
 -1      7867    3    0    1
 -2      1045      1034      2612      2836
 -1      7868    3    0    1
 -2      2241      1034      2338      2836
 -1      7869    3    0    1
 -2      1034      1045      2338      2836
 -1      7870    3    0    1
 -2      2756      2771      2795      2837
 -1      7871    3    0    1
 -2      1819      1352      1860      2870
 -1      7872    3    0    1
 -2      1819      1860      2860      2870
 -1      7873    3    0    1
 -2       250      2516      2592      2907
 -1      7874    3    0    1
 -2       250      2592      2875      2907
 -1      7875    3    0    1
 -2      2477      1267      2733      2838
 -1      7876    3    0    1
 -2      1014      1267      2477      2838
 -1      7877    3    0    1
 -2      1267      1014       678      2838
 -1      7878    3    0    1
 -2       678      1014      2477      2838
 -1      7879    3    0    1
 -2      2303       261      2519      2839
 -1      7880    3    0    1
 -2      2738       798      2741      2839
 -1      7881    3    0    1
 -2       261      2738      2741      2839
 -1      7882    3    0    1
 -2       798      1080      2741      2839
 -1      7883    3    0    1
 -2      1080       261      2741      2839
 -1      7884    3    0    1
 -2        80        89       952      2840
 -1      7885    3    0    1
 -2       224      1053      2842      2899
 -1      7886    3    0    1
 -2      2613       224      2842      2899
 -1      7887    3    0    1
 -2      1053      1877      2842      2899
 -1      7888    3    0    1
 -2       224      2071      2714      2410
 -1      7889    3    0    1
 -2       423       224      1300      2842
 -1      7890    3    0    1
 -2       519      2450      2497      2900
 -1      7891    3    0    1
 -2      1300      1877      2275      2842
 -1      7892    3    0    1
 -2       423      1300      2275      2842
 -1      7893    3    0    1
 -2       224      1053      1300      2842
 -1      7894    3    0    1
 -2      1300      1053      1877      2842
 -1      7895    3    0    1
 -2       496      2724      2845      2900
 -1      7896    3    0    1
 -2       979       615      2144      2843
 -1      7897    3    0    1
 -2       124      2144      2345      2843
 -1      7898    3    0    1
 -2       124      2345      2620      2843
 -1      7899    3    0    1
 -2       351      2345      2843      2620
 -1      7900    3    0    1
 -2       351      1578      2580      2843
 -1      7901    3    0    1
 -2      1578      2144      2580      2843
 -1      7902    3    0    1
 -2      2144      1578      2345      2843
 -1      7903    3    0    1
 -2      1119      1602      2387      2844
 -1      7904    3    0    1
 -2       864      2387      2757      2844
 -1      7905    3    0    1
 -2       864      1119      2387      2844
 -1      7906    3    0    1
 -2       863      1119       864      2844
 -1      7907    3    0    1
 -2      1632      2633      2848      2901
 -1      7908    3    0    1
 -2      2115      1541      2797      2901
 -1      7909    3    0    1
 -2      2177      2633      2861      2901
 -1      7910    3    0    1
 -2      2177      1541      2634      2901
 -1      7911    3    0    1
 -2      1528      1560      1574      2846
 -1      7912    3    0    1
 -2      1574      1560      2738      2846
 -1      7913    3    0    1
 -2       916      1416      3072      3075
 -1      7914    3    0    1
 -2      2954      1425      1424      3094
 -1      7915    3    0    1
 -2      1460        78      1486      1509
 -1      7916    3    0    1
 -2      1415      2934      3089      2982
 -1      7917    3    0    1
 -2       409       317      1130      2848
 -1      7918    3    0    1
 -2      2177      1132      2633      2848
 -1      7919    3    0    1
 -2      1132       317      2633      2848
 -1      7920    3    0    1
 -2      1130       317      1132      2848
 -1      7921    3    0    1
 -2      1642      2788      2888      2903
 -1      7922    3    0    1
 -2      1540      1894      2087      2849
 -1      7923    3    0    1
 -2      2755      2098      2853      2903
 -1      7924    3    0    1
 -2       487       486       913      2850
 -1      7925    3    0    1
 -2      2599      1173      2855      2908
 -1      7926    3    0    1
 -2      2750      2592      2760      2875
 -1      7927    3    0    1
 -2       487      2037      2675      2850
 -1      7928    3    0    1
 -2      2596       487      2675      2850
 -1      7929    3    0    1
 -2      1173      2599      2615      2908
 -1      7930    3    0    1
 -2      2403       400      2417      2852
 -1      7931    3    0    1
 -2       348       105      2403      2852
 -1      7932    3    0    1
 -2       105       348       963      2852
 -1      7933    3    0    1
 -2       400       105      1222      2852
 -1      7934    3    0    1
 -2      2046      2202      2353      2889
 -1      7935    3    0    1
 -2      3088      2920      3107      3119
 -1      7936    3    0    1
 -2      1578       963      2664      2853
 -1      7937    3    0    1
 -2      2228      1793      2803      2889
 -1      7938    3    0    1
 -2       351      2345      2620      2853
 -1      7939    3    0    1
 -2       723       717       716      3059
 -1      7940    3    0    1
 -2      2801      2353      2803      2889
 -1      7941    3    0    1
 -2       351       963      1578      2853
 -1      7942    3    0    1
 -2       351      1578      2345      2853
 -1      7943    3    0    1
 -2      1578      2664      2755      2853
 -1      7944    3    0    1
 -2      2345      1578      2755      2853
 -1      7945    3    0    1
 -2        37        29      2039      2855
 -1      7946    3    0    1
 -2      2078      1161      2780      2898
 -1      7947    3    0    1
 -2      2071       224      2714      2899
 -1      7948    3    0    1
 -2      2609      2078      2841      2898
 -1      7949    3    0    1
 -2        29        37      1173      2855
 -1      7950    3    0    1
 -2      1687      1567      2822      2856
 -1      7951    3    0    1
 -2        70      1623      1986      2857
 -1      7952    3    0    1
 -2       941        70      1986      2857
 -1      7953    3    0    1
 -2      1985       543      2692      2857
 -1      7954    3    0    1
 -2       942      1985      2462      2857
 -1      7955    3    0    1
 -2       941       942      2462      2857
 -1      7956    3    0    1
 -2       544       543      1985      2857
 -1      7957    3    0    1
 -2       543       544       941      2857
 -1      7958    3    0    1
 -2       941       544       942      2857
 -1      7959    3    0    1
 -2       942       544      1985      2857
 -1      7960    3    0    1
 -2       440      1406      1139      2858
 -1      7961    3    0    1
 -2       442      1151      2796      2858
 -1      7962    3    0    1
 -2      1406       440       442      2858
 -1      7963    3    0    1
 -2      1406       442      2796      2858
 -1      7964    3    0    1
 -2       398      1210      1964      2859
 -1      7965    3    0    1
 -2      2954      1424      2430      3094
 -1      7966    3    0    1
 -2       841      1351       842      2860
 -1      7967    3    0    1
 -2      2949      3086      1446      2972
 -1      7968    3    0    1
 -2      2289      1943      2638      2871
 -1      7969    3    0    1
 -2      1351       841      1350      2860
 -1      7970    3    0    1
 -2      2194      2115      2698      2861
 -1      7971    3    0    1
 -2      2096      2115      2797      2861
 -1      7972    3    0    1
 -2      2115      2096      2698      2861
 -1      7973    3    0    1
 -2      1632      2115      2194      2861
 -1      7974    3    0    1
 -2      2700       917      2748      2862
 -1      7975    3    0    1
 -2      1795       411      2786      2863
 -1      7976    3    0    1
 -2      1600      1795      2786      2863
 -1      7977    3    0    1
 -2      2596       914      2835      2863
 -1      7978    3    0    1
 -2       914      2231      2835      2863
 -1      7979    3    0    1
 -2       914       411      2231      2863
 -1      7980    3    0    1
 -2        23      1175      2826      2863
 -1      7981    3    0    1
 -2        23       411       914      2863
 -1      7982    3    0    1
 -2      1175      2675      2826      2863
 -1      7983    3    0    1
 -2      1175      2596      2675      2863
 -1      7984    3    0    1
 -2        23       914      1175      2863
 -1      7985    3    0    1
 -2      1175       914      2596      2863
 -1      7986    3    0    1
 -2      2410      2071      2714      2865
 -1      7987    3    0    1
 -2      1771      2071      2410      2865
 -1      7988    3    0    1
 -2      2012      1771      2410      2865
 -1      7989    3    0    1
 -2      2012      2410      2814      2865
 -1      7990    3    0    1
 -2      1526      2012      2814      2865
 -1      7991    3    0    1
 -2       349      2810      2888      2893
 -1      7992    3    0    1
 -2      2670      2201      3087      3131
 -1      7993    3    0    1
 -2       906      1174      1929      2866
 -1      7994    3    0    1
 -2       915      2819      2850      2906
 -1      7995    3    0    1
 -2      3091      2961      1448      2984
 -1      7996    3    0    1
 -2      1433      1468      1469      3126
 -1      7997    3    0    1
 -2      2931      1942      2946      2975
 -1      7998    3    0    1
 -2       157      1256      2720      2868
 -1      7999    3    0    1
 -2      2699      1001      2805      2868
 -1      8000    3    0    1
 -2       332      2699      2805      2868
 -1      8001    3    0    1
 -2       160       332      1001      2868
 -1      8002    3    0    1
 -2      1001       332      2805      2868
 -1      8003    3    0    1
 -2      2596       486      2850      2877
 -1      8004    3    0    1
 -2       913       486      2489      2877
 -1      8005    3    0    1
 -2       401       324      2707      2869
 -1      8006    3    0    1
 -2      2516       250      2875      2907
 -1      8007    3    0    1
 -2      2530       486      2835      2877
 -1      8008    3    0    1
 -2       913      1839      2874      2877
 -1      8009    3    0    1
 -2      2888      2872      2893      2905
 -1      8010    3    0    1
 -2      1580      2299      2321      2905
 -1      8011    3    0    1
 -2      1981      1642      2788      2905
 -1      8012    3    0    1
 -2      2299      1580      2872      2905
 -1      8013    3    0    1
 -2      2321      1981      2517      2905
 -1      8014    3    0    1
 -2      1642      2299      2888      2905
 -1      8015    3    0    1
 -2      1580      2321      2517      2905
 -1      8016    3    0    1
 -2      2788      2888      2893      2905
 -1      8017    3    0    1
 -2      1530      1699      2635      2873
 -1      8018    3    0    1
 -2      1699      1530      2771      2873
 -1      8019    3    0    1
 -2        35      1839      2700      2874
 -1      8020    3    0    1
 -2        33        35      2700      2874
 -1      8021    3    0    1
 -2      2592      2494      2875      2907
 -1      8022    3    0    1
 -2      2494       422      2875      2907
 -1      8023    3    0    1
 -2        35        33       913      2874
 -1      8024    3    0    1
 -2      2494      2731      2760      2875
 -1      8025    3    0    1
 -2      1176      1173      2615      2908
 -1      8026    3    0    1
 -2      2592      2494      2760      2875
 -1      8027    3    0    1
 -2      2635      2622      2869      2876
 -1      8028    3    0    1
 -2       324      1118      1377      2876
 -1      8029    3    0    1
 -2       324       401      1118      2876
 -1      8030    3    0    1
 -2      1118       401      2869      2876
 -1      8031    3    0    1
 -2      2489      2530      2835      2877
 -1      8032    3    0    1
 -2      2764      2225      2827      2878
 -1      8033    3    0    1
 -2      1628      2764      2827      2878
 -1      8034    3    0    1
 -2      2312      1628      2827      2878
 -1      8035    3    0    1
 -2      2244      2312      2827      2878
 -1      8036    3    0    1
 -2      2244      1571      2312      2878
 -1      8037    3    0    1
 -2      1622      1571      1762      2878
 -1      8038    3    0    1
 -2      1073       784      2583      2896
 -1      8039    3    0    1
 -2      2974      2972      3103      1449
 -1      8040    3    0    1
 -2       784      2324      1083      1072
 -1      8041    3    0    1
 -2      1287      1954      2763      2879
 -1      8042    3    0    1
 -2      1287      1042      1954      2879
 -1      8043    3    0    1
 -2       345      1287      2763      2879
 -1      8044    3    0    1
 -2       345       426      1287      2879
 -1      8045    3    0    1
 -2       156       999      2766      2880
 -1      8046    3    0    1
 -2       999       156      2667      2880
 -1      8047    3    0    1
 -2      1583       156      2766      2880
 -1      8048    3    0    1
 -2       156      1583      2667      2880
 -1      8049    3    0    1
 -2       158      1583      2766      2881
 -1      8050    3    0    1
 -2       158       366      1006      2881
 -1      8051    3    0    1
 -2       368      2531      2744      2881
 -1      8052    3    0    1
 -2       366       368      2744      2881
 -1      8053    3    0    1
 -2       368       366      2531      2881
 -1      8054    3    0    1
 -2       158      1006      1583      2881
 -1      8055    3    0    1
 -2      1583      1006      2562      2881
 -1      8056    3    0    1
 -2       246      2380      2499      2882
 -1      8057    3    0    1
 -2      1833      2195      2636      1894
 -1      8058    3    0    1
 -2      2195      1833      2636      2882
 -1      8059    3    0    1
 -2      2380      2666      2774      2882
 -1      8060    3    0    1
 -2      2380       246      2666      2882
 -1      8061    3    0    1
 -2       246      2195      2666      2882
 -1      8062    3    0    1
 -2      1020      1032      2507      2883
 -1      8063    3    0    1
 -2      1032      1020      2434      2883
 -1      8064    3    0    1
 -2       178       177      2434      2883
 -1      8065    3    0    1
 -2       177       178      1020      2883
 -1      8066    3    0    1
 -2      1020       178      2434      2883
 -1      8067    3    0    1
 -2      1862      1793      2699      2884
 -1      8068    3    0    1
 -2      2758      2631      2946      2962
 -1      8069    3    0    1
 -2      2591       332       367      1005
 -1      8070    3    0    1
 -2       332       367      2805      2884
 -1      8071    3    0    1
 -2       367      2591      1005      1018
 -1      8072    3    0    1
 -2       332      2591       367      2884
 -1      8073    3    0    1
 -2      1821        66      2435      2885
 -1      8074    3    0    1
 -2      1201       943      2692      2885
 -1      8075    3    0    1
 -2      2435      1201      2692      2885
 -1      8076    3    0    1
 -2        66       943      1201      2885
 -1      8077    3    0    1
 -2        66      1201      2435      2885
 -1      8078    3    0    1
 -2      1762      1571      2244      2886
 -1      8079    3    0    1
 -2      2244      1571      2878      2886
 -1      8080    3    0    1
 -2      1622      2360      2878      2886
 -1      8081    3    0    1
 -2      2360      2764      2878      2886
 -1      8082    3    0    1
 -2      2324      1083      2513      2896
 -1      8083    3    0    1
 -2        38        54      2255      2897
 -1      8084    3    0    1
 -2      2324       784      1083      2896
 -1      8085    3    0    1
 -2      1083       807      2513      2896
 -1      8086    3    0    1
 -2       784       807      1083      2896
 -1      8087    3    0    1
 -2       272       268      1079      2887
 -1      8088    3    0    1
 -2      1945      2729      2871      2904
 -1      8089    3    0    1
 -2       647       998       648      2995
 -1      8090    3    0    1
 -2      2202      2228      2803      2889
 -1      8091    3    0    1
 -2      2481      2202      2803      2889
 -1      8092    3    0    1
 -2      2801      1862      2884      1793
 -1      8093    3    0    1
 -2      1013       367      2884      2890
 -1      8094    3    0    1
 -2      2805      1862      2884      2890
 -1      8095    3    0    1
 -2       367      2805      2884      2890
 -1      8096    3    0    1
 -2      2801      2779      2884      2890
 -1      8097    3    0    1
 -2      1286      2237      2668      2891
 -1      8098    3    0    1
 -2      1286      1043      2237      2891
 -1      8099    3    0    1
 -2      2618      2374      2922      2938
 -1      8100    3    0    1
 -2       362       355      3095      2992
 -1      8101    3    0    1
 -2       381      1441      1448      3106
 -1      8102    3    0    1
 -2      3091      3097      1448      3106
 -1      8103    3    0    1
 -2      1472      1410      3135      3154
 -1      8104    3    0    1
 -2      2950      2944      3100      3146
 -1      8105    3    0    1
 -2      2048      2430      2966      3094
 -1      8106    3    0    1
 -2      2379       101      2795      2893
 -1      8107    3    0    1
 -2      2872      2771      2299      2893
 -1      8108    3    0    1
 -2      2872      2299      2888      2893
 -1      8109    3    0    1
 -2       101       349      2771      2893
 -1      8110    3    0    1
 -2      2771      2872      2299      1699
 -1      8111    3    0    1
 -2      2888      2893      2771       349
 -1      8112    3    0    1
 -2      2299      2893      2771      2888
 -1      8113    3    0    1
 -2      2267       405      2854      2894
 -1      8114    3    0    1
 -2      2690      2267      2854      2894
 -1      8115    3    0    1
 -2       930       405      2725      2894
 -1      8116    3    0    1
 -2       405      2267      2725      2894
 -1      8117    3    0    1
 -2      1079      2332      2887      2895
 -1      8118    3    0    1
 -2       798      1081       799      2895
 -1      8119    3    0    1
 -2       799      1081      2644      2895
 -1      8120    3    0    1
 -2      1081      1079      2644      2895
 -1      8121    3    0    1
 -2      1081       798      1079      2895
 -1      8122    3    0    1
 -2      1079      1722      2332      2895
 -1      8123    3    0    1
 -2      2332      1722      2424      2895
 -1      8124    3    0    1
 -2       798      2738      2741      2895
 -1      8125    3    0    1
 -2      2424      1722      2738      2895
 -1      8126    3    0    1
 -2      2738      1722      2741      2895
 -1      8127    3    0    1
 -2      1079       798      1722      2895
 -1      8128    3    0    1
 -2      1722       798      2741      2895
 -1      8129    3    0    1
 -2        54       925      2260      2897
 -1      8130    3    0    1
 -2      2260       925      2832      2897
 -1      8131    3    0    1
 -2       925       508      2602      2897
 -1      8132    3    0    1
 -2       508       490      2602      2897
 -1      8133    3    0    1
 -2        32      2255      2825      2909
 -1      8134    3    0    1
 -2        29        32      2825      2909
 -1      8135    3    0    1
 -2      1176        32      2908      2909
 -1      8136    3    0    1
 -2        29      2855      2908      2909
 -1      8137    3    0    1
 -2        54        38      1176      2897
 -1      8138    3    0    1
 -2      2976      2945      3133      3006
 -1      8139    3    0    1
 -2       925        54      1176      2897
 -1      8140    3    0    1
 -2       508       925      1176      2897
 -1      8141    3    0    1
 -2       490       508      1176      2897
 -1      8142    3    0    1
 -2      1188       919      2845      2900
 -1      8143    3    0    1
 -2       496       519       930      2900
 -1      8144    3    0    1
 -2       519       496       919      2900
 -1      8145    3    0    1
 -2       918       496       930      2900
 -1      8146    3    0    1
 -2       519       919      1188      2900
 -1      8147    3    0    1
 -2      2797      2177      2861      2901
 -1      8148    3    0    1
 -2      2087      2033      2849      2902
 -1      8149    3    0    1
 -2      1723      2161      2643      2902
 -1      8150    3    0    1
 -2      2033      1723      2643      2902
 -1      8151    3    0    1
 -2      2033      2161      2849      2902
 -1      8152    3    0    1
 -2      2161      2033      2643      2902
 -1      8153    3    0    1
 -2       583      2755      2853      2903
 -1      8154    3    0    1
 -2      2810      1223      2888      2903
 -1      8155    3    0    1
 -2      2788      2810      2888      2903
 -1      8156    3    0    1
 -2      1977      2098      2755      2903
 -1      8157    3    0    1
 -2      2098      1977      2200      2903
 -1      8158    3    0    1
 -2      2200      1977      2788      2903
 -1      8159    3    0    1
 -2      2755       583      2810      2903
 -1      8160    3    0    1
 -2       583      1223      2810      2903
 -1      8161    3    0    1
 -2      2788      2755      2810      2903
 -1      8162    3    0    1
 -2      1977      2755      2788      2903
 -1      8163    3    0    1
 -2       647       648       658      2995
 -1      8164    3    0    1
 -2        33       913      2874      2906
 -1      8165    3    0    1
 -2       913        33       915      2906
 -1      8166    3    0    1
 -2        33        27       915      2906
 -1      8167    3    0    1
 -2        27        33      2748      2906
 -1      8168    3    0    1
 -2      2748        33      2874      2906
 -1      8169    3    0    1
 -2      1058       422      2252      2907
 -1      8170    3    0    1
 -2      2875      2516      1058      1071
 -1      8171    3    0    1
 -2      2516      2875      1058      2907
 -1      8172    3    0    1
 -2       422      1058      2875      2907
 -1      8173    3    0    1
 -2        32      1173      1176      2908
 -1      8174    3    0    1
 -2      2671      2769      2923      3090
 -1      8175    3    0    1
 -2       503       922      3003      3062
 -1      8176    3    0    1
 -2        32        29      1173      2908
 -1      8177    3    0    1
 -2      1173        29      2855      2908
 -1      8178    3    0    1
 -2      2897      1176      2908      2909
 -1      8179    3    0    1
 -2        38      1176      2897      2909
 -1      8180    3    0    1
 -2        38        32      1176      2909
 -1      8181    3    0    1
 -2      2230      2373      2722      2910
 -1      8182    3    0    1
 -2      1477       379      3135      3147
 -1      8183    3    0    1
 -2      2945      2214      3133      3006
 -1      8184    3    0    1
 -2      2373      2722      2910      2945
 -1      8185    3    0    1
 -2       452      1153      3021      3034
 -1      8186    3    0    1
 -2       434      3117      3005      3029
 -1      8187    3    0    1
 -2      1185      1417      1418      3106
 -1      8188    3    0    1
 -2       964      2201      1438      2973
 -1      8189    3    0    1
 -2       929      1185      1418      3106
 -1      8190    3    0    1
 -2      2289      2671      2769      2913
 -1      8191    3    0    1
 -2      1943      2289      2769      2913
 -1      8192    3    0    1
 -2      2921      1764      2928      3086
 -1      8193    3    0    1
 -2      2919      1799      3087      3089
 -1      8194    3    0    1
 -2      1055      1309      2915      1439
 -1      8195    3    0    1
 -2      2230      2573      2719      2924
 -1      8196    3    0    1
 -2      2922      2374      2926      2935
 -1      8197    3    0    1
 -2       372      1415      1458      3131
 -1      8198    3    0    1
 -2      1436      3114      3137      3153
 -1      8199    3    0    1
 -2      3061      1185      3062      3074
 -1      8200    3    0    1
 -2      2952      3099      3135      3139
 -1      8201    3    0    1
 -2      2911      1467      2999      3144
 -1      8202    3    0    1
 -2      2937      2668      2967      3114
 -1      8203    3    0    1
 -2      3111      2752      3008      3141
 -1      8204    3    0    1
 -2      2871      1943      2904      2977
 -1      8205    3    0    1
 -2      2313      1002      2718      3008
 -1      8206    3    0    1
 -2      1765      2729      2917      2940
 -1      8207    3    0    1
 -2      1474      1452      1501      3082
 -1      8208    3    0    1
 -2      3034       906      3063      3064
 -1      8209    3    0    1
 -2      1069      1425      2954      3120
 -1      8210    3    0    1
 -2      1449      3111      3141      3142
 -1      8211    3    0    1
 -2      2924      2965      1453      3005
 -1      8212    3    0    1
 -2      2187      2971      3096      1448
 -1      8213    3    0    1
 -2      1082      1743      2432      2916
 -1      8214    3    0    1
 -2      2049      1082      2432      2916
 -1      8215    3    0    1
 -2       977      1437      1444      3127
 -1      8216    3    0    1
 -2      1233      2912      1437      3127
 -1      8217    3    0    1
 -2       226      1457      1483      1511
 -1      8218    3    0    1
 -2      2951      3092      3095      3118
 -1      8219    3    0    1
 -2       778      1069      2828      2954
 -1      8220    3    0    1
 -2      2495       977      1444      3127
 -1      8221    3    0    1
 -2      2934      2935      3089      1460
 -1      8222    3    0    1
 -2      1765      2919      2948      3105
 -1      8223    3    0    1
 -2      1275      2514      2956      3116
 -1      8224    3    0    1
 -2      1482      1453      1499      3025
 -1      8225    3    0    1
 -2      1447      1422      3116      3077
 -1      8226    3    0    1
 -2      2769      1943      2913      2949
 -1      8227    3    0    1
 -2      1266      2867      1430      3118
 -1      8228    3    0    1
 -2      1416      1417      3113      1488
 -1      8229    3    0    1
 -2      2406      1016      2649      2956
 -1      8230    3    0    1
 -2      1422      1275      2956      3116
 -1      8231    3    0    1
 -2      2577      2936      3096      3138
 -1      8232    3    0    1
 -2      1243       990      1779      2968
 -1      8233    3    0    1
 -2      2951      2959      3090      3092
 -1      8234    3    0    1
 -2       929      1197      2140      3085
 -1      8235    3    0    1
 -2      1423      1446      1464      3118
 -1      8236    3    0    1
 -2      2942      1764      2977      3111
 -1      8237    3    0    1
 -2        42       924       922      3003
 -1      8238    3    0    1
 -2      1929       916      2732      3148
 -1      8239    3    0    1
 -2      3087      1412      1458      1459
 -1      8240    3    0    1
 -2      2955      2952      3135      3139
 -1      8241    3    0    1
 -2      1452      2939      3130      3023
 -1      8242    3    0    1
 -2      1585      1443      3128      3136
 -1      8243    3    0    1
 -2      3112      3107      1482      1483
 -1      8244    3    0    1
 -2      3102      3086      3151      3103
 -1      8245    3    0    1
 -2      2068      2358      2563      2924
 -1      8246    3    0    1
 -2      1174      1929      2866      2964
 -1      8247    3    0    1
 -2      1430      3102      1455      3118
 -1      8248    3    0    1
 -2      1436      2976      3133      3137
 -1      8249    3    0    1
 -2      2572      2372      2925      2926
 -1      8250    3    0    1
 -2      2374      2572      2922      2926
 -1      8251    3    0    1
 -2      2187      2925      2961      3091
 -1      8252    3    0    1
 -2      1452       356      1474      1501
 -1      8253    3    0    1
 -2       716       717      1037      3059
 -1      8254    3    0    1
 -2      3106      1448      3113      1489
 -1      8255    3    0    1
 -2       449      3021      3027      3064
 -1      8256    3    0    1
 -2      1419      3085      1441      1442
 -1      8257    3    0    1
 -2      1082      1320      1424      3132
 -1      8258    3    0    1
 -2      1440      1439      3107      1482
 -1      8259    3    0    1
 -2      2934      2935      2938      3089
 -1      8260    3    0    1
 -2       977      1243      2933      1444
 -1      8261    3    0    1
 -2      2998      2990      3140      1490
 -1      8262    3    0    1
 -2      1082      1743      2916      3099
 -1      8263    3    0    1
 -2      2719      2924      2932      3088
 -1      8264    3    0    1
 -2      1413      1443      3050      3051
 -1      8265    3    0    1
 -2      1799      3087      3089      3110
 -1      8266    3    0    1
 -2      2719      2932      2950      3088
 -1      8267    3    0    1
 -2      1457      2950      3119      3152
 -1      8268    3    0    1
 -2      2358      2631      2758      2929
 -1      8269    3    0    1
 -2      2978      1082      3038      3056
 -1      8270    3    0    1
 -2      2945      2923      3090      1447
 -1      8271    3    0    1
 -2      1418      1419      3085      1441
 -1      8272    3    0    1
 -2      2938      2935      3108      1460
 -1      8273    3    0    1
 -2      3090      2951      3092      3095
 -1      8274    3    0    1
 -2      2904      2942      2979      3111
 -1      8275    3    0    1
 -2      3003      3024      3061      3062
 -1      8276    3    0    1
 -2       254      1074      2978      3037
 -1      8277    3    0    1
 -2      1455      1430      3118      3140
 -1      8278    3    0    1
 -2       244       226      2980      3112
 -1      8279    3    0    1
 -2      2980      3088      3112      3119
 -1      8280    3    0    1
 -2      2971      2930      3096      2987
 -1      8281    3    0    1
 -2      1016      1423      3118      3140
 -1      8282    3    0    1
 -2      1432      2892      3026      3093
 -1      8283    3    0    1
 -2      1243      1779      2933      2968
 -1      8284    3    0    1
 -2      1197      1418      1419      3085
 -1      8285    3    0    1
 -2       550       947       551      3002
 -1      8286    3    0    1
 -2      1197       929      1418      3085
 -1      8287    3    0    1
 -2      1185      2003      2732      3113
 -1      8288    3    0    1
 -2      3122      1461      3124      3145
 -1      8289    3    0    1
 -2      3104      2941      3122      3124
 -1      8290    3    0    1
 -2      1945      2374      2618      2934
 -1      8291    3    0    1
 -2      1415      2919      2948      3131
 -1      8292    3    0    1
 -2      2970      2866      3122      3143
 -1      8293    3    0    1
 -2      2573      2719      2924      2932
 -1      8294    3    0    1
 -2      2934      2919      2953      3089
 -1      8295    3    0    1
 -2      1185      2003      1417      3106
 -1      8296    3    0    1
 -2      2924      2573      2932      2965
 -1      8297    3    0    1
 -2      1439      1453      3120      3134
 -1      8298    3    0    1
 -2      2929      2847      1472      3135
 -1      8299    3    0    1
 -2      2573      2230      2719      2932
 -1      8300    3    0    1
 -2      1031      1286      2668      1426
 -1      8301    3    0    1
 -2      1452      2197      3125      3130
 -1      8302    3    0    1
 -2      1470      3030      3068      3069
 -1      8303    3    0    1
 -2      1174       916      1428      3072
 -1      8304    3    0    1
 -2      2944      2804      2950      3100
 -1      8305    3    0    1
 -2      3095       362      1446      1464
 -1      8306    3    0    1
 -2       977      1233       604      3012
 -1      8307    3    0    1
 -2      1415      2948      3105      3115
 -1      8308    3    0    1
 -2      2975      2946      3104      2996
 -1      8309    3    0    1
 -2      3114      1436      3137      1507
 -1      8310    3    0    1
 -2      3097      3091      1448      2984
 -1      8311    3    0    1
 -2      2937      2514      1426      3116
 -1      8312    3    0    1
 -2      1472      1432      3052      3053
 -1      8313    3    0    1
 -2      3012      3030      3067      3068
 -1      8314    3    0    1
 -2      2965      3098      3001      3005
 -1      8315    3    0    1
 -2      2965      2924      3098      3005
 -1      8316    3    0    1
 -2       379      3139      3147      3043
 -1      8317    3    0    1
 -2      1451       434      1453      1465
 -1      8318    3    0    1
 -2      1429      1428      3122      1495
 -1      8319    3    0    1
 -2      2214      1447      3116      3133
 -1      8320    3    0    1
 -2      3094      1425      1450      1451
 -1      8321    3    0    1
 -2      1002      2313      2344      3008
 -1      8322    3    0    1
 -2      2941      1467      3122      3124
 -1      8323    3    0    1
 -2      1255      2995      3048      3031
 -1      8324    3    0    1
 -2      3091      3085      3097      3106
 -1      8325    3    0    1
 -2      3091      3085      3128      3097
 -1      8326    3    0    1
 -2      1185       929      1418      3061
 -1      8327    3    0    1
 -2      1313       254      1074      2978
 -1      8328    3    0    1
 -2      1441       381      1442      3097
 -1      8329    3    0    1
 -2      3002       953      3035      3045
 -1      8330    3    0    1
 -2      2959      2918      3090      3092
 -1      8331    3    0    1
 -2      2716      1160      2866      3143
 -1      8332    3    0    1
 -2       382       379      1477      3147
 -1      8333    3    0    1
 -2       666      2990      2998      1490
 -1      8334    3    0    1
 -2      3085      1441      1442      3097
 -1      8335    3    0    1
 -2      3098      1453      3117      3005
 -1      8336    3    0    1
 -2      1160      2716      1433      3143
 -1      8337    3    0    1
 -2      2187      2931      2936      3096
 -1      8338    3    0    1
 -2      2922      2374      2935      2938
 -1      8339    3    0    1
 -2      3135       379      3139      3147
 -1      8340    3    0    1
 -2       199       191      3137      1507
 -1      8341    3    0    1
 -2      3107      3088      3112      3134
 -1      8342    3    0    1
 -2      2631      1942      2758      2946
 -1      8343    3    0    1
 -2      1458      3087      1459      3110
 -1      8344    3    0    1
 -2      2919      1415      2948      3105
 -1      8345    3    0    1
 -2       436      1450      1454      1494
 -1      8346    3    0    1
 -2      1942      2631      2931      2946
 -1      8347    3    0    1
 -2      2976      3133      3137      3033
 -1      8348    3    0    1
 -2      3088      2980      3112      3134
 -1      8349    3    0    1
 -2      2847      2631      2929      2962
 -1      8350    3    0    1
 -2      2917      2953      3105      3000
 -1      8351    3    0    1
 -2      2374      2934      2935      2938
 -1      8352    3    0    1
 -2      2631      2758      2929      2962
 -1      8353    3    0    1
 -2      1743      2952      3099      3135
 -1      8354    3    0    1
 -2       795      1082      1320      2978
 -1      8355    3    0    1
 -2      2563      1941      2573      2965
 -1      8356    3    0    1
 -2      2563      2573      2924      2965
 -1      8357    3    0    1
 -2      1945      2904      2939      2940
 -1      8358    3    0    1
 -2      2917      1945      2939      2940
 -1      8359    3    0    1
 -2       364      3103      1455      1456
 -1      8360    3    0    1
 -2      2804      2910      1436      3146
 -1      8361    3    0    1
 -2      2924      2048      3120      3134
 -1      8362    3    0    1
 -2      2948      3101      3105      3115
 -1      8363    3    0    1
 -2      1309      2048      2915      1439
 -1      8364    3    0    1
 -2      3088      2980      1457      3119
 -1      8365    3    0    1
 -2       459       452      3021      3034
 -1      8366    3    0    1
 -2      3111      1452      3141      3142
 -1      8367    3    0    1
 -2      2966      2068      3098      1454
 -1      8368    3    0    1
 -2      2358      1941      2563      2965
 -1      8369    3    0    1
 -2      1431      1430      3102      1455
 -1      8370    3    0    1
 -2      2573      2230      2932      2944
 -1      8371    3    0    1
 -2      2936      2577      3113      3138
 -1      8372    3    0    1
 -2      1424      2954      2430      1320
 -1      8373    3    0    1
 -2      2201      1438      3101      3131
 -1      8374    3    0    1
 -2      2488      1055      2915      3119
 -1      8375    3    0    1
 -2      2918      2214      3090      1447
 -1      8376    3    0    1
 -2      1260      1007      2990      2998
 -1      8377    3    0    1
 -2      3086      1446      2972      3103
 -1      8378    3    0    1
 -2      3086      1764      1449      2977
 -1      8379    3    0    1
 -2      2911      3093      3143      3144
 -1      8380    3    0    1
 -2       906      2866      1429      3122
 -1      8381    3    0    1
 -2      1498      1457      1521      3081
 -1      8382    3    0    1
 -2      1417      3106      3113      1489
 -1      8383    3    0    1
 -2      1260      2990      2997      2998
 -1      8384    3    0    1
 -2       364       363      3103      1456
 -1      8385    3    0    1
 -2      1412       953      3045      3060
 -1      8386    3    0    1
 -2      1436      2804      3100      3153
 -1      8387    3    0    1
 -2       953      1209      3035      3060
 -1      8388    3    0    1
 -2      1094      1160      2716      1432
 -1      8389    3    0    1
 -2      2769      2671      2945      3090
 -1      8390    3    0    1
 -2       550       945      3002      3035
 -1      8391    3    0    1
 -2       819       812      2988      2989
 -1      8392    3    0    1
 -2      3105      3115      1470      3000
 -1      8393    3    0    1
 -2      3019      3054      3076      3080
 -1      8394    3    0    1
 -2      1457       374      2993      3146
 -1      8395    3    0    1
 -2       362      3095      1446      2992
 -1      8396    3    0    1
 -2      1094      1332       819      2988
 -1      8397    3    0    1
 -2      1472       379      1477      1516
 -1      8398    3    0    1
 -2      1421      3008      3141      3151
 -1      8399    3    0    1
 -2      3126         1      3143      3144
 -1      8400    3    0    1
 -2      2936      2003      3106      3113
 -1      8401    3    0    1
 -2      2230      2910      2804      2944
 -1      8402    3    0    1
 -2       906      1160      3034      3063
 -1      8403    3    0    1
 -2      3099      1476      3147      1514
 -1      8404    3    0    1
 -2       940      1413      2986      3128
 -1      8405    3    0    1
 -2      2671      2214      2722      2945
 -1      8406    3    0    1
 -2       651       647       658      2995
 -1      8407    3    0    1
 -2       360      1436      1497      1517
 -1      8408    3    0    1
 -2      3133      3006      3137      3033
 -1      8409    3    0    1
 -2      1447      1426      1506      3070
 -1      8410    3    0    1
 -2      1435      3123      1497      1498
 -1      8411    3    0    1
 -2      2891      1434      3123      3153
 -1      8412    3    0    1
 -2      2925      1585      2926      3091
 -1      8413    3    0    1
 -2      1415       372      1458      1484
 -1      8414    3    0    1
 -2      2631      2911      2931      2946
 -1      8415    3    0    1
 -2       358      3115      1470      1480
 -1      8416    3    0    1
 -2       546      3022      3035      3060
 -1      8417    3    0    1
 -2       434      1453      3117      3120
 -1      8418    3    0    1
 -2       358      3115      1480      1481
 -1      8419    3    0    1
 -2      1423      1422      3092      1463
 -1      8420    3    0    1
 -2       699       692       691      3004
 -1      8421    3    0    1
 -2      2961      3091      1443      2984
 -1      8422    3    0    1
 -2      2981      2929      3135      3139
 -1      8423    3    0    1
 -2      2892      1432      3026      2716
 -1      8424    3    0    1
 -2      2671      2769      2913      2949
 -1      8425    3    0    1
 -2      2769      2671      2923      2949
 -1      8426    3    0    1
 -2      1425      1424      3094      1450
 -1      8427    3    0    1
 -2      3121      1474      3125      3149
 -1      8428    3    0    1
 -2      2941      3104      1467      3124
 -1      8429    3    0    1
 -2      2230      2932      2944      2950
 -1      8430    3    0    1
 -2      1411      3087      1458      3131
 -1      8431    3    0    1
 -2      1474       356      3125      3149
 -1      8432    3    0    1
 -2      2618      2934      2938      3089
 -1      8433    3    0    1
 -2      2942      2977      2979      3111
 -1      8434    3    0    1
 -2      1439      2915      1440      3107
 -1      8435    3    0    1
 -2      2920      2958      3088      3107
 -1      8436    3    0    1
 -2      2866       906      1429      3143
 -1      8437    3    0    1
 -2      1438      1437      3101      1480
 -1      8438    3    0    1
 -2      1440      3107      3119      1483
 -1      8439    3    0    1
 -2      2670       953      1411      3087
 -1      8440    3    0    1
 -2      2668      1031      1426      3114
 -1      8441    3    0    1
 -2      2915      1055      1439      1440
 -1      8442    3    0    1
 -2      2926      2922      2935      3108
 -1      8443    3    0    1
 -2      1266      1260      2990      2997
 -1      8444    3    0    1
 -2      2920      2915      2958      3107
 -1      8445    3    0    1
 -2      1470      3101      3127      1480
 -1      8446    3    0    1
 -2      2618      1765      2917      2953
 -1      8447    3    0    1
 -2      2003       929      2288      3106
 -1      8448    3    0    1
 -2      2618      2917      2934      2953
 -1      8449    3    0    1
 -2      2919      2618      2934      2953
 -1      8450    3    0    1
 -2      1765      2618      2919      2953
 -1      8451    3    0    1
 -2      1441       381      3097      3106
 -1      8452    3    0    1
 -2      1413      1443      3128      3050
 -1      8453    3    0    1
 -2      1309      1069      2632      2954
 -1      8454    3    0    1
 -2      1069      1309      2048      2954
 -1      8455    3    0    1
 -2      2048      1309      2632      2954
 -1      8456    3    0    1
 -2      3085      1441      3097      3106
 -1      8457    3    0    1
 -2      1476      1510      1514      3056
 -1      8458    3    0    1
 -2      1320      1069      1424      2954
 -1      8459    3    0    1
 -2      1457      1483      1511      3080
 -1      8460    3    0    1
 -2      3104      2930      1461      2987
 -1      8461    3    0    1
 -2       924       503       922      3003
 -1      8462    3    0    1
 -2      1470      3127      3130      3150
 -1      8463    3    0    1
 -2      1799      2201      2919      3087
 -1      8464    3    0    1
 -2      3098      2924      1453      3005
 -1      8465    3    0    1
 -2      2967      1436      3133      3137
 -1      8466    3    0    1
 -2      2201      1799      2670      3087
 -1      8467    3    0    1
 -2      2003      1417      3106      3113
 -1      8468    3    0    1
 -2      1411       953      1412      3087
 -1      8469    3    0    1
 -2      1799      2090      2670      3087
 -1      8470    3    0    1
 -2      1275      2050      2649      2956
 -1      8471    3    0    1
 -2      2050      1275      2514      2956
 -1      8472    3    0    1
 -2      2966      2048      3094      3098
 -1      8473    3    0    1
 -2      1275      1016      1422      2956
 -1      8474    3    0    1
 -2      2344       990      1420      2968
 -1      8475    3    0    1
 -2      1460      3089      2982      3110
 -1      8476    3    0    1
 -2      2919      1415      2953      3089
 -1      8477    3    0    1
 -2      3087      2919      3089      3110
 -1      8478    3    0    1
 -2       912       480      3041      3073
 -1      8479    3    0    1
 -2      2214      2937      3114      3133
 -1      8480    3    0    1
 -2      1427      1286      1434      3071
 -1      8481    3    0    1
 -2      3091      2926      1443      3009
 -1      8482    3    0    1
 -2      1443       377      3136      3009
 -1      8483    3    0    1
 -2      1410      1432      1472      3053
 -1      8484    3    0    1
 -2       526       527       538      3040
 -1      8485    3    0    1
 -2      3090      2923      1446      2992
 -1      8486    3    0    1
 -2       572       573       586      2994
 -1      8487    3    0    1
 -2      1447      3114      3116      3137
 -1      8488    3    0    1
 -2      1419      3085      1442      3128
 -1      8489    3    0    1
 -2      1016      2406      1423      3092
 -1      8490    3    0    1
 -2      2930      2577      2931      3096
 -1      8491    3    0    1
 -2       356      3125      3149      3150
 -1      8492    3    0    1
 -2      2022      2914      2957      3109
 -1      8493    3    0    1
 -2      1412       953      1414      3129
 -1      8494    3    0    1
 -2      2719      2920      2958      3088
 -1      8495    3    0    1
 -2      3096      2971      2987      3013
 -1      8496    3    0    1
 -2      1298      1055      2488      3152
 -1      8497    3    0    1
 -2      1419      1413      3128      3050
 -1      8498    3    0    1
 -2      2935      2922      2938      3108
 -1      8499    3    0    1
 -2       929      1185       508      3003
 -1      8500    3    0    1
 -2      1799      2919      2938      3089
 -1      8501    3    0    1
 -2      1415      2934      2953      3089
 -1      8502    3    0    1
 -2      1585      1443      3108      3009
 -1      8503    3    0    1
 -2      2187      3091      2971      1448
 -1      8504    3    0    1
 -2      2631      2847      2911      2962
 -1      8505    3    0    1
 -2      1420      1452      3125      3082
 -1      8506    3    0    1
 -2      1423      1446      3118      3140
 -1      8507    3    0    1
 -2      1449      1431      1456      3048
 -1      8508    3    0    1
 -2      2671      2214      2945      3090
 -1      8509    3    0    1
 -2      2918      2671      2951      3090
 -1      8510    3    0    1
 -2      2918      2951      2959      3090
 -1      8511    3    0    1
 -2        91      1415      3115      1481
 -1      8512    3    0    1
 -2      2671      2921      2951      3090
 -1      8513    3    0    1
 -2      1416      2732      2963      3113
 -1      8514    3    0    1
 -2      2187      2930      2931      3096
 -1      8515    3    0    1
 -2      2214      2671      2918      3090
 -1      8516    3    0    1
 -2      2923      2769      2945      3090
 -1      8517    3    0    1
 -2      1472      1410      1477      3135
 -1      8518    3    0    1
 -2       450      3027      3034      3063
 -1      8519    3    0    1
 -2      2929      2847      2962      1472
 -1      8520    3    0    1
 -2       906      1174      2866      2964
 -1      8521    3    0    1
 -2      3132      3099      3139      1514
 -1      8522    3    0    1
 -2      2358      2563      2924      2965
 -1      8523    3    0    1
 -2      2904      2942      2977      2979
 -1      8524    3    0    1
 -2      1743      1332      1410      3099
 -1      8525    3    0    1
 -2      2344      1420      1421      3141
 -1      8526    3    0    1
 -2       363      2974      3103      1449
 -1      8527    3    0    1
 -2      1415      2919      2953      3105
 -1      8528    3    0    1
 -2      1470       358      1480      1502
 -1      8529    3    0    1
 -2      2953      1415      3105      3115
 -1      8530    3    0    1
 -2      1451      1425      1453      3120
 -1      8531    3    0    1
 -2      1309      2048      1439      3120
 -1      8532    3    0    1
 -2       691       706      3004      3055
 -1      8533    3    0    1
 -2      1031      1422      1426      3116
 -1      8534    3    0    1
 -2      1585      2925      2927      3091
 -1      8535    3    0    1
 -2      2925      2187      2927      3091
 -1      8536    3    0    1
 -2      2927      2187      2936      3091
 -1      8537    3    0    1
 -2      1233      2495      2912      3127
 -1      8538    3    0    1
 -2      2214      2945      3090      1447
 -1      8539    3    0    1
 -2      1439      2915      3107      3134
 -1      8540    3    0    1
 -2      3092      1423      1463      1464
 -1      8541    3    0    1
 -2      1422      1016      1423      3092
 -1      8542    3    0    1
 -2      2956      2918      2959      3092
 -1      8543    3    0    1
 -2      2406      2956      2959      3092
 -1      8544    3    0    1
 -2      1447       355      1463      1491
 -1      8545    3    0    1
 -2      2951      2406      2959      3092
 -1      8546    3    0    1
 -2      2935      2926      3108      3009
 -1      8547    3    0    1
 -2       947       550       945      3002
 -1      8548    3    0    1
 -2      3108      1443      3136      3009
 -1      8549    3    0    1
 -2      2921      2951      1446      3118
 -1      8550    3    0    1
 -2      2847      2962      1472      3144
 -1      8551    3    0    1
 -2      2985      3016      3040      3051
 -1      8552    3    0    1
 -2      1443      3109      3136      1485
 -1      8553    3    0    1
 -2      3102      2921      3103      3118
 -1      8554    3    0    1
 -2      2951      2406      3092      3118
 -1      8555    3    0    1
 -2      3041       916      3072      3073
 -1      8556    3    0    1
 -2       490      1174       483      3041
 -1      8557    3    0    1
 -2      3109      3136      1485      1486
 -1      8558    3    0    1
 -2      1420      2344      2968      3141
 -1      8559    3    0    1
 -2       811       826       819      2988
 -1      8560    3    0    1
 -2       274      1472      3144      3154
 -1      8561    3    0    1
 -2      1153         3      3027      3034
 -1      8562    3    0    1
 -2      2911      2946      2962      2999
 -1      8563    3    0    1
 -2      2892      2911      2947      3093
 -1      8564    3    0    1
 -2      3067       977      3068      3069
 -1      8565    3    0    1
 -2      3115       358      1470      3000
 -1      8566    3    0    1
 -2       802      1082       795      2978
 -1      8567    3    0    1
 -2      2912      2948      3101      3105
 -1      8568    3    0    1
 -2       787      1313      1074      2978
 -1      8569    3    0    1
 -2      1415      1411      1458      3131
 -1      8570    3    0    1
 -2      2866       906      2964      3122
 -1      8571    3    0    1
 -2       381       437      3097      2984
 -1      8572    3    0    1
 -2       802       795       787      2978
 -1      8573    3    0    1
 -2      2933      1243      1445      3121
 -1      8574    3    0    1
 -2      3085      1418      1441      3106
 -1      8575    3    0    1
 -2      1460      1459      1478      3045
 -1      8576    3    0    1
 -2      1413      1414      3109      1485
 -1      8577    3    0    1
 -2      1467      3104      2996      3124
 -1      8578    3    0    1
 -2       372      1458      3110      3131
 -1      8579    3    0    1
 -2      2372      2187      2961      2971
 -1      8580    3    0    1
 -2       964      2137      2670      2973
 -1      8581    3    0    1
 -2      2943      2950      3100      3152
 -1      8582    3    0    1
 -2      2961      2187      3091      2971
 -1      8583    3    0    1
 -2      1411       964      1438      3046
 -1      8584    3    0    1
 -2      2137      1233      2495      2973
 -1      8585    3    0    1
 -2      1453       434      3117      3005
 -1      8586    3    0    1
 -2       434       436      1451      3117
 -1      8587    3    0    1
 -2      2068      2358      2924      3098
 -1      8588    3    0    1
 -2      2999         1      3015      3144
 -1      8589    3    0    1
 -2      2931      2577      2936      3096
 -1      8590    3    0    1
 -2      2923      2671      3090      1446
 -1      8591    3    0    1
 -2      2671      2949      3086      1446
 -1      8592    3    0    1
 -2      2671      2923      2949      1446
 -1      8593    3    0    1
 -2      2915      1055      1440      3119
 -1      8594    3    0    1
 -2      2921      2951      3090      1446
 -1      8595    3    0    1
 -2      2671      2921      3090      1446
 -1      8596    3    0    1
 -2      2921      2671      3086      1446
 -1      8597    3    0    1
 -2      2495      1444      3121      3127
 -1      8598    3    0    1
 -2      2719      2920      3088      3119
 -1      8599    3    0    1
 -2      3019      3054      3080      3081
 -1      8600    3    0    1
 -2      1433      1432      1468      3126
 -1      8601    3    0    1
 -2      1457      3088      2950      2932
 -1      8602    3    0    1
 -2      1419      1442      1443      3128
 -1      8603    3    0    1
 -2      2068      2924      2966      3098
 -1      8604    3    0    1
 -2      3107      1439      3134      1482
 -1      8605    3    0    1
 -2      2924      2048      2966      3098
 -1      8606    3    0    1
 -2      1444      1470      1473      3127
 -1      8607    3    0    1
 -2      2916      2952      2955      3099
 -1      8608    3    0    1
 -2      2988      2989      3020      3052
 -1      8609    3    0    1
 -2      2916      1743      2952      3099
 -1      8610    3    0    1
 -2      1195      2985      3016      3040
 -1      8611    3    0    1
 -2      1332      1409      1410      3099
 -1      8612    3    0    1
 -2      1470      1444      1473      3069
 -1      8613    3    0    1
 -2      1332      1082      1409      3099
 -1      8614    3    0    1
 -2      2919      1415      3089      3131
 -1      8615    3    0    1
 -2      1414      3109      1485      1486
 -1      8616    3    0    1
 -2      2936      2187      3096      1448
 -1      8617    3    0    1
 -2      2187      2936      3091      1448
 -1      8618    3    0    1
 -2      1470       117      3127      3150
 -1      8619    3    0    1
 -2      2197      2969      3121      3130
 -1      8620    3    0    1
 -2      1069      1309      2983      3025
 -1      8621    3    0    1
 -2        18      3041      3047      3073
 -1      8622    3    0    1
 -2      1233       964      1437      2973
 -1      8623    3    0    1
 -2      2048      2954      3094      3120
 -1      8624    3    0    1
 -2      2912      2948      2973      3101
 -1      8625    3    0    1
 -2      2948      2201      2973      3101
 -1      8626    3    0    1
 -2      1415      3101      3115      1481
 -1      8627    3    0    1
 -2      3088      1457      2950      3119
 -1      8628    3    0    1
 -2      1467         1      1469      1475
 -1      8629    3    0    1
 -2      3139       382      3147      3043
 -1      8630    3    0    1
 -2      2718      1266      2867      3102
 -1      8631    3    0    1
 -2      2867      1266      1430      3102
 -1      8632    3    0    1
 -2      1002      1266      2718      3102
 -1      8633    3    0    1
 -2       244      3112      3134      1482
 -1      8634    3    0    1
 -2      3102      1431      1455      1456
 -1      8635    3    0    1
 -2      3103      3102      1455      1456
 -1      8636    3    0    1
 -2      2867      2921      2928      3102
 -1      8637    3    0    1
 -2      2914      3109      3129      3136
 -1      8638    3    0    1
 -2      3109      1460      3129      3136
 -1      8639    3    0    1
 -2      1430      1002      1431      3102
 -1      8640    3    0    1
 -2      1266      1002      1430      3102
 -1      8641    3    0    1
 -2      3101      2912      3105      3115
 -1      8642    3    0    1
 -2      2924      2048      3098      3120
 -1      8643    3    0    1
 -2      2214      2945      1447      3006
 -1      8644    3    0    1
 -2      1411      1415      1458      3065
 -1      8645    3    0    1
 -2      2958      2719      3088      3134
 -1      8646    3    0    1
 -2      2935      3108      1460      3039
 -1      8647    3    0    1
 -2      3108      2914      1460      3136
 -1      8648    3    0    1
 -2      2990      2997      2998      3140
 -1      8649    3    0    1
 -2      3027      1467      1508      3064
 -1      8650    3    0    1
 -2      2910      2804      1436      3133
 -1      8651    3    0    1
 -2      1585      2957      3108      3136
 -1      8652    3    0    1
 -2      2957      1585      3109      3136
 -1      8653    3    0    1
 -2      1443      1585      3108      3136
 -1      8654    3    0    1
 -2      1461      3104      3122      3124
 -1      8655    3    0    1
 -2      3027      3021      3034      3064
 -1      8656    3    0    1
 -2       260       254      2978      3007
 -1      8657    3    0    1
 -2       117      1473      3127      3149
 -1      8658    3    0    1
 -2       964      2201      2670      3131
 -1      8659    3    0    1
 -2      2967      2214      3114      3133
 -1      8660    3    0    1
 -2      1434      1435      3123      1497
 -1      8661    3    0    1
 -2      2716      2892      1433      3143
 -1      8662    3    0    1
 -2      1443      3109      3128      3136
 -1      8663    3    0    1
 -2      3035      3022      3045      3060
 -1      8664    3    0    1
 -2      2722      2804      2910      3133
 -1      8665    3    0    1
 -2      2949      3086      2972      2977
 -1      8666    3    0    1
 -2      2972      3086      1449      2977
 -1      8667    3    0    1
 -2      1943      2913      2949      2977
 -1      8668    3    0    1
 -2      1943      2871      2913      2977
 -1      8669    3    0    1
 -2      2913      2871      2942      2977
 -1      8670    3    0    1
 -2      1764      2913      2942      2977
 -1      8671    3    0    1
 -2      1445      2933      3121      3125
 -1      8672    3    0    1
 -2      3027      3034      3063      3064
 -1      8673    3    0    1
 -2      3141       352      1503      1504
 -1      8674    3    0    1
 -2      1185      2732      1416      3113
 -1      8675    3    0    1
 -2       387         2      2996      3124
 -1      8676    3    0    1
 -2      1467      1429      1496      3064
 -1      8677    3    0    1
 -2       254      1313       260      2978
 -1      8678    3    0    1
 -2      1313       787       788      2978
 -1      8679    3    0    1
 -2      2926      1585      3108      3009
 -1      8680    3    0    1
 -2      1082      1320      2978      3038
 -1      8681    3    0    1
 -2       572       586       580      2994
 -1      8682    3    0    1
 -2      1412      1411      3087      1458
 -1      8683    3    0    1
 -2      3096      2936      1448      3138
 -1      8684    3    0    1
 -2      1031      2937      1426      3114
 -1      8685    3    0    1
 -2      3100      2950      1457      3152
 -1      8686    3    0    1
 -2      3106      1418      3061      3074
 -1      8687    3    0    1
 -2      3016       521      3040      3051
 -1      8688    3    0    1
 -2      1427      2668      3114      3153
 -1      8689    3    0    1
 -2      1417      1418      3106      3074
 -1      8690    3    0    1
 -2       379      1472      1477      3135
 -1      8691    3    0    1
 -2       532       538       940      3040
 -1      8692    3    0    1
 -2      2867      2718      3102      3008
 -1      8693    3    0    1
 -2       618      3036      3057      3079
 -1      8694    3    0    1
 -2      2937      2214      3116      3133
 -1      8695    3    0    1
 -2      1436      1497      1517      3084
 -1      8696    3    0    1
 -2      1286       723      3059      3071
 -1      8697    3    0    1
 -2      1436      1427      1507      3153
 -1      8698    3    0    1
 -2      3098      3094      3117      3120
 -1      8699    3    0    1
 -2      2927      3085      3091      3106
 -1      8700    3    0    1
 -2      2936      3091      1448      3106
 -1      8701    3    0    1
 -2      3093      1432      3126      3154
 -1      8702    3    0    1
 -2      2140       929      3085      3106
 -1      8703    3    0    1
 -2       929      2140      2288      3106
 -1      8704    3    0    1
 -2      2936      2927      3091      3106
 -1      8705    3    0    1
 -2      2927      2140      3085      3106
 -1      8706    3    0    1
 -2      2140      2003      2288      3106
 -1      8707    3    0    1
 -2      2003      2927      2936      3106
 -1      8708    3    0    1
 -2      2003      2140      2927      3106
 -1      8709    3    0    1
 -2      1449      1431      3032      3151
 -1      8710    3    0    1
 -2       127       132      3036      3057
 -1      8711    3    0    1
 -2      2925      2922      2926      3108
 -1      8712    3    0    1
 -2      1585      2957      2960      3108
 -1      8713    3    0    1
 -2      2914      2938      2960      3108
 -1      8714    3    0    1
 -2      2957      2914      2960      3108
 -1      8715    3    0    1
 -2      1415       372      2982      3110
 -1      8716    3    0    1
 -2      1446      1455      3118      3140
 -1      8717    3    0    1
 -2      2925      1585      2960      3108
 -1      8718    3    0    1
 -2      2938      2922      2960      3108
 -1      8719    3    0    1
 -2      2922      2925      2960      3108
 -1      8720    3    0    1
 -2      3099      3135      3139      3147
 -1      8721    3    0    1
 -2       964      1221       586      2994
 -1      8722    3    0    1
 -2      2932      3088      2980      1457
 -1      8723    3    0    1
 -2      2930      2577      3096      2987
 -1      8724    3    0    1
 -2      2577      3104      1461      2987
 -1      8725    3    0    1
 -2      1426      1427      3114      1506
 -1      8726    3    0    1
 -2      2946      2941      3104      1467
 -1      8727    3    0    1
 -2      2344      1421      3008      3141
 -1      8728    3    0    1
 -2       953      3035      3045      3060
 -1      8729    3    0    1
 -2      1476      3099      3132      1514
 -1      8730    3    0    1
 -2      3100      1457      3146      3152
 -1      8731    3    0    1
 -2      3114      2967      3133      3137
 -1      8732    3    0    1
 -2      3141      1449      1504      3151
 -1      8733    3    0    1
 -2      2983      1309      3018      3025
 -1      8734    3    0    1
 -2      2914      2938      3108      1460
 -1      8735    3    0    1
 -2       623       984      3036      3066
 -1      8736    3    0    1
 -2       924        42        47      3003
 -1      8737    3    0    1
 -2       508       514       929      3003
 -1      8738    3    0    1
 -2      1799      3087      3110      3129
 -1      8739    3    0    1
 -2      1459      1412      1460      3129
 -1      8740    3    0    1
 -2      1209       953      1414      3060
 -1      8741    3    0    1
 -2      1461      1428      1495      3148
 -1      8742    3    0    1
 -2       503       924       504      3003
 -1      8743    3    0    1
 -2       371      1460      2982      3110
 -1      8744    3    0    1
 -2       372      1458      1459      3110
 -1      8745    3    0    1
 -2       352      1452      3011      3142
 -1      8746    3    0    1
 -2      2979      1449      3011      3142
 -1      8747    3    0    1
 -2      2197      2752      2942      3111
 -1      8748    3    0    1
 -2      2752      1764      2942      3111
 -1      8749    3    0    1
 -2      1452      2904      2979      3111
 -1      8750    3    0    1
 -2      2977      1449      2979      3111
 -1      8751    3    0    1
 -2      2979      1452      3111      3142
 -1      8752    3    0    1
 -2      1452      2979      3011      3142
 -1      8753    3    0    1
 -2      1429       906      1433      3143
 -1      8754    3    0    1
 -2      2911      2941      1467      3143
 -1      8755    3    0    1
 -2      2003      2936      2963      3113
 -1      8756    3    0    1
 -2      2732      2003      2963      3113
 -1      8757    3    0    1
 -2      3113      3138      1488      1489
 -1      8758    3    0    1
 -2      1185      1416      1417      3113
 -1      8759    3    0    1
 -2      2936      2577      2963      3113
 -1      8760    3    0    1
 -2      1074       787      2978      3037
 -1      8761    3    0    1
 -2       379      3135      3139      3043
 -1      8762    3    0    1
 -2       922        42      3003      3024
 -1      8763    3    0    1
 -2         1       274      3015      3144
 -1      8764    3    0    1
 -2       953      1412      1414      3060
 -1      8765    3    0    1
 -2      1467      1429      3143      1496
 -1      8766    3    0    1
 -2      1429      3122      3143      1496
 -1      8767    3    0    1
 -2      3101      1437      3127      1480
 -1      8768    3    0    1
 -2      3115      3101      1470      1480
 -1      8769    3    0    1
 -2      1320      1082      1424      3038
 -1      8770    3    0    1
 -2      1309      1069      2048      3120
 -1      8771    3    0    1
 -2      1069      1309      1439      3120
 -1      8772    3    0    1
 -2        91      1415      2953      3115
 -1      8773    3    0    1
 -2       219      1291      3054      3076
 -1      8774    3    0    1
 -2      3092      3095      1446      1464
 -1      8775    3    0    1
 -2       355       362      3095      1464
 -1      8776    3    0    1
 -2       355      3095      1463      1464
 -1      8777    3    0    1
 -2      1431      1255      3151      1002
 -1      8778    3    0    1
 -2       388        39      3138      3013
 -1      8779    3    0    1
 -2       381      3097      1448      2984
 -1      8780    3    0    1
 -2      1443      3091      3097      2984
 -1      8781    3    0    1
 -2       437      1443      3097      2984
 -1      8782    3    0    1
 -2      2514      1031      1426      3116
 -1      8783    3    0    1
 -2      1031      1275      1422      3116
 -1      8784    3    0    1
 -2      1275      1031      2514      3116
 -1      8785    3    0    1
 -2      1436       199      3137      1507
 -1      8786    3    0    1
 -2      2937      1426      3114      3116
 -1      8787    3    0    1
 -2      2918      2214      1447      3116
 -1      8788    3    0    1
 -2      3092      2918      3095      3116
 -1      8789    3    0    1
 -2      3092      3095      1463      3116
 -1      8790    3    0    1
 -2      3090      2918      1447      3116
 -1      8791    3    0    1
 -2      2918      3090      3095      3116
 -1      8792    3    0    1
 -2      3095      3090      1447      3116
 -1      8793    3    0    1
 -2       355      1447      1463      3116
 -1      8794    3    0    1
 -2      3095       355      1463      3116
 -1      8795    3    0    1
 -2       355      3095      1447      3116
 -1      8796    3    0    1
 -2      2514      2937      2956      3116
 -1      8797    3    0    1
 -2      2937      2918      2956      3116
 -1      8798    3    0    1
 -2      2214      2918      2937      3116
 -1      8799    3    0    1
 -2       436      1450      1451      3117
 -1      8800    3    0    1
 -2       940      2985       532      3040
 -1      8801    3    0    1
 -2      2847      2911      2962      3144
 -1      8802    3    0    1
 -2       916      1416      2963      3148
 -1      8803    3    0    1
 -2      3093      3126      3143      3144
 -1      8804    3    0    1
 -2      2962      2911      2999      3144
 -1      8805    3    0    1
 -2      2947      2847      3093      3144
 -1      8806    3    0    1
 -2         1      1467      3143      3144
 -1      8807    3    0    1
 -2      2911      2947      3093      3144
 -1      8808    3    0    1
 -2      1467      2911      3143      3144
 -1      8809    3    0    1
 -2      1489      1448      1518      3074
 -1      8810    3    0    1
 -2      1449      1456      1462      3048
 -1      8811    3    0    1
 -2       910        18       912      3041
 -1      8812    3    0    1
 -2      3087      1412      1459      3129
 -1      8813    3    0    1
 -2      3095      3092      1446      3118
 -1      8814    3    0    1
 -2      2951      3095      1446      3118
 -1      8815    3    0    1
 -2      1016      2406      2649      3118
 -1      8816    3    0    1
 -2      1266      1016      2649      3118
 -1      8817    3    0    1
 -2      1266      2649      2718      3118
 -1      8818    3    0    1
 -2       364      1446      1455      3118
 -1      8819    3    0    1
 -2      1446       364      3103      3118
 -1      8820    3    0    1
 -2      3103       364      1455      3118
 -1      8821    3    0    1
 -2      3086      1446      3103      3118
 -1      8822    3    0    1
 -2      2921      3086      3103      3118
 -1      8823    3    0    1
 -2      3086      2921      1446      3118
 -1      8824    3    0    1
 -2      2867      2406      2951      3118
 -1      8825    3    0    1
 -2      2921      2867      2951      3118
 -1      8826    3    0    1
 -2      2718      2406      2867      3118
 -1      8827    3    0    1
 -2      2649      2406      2718      3118
 -1      8828    3    0    1
 -2      2950      2719      3088      3119
 -1      8829    3    0    1
 -2       690       179      3049      3055
 -1      8830    3    0    1
 -2       179      1022      3004      3055
 -1      8831    3    0    1
 -2       179      3004      3049      3055
 -1      8832    3    0    1
 -2       226      2980      3112      3119
 -1      8833    3    0    1
 -2      2488      2920      2950      3119
 -1      8834    3    0    1
 -2      2488      2915      2920      3119
 -1      8835    3    0    1
 -2      2920      2719      2950      3119
 -1      8836    3    0    1
 -2      2980       226      1457      3119
 -1      8837    3    0    1
 -2       527       526      1193      3040
 -1      8838    3    0    1
 -2       573       586      2994      3017
 -1      8839    3    0    1
 -2      3117      3098      3005      3029
 -1      8840    3    0    1
 -2      1409      1410      3099      1476
 -1      8841    3    0    1
 -2      1454      3132      3139      1514
 -1      8842    3    0    1
 -2      3133      2976      3006      3033
 -1      8843    3    0    1
 -2       436      1454      3117      3029
 -1      8844    3    0    1
 -2      1432      1433      3093      3126
 -1      8845    3    0    1
 -2      1291      1293      3054      3076
 -1      8846    3    0    1
 -2       811       812      1086      2988
 -1      8847    3    0    1
 -2      3002       945      3022      3035
 -1      8848    3    0    1
 -2       275      1086      1325      2988
 -1      8849    3    0    1
 -2       675       667       682      2990
 -1      8850    3    0    1
 -2      1086       812      1325      2988
 -1      8851    3    0    1
 -2       675       682      1266      2990
 -1      8852    3    0    1
 -2       556       550      3002      3035
 -1      8853    3    0    1
 -2       276       275      1325      2988
 -1      8854    3    0    1
 -2       387         2      3124      3145
 -1      8855    3    0    1
 -2      1454      3098      3117      3029
 -1      8856    3    0    1
 -2      3125      3121      3149      3150
 -1      8857    3    0    1
 -2      3098      1454      3001      3029
 -1      8858    3    0    1
 -2         2      1467      2996      3124
 -1      8859    3    0    1
 -2      1007       667      1260      2990
 -1      8860    3    0    1
 -2       667       668      1260      2990
 -1      8861    3    0    1
 -2       668      1266      1260      2990
 -1      8862    3    0    1
 -2      1266       668       675      2990
 -1      8863    3    0    1
 -2       358        91      3115      1481
 -1      8864    3    0    1
 -2       434       436      3117      3029
 -1      8865    3    0    1
 -2      3127       117      3149      3150
 -1      8866    3    0    1
 -2       586       964      2994      3017
 -1      8867    3    0    1
 -2      1451       434      3117      3120
 -1      8868    3    0    1
 -2       434      1451      1453      3120
 -1      8869    3    0    1
 -2       977      2495      1444      3121
 -1      8870    3    0    1
 -2      2495       977      2933      3121
 -1      8871    3    0    1
 -2      2933       977      1444      3121
 -1      8872    3    0    1
 -2       940      1197      1413      3128
 -1      8873    3    0    1
 -2      2933      2197      2969      3121
 -1      8874    3    0    1
 -2      1473      3121      3127      3149
 -1      8875    3    0    1
 -2      2201      2919      3087      3131
 -1      8876    3    0    1
 -2      3135      2981      3139      3043
 -1      8877    3    0    1
 -2      2495      2933      2969      3121
 -1      8878    3    0    1
 -2      1460        78      3136      1486
 -1      8879    3    0    1
 -2      1243      1444      1445      3121
 -1      8880    3    0    1
 -2      1461      3047      3072      3075
 -1      8881    3    0    1
 -2      2964      2577      3104      3122
 -1      8882    3    0    1
 -2      3104      2577      1461      3122
 -1      8883    3    0    1
 -2      1174      1428      2964      3122
 -1      8884    3    0    1
 -2       906      1174      2964      3122
 -1      8885    3    0    1
 -2      2866      2964      2970      3122
 -1      8886    3    0    1
 -2      1467      3122      1496      3143
 -1      8887    3    0    1
 -2      2964      2941      2970      3122
 -1      8888    3    0    1
 -2      1428       906      1429      3122
 -1      8889    3    0    1
 -2      1174       906      1428      3122
 -1      8890    3    0    1
 -2        78      1460      3136      3039
 -1      8891    3    0    1
 -2      2928      2867      3102      3008
 -1      8892    3    0    1
 -2        91       358      3115      3028
 -1      8893    3    0    1
 -2       689      1491      3049      3077
 -1      8894    3    0    1
 -2      1460      3108      3136      3039
 -1      8895    3    0    1
 -2       451      1153       898      3021
 -1      8896    3    0    1
 -2      2953        91      3115      3028
 -1      8897    3    0    1
 -2      3021      1153      3027      3034
 -1      8898    3    0    1
 -2      3017      3044      3046      3065
 -1      8899    3    0    1
 -2      1421      3141      1504      3151
 -1      8900    3    0    1
 -2       360       374      3123      3146
 -1      8901    3    0    1
 -2       103        93      1215      2994
 -1      8902    3    0    1
 -2      1412      1459      1460      3045
 -1      8903    3    0    1
 -2       998       647       996      2995
 -1      8904    3    0    1
 -2      1160       906      2866      3143
 -1      8905    3    0    1
 -2      1454      3007      3038      3056
 -1      8906    3    0    1
 -2      3125      1420      3141      1503
 -1      8907    3    0    1
 -2       154       146       996      2995
 -1      8908    3    0    1
 -2      3014       641      1505      3032
 -1      8909    3    0    1
 -2      2866      1429      3122      3143
 -1      8910    3    0    1
 -2      1433      2892      3093      3143
 -1      8911    3    0    1
 -2      2892      2911      3093      3143
 -1      8912    3    0    1
 -2      3066      3057      3079      3082
 -1      8913    3    0    1
 -2      3125      1452      3130      3150
 -1      8914    3    0    1
 -2       356      1452      3125      3150
 -1      8915    3    0    1
 -2      1474      3121      1473      3149
 -1      8916    3    0    1
 -2      3121      1474      1473      1445
 -1      8917    3    0    1
 -2       964      1221      1411      3131
 -1      8918    3    0    1
 -2      2933      2197      3121      3125
 -1      8919    3    0    1
 -2      1452      2197      3111      3125
 -1      8920    3    0    1
 -2      1243      2933      1445      3125
 -1      8921    3    0    1
 -2      2933      1243      2968      3125
 -1      8922    3    0    1
 -2      1420      1243      1445      3125
 -1      8923    3    0    1
 -2      1449      2979      3111      3142
 -1      8924    3    0    1
 -2       990      1420      2968      3125
 -1      8925    3    0    1
 -2      1243       990      2968      3125
 -1      8926    3    0    1
 -2       990      1243      1420      3125
 -1      8927    3    0    1
 -2      2197      2933      2968      3125
 -1      8928    3    0    1
 -2      3096      2987      3138      3013
 -1      8929    3    0    1
 -2      2987       388      3138      3013
 -1      8930    3    0    1
 -2      1443      1413      3128      1485
 -1      8931    3    0    1
 -2      2971      3096      1448      3013
 -1      8932    3    0    1
 -2       665       163      2997      2998
 -1      8933    3    0    1
 -2       163      1260      2997      2998
 -1      8934    3    0    1
 -2       176       666      2990      2998
 -1      8935    3    0    1
 -2       163       176      1007      2998
 -1      8936    3    0    1
 -2       163      1007      1260      2998
 -1      8937    3    0    1
 -2      1007       176      2990      2998
 -1      8938    3    0    1
 -2      2941      2911      1467      2999
 -1      8939    3    0    1
 -2      2911      2941      2946      2999
 -1      8940    3    0    1
 -2      2946      2941      1467      2999
 -1      8941    3    0    1
 -2      1055      1440      3119      3152
 -1      8942    3    0    1
 -2      1448        39      1489      1518
 -1      8943    3    0    1
 -2      1493       594      3030      3069
 -1      8944    3    0    1
 -2       459       452       451      3021
 -1      8945    3    0    1
 -2      3049      1447      3070      3077
 -1      8946    3    0    1
 -2       964      1411      1438      3131
 -1      8947    3    0    1
 -2      1765      2917      3105      3000
 -1      8948    3    0    1
 -2      1452      3125      3141      1503
 -1      8949    3    0    1
 -2      1449       354      3142      1504
 -1      8950    3    0    1
 -2      3087      2919      3110      3131
 -1      8951    3    0    1
 -2      2948      3101      3115      3131
 -1      8952    3    0    1
 -2      2948      2201      3101      3131
 -1      8953    3    0    1
 -2      2939      2917      2940      3000
 -1      8954    3    0    1
 -2      2201       964      1438      3131
 -1      8955    3    0    1
 -2      2917      1765      2940      3000
 -1      8956    3    0    1
 -2      1221      2670      1411      3131
 -1      8957    3    0    1
 -2      1470      3130      3023      3150
 -1      8958    3    0    1
 -2      1470       117      1473      3127
 -1      8959    3    0    1
 -2      1415      2948      3115      3131
 -1      8960    3    0    1
 -2      3101      2912      3115      3127
 -1      8961    3    0    1
 -2      3101      3115      1470      3127
 -1      8962    3    0    1
 -2      1470      1765      2991      3127
 -1      8963    3    0    1
 -2      2912      1765      3105      3127
 -1      8964    3    0    1
 -2      3105      1765      1470      3127
 -1      8965    3    0    1
 -2      2912      3105      3115      3127
 -1      8966    3    0    1
 -2      3115      3105      1470      3127
 -1      8967    3    0    1
 -2      2912      2495      2969      3127
 -1      8968    3    0    1
 -2      1765      2969      2991      3127
 -1      8969    3    0    1
 -2      1765      2912      2969      3127
 -1      8970    3    0    1
 -2      1442      3085      3097      3128
 -1      8971    3    0    1
 -2      1585      2957      3109      3128
 -1      8972    3    0    1
 -2      3109      2957      2986      3128
 -1      8973    3    0    1
 -2      1197       940      1978      3128
 -1      8974    3    0    1
 -2      1978       940      2986      3128
 -1      8975    3    0    1
 -2      1197      1978      2140      3128
 -1      8976    3    0    1
 -2       437      1442      3097      3128
 -1      8977    3    0    1
 -2      1442       437      1443      3128
 -1      8978    3    0    1
 -2      1443       437      3097      3128
 -1      8979    3    0    1
 -2      2140      2927      3085      3128
 -1      8980    3    0    1
 -2      3091      1443      3097      3128
 -1      8981    3    0    1
 -2      3091      1585      1443      3128
 -1      8982    3    0    1
 -2      3085      3091      3128      2927
 -1      8983    3    0    1
 -2      2927      1585      3091      3128
 -1      8984    3    0    1
 -2      1585      2140      2986      3128
 -1      8985    3    0    1
 -2      2957      1585      2986      3128
 -1      8986    3    0    1
 -2      2140      1978      2986      3128
 -1      8987    3    0    1
 -2      2140      1585      2927      3128
 -1      8988    3    0    1
 -2      3113      1416      1488      3148
 -1      8989    3    0    1
 -2      2964      2577      3122      3148
 -1      8990    3    0    1
 -2      2963      1416      3113      3148
 -1      8991    3    0    1
 -2       623       984       986      3036
 -1      8992    3    0    1
 -2      3072      3047      3073      3075
 -1      8993    3    0    1
 -2      1428      3122      1495      3148
 -1      8994    3    0    1
 -2      2914      2938      1460      3129
 -1      8995    3    0    1
 -2      3087      2090       953      3129
 -1      8996    3    0    1
 -2       371      1460      3110      3129
 -1      8997    3    0    1
 -2      1459       371      3110      3129
 -1      8998    3    0    1
 -2       371      1459      1460      3129
 -1      8999    3    0    1
 -2      1209      2022      1414      3129
 -1      9000    3    0    1
 -2      2022      1209      2090      3129
 -1      9001    3    0    1
 -2      2914      1799      2938      3129
 -1      9002    3    0    1
 -2      2090      1799      2914      3129
 -1      9003    3    0    1
 -2      2022      2090      2914      3129
 -1      9004    3    0    1
 -2      2994       570      3044      3065
 -1      9005    3    0    1
 -2      3010      2983      3018      3025
 -1      9006    3    0    1
 -2       450      1475      3027      3063
 -1      9007    3    0    1
 -2      1433      1429      1467      3063
 -1      9008    3    0    1
 -2      1439      1453      1482      3025
 -1      9009    3    0    1
 -2      2991      1470      3127      3130
 -1      9010    3    0    1
 -2      2942      2197      3111      3130
 -1      9011    3    0    1
 -2      2904      2942      3111      3130
 -1      9012    3    0    1
 -2      1185       508      3003      3062
 -1      9013    3    0    1
 -2      2939      1470      3000      3130
 -1      9014    3    0    1
 -2      2197      2940      2991      3130
 -1      9015    3    0    1
 -2      2940      1765      2991      3130
 -1      9016    3    0    1
 -2      2969      2197      2991      3130
 -1      9017    3    0    1
 -2      2939      2904      1452      3130
 -1      9018    3    0    1
 -2      2940      2197      2942      3130
 -1      9019    3    0    1
 -2      3089      1415      3110      3131
 -1      9020    3    0    1
 -2      2919      3089      3110      3131
 -1      9021    3    0    1
 -2      2919      2201      2948      3131
 -1      9022    3    0    1
 -2      2939      1470      3130      3023
 -1      9023    3    0    1
 -2      1409      1476      3132      1514
 -1      9024    3    0    1
 -2       706      1031       699      3004
 -1      9025    3    0    1
 -2       706       699       691      3004
 -1      9026    3    0    1
 -2      1269       179      1022      3004
 -1      9027    3    0    1
 -2       691      1269      1022      3004
 -1      9028    3    0    1
 -2      1476       382      3147      1514
 -1      9029    3    0    1
 -2      3139       382      3043      1514
 -1      9030    3    0    1
 -2       382      3139      3147      1514
 -1      9031    3    0    1
 -2       179      1269       180      3004
 -1      9032    3    0    1
 -2      1082      2978      3037      3056
 -1      9033    3    0    1
 -2      1454      1409      1514      3056
 -1      9034    3    0    1
 -2      1269       691       692      3004
 -1      9035    3    0    1
 -2       388      1461      1488      1492
 -1      9036    3    0    1
 -2      3098      2966      1454      3132
 -1      9037    3    0    1
 -2      3094      2966      3098      3132
 -1      9038    3    0    1
 -2      3094      3098      3117      3132
 -1      9039    3    0    1
 -2      2068      2430      2916      3132
 -1      9040    3    0    1
 -2      2430      2049      2916      3132
 -1      9041    3    0    1
 -2      2430      2068      2966      3132
 -1      9042    3    0    1
 -2      2804      2214      2967      3133
 -1      9043    3    0    1
 -2      2958      3088      3107      3134
 -1      9044    3    0    1
 -2      2910      1436      2976      3133
 -1      9045    3    0    1
 -2      2048      2915      1439      3134
 -1      9046    3    0    1
 -2      2722      2214      2804      3133
 -1      9047    3    0    1
 -2      2945      2910      2976      3133
 -1      9048    3    0    1
 -2      3098      2924      3120      3134
 -1      9049    3    0    1
 -2      2924      3098      1453      3134
 -1      9050    3    0    1
 -2      1453      3098      3120      3134
 -1      9051    3    0    1
 -2      3088      2932      2980      3134
 -1      9052    3    0    1
 -2      2980       244      3112      3134
 -1      9053    3    0    1
 -2      2932      2924      2965      3134
 -1      9054    3    0    1
 -2      2965      2924      1453      3134
 -1      9055    3    0    1
 -2      2719      2048      2924      3134
 -1      9056    3    0    1
 -2      2915      2048      2958      3134
 -1      9057    3    0    1
 -2      2048      2719      2958      3134
 -1      9058    3    0    1
 -2      2932      1453      2980      3134
 -1      9059    3    0    1
 -2      1453       244      2980      3134
 -1      9060    3    0    1
 -2      2932      2965      1453      3134
 -1      9061    3    0    1
 -2       786       260      2978      3007
 -1      9062    3    0    1
 -2      2978       786      3007      3038
 -1      9063    3    0    1
 -2       274      1468      1472      3154
 -1      9064    3    0    1
 -2      1432      3093      3026      3154
 -1      9065    3    0    1
 -2      1094      1432      3026      3154
 -1      9066    3    0    1
 -2      2952      2847      2955      3135
 -1      9067    3    0    1
 -2      2981      2929      1472      3135
 -1      9068    3    0    1
 -2      1449       354      3011      3142
 -1      9069    3    0    1
 -2        60      1195      3016      3040
 -1      9070    3    0    1
 -2      1255      2344      1421      3008
 -1      9071    3    0    1
 -2      3136      3108      3009      3039
 -1      9072    3    0    1
 -2      1255      1002      2344      3008
 -1      9073    3    0    1
 -2         2      1467      1496      1508
 -1      9074    3    0    1
 -2      3017      2994      3044      3065
 -1      9075    3    0    1
 -2       479       480       490      3041
 -1      9076    3    0    1
 -2      2944      2950      1457      3146
 -1      9077    3    0    1
 -2      3112       226      3119      1483
 -1      9078    3    0    1
 -2      3107      3112      3119      1483
 -1      9079    3    0    1
 -2       244       226      3112      1483
 -1      9080    3    0    1
 -2       244      3112      1482      1483
 -1      9081    3    0    1
 -2      3111      1449      3141      3151
 -1      9082    3    0    1
 -2      3008      3111      3141      3151
 -1      9083    3    0    1
 -2      1447      3116      3133      3137
 -1      9084    3    0    1
 -2      1447      3133      3006      3137
 -1      9085    3    0    1
 -2      2937      3114      3133      3137
 -1      9086    3    0    1
 -2      3114      2937      3116      3137
 -1      9087    3    0    1
 -2      3116      2937      3133      3137
 -1      9088    3    0    1
 -2       191      1447      3006      3137
 -1      9089    3    0    1
 -2      1448      2936      3106      3138
 -1      9090    3    0    1
 -2      3106      2936      3113      3138
 -1      9091    3    0    1
 -2      1448      3106      3113      3138
 -1      9092    3    0    1
 -2       388      1461      2987      3138
 -1      9093    3    0    1
 -2      2952      2955      3099      3139
 -1      9094    3    0    1
 -2      2358      2068      2929      3139
 -1      9095    3    0    1
 -2      3099      2916      3132      3139
 -1      9096    3    0    1
 -2      2916      2068      3132      3139
 -1      9097    3    0    1
 -2      2068      2358      1454      3139
 -1      9098    3    0    1
 -2      2068      1454      3132      3139
 -1      9099    3    0    1
 -2      2847      2955      3135      3139
 -1      9100    3    0    1
 -2      2929      2847      3135      3139
 -1      9101    3    0    1
 -2      2847      2929      2955      3139
 -1      9102    3    0    1
 -2      2068      2916      2955      3139
 -1      9103    3    0    1
 -2      1293      3019      3054      3076
 -1      9104    3    0    1
 -2      2358      2929      2981      3139
 -1      9105    3    0    1
 -2      2985       522      3016      3050
 -1      9106    3    0    1
 -2      1016      1266      2990      3140
 -1      9107    3    0    1
 -2      2990      1266      2997      3140
 -1      9108    3    0    1
 -2      1430      1266      3118      3140
 -1      9109    3    0    1
 -2      1266      1016      3118      3140
 -1      9110    3    0    1
 -2      2997       665      2998      3140
 -1      9111    3    0    1
 -2      1446       364      1455      3140
 -1      9112    3    0    1
 -2      1430      1455      2997      3140
 -1      9113    3    0    1
 -2      1266      1430      2997      3140
 -1      9114    3    0    1
 -2      1423      1016      2990      3140
 -1      9115    3    0    1
 -2      1455      1471      2997      3140
 -1      9116    3    0    1
 -2      1471      1446      2998      3140
 -1      9117    3    0    1
 -2       665      1471      2998      3140
 -1      9118    3    0    1
 -2      1471       665      2997      3140
 -1      9119    3    0    1
 -2      1455       364      1471      3140
 -1      9120    3    0    1
 -2       364      1446      1471      3140
 -1      9121    3    0    1
 -2      3136       377      1485      1486
 -1      9122    3    0    1
 -2      1428      2964      3122      3148
 -1      9123    3    0    1
 -2       717      1280      3059      3071
 -1      9124    3    0    1
 -2      1453       244      1482      1499
 -1      9125    3    0    1
 -2       382       379      3147      3043
 -1      9126    3    0    1
 -2      1442      1419      1443      3050
 -1      9127    3    0    1
 -2      1069      1425      1439      3042
 -1      9128    3    0    1
 -2       241       761      2983      3010
 -1      9129    3    0    1
 -2      1431      1449      3032      3048
 -1      9130    3    0    1
 -2      2950      3100      1457      3146
 -1      9131    3    0    1
 -2      1022       691      3004      3055
 -1      9132    3    0    1
 -2      1061       241      2983      3010
 -1      9133    3    0    1
 -2       761      2983      3010      3042
 -1      9134    3    0    1
 -2      3113      1448      3138      1489
 -1      9135    3    0    1
 -2      1448        39      3138      1489
 -1      9136    3    0    1
 -2        39       388      3138      1489
 -1      9137    3    0    1
 -2      3138       388      1488      1489
 -1      9138    3    0    1
 -2      3111      1452      3125      3141
 -1      9139    3    0    1
 -2       191      1447      3137      1506
 -1      9140    3    0    1
 -2       647       996      2995      3031
 -1      9141    3    0    1
 -2      3114      1447      3116      1506
 -1      9142    3    0    1
 -2      2197      3111      3125      3141
 -1      9143    3    0    1
 -2      2968      2197      3125      3141
 -1      9144    3    0    1
 -2      1421      3141      1503      1504
 -1      9145    3    0    1
 -2      2752      2344      3008      3141
 -1      9146    3    0    1
 -2      2344      2752      2968      3141
 -1      9147    3    0    1
 -2      2752      2197      2968      3141
 -1      9148    3    0    1
 -2       604       599       610      3012
 -1      9149    3    0    1
 -2       604       610       977      3012
 -1      9150    3    0    1
 -2      3098      3001      3005      3029
 -1      9151    3    0    1
 -2      1215       573      2994      3017
 -1      9152    3    0    1
 -2       599       600       610      3012
 -1      9153    3    0    1
 -2       970       108       972      3012
 -1      9154    3    0    1
 -2       977      3012      3067      3068
 -1      9155    3    0    1
 -2       972       599       970      3012
 -1      9156    3    0    1
 -2       114       108       970      3012
 -1      9157    3    0    1
 -2       374      3123      3146      3152
 -1      9158    3    0    1
 -2      3141       352      1452      1503
 -1      9159    3    0    1
 -2       254      2978      3007      3037
 -1      9160    3    0    1
 -2       599       972       600      3012
 -1      9161    3    0    1
 -2       977      1233      3012      3068
 -1      9162    3    0    1
 -2      1449       354      1504      1505
 -1      9163    3    0    1
 -2       996       154      2995      3031
 -1      9164    3    0    1
 -2       352      1452      1503      1513
 -1      9165    3    0    1
 -2       352      3141      1452      3142
 -1      9166    3    0    1
 -2      1467      1433      1469      3143
 -1      9167    3    0    1
 -2      1469      1433      3126      3143
 -1      9168    3    0    1
 -2      2941      2970      3122      3143
 -1      9169    3    0    1
 -2      1467      2941      3122      3143
 -1      9170    3    0    1
 -2         1      1469      3126      3143
 -1      9171    3    0    1
 -2         1      1467      1469      3143
 -1      9172    3    0    1
 -2      2892      2866      2970      3143
 -1      9173    3    0    1
 -2      2941      2892      2970      3143
 -1      9174    3    0    1
 -2      2716      2866      2892      3143
 -1      9175    3    0    1
 -2      2911      2892      2941      3143
 -1      9176    3    0    1
 -2      2983      1069      3025      3042
 -1      9177    3    0    1
 -2       480       479       910      3041
 -1      9178    3    0    1
 -2      1443      1485      1487      3051
 -1      9179    3    0    1
 -2      1443      1413      1485      3051
 -1      9180    3    0    1
 -2       642      2995      3014      3048
 -1      9181    3    0    1
 -2       916      1174       490      3041
 -1      9182    3    0    1
 -2      1197      1413      3050      3051
 -1      9183    3    0    1
 -2      3032      1431      1255      1421
 -1      9184    3    0    1
 -2       940      2985      3040      3051
 -1      9185    3    0    1
 -2       522        60      2985      3016
 -1      9186    3    0    1
 -2       479       490       483      3041
 -1      9187    3    0    1
 -2      1197       940      1413      3051
 -1      9188    3    0    1
 -2        60      1195      2985      3016
 -1      9189    3    0    1
 -2      1443      1419      3128      3050
 -1      9190    3    0    1
 -2      2911      2847      2947      3144
 -1      9191    3    0    1
 -2       274      1472      3015      3144
 -1      9192    3    0    1
 -2       545      3002      3022      3045
 -1      9193    3    0    1
 -2      3022      3002      3035      3045
 -1      9194    3    0    1
 -2      2994       964      3065      3017
 -1      9195    3    0    1
 -2      1448      1417      3106      3074
 -1      9196    3    0    1
 -2      1478       545      3022      3045
 -1      9197    3    0    1
 -2      1061       241      3010      3018
 -1      9198    3    0    1
 -2       766       767      1308      3018
 -1      9199    3    0    1
 -2       245       762      3010      3018
 -1      9200    3    0    1
 -2       245      1061      1308      3018
 -1      9201    3    0    1
 -2       766      1061      2983      3018
 -1      9202    3    0    1
 -2      1061       766      1308      3018
 -1      9203    3    0    1
 -2       245       241      1061      3018
 -1      9204    3    0    1
 -2       241       245      3010      3018
 -1      9205    3    0    1
 -2       778       766      2983      3018
 -1      9206    3    0    1
 -2      1434      1436      1497      3153
 -1      9207    3    0    1
 -2       374       360      3123      1498
 -1      9208    3    0    1
 -2      3123       360      1497      1498
 -1      9209    3    0    1
 -2       972       600      3012      3067
 -1      9210    3    0    1
 -2      1409      3132      3038      3056
 -1      9211    3    0    1
 -2      3123      3100      3146      3152
 -1      9212    3    0    1
 -2      1495      1461      1512      3072
 -1      9213    3    0    1
 -2      1055      1298      1435      3152
 -1      9214    3    0    1
 -2      1055      1435      1440      3152
 -1      9215    3    0    1
 -2      3019       738      3054      3081
 -1      9216    3    0    1
 -2       747      1055      1298      3019
 -1      9217    3    0    1
 -2      3004       689      3049      3077
 -1      9218    3    0    1
 -2      1440      1457      3119      3152
 -1      9219    3    0    1
 -2      1431      1255      1421      3151
 -1      9220    3    0    1
 -2      1435      3123      1498      3152
 -1      9221    3    0    1
 -2      2950      2488      3119      3152
 -1      9222    3    0    1
 -2      1457      1435      1498      3152
 -1      9223    3    0    1
 -2      1435      1298      3123      3152
 -1      9224    3    0    1
 -2      1298      2488      2943      3152
 -1      9225    3    0    1
 -2      1491      1447      3049      3077
 -1      9226    3    0    1
 -2      1275      3004      3070      3077
 -1      9227    3    0    1
 -2      1422      1275      3070      3077
 -1      9228    3    0    1
 -2       276      1325      2989      3020
 -1      9229    3    0    1
 -2      3115       358      3000      3028
 -1      9230    3    0    1
 -2       953      1209       556      3035
 -1      9231    3    0    1
 -2      1153       451       452      3021
 -1      9232    3    0    1
 -2      3002       556       953       562
 -1      9233    3    0    1
 -2      3141      1449      3142      1504
 -1      9234    3    0    1
 -2       114       108      3012      3030
 -1      9235    3    0    1
 -2      1436      2910      2993      3146
 -1      9236    3    0    1
 -2      2910      2944      2993      3146
 -1      9237    3    0    1
 -2      1476       382      1477      3147
 -1      9238    3    0    1
 -2       945       947      3002      3022
 -1      9239    3    0    1
 -2      1411      1438      3131      3046
 -1      9240    3    0    1
 -2      1243       627      3036      3066
 -1      9241    3    0    1
 -2      1460      1414      3129      3060
 -1      9242    3    0    1
 -2       623       624       634      3036
 -1      9243    3    0    1
 -2        74       545      3002      3022
 -1      9244    3    0    1
 -2      1418      1441      1448      3061
 -1      9245    3    0    1
 -2       947        74      3002      3022
 -1      9246    3    0    1
 -2       947        73        74      3022
 -1      9247    3    0    1
 -2        73       947       945      3022
 -1      9248    3    0    1
 -2      1461      3096      3138      3148
 -1      9249    3    0    1
 -2      3122      1461      1495      3148
 -1      9250    3    0    1
 -2      1461      3122      1495      3145
 -1      9251    3    0    1
 -2      1174      1929      1428      3148
 -1      9252    3    0    1
 -2       916      1174      1428      3148
 -1      9253    3    0    1
 -2      1174       916      1929      3148
 -1      9254    3    0    1
 -2       388      3138      1488      3148
 -1      9255    3    0    1
 -2      1461       388      1488      3148
 -1      9256    3    0    1
 -2       388      1461      3138      3148
 -1      9257    3    0    1
 -2      2963      2577      2964      3148
 -1      9258    3    0    1
 -2      1929      2963      2964      3148
 -1      9259    3    0    1
 -2      1929      2732      2963      3148
 -1      9260    3    0    1
 -2      1416      3148      3072      3075
 -1      9261    3    0    1
 -2      1469      1467      1475      3063
 -1      9262    3    0    1
 -2       922        42      3024      3062
 -1      9263    3    0    1
 -2       497      3003      3024      3061
 -1      9264    3    0    1
 -2        47       497      3003      3024
 -1      9265    3    0    1
 -2      1433      1467      1469      3063
 -1      9266    3    0    1
 -2      1453      3010      1499      3025
 -1      9267    3    0    1
 -2       754       747       740      3076
 -1      9268    3    0    1
 -2       117       356      1474      3149
 -1      9269    3    0    1
 -2      1473       117      1474      3149
 -1      9270    3    0    1
 -2      3130      1452      3023      3150
 -1      9271    3    0    1
 -2      3121      3127      3149      3150
 -1      9272    3    0    1
 -2      3130      3125      3121      2197
 -1      9273    3    0    1
 -2      3125      3130      3121      3150
 -1      9274    3    0    1
 -2      2969      3121      3130      3150
 -1      9275    3    0    1
 -2      3121      2969      3127      3150
 -1      9276    3    0    1
 -2      3127      2969      3130      3150
 -1      9277    3    0    1
 -2       356       117      3023      3150
 -1      9278    3    0    1
 -2       117      1470      3023      3150
 -1      9279    3    0    1
 -2      1452       356      3023      3150
 -1      9280    3    0    1
 -2      1429      1467      3063      3064
 -1      9281    3    0    1
 -2      1743      1094      2716      3026
 -1      9282    3    0    1
 -2      2716      1094      1432      3026
 -1      9283    3    0    1
 -2      1467      1496      1508      3064
 -1      9284    3    0    1
 -2       964      2994      3065      1221
 -1      9285    3    0    1
 -2      1411       964      3046      3065
 -1      9286    3    0    1
 -2      1221       964      1411      3065
 -1      9287    3    0    1
 -2       449      3027      1508      3064
 -1      9288    3    0    1
 -2      3021       906      3034      3064
 -1      9289    3    0    1
 -2        14       449      3021      3027
 -1      9290    3    0    1
 -2         3       898      1153      3027
 -1      9291    3    0    1
 -2         3        14       898      3027
 -1      9292    3    0    1
 -2       898        14      3021      3027
 -1      9293    3    0    1
 -2      1437       977      1444      3068
 -1      9294    3    0    1
 -2      1480      1470      1502      3068
 -1      9295    3    0    1
 -2      1233       977      1437      3068
 -1      9296    3    0    1
 -2      1444      1470      3127      3069
 -1      9297    3    0    1
 -2      1444      3127      3068      3069
 -1      9298    3    0    1
 -2       593       114      3012      3030
 -1      9299    3    0    1
 -2      3012       593      3030      3068
 -1      9300    3    0    1
 -2      3127      1470      3068      3069
 -1      9301    3    0    1
 -2      3004      3049      3055      3070
 -1      9302    3    0    1
 -2      1437      1470      1480      3068
 -1      9303    3    0    1
 -2       352      3141      3142      1504
 -1      9304    3    0    1
 -2       354       352      3142      1504
 -1      9305    3    0    1
 -2      1255       651      2995      3031
 -1      9306    3    0    1
 -2       651       647      2995      3031
 -1      9307    3    0    1
 -2      2995       154      3014      3031
 -1      9308    3    0    1
 -2      1426      3114      3116      1506
 -1      9309    3    0    1
 -2      2995      1255      3048      1002
 -1      9310    3    0    1
 -2      1447      1426      3116      1506
 -1      9311    3    0    1
 -2       154       641      3014      3031
 -1      9312    3    0    1
 -2      1447      3114      3137      1506
 -1      9313    3    0    1
 -2      1460      3129      3045      3060
 -1      9314    3    0    1
 -2       108      3012      3030      3067
 -1      9315    3    0    1
 -2      3137       191      1506      1507
 -1      9316    3    0    1
 -2       191       199      3137      3033
 -1      9317    3    0    1
 -2      1436      2976      3137      3033
 -1      9318    3    0    1
 -2       199      1436      3137      3033
 -1      9319    3    0    1
 -2      3131      1411      3046      3065
 -1      9320    3    0    1
 -2      1415      1411      3131      3065
 -1      9321    3    0    1
 -2      1458      1415      1484      3065
 -1      9322    3    0    1
 -2      1415      3131      3046      3065
 -1      9323    3    0    1
 -2       459       906      1160      3034
 -1      9324    3    0    1
 -2      1432      1410      1472      3154
 -1      9325    3    0    1
 -2      1743      2952      3135      3154
 -1      9326    3    0    1
 -2      1432      1468      3126      3154
 -1      9327    3    0    1
 -2      3126       274      3144      3154
 -1      9328    3    0    1
 -2      3021       459       906       466
 -1      9329    3    0    1
 -2       459      3021       906      3034
 -1      9330    3    0    1
 -2      1468       274      3126      3154
 -1      9331    3    0    1
 -2         3       450      3027      3034
 -1      9332    3    0    1
 -2      1743      1094      3026      3154
 -1      9333    3    0    1
 -2      1410      1743      3135      3154
 -1      9334    3    0    1
 -2      1468      1432      1472      3154
 -1      9335    3    0    1
 -2        73       546      3022      3035
 -1      9336    3    0    1
 -2      1415      1481      1500      3046
 -1      9337    3    0    1
 -2       624       623       986      3036
 -1      9338    3    0    1
 -2      1447      1506      1519      3070
 -1      9339    3    0    1
 -2      1513       618      3057      3079
 -1      9340    3    0    1
 -2       127       132       984      3036
 -1      9341    3    0    1
 -2      2804      2943      3100      3058
 -1      9342    3    0    1
 -2       723       717      3059      3071
 -1      9343    3    0    1
 -2      2804      1436      3133      3058
 -1      9344    3    0    1
 -2      1460      3022      1509      3060
 -1      9345    3    0    1
 -2      3030      3067      3068      3069
 -1      9346    3    0    1
 -2      1002      1431      3102      3151
 -1      9347    3    0    1
 -2      1431      1449      1456      3151
 -1      9348    3    0    1
 -2      3102      1431      1456      3151
 -1      9349    3    0    1
 -2      1255      1002      3008      3151
 -1      9350    3    0    1
 -2      1421      1255      3008      3151
 -1      9351    3    0    1
 -2      1764      3111      3008      3151
 -1      9352    3    0    1
 -2      1764      1449      3111      3151
 -1      9353    3    0    1
 -2      2718      3102      3008      3151
 -1      9354    3    0    1
 -2      1002      2718      3008      3151
 -1      9355    3    0    1
 -2      2718      1002      3102      3151
 -1      9356    3    0    1
 -2      3103      3102      1456      3151
 -1      9357    3    0    1
 -2       363      3103      1456      3151
 -1      9358    3    0    1
 -2      3103       363      1449      3151
 -1      9359    3    0    1
 -2      1449       363      1456      3151
 -1      9360    3    0    1
 -2      1764      2928      3086      3151
 -1      9361    3    0    1
 -2      3086      3102      3151      2928
 -1      9362    3    0    1
 -2      3086      3103      1449      3151
 -1      9363    3    0    1
 -2      1764      3086      1449      3151
 -1      9364    3    0    1
 -2      2928      1764      3008      3151
 -1      9365    3    0    1
 -2        56      1193      1195      3040
 -1      9366    3    0    1
 -2      1195       526      2985      3040
 -1      9367    3    0    1
 -2      1193       526      1195      3040
 -1      9368    3    0    1
 -2      1332      2989      3052      3053
 -1      9369    3    0    1
 -2        56        60      3016      3040
 -1      9370    3    0    1
 -2        60        56      1195      3040
 -1      9371    3    0    1
 -2       526       532      2985      3040
 -1      9372    3    0    1
 -2      1449      3014      3032      3048
 -1      9373    3    0    1
 -2      3024      3061      3062      3074
 -1      9374    3    0    1
 -2      1431      3032      1255      3048
 -1      9375    3    0    1
 -2      3048      1255      1431      1002
 -1      9376    3    0    1
 -2       984       127      3057      3066
 -1      9377    3    0    1
 -2       498      3024      3062      3074
 -1      9378    3    0    1
 -2      3054       737      3076      3080
 -1      9379    3    0    1
 -2        93       569      3017      3044
 -1      9380    3    0    1
 -2       480       490      3041      3073
 -1      9381    3    0    1
 -2      1215        93      3017      3044
 -1      9382    3    0    1
 -2      3036      1243      3079       990
 -1      9383    3    0    1
 -2       570       103      2994      3044
 -1      9384    3    0    1
 -2       714      1520      3078      3083
 -1      9385    3    0    1
 -2      1507      1436      1520      3083
 -1      9386    3    0    1
 -2      1500       569      3044      3046
 -1      9387    3    0    1
 -2      1415      1500      3044      3046
 -1      9388    3    0    1
 -2      3047      3041      3072      3073
 -1      9389    3    0    1
 -2       747      3076      1055      3019
 -1      9390    3    0    1
 -2      1417      1448      1489      3074
 -1      9391    3    0    1
 -2       474        18      3041      3047
 -1      9392    3    0    1
 -2      3152      3080      1435      1440
 -1      9393    3    0    1
 -2      3024      1448      3061      3074
 -1      9394    3    0    1
 -2      1449      1462      3014      3048
 -1      9395    3    0    1
 -2      3031      1255      3032      3048
 -1      9396    3    0    1
 -2      1280      3059      3071      3078
 -1      9397    3    0    1
 -2       600       610      3012      3067
 -1      9398    3    0    1
 -2       610       977      3012      3067
 -1      9399    3    0    1
 -2      1409      1476      1514      3056
 -1      9400    3    0    1
 -2      3007       785      3037      3056
 -1      9401    3    0    1
 -2       689       180      3004      3049
 -1      9402    3    0    1
 -2      2358      1454      3139      1514
 -1      9403    3    0    1
 -2      2981      2358      3139      1514
 -1      9404    3    0    1
 -2       382      1476      1510      1514
 -1      9405    3    0    1
 -2       522      1466      3016      3050
 -1      9406    3    0    1
 -2      1466      1443      3016      3050
 -1      9407    3    0    1
 -2      3020      1472      3052      3053
 -1      9408    3    0    1
 -2      1487       521      3016      3051
 -1      9409    3    0    1
 -2      1443      1487      3016      3051
 -1      9410    3    0    1
 -2      2985      1197      3050      3051
 -1      9411    3    0    1
 -2      1472      1468      1515      3052
 -1      9412    3    0    1
 -2      1332      2988      3052      2989
 -1      9413    3    0    1
 -2      1332      1094      1432      3052
 -1      9414    3    0    1
 -2      3054      1457      3080      3081
 -1      9415    3    0    1
 -2       809      3020      1515      3052
 -1      9416    3    0    1
 -2      3020      1472      1515      3052
 -1      9417    3    0    1
 -2      3020       810      1516      3053
 -1      9418    3    0    1
 -2      1472      3020      1516      3053
 -1      9419    3    0    1
 -2      1428      1461      1495      3072
 -1      9420    3    0    1
 -2      3041       474      3047      3072
 -1      9421    3    0    1
 -2       738       217      3019      3054
 -1      9422    3    0    1
 -2      3004      3049      3070      3077
 -1      9423    3    0    1
 -2      1055      1298      3019      3081
 -1      9424    3    0    1
 -2       217      1293      3019      3054
 -1      9425    3    0    1
 -2      1463      1447      1491      3077
 -1      9426    3    0    1
 -2       217       219      1291      3054
 -1      9427    3    0    1
 -2       217      1291      1293      3054
 -1      9428    3    0    1
 -2      3123       374      1498      3152
 -1      9429    3    0    1
 -2      1457       374      3146      3152
 -1      9430    3    0    1
 -2       374      1457      1498      3152
 -1      9431    3    0    1
 -2      2943      2488      2950      3152
 -1      9432    3    0    1
 -2      1510      3007      1514      3056
 -1      9433    3    0    1
 -2      3007      1454      1514      3056
 -1      9434    3    0    1
 -2      1440      1457      3152      3080
 -1      9435    3    0    1
 -2      1427      1434      3153      3083
 -1      9436    3    0    1
 -2       132       618      3036      3057
 -1      9437    3    0    1
 -2      1457      1440      1483      3080
 -1      9438    3    0    1
 -2      3129      1412      3045      3060
 -1      9439    3    0    1
 -2      3022      1460      3045      3060
 -1      9440    3    0    1
 -2      1414      1412      3129      3060
 -1      9441    3    0    1
 -2      1414      1460      1486      3060
 -1      9442    3    0    1
 -2      1452      1503      1513      3079
 -1      9443    3    0    1
 -2       202      1037      1280      3059
 -1      9444    3    0    1
 -2      3057      1452      3079      3082
 -1      9445    3    0    1
 -2      1037       717      1280      3059
 -1      9446    3    0    1
 -2      1427      3114      1507      3153
 -1      9447    3    0    1
 -2       204       202      1280      3059
 -1      9448    3    0    1
 -2      3076       747      1055       754
 -1      9449    3    0    1
 -2      1243      1420      1445      3082
 -1      9450    3    0    1
 -2      2943      3100      3058      3153
 -1      9451    3    0    1
 -2      3100      2943      3123      3153
 -1      9452    3    0    1
 -2      2943      2891      3123      3153
 -1      9453    3    0    1
 -2      1286      2668      1427      3153
 -1      9454    3    0    1
 -2      2668      1286      2891      3153
 -1      9455    3    0    1
 -2      1043      1286      1434      3153
 -1      9456    3    0    1
 -2      1286      1043      2891      3153
 -1      9457    3    0    1
 -2      2891      1043      1434      3153
 -1      9458    3    0    1
 -2      3123       360      3146      3153
 -1      9459    3    0    1
 -2       360      1436      3146      3153
 -1      9460    3    0    1
 -2      2668      2891      3058      3153
 -1      9461    3    0    1
 -2      2967      2668      3058      3153
 -1      9462    3    0    1
 -2      2891      2943      3058      3153
 -1      9463    3    0    1
 -2      1418      1448      3106      3061
 -1      9464    3    0    1
 -2      3047       473      3073      3075
 -1      9465    3    0    1
 -2      1479       497      3024      3061
 -1      9466    3    0    1
 -2      1448      1479      3024      3061
 -1      9467    3    0    1
 -2      3148      1461      3072      3075
 -1      9468    3    0    1
 -2      1185      3003      3061      3062
 -1      9469    3    0    1
 -2      3003      1185      3061       929
 -1      9470    3    0    1
 -2        42       498      3024      3062
 -1      9471    3    0    1
 -2       916      3072      3073      3075
 -1      9472    3    0    1
 -2      1461      1416      1488      3075
 -1      9473    3    0    1
 -2      1435      3080      1055      1440
 -1      9474    3    0    1
 -2      1475      1467      3027      3063
 -1      9475    3    0    1
 -2      3093      3126      3144      3154
 -1      9476    3    0    1
 -2      1332      1410      1432      3154
 -1      9477    3    0    1
 -2      1332      1743      1410      3154
 -1      9478    3    0    1
 -2      1094      1332      1432      3154
 -1      9479    3    0    1
 -2      1332      1094      1743      3154
 -1      9480    3    0    1
 -2      2952      2847      3135      3154
 -1      9481    3    0    1
 -2      2847      2947      3093      3154
 -1      9482    3    0    1
 -2      3093      2947      3026      3154
 -1      9483    3    0    1
 -2      1472      2847      3144      3154
 -1      9484    3    0    1
 -2      2847      3093      3144      3154
 -1      9485    3    0    1
 -2      2952      1743      3026      3154
 -1      9486    3    0    1
 -2      2847      2952      3026      3154
 -1      9487    3    0    1
 -2      2947      2847      3026      3154
 -1      9488    3    0    1
 -2       570      1484      3044      3065
 -1      9489    3    0    1
 -2      1484      1415      3044      3065
 -1      9490    3    0    1
 -2       964      3017      3046      3065
 -1      9491    3    0    1
 -2       127       617      3057      3066
 -1      9492    3    0    1
 -2      1436      1427      3153      3083
 -1      9493    3    0    1
 -2      1457       374      1498      1521
 -1      9494    3    0    1
 -2      1437      1444      3127      3068
 -1      9495    3    0    1
 -2       593      1502      3030      3068
 -1      9496    3    0    1
 -2      1502      1470      3030      3068
 -1      9497    3    0    1
 -2      1436       199      1507      1520
 -1      9498    3    0    1
 -2      1470      1493      3030      3069
 -1      9499    3    0    1
 -2      1031      3004      3055      3070
 -1      9500    3    0    1
 -2       204       202      3059      3078
 -1      9501    3    0    1
 -2      3059      3071      3078      3084
 -1      9502    3    0    1
 -2      1422      1031      1426      3070
 -1      9503    3    0    1
 -2      1426      1447      3116      3070
 -1      9504    3    0    1
 -2      1422      1426      3116      3070
 -1      9505    3    0    1
 -2      1031      1275      3004      3070
 -1      9506    3    0    1
 -2      1275      1031      1422      3070
 -1      9507    3    0    1
 -2       690      3049      1519      3070
 -1      9508    3    0    1
 -2      3049      1447      1519      3070
 -1      9509    3    0    1
 -2      1452      1420      1503      3079
 -1      9510    3    0    1
 -2      1243      3036      3079      3066
 -1      9511    3    0    1
 -2      1436      1434      1497      3084
 -1      9512    3    0    1
 -2      3071       714      3078      3083
 -1      9513    3    0    1
 -2      1428      1416      3148      3072
 -1      9514    3    0    1
 -2       474      1512      3047      3072
 -1      9515    3    0    1
 -2      1512      1461      3047      3072
 -1      9516    3    0    1
 -2        18       912      3041      3073
 -1      9517    3    0    1
 -2       473        28      3047      3073
 -1      9518    3    0    1
 -2        18        28       912      3073
 -1      9519    3    0    1
 -2      1457      3152      3080      3081
 -1      9520    3    0    1
 -2        28        18      3047      3073
 -1      9521    3    0    1
 -2      1492       473      3047      3075
 -1      9522    3    0    1
 -2      1461      1492      3047      3075
 -1      9523    3    0    1
 -2      1298      1055      1435      3081
 -1      9524    3    0    1
 -2       747       741       740      3076
 -1      9525    3    0    1
 -2       740      1293      1291      3076
 -1      9526    3    0    1
 -2       737       219      3054      3076
 -1      9527    3    0    1
 -2      1293       741      3019      3076
 -1      9528    3    0    1
 -2      1293       740       741      3076
 -1      9529    3    0    1
 -2      1055      3019      3080      3081
 -1      9530    3    0    1
 -2      1457      1435      3152      3081
 -1      9531    3    0    1
 -2       741       747      3019      3076
 -1      9532    3    0    1
 -2      3059      1043      3071      3084
 -1      9533    3    0    1
 -2       202       713      3059      3078
 -1      9534    3    0    1
 -2      1286      1434      3071      3084
 -1      9535    3    0    1
 -2       714       204      3071      3078
 -1      9536    3    0    1
 -2       713      3059      3078      3084
 -1      9537    3    0    1
 -2       204      1280      3071      3078
 -1      9538    3    0    1
 -2       617      3057      3066      3082
 -1      9539    3    0    1
 -2      1511       737      3054      3080
 -1      9540    3    0    1
 -2      1457      1511      3054      3080
 -1      9541    3    0    1
 -2      1445      1452      1474      3082
 -1      9542    3    0    1
 -2      3080      3152      1435      3081
 -1      9543    3    0    1
 -2      1435      3080      3081      1055
 -1      9544    3    0    1
 -2      3054       738      1521      3081
 -1      9545    3    0    1
 -2      1457      3054      1521      3081
 -1      9546    3    0    1
 -2       617      1501      3057      3082
 -1      9547    3    0    1
 -2      1501      1452      3057      3082
 -1      9548    3    0    1
 -2      1520      1436      3078      3083
 -1      9549    3    0    1
 -2      1043      1286      3071      3084
 -1      9550    3    0    1
 -2      1286      1043      1434      3084
 -1      9551    3    0    1
 -2      1436      3078      3083      3084
 -1      9552    3    0    1
 -2      3083      1434      3071      1427
 -1      9553    3    0    1
 -2      1434      3083      3071      3084
 -1      9554    3    0    1
 -2      1434      1436      3153      3084
 -1      9555    3    0    1
 -2      3153      1436      3083      3084
 -1      9556    3    0    1
 -2      1434      3153      3083      3084
 -1      9557    3    0    1
 -2      1517       713      3078      3084
 -1      9558    3    0    1
 -2      1436      1517      3078      3084
 -3
    1PSTEP                         1           1           1          
  100CL  101 1.000000000        3154                     0    1           1
 -4  DISP        4    1
 -5  D1          1    2    1    0
 -5  D2          1    2    2    0
 -5  D3          1    2    3    0
 -5  ALL         1    2    0    0    1ALL
 -1         1-3.07044E-03 2.97263E-04-5.32208E-02
 -1         2-3.08672E-03-4.60410E-04-5.35550E-02
 -1         3 7.06204E-03-3.93273E-04-5.47386E-02
 -1         4-3.71262E-03 2.72619E-04-8.52812E-02
 -1         5 1.71319E-03 3.86516E-04-8.05345E-02
 -1         6-3.62406E-03 2.32348E-04-8.51099E-02
 -1         7-5.28716E-03 5.77112E-04-8.47586E-02
 -1         8-5.22889E-03-6.60824E-05-8.47627E-02
 -1         9-4.14952E-03-1.41533E-04-5.98537E-02
 -1        10-1.34734E-02-3.88699E-05-6.09945E-02
 -1        11 1.77746E-03-3.84678E-05-8.05280E-02
 -1        12-2.76351E-03 5.03727E-05-8.57581E-02
 -1        13-1.35498E-02 3.56407E-04-6.10548E-02
 -1        14 6.83800E-03-1.68338E-04-5.48203E-02
 -1        15-3.35155E-03 1.24908E-04-8.11463E-02
 -1        16 9.78338E-04-6.35532E-05-8.08678E-02
 -1        17 8.28446E-04 4.07934E-04-8.10317E-02
 -1        18 9.22492E-03-4.89196E-03-5.34971E-02
 -1        19-2.27640E-03-7.41164E-03-8.10193E-02
 -1        20 4.34293E-03-5.30173E-03-7.25271E-02
 -1        21 4.11017E-03-5.67310E-03-7.69474E-02
 -1        22-8.49368E-04-6.61797E-03-7.61676E-02
 -1        23-3.43149E-03-2.13809E-03-5.53227E-02
 -1        24-9.81619E-03-8.70488E-03-5.91032E-02
 -1        25-1.05744E-02-8.95807E-03-5.60179E-02
 -1        26-2.19732E-03-6.86425E-03-7.76645E-02
 -1        27-2.26346E-03-1.83079E-03-7.85104E-02
 -1        28 9.06303E-03-4.81284E-03-4.79088E-02
 -1        29-2.86197E-03-1.32128E-03-7.77040E-02
 -1        30 3.47825E-03-5.93565E-03-7.94655E-02
 -1        31 3.57222E-03-5.56828E-03-7.06907E-02
 -1        32-2.74441E-03-1.69563E-03-7.31044E-02
 -1        33-2.08860E-03-1.58063E-03-8.20474E-02
 -1        34-1.19645E-03-6.95915E-03-8.32405E-02
 -1        35-2.30912E-03-1.46641E-03-8.36257E-02
 -1        36-2.00633E-03-1.98581E-03-7.69383E-02
 -1        37-2.96386E-03-1.07250E-03-7.98306E-02
 -1        38-2.38239E-03-1.87580E-03-7.04504E-02
 -1        39-2.21031E-03-1.25567E-03-4.42604E-02
 -1        40 5.84573E-03-1.07465E-02-5.70562E-02
 -1        41 6.17255E-03-1.10198E-02-6.46684E-02
 -1        42 1.51900E-02-7.95081E-03-4.40762E-02
 -1        43 1.13312E-04-1.29028E-02-4.79833E-02
 -1        44-3.35450E-04-1.28796E-02-4.24330E-02
 -1        45-1.55571E-03-2.13114E-03-6.20457E-02
 -1        46-3.45289E-04-2.50751E-03-5.79966E-02
 -1        47 1.49850E-02-8.03598E-03-3.26678E-02
 -1        48 1.04175E-02-8.39934E-03-6.15997E-02
 -1        49 9.91739E-03-8.85185E-03-6.62420E-02
 -1        50 9.93210E-03-8.62562E-03-4.86095E-02
 -1        51 1.03376E-02-8.16858E-03-5.27166E-02
 -1        52 6.77416E-03-1.04838E-02-6.87898E-02
 -1        53 6.40339E-03-1.02517E-02-5.36449E-02
 -1        54-1.78484E-03-2.00916E-03-6.67663E-02
 -1        55-4.67368E-05-2.44038E-03-5.44300E-02
 -1        56 2.11455E-02-5.56589E-03-1.16689E-02
 -1        57 1.32999E-02-7.14226E-03-2.29062E-02
 -1        58 1.61557E-02-6.16755E-03-1.87679E-02
 -1        59 1.28467E-02-7.60429E-03-2.74862E-02
 -1        60 2.11918E-02-5.52075E-03-2.72059E-02
 -1        61 7.93860E-03-9.22250E-03-1.95957E-02
 -1        62 1.65088E-02-5.89214E-03-3.60484E-02
 -1        63 7.93913E-03-9.30316E-03-2.55567E-02
 -1        64 1.33429E-02-7.52849E-03-3.69666E-02
 -1        65 1.63709E-02-5.83966E-03-2.43079E-02
 -1        66-1.56831E-05-1.65126E-03-3.63941E-02
 -1        67 4.71756E-04-1.33570E-03-1.83341E-02
 -1        68 3.00501E-04-1.41804E-03-2.44416E-02
 -1        69 1.35585E-02-7.15079E-03-4.19139E-02
 -1        70 1.13116E-03-1.76095E-03-3.72603E-02
 -1        71 7.94422E-04-2.07035E-03-4.14008E-02
 -1        72 1.62801E-02-6.20741E-03-4.18949E-02
 -1        73 2.28731E-02 5.45441E-04-5.52359E-03
 -1        74 2.28328E-02 1.84563E-04 1.07975E-02
 -1        75 1.65336E-02 4.40955E-04 5.79997E-03
 -1        76 1.25417E-02 4.34762E-04-3.80852E-03
 -1        77 1.25726E-02 9.97864E-05 3.56789E-03
 -1        78-7.15202E-04-3.60045E-04-7.16677E-03
 -1        79 1.66110E-02 4.01926E-04-4.63218E-03
 -1        80 2.02545E-03-1.41721E-04 5.66834E-03
 -1        81 1.84992E-02 5.10244E-04 7.77259E-03
 -1        82 7.59049E-04 7.31992E-05 7.97371E-03
 -1        83 1.84558E-02 4.10923E-04-4.46568E-03
 -1        84 7.50374E-04-4.38968E-04-1.12514E-02
 -1        85 1.84249E-02 4.79165E-04 1.39100E-02
 -1        86 1.74789E-03-4.31275E-04-9.26101E-03
 -1        87 1.66808E-02 4.05560E-04-9.89862E-03
 -1        88 1.83643E-02 4.15724E-04-1.05203E-02
 -1        89 2.01748E-03 1.40771E-04 1.02547E-02
 -1        90 1.65905E-02 4.05659E-04 1.09941E-02
 -1        91-1.33509E-03 1.04527E-03 3.36247E-02
 -1        92 1.60163E-02 6.96979E-03 2.25394E-02
 -1        93 2.11365E-02 6.24038E-03 3.28144E-02
 -1        94 1.61995E-02 6.55520E-03 2.81404E-02
 -1        95 1.35470E-02 7.73547E-03 2.50026E-02
 -1        96 1.63685E-02 6.67380E-03 3.96458E-02
 -1        97 1.34908E-02 8.13590E-03 3.93079E-02
 -1        98 1.61903E-02 6.92670E-03 4.57162E-02
 -1        99 7.69241E-03 9.79945E-03 2.11434E-02
 -1       100 1.37332E-02 7.75668E-03 4.44660E-02
 -1       101 4.53016E-04 2.24557E-03 2.12860E-02
 -1       102 7.87505E-03 9.50028E-03 2.72107E-02
 -1       103 2.10986E-02 6.36592E-03 1.70087E-02
 -1       104 1.31459E-02 8.21013E-03 2.97550E-02
 -1       105 1.43345E-03 1.73516E-03 3.01672E-02
 -1       106 2.25715E-04 1.41605E-03 2.81470E-02
 -1       107-3.18474E-04 1.84282E-03 4.63480E-02
 -1       108 1.55360E-02 8.46330E-03 4.99745E-02
 -1       109 6.10797E-03 1.17847E-02 6.05609E-02
 -1       110 6.39305E-03 1.20189E-02 6.85373E-02
 -1       111 1.02687E-02 9.93916E-03 7.15935E-02
 -1       112 1.09236E-02 9.33568E-03 5.69770E-02
 -1       113-2.73536E-04 1.41983E-02 4.35548E-02
 -1       114 1.53697E-02 8.46497E-03 3.79756E-02
 -1       115 8.73453E-05 1.42777E-02 4.95996E-02
 -1       116-3.69520E-04 2.44348E-03 6.92190E-02
 -1       117-2.29862E-03 1.20833E-03 4.99861E-02
 -1       118 1.03967E-02 9.72652E-03 5.26030E-02
 -1       119-1.16046E-03 2.25260E-03 5.73494E-02
 -1       120-1.32897E-03 2.08961E-03 6.72916E-02
 -1       121 1.10005E-02 9.55390E-03 6.66553E-02
 -1       122-3.08262E-04 2.57390E-03 6.16308E-02
 -1       123 6.84782E-03 1.11624E-02 5.67667E-02
 -1       124-1.51154E-04 2.59264E-03 5.78688E-02
 -1       125-1.85435E-03 1.99895E-03 7.20445E-02
 -1       126 7.00647E-03 1.14516E-02 7.29142E-02
 -1       127 9.37076E-03 5.79790E-03 5.32371E-02
 -1       128-9.73394E-03 8.49634E-03 6.36588E-02
 -1       129-1.02468E-03 7.10356E-03 8.08998E-02
 -1       130 4.30180E-03 5.69795E-03 7.83437E-02
 -1       131-2.46179E-03 7.40163E-03 8.24977E-02
 -1       132 9.68057E-03 5.86525E-03 5.99238E-02
 -1       133-3.84208E-03 1.92338E-03 6.00209E-02
 -1       134-2.71610E-03 1.59082E-03 7.88893E-02
 -1       135-1.08663E-02 8.94129E-03 6.05345E-02
 -1       136-2.18733E-03 1.53478E-03 8.71999E-02
 -1       137 3.54588E-03 5.96496E-03 7.62978E-02
 -1       138 4.08628E-03 6.06560E-03 8.29828E-02
 -1       139-2.83144E-03 1.16048E-03 8.38317E-02
 -1       140-3.04458E-03 8.41203E-04 8.60403E-02
 -1       141-2.25478E-03 1.80042E-03 8.34790E-02
 -1       142-2.30856E-03 1.41472E-03 8.88136E-02
 -1       143-2.41628E-03 7.83479E-03 8.63142E-02
 -1       144-1.41889E-03 7.44329E-03 8.86537E-02
 -1       145 3.44232E-03 6.33233E-03 8.56377E-02
 -1       146 7.04151E-03-4.07455E-04 6.09667E-02
 -1       147-1.40416E-02-8.70244E-04 6.43511E-02
 -1       148 1.48076E-03-1.06469E-03 8.68035E-02
 -1       149 1.34174E-03-7.68013E-04 8.62464E-02
 -1       150-5.96830E-03-1.02575E-03 9.00070E-02
 -1       151 5.20979E-04-1.10648E-03 8.74978E-02
 -1       152-5.90660E-03-5.70105E-04 8.95059E-02
 -1       153 6.13113E-04-7.34879E-04 8.63755E-02
 -1       154 6.80084E-03-6.36782E-04 6.11253E-02
 -1       155-1.42819E-02-1.25629E-03 6.48192E-02
 -1       156-3.37290E-03-4.98135E-05 8.75182E-02
 -1       157-3.06988E-03-9.20142E-05 9.09766E-02
 -1       158-3.38403E-03-4.81567E-04 8.69352E-02
 -1       159-4.63317E-03-1.02408E-03 9.06890E-02
 -1       160-2.89479E-03-3.14762E-04 9.03669E-02
 -1       161-2.92281E-03 1.22770E-04 9.13146E-02
 -1       162-4.88738E-03-5.65139E-04 8.97411E-02
 -1       163 8.95420E-03-6.48008E-03 5.95157E-02
 -1       164 4.02443E-03-6.80285E-03 7.63889E-02
 -1       165 3.26855E-03-7.05040E-03 7.42288E-02
 -1       166-1.03454E-03-8.08059E-03 7.77752E-02
 -1       167-2.57216E-03-8.36295E-03 7.95817E-02
 -1       168 3.04416E-03-7.26947E-03 8.45473E-02
 -1       169-1.29064E-03-8.02666E-03 8.63140E-02
 -1       170-9.71681E-03-9.89797E-03 6.01542E-02
 -1       171-1.05785E-02-1.02108E-02 5.63592E-02
 -1       172 4.08088E-03-7.10188E-03 8.16576E-02
 -1       173-2.06154E-03-1.70763E-03 8.47805E-02
 -1       174-2.51136E-03-8.79133E-03 8.38315E-02
 -1       175-2.20212E-03-1.99493E-03 8.06751E-02
 -1       176 8.94382E-03-6.30062E-03 5.30301E-02
 -1       177-2.83068E-03-1.81105E-03 7.69760E-02
 -1       178-2.53091E-03-1.90499E-03 7.39798E-02
 -1       179 1.45521E-02-8.52286E-03 3.76039E-02
 -1       180 1.47643E-02-8.48549E-03 4.92894E-02
 -1       181 9.03942E-03-9.56719E-03 6.94955E-02
 -1       182 5.76478E-03-1.09156E-02 5.50367E-02
 -1       183 5.88785E-03-1.08896E-02 6.96913E-02
 -1       184 4.83180E-03-1.14667E-02 5.84090E-02
 -1       185-1.51858E-03-3.16624E-03 4.07461E-02
 -1       186-1.49220E-03-1.36441E-02 4.13923E-02
 -1       187-1.59779E-03-2.22604E-03 6.53734E-02
 -1       188 5.22544E-03-1.17216E-02 6.57485E-02
 -1       189-8.76504E-04-1.35116E-02 4.66005E-02
 -1       190-4.29952E-04-2.75538E-03 5.91930E-02
 -1       191-1.62727E-03-1.47120E-03 3.54436E-02
 -1       192 9.75005E-03-8.82185E-03 5.59477E-02
 -1       193-1.42935E-03-2.31727E-03 5.63410E-02
 -1       194 9.85229E-03-9.10419E-03 6.48782E-02
 -1       195-1.09852E-03-2.10256E-03 5.14283E-02
 -1       196-4.96571E-04-2.55123E-03 6.63824E-02
 -1       197-2.94423E-04-2.66530E-03 5.57206E-02
 -1       198 9.25072E-03-9.24021E-03 5.17958E-02
 -1       199-1.31959E-03-1.26461E-03 3.33258E-02
 -1       200 1.57691E-02-6.99292E-03 4.51627E-02
 -1       201 1.60010E-02-6.63275E-03 2.77603E-02
 -1       202 2.08207E-02-6.48531E-03 1.68217E-02
 -1       203 1.61410E-02-6.55730E-03 3.93822E-02
 -1       204 2.08492E-02-6.36867E-03 3.24429E-02
 -1       205 1.25687E-02-8.26008E-03 2.91689E-02
 -1       206 7.13471E-03-9.46558E-03 2.07282E-02
 -1       207 1.57912E-02-6.93271E-03 2.22001E-02
 -1       208 3.76144E-04-2.22061E-03 2.55858E-02
 -1       209 1.30501E-02-8.19123E-03 3.86864E-02
 -1       210 7.13787E-03-9.52664E-03 2.63142E-02
 -1       211 2.87075E-04-1.57761E-03 2.77185E-02
 -1       212 3.59894E-04-1.51203E-03 2.14980E-02
 -1       213 1.28123E-02-7.92675E-03 2.46059E-02
 -1       214-6.26621E-04-2.02661E-03 4.57640E-02
 -1       215 1.32557E-02-7.84983E-03 4.36996E-02
 -1       216 1.35680E-03-1.64214E-03 2.53835E-02
 -1       217 2.26404E-02-2.12376E-04 1.03444E-02
 -1       218 1.84334E-02-4.08816E-04 7.95612E-03
 -1       219 2.26778E-02-5.37406E-04-5.72194E-03
 -1       220 1.60881E-02-3.53291E-04-3.92428E-03
 -1       221 1.15046E-02-2.57936E-04 3.62363E-03
 -1       222 1.15079E-02-6.35441E-04-2.80380E-03
 -1       223 1.83977E-03-1.15904E-04 6.09854E-03
 -1       224 1.64885E-03-2.11234E-04 3.24778E-03
 -1       225 1.87299E-03-9.13633E-05-3.88148E-03
 -1       226-6.38143E-04 1.02834E-04-7.38549E-03
 -1       227 1.84065E-02-3.52650E-04-4.44716E-03
 -1       228 6.59526E-04-2.43609E-04 8.02633E-03
 -1       229 1.83319E-02-3.84501E-04 1.39297E-02
 -1       230 8.64240E-04-3.25882E-05-4.66389E-03
 -1       231 1.61205E-02-3.48053E-04 6.19854E-03
 -1       232 1.61922E-02-3.46063E-04 1.13292E-02
 -1       233 1.61385E-02-4.47730E-04-9.00155E-03
 -1       234 1.83113E-02-3.61791E-04-1.04446E-02
 -1       235 8.02850E-03 8.65373E-03-2.02010E-02
 -1       236 8.04434E-03 8.67491E-03-2.59674E-02
 -1       237 1.56572E-02 5.99171E-03-4.09326E-02
 -1       238 1.31633E-02 7.18570E-03-3.61378E-02
 -1       239 1.28945E-02 7.19950E-03-2.69400E-02
 -1       240 1.58817E-02 5.52063E-03-2.41148E-02
 -1       241 2.04577E-02 5.15133E-03-2.70867E-02
 -1       242 1.31517E-02 6.83535E-03-2.23830E-02
 -1       243 6.90441E-04 2.11704E-03-2.53717E-02
 -1       244-7.34260E-04 3.95496E-04-9.97462E-03
 -1       245 2.03991E-02 5.20391E-03-1.19810E-02
 -1       246 1.01616E-03 1.97598E-03-2.02187E-02
 -1       247 1.60480E-02 5.65688E-03-3.51350E-02
 -1       248 4.26548E-04 1.18310E-03-2.40786E-02
 -1       249 1.56664E-02 5.79260E-03-1.87939E-02
 -1       250 1.44731E-03 1.38713E-03-2.32633E-02
 -1       251 1.18608E-03 1.50870E-03-3.63743E-02
 -1       252 6.35779E-04 6.53826E-04-1.80847E-02
 -1       253 1.34229E-02 6.79401E-03-4.10917E-02
 -1       254 1.48041E-02 7.60853E-03-4.35665E-02
 -1       255 6.20938E-03 9.83600E-03-6.63265E-02
 -1       256 5.44728E-03 1.07798E-02-6.24678E-02
 -1       257-1.10663E-03 1.20528E-02-3.97759E-02
 -1       258-6.16140E-04 1.19403E-02-4.44997E-02
 -1       259-1.26092E-03 2.02541E-03-5.20344E-02
 -1       260 1.47043E-02 7.56657E-03-3.22765E-02
 -1       261-1.24781E-03 2.71330E-03-3.95989E-02
 -1       262 5.23803E-03 1.04445E-02-5.53670E-02
 -1       263-5.79620E-04 2.21745E-03-6.30022E-02
 -1       264 1.00655E-02 8.40182E-03-6.01864E-02
 -1       265 9.92676E-03 8.10426E-03-5.16668E-02
 -1       266-6.69058E-04 1.63958E-03-4.69358E-02
 -1       267 9.61636E-03 8.77491E-03-6.47637E-02
 -1       268-1.91760E-04 2.18670E-03-5.61845E-02
 -1       269 5.86310E-03 9.90367E-03-5.20663E-02
 -1       270-6.58928E-04 2.19538E-03-6.61563E-02
 -1       271 9.46700E-03 8.43336E-03-4.77238E-02
 -1       272-1.30242E-05 2.22338E-03-5.28950E-02
 -1       273-1.80733E-03 1.81423E-03-6.53117E-02
 -1       274-2.98784E-03 5.30334E-04-5.27092E-02
 -1       275 9.53152E-03 5.72526E-03-5.35076E-02
 -1       276 9.20524E-03 5.65222E-03-4.69736E-02
 -1       277 4.13841E-03 6.19151E-03-7.62748E-02
 -1       278-5.73824E-04 7.22311E-03-7.38710E-02
 -1       279 3.29217E-03 6.32466E-03-6.95815E-02
 -1       280-9.39442E-03 9.71013E-03-5.73882E-02
 -1       281-2.13622E-03 7.99864E-03-7.93386E-02
 -1       282-1.00228E-02 9.78992E-03-5.36500E-02
 -1       283 4.15479E-03 5.82248E-03-7.16777E-02
 -1       284-2.77087E-03 1.45955E-03-7.22347E-02
 -1       285-2.18629E-03 1.57581E-03-6.92497E-02
 -1       286-2.76152E-03 1.17187E-03-7.70667E-02
 -1       287-1.94285E-03 1.65570E-03-7.63962E-02
 -1       288-1.97371E-03 7.48295E-03-7.55666E-02
 -1       289-1.16426E-03 7.60922E-03-8.18000E-02
 -1       290-2.09166E-03 1.56954E-03-8.03420E-02
 -1       291-2.10643E-03 1.37029E-03-8.23473E-02
 -1       292 3.45662E-03 6.47275E-03-7.90510E-02
 -1       293 0.00000E+00 0.00000E+00 0.00000E+00
 -1       294 0.00000E+00 0.00000E+00 0.00000E+00
 -1       295 0.00000E+00 0.00000E+00 0.00000E+00
 -1       296 0.00000E+00 0.00000E+00 0.00000E+00
 -1       297 0.00000E+00 0.00000E+00 0.00000E+00
 -1       298 0.00000E+00 0.00000E+00 0.00000E+00
 -1       299 0.00000E+00 0.00000E+00 0.00000E+00
 -1       300 0.00000E+00 0.00000E+00 0.00000E+00
 -1       301 0.00000E+00 0.00000E+00 0.00000E+00
 -1       302 0.00000E+00 0.00000E+00 0.00000E+00
 -1       303 0.00000E+00 0.00000E+00 0.00000E+00
 -1       304 0.00000E+00 0.00000E+00 0.00000E+00
 -1       305 0.00000E+00 0.00000E+00 0.00000E+00
 -1       306 0.00000E+00 0.00000E+00 0.00000E+00
 -1       307 0.00000E+00 0.00000E+00 0.00000E+00
 -1       308 0.00000E+00 0.00000E+00 0.00000E+00
 -1       309 0.00000E+00 0.00000E+00 0.00000E+00
 -1       310 0.00000E+00 0.00000E+00 0.00000E+00
 -1       311 0.00000E+00 0.00000E+00 0.00000E+00
 -1       312 0.00000E+00 0.00000E+00 0.00000E+00
 -1       313 0.00000E+00 0.00000E+00 0.00000E+00
 -1       314 0.00000E+00 0.00000E+00 0.00000E+00
 -1       315 0.00000E+00 0.00000E+00 0.00000E+00
 -1       316 0.00000E+00 0.00000E+00 0.00000E+00
 -1       317 0.00000E+00 0.00000E+00 0.00000E+00
 -1       318 0.00000E+00 0.00000E+00 0.00000E+00
 -1       319 0.00000E+00 0.00000E+00 0.00000E+00
 -1       320 0.00000E+00 0.00000E+00 0.00000E+00
 -1       321 0.00000E+00 0.00000E+00 0.00000E+00
 -1       322 0.00000E+00 0.00000E+00 0.00000E+00
 -1       323 0.00000E+00 0.00000E+00 0.00000E+00
 -1       324 0.00000E+00 0.00000E+00 0.00000E+00
 -1       325 0.00000E+00 0.00000E+00 0.00000E+00
 -1       326 0.00000E+00 0.00000E+00 0.00000E+00
 -1       327 0.00000E+00 0.00000E+00 0.00000E+00
 -1       328 0.00000E+00 0.00000E+00 0.00000E+00
 -1       329 0.00000E+00 0.00000E+00 0.00000E+00
 -1       330-4.53725E-03-1.07111E-04 6.37356E-02
 -1       331-3.95180E-03 1.80858E-03 6.14754E-02
 -1       332-2.81040E-03-5.75919E-04 9.00872E-02
 -1       333-4.74564E-03-4.45236E-04 6.29241E-02
 -1       334 0.00000E+00 0.00000E+00 0.00000E+00
 -1       335 0.00000E+00 0.00000E+00 0.00000E+00
 -1       336-2.31653E-03 2.00573E-03 8.17956E-02
 -1       337-6.47352E-04 2.50690E-03 7.28353E-02
 -1       338-1.37886E-03 3.02785E-03 4.81587E-02
 -1       339-1.47902E-03-3.23737E-03 4.49122E-02
 -1       340-1.88556E-03-2.11799E-03 7.86683E-02
 -1       341 0.00000E+00 0.00000E+00 0.00000E+00
 -1       342-3.57272E-03-2.25339E-03 5.57566E-02
 -1       343-3.63570E-03-2.06356E-03 5.81030E-02
 -1       344-2.43000E-03 1.79827E-03 7.59746E-02
 -1       345 9.85081E-04-1.84634E-03 3.89429E-02
 -1       346-8.89208E-04-2.59720E-03 6.95389E-02
 -1       347-1.87253E-03-2.09327E-03 6.98668E-02
 -1       348 1.25845E-03 1.76773E-03 3.96629E-02
 -1       349 7.28239E-04 2.19209E-03 2.64193E-02
 -1       350-8.46838E-04 2.09229E-03 5.22084E-02
 -1       351 1.04695E-03 2.03937E-03 4.41227E-02
 -1       352-3.07512E-03 4.55255E-04 5.92792E-02
 -1       353-3.34628E-03 2.72509E-04 8.74928E-02
 -1       354-3.24687E-03 1.33282E-04 5.97545E-02
 -1       355-2.20244E-03-1.41715E-03 4.94036E-02
 -1       356-2.64690E-03 1.12350E-03 5.13993E-02
 -1       357-3.84954E-05 1.67171E-03 4.02858E-02
 -1       358-1.62389E-03 1.22973E-03 3.57136E-02
 -1       359 5.76812E-04-4.36257E-04 1.45649E-02
 -1       360-9.39721E-04-9.27345E-04 1.48856E-02
 -1       361-8.89298E-05-1.74480E-03 3.96920E-02
 -1       362-2.45630E-03-1.29239E-03 5.09675E-02
 -1       363-3.19807E-03-5.85596E-04 5.93043E-02
 -1       364-2.99717E-03-8.91627E-04 5.87468E-02
 -1       365-2.82770E-03-1.43465E-03 8.24812E-02
 -1       366-3.13982E-03-7.74375E-04 8.64241E-02
 -1       367-2.38061E-03-1.64909E-03 8.65905E-02
 -1       368-3.00194E-03-1.05617E-03 8.48751E-02
 -1       369 7.56757E-04-2.02596E-03 4.34361E-02
 -1       370 5.91819E-04 4.15631E-04 1.47689E-02
 -1       371-7.69136E-04 2.74874E-04 1.24922E-02
 -1       372-9.03601E-04 7.23929E-04 1.51227E-02
 -1       373 3.51307E-04 1.20243E-03 2.16984E-02
 -1       374-8.06649E-04-4.94466E-04 1.22815E-02
 -1       375 1.92533E-03 4.05237E-05-4.58909E-03
 -1       376 7.39072E-04 4.75742E-04-1.12383E-02
 -1       377-7.81626E-04-7.25058E-04-9.69224E-03
 -1       378 8.87436E-04-1.48069E-04-4.59813E-03
 -1       379-2.41174E-03 9.76115E-04-4.50961E-02
 -1       380-1.41844E-03 1.85144E-03-6.08644E-02
 -1       381-1.73897E-03-1.45569E-03-3.03677E-02
 -1       382-2.16734E-03 1.05405E-03-4.37025E-02
 -1       383 1.00157E-03 1.67844E-03-4.04026E-02
 -1       384-7.67484E-04-1.93248E-03-4.81990E-02
 -1       385-1.18072E-03-2.14867E-03-5.31763E-02
 -1       386-2.95528E-03 9.20681E-04-7.94180E-02
 -1       387-3.04112E-03-7.23145E-04-5.30494E-02
 -1       388-2.59113E-03-1.20040E-03-4.56442E-02
 -1       389-3.10126E-03 4.73146E-04-8.08612E-02
 -1       390 0.00000E+00 0.00000E+00 0.00000E+00
 -1       391-1.44446E-03-2.89430E-03-4.64606E-02
 -1       392 6.50061E-04-2.14082E-03-2.48800E-02
 -1       393-1.23759E-03-3.12580E-03-4.20445E-02
 -1       394 8.22834E-04-2.12678E-03-1.95563E-02
 -1       395 1.53037E-03-1.37132E-03-2.39105E-02
 -1       396 1.33114E-03-1.61675E-03-2.80620E-02
 -1       397 0.00000E+00 0.00000E+00 0.00000E+00
 -1       398 1.56043E-03 4.64325E-05 3.00050E-03
 -1       399 1.60140E-03-1.38728E-04-2.90682E-03
 -1       400 1.43693E-03 1.62041E-03 2.59368E-02
 -1       401 0.00000E+00 0.00000E+00 0.00000E+00
 -1       402 0.00000E+00 0.00000E+00 0.00000E+00
 -1       403-1.09351E-03 3.16334E-03 4.29781E-02
 -1       404 0.00000E+00 0.00000E+00 0.00000E+00
 -1       405-7.99452E-04-2.36446E-03-6.85856E-02
 -1       406-4.65093E-04-2.36499E-03-6.52598E-02
 -1       407 0.00000E+00 0.00000E+00 0.00000E+00
 -1       408 0.00000E+00 0.00000E+00 0.00000E+00
 -1       409 0.00000E+00 0.00000E+00 0.00000E+00
 -1       410-4.39951E-03 1.72903E-04-5.94647E-02
 -1       411-3.81613E-03-2.02497E-03-5.69245E-02
 -1       412-2.55017E-03-3.51301E-04-8.60464E-02
 -1       413-2.73685E-03-1.49358E-04-8.60372E-02
 -1       414 0.00000E+00 0.00000E+00 0.00000E+00
 -1       415-2.96022E-03 2.78362E-04-8.55721E-02
 -1       416-3.81198E-03 1.79458E-03-5.52371E-02
 -1       417 0.00000E+00 0.00000E+00 0.00000E+00
 -1       418-3.23633E-03 2.07467E-03-5.30800E-02
 -1       419-1.10717E-03 2.57243E-03-4.27209E-02
 -1       420-1.90555E-03 1.85057E-03-7.45439E-02
 -1       421 1.40625E-03 1.56120E-03-2.74071E-02
 -1       422 1.98575E-03 1.05042E-04-8.23103E-03
 -1       423 1.52977E-03 7.08633E-05-1.89422E-03
 -1       424 7.05589E-04-2.18939E-03 2.07764E-02
 -1       425 1.88597E-03-4.58942E-04 1.05595E-02
 -1       426 1.28017E-03-1.76712E-03 2.96760E-02
 -1       427 0.00000E+00 0.00000E+00 0.00000E+00
 -1       428 0.00000E+00 0.00000E+00 0.00000E+00
 -1       429 0.00000E+00 0.00000E+00 0.00000E+00
 -1       430-3.24008E-03-5.86118E-04-8.10222E-02
 -1       431-3.42421E-03-2.59429E-04-8.14396E-02
 -1       432-4.94406E-04-1.90388E-03-4.25818E-02
 -1       433-3.26221E-04 1.56803E-03-4.13923E-02
 -1       434-1.38364E-03 8.86731E-04-2.79096E-02
 -1       435 1.65869E-04 1.32018E-03-3.57291E-02
 -1       436-1.74289E-03 1.09814E-03-3.00649E-02
 -1       437-1.37553E-03-1.18942E-03-2.81065E-02
 -1       438 0.00000E+00 0.00000E+00 0.00000E+00
 -1       439 0.00000E+00 0.00000E+00 0.00000E+00
 -1       440 0.00000E+00 0.00000E+00 0.00000E+00
 -1       441 0.00000E+00 0.00000E+00 0.00000E+00
 -1       442 0.00000E+00 0.00000E+00 0.00000E+00
 -1       443 0.00000E+00 0.00000E+00 0.00000E+00
 -1       444 0.00000E+00 0.00000E+00 0.00000E+00
 -1       445 0.00000E+00 0.00000E+00 0.00000E+00
 -1       446 0.00000E+00 0.00000E+00 0.00000E+00
 -1       447 0.00000E+00 0.00000E+00 0.00000E+00
 -1       448 0.00000E+00 0.00000E+00 0.00000E+00
 -1       449 1.56163E-03-1.76846E-04-5.46983E-02
 -1       450 1.77798E-03-3.02808E-04-5.46310E-02
 -1       451 5.50978E-03 3.62143E-05-6.95386E-02
 -1       452 5.90519E-03-1.69680E-04-6.96588E-02
 -1       453-1.36439E-03 4.71157E-04-8.58873E-02
 -1       454-1.28804E-03-7.83001E-05-8.58144E-02
 -1       455-1.11146E-02 4.19489E-04-7.63839E-02
 -1       456-1.11934E-02 1.45665E-05-7.63621E-02
 -1       457-8.84194E-03 1.51522E-04-6.07873E-02
 -1       458-8.75817E-03 3.83108E-06-6.08956E-02
 -1       459-3.56460E-03 4.09154E-05-6.98357E-02
 -1       460-8.17646E-04 1.19848E-04-8.12528E-02
 -1       461-3.83729E-03 1.07564E-04-8.57256E-02
 -1       462-3.11660E-03 1.54552E-04-7.67858E-02
 -1       463-3.01071E-03-5.85131E-05-7.70691E-02
 -1       464-3.78089E-03 3.08114E-04-8.58115E-02
 -1       465-8.80261E-04 1.42919E-04-8.13554E-02
 -1       466-3.51881E-03-4.08210E-04-6.99961E-02
 -1       467-1.10158E-03 1.88940E-04-8.12293E-02
 -1       468-1.26258E-03 1.08223E-04-8.15277E-02
 -1       469-3.48367E-03 1.25845E-04-8.56382E-02
 -1       470-3.41236E-03 2.61019E-04-8.60038E-02
 -1       471-2.98119E-03 2.75565E-04-8.56790E-02
 -1       472-2.82804E-03-3.72714E-04-8.62705E-02
 -1       473 2.94194E-03-2.99952E-03-4.75326E-02
 -1       474 3.05717E-03-3.11816E-03-5.34366E-02
 -1       475-7.97972E-03-8.52580E-03-7.30114E-02
 -1       476-7.69332E-03-7.97691E-03-7.04875E-02
 -1       477 1.16158E-03-6.39853E-03-8.38548E-02
 -1       478 1.66536E-03-6.01722E-03-7.58675E-02
 -1       479 7.75601E-03-5.03631E-03-6.69321E-02
 -1       480 7.90388E-03-4.72021E-03-6.17526E-02
 -1       481-7.02729E-03-5.27640E-03-5.60197E-02
 -1       482-6.68892E-03-5.31139E-03-5.85988E-02
 -1       483-3.32175E-03-1.12223E-03-6.75300E-02
 -1       484 4.89303E-04-3.67931E-03-7.76168E-02
 -1       485-1.96394E-03-4.41630E-03-8.19991E-02
 -1       486-2.41751E-03-1.78879E-03-7.35832E-02
 -1       487-2.51769E-03-1.89788E-03-7.12214E-02
 -1       488-2.09044E-03-4.21920E-03-7.85036E-02
 -1       489 7.40971E-04-3.49961E-03-7.32156E-02
 -1       490-2.97219E-03-1.48088E-03-6.18585E-02
 -1       491 2.47676E-04-3.68506E-03-7.99040E-02
 -1       492 4.78314E-04-3.69003E-03-7.10042E-02
 -1       493-1.55953E-03-4.14523E-03-8.37736E-02
 -1       494-1.87718E-03-4.17095E-03-7.67496E-02
 -1       495-2.50506E-03-1.42147E-03-8.39798E-02
 -1       496-2.27663E-03-1.72491E-03-7.61231E-02
 -1       497 6.60282E-03-4.93723E-03-3.23304E-02
 -1       498 6.79508E-03-4.84552E-03-4.42329E-02
 -1       499 1.85330E-03-1.24325E-02-5.83035E-02
 -1       500 1.60933E-03-1.24386E-02-5.24429E-02
 -1       501 8.32398E-03-9.60744E-03-6.93653E-02
 -1       502 8.39488E-03-9.21023E-03-5.31459E-02
 -1       503 1.38477E-02-7.73271E-03-5.43219E-02
 -1       504 1.34693E-02-7.76159E-03-4.37523E-02
 -1       505-9.76638E-04-7.81554E-03-4.23055E-02
 -1       506-5.16224E-04-7.94422E-03-4.76641E-02
 -1       507 4.38625E-03-5.29714E-03-6.21509E-02
 -1       508-2.19166E-03-1.76445E-03-5.48655E-02
 -1       509 2.79372E-03-6.62239E-03-6.52620E-02
 -1       510-5.02209E-04-2.63553E-03-5.86172E-02
 -1       511-4.68235E-04-2.64844E-03-5.29914E-02
 -1       512 2.70598E-03-6.51311E-03-5.79404E-02
 -1       513 4.55969E-03-5.15631E-03-5.31243E-02
 -1       514-1.96745E-03-1.89241E-03-4.37029E-02
 -1       515 4.13505E-03-5.49625E-03-6.66059E-02
 -1       516 4.57735E-03-5.08951E-03-4.88006E-02
 -1       517 3.08636E-03-6.37129E-03-6.91021E-02
 -1       518 3.02937E-03-6.32407E-03-5.42018E-02
 -1       519-1.00001E-03-2.38593E-03-6.95236E-02
 -1       520-5.18880E-04-2.23004E-03-5.32444E-02
 -1       521 1.02331E-02-3.40845E-03-1.14411E-02
 -1       522 1.02866E-02-3.37344E-03-2.73927E-02
 -1       523 1.46479E-02-6.52069E-03-2.20328E-02
 -1       524 9.84573E-03-8.73679E-03-3.24039E-02
 -1       525 9.32848E-03-9.09612E-03-2.52084E-02
 -1       526 1.99603E-02-5.46436E-03-3.27785E-02
 -1       527 1.94371E-02-5.66491E-03-1.84124E-02
 -1       528 1.50046E-02-6.69378E-03-4.30648E-02
 -1       529 4.37795E-03-5.73476E-03-2.54745E-02
 -1       530 4.34928E-03-5.64299E-03-1.95494E-02
 -1       531 8.21859E-03-3.80629E-03-3.63867E-02
 -1       532-8.33303E-04-1.45157E-03-3.31650E-02
 -1       533 7.21767E-03-4.60099E-03-3.72490E-02
 -1       534 1.24028E-03-1.83607E-03-3.24603E-02
 -1       535 1.20876E-03-1.86535E-03-2.53815E-02
 -1       536 7.03581E-03-4.60146E-03-2.79573E-02
 -1       537 8.31108E-03-3.74773E-03-2.44766E-02
 -1       538-4.81588E-04-1.33039E-03-1.81704E-02
 -1       539 8.11507E-03-3.96901E-03-4.21642E-02
 -1       540 8.27575E-03-3.73155E-03-1.88201E-02
 -1       541 7.21073E-03-4.48134E-03-4.19783E-02
 -1       542 7.21157E-03-4.42080E-03-2.33291E-02
 -1       543 7.28506E-04-1.71841E-03-4.28843E-02
 -1       544 9.27793E-04-1.40233E-03-2.21567E-02
 -1       545 1.13331E-02 1.83350E-04 1.10802E-02
 -1       546 1.13384E-02 2.27476E-04-5.78373E-03
 -1       547 1.75686E-02 5.76037E-04 1.24549E-02
 -1       548 1.40036E-02 3.46216E-04-3.91283E-03
 -1       549 1.40813E-02 8.61821E-05 4.40453E-03
 -1       550 2.15058E-02 4.59404E-04-5.48656E-03
 -1       551 2.13551E-02 2.18663E-04 9.66739E-03
 -1       552 1.75248E-02 2.93947E-04-1.02035E-02
 -1       553 7.03087E-03 2.11573E-04-3.77149E-03
 -1       554 7.15997E-03 4.17561E-05 3.47853E-03
 -1       555 9.72232E-03 1.44698E-04-4.52776E-03
 -1       556-8.45424E-05-2.66408E-04-5.78129E-03
 -1       557 9.25600E-03 1.71459E-04-4.56211E-03
 -1       558 2.03559E-03 3.94250E-05-3.76843E-03
 -1       559 2.07849E-03-5.28674E-05 4.09311E-03
 -1       560 9.21469E-03 1.73632E-04 5.70268E-03
 -1       561 9.69864E-03 2.36050E-04 7.92280E-03
 -1       562 1.49337E-05 1.54281E-04 1.00288E-02
 -1       563 9.63210E-03 5.75724E-05-1.06594E-02
 -1       564 9.68800E-03 3.04430E-04 1.40690E-02
 -1       565 9.32100E-03 7.01045E-05-9.78990E-03
 -1       566 9.20388E-03 2.54030E-04 1.08580E-02
 -1       567 1.42415E-03-2.61330E-04-1.02012E-02
 -1       568 1.41287E-03 2.35199E-04 1.25240E-02
 -1       569 1.01992E-02 3.70618E-03 3.29786E-02
 -1       570 1.01395E-02 3.80431E-03 1.68086E-02
 -1       571 1.46769E-02 7.20913E-03 2.47008E-02
 -1       572 1.95635E-02 6.32560E-03 2.28018E-02
 -1       573 1.98697E-02 6.07491E-03 3.76198E-02
 -1       574 9.78197E-03 9.58479E-03 2.71343E-02
 -1       575 1.03207E-02 9.19599E-03 3.49462E-02
 -1       576 1.50813E-02 7.40920E-03 4.62412E-02
 -1       577 4.18086E-03 6.04794E-03 2.10697E-02
 -1       578 4.41616E-03 5.64234E-03 2.71335E-02
 -1       579 8.37138E-03 4.02176E-03 2.83624E-02
 -1       580-5.41282E-04 1.28535E-03 2.27499E-02
 -1       581 7.13458E-03 5.00692E-03 3.01460E-02
 -1       582 1.45972E-03 1.87274E-03 2.75486E-02
 -1       583 1.15804E-03 1.89158E-03 3.50174E-02
 -1       584 7.29415E-03 4.96029E-03 3.96457E-02
 -1       585 8.21845E-03 4.10869E-03 4.01201E-02
 -1       586-7.64170E-04 1.44700E-03 3.79518E-02
 -1       587 8.33912E-03 4.09797E-03 2.25192E-02
 -1       588 8.03856E-03 4.29347E-03 4.60359E-02
 -1       589 7.20329E-03 4.87396E-03 2.53608E-02
 -1       590 7.32955E-03 4.77881E-03 4.45587E-02
 -1       591 1.19243E-03 1.54409E-03 2.49684E-02
 -1       592 5.71155E-04 1.72153E-03 4.60603E-02
 -1       593 6.64854E-03 5.03221E-03 3.76007E-02
 -1       594 6.77304E-03 5.07301E-03 5.00096E-02
 -1       595 1.65185E-03 1.36562E-02 5.48329E-02
 -1       596 1.97306E-03 1.37660E-02 6.14408E-02
 -1       597 8.74783E-03 1.02392E-02 5.66459E-02
 -1       598 8.69257E-03 1.07183E-02 7.43086E-02
 -1       599 1.41362E-02 8.67672E-03 4.82371E-02
 -1       600 1.43920E-02 8.74512E-03 6.00801E-02
 -1       601-8.11366E-04 8.64129E-03 4.34170E-02
 -1       602-5.08178E-04 8.72803E-03 4.94224E-02
 -1       603 4.80684E-03 5.86064E-03 5.75192E-02
 -1       604-1.39131E-03 1.75022E-03 4.85237E-02
 -1       605 2.94693E-03 7.00427E-03 6.13705E-02
 -1       606-4.83562E-04 2.77087E-03 5.54376E-02
 -1       607-6.54379E-04 2.68737E-03 6.15569E-02
 -1       608 3.02676E-03 7.17895E-03 6.92155E-02
 -1       609 4.83932E-03 5.93859E-03 6.72150E-02
 -1       610-2.21434E-03 1.77181E-03 6.03183E-02
 -1       611 4.66828E-03 6.06585E-03 5.28265E-02
 -1       612 4.73359E-03 5.98595E-03 7.19410E-02
 -1       613 3.30662E-03 6.77132E-03 5.73596E-02
 -1       614 3.20111E-03 6.89894E-03 7.32361E-02
 -1       615-4.64946E-04 2.27880E-03 5.68258E-02
 -1       616-1.04280E-03 2.25611E-03 7.43065E-02
 -1       617 3.16710E-03 3.41814E-03 5.30972E-02
 -1       618 3.22191E-03 3.52911E-03 5.98469E-02
 -1       619-7.77040E-03 8.68039E-03 7.49025E-02
 -1       620-7.82163E-03 9.15326E-03 7.80641E-02
 -1       621 1.52615E-03 6.38893E-03 8.12715E-02
 -1       622 9.91849E-04 6.79054E-03 8.97313E-02
 -1       623 8.26529E-03 5.58694E-03 6.73428E-02
 -1       624 8.04270E-03 5.81781E-03 7.34694E-02
 -1       625-7.27806E-03 5.20908E-03 6.05666E-02
 -1       626-6.64617E-03 5.08756E-03 6.31791E-02
 -1       627-3.01647E-03 1.42505E-03 6.76467E-02
 -1       628 6.39676E-04 3.62185E-03 7.89655E-02
 -1       629-2.18530E-03 4.38987E-03 8.33929E-02
 -1       630-2.63624E-03 2.02342E-03 7.56748E-02
 -1       631-2.39878E-03 1.74956E-03 7.84470E-02
 -1       632-2.20030E-03 4.72837E-03 8.72023E-02
 -1       633 5.91513E-04 3.78885E-03 8.36517E-02
 -1       634-3.19763E-03 1.05347E-03 7.38283E-02
 -1       635 4.23705E-04 3.80242E-03 7.65983E-02
 -1       636 2.92404E-04 3.79938E-03 8.60819E-02
 -1       637-1.95287E-03 4.33521E-03 8.15255E-02
 -1       638-1.79846E-03 4.45599E-03 8.91388E-02
 -1       639-2.18757E-03 1.74048E-03 8.15624E-02
 -1       640-2.47480E-03 1.38018E-03 8.99548E-02
 -1       641 1.61131E-03-4.82380E-04 6.09705E-02
 -1       642 1.58092E-03-3.06044E-04 6.07103E-02
 -1       643-1.19556E-02-1.08021E-03 8.06922E-02
 -1       644-1.18047E-02-6.52116E-04 8.03883E-02
 -1       645-1.84404E-03-1.18472E-03 9.19842E-02
 -1       646-2.05532E-03-6.91922E-04 9.10698E-02
 -1       647 5.44000E-03-8.29182E-04 7.57188E-02
 -1       648 5.45872E-03-5.52893E-04 7.55828E-02
 -1       649-9.35829E-03-7.73769E-04 6.45616E-02
 -1       650-9.07985E-03-6.14536E-04 6.42194E-02
 -1       651-3.75506E-03 4.30358E-05 7.61545E-02
 -1       652-1.07988E-03-5.78464E-04 8.76146E-02
 -1       653-4.31776E-03-6.86594E-04 9.10653E-02
 -1       654-3.12939E-03-1.56480E-04 8.14937E-02
 -1       655-3.34224E-03-2.70207E-04 8.08197E-02
 -1       656-4.38421E-03-4.51803E-04 9.04114E-02
 -1       657-1.01439E-03-5.26989E-04 8.69733E-02
 -1       658-3.53884E-03-4.41061E-04 7.56770E-02
 -1       659-1.50422E-03-4.94063E-04 8.79197E-02
 -1       660-1.25243E-03-6.24424E-04 8.67963E-02
 -1       661-3.75090E-03-5.80457E-04 9.13875E-02
 -1       662-3.95376E-03-5.48253E-04 9.02712E-02
 -1       663-3.12108E-03 6.56158E-05 9.23829E-02
 -1       664-3.05027E-03-4.87738E-04 9.10715E-02
 -1       665 2.90598E-03-3.89948E-03 5.94691E-02
 -1       666 2.91202E-03-3.78850E-03 5.26946E-02
 -1       667 7.90534E-03-6.46302E-03 6.60524E-02
 -1       668 7.79188E-03-6.68129E-03 7.25913E-02
 -1       669 1.39852E-03-7.43593E-03 7.85158E-02
 -1       670 8.15001E-04-7.91604E-03 8.80637E-02
 -1       671-7.78164E-03-9.40283E-03 7.13812E-02
 -1       672-8.04865E-03-1.00365E-02 7.49997E-02
 -1       673-6.58490E-03-5.98720E-03 5.97392E-02
 -1       674-6.94674E-03-6.02419E-03 5.63667E-02
 -1       675-3.23810E-03-1.38003E-03 7.28709E-02
 -1       676 6.17375E-04-4.40850E-03 8.23479E-02
 -1       677-2.15940E-03-5.22651E-03 8.47281E-02
 -1       678-2.54841E-03-1.97873E-03 7.53006E-02
 -1       679-2.27554E-03-2.01446E-03 7.21654E-02
 -1       680-2.20689E-03-5.06688E-03 8.05529E-02
 -1       681 5.24577E-04-4.36151E-03 7.71180E-02
 -1       682-3.07255E-03-1.62279E-03 6.64079E-02
 -1       683 5.20301E-04-4.38290E-03 8.49632E-02
 -1       684 3.15702E-04-4.52550E-03 7.45623E-02
 -1       685-1.92570E-03-5.07329E-03 8.68320E-02
 -1       686-1.88474E-03-4.97476E-03 7.84124E-02
 -1       687-2.48697E-03-1.56490E-03 8.83469E-02
 -1       688-2.19779E-03-2.00609E-03 7.89305E-02
 -1       689 6.42373E-03-5.23404E-03 4.92917E-02
 -1       690 6.26972E-03-5.20068E-03 3.73478E-02
 -1       691 1.31269E-02-8.59090E-03 4.78367E-02
 -1       692 1.33675E-02-8.44398E-03 5.87113E-02
 -1       693 7.64960E-03-1.00198E-02 5.54505E-02
 -1       694 7.59150E-03-1.03005E-02 7.15881E-02
 -1       695 8.31589E-04-1.33974E-02 5.22982E-02
 -1       696 1.23266E-03-1.33832E-02 5.84405E-02
 -1       697-1.12933E-03-8.34678E-03 4.63737E-02
 -1       698-1.52331E-03-8.43034E-03 4.13051E-02
 -1       699-2.06462E-03-2.00177E-03 5.90607E-02
 -1       700 4.06860E-03-5.75007E-03 6.54706E-02
 -1       701 2.40228E-03-7.10582E-03 6.63697E-02
 -1       702-6.60110E-04-2.76004E-03 5.85818E-02
 -1       703 2.26933E-03-6.94602E-03 5.91850E-02
 -1       704-7.41515E-04-2.96760E-03 5.29170E-02
 -1       705 4.06210E-03-5.65436E-03 5.63923E-02
 -1       706-1.69360E-03-1.97362E-03 4.77849E-02
 -1       707 3.98541E-03-5.82292E-03 6.98432E-02
 -1       708 3.97083E-03-5.82242E-03 5.20099E-02
 -1       709 2.39970E-03-7.01259E-03 7.00519E-02
 -1       710 2.46422E-03-6.78048E-03 5.55351E-02
 -1       711-1.17448E-03-2.23882E-03 7.16534E-02
 -1       712-7.11724E-04-2.50596E-03 5.57220E-02
 -1       713 9.99083E-03-3.97120E-03 1.66073E-02
 -1       714 1.00249E-02-3.91977E-03 3.26065E-02
 -1       715 1.45857E-02-7.46066E-03 4.54453E-02
 -1       716 1.93152E-02-6.42074E-03 2.25398E-02
 -1       717 1.96062E-02-6.16762E-03 3.71413E-02
 -1       718 8.73490E-03-9.45308E-03 2.65770E-02
 -1       719 9.41083E-03-8.99908E-03 3.38092E-02
 -1       720 1.43998E-02-7.24350E-03 2.46262E-02
 -1       721 3.82026E-03-5.91541E-03 2.62178E-02
 -1       722 3.81995E-03-5.82049E-03 2.06977E-02
 -1       723-9.27190E-04-1.55749E-03 3.73865E-02
 -1       724 8.21285E-03-4.14732E-03 3.96394E-02
 -1       725 7.04869E-03-4.97256E-03 3.89432E-02
 -1       726 9.91367E-04-1.87664E-03 3.37494E-02
 -1       727 6.94242E-03-4.98513E-03 2.96394E-02
 -1       728 1.09667E-03-2.01292E-03 2.69872E-02
 -1       729 7.97034E-03-4.22817E-03 2.80216E-02
 -1       730-6.07916E-04-1.44953E-03 2.25413E-02
 -1       731 8.01599E-03-4.34728E-03 4.54939E-02
 -1       732 7.98800E-03-4.27144E-03 2.22895E-02
 -1       733 7.04717E-03-4.85714E-03 4.37986E-02
 -1       734 7.10212E-03-4.79947E-03 2.49505E-02
 -1       735 4.51482E-04-1.85751E-03 4.55673E-02
 -1       736 9.76957E-04-1.61470E-03 2.44940E-02
 -1       737 1.12632E-02-3.97085E-04-5.96729E-03
 -1       738 1.12444E-02-2.69124E-04 1.06947E-02
 -1       739 1.71587E-02-5.03733E-04 1.24795E-02
 -1       740 2.14263E-02-4.39026E-04-5.44833E-03
 -1       741 2.16277E-02-2.67352E-04 1.00311E-02
 -1       742 1.33814E-02-5.83502E-04-3.18140E-03
 -1       743 1.34495E-02-1.26416E-04 4.76433E-03
 -1       744 1.71283E-02-2.30039E-04-9.62461E-03
 -1       745 6.61704E-03-1.47653E-04 3.54922E-03
 -1       746 6.57012E-03-3.22023E-04-2.64181E-03
 -1       747-7.88660E-06-4.03057E-04 9.94206E-03
 -1       748 9.60461E-03-2.58415E-04 7.95842E-03
 -1       749 8.97896E-03-2.55531E-04 6.10689E-03
 -1       750 2.13156E-03-7.19281E-05 4.54974E-03
 -1       751 8.94770E-03-2.54437E-04-3.85944E-03
 -1       752 2.15205E-03-2.02772E-04-2.99909E-03
 -1       753 9.68222E-03-1.79979E-04-4.57789E-03
 -1       754-4.11667E-05-1.54597E-05-5.82192E-03
 -1       755 9.60373E-03-2.68211E-04 1.40337E-02
 -1       756 9.67443E-03-1.23142E-04-1.06150E-02
 -1       757 8.96558E-03-3.16749E-04 1.11751E-02
 -1       758 8.93314E-03-2.29349E-04-8.88169E-03
 -1       759 1.39276E-03-4.16003E-04 1.24765E-02
 -1       760 1.34887E-03 1.18145E-04-9.61462E-03
 -1       761 9.88133E-03 3.04641E-03-2.72640E-02
 -1       762 9.81065E-03 3.12773E-03-1.17460E-02
 -1       763 1.48341E-02 6.39480E-03-4.20385E-02
 -1       764 1.00458E-02 8.10728E-03-3.21602E-02
 -1       765 9.54086E-03 8.46655E-03-2.51136E-02
 -1       766 1.91557E-02 5.09327E-03-3.24686E-02
 -1       767 1.86592E-02 5.24263E-03-1.86515E-02
 -1       768 1.44404E-02 6.22069E-03-2.16324E-02
 -1       769 4.56794E-03 5.24907E-03-2.01507E-02
 -1       770 4.60330E-03 5.34686E-03-2.58900E-02
 -1       771-5.42052E-04 1.01550E-03-1.84287E-02
 -1       772 8.27892E-03 3.32527E-03-2.43435E-02
 -1       773 7.08378E-03 4.32537E-03-2.73555E-02
 -1       774 1.34229E-03 1.77139E-03-2.53123E-02
 -1       775 7.15881E-03 4.34005E-03-3.64946E-02
 -1       776 1.19212E-03 1.69385E-03-3.23284E-02
 -1       777 8.06108E-03 3.49753E-03-3.56089E-02
 -1       778-9.27585E-04 1.19154E-03-3.28750E-02
 -1       779 8.24633E-03 3.41173E-03-1.88045E-02
 -1       780 7.92777E-03 3.65516E-03-4.12420E-02
 -1       781 7.27249E-03 4.12496E-03-2.27382E-02
 -1       782 7.19293E-03 4.13781E-03-4.11678E-02
 -1       783 1.10877E-03 1.27421E-03-2.16041E-02
 -1       784 7.64576E-04 1.49172E-03-4.22266E-02
 -1       785 6.51856E-03 4.54065E-03-4.35826E-02
 -1       786 6.40546E-03 4.50328E-03-3.18847E-02
 -1       787 1.35730E-02 7.69134E-03-5.34078E-02
 -1       788 1.33405E-02 7.56061E-03-4.28827E-02
 -1       789 8.05147E-03 9.36760E-03-6.74340E-02
 -1       790 7.81285E-03 8.98959E-03-5.18944E-02
 -1       791 1.26453E-03 1.19563E-02-5.53523E-02
 -1       792 8.38524E-04 1.20652E-02-4.98841E-02
 -1       793-8.45792E-04 7.13615E-03-4.42786E-02
 -1       794-1.16873E-03 7.30887E-03-3.98267E-02
 -1       795-1.58896E-03 1.70801E-03-4.27535E-02
 -1       796 4.46317E-03 5.11934E-03-5.21418E-02
 -1       797 2.47656E-03 6.26019E-03-5.61601E-02
 -1       798-6.78420E-04 2.51511E-03-5.03019E-02
 -1       799-5.30086E-04 2.35361E-03-5.55306E-02
 -1       800 2.65006E-03 6.34914E-03-6.31144E-02
 -1       801 4.41870E-03 5.21305E-03-6.08202E-02
 -1       802-2.06728E-03 1.58136E-03-5.41005E-02
 -1       803 4.42458E-03 5.23629E-03-4.78444E-02
 -1       804 4.08645E-03 5.39083E-03-6.52035E-02
 -1       805 2.79011E-03 6.04711E-03-5.25910E-02
 -1       806 2.77418E-03 6.17275E-03-6.67124E-02
 -1       807-5.74097E-04 2.16264E-03-5.19246E-02
 -1       808-1.00611E-03 1.97499E-03-6.77028E-02
 -1       809 3.14260E-03 3.45980E-03-5.34467E-02
 -1       810 3.02217E-03 3.36757E-03-4.68018E-02
 -1       811 7.94893E-03 5.72800E-03-6.68092E-02
 -1       812 8.09032E-03 5.43294E-03-6.10101E-02
 -1       813 9.97721E-04 7.06928E-03-8.29508E-02
 -1       814 1.61968E-03 6.55648E-03-7.41245E-02
 -1       815-7.57116E-03 9.36633E-03-7.12792E-02
 -1       816-7.30363E-03 8.83795E-03-6.80653E-02
 -1       817-6.48060E-03 6.04555E-03-5.67875E-02
 -1       818-6.67732E-03 5.59498E-03-5.36559E-02
 -1       819-2.91407E-03 1.36107E-03-6.10266E-02
 -1       820 6.51265E-04 3.70773E-03-7.23108E-02
 -1       821-1.93444E-03 4.60735E-03-7.63835E-02
 -1       822-2.32593E-03 1.79391E-03-6.85994E-02
 -1       823-2.06963E-03 1.54464E-03-7.19837E-02
 -1       824-1.94152E-03 4.82731E-03-8.02931E-02
 -1       825 6.63051E-04 3.77628E-03-7.71043E-02
 -1       826-3.16626E-03 9.96687E-04-6.73364E-02
 -1       827 6.00534E-04 3.77032E-03-6.98542E-02
 -1       828 3.32825E-04 3.81309E-03-7.95386E-02
 -1       829-1.62848E-03 4.49588E-03-7.43651E-02
 -1       830-1.57672E-03 4.56337E-03-8.23738E-02
 -1       831-2.22907E-03 1.52230E-03-7.44340E-02
 -1       832-2.36877E-03 1.24507E-03-8.31863E-02
 -1       833 0.00000E+00 0.00000E+00 0.00000E+00
 -1       834 0.00000E+00 0.00000E+00 0.00000E+00
 -1       835 0.00000E+00 0.00000E+00 0.00000E+00
 -1       836 0.00000E+00 0.00000E+00 0.00000E+00
 -1       837 0.00000E+00 0.00000E+00 0.00000E+00
 -1       838 0.00000E+00 0.00000E+00 0.00000E+00
 -1       839 0.00000E+00 0.00000E+00 0.00000E+00
 -1       840 0.00000E+00 0.00000E+00 0.00000E+00
 -1       841 0.00000E+00 0.00000E+00 0.00000E+00
 -1       842 0.00000E+00 0.00000E+00 0.00000E+00
 -1       843 0.00000E+00 0.00000E+00 0.00000E+00
 -1       844 0.00000E+00 0.00000E+00 0.00000E+00
 -1       845 0.00000E+00 0.00000E+00 0.00000E+00
 -1       846 0.00000E+00 0.00000E+00 0.00000E+00
 -1       847 0.00000E+00 0.00000E+00 0.00000E+00
 -1       848 0.00000E+00 0.00000E+00 0.00000E+00
 -1       849 0.00000E+00 0.00000E+00 0.00000E+00
 -1       850 0.00000E+00 0.00000E+00 0.00000E+00
 -1       851 0.00000E+00 0.00000E+00 0.00000E+00
 -1       852 0.00000E+00 0.00000E+00 0.00000E+00
 -1       853 0.00000E+00 0.00000E+00 0.00000E+00
 -1       854 0.00000E+00 0.00000E+00 0.00000E+00
 -1       855 0.00000E+00 0.00000E+00 0.00000E+00
 -1       856 0.00000E+00 0.00000E+00 0.00000E+00
 -1       857 0.00000E+00 0.00000E+00 0.00000E+00
 -1       858 0.00000E+00 0.00000E+00 0.00000E+00
 -1       859 0.00000E+00 0.00000E+00 0.00000E+00
 -1       860 0.00000E+00 0.00000E+00 0.00000E+00
 -1       861 0.00000E+00 0.00000E+00 0.00000E+00
 -1       862 0.00000E+00 0.00000E+00 0.00000E+00
 -1       863 0.00000E+00 0.00000E+00 0.00000E+00
 -1       864 0.00000E+00 0.00000E+00 0.00000E+00
 -1       865 0.00000E+00 0.00000E+00 0.00000E+00
 -1       866 0.00000E+00 0.00000E+00 0.00000E+00
 -1       867 0.00000E+00 0.00000E+00 0.00000E+00
 -1       868 0.00000E+00 0.00000E+00 0.00000E+00
 -1       869 0.00000E+00 0.00000E+00 0.00000E+00
 -1       870 0.00000E+00 0.00000E+00 0.00000E+00
 -1       871 0.00000E+00 0.00000E+00 0.00000E+00
 -1       872 0.00000E+00 0.00000E+00 0.00000E+00
 -1       873 0.00000E+00 0.00000E+00 0.00000E+00
 -1       874 0.00000E+00 0.00000E+00 0.00000E+00
 -1       875 0.00000E+00 0.00000E+00 0.00000E+00
 -1       876 0.00000E+00 0.00000E+00 0.00000E+00
 -1       877 0.00000E+00 0.00000E+00 0.00000E+00
 -1       878 0.00000E+00 0.00000E+00 0.00000E+00
 -1       879 0.00000E+00 0.00000E+00 0.00000E+00
 -1       880 0.00000E+00 0.00000E+00 0.00000E+00
 -1       881 0.00000E+00 0.00000E+00 0.00000E+00
 -1       882 0.00000E+00 0.00000E+00 0.00000E+00
 -1       883 0.00000E+00 0.00000E+00 0.00000E+00
 -1       884 0.00000E+00 0.00000E+00 0.00000E+00
 -1       885 0.00000E+00 0.00000E+00 0.00000E+00
 -1       886 0.00000E+00 0.00000E+00 0.00000E+00
 -1       887 0.00000E+00 0.00000E+00 0.00000E+00
 -1       888 0.00000E+00 0.00000E+00 0.00000E+00
 -1       889 0.00000E+00 0.00000E+00 0.00000E+00
 -1       890 0.00000E+00 0.00000E+00 0.00000E+00
 -1       891 0.00000E+00 0.00000E+00 0.00000E+00
 -1       892 0.00000E+00 0.00000E+00 0.00000E+00
 -1       893 0.00000E+00 0.00000E+00 0.00000E+00
 -1       894 0.00000E+00 0.00000E+00 0.00000E+00
 -1       895 0.00000E+00 0.00000E+00 0.00000E+00
 -1       896 0.00000E+00 0.00000E+00 0.00000E+00
 -1       897 4.06012E-03 2.23971E-04-7.55781E-02
 -1       898 6.67765E-03-4.48801E-05-6.19316E-02
 -1       899 4.52580E-03-2.05551E-04-7.56698E-02
 -1       900-1.99602E-04 4.38805E-04-8.36560E-02
 -1       901-8.68686E-03 5.28594E-04-8.13034E-02
 -1       902-1.28281E-02 6.61787E-05-6.86682E-02
 -1       903-2.57957E-03 1.15344E-04-8.25387E-02
 -1       904-3.77665E-03 3.21016E-05-6.93715E-02
 -1       905-2.89395E-03 3.55121E-06-8.28890E-02
 -1       906-3.62930E-03-4.81294E-04-6.22488E-02
 -1       907-2.86733E-03 1.31399E-04-8.64362E-02
 -1       908-2.63009E-03-2.45664E-04-8.70093E-02
 -1       909-3.05044E-03-3.39417E-04-8.44762E-02
 -1       910 8.88469E-03-4.74329E-03-6.00915E-02
 -1       911 6.43643E-03-5.20285E-03-7.25646E-02
 -1       912 8.79369E-03-4.74478E-03-5.44155E-02
 -1       913-2.02432E-03-1.67151E-03-7.92104E-02
 -1       914-2.95269E-03-1.91129E-03-6.65605E-02
 -1       915-2.25165E-03-1.77330E-03-7.61572E-02
 -1       916-3.13653E-03-1.39063E-03-5.45565E-02
 -1       917-2.14812E-03-1.57905E-03-8.47213E-02
 -1       918-2.34428E-03-1.84458E-03-7.73828E-02
 -1       919-2.40470E-03-1.75842E-03-7.39571E-02
 -1       920 7.36542E-03-9.85009E-03-5.38303E-02
 -1       921 9.45572E-03-8.81696E-03-5.08272E-02
 -1       922 1.48176E-02-7.88478E-03-4.92600E-02
 -1       923 1.25728E-02-7.90002E-03-5.82800E-02
 -1       924 1.46443E-02-7.73418E-03-3.76134E-02
 -1       925-1.74767E-03-2.03122E-03-5.90585E-02
 -1       926-4.25407E-04-2.46339E-03-6.28283E-02
 -1       927-7.94861E-04-2.80946E-03-5.32327E-02
 -1       928-4.02441E-04-2.50412E-03-5.61597E-02
 -1       929-1.79506E-03-1.78136E-03-3.77120E-02
 -1       930-7.23974E-04-2.35473E-03-6.98634E-02
 -1       931-5.13267E-04-2.37286E-03-5.45503E-02
 -1       932-4.76298E-04-2.07211E-03-5.14183E-02
 -1       933 1.55773E-02-6.18461E-03-2.03188E-02
 -1       934 1.08899E-02-8.47693E-03-2.66328E-02
 -1       935 1.56997E-02-6.44487E-03-4.26913E-02
 -1       936 1.41415E-02-7.06512E-03-4.23051E-02
 -1       937-3.46921E-04-1.54656E-03-3.50317E-02
 -1       938 1.02872E-03-1.90390E-03-2.92576E-02
 -1       939 1.43469E-03-1.72963E-03-2.74366E-02
 -1       940-6.67901E-04-1.10499E-03-1.45180E-02
 -1       941 7.85012E-04-1.83942E-03-4.26782E-02
 -1       942 1.17724E-03-1.51613E-03-2.30934E-02
 -1       943 6.85241E-04-1.41511E-03-2.06580E-02
 -1       944 1.79500E-02 5.48521E-04 1.32239E-02
 -1       945 2.25282E-02 3.96364E-04-5.82019E-03
 -1       946 2.02288E-02 4.24775E-04-4.73277E-03
 -1       947 2.24121E-02 2.99034E-04 1.07600E-02
 -1       948 1.71808E-02 2.89147E-04-9.87282E-03
 -1       949 1.85794E-04-9.63872E-05-5.04318E-03
 -1       950 2.04635E-03 4.59356E-05-4.37481E-03
 -1       951 1.97814E-03-3.73127E-05-3.52467E-03
 -1       952 1.98268E-03-2.75503E-06 4.93859E-03
 -1       953-5.06413E-04 3.21760E-04 1.12281E-02
 -1       954 1.10918E-03-2.42233E-04-1.03655E-02
 -1       955 1.60384E-03-1.73932E-04-1.00497E-02
 -1       956 1.79621E-03 1.95277E-04 1.15881E-02
 -1       957 1.05058E-03 2.25973E-04 1.32650E-02
 -1       958 1.40535E-02 7.49244E-03 2.50496E-02
 -1       959 1.44180E-02 7.68476E-03 4.52679E-02
 -1       960 1.55911E-02 7.16264E-03 4.61231E-02
 -1       961-1.43633E-04 1.45746E-03 2.58220E-02
 -1       962 1.13892E-03 2.06349E-03 2.46993E-02
 -1       963 1.42682E-03 1.74584E-03 3.76122E-02
 -1       964-1.14063E-03 1.27758E-03 3.57133E-02
 -1       965 6.30913E-04 1.36155E-03 2.37021E-02
 -1       966 1.10940E-03 1.64195E-03 2.56486E-02
 -1       967 8.22634E-04 1.82685E-03 4.52983E-02
 -1       968 5.31630E-05 1.77605E-03 4.64792E-02
 -1       969 7.73795E-03 1.06371E-02 5.70055E-02
 -1       970 1.50260E-02 8.44873E-03 4.28367E-02
 -1       971 1.29590E-02 8.89395E-03 5.29145E-02
 -1       972 1.51838E-02 8.56656E-03 5.48840E-02
 -1       973-1.55933E-03 2.00708E-03 5.35911E-02
 -1       974-3.26845E-04 2.54267E-03 5.92643E-02
 -1       975-7.99397E-04 2.93891E-03 5.00888E-02
 -1       976-3.99144E-04 2.56389E-03 6.65885E-02
 -1       977-2.39896E-03 1.56340E-03 5.55001E-02
 -1       978-8.41412E-04 2.25238E-03 5.52280E-02
 -1       979-2.91235E-04 2.40115E-03 5.78640E-02
 -1       980-7.02420E-04 2.52028E-03 7.41336E-02
 -1       981-1.09808E-03 2.12446E-03 7.36702E-02
 -1       982-5.59066E-03 8.62185E-03 8.26878E-02
 -1       983-1.43004E-04 6.73818E-03 8.16231E-02
 -1       984 9.15142E-03 5.68259E-03 6.00526E-02
 -1       985 6.63833E-03 5.64806E-03 7.32841E-02
 -1       986 9.27790E-03 5.65455E-03 6.64497E-02
 -1       987-3.15570E-03 1.46507E-03 7.41013E-02
 -1       988-3.10884E-03 1.90301E-03 6.87337E-02
 -1       989-2.02925E-03 1.63169E-03 8.38802E-02
 -1       990-3.42849E-03 8.86810E-04 6.70644E-02
 -1       991-2.39917E-03 1.67130E-03 7.95562E-02
 -1       992-2.30914E-03 1.67172E-03 8.26185E-02
 -1       993-2.30304E-03 1.44146E-03 9.03765E-02
 -1       994-2.60137E-03 1.19675E-03 8.87384E-02
 -1       995-3.30305E-03-1.26516E-03 9.17049E-02
 -1       996 6.41234E-03-7.24969E-04 6.81662E-02
 -1       997 4.04667E-03-9.86248E-04 8.16583E-02
 -1       998 6.70249E-03-5.42527E-04 6.79208E-02
 -1       999-3.71412E-03-1.18511E-04 8.27412E-02
 -1      1000-3.76496E-03-2.32153E-04 7.34856E-02
 -1      1001-2.76257E-03-2.79223E-04 8.68973E-02
 -1      1002-3.64597E-03-4.56382E-04 6.83114E-02
 -1      1003-3.24479E-03-1.13652E-05 9.07803E-02
 -1      1004-3.01597E-03 5.09847E-05 9.29601E-02
 -1      1005-3.22368E-03-3.81302E-04 9.16940E-02
 -1      1006-2.93188E-03-5.34117E-04 8.97264E-02
 -1      1007 8.80363E-03-6.27253E-03 5.92809E-02
 -1      1008 6.48233E-03-6.81762E-03 7.75442E-02
 -1      1009 2.23751E-03-7.31503E-03 8.66126E-02
 -1      1010-3.33324E-04-8.23611E-03 8.75289E-02
 -1      1011-9.28757E-03-1.02071E-02 6.73802E-02
 -1      1012-3.05043E-03-1.48380E-03 7.83605E-02
 -1      1013-2.16266E-03-1.75934E-03 8.10433E-02
 -1      1014-2.92749E-03-2.09590E-03 6.78767E-02
 -1      1015-2.21178E-03-1.86920E-03 7.76004E-02
 -1      1016-2.89659E-03-1.62840E-03 5.95263E-02
 -1      1017-2.51228E-03-1.34533E-03 8.73345E-02
 -1      1018-2.25237E-03-1.70244E-03 8.82509E-02
 -1      1019-2.18783E-03-1.94051E-03 7.93694E-02
 -1      1020-2.29502E-03-1.90670E-03 7.70349E-02
 -1      1021 1.15751E-02-8.67791E-03 5.22289E-02
 -1      1022 1.40478E-02-8.49530E-03 4.24588E-02
 -1      1023 1.22312E-02-8.58428E-03 6.20385E-02
 -1      1024 8.36668E-03-9.80801E-03 7.08995E-02
 -1      1025 6.66925E-03-1.07896E-02 7.07223E-02
 -1      1026-1.12816E-04-1.36309E-02 5.22889E-02
 -1      1027-1.83725E-03-2.25623E-03 6.28681E-02
 -1      1028-5.14570E-04-2.63544E-03 6.35449E-02
 -1      1029-1.01571E-03-3.04348E-03 5.29042E-02
 -1      1030-5.01221E-04-2.64578E-03 5.69662E-02
 -1      1031-1.78163E-03-1.82812E-03 4.25475E-02
 -1      1032-1.29947E-03-2.17157E-03 7.12774E-02
 -1      1033-1.10958E-03-2.58578E-03 7.15088E-02
 -1      1034-4.15228E-04-2.56189E-03 5.63747E-02
 -1      1035-1.11257E-03-2.27612E-03 5.42844E-02
 -1      1036 1.38370E-02-7.78890E-03 4.44830E-02
 -1      1037 2.02931E-02-6.38732E-03 1.93230E-02
 -1      1038 1.82037E-02-6.26456E-03 3.82437E-02
 -1      1039 1.51317E-02-6.91297E-03 2.32261E-02
 -1      1040-3.99731E-04-1.65638E-03 3.87822E-02
 -1      1041 6.91086E-04-2.03224E-03 3.01861E-02
 -1      1042 1.22014E-03-1.92045E-03 2.88472E-02
 -1      1043-8.54240E-04-1.27218E-03 1.92028E-02
 -1      1044 2.13220E-04-1.85828E-03 4.58577E-02
 -1      1045 7.22851E-04-1.94652E-03 4.48919E-02
 -1      1046 1.16381E-03-1.61058E-03 2.52096E-02
 -1      1047 6.53211E-04-1.50034E-03 2.35768E-02
 -1      1048 1.67415E-02-4.96031E-04 1.17800E-02
 -1      1049 2.03642E-02-3.71691E-04 8.86041E-03
 -1      1050 1.47174E-02-6.37679E-04-3.59129E-03
 -1      1051 1.22905E-02-2.39392E-04 4.00468E-03
 -1      1052 2.85372E-04-2.79951E-04 9.02053E-03
 -1      1053 1.79039E-03-8.59635E-05 3.97747E-03
 -1      1054 2.09753E-03-1.00404E-04-3.45512E-03
 -1      1055-5.17681E-04-7.44019E-05-6.25138E-03
 -1      1056 9.74679E-04-2.45872E-04 1.32968E-02
 -1      1057 1.72029E-03-3.70211E-04 1.17348E-02
 -1      1058 1.69655E-03 7.72534E-05-9.03949E-03
 -1      1059 1.07793E-03 1.26880E-04-1.00914E-02
 -1      1060 1.52789E-02 6.17635E-03-4.16832E-02
 -1      1061 2.01520E-02 5.12712E-03-2.99402E-02
 -1      1062 1.75357E-02 5.32946E-03-2.13813E-02
 -1      1063 1.50499E-02 5.84063E-03-2.01381E-02
 -1      1064 1.38172E-02 6.54190E-03-2.21359E-02
 -1      1065-8.82645E-05 9.77055E-04-2.16068E-02
 -1      1066 1.48902E-03 1.57533E-03-2.68935E-02
 -1      1067 1.28475E-03 1.88066E-03-2.29951E-02
 -1      1068 1.51877E-03 1.48176E-03-3.50054E-02
 -1      1069-1.33656E-03 1.03671E-03-3.06570E-02
 -1      1070 8.60049E-04 9.89766E-04-2.02541E-02
 -1      1071 1.11615E-03 1.39671E-03-2.25973E-02
 -1      1072 9.51916E-04 1.60533E-03-4.18892E-02
 -1      1073 2.67343E-04 1.49642E-03-4.20042E-02
 -1      1074 1.44292E-02 7.67178E-03-4.84458E-02
 -1      1075 1.21749E-02 7.70313E-03-4.77394E-02
 -1      1076 8.85558E-03 9.03942E-03-6.62505E-02
 -1      1077 3.13461E-03 1.15204E-02-5.93936E-02
 -1      1078-3.39338E-04 1.22089E-02-4.49877E-02
 -1      1079-1.46430E-04 2.13328E-03-5.40309E-02
 -1      1080-7.29361E-04 2.66587E-03-4.53390E-02
 -1      1081-6.15011E-04 2.32404E-03-6.02691E-02
 -1      1082-2.44529E-03 1.38967E-03-4.90695E-02
 -1      1083-6.96980E-04 2.17634E-03-5.27628E-02
 -1      1084-7.03161E-04 2.11227E-03-6.78306E-02
 -1      1085-1.13811E-03 1.99962E-03-6.68234E-02
 -1      1086 9.11381E-03 5.49258E-03-5.99847E-02
 -1      1087 6.58841E-03 5.65281E-03-6.67296E-02
 -1      1088 2.34642E-03 6.53680E-03-8.13263E-02
 -1      1089-5.24551E-03 8.75004E-03-7.59602E-02
 -1      1090-9.00497E-03 9.42876E-03-6.10228E-02
 -1      1091-2.09247E-03 1.71106E-03-7.37333E-02
 -1      1092-2.85695E-03 1.99738E-03-6.19642E-02
 -1      1093-1.87277E-03 1.58169E-03-7.72711E-02
 -1      1094-3.25377E-03 8.44074E-04-6.05603E-02
 -1      1095-2.04906E-03 1.64190E-03-7.50570E-02
 -1      1096-2.22687E-03 1.41118E-03-8.35306E-02
 -1      1097-2.50117E-03 1.22328E-03-8.20129E-02
 -1      1098 0.00000E+00 0.00000E+00 0.00000E+00
 -1      1099 0.00000E+00 0.00000E+00 0.00000E+00
 -1      1100 0.00000E+00 0.00000E+00 0.00000E+00
 -1      1101 0.00000E+00 0.00000E+00 0.00000E+00
 -1      1102 0.00000E+00 0.00000E+00 0.00000E+00
 -1      1103 0.00000E+00 0.00000E+00 0.00000E+00
 -1      1104 0.00000E+00 0.00000E+00 0.00000E+00
 -1      1105 0.00000E+00 0.00000E+00 0.00000E+00
 -1      1106 0.00000E+00 0.00000E+00 0.00000E+00
 -1      1107 0.00000E+00 0.00000E+00 0.00000E+00
 -1      1108 0.00000E+00 0.00000E+00 0.00000E+00
 -1      1109 0.00000E+00 0.00000E+00 0.00000E+00
 -1      1110 0.00000E+00 0.00000E+00 0.00000E+00
 -1      1111 0.00000E+00 0.00000E+00 0.00000E+00
 -1      1112 0.00000E+00 0.00000E+00 0.00000E+00
 -1      1113 0.00000E+00 0.00000E+00 0.00000E+00
 -1      1114 0.00000E+00 0.00000E+00 0.00000E+00
 -1      1115 0.00000E+00 0.00000E+00 0.00000E+00
 -1      1116 0.00000E+00 0.00000E+00 0.00000E+00
 -1      1117 0.00000E+00 0.00000E+00 0.00000E+00
 -1      1118 0.00000E+00 0.00000E+00 0.00000E+00
 -1      1119 0.00000E+00 0.00000E+00 0.00000E+00
 -1      1120 0.00000E+00 0.00000E+00 0.00000E+00
 -1      1121 0.00000E+00 0.00000E+00 0.00000E+00
 -1      1122 0.00000E+00 0.00000E+00 0.00000E+00
 -1      1123 0.00000E+00 0.00000E+00 0.00000E+00
 -1      1124 0.00000E+00 0.00000E+00 0.00000E+00
 -1      1125 0.00000E+00 0.00000E+00 0.00000E+00
 -1      1126 0.00000E+00 0.00000E+00 0.00000E+00
 -1      1127 0.00000E+00 0.00000E+00 0.00000E+00
 -1      1128 0.00000E+00 0.00000E+00 0.00000E+00
 -1      1129 0.00000E+00 0.00000E+00 0.00000E+00
 -1      1130 0.00000E+00 0.00000E+00 0.00000E+00
 -1      1131 0.00000E+00 0.00000E+00 0.00000E+00
 -1      1132 0.00000E+00 0.00000E+00 0.00000E+00
 -1      1133 0.00000E+00 0.00000E+00 0.00000E+00
 -1      1134 0.00000E+00 0.00000E+00 0.00000E+00
 -1      1135 0.00000E+00 0.00000E+00 0.00000E+00
 -1      1136 0.00000E+00 0.00000E+00 0.00000E+00
 -1      1137 0.00000E+00 0.00000E+00 0.00000E+00
 -1      1138 0.00000E+00 0.00000E+00 0.00000E+00
 -1      1139 0.00000E+00 0.00000E+00 0.00000E+00
 -1      1140 0.00000E+00 0.00000E+00 0.00000E+00
 -1      1141 0.00000E+00 0.00000E+00 0.00000E+00
 -1      1142 0.00000E+00 0.00000E+00 0.00000E+00
 -1      1143 0.00000E+00 0.00000E+00 0.00000E+00
 -1      1144 0.00000E+00 0.00000E+00 0.00000E+00
 -1      1145 0.00000E+00 0.00000E+00 0.00000E+00
 -1      1146 0.00000E+00 0.00000E+00 0.00000E+00
 -1      1147 0.00000E+00 0.00000E+00 0.00000E+00
 -1      1148 0.00000E+00 0.00000E+00 0.00000E+00
 -1      1149 0.00000E+00 0.00000E+00 0.00000E+00
 -1      1150 0.00000E+00 0.00000E+00 0.00000E+00
 -1      1151 0.00000E+00 0.00000E+00 0.00000E+00
 -1      1152 0.00000E+00 0.00000E+00 0.00000E+00
 -1      1153 6.82100E-03-2.80969E-04-6.19444E-02
 -1      1154-2.75366E-03 5.80420E-04-8.59654E-02
 -1      1155-2.70231E-03-2.29418E-04-8.58831E-02
 -1      1156 6.31360E-05-1.15882E-04-8.35803E-02
 -1      1157-1.29284E-02 3.55009E-04-6.86834E-02
 -1      1158-8.98313E-03-1.59413E-04-8.13598E-02
 -1      1159-3.61580E-03-3.43654E-06-7.64126E-02
 -1      1160-3.57076E-03 1.71330E-04-6.23149E-02
 -1      1161-3.45440E-03-2.11762E-05-6.96732E-02
 -1      1162-3.54478E-03-2.54418E-04-7.65552E-02
 -1      1163-2.87571E-03 2.49271E-04-8.39935E-02
 -1      1164-9.38840E-03-9.03116E-03-6.61832E-02
 -1      1165-5.52113E-03-8.12379E-03-7.79212E-02
 -1      1166-5.54759E-03-7.55453E-03-7.47346E-02
 -1      1167-9.50124E-03-8.61423E-03-6.34610E-02
 -1      1168-1.09484E-04-7.05865E-03-8.40546E-02
 -1      1169 2.47930E-03-6.02093E-03-8.20562E-02
 -1      1170 2.69800E-03-5.49473E-03-7.35614E-02
 -1      1171 2.02872E-06-6.36963E-03-7.64939E-02
 -1      1172 6.52406E-03-4.80095E-03-6.77332E-02
 -1      1173-3.31207E-03-1.24723E-03-7.36118E-02
 -1      1174-3.51595E-03-8.32694E-04-6.07296E-02
 -1      1175-3.13252E-03-2.10040E-03-6.44531E-02
 -1      1176-3.18510E-03-1.51254E-03-6.83463E-02
 -1      1177-2.60215E-03-1.32982E-03-8.27151E-02
 -1      1178 7.37059E-04-1.28290E-02-5.31605E-02
 -1      1179 3.79501E-03-1.20889E-02-6.22011E-02
 -1      1180 3.37491E-03-1.18858E-02-5.50783E-02
 -1      1181 3.40474E-04-1.27944E-02-4.75638E-02
 -1      1182 7.62346E-03-1.03289E-02-6.94113E-02
 -1      1183 9.33407E-03-9.28282E-03-6.81376E-02
 -1      1184 1.20301E-02-7.77406E-03-4.86160E-02
 -1      1185-2.37827E-03-1.59033E-03-4.98973E-02
 -1      1186-8.56951E-04-2.86592E-03-4.83710E-02
 -1      1187-1.78801E-03-1.99995E-03-4.89699E-02
 -1      1188-1.47693E-03-2.16655E-03-6.85661E-02
 -1      1189 1.37617E-02-6.92339E-03-2.27779E-02
 -1      1190 8.64675E-03-9.10836E-03-2.90540E-02
 -1      1191 1.15931E-02-8.21098E-03-3.50951E-02
 -1      1192 8.35665E-03-9.26991E-03-2.24133E-02
 -1      1193 2.05962E-02-5.53113E-03-1.46690E-02
 -1      1194 1.86056E-02-5.46450E-03-3.47068E-02
 -1      1195 2.09287E-02-5.51295E-03-3.01557E-02
 -1      1196 1.81422E-02-5.77455E-03-2.14226E-02
 -1      1197-1.17029E-03-1.38053E-03-3.08001E-02
 -1      1198 1.28728E-03-1.74358E-03-3.53937E-02
 -1      1199 1.01210E-03-1.95303E-03-2.28308E-02
 -1      1200-1.07112E-04-1.49775E-03-2.17793E-02
 -1      1201 2.32556E-04-1.70415E-03-4.28829E-02
 -1      1202 1.69982E-02 4.75892E-04 1.15472E-02
 -1      1203 1.31961E-02 4.83267E-04-3.83449E-03
 -1      1204 1.52299E-02 4.62417E-04-4.56850E-03
 -1      1205 1.52143E-02 1.27140E-04 5.12663E-03
 -1      1206 1.31540E-02 1.62718E-04 3.76685E-03
 -1      1207 1.99030E-02 1.45963E-04 8.56225E-03
 -1      1208 1.78200E-02 3.30435E-04-1.04231E-02
 -1      1209-5.55003E-04-3.05454E-04-6.34269E-03
 -1      1210 2.00641E-03-2.73270E-06 3.68285E-03
 -1      1211 3.86473E-04 1.36813E-04 8.84682E-03
 -1      1212 1.53160E-02 6.89389E-03 2.35759E-02
 -1      1213 1.78226E-02 6.40446E-03 2.57539E-02
 -1      1214 2.05682E-02 6.26300E-03 1.95239E-02
 -1      1215 2.08426E-02 6.17637E-03 3.52523E-02
 -1      1216 1.83808E-02 6.24074E-03 3.86918E-02
 -1      1217 8.40874E-03 9.95500E-03 2.43231E-02
 -1      1218 1.12712E-02 9.07732E-03 2.85723E-02
 -1      1219 1.20056E-02 8.73824E-03 3.74264E-02
 -1      1220 8.92086E-03 9.46719E-03 3.09204E-02
 -1      1221-8.12825E-04 1.06811E-03 1.93419E-02
 -1      1222 1.31516E-03 1.85440E-03 2.90833E-02
 -1      1223 1.10292E-03 1.96850E-03 3.11974E-02
 -1      1224-5.23818E-04 1.52853E-03 3.92386E-02
 -1      1225 2.81687E-04 1.41214E-02 4.92820E-02
 -1      1226 3.28501E-03 1.28767E-02 5.83408E-02
 -1      1227 3.79033E-03 1.30812E-02 6.54974E-02
 -1      1228 5.59353E-04 1.41210E-02 5.51734E-02
 -1      1229 9.53426E-03 9.71655E-03 5.48830E-02
 -1      1230 9.59044E-03 1.00887E-02 7.31640E-02
 -1      1231 7.84975E-03 1.12952E-02 7.37333E-02
 -1      1232 1.30862E-02 9.01854E-03 6.37722E-02
 -1      1233-1.80619E-03 1.53838E-03 4.28062E-02
 -1      1234-9.86453E-04 3.00344E-03 5.56146E-02
 -1      1235-1.83620E-03 2.13299E-03 6.44281E-02
 -1      1236-9.76588E-03 9.15116E-03 6.78758E-02
 -1      1237-5.54067E-03 7.92070E-03 7.94127E-02
 -1      1238-9.17573E-03 9.09769E-03 7.07276E-02
 -1      1239 2.70390E-03 5.86820E-03 7.90344E-02
 -1      1240 2.33980E-03 6.35322E-03 8.80392E-02
 -1      1241-3.57665E-04 7.48476E-03 8.96941E-02
 -1      1242 6.56876E-03 5.96678E-03 7.88155E-02
 -1      1243-3.00305E-03 1.38307E-03 6.01041E-02
 -1      1244-2.27071E-03 1.71804E-03 8.05150E-02
 -1      1245-2.78733E-03 1.90446E-03 7.12533E-02
 -1      1246-3.01269E-03 1.22028E-03 7.96610E-02
 -1      1247-1.36848E-02-1.11454E-03 7.26459E-02
 -1      1248-9.67554E-03-1.21625E-03 8.59357E-02
 -1      1249-9.34143E-03-5.03828E-04 8.57651E-02
 -1      1250-1.34143E-02-8.09654E-04 7.22478E-02
 -1      1251-4.51695E-04-1.43261E-03 9.01875E-02
 -1      1252-4.34349E-04-9.68353E-04 8.88763E-02
 -1      1253-3.76211E-03-5.36205E-04 9.09202E-02
 -1      1254 3.90338E-03-5.90937E-04 8.15206E-02
 -1      1255-3.80270E-03 3.24228E-05 6.85875E-02
 -1      1256-2.45759E-03-2.21515E-04 8.75072E-02
 -1      1257-3.86044E-03-1.91226E-04 7.28355E-02
 -1      1258-3.68268E-03-4.01346E-04 8.22923E-02
 -1      1259 6.43118E-03-6.47840E-03 7.17751E-02
 -1      1260 8.69594E-03-6.57500E-03 6.58198E-02
 -1      1261 2.38433E-03-6.95176E-03 7.66799E-02
 -1      1262-1.78977E-04-7.64356E-03 7.86382E-02
 -1      1263-5.78063E-03-8.89064E-03 7.61567E-02
 -1      1264-9.63792E-03-1.01576E-02 6.40148E-02
 -1      1265-5.74357E-03-9.54088E-03 8.00551E-02
 -1      1266-3.23884E-03-1.18035E-03 6.62757E-02
 -1      1267-2.86626E-03-2.06463E-03 6.48400E-02
 -1      1268-3.13215E-03-1.72168E-03 7.24040E-02
 -1      1269 1.43469E-02-8.32677E-03 5.39541E-02
 -1      1270 8.52768E-03-9.38925E-03 5.37399E-02
 -1      1271 6.20284E-03-1.04243E-02 5.58111E-02
 -1      1272 2.53450E-03-1.26898E-02 5.58113E-02
 -1      1273-7.05150E-04-1.37133E-02 4.71266E-02
 -1      1274 2.92463E-03-1.29178E-02 6.27732E-02
 -1      1275-2.32651E-03-1.77957E-03 5.47061E-02
 -1      1276-1.09413E-03-3.10407E-03 4.75913E-02
 -1      1277-1.61938E-03-2.20038E-03 5.27264E-02
 -1      1278 1.53668E-02-7.15544E-03 4.55289E-02
 -1      1279 1.75850E-02-6.52238E-03 2.55051E-02
 -1      1280 2.05524E-02-6.30766E-03 3.48739E-02
 -1      1281 7.96950E-03-9.33440E-03 3.00832E-02
 -1      1282 1.04096E-02-9.13017E-03 2.83266E-02
 -1      1283 7.61317E-03-9.53931E-03 2.37398E-02
 -1      1284 1.10282E-02-8.66057E-03 3.63989E-02
 -1      1285 1.34917E-02-7.66060E-03 2.49016E-02
 -1      1286-1.06205E-03-1.41592E-03 3.52979E-02
 -1      1287 1.17207E-03-1.87606E-03 3.69516E-02
 -1      1288 7.67035E-04-2.03364E-03 2.42761E-02
 -1      1289-1.28308E-04-1.70698E-03 2.55536E-02
 -1      1290 1.76813E-02-4.79105E-04 1.32620E-02
 -1      1291 2.22860E-02-4.75912E-04-5.86911E-03
 -1      1292 2.00549E-02-6.13107E-04-4.96985E-03
 -1      1293 2.23213E-02-3.08945E-04 1.02384E-02
 -1      1294 1.21814E-02-6.16837E-04-2.84289E-03
 -1      1295 1.46345E-02-1.27460E-04 5.63446E-03
 -1      1296 1.76620E-02-2.22941E-04-1.01828E-02
 -1      1297 1.66432E-02-3.64114E-04-9.05683E-03
 -1      1298-6.42047E-04-3.44685E-04 1.08185E-02
 -1      1299 2.14164E-03-1.07613E-04 5.33972E-03
 -1      1300 1.97203E-03-1.33466E-04-2.76133E-03
 -1      1301 4.63552E-04-6.65922E-05-5.31130E-03
 -1      1302 1.41493E-02 6.71089E-03-4.17004E-02
 -1      1303 1.14822E-02 7.73008E-03-3.44562E-02
 -1      1304 8.80239E-03 8.51982E-03-2.90654E-02
 -1      1305 8.41195E-03 8.71607E-03-2.27826E-02
 -1      1306 1.09085E-02 8.10873E-03-2.64256E-02
 -1      1307 1.78896E-02 5.14419E-03-3.41705E-02
 -1      1308 1.98049E-02 5.12850E-03-1.49045E-02
 -1      1309-8.25869E-04 9.12872E-04-1.46725E-02
 -1      1310 1.19608E-03 1.88434E-03-2.94383E-02
 -1      1311-3.99968E-04 1.29001E-03-3.44497E-02
 -1      1312 1.20870E-02 7.77399E-03-5.71309E-02
 -1      1313 1.43840E-02 7.41474E-03-3.70770E-02
 -1      1314 7.12423E-03 9.81449E-03-6.71768E-02
 -1      1315 6.74691E-03 9.45282E-03-5.24007E-02
 -1      1316 8.73864E-03 8.52857E-03-4.98983E-02
 -1      1317 5.07241E-05 1.21156E-02-4.97017E-02
 -1      1318 2.35772E-03 1.15648E-02-5.30562E-02
 -1      1319-1.74215E-03 1.90825E-03-4.79849E-02
 -1      1320-1.76108E-03 1.37220E-03-3.70700E-02
 -1      1321-4.74688E-04 2.44648E-03-4.99870E-02
 -1      1322-1.61932E-03 1.87220E-03-5.80958E-02
 -1      1323-4.86408E-04 1.98051E-03-5.02326E-02
 -1      1324 6.51042E-03 6.01935E-03-7.22818E-02
 -1      1325 8.97007E-03 5.52898E-03-5.37594E-02
 -1      1326-1.06893E-04 7.49177E-03-8.27298E-02
 -1      1327 1.77144E-04 6.81615E-03-7.43747E-02
 -1      1328 2.55420E-03 6.07073E-03-7.21590E-02
 -1      1329-8.95962E-03 9.87270E-03-6.44219E-02
 -1      1330-5.13555E-03 8.06903E-03-7.25800E-02
 -1      1331-3.07981E-03 1.48000E-03-6.75856E-02
 -1      1332-3.02055E-03 1.21641E-03-5.37560E-02
 -1      1333-2.79383E-03 1.90026E-03-6.48019E-02
 -1      1334-3.04381E-03 1.21440E-03-7.31438E-02
 -1      1335-2.16130E-03 1.53139E-03-7.24846E-02
 -1      1336 0.00000E+00 0.00000E+00 0.00000E+00
 -1      1337 0.00000E+00 0.00000E+00 0.00000E+00
 -1      1338 0.00000E+00 0.00000E+00 0.00000E+00
 -1      1339 0.00000E+00 0.00000E+00 0.00000E+00
 -1      1340 0.00000E+00 0.00000E+00 0.00000E+00
 -1      1341 0.00000E+00 0.00000E+00 0.00000E+00
 -1      1342 0.00000E+00 0.00000E+00 0.00000E+00
 -1      1343 0.00000E+00 0.00000E+00 0.00000E+00
 -1      1344 0.00000E+00 0.00000E+00 0.00000E+00
 -1      1345 0.00000E+00 0.00000E+00 0.00000E+00
 -1      1346 0.00000E+00 0.00000E+00 0.00000E+00
 -1      1347 0.00000E+00 0.00000E+00 0.00000E+00
 -1      1348 0.00000E+00 0.00000E+00 0.00000E+00
 -1      1349 0.00000E+00 0.00000E+00 0.00000E+00
 -1      1350 0.00000E+00 0.00000E+00 0.00000E+00
 -1      1351 0.00000E+00 0.00000E+00 0.00000E+00
 -1      1352 0.00000E+00 0.00000E+00 0.00000E+00
 -1      1353 0.00000E+00 0.00000E+00 0.00000E+00
 -1      1354 0.00000E+00 0.00000E+00 0.00000E+00
 -1      1355 0.00000E+00 0.00000E+00 0.00000E+00
 -1      1356 0.00000E+00 0.00000E+00 0.00000E+00
 -1      1357 0.00000E+00 0.00000E+00 0.00000E+00
 -1      1358 0.00000E+00 0.00000E+00 0.00000E+00
 -1      1359 0.00000E+00 0.00000E+00 0.00000E+00
 -1      1360 0.00000E+00 0.00000E+00 0.00000E+00
 -1      1361 0.00000E+00 0.00000E+00 0.00000E+00
 -1      1362 0.00000E+00 0.00000E+00 0.00000E+00
 -1      1363 0.00000E+00 0.00000E+00 0.00000E+00
 -1      1364 0.00000E+00 0.00000E+00 0.00000E+00
 -1      1365 0.00000E+00 0.00000E+00 0.00000E+00
 -1      1366 0.00000E+00 0.00000E+00 0.00000E+00
 -1      1367 0.00000E+00 0.00000E+00 0.00000E+00
 -1      1368 0.00000E+00 0.00000E+00 0.00000E+00
 -1      1369 0.00000E+00 0.00000E+00 0.00000E+00
 -1      1370 0.00000E+00 0.00000E+00 0.00000E+00
 -1      1371 0.00000E+00 0.00000E+00 0.00000E+00
 -1      1372 0.00000E+00 0.00000E+00 0.00000E+00
 -1      1373 0.00000E+00 0.00000E+00 0.00000E+00
 -1      1374 0.00000E+00 0.00000E+00 0.00000E+00
 -1      1375 0.00000E+00 0.00000E+00 0.00000E+00
 -1      1376 0.00000E+00 0.00000E+00 0.00000E+00
 -1      1377 0.00000E+00 0.00000E+00 0.00000E+00
 -1      1378 0.00000E+00 0.00000E+00 0.00000E+00
 -1      1379 0.00000E+00 0.00000E+00 0.00000E+00
 -1      1380 0.00000E+00 0.00000E+00 0.00000E+00
 -1      1381 0.00000E+00 0.00000E+00 0.00000E+00
 -1      1382 0.00000E+00 0.00000E+00 0.00000E+00
 -1      1383 0.00000E+00 0.00000E+00 0.00000E+00
 -1      1384 0.00000E+00 0.00000E+00 0.00000E+00
 -1      1385 0.00000E+00 0.00000E+00 0.00000E+00
 -1      1386 0.00000E+00 0.00000E+00 0.00000E+00
 -1      1387 0.00000E+00 0.00000E+00 0.00000E+00
 -1      1388 0.00000E+00 0.00000E+00 0.00000E+00
 -1      1389 0.00000E+00 0.00000E+00 0.00000E+00
 -1      1390 0.00000E+00 0.00000E+00 0.00000E+00
 -1      1391 0.00000E+00 0.00000E+00 0.00000E+00
 -1      1392 0.00000E+00 0.00000E+00 0.00000E+00
 -1      1393 0.00000E+00 0.00000E+00 0.00000E+00
 -1      1394 0.00000E+00 0.00000E+00 0.00000E+00
 -1      1395 0.00000E+00 0.00000E+00 0.00000E+00
 -1      1396 0.00000E+00 0.00000E+00 0.00000E+00
 -1      1397 0.00000E+00 0.00000E+00 0.00000E+00
 -1      1398 0.00000E+00 0.00000E+00 0.00000E+00
 -1      1399 0.00000E+00 0.00000E+00 0.00000E+00
 -1      1400 0.00000E+00 0.00000E+00 0.00000E+00
 -1      1401 0.00000E+00 0.00000E+00 0.00000E+00
 -1      1402 0.00000E+00 0.00000E+00 0.00000E+00
 -1      1403 0.00000E+00 0.00000E+00 0.00000E+00
 -1      1404 0.00000E+00 0.00000E+00 0.00000E+00
 -1      1405 0.00000E+00 0.00000E+00 0.00000E+00
 -1      1406 0.00000E+00 0.00000E+00 0.00000E+00
 -1      1407 0.00000E+00 0.00000E+00 0.00000E+00
 -1      1408 0.00000E+00 0.00000E+00 0.00000E+00
 -1      1409-2.38779E-03 1.36781E-03-4.64406E-02
 -1      1410-2.95323E-03 1.13403E-03-4.93527E-02
 -1      1411-9.97256E-04 9.80820E-04 1.76970E-02
 -1      1412-6.44912E-04 2.25915E-04 1.16202E-02
 -1      1413-8.00020E-04-9.08517E-04-1.25694E-02
 -1      1414-7.59005E-04-3.93578E-04-6.45089E-03
 -1      1415-8.65675E-04 9.54877E-04 2.46940E-02
 -1      1416-3.21754E-03-1.33132E-03-5.06573E-02
 -1      1417-2.35917E-03-1.51948E-03-4.68971E-02
 -1      1418-2.11989E-03-1.71566E-03-3.45353E-02
 -1      1419-1.31347E-03-1.36612E-03-2.92863E-02
 -1      1420-3.45660E-03 7.25658E-04 6.33867E-02
 -1      1421-3.75760E-03 1.45949E-04 6.40340E-02
 -1      1422-2.39632E-03-1.74815E-03 5.20615E-02
 -1      1423-2.79367E-03-1.41773E-03 5.49125E-02
 -1      1424-2.01471E-03 1.29233E-03-3.39817E-02
 -1      1425-1.55699E-03 1.00899E-03-2.91381E-02
 -1      1426-1.93509E-03-1.66798E-03 3.93621E-02
 -1      1427-1.33319E-03-1.44330E-03 3.41600E-02
 -1      1428-3.57538E-03-8.61736E-04-5.70950E-02
 -1      1429-3.46216E-03-4.16022E-04-5.76452E-02
 -1      1430-3.32468E-03-1.02005E-03 6.27808E-02
 -1      1431-3.67824E-03-4.78012E-04 6.37589E-02
 -1      1432-3.27442E-03 6.86483E-04-5.69815E-02
 -1      1433-3.42189E-03 3.33033E-04-5.77437E-02
 -1      1434-9.88488E-04-1.20961E-03 1.74596E-02
 -1      1435-7.14170E-04-3.56924E-04 1.12538E-02
 -1      1436-8.53510E-04-1.19453E-03 2.43921E-02
 -1      1437-1.90808E-03 1.44374E-03 3.98163E-02
 -1      1438-1.40727E-03 1.20451E-03 3.45653E-02
 -1      1439-8.91842E-04 7.54138E-04-1.28231E-02
 -1      1440-7.34720E-04 4.47525E-05-6.62099E-03
 -1      1441-1.86286E-03-1.51720E-03-3.24700E-02
 -1      1442-1.36761E-03-1.27644E-03-2.87088E-02
 -1      1443-7.09346E-04-9.35441E-04-1.89305E-02
 -1      1444-2.51984E-03 1.44609E-03 5.30054E-02
 -1      1445-3.13835E-03 1.30051E-03 5.57250E-02
 -1      1446-2.49694E-03-1.13068E-03 5.52303E-02
 -1      1447-1.61696E-03-1.48734E-03 4.25061E-02
 -1      1448-1.59438E-03-1.40714E-03-3.77262E-02
 -1      1449-2.97251E-03-2.38959E-04 5.98632E-02
 -1      1450-1.82834E-03 1.14495E-03-3.20505E-02
 -1      1451-1.43651E-03 9.60514E-04-2.85096E-02
 -1      1452-2.69477E-03 8.86311E-04 5.56720E-02
 -1      1453-6.42064E-04 6.95629E-04-1.91458E-02
 -1      1454-1.74577E-03 1.13103E-03-3.71304E-02
 -1      1455-3.17075E-03-1.01326E-03 6.08962E-02
 -1      1456-3.34676E-03-5.45668E-04 6.14886E-02
 -1      1457-3.57015E-04-1.92347E-04 2.41661E-03
 -1      1458-9.47342E-04 7.69943E-04 1.64014E-02
 -1      1459-7.35961E-04 3.01760E-04 1.20892E-02
 -1      1460-3.98658E-04-1.44968E-04 2.51186E-03
 -1      1461-2.64898E-03-1.01946E-03-4.96328E-02
 -1      1462-1.03318E-03-2.40987E-04 6.03885E-02
 -1      1463-2.30223E-03-1.56829E-03 5.07794E-02
 -1      1464-2.60560E-03-1.37040E-03 5.30347E-02
 -1      1465 4.50626E-03 2.02615E-03-2.74568E-02
 -1      1466 4.76444E-03-2.33705E-03-2.76120E-02
 -1      1467-2.73425E-03-1.09282E-04-5.36848E-02
 -1      1468-3.09977E-03 6.48551E-04-5.48479E-02
 -1      1469-3.18900E-03 2.54639E-04-5.53913E-02
 -1      1470-1.58412E-03 1.18736E-03 4.30866E-02
 -1      1471-3.44696E-05-2.65848E-03 5.92277E-02
 -1      1472-2.55187E-03 8.14189E-04-4.92762E-02
 -1      1473-2.40290E-03 1.31242E-03 5.15012E-02
 -1      1474-2.81682E-03 1.14356E-03 5.34822E-02
 -1      1475-7.87723E-04-2.27686E-04-5.43339E-02
 -1      1476-2.27970E-03 1.21633E-03-4.50651E-02
 -1      1477-2.66257E-03 1.01914E-03-4.71960E-02
 -1      1478 5.55589E-03 2.33176E-04 1.15147E-02
 -1      1479 2.46712E-03-3.32909E-03-3.17733E-02
 -1      1480-1.77417E-03 1.32036E-03 3.78600E-02
 -1      1481-1.37116E-03 1.13625E-03 3.40543E-02
 -1      1482-8.12667E-04 5.13474E-04-1.14044E-02
 -1      1483-6.72720E-04 1.04777E-04-7.02203E-03
 -1      1484 4.70502E-03 2.39364E-03 1.63636E-02
 -1      1485-8.04691E-04-7.79545E-04-1.11667E-02
 -1      1486-7.11724E-04-3.78361E-04-6.80043E-03
 -1      1487 4.77943E-03-2.15380E-03-1.09666E-02
 -1      1488-2.80647E-03-1.23894E-03-4.82119E-02
 -1      1489-2.22826E-03-1.38171E-03-4.55755E-02
 -1      1490-5.18717E-05-2.36766E-03 5.21864E-02
 -1      1491 2.33559E-03-3.48695E-03 4.93276E-02
 -1      1492 1.16313E-04-2.05676E-03-4.70071E-02
 -1      1493 2.38467E-03 3.28421E-03 5.00403E-02
 -1      1494 2.32662E-03 2.89273E-03-3.13612E-02
 -1      1495-3.24228E-03-8.24906E-04-5.50194E-02
 -1      1496-3.18854E-03-3.71625E-04-5.54700E-02
 -1      1497-9.64821E-04-9.99730E-04 1.61756E-02
 -1      1498-7.41260E-04-4.87173E-04 1.17870E-02
 -1      1499 4.57309E-03 1.93811E-03-1.12942E-02
 -1      1500 4.61542E-03 2.47097E-03 3.31901E-02
 -1      1501 2.30565E-04 2.18068E-03 5.26557E-02
 -1      1502 2.46164E-03 3.22789E-03 3.71235E-02
 -1      1503-3.21316E-03 6.61718E-04 6.13358E-02
 -1      1504-3.40206E-03 1.00227E-04 6.18212E-02
 -1      1505-7.80428E-04-3.80920E-04 6.06795E-02
 -1      1506-1.77870E-03-1.55701E-03 3.74834E-02
 -1      1507-1.32799E-03-1.36070E-03 3.37145E-02
 -1      1508-9.85953E-04-1.32191E-04-5.44474E-02
 -1      1509 5.45338E-03-2.96384E-05-6.17470E-03
 -1      1510 2.32332E-03 2.93794E-03-4.36240E-02
 -1      1511 5.55667E-03-1.97138E-04-6.36061E-03
 -1      1512 2.76415E-05-2.17206E-03-5.33396E-02
 -1      1513 8.33673E-06 2.34387E-03 5.97107E-02
 -1      1514-1.96333E-03 1.09940E-03-4.04216E-02
 -1      1515 1.71535E-05 2.29108E-03-5.33089E-02
 -1      1516 4.92940E-05 2.12766E-03-4.63936E-02
 -1      1517 4.62247E-03-2.56786E-03 1.61494E-02
 -1      1518 2.52551E-03-3.23990E-03-4.43079E-02
 -1      1519 2.32451E-03-3.36737E-03 3.68498E-02
 -1      1520 4.54007E-03-2.68840E-03 3.28342E-02
 -1      1521 5.44945E-03-3.09237E-04 1.11663E-02
 -1      1522-5.53653E-03 1.28730E-03 6.46625E-02
 -1      1523-6.18920E-04-3.34661E-03 3.42727E-02
 -1      1524-4.43585E-03 2.83109E-04-2.20819E-02
 -1      1525-2.84281E-04-1.88988E-03 6.62595E-03
 -1      1526 7.74634E-04-1.56670E-03 9.05844E-03
 -1      1527 4.91957E-04-4.49122E-04 1.66529E-03
 -1      1528 7.23608E-04-3.02679E-03-3.08598E-02
 -1      1529-4.91538E-03-1.66269E-03-2.11361E-02
 -1      1530-5.08597E-04 2.04823E-03 7.49524E-03
 -1      1531-3.80572E-03-2.98146E-03-1.86179E-02
 -1      1532-2.41995E-03 2.05834E-03-1.55367E-02
 -1      1533 5.73356E-04-1.00337E-03-4.57007E-03
 -1      1534-4.17678E-04-2.28239E-03-7.56089E-03
 -1      1535 4.65971E-03 2.76054E-03 5.41863E-02
 -1      1536-2.78484E-03 3.10244E-03 1.90430E-02
 -1      1537-1.69165E-03 6.18655E-05 1.58983E-04
 -1      1538 5.62031E-04 7.87200E-04 3.47302E-03
 -1      1539-7.01683E-04-6.00896E-04 1.61884E-03
 -1      1540-2.03079E-04 2.03622E-03-8.43287E-03
 -1      1541-4.70558E-03 1.42445E-03-2.23657E-02
 -1      1542-3.97011E-03-5.30836E-04-8.50462E-02
 -1      1543-1.23480E-03 2.73479E-03-1.64108E-02
 -1      1544 5.47759E-03 1.48138E-03 3.48598E-02
 -1      1545-6.46924E-03-4.14035E-05 2.08384E-02
 -1      1546 1.58101E-03 3.56184E-03 4.10792E-02
 -1      1547 9.90112E-04 2.71644E-03 1.76901E-02
 -1      1548-2.91778E-03 1.67114E-03-4.68622E-02
 -1      1549-5.43457E-03-1.25506E-03-4.40104E-02
 -1      1550 2.63492E-03-3.21856E-03 5.24829E-02
 -1      1551-4.86182E-03-1.86676E-03-4.15131E-02
 -1      1552 3.80999E-03 2.94596E-03 2.78141E-02
 -1      1553 4.85285E-03 2.66498E-03 1.79076E-02
 -1      1554-4.96726E-03 2.16005E-03 2.17132E-02
 -1      1555-3.34438E-03-3.27117E-03 5.24467E-02
 -1      1556 4.98906E-05 2.90746E-03-2.16456E-02
 -1      1557-1.72946E-03-3.05286E-03 1.22088E-02
 -1      1558 3.62820E-03-2.89229E-03 1.93074E-02
 -1      1559 1.97083E-03 3.82574E-03-3.88173E-02
 -1      1560-5.05041E-04 2.84278E-03-3.38338E-02
 -1      1561-2.49367E-03 1.12103E-03-1.88957E-02
 -1      1562-4.21694E-03-2.23160E-03 1.94695E-02
 -1      1563-2.91414E-03 2.96152E-03 6.54679E-02
 -1      1564 2.93634E-04-1.81445E-04 2.64168E-03
 -1      1565 2.34027E-03-3.55275E-03 2.11383E-02
 -1      1566-1.32781E-03-3.08324E-03-1.70730E-02
 -1      1567-4.16787E-03-3.43115E-03-4.72722E-02
 -1      1568-2.85832E-03-3.13658E-03-2.05665E-02
 -1      1569-5.42835E-03 9.63464E-04-3.39872E-02
 -1      1570-1.16104E-03 3.10529E-03 1.49219E-02
 -1      1571-3.46662E-03 2.37305E-03-2.06796E-02
 -1      1572-7.99838E-04-2.52047E-03 8.76979E-03
 -1      1573 3.72890E-04 1.61729E-03-5.58117E-03
 -1      1574-9.16768E-04 3.00937E-03-2.84117E-02
 -1      1575-6.21017E-03 7.91222E-04 3.02802E-02
 -1      1576-4.50074E-03 1.24291E-04 6.10036E-03
 -1      1577-2.25634E-03-3.08786E-03 1.48131E-02
 -1      1578-4.00572E-03-1.77429E-03 4.37956E-02
 -1      1579 2.86778E-03-3.66288E-03 3.46954E-02
 -1      1580 1.14013E-03-3.56982E-03 1.90958E-02
 -1      1581 2.03596E-03-2.17454E-03 1.15093E-02
 -1      1582-5.06171E-03 1.22931E-03 1.92305E-02
 -1      1583-6.03928E-03-1.28641E-05 8.89105E-02
 -1      1584 6.57804E-03 2.94374E-05 3.25462E-02
 -1      1585-1.47347E-02 4.34849E-04-1.61847E-02
 -1      1586 4.98247E-03-2.71963E-03 3.09694E-02
 -1      1587-1.64638E-03 2.30762E-03-1.14508E-02
 -1      1588-3.25464E-03-3.34670E-03-3.20698E-02
 -1      1589 3.54704E-03 3.12697E-03-2.81924E-02
 -1      1590 5.22779E-04-2.45417E-03-4.45197E-02
 -1      1591 1.28575E-03-1.21532E-03-1.55419E-02
 -1      1592 1.11012E-03 1.36820E-03 1.24100E-02
 -1      1593 5.90363E-04 2.40621E-03-6.71361E-03
 -1      1594 1.89437E-03-9.81182E-04 7.94734E-03
 -1      1595 1.14631E-03 1.20000E-03-1.13433E-02
 -1      1596-2.97167E-03 2.85410E-03-4.98301E-02
 -1      1597-1.96147E-03 2.36595E-03-3.14527E-02
 -1      1598-4.75466E-03-3.20281E-03-1.93888E-02
 -1      1599 2.17036E-03-2.80469E-03-1.72696E-02
 -1      1600 4.98180E-03 1.56510E-03-4.40278E-02
 -1      1601 2.74025E-03 2.91337E-03-1.39503E-02
 -1      1602 6.50264E-04-1.93918E-03 3.18630E-03
 -1      1603 5.76128E-03-1.35686E-04-5.67851E-02
 -1      1604 5.45384E-03-1.14388E-03 3.18438E-02
 -1      1605-6.44191E-03-1.10161E-03-4.79546E-02
 -1      1606-5.94539E-04 6.49883E-04-2.83695E-03
 -1      1607-1.99940E-03-3.25791E-03-2.48511E-02
 -1      1608 6.38787E-04-1.23474E-04 2.63752E-04
 -1      1609-2.40104E-03-1.26046E-03-5.72753E-03
 -1      1610-2.62327E-05-8.88187E-04-2.82199E-03
 -1      1611-9.32873E-04-3.06339E-03 2.11408E-02
 -1      1612-5.57891E-03-9.40851E-04 3.00724E-02
 -1      1613-4.45407E-03-2.55064E-03-3.62322E-02
 -1      1614-5.46298E-03-6.51575E-04-3.31953E-02
 -1      1615-1.93477E-04 3.22624E-05-1.45004E-04
 -1      1616-3.75121E-03 3.45460E-03 4.16835E-02
 -1      1617-5.01169E-03 2.09467E-03 4.04063E-03
 -1      1618-6.35820E-03 1.25476E-03 6.04416E-02
 -1      1619-4.73867E-03 2.21287E-03-2.06810E-02
 -1      1620-8.51283E-04 2.38997E-04-6.68839E-04
 -1      1621 3.93618E-03 1.06888E-03-1.44053E-02
 -1      1622-2.49467E-03 1.97993E-03-7.91213E-03
 -1      1623-4.12203E-03 1.21864E-03-3.19965E-02
 -1      1624-4.78567E-03-2.47852E-03 3.98233E-02
 -1      1625 6.01915E-05-1.05140E-03 2.54501E-03
 -1      1626 1.43250E-04 2.28370E-04 6.61625E-04
 -1      1627-4.11909E-03 1.37753E-03 9.59485E-03
 -1      1628-2.89894E-03 3.04450E-03-3.34228E-02
 -1      1629-1.38790E-03-1.04495E-03-1.03907E-02
 -1      1630 1.37310E-03-1.54608E-04 8.64547E-02
 -1      1631-2.92057E-04-2.46364E-03 1.45141E-02
 -1      1632-3.40192E-03 9.77051E-04-1.15391E-02
 -1      1633 3.71791E-03 2.27390E-03 6.62285E-03
 -1      1634-5.58282E-03-2.14686E-05-3.88126E-02
 -1      1635 5.47465E-04 1.24652E-03 3.81103E-03
 -1      1636 3.25676E-04 2.06464E-03-1.13505E-02
 -1      1637-2.80890E-03 6.92083E-04-1.09142E-02
 -1      1638 4.20192E-03-3.17435E-03 3.57462E-02
 -1      1639-1.74003E-04 2.14528E-04-5.17754E-04
 -1      1640 1.94088E-03-2.17147E-03-8.58032E-03
 -1      1641-5.00353E-03-1.79475E-03 2.95327E-02
 -1      1642-6.22899E-04 3.31404E-03 3.58365E-02
 -1      1643 4.24771E-04 1.82994E-03 9.44516E-03
 -1      1644-4.48103E-04 1.81266E-03-5.76439E-03
 -1      1645 1.49085E-03 1.12516E-03 1.64285E-02
 -1      1646 3.04677E-05 9.82718E-04-1.95932E-03
 -1      1647-5.83162E-04-1.30003E-04 4.78733E-04
 -1      1648 6.23418E-04 1.17006E-03 7.85336E-03
 -1      1649 1.23773E-04 2.27248E-03 1.35072E-02
 -1      1650-4.04309E-03 9.15691E-04 8.34732E-02
 -1      1651-1.30072E-03-1.43781E-03-8.67060E-03
 -1      1652-1.49047E-03 1.05688E-03-9.76117E-03
 -1      1653-2.31579E-04 2.83485E-03-3.86646E-02
 -1      1654-2.20132E-04 1.98491E-03 1.32508E-02
 -1      1655-9.67638E-05-3.39291E-04 1.11456E-03
 -1      1656-8.01434E-03 8.37675E-04-5.14708E-02
 -1      1657-3.91787E-03 2.91114E-03 5.50699E-02
 -1      1658 1.21947E-03-1.94018E-03-2.13541E-02
 -1      1659 1.18585E-05-6.87935E-04-1.09439E-03
 -1      1660 3.53125E-03-2.13381E-03 1.04482E-02
 -1      1661 1.59739E-03 2.53471E-03 1.39127E-02
 -1      1662-9.79616E-03-1.09970E-03 5.44910E-02
 -1      1663-1.92836E-03-3.31412E-03 2.21229E-02
 -1      1664 1.38490E-03-1.40179E-03 1.49906E-02
 -1      1665 9.73111E-05-2.07305E-03 1.25467E-02
 -1      1666-2.18811E-03-2.63737E-03-6.55283E-02
 -1      1667-2.49599E-03-3.21914E-03-3.41607E-02
 -1      1668-1.59806E-03-3.60581E-03 2.40227E-02
 -1      1669-7.89442E-04 2.57330E-03-3.22235E-02
 -1      1670-1.96046E-04 5.28556E-04-1.60596E-03
 -1      1671-3.63431E-03 2.55246E-03-4.02500E-02
 -1      1672-5.03952E-04 9.95891E-04 3.41059E-03
 -1      1673 3.13646E-03 3.14935E-03-3.48329E-02
 -1      1674-4.40344E-03-3.00983E-03 2.03507E-02
 -1      1675 3.75482E-03-1.06908E-03 1.16312E-02
 -1      1676 4.94177E-03-7.66946E-04 6.34497E-02
 -1      1677-2.22366E-03 3.05135E-03-2.49495E-02
 -1      1678-2.93956E-03 1.55157E-03-2.75647E-02
 -1      1679-3.35556E-03-8.77422E-04-6.34777E-03
 -1      1680 1.76959E-03 1.68999E-03-5.36461E-03
 -1      1681 6.45512E-04 4.81719E-04-2.70048E-03
 -1      1682 2.81973E-03-1.31554E-03 6.62951E-03
 -1      1683-2.08701E-03-2.77835E-03 6.83697E-02
 -1      1684-9.94722E-04-5.07940E-04-3.39195E-03
 -1      1685 5.22363E-04-2.33039E-03-6.40972E-02
 -1      1686-3.85443E-03 4.67890E-04-2.26458E-02
 -1      1687-4.09345E-03-3.51654E-03-3.41779E-02
 -1      1688-2.21934E-03-8.23472E-04-7.05579E-03
 -1      1689 3.91339E-03-1.67241E-03 2.03677E-02
 -1      1690-2.35455E-03-1.51421E-03 4.99965E-03
 -1      1691-3.69488E-04-1.35535E-03-4.05176E-03
 -1      1692 2.29261E-03 1.10844E-03 7.28273E-03
 -1      1693 3.83914E-03-1.61147E-03 6.86682E-02
 -1      1694 1.03817E-03-5.27840E-04-3.22311E-03
 -1      1695-1.64293E-03-2.30287E-03 2.11587E-03
 -1      1696-3.83745E-03 2.38764E-03 1.44836E-02
 -1      1697-8.78120E-04-3.36250E-03-3.43660E-02
 -1      1698-1.05045E-03 2.05966E-03 8.63104E-03
 -1      1699-7.87395E-04 2.71444E-03 1.47013E-02
 -1      1700 3.10948E-05 8.35827E-04 1.74424E-03
 -1      1701-6.34436E-03-7.13261E-04 3.87011E-02
 -1      1702 3.94676E-04-2.43792E-03-4.74605E-02
 -1      1703-4.44361E-03-3.24659E-03-2.27653E-02
 -1      1704-1.94398E-03 7.09761E-04 6.71410E-03
 -1      1705-3.45833E-03-3.03478E-03-1.78320E-02
 -1      1706-2.42299E-03 2.20850E-03 4.14848E-02
 -1      1707-3.36801E-03-1.68558E-03 7.64769E-02
 -1      1708 3.95847E-03-1.99500E-04-2.01846E-02
 -1      1709 2.79683E-03-4.86939E-04 9.29127E-03
 -1      1710 2.99307E-03-3.68097E-03 2.23797E-02
 -1      1711 2.02823E-03-9.04257E-04 5.08134E-03
 -1      1712-4.23469E-03-5.11989E-04-1.09245E-02
 -1      1713 2.24840E-03 1.21789E-03 2.43926E-03
 -1      1714-4.64464E-03 1.95992E-03 1.64182E-02
 -1      1715 1.71850E-03 3.61522E-03 2.73272E-02
 -1      1716-4.54838E-03-2.47223E-03-1.80256E-02
 -1      1717 1.56639E-03 1.05457E-03-1.45610E-02
 -1      1718 1.92943E-04-5.40736E-04-8.52060E-04
 -1      1719-7.06187E-04 2.03810E-03-1.57560E-02
 -1      1720 4.09541E-04-1.12041E-03 4.21093E-03
 -1      1721-3.94622E-03 1.60235E-04 9.21248E-03
 -1      1722-2.07663E-04 2.39423E-03-4.37113E-02
 -1      1723-3.36621E-04 2.62671E-03-2.21222E-02
 -1      1724-4.69587E-05-1.15425E-03-5.43413E-03
 -1      1725 3.91668E-03 9.38300E-05 1.08054E-02
 -1      1726-1.11902E-03 1.84664E-03 7.27108E-02
 -1      1727 1.47662E-03 1.33214E-03 5.73464E-03
 -1      1728-1.60935E-03 2.93385E-03-1.80567E-02
 -1      1729-1.19310E-03 1.34632E-03-5.82412E-03
 -1      1730-1.16462E-03 6.64030E-04-4.26893E-03
 -1      1731 4.56333E-04-2.55467E-03-3.66600E-02
 -1      1732 8.31976E-04 5.94575E-04 3.33810E-03
 -1      1733-1.15503E-04 1.68332E-03 4.36163E-03
 -1      1734-9.62823E-04 1.48672E-03 5.10913E-03
 -1      1735 1.48815E-03 2.84200E-03-1.55763E-02
 -1      1736 9.38099E-04 2.06017E-03-6.12170E-03
 -1      1737-9.34917E-04 2.94148E-03-2.54095E-02
 -1      1738 1.18201E-03-1.77789E-03 6.83072E-03
 -1      1739-2.20097E-03 4.41030E-04 7.22901E-03
 -1      1740 1.36364E-03 2.58869E-03 1.47998E-02
 -1      1741-6.82862E-04-2.15392E-03 1.49175E-02
 -1      1742-5.96479E-03 1.23601E-03 4.10910E-02
 -1      1743-1.11164E-02-1.02972E-03-5.43828E-02
 -1      1744-2.50264E-03 1.24202E-03-7.52968E-03
 -1      1745-8.53277E-03-1.53870E-04-1.44702E-03
 -1      1746-2.59414E-03 2.19606E-03-3.70572E-02
 -1      1747-1.38618E-03 2.42129E-03 5.60882E-02
 -1      1748 8.24781E-04 2.83271E-03-1.68914E-02
 -1      1749 2.33807E-03 2.67117E-03 5.84514E-02
 -1      1750 4.62031E-03 4.72366E-04 1.07493E-02
 -1      1751-7.46293E-03-9.81268E-04 3.26089E-02
 -1      1752-1.22492E-03 2.59190E-03-2.57098E-02
 -1      1753 2.82266E-03-2.26108E-03-9.72419E-03
 -1      1754-4.32454E-04 2.47101E-04-1.10705E-03
 -1      1755 9.20003E-04 6.75487E-04-4.72815E-03
 -1      1756-6.87087E-04 5.28121E-04-2.75239E-03
 -1      1757 5.76746E-03 9.48989E-04 3.67936E-02
 -1      1758-1.11024E-05 2.47470E-03 2.95001E-02
 -1      1759-2.48685E-03-2.66374E-03 6.37949E-02
 -1      1760-1.20951E-02-7.83294E-04 1.76376E-02
 -1      1761 3.30841E-03-9.55493E-05-1.10564E-02
 -1      1762 3.35227E-03-2.22090E-03-5.69884E-03
 -1      1763 2.43456E-03 6.08621E-04-7.66329E-03
 -1      1764-1.36645E-02 8.79570E-05 5.49951E-02
 -1      1765-1.47077E-02-7.96510E-04 3.21870E-02
 -1      1766-6.80573E-03-1.13777E-03-7.02317E-02
 -1      1767 3.07469E-03-3.41430E-03-4.08405E-02
 -1      1768 4.68885E-03 1.46293E-03 1.33880E-02
 -1      1769 2.30396E-04-1.15556E-03-3.15160E-03
 -1      1770-1.54430E-03-7.90687E-04 4.86563E-03
 -1      1771-1.85117E-03 1.20480E-03 1.40550E-02
 -1      1772 6.62541E-04 4.71644E-04 1.65003E-03
 -1      1773-4.05263E-03-7.89527E-05 2.29353E-03
 -1      1774 2.17280E-03 2.58041E-05-4.53088E-03
 -1      1775 0.00000E+00 0.00000E+00 0.00000E+00
 -1      1776 8.90666E-04 2.22197E-03-8.53322E-03
 -1      1777 4.49168E-03-1.12615E-03 1.71915E-02
 -1      1778 5.28609E-03-8.26373E-04-3.51882E-02
 -1      1779-1.07941E-02-9.80646E-04 6.52098E-02
 -1      1780-5.12923E-03 2.74663E-03 3.23473E-02
 -1      1781-1.31814E-03-1.94413E-03 5.41638E-03
 -1      1782 5.89216E-04 1.68205E-03-1.14915E-02
 -1      1783 7.81632E-04 1.18031E-03-8.17890E-03
 -1      1784-7.50989E-05-4.90796E-05 4.41382E-04
 -1      1785-6.28952E-03 2.03758E-03 4.01763E-02
 -1      1786-6.26984E-06 1.35824E-03-3.70876E-03
 -1      1787-9.85649E-03-1.12205E-03-4.72942E-02
 -1      1788 3.40280E-03-2.92329E-03 5.94512E-02
 -1      1789 4.68434E-03 2.99383E-03 3.95961E-02
 -1      1790-3.73407E-03 3.32766E-03 2.46069E-02
 -1      1791-4.38610E-03 2.32044E-03 1.73350E-02
 -1      1792 3.94786E-03-5.03176E-04-2.18894E-02
 -1      1793 2.12289E-03 1.09265E-03 8.04647E-02
 -1      1794 2.51883E-06-4.14420E-04 8.27267E-04
 -1      1795-4.56299E-03-2.39307E-03-4.46294E-02
 -1      1796-5.05993E-03-1.25503E-04 4.47540E-03
 -1      1797-1.94800E-03-4.56669E-04 5.10833E-03
 -1      1798-6.20313E-03-2.17612E-04 4.40321E-02
 -1      1799-1.44477E-02-4.67083E-04 1.07283E-02
 -1      1800-5.94835E-03-1.34898E-03 5.87930E-02
 -1      1801-7.83355E-03-5.32284E-04-7.57596E-02
 -1      1802 3.10809E-03 3.07218E-03 4.41126E-02
 -1      1803-1.22170E-02 1.62547E-04-1.02260E-02
 -1      1804-6.02189E-03 6.99700E-04 5.34255E-02
 -1      1805 2.21544E-04 1.81275E-03-6.68440E-03
 -1      1806-6.19804E-04 1.91896E-03-6.82814E-03
 -1      1807 1.72334E-04-1.43745E-03-5.22106E-03
 -1      1808-3.21457E-03-8.64268E-04-9.05921E-03
 -1      1809-1.91298E-03 2.13928E-03-4.03740E-02
 -1      1810 9.73241E-04-1.32504E-03-1.07877E-02
 -1      1811 6.24497E-03-9.48460E-04 3.79618E-02
 -1      1812-5.69645E-03 1.15950E-03 1.77198E-02
 -1      1813-4.38760E-03-2.66466E-03 2.75082E-02
 -1      1814 2.29904E-03 2.03708E-03-7.47357E-03
 -1      1815 1.66506E-03-3.41087E-03 9.67214E-03
 -1      1816-3.39401E-03-2.45370E-03-4.78829E-03
 -1      1817-1.11305E-03-3.48156E-04 2.25615E-03
 -1      1818-5.16963E-03 3.85099E-04 1.90322E-02
 -1      1819-1.25518E-04 6.15738E-04 3.06193E-03
 -1      1820 1.98669E-03 1.52988E-04-4.99456E-03
 -1      1821-9.05218E-03 3.72007E-04-2.71194E-02
 -1      1822 5.43663E-04 8.35619E-04 4.39037E-03
 -1      1823-2.35813E-03 1.94418E-03 7.28724E-03
 -1      1824-2.69481E-03-1.33198E-03 5.82290E-03
 -1      1825 5.51243E-03 2.11788E-03 3.86000E-02
 -1      1826-1.77533E-03-1.23095E-03 1.08354E-02
 -1      1827 5.49533E-03-1.13554E-03 5.04264E-02
 -1      1828 7.64622E-04 3.25514E-03-2.74527E-02
 -1      1829 3.47845E-03 2.90473E-03 5.60031E-02
 -1      1830 1.81076E-03 6.98734E-04 1.04684E-02
 -1      1831-2.20308E-03 1.53715E-04-7.44988E-03
 -1      1832-5.74467E-03-8.98718E-04-7.88319E-02
 -1      1833-6.55609E-04-2.40005E-03-2.14042E-02
 -1      1834 2.84135E-03-8.71524E-04 7.61847E-02
 -1      1835-2.01131E-03 1.73634E-03 2.58658E-02
 -1      1836-1.21323E-02 4.80619E-04 1.70357E-02
 -1      1837-8.22299E-04-1.23911E-03-4.14323E-03
 -1      1838-1.58558E-03-2.47072E-03-1.44333E-02
 -1      1839-4.03320E-04 7.25993E-04-8.35620E-02
 -1      1840-4.95231E-03 1.58624E-03 6.58909E-02
 -1      1841-3.87496E-03-1.15600E-03-7.09455E-02
 -1      1842 5.43495E-04-1.54397E-03-4.77764E-03
 -1      1843-9.58132E-03-1.09039E-03-6.18790E-02
 -1      1844 1.39815E-03 8.35669E-04 3.49505E-03
 -1      1845-4.01986E-04 1.59984E-03-2.81585E-03
 -1      1846 4.44794E-04 2.68170E-03 5.99594E-02
 -1      1847-4.64874E-03-3.40157E-03-3.72923E-02
 -1      1848 9.13204E-05 9.58224E-04-4.24967E-04
 -1      1849-4.84850E-03 4.60398E-04 6.79343E-02
 -1      1850-2.52876E-03 3.65350E-03 2.96676E-02
 -1      1851-1.37851E-03-3.42315E-03-2.71150E-02
 -1      1852-8.24346E-04-7.14040E-04 4.81285E-03
 -1      1853-1.06854E-02 7.93340E-04-3.88123E-02
 -1      1854-6.05164E-03 1.06624E-04 3.01971E-02
 -1      1855-2.67745E-03-1.67263E-03 2.57469E-02
 -1      1856 1.21888E-03 3.03341E-03-1.88113E-02
 -1      1857-6.81971E-03-1.33626E-03 7.57085E-02
 -1      1858-1.57274E-02-4.73911E-05-7.81729E-03
 -1      1859-2.20739E-03 2.75790E-03-4.59287E-02
 -1      1860-3.89115E-05-1.05024E-03 3.52194E-03
 -1      1861-1.07148E-02 3.43617E-04-2.47634E-02
 -1      1862-2.91348E-03-1.10885E-03 8.22411E-02
 -1      1863 1.78420E-03-1.27995E-03 6.18063E-03
 -1      1864-1.38617E-04-2.88051E-03 4.47775E-02
 -1      1865-1.47169E-04-2.91908E-03 3.14027E-02
 -1      1866-4.65076E-04-1.85715E-03 2.31947E-03
 -1      1867-4.68671E-03 1.55502E-03-4.96018E-02
 -1      1868-7.74135E-04 1.50502E-03-8.28504E-03
 -1      1869 0.00000E+00 0.00000E+00 0.00000E+00
 -1      1870 1.97543E-04 7.04810E-04 1.52037E-03
 -1      1871-1.24581E-03 2.45612E-03 3.35468E-02
 -1      1872 1.97590E-04 2.55821E-03-1.15940E-02
 -1      1873-4.70124E-03-1.94533E-03 4.42805E-02
 -1      1874-2.66083E-03-8.96701E-04 1.02532E-02
 -1      1875-3.87345E-03 3.96575E-04-1.10156E-02
 -1      1876 2.92794E-03-1.63598E-03-6.93055E-02
 -1      1877-2.81989E-03-7.68578E-05-3.82977E-04
 -1      1878 1.03377E-03 1.49906E-03-9.93915E-03
 -1      1879 1.15504E-03-3.57247E-04-9.81989E-04
 -1      1880-2.56393E-03-2.15706E-03 5.94132E-02
 -1      1881-2.71589E-03 2.15631E-03 8.27907E-03
 -1      1882 5.75594E-05 3.11868E-03 5.10881E-02
 -1      1883 1.16561E-03-9.22564E-04-6.08558E-03
 -1      1884-3.03154E-03-1.27351E-03 1.93678E-03
 -1      1885-7.00971E-04 2.50745E-03 2.29714E-02
 -1      1886-2.04057E-03 2.99898E-03 1.68486E-02
 -1      1887 1.40919E-03-2.46264E-03-1.02696E-02
 -1      1888-9.74269E-03-8.25621E-04-6.66050E-02
 -1      1889 1.23399E-03-1.36493E-03 4.46755E-03
 -1      1890-2.98408E-03 3.60259E-03 3.62127E-02
 -1      1891-8.49761E-04 2.72650E-04-2.39459E-03
 -1      1892-2.70167E-03 3.14209E-03 5.47856E-02
 -1      1893-8.81725E-04 1.35788E-03-4.92412E-03
 -1      1894 2.36739E-04 2.29211E-03-1.73130E-02
 -1      1895 1.69062E-04-7.64393E-04-1.96076E-03
 -1      1896-5.75359E-03 1.23567E-03 5.24379E-02
 -1      1897-1.77686E-03 1.85728E-03-4.80094E-03
 -1      1898 3.01715E-03-3.00887E-03 1.94188E-02
 -1      1899-8.02427E-03-1.09485E-03-5.97747E-02
 -1      1900-2.59464E-03-3.72268E-03 3.00367E-02
 -1      1901-3.43547E-04-2.47022E-03-1.54435E-02
 -1      1902 2.84347E-03-3.36228E-04 7.71842E-02
 -1      1903 4.06728E-04 2.75250E-03-1.47282E-02
 -1      1904-9.16141E-03 8.67897E-04-3.96560E-02
 -1      1905 2.93895E-03 3.12609E-03-2.06458E-02
 -1      1906-1.64286E-03 2.23396E-03-6.51687E-02
 -1      1907-7.66650E-04 2.60384E-03-5.48531E-02
 -1      1908 9.84344E-04-4.00873E-03 2.97721E-02
 -1      1909-4.32760E-05 1.49878E-03-3.54104E-03
 -1      1910 2.58764E-03 1.07331E-03-7.82461E-03
 -1      1911-1.81691E-03-9.30141E-04-5.12679E-03
 -1      1912-3.17164E-03-1.35532E-03-7.60073E-02
 -1      1913 0.00000E+00 0.00000E+00 0.00000E+00
 -1      1914 7.37380E-04-3.76832E-04-8.25472E-02
 -1      1915 5.98772E-03 6.51764E-04 2.52269E-02
 -1      1916 4.62169E-03 4.22406E-04 9.21410E-03
 -1      1917 7.79943E-05 1.16540E-05 4.45742E-05
 -1      1918-4.10829E-03 1.18324E-03-6.99705E-02
 -1      1919 7.22151E-04-1.99111E-03 1.54417E-02
 -1      1920 4.33364E-04-1.63759E-03-1.06641E-02
 -1      1921-1.30009E-03 4.82223E-04-1.34863E-03
 -1      1922 5.40605E-05-2.59035E-03 4.03818E-02
 -1      1923-2.83927E-03 3.10007E-04-4.77473E-03
 -1      1924-2.37567E-03 1.02725E-03 4.77191E-03
 -1      1925-1.41743E-03 2.25935E-03 2.76941E-02
 -1      1926-5.54728E-03 1.14821E-03-4.65273E-02
 -1      1927-8.80699E-04-2.12225E-03-5.33415E-03
 -1      1928 2.20630E-03 3.05681E-03 4.82277E-02
 -1      1929-1.04794E-02 4.04306E-04-5.99675E-02
 -1      1930-1.48769E-03 2.18855E-03 7.86672E-02
 -1      1931-1.34496E-04 1.14785E-03-4.47877E-03
 -1      1932-2.24346E-03 3.25169E-03 1.75689E-02
 -1      1933-4.08980E-04 2.66623E-03 4.00652E-02
 -1      1934-3.04134E-04-9.92323E-04 3.82725E-03
 -1      1935-2.99545E-03-1.70471E-03-3.90066E-02
 -1      1936-2.26123E-03-3.30756E-03 5.13062E-02
 -1      1937 1.63506E-03 3.19876E-03 5.03052E-02
 -1      1938 4.20272E-03 4.54008E-04 6.80175E-02
 -1      1939-9.26934E-03 8.00005E-04-4.93641E-02
 -1      1940-8.12530E-04 2.19984E-03-9.20581E-03
 -1      1941 1.58608E-04-2.46374E-05-1.49132E-02
 -1      1942-5.28293E-04-1.94193E-04-2.81073E-02
 -1      1943-1.46459E-04-2.22005E-04 3.37021E-02
 -1      1944 2.80848E-05-3.74961E-05-1.51142E-02
 -1      1945-8.22904E-05 1.86518E-04 2.04233E-02
 -1      1946 3.66257E-03-2.15191E-03 1.62702E-02
 -1      1947 3.61910E-03-3.47812E-03 3.62723E-02
 -1      1948 0.00000E+00 0.00000E+00 0.00000E+00
 -1      1949-7.33349E-04-1.93114E-03 3.63024E-03
 -1      1950-9.00135E-04-1.23799E-03 1.89186E-03
 -1      1951 3.27706E-04 1.30943E-03-3.37680E-03
 -1      1952-8.05187E-04-2.57547E-03-1.05403E-02
 -1      1953 1.13632E-03-2.09738E-03 1.78746E-03
 -1      1954-2.85296E-03 1.87467E-03 3.28837E-02
 -1      1955 2.75372E-03 3.67903E-03-2.72097E-02
 -1      1956-4.35413E-03 1.24697E-03 7.58029E-02
 -1      1957 5.17240E-04-3.45543E-03 5.53145E-02
 -1      1958 3.67235E-04 7.43759E-04 1.89418E-03
 -1      1959 0.00000E+00 0.00000E+00 0.00000E+00
 -1      1960 2.92535E-03 3.29864E-03 2.47340E-02
 -1      1961 3.92282E-04-2.14223E-03 7.39946E-02
 -1      1962 8.57641E-04 1.89399E-03 9.67903E-03
 -1      1963 1.38241E-03 1.36790E-05 6.00816E-03
 -1      1964 1.07410E-03 7.52916E-04 7.85008E-03
 -1      1965-8.25361E-04 1.15718E-03-6.32304E-03
 -1      1966-4.45860E-03-1.78845E-03 6.63392E-02
 -1      1967 4.47202E-06-2.70194E-03-4.11227E-02
 -1      1968-1.26681E-03-3.47645E-03 3.28975E-02
 -1      1969 9.75979E-04-1.31265E-03-5.44057E-03
 -1      1970-4.06347E-03-3.08822E-03-1.15713E-02
 -1      1971 4.30923E-03 9.79131E-04-6.62261E-02
 -1      1972-6.02837E-03-1.69581E-04-4.55018E-03
 -1      1973 1.45534E-03 9.44168E-05 4.47866E-03
 -1      1974-3.08536E-03-1.95801E-03-6.12317E-02
 -1      1975 4.07697E-04-9.13114E-04-3.28275E-03
 -1      1976-7.39065E-04 1.28652E-03-4.17860E-03
 -1      1977-5.64660E-04-2.94033E-03 4.48527E-02
 -1      1978-1.25390E-02 6.39296E-04-2.52374E-02
 -1      1979-2.65997E-04-3.04892E-03-2.59092E-02
 -1      1980-3.48902E-04 2.74361E-03 5.83947E-02
 -1      1981 6.81036E-04-3.62771E-03 3.33241E-02
 -1      1982-1.52050E-03 3.51233E-03 2.99049E-02
 -1      1983 8.27752E-04 3.08016E-03 2.95555E-02
 -1      1984-9.97457E-04 1.82240E-03 1.34295E-02
 -1      1985-6.19324E-03 7.75519E-04-2.73234E-02
 -1      1986-4.19013E-03 1.55733E-03-4.28128E-02
 -1      1987-1.92056E-05 2.72979E-03 2.03629E-02
 -1      1988-4.10498E-03-2.37009E-03 1.09923E-02
 -1      1989 1.12420E-03-1.00736E-03-5.81676E-03
 -1      1990-5.44878E-04-1.45234E-03 8.27085E-03
 -1      1991 8.17521E-04-1.63053E-03 4.72360E-03
 -1      1992 1.29363E-03-3.13759E-03 1.15876E-02
 -1      1993 1.22978E-03-2.59698E-03 1.12666E-02
 -1      1994 2.69507E-03 1.86231E-03-9.70272E-03
 -1      1995 9.26907E-04-1.17124E-03-4.68511E-03
 -1      1996-4.87436E-03 1.10514E-03 8.45133E-02
 -1      1997 1.77003E-03-2.97118E-04 5.03424E-03
 -1      1998 5.76868E-03 1.11909E-03-3.84212E-02
 -1      1999 1.78600E-04 1.64301E-03-3.74018E-03
 -1      2000-9.38459E-04-9.98669E-04 5.51987E-03
 -1      2001-1.46670E-03 9.93064E-04 5.24293E-03
 -1      2002-2.60940E-03 2.24912E-03 1.07638E-02
 -1      2003-1.23125E-02 1.05032E-03-4.27778E-02
 -1      2004 1.93022E-03 3.62835E-03-2.39683E-02
 -1      2005 2.52813E-03 2.76563E-03-1.38316E-02
 -1      2006-7.34551E-04-2.08820E-06-1.85236E-04
 -1      2007-3.22481E-03 3.90249E-04 9.97903E-03
 -1      2008 9.80459E-04 4.45011E-06 5.61774E-04
 -1      2009 4.87618E-03-2.53150E-03-2.99943E-02
 -1      2010 0.00000E+00 0.00000E+00 0.00000E+00
 -1      2011 4.18329E-03-1.15660E-03-6.01948E-02
 -1      2012 1.10204E-03-1.42260E-03 1.12184E-02
 -1      2013-4.93747E-03 2.17414E-03-3.86856E-02
 -1      2014-1.82664E-03 6.04619E-04 7.79682E-03
 -1      2015-4.21015E-03-2.76505E-04 9.23020E-03
 -1      2016-4.11064E-03-1.65791E-03 1.27803E-02
 -1      2017-1.00331E-02 1.93664E-04-1.12806E-02
 -1      2018-7.80132E-03-7.58853E-04 7.99276E-02
 -1      2019-7.50423E-03-1.39348E-03 6.28095E-02
 -1      2020-4.84922E-03-6.94912E-04 2.21663E-02
 -1      2021-3.32345E-03-7.27943E-04 1.47415E-02
 -1      2022-1.36187E-02 2.39143E-04-1.08892E-02
 -1      2023-6.20010E-03 3.77722E-04 4.09795E-02
 -1      2024-2.16165E-03 2.62271E-03 7.38321E-02
 -1      2025-1.95480E-03-1.72926E-03 6.20053E-03
 -1      2026 2.40138E-04-2.41953E-03-2.15528E-02
 -1      2027-2.59743E-04 8.17728E-04-2.88031E-03
 -1      2028 7.33263E-04-2.86627E-03 6.34534E-02
 -1      2029 1.77432E-03-2.17071E-03 7.36502E-02
 -1      2030 1.73974E-03-2.71784E-03 6.44740E-02
 -1      2031 3.19162E-03 2.21780E-03 1.33745E-02
 -1      2032-7.72310E-03-8.14406E-04-7.21548E-02
 -1      2033 7.12594E-04-2.88285E-03-1.76869E-02
 -1      2034-3.15952E-03-1.03900E-03-8.15219E-02
 -1      2035-5.47915E-03-9.67688E-04-5.87779E-02
 -1      2036 1.33760E-03-1.51514E-03 8.16881E-02
 -1      2037 6.88559E-04 1.59885E-03-6.87838E-02
 -1      2038 2.65800E-04 1.98682E-03 4.52362E-03
 -1      2039-5.57981E-03 2.66775E-04-8.18841E-02
 -1      2040 4.15047E-03-3.33244E-03-3.81198E-02
 -1      2041-4.00915E-03 1.37681E-03-5.17490E-02
 -1      2042 6.05827E-04-2.50039E-03 6.76613E-02
 -1      2043 4.84435E-03 2.08692E-03-2.75230E-02
 -1      2044-2.67417E-03-8.88309E-04-8.52941E-02
 -1      2045 2.58342E-03 2.93709E-03 5.07938E-02
 -1      2046 4.59733E-03 1.30887E-03 6.25646E-02
 -1      2047-7.83057E-03-7.82420E-04-1.08953E-02
 -1      2048-1.32399E-02-9.85837E-04-2.05897E-02
 -1      2049-1.14014E-02-1.27121E-03-4.20856E-02
 -1      2050-1.02002E-02 1.06489E-03 5.82679E-02
 -1      2051-1.51564E-03-5.11402E-04-3.65242E-03
 -1      2052 4.49925E-03-1.25091E-03 6.25354E-02
 -1      2053 6.23428E-03-2.28696E-04 2.56780E-02
 -1      2054 6.59285E-03-3.60998E-04 5.17508E-02
 -1      2055 4.81875E-03-2.20408E-04 6.68143E-02
 -1      2056-2.35079E-05-5.03486E-04-3.62482E-04
 -1      2057 1.66163E-03-5.81477E-04-1.12822E-02
 -1      2058-3.43336E-03-3.51623E-03 2.85429E-02
 -1      2059-5.00554E-04-1.57854E-03-1.24177E-02
 -1      2060-5.99392E-03-4.42961E-04-8.20492E-02
 -1      2061 1.25219E-03-2.95615E-03-2.00544E-02
 -1      2062 9.83385E-04 1.99065E-03 7.66614E-02
 -1      2063-3.83666E-04-3.02119E-03-3.29770E-02
 -1      2064-8.76725E-03-1.11618E-03 6.96310E-02
 -1      2065-1.29949E-03-7.88898E-04 5.95922E-03
 -1      2066 5.14240E-03 2.00247E-03 2.04420E-02
 -1      2067-5.26051E-03-1.12828E-03-2.91325E-02
 -1      2068-1.39916E-02-9.02978E-04-3.46831E-02
 -1      2069 3.00004E-05-2.43945E-03-1.46666E-02
 -1      2070 5.35459E-03-8.68109E-04-5.26640E-02
 -1      2071-2.04063E-03 6.90991E-04 7.10938E-03
 -1      2072 6.38170E-04-3.75533E-03 4.33002E-02
 -1      2073-2.64936E-04 2.08007E-03 9.48738E-03
 -1      2074 2.19909E-03 9.95294E-04 9.44756E-03
 -1      2075-9.73227E-04-1.33952E-03-8.29810E-02
 -1      2076 9.90111E-04 1.38823E-03 5.25093E-03
 -1      2077 5.03346E-03 1.08070E-03-1.23545E-02
 -1      2078 2.78515E-03 7.86674E-05-7.43991E-02
 -1      2079-4.66272E-03-1.12824E-03-7.66265E-02
 -1      2080 7.41019E-04 3.65776E-04-2.23292E-03
 -1      2081-4.11758E-03-3.00691E-03 4.46163E-02
 -1      2082 5.08090E-03-6.24947E-04 2.36289E-02
 -1      2083 1.14895E-03-1.54522E-03-1.60227E-02
 -1      2084 1.32443E-03 3.60539E-03-3.57562E-02
 -1      2085 1.12821E-04-7.27993E-04-2.41137E-03
 -1      2086 4.24563E-03 2.60163E-03 2.12439E-02
 -1      2087-4.58011E-04 2.44063E-03-1.36039E-02
 -1      2088 2.01988E-03-3.46913E-03 5.14526E-02
 -1      2089-1.81135E-03-1.61898E-03 1.82393E-02
 -1      2090-1.26172E-02-2.69144E-04 4.31812E-03
 -1      2091-2.37023E-03-3.11404E-03 6.09673E-02
 -1      2092 4.71617E-03-3.03697E-03-1.78580E-02
 -1      2093-5.62505E-03-1.49172E-03 4.48966E-02
 -1      2094 2.45451E-04 1.22721E-03 4.68918E-03
 -1      2095-4.48441E-03 3.10781E-03 2.98282E-02
 -1      2096 4.78008E-03-1.48617E-03-2.92277E-02
 -1      2097 5.11482E-03-2.27653E-03 5.03915E-02
 -1      2098 1.23694E-04 2.75954E-03 4.73622E-02
 -1      2099-8.82508E-04-1.45558E-03 9.89866E-03
 -1      2100 5.48493E-03 2.73199E-03 3.62118E-02
 -1      2101 0.00000E+00 0.00000E+00 0.00000E+00
 -1      2102 1.47745E-03 1.55732E-03 2.00626E-02
 -1      2103 4.93413E-03-1.60855E-03 2.62232E-02
 -1      2104 5.06697E-03-2.02227E-03 3.42215E-02
 -1      2105-4.67916E-04-8.31677E-04 3.08892E-03
 -1      2106 5.51976E-04 1.75878E-03-1.03763E-03
 -1      2107-5.25962E-03 2.38560E-04-1.78990E-02
 -1      2108 1.32497E-03-1.07372E-03-3.81262E-03
 -1      2109 4.55256E-03 8.06202E-04 2.07110E-02
 -1      2110-2.18681E-03-2.38119E-03 6.87641E-02
 -1      2111 1.05983E-03 8.74058E-04-6.29656E-03
 -1      2112-4.48858E-03 4.99517E-04-2.40646E-02
 -1      2113-1.81763E-03-2.99475E-03 5.93996E-03
 -1      2114 1.11728E-03-9.67832E-04-7.88607E-02
 -1      2115-4.92230E-03 1.37317E-03-2.51650E-02
 -1      2116 1.11866E-03 1.17644E-03 4.23955E-03
 -1      2117-1.46125E-04 5.21141E-05 3.29716E-04
 -1      2118-5.70963E-03-1.11468E-03 3.19495E-02
 -1      2119 4.42646E-04 1.58591E-04-7.45573E-04
 -1      2120 5.49931E-03 1.21964E-03-4.54834E-02
 -1      2121-4.70869E-03 1.40556E-03 1.03596E-02
 -1      2122 8.40844E-04 7.32861E-04 5.20217E-03
 -1      2123-8.38178E-04-3.19231E-03-4.20792E-02
 -1      2124 1.33527E-05-4.11634E-04 6.67475E-04
 -1      2125-1.46333E-04-7.74470E-04 1.38195E-03
 -1      2126 3.04016E-03-1.80780E-03-6.61212E-03
 -1      2127-9.77725E-04 3.43498E-03 4.15345E-02
 -1      2128 1.68524E-03-3.96521E-03 1.98959E-02
 -1      2129 4.70864E-03-3.20935E-03-3.57197E-02
 -1      2130-3.04328E-03 2.52438E-03 6.61444E-02
 -1      2131-1.76827E-03 3.01867E-03 5.92193E-02
 -1      2132-5.28066E-04-1.59153E-03-3.79778E-03
 -1      2133 5.06366E-04 1.61899E-03 1.18707E-02
 -1      2134-3.85374E-03 1.80197E-03-4.16328E-03
 -1      2135 3.57029E-03-3.24509E-03 5.11890E-02
 -1      2136-3.73132E-03 2.19700E-03-2.22481E-02
 -1      2137-1.20508E-02-1.32380E-03 3.93749E-02
 -1      2138 3.42428E-03-2.58256E-03-2.94967E-03
 -1      2139 0.00000E+00 0.00000E+00 0.00000E+00
 -1      2140-1.31059E-02 9.43546E-04-3.06393E-02
 -1      2141 5.08478E-04-6.98304E-04-2.45820E-03
 -1      2142-3.29118E-03 1.52191E-03-7.02498E-02
 -1      2143 1.92695E-03 3.21943E-03 2.69919E-02
 -1      2144-4.59162E-03-1.53936E-03 5.44816E-02
 -1      2145 1.25745E-03-8.02433E-04 8.50693E-02
 -1      2146 3.24763E-03 3.13163E-03 3.46290E-02
 -1      2147-6.42628E-03-2.81128E-04 2.08504E-02
 -1      2148 3.55186E-05-1.58746E-03-5.83012E-03
 -1      2149 1.08456E-03 1.80151E-03 1.77423E-02
 -1      2150 4.90422E-03-5.83727E-04-2.13920E-02
 -1      2151 1.90769E-03-4.08121E-03 2.96348E-02
 -1      2152-1.57037E-02-1.52738E-04 2.15892E-03
 -1      2153-4.30663E-04-4.88921E-04-8.44058E-02
 -1      2154-5.37381E-03-5.37899E-04-2.22811E-02
 -1      2155-4.35988E-04-7.64472E-04-1.29053E-03
 -1      2156-4.91250E-03 4.78780E-04-1.06344E-02
 -1      2157-4.18448E-04 9.36841E-04-3.53096E-03
 -1      2158 2.11541E-04-1.73832E-04-1.97039E-04
 -1      2159-9.11299E-03 1.02851E-03 4.24127E-02
 -1      2160 8.30952E-04-2.52524E-03-9.82672E-03
 -1      2161 2.72384E-05-2.74934E-03-2.75092E-02
 -1      2162-1.76127E-03-2.68509E-03 1.38517E-02
 -1      2163-2.17900E-03-1.66181E-03-1.58552E-03
 -1      2164 5.60692E-03 2.57249E-03 4.39806E-02
 -1      2165-3.42082E-03-2.35926E-03 1.59750E-02
 -1      2166-2.70102E-03-4.44381E-04 9.23174E-02
 -1      2167 3.20115E-04-1.97898E-03-7.32508E-02
 -1      2168 5.03349E-03 7.49463E-04-2.19646E-02
 -1      2169 0.00000E+00 0.00000E+00 0.00000E+00
 -1      2170-3.55618E-04 1.83449E-03-1.10842E-02
 -1      2171-3.76559E-04 8.78360E-04-4.53566E-03
 -1      2172-1.70416E-03 2.09748E-03-4.84726E-02
 -1      2173-3.58909E-04-3.03363E-03 4.51670E-02
 -1      2174-2.47267E-03-1.32086E-04-8.70230E-02
 -1      2175-6.88329E-04-1.53106E-03 8.29760E-02
 -1      2176-7.05462E-03 3.43336E-04 2.07035E-02
 -1      2177 2.74516E-03-3.95375E-04-8.86120E-03
 -1      2178 1.59454E-03-5.92390E-04-1.64528E-02
 -1      2179 2.58501E-03-4.11543E-03 3.95311E-02
 -1      2180 5.61851E-04-4.90031E-04-1.18385E-03
 -1      2181-7.99264E-04-2.92081E-03 5.48536E-02
 -1      2182-1.44295E-04-2.57290E-03 2.03278E-02
 -1      2183-3.93639E-04-1.68806E-03-4.85602E-03
 -1      2184-5.63721E-03 6.67580E-04-5.08295E-02
 -1      2185-4.10923E-03-1.05716E-03 8.60476E-02
 -1      2186-1.30214E-03 4.03409E-04 9.08707E-02
 -1      2187-1.46728E-02 4.84242E-04-2.89041E-02
 -1      2188-3.10114E-03 3.49897E-03 4.94342E-02
 -1      2189 8.38730E-04 2.43408E-03 6.61128E-02
 -1      2190 1.86819E-05 1.00874E-03-8.07549E-04
 -1      2191-5.51483E-03 2.38017E-03 4.40310E-02
 -1      2192 2.98065E-03 2.61774E-03 1.93549E-02
 -1      2193 0.00000E+00 0.00000E+00 0.00000E+00
 -1      2194-4.29469E-03 9.61479E-04-1.73062E-02
 -1      2195 5.64389E-04 2.15931E-03-1.46892E-02
 -1      2196-4.68936E-03 2.76316E-03 4.79941E-02
 -1      2197-1.30846E-02-8.33489E-04 5.32624E-02
 -1      2198 4.74304E-03-2.93134E-03 4.70021E-02
 -1      2199-7.53701E-03-1.42012E-03 4.78784E-02
 -1      2200-3.94708E-04 3.11390E-03 4.43207E-02
 -1      2201-1.34727E-02-1.16974E-03 2.83850E-02
 -1      2202-5.69310E-03-1.19679E-03 6.18643E-02
 -1      2203-1.73410E-03 4.63845E-04-2.32795E-03
 -1      2204-3.79274E-03 4.25836E-04 8.48272E-02
 -1      2205 5.46061E-03-1.41321E-03 4.57496E-02
 -1      2206-1.56046E-03-2.73539E-03 6.23868E-02
 -1      2207 4.02205E-04 8.74617E-05-8.39700E-02
 -1      2208 3.18863E-03-6.32211E-04-7.06059E-02
 -1      2209 3.92239E-03-2.44216E-03 6.27033E-02
 -1      2210-2.90537E-05-4.98341E-04-9.59808E-04
 -1      2211 5.96210E-03-8.25708E-04 5.12420E-02
 -1      2212-2.75562E-03 1.16241E-03 2.00716E-02
 -1      2213 5.51331E-03 1.18858E-03-2.84554E-02
 -1      2214-1.40692E-02 7.79104E-04 3.39966E-02
 -1      2215 1.63207E-03 6.20417E-04 6.57205E-03
 -1      2216 5.68826E-03 4.49785E-04-3.89719E-02
 -1      2217 2.59683E-03-2.89316E-03-2.44704E-02
 -1      2218-5.34778E-03 2.46542E-03 2.23022E-02
 -1      2219-8.18786E-05 5.97952E-04 1.27541E-03
 -1      2220 3.00334E-03 3.57496E-04-7.80034E-03
 -1      2221 7.95164E-04 3.33836E-03 3.91471E-02
 -1      2222-9.37181E-03 2.09267E-04 8.84676E-03
 -1      2223-3.01092E-03 1.33582E-03 8.33766E-02
 -1      2224 1.58641E-03-1.10647E-03-1.74162E-03
 -1      2225 3.60072E-03-3.19100E-03-2.61651E-02
 -1      2226-1.61645E-04 2.88052E-03 4.61057E-02
 -1      2227-9.36661E-03-6.90829E-04 1.80310E-02
 -1      2228-3.78822E-03-7.13945E-04 7.63285E-02
 -1      2229 7.71835E-05-2.94600E-03-5.43276E-02
 -1      2230-1.53330E-02-1.23654E-05 1.78984E-03
 -1      2231 3.87370E-03 1.27998E-03-6.10747E-02
 -1      2232-5.45324E-03 1.18502E-03-5.99062E-02
 -1      2233-2.34885E-03-2.70724E-03-1.71103E-02
 -1      2234 2.01250E-03 2.14893E-04 5.27657E-03
 -1      2235 5.58404E-03 9.28934E-04-5.38482E-02
 -1      2236-2.06481E-03 1.63791E-03-2.17525E-02
 -1      2237-1.15724E-02 1.02153E-03 3.93380E-02
 -1      2238-1.33762E-03-1.98206E-03 7.48409E-02
 -1      2239 0.00000E+00 0.00000E+00 0.00000E+00
 -1      2240 2.18398E-04 3.02992E-03-2.61327E-02
 -1      2241-4.30417E-03 1.48380E-03 5.31717E-02
 -1      2242-5.70186E-04 2.70767E-03-1.82795E-02
 -1      2243 5.11146E-04 1.97956E-03 7.29587E-02
 -1      2244 4.00460E-03-2.97437E-03-2.06632E-02
 -1      2245 1.26234E-03-2.45495E-03 4.42816E-03
 -1      2246-1.04129E-03-1.71149E-03-7.19339E-02
 -1      2247-6.95913E-04-2.46948E-04-8.55485E-02
 -1      2248 5.27706E-03-1.18041E-03-4.13179E-02
 -1      2249-2.29637E-04 2.76975E-04 7.43245E-04
 -1      2250 8.50241E-04 2.27705E-03-9.23400E-03
 -1      2251-5.60707E-03 1.91793E-03 5.22631E-02
 -1      2252-5.39894E-03-5.46652E-04-1.06060E-02
 -1      2253-1.95390E-03-2.00159E-03-3.04757E-02
 -1      2254-1.38926E-03 2.76002E-03 1.14124E-02
 -1      2255-6.85872E-03 6.25899E-04-7.05385E-02
 -1      2256 4.14512E-03-2.98856E-03 2.75299E-02
 -1      2257-1.91609E-03 5.60293E-04-4.53464E-03
 -1      2258-4.65462E-03-1.43916E-04-8.53388E-02
 -1      2259-2.66299E-03 2.71299E-06 1.69962E-05
 -1      2260-8.11189E-03 8.79662E-04-6.05287E-02
 -1      2261 8.69896E-05 6.61279E-04 1.89275E-03
 -1      2262 1.34560E-03 3.65833E-03-2.63662E-02
 -1      2263 7.95353E-05-1.59103E-03 6.65955E-03
 -1      2264 1.66423E-03-1.16352E-03 1.90557E-02
 -1      2265-4.25162E-03 2.31876E-03-4.04195E-02
 -1      2266-1.06605E-04-1.99417E-03 8.35818E-03
 -1      2267-1.86831E-03-2.48595E-03-7.11533E-02
 -1      2268-2.97266E-03-2.54231E-03-6.58218E-02
 -1      2269-2.93913E-04 2.87951E-03-4.56441E-02
 -1      2270-3.95678E-04-2.96682E-03-4.73289E-02
 -1      2271-2.28563E-03 2.03254E-03 6.65055E-02
 -1      2272-2.32568E-03 2.59711E-03-1.58862E-02
 -1      2273-9.70530E-03-2.34111E-04-6.84329E-02
 -1      2274-4.75805E-03 9.33570E-04 2.69843E-02
 -1      2275-1.90164E-03-7.13912E-04-7.84129E-03
 -1      2276 1.20872E-03-1.35887E-03 4.41718E-03
 -1      2277 2.87443E-04 2.52917E-03-2.97854E-02
 -1      2278 6.70697E-04 2.06219E-03-4.14279E-02
 -1      2279-9.64518E-06 1.53403E-03 6.96114E-03
 -1      2280-1.04658E-02 6.87720E-04 3.00252E-02
 -1      2281-4.49331E-03 1.69300E-04-5.15416E-03
 -1      2282-1.92874E-03-1.14454E-03 8.86676E-02
 -1      2283-3.42873E-03 1.14976E-03-7.89801E-02
 -1      2284 1.08139E-04-3.45844E-03 5.10018E-02
 -1      2285 1.56696E-03 9.97404E-04-9.12252E-03
 -1      2286-4.31666E-03-1.97182E-03-2.28000E-02
 -1      2287-3.01816E-05 2.04702E-04-5.40710E-04
 -1      2288-1.17768E-02 9.40066E-04-3.81483E-02
 -1      2289-1.56696E-02-3.82936E-05 2.58337E-02
 -1      2290-5.63841E-03-1.36438E-03-6.31054E-02
 -1      2291-6.76605E-03 1.02566E-03 4.21925E-02
 -1      2292 2.82408E-03-2.85814E-03-1.56845E-02
 -1      2293-3.27774E-03 1.03049E-03-7.56000E-02
 -1      2294-2.72007E-03-7.72719E-04-8.53598E-02
 -1      2295 4.69037E-03 1.31875E-03 2.54040E-02
 -1      2296 8.77628E-06-2.31259E-03-4.87116E-02
 -1      2297-4.53594E-03 3.07509E-03 4.25358E-02
 -1      2298-8.44179E-04 1.90298E-03 5.11963E-03
 -1      2299-6.88041E-04 3.29036E-03 2.40958E-02
 -1      2300-3.92383E-06-6.19932E-04 2.11283E-04
 -1      2301-6.41031E-04-3.53716E-04 9.06416E-02
 -1      2302 0.00000E+00 0.00000E+00 0.00000E+00
 -1      2303 1.04097E-03-3.15822E-03-3.71411E-02
 -1      2304-3.58298E-03 1.69182E-05 1.88552E-04
 -1      2305-3.59122E-03-7.66949E-04 8.96892E-02
 -1      2306 3.32513E-03 8.64039E-04 7.40798E-02
 -1      2307 0.00000E+00 0.00000E+00 0.00000E+00
 -1      2308-5.22867E-04-8.35053E-04-4.08588E-03
 -1      2309-7.28605E-03-8.75902E-04-3.07581E-02
 -1      2310 9.14425E-04-1.56910E-03-7.72004E-02
 -1      2311 3.33076E-04 1.24712E-04 6.00144E-05
 -1      2312-3.42644E-03 2.81662E-03-3.33624E-02
 -1      2313-9.32898E-03 1.17208E-04 7.68583E-02
 -1      2314-6.66714E-03 9.36146E-04-5.10098E-02
 -1      2315-3.27013E-03-2.75294E-03 5.85872E-02
 -1      2316-1.67050E-03-1.49196E-03-9.05475E-03
 -1      2317-1.49696E-03-2.46759E-03 7.32328E-02
 -1      2318-1.51185E-03-2.04198E-04-7.79524E-03
 -1      2319-4.86980E-03-1.51283E-03-2.36677E-02
 -1      2320-1.99984E-03 2.95979E-03-2.91873E-02
 -1      2321-1.16277E-03 3.61473E-03 2.75762E-02
 -1      2322-8.34473E-03 6.02112E-04 3.14430E-02
 -1      2323-2.32158E-03-2.47941E-03 7.25420E-02
 -1      2324-4.05540E-03-1.44409E-03-4.41075E-02
 -1      2325-4.62230E-04-2.58704E-03-3.79144E-02
 -1      2326-6.23506E-03-1.24087E-05 4.82506E-03
 -1      2327 1.02208E-03-1.08641E-04-2.89063E-03
 -1      2328-6.14354E-04 1.63030E-03 7.96165E-03
 -1      2329 2.62205E-03 3.46524E-03 4.07331E-02
 -1      2330 1.65894E-03-1.03423E-04 4.87588E-03
 -1      2331-2.85380E-04-1.65018E-03-7.83168E-02
 -1      2332-2.26894E-03-1.79049E-03-5.01104E-02
 -1      2333 4.52634E-04 2.38197E-03 1.20396E-02
 -1      2334-9.07887E-04-3.31497E-03 3.91350E-02
 -1      2335 1.34467E-03-3.81977E-03 4.88643E-02
 -1      2336-4.09438E-03-1.42031E-03-7.14501E-02
 -1      2337-4.41171E-03 1.57126E-03 6.44407E-02
 -1      2338 6.81802E-05-2.31778E-03 5.01370E-02
 -1      2339-4.37565E-03-1.25562E-03-3.48361E-02
 -1      2340-4.97256E-04-1.27099E-03 1.02929E-03
 -1      2341 4.42129E-03 2.14622E-03 1.76097E-02
 -1      2342-5.08409E-03-1.77184E-03-2.84752E-02
 -1      2343-5.35236E-03-1.08981E-03-2.38085E-02
 -1      2344-1.07230E-02-3.32117E-04 6.74894E-02
 -1      2345-2.91914E-03-1.95235E-03 5.09733E-02
 -1      2346-2.67794E-04-1.15048E-03 2.55402E-03
 -1      2347-3.26643E-03-1.27784E-03-2.65791E-02
 -1      2348-2.44189E-03-1.35155E-03-8.05670E-02
 -1      2349 1.89789E-03 7.41684E-04 1.81613E-02
 -1      2350-2.25279E-03 1.34309E-03 8.13862E-02
 -1      2351-1.27054E-04 2.58418E-03 3.31345E-02
 -1      2352-1.54414E-02 5.09753E-05-1.96220E-02
 -1      2353 4.09900E-03 1.70750E-03 6.24262E-02
 -1      2354-7.65639E-03-1.00138E-03-5.07079E-02
 -1      2355 0.00000E+00 0.00000E+00 0.00000E+00
 -1      2356 0.00000E+00 0.00000E+00 0.00000E+00
 -1      2357-1.45613E-04-2.49071E-04-8.33978E-04
 -1      2358-8.81578E-04 4.90436E-04-2.99202E-02
 -1      2359-5.05092E-04 8.99591E-04-3.41654E-03
 -1      2360-2.82312E-03 2.25779E-03-1.20568E-02
 -1      2361-2.51560E-03 1.85467E-03 5.05006E-02
 -1      2362-2.47086E-03 2.36150E-03-6.11492E-02
 -1      2363-1.52089E-03 2.15031E-03-6.96619E-02
 -1      2364-2.90333E-03-2.60417E-03-3.36332E-03
 -1      2365-1.35609E-03-1.55871E-03-7.66911E-02
 -1      2366 6.34490E-04-2.65839E-03 3.56220E-02
 -1      2367-2.47108E-03-1.23043E-03 8.51719E-02
 -1      2368-4.00128E-03 2.39478E-04-8.58263E-02
 -1      2369-2.03299E-03 9.65504E-04-1.21095E-02
 -1      2370-1.36067E-03-2.51902E-04 4.92403E-03
 -1      2371-1.66082E-03-1.68974E-04 3.64160E-03
 -1      2372-5.39369E-04-5.49965E-04-2.61849E-02
 -1      2373 8.41341E-05-4.46730E-04 2.26575E-02
 -1      2374 1.01911E-04-7.01404E-05 2.88122E-03
 -1      2375-1.54434E-03-2.52034E-03 8.53809E-03
 -1      2376 3.20907E-04 1.07405E-03-2.74621E-03
 -1      2377 4.22553E-04-2.35834E-03-1.06390E-02
 -1      2378-2.55980E-03-1.36205E-03 1.90514E-02
 -1      2379-1.06886E-03-2.77101E-03 2.57573E-02
 -1      2380-1.72151E-03-1.61700E-03-1.90803E-02
 -1      2381 2.37548E-03 2.81168E-03-5.30818E-02
 -1      2382 3.64711E-03 2.31859E-03-1.75826E-02
 -1      2383 3.99913E-03-1.63839E-04-6.75765E-02
 -1      2384 9.04781E-04-5.99931E-04-3.70148E-03
 -1      2385-7.51428E-03-1.08628E-03-4.09025E-02
 -1      2386-5.47381E-05 1.55831E-03 5.24743E-03
 -1      2387 7.20243E-04-1.41139E-03 5.99293E-04
 -1      2388-2.05894E-03-9.79917E-04-1.34552E-02
 -1      2389 1.03860E-03-2.81251E-03 1.03404E-02
 -1      2390 5.57616E-04 3.38557E-03-4.30439E-02
 -1      2391-5.45199E-03 1.25915E-03 5.66417E-02
 -1      2392 3.76535E-03-2.59944E-03-5.61820E-02
 -1      2393 5.14269E-04-1.71039E-03 3.67696E-03
 -1      2394 1.64974E-03 1.03108E-03-4.31086E-03
 -1      2395 0.00000E+00 0.00000E+00 0.00000E+00
 -1      2396-4.15038E-03-2.55675E-03 4.29283E-02
 -1      2397 1.31919E-03-2.46476E-03-1.24040E-02
 -1      2398-1.42375E-03 2.01365E-03-2.08243E-02
 -1      2399-6.81085E-03 1.60180E-04-1.38357E-02
 -1      2400-1.15045E-05 6.00829E-04-1.13209E-03
 -1      2401 4.83768E-03 1.10781E-03-5.24001E-02
 -1      2402-2.24669E-05 4.10024E-04-6.79585E-04
 -1      2403-4.67313E-03-1.36869E-03 3.21703E-02
 -1      2404-6.68014E-03-7.74123E-04 1.55993E-02
 -1      2405 4.78487E-03 9.11445E-04-1.48489E-02
 -1      2406-1.17033E-02 1.01735E-03 5.67956E-02
 -1      2407-2.59807E-04 1.28217E-03 4.03809E-03
 -1      2408-6.82956E-06-3.00984E-03 6.43770E-02
 -1      2409-4.00771E-03-9.85678E-04-8.19690E-02
 -1      2410 1.33625E-03-8.33268E-04 7.67029E-03
 -1      2411-4.59921E-03-1.91653E-03 2.19025E-02
 -1      2412-5.93704E-03-5.96175E-04 2.27803E-02
 -1      2413-5.32840E-03-6.52393E-04 8.76302E-03
 -1      2414 2.73531E-03 5.65323E-04-2.50562E-03
 -1      2415 5.99334E-03 1.00570E-03-2.86712E-02
 -1      2416-2.98394E-03 3.22982E-04 4.00392E-03
 -1      2417-3.33281E-03-1.29472E-03 2.33150E-02
 -1      2418-2.06097E-03 2.15516E-03 7.55722E-02
 -1      2419-1.32930E-04 1.72311E-03-5.90509E-03
 -1      2420-1.28771E-03-2.09271E-03 2.04589E-02
 -1      2421 3.92086E-03 2.53179E-03-4.23265E-02
 -1      2422-5.34431E-03 1.14799E-03-5.36176E-02
 -1      2423 2.25764E-03-2.53015E-03 6.71041E-02
 -1      2424-2.08316E-03-1.96038E-03-4.37123E-02
 -1      2425-3.69441E-03 1.02456E-03 2.69002E-02
 -1      2426 4.17289E-03-3.11045E-03 2.22823E-02
 -1      2427 2.07435E-03-2.91366E-03-5.08835E-02
 -1      2428-2.51763E-03-3.36760E-03-2.65133E-02
 -1      2429 3.65456E-03 2.63071E-03-2.48314E-02
 -1      2430-1.27356E-02-1.16527E-03-3.30230E-02
 -1      2431 2.06732E-03-2.19162E-03-6.99125E-02
 -1      2432-1.07390E-02-1.24751E-03-5.33323E-02
 -1      2433 5.40964E-04-1.15328E-03-4.00098E-03
 -1      2434-7.51289E-03 1.06176E-03 7.26323E-02
 -1      2435-7.44739E-03 9.86299E-04-3.89262E-02
 -1      2436-6.50393E-03-3.74703E-04-1.85837E-02
 -1      2437 4.30316E-03-1.05794E-03 6.70730E-02
 -1      2438 5.77806E-04-1.57916E-03-1.47424E-02
 -1      2439 6.18894E-03 5.56969E-04 5.21232E-02
 -1      2440 3.03847E-03 2.06775E-04 7.79239E-02
 -1      2441-3.34296E-03-2.46006E-03 1.22294E-02
 -1      2442-2.97802E-03-3.08967E-03 1.65906E-02
 -1      2443 3.52855E-03 3.10955E-03-4.01041E-02
 -1      2444 5.88640E-04 1.97615E-03 1.51022E-02
 -1      2445-6.74620E-03-7.27794E-04-7.85480E-02
 -1      2446-2.83607E-03-6.03307E-04-5.83297E-03
 -1      2447-7.95876E-03-1.31790E-03 6.91497E-02
 -1      2448-1.02817E-02-1.22410E-03 5.90844E-02
 -1      2449-9.31580E-03-7.99361E-04 7.22615E-02
 -1      2450-6.43679E-03 9.31474E-04-6.59605E-02
 -1      2451-6.55465E-03 5.89205E-05-6.54012E-03
 -1      2452-1.10432E-04 2.30234E-03-6.33803E-02
 -1      2453-7.26978E-04-2.47027E-03-2.75403E-02
 -1      2454 3.56945E-03-1.88866E-03-6.39614E-02
 -1      2455-3.19749E-04-2.38405E-03-1.17440E-02
 -1      2456-2.55490E-03 8.08505E-04-8.54115E-02
 -1      2457-3.89791E-03-3.41853E-03 3.78521E-02
 -1      2458 4.79667E-03 2.69593E-03 2.69588E-02
 -1      2459-7.67911E-03 1.09442E-03 4.29982E-02
 -1      2460-1.06309E-03-1.71055E-03 1.42245E-02
 -1      2461-4.58350E-03-5.92897E-04-8.24864E-02
 -1      2462-5.13410E-03 9.78976E-04-2.69560E-02
 -1      2463 2.94602E-04 4.58927E-05-1.26172E-04
 -1      2464-8.17691E-03-6.27241E-04 2.09913E-02
 -1      2465 3.80227E-04 9.54694E-04-2.87473E-03
 -1      2466-7.45786E-04 7.21253E-04 4.02942E-03
 -1      2467-3.00599E-03 1.87053E-03 5.90415E-02
 -1      2468-1.22511E-03-3.26735E-03-3.50342E-02
 -1      2469 7.16093E-05-1.96833E-04 1.66807E-04
 -1      2470-2.86211E-03-1.77939E-03-3.28171E-02
 -1      2471-1.62497E-03 2.88889E-03 6.63766E-02
 -1      2472-1.03268E-02-9.39271E-04 3.59621E-02
 -1      2473 1.27565E-03-1.06349E-03-1.84127E-03
 -1      2474 2.72308E-03-6.95334E-04-7.82190E-03
 -1      2475-6.70121E-04-1.80164E-03-1.78278E-03
 -1      2476-7.09100E-04-6.01318E-04-2.78060E-03
 -1      2477 2.95406E-03 2.08061E-03 6.84057E-02
 -1      2478 1.84789E-03 1.31797E-03 5.29776E-03
 -1      2479 4.65395E-03-3.11059E-03 4.33111E-02
 -1      2480-8.69959E-03-1.17968E-03 5.35250E-02
 -1      2481-5.21066E-03-1.72601E-03 5.82134E-02
 -1      2482-3.17769E-03 6.69830E-04 8.92606E-02
 -1      2483-4.20006E-03 7.04144E-04 7.75285E-02
 -1      2484 5.14952E-03 1.62163E-03-2.92575E-02
 -1      2485-3.25440E-03 1.42523E-03 7.49490E-02
 -1      2486-7.62990E-04-2.35078E-03-6.45485E-02
 -1      2487-5.52809E-03 5.68283E-04 1.69186E-02
 -1      2488-1.38181E-02-1.14862E-04 3.02514E-03
 -1      2489 1.64678E-03 1.06158E-03-7.52788E-02
 -1      2490-1.60381E-03 1.25685E-03-1.51227E-02
 -1      2491-1.50040E-03-9.52302E-04-7.09963E-03
 -1      2492 1.81462E-03 5.03593E-04 8.38013E-02
 -1      2493 3.45778E-03 2.94830E-03-4.35967E-02
 -1      2494-3.94758E-03-5.64019E-04-1.02754E-02
 -1      2495-1.20939E-02-1.54976E-03 5.04280E-02
 -1      2496-8.95607E-03-4.26675E-04 7.78384E-02
 -1      2497-4.49937E-03 1.26067E-03-6.90710E-02
 -1      2498 8.89652E-04 3.04687E-03-5.32180E-02
 -1      2499-1.44266E-03-2.03942E-03-2.32796E-02
 -1      2500 4.75122E-03-1.71930E-03-4.75893E-02
 -1      2501-3.21941E-03 7.14315E-04-8.30437E-02
 -1      2502-1.25037E-03-9.29956E-04 3.22647E-03
 -1      2503-7.39267E-03-1.22812E-03 5.65439E-02
 -1      2504-8.79592E-03-1.26055E-03 4.26243E-02
 -1      2505-3.55111E-03 1.75075E-03 6.92878E-02
 -1      2506-4.20839E-03 1.17064E-03 7.99921E-02
 -1      2507-5.36129E-03 1.35136E-03 7.17720E-02
 -1      2508 1.51361E-03 4.30527E-04-7.90960E-02
 -1      2509-2.28937E-03-1.72701E-03-2.46683E-02
 -1      2510 5.09131E-03-1.25011E-03-4.45567E-02
 -1      2511-3.56998E-03 5.20767E-04-7.67486E-02
 -1      2512-4.70147E-03 8.05665E-04-6.60327E-02
 -1      2513-4.51634E-03-1.56773E-03-5.38995E-02
 -1      2514-1.15824E-02 1.14585E-03 4.69432E-02
 -1      2515-7.11396E-04-2.96196E-03-1.85464E-02
 -1      2516-5.16560E-03-3.52810E-04-2.02194E-02
 -1      2517 1.24908E-03-3.85684E-03 2.51138E-02
 -1      2518 2.05976E-03 3.04965E-03 1.73414E-02
 -1      2519 1.00995E-03-3.13107E-03-4.60355E-02
 -1      2520-6.36239E-03 5.72924E-04 1.37252E-02
 -1      2521-4.18819E-03-2.96472E-03-5.26948E-02
 -1      2522-1.32035E-03 2.28624E-03 4.88938E-02
 -1      2523-5.45882E-03 8.18891E-04 2.67230E-02
 -1      2524 1.02123E-03-3.57234E-04 3.82535E-03
 -1      2525-2.21756E-03-8.27548E-05 6.59891E-03
 -1      2526-2.61453E-03 1.03472E-03 1.47415E-02
 -1      2527-3.68763E-03 7.42154E-04 1.55681E-02
 -1      2528-1.10015E-03-8.91559E-04-6.67050E-03
 -1      2529 1.94330E-03 1.08682E-03 1.95712E-02
 -1      2530-3.36917E-03-1.58107E-03-7.15425E-02
 -1      2531-7.39890E-03 7.15152E-04 8.14897E-02
 -1      2532-1.26672E-03 2.23749E-04 9.19313E-02
 -1      2533-1.06987E-02-3.70709E-04-1.53361E-02
 -1      2534-1.07842E-02-3.31204E-04 2.76874E-03
 -1      2535-9.36414E-03-2.96785E-04 5.43219E-03
 -1      2536-6.81613E-03 1.12430E-03 5.18182E-02
 -1      2537-3.77303E-03 1.60346E-03-6.13133E-02
 -1      2538-5.78083E-03-1.56593E-03 6.99843E-02
 -1      2539-4.59682E-03-2.83305E-03-4.47826E-02
 -1      2540-3.49886E-03-4.77914E-04 8.36512E-02
 -1      2541 1.93097E-04-1.32773E-03-6.52242E-03
 -1      2542 3.89202E-03-2.38946E-03-1.86692E-02
 -1      2543 0.00000E+00 0.00000E+00 0.00000E+00
 -1      2544-4.91367E-04-2.82391E-03 5.13486E-02
 -1      2545-4.13199E-03-1.33885E-03 8.16407E-02
 -1      2546-8.80563E-04 2.42721E-03 3.57339E-02
 -1      2547-2.57459E-03 9.21597E-04 9.16030E-02
 -1      2548-2.59683E-03-3.60754E-03 3.47540E-02
 -1      2549-2.19566E-03 3.51250E-03 3.84327E-02
 -1      2550-4.93849E-03-1.67237E-03-5.85851E-02
 -1      2551-1.13371E-03 2.75571E-03 1.25988E-02
 -1      2552-1.28569E-03 1.01347E-04-8.60074E-02
 -1      2553-1.93243E-03 2.15533E-03-7.04727E-02
 -1      2554-1.85313E-03-2.92935E-03-5.98941E-02
 -1      2555-1.36576E-03 2.29899E-03-4.28219E-02
 -1      2556 0.00000E+00 0.00000E+00 0.00000E+00
 -1      2557-1.75091E-03 1.81146E-03-7.17788E-02
 -1      2558-5.85659E-03-8.50102E-04 8.30561E-02
 -1      2559 1.39177E-03-2.89748E-03-5.22811E-02
 -1      2560-8.49087E-03 9.19591E-04 5.86315E-02
 -1      2561 4.55175E-03-1.70703E-03-2.26118E-02
 -1      2562-4.46993E-03 5.68018E-04 9.04177E-02
 -1      2563-1.52762E-02-3.38543E-04-1.64988E-02
 -1      2564-2.36781E-03 3.32014E-04-8.44057E-03
 -1      2565-5.21085E-03 2.02276E-03-2.70956E-02
 -1      2566-7.22283E-03 8.20986E-05-7.97564E-02
 -1      2567 1.61801E-03-6.30164E-04-1.00137E-02
 -1      2568-2.29429E-03-1.75448E-03-6.89182E-02
 -1      2569-5.49228E-03 1.26804E-03-4.57741E-02
 -1      2570 2.62501E-03 2.37606E-03-5.79576E-02
 -1      2571-3.71111E-03-3.01055E-03 2.25051E-02
 -1      2572 1.89111E-04-2.54204E-04-6.09261E-03
 -1      2573-8.78396E-05 5.50005E-05-5.87965E-03
 -1      2574-1.21270E-03 1.80906E-03-9.55585E-03
 -1      2575-8.14378E-03 8.58887E-04 5.19136E-02
 -1      2576 3.25861E-03-3.14967E-03-3.90082E-02
 -1      2577-1.31547E-02 4.66153E-04-4.76616E-02
 -1      2578-5.99891E-03 6.20665E-04 2.59767E-02
 -1      2579-8.78720E-03 1.08658E-03 6.58094E-02
 -1      2580-4.74986E-03-1.65104E-03 4.75395E-02
 -1      2581-2.13209E-04-1.09443E-03 8.78759E-02
 -1      2582-1.08983E-02-1.24796E-03 4.95732E-02
 -1      2583-6.64239E-03-9.59162E-04-3.87812E-02
 -1      2584 4.78617E-03-2.95080E-03-4.39659E-02
 -1      2585-3.38406E-03-2.96491E-03-5.84222E-02
 -1      2586 2.15334E-03-2.71102E-04-7.74438E-02
 -1      2587-7.38476E-04-1.28942E-03-9.04166E-03
 -1      2588-6.65511E-03-1.23796E-03-6.42486E-02
 -1      2589-9.36102E-03 7.88818E-04 7.08028E-02
 -1      2590-7.06759E-03 1.15895E-03 6.58572E-02
 -1      2591-2.13811E-03 9.12032E-04 8.92738E-02
 -1      2592-3.84362E-03-7.81911E-04-1.95945E-02
 -1      2593 2.54419E-03 3.40236E-03-4.46788E-02
 -1      2594 4.79107E-04 2.91102E-03 2.31373E-02
 -1      2595-1.34476E-03 1.73853E-03 1.87096E-02
 -1      2596 2.44676E-03 1.72384E-03-6.82394E-02
 -1      2597-9.63737E-03 3.45309E-04 2.29663E-02
 -1      2598-8.89408E-04 2.04275E-03 1.83694E-02
 -1      2599-8.85426E-03 2.18289E-04-7.16522E-02
 -1      2600 4.13381E-04-2.09731E-03-6.89389E-02
 -1      2601-3.31740E-04-9.63700E-04-5.42292E-03
 -1      2602-1.02747E-02 8.44617E-04-5.70455E-02
 -1      2603-5.28152E-03 1.43977E-04-8.40356E-02
 -1      2604-2.30707E-03 1.88101E-03-5.56108E-02
 -1      2605-8.38125E-03-5.55562E-04 9.41611E-03
 -1      2606-1.06504E-03 1.62918E-03 7.74017E-02
 -1      2607-1.80566E-03-1.87633E-03 2.34300E-02
 -1      2608-4.08868E-03-6.04094E-04 1.55685E-02
 -1      2609-3.50462E-03-6.12818E-04-7.71766E-02
 -1      2610-2.53312E-03-1.04033E-03 1.35037E-02
 -1      2611-5.58483E-03-8.58792E-04-4.44692E-02
 -1      2612-5.54697E-03 1.28241E-03 4.93169E-02
 -1      2613-1.45943E-03 2.11708E-04 1.96983E-03
 -1      2614-8.62868E-03-1.13113E-04-7.43467E-02
 -1      2615-9.76886E-03 5.33451E-04-6.46709E-02
 -1      2616 2.41996E-03-7.59644E-04-7.21110E-02
 -1      2617 1.44493E-03-2.99804E-03-1.64013E-02
 -1      2618-1.52886E-02-4.21206E-04 1.20390E-02
 -1      2619-7.62178E-03-1.01992E-03 7.53382E-02
 -1      2620 5.00602E-04 2.33794E-03 5.02440E-02
 -1      2621 0.00000E+00 0.00000E+00 0.00000E+00
 -1      2622-8.54722E-04 1.36938E-03 1.16485E-03
 -1      2623 3.49401E-03-3.11798E-03-5.26642E-02
 -1      2624-2.91486E-03 1.94290E-03 4.65373E-02
 -1      2625 0.00000E+00 0.00000E+00 0.00000E+00
 -1      2626 1.54828E-03-3.00662E-03-2.13700E-02
 -1      2627-4.37454E-03-3.65963E-04-1.91446E-02
 -1      2628 1.96614E-03-3.20970E-03-2.74041E-02
 -1      2629 1.82066E-03-7.03636E-04 1.30084E-02
 -1      2630-5.21935E-03 1.82234E-03-3.53090E-02
 -1      2631-1.48359E-02-3.63552E-04-3.47373E-02
 -1      2632-1.14106E-02-1.07787E-03-2.95776E-02
 -1      2633 2.26350E-03-3.37503E-04-5.79448E-03
 -1      2634-2.65068E-03 8.84239E-04-6.71198E-03
 -1      2635-8.28189E-04 2.12548E-03 6.92147E-03
 -1      2636 4.87282E-05-2.29446E-03-1.31203E-02
 -1      2637-5.95136E-03-8.75036E-04 2.52736E-02
 -1      2638-1.58773E-02-9.81690E-05 1.14457E-02
 -1      2639-1.01115E-02 8.76285E-04 5.09941E-02
 -1      2640-5.58276E-03 2.45517E-04-3.58382E-02
 -1      2641 1.60446E-03-4.23569E-03 3.89872E-02
 -1      2642-3.78694E-03 6.35446E-04 8.85777E-02
 -1      2643 5.20871E-04-3.03628E-03-2.42527E-02
 -1      2644-1.15432E-03-2.37373E-03-5.87346E-02
 -1      2645 3.26996E-03-1.66634E-03-1.17096E-02
 -1      2646-3.92721E-03 1.32905E-04 9.23074E-02
 -1      2647 3.01842E-04 2.17370E-03-4.78360E-02
 -1      2648 7.00469E-04 2.15172E-03-3.67117E-02
 -1      2649-1.05727E-02 9.72818E-04 6.28343E-02
 -1      2650-2.79793E-03 1.23409E-03 2.56286E-02
 -1      2651-1.24529E-02-3.30413E-04-1.05751E-02
 -1      2652-2.45185E-03 7.79340E-04 9.20448E-02
 -1      2653-4.37674E-03-1.69461E-03 7.24355E-02
 -1      2654-5.07901E-03-1.39303E-03 7.71847E-02
 -1      2655-1.98174E-03-1.44420E-03 8.09797E-02
 -1      2656-3.14965E-03 8.20692E-04 9.09730E-02
 -1      2657 1.32344E-03-1.24070E-03 1.85688E-02
 -1      2658 1.71814E-04-1.88664E-03 7.82806E-02
 -1      2659-9.36804E-03-8.63139E-04-3.10195E-02
 -1      2660-5.34703E-03-1.24061E-03-7.16491E-02
 -1      2661 1.45804E-03 1.28375E-03-1.37311E-02
 -1      2662-4.49423E-04-2.70472E-03 1.38395E-02
 -1      2663-1.30601E-03 1.36572E-03 1.39743E-02
 -1      2664-3.17115E-03-2.00657E-03 3.57951E-02
 -1      2665 2.14167E-03 1.97246E-03 1.23997E-02
 -1      2666 1.03404E-03 1.75709E-03-1.57178E-02
 -1      2667-7.44891E-03-4.53062E-04 8.45693E-02
 -1      2668-1.29315E-02 1.13172E-03 3.35668E-02
 -1      2669-3.83457E-03 3.70638E-04 6.88024E-03
 -1      2670-1.27109E-02-9.63713E-04 1.97239E-02
 -1      2671-1.42314E-02 4.36895E-04 4.49772E-02
 -1      2672 0.00000E+00 0.00000E+00 0.00000E+00
 -1      2673 3.21422E-03-1.34557E-03-6.56462E-02
 -1      2674-5.63453E-03-6.47990E-04 8.77516E-02
 -1      2675 2.08986E-03 1.96454E-03-6.55383E-02
 -1      2676 2.16883E-03-2.37929E-03-1.52850E-02
 -1      2677-5.47487E-03 2.66347E-03 3.25243E-02
 -1      2678-5.76442E-05 9.93586E-04 6.03747E-04
 -1      2679-7.90528E-03 9.77369E-05 9.03038E-03
 -1      2680-3.54264E-03 3.66733E-04-5.05902E-03
 -1      2681-2.08828E-03-1.04027E-04-5.11622E-03
 -1      2682 1.40736E-03 2.67934E-03-5.64613E-02
 -1      2683-3.29503E-03 2.36797E-03-5.52473E-02
 -1      2684-8.77800E-03 5.93505E-04 7.76964E-02
 -1      2685-2.16175E-03-4.07111E-04-8.64565E-02
 -1      2686-2.80874E-04 2.68040E-03-5.91177E-02
 -1      2687 3.85526E-03 8.13571E-04 1.09282E-02
 -1      2688-3.69669E-03-1.53864E-03-4.15401E-02
 -1      2689-7.38237E-03-3.93458E-04-2.15371E-02
 -1      2690-1.15778E-03 1.52540E-03-7.20420E-02
 -1      2691 1.66378E-03 2.22402E-03 6.59549E-02
 -1      2692-6.49070E-03 8.01920E-04-3.73705E-02
 -1      2693 5.71565E-03 8.44228E-04-2.40499E-02
 -1      2694 5.85680E-04 4.34014E-04-2.02368E-03
 -1      2695 1.15506E-03 2.15926E-03-6.32562E-02
 -1      2696-4.53676E-05-6.99310E-04-1.85464E-03
 -1      2697-8.74049E-03-6.54191E-04-2.22879E-02
 -1      2698 5.01323E-03-8.04561E-04-2.61015E-02
 -1      2699-6.44915E-05 6.87790E-04 8.76634E-02
 -1      2700-2.66963E-03 4.24820E-04-8.50225E-02
 -1      2701 1.52193E-04 4.91685E-04 1.13609E-03
 -1      2702 1.37521E-04 3.02192E-03-5.05923E-02
 -1      2703-5.28355E-03 1.37467E-03-6.03397E-02
 -1      2704-9.26792E-03-6.27024E-04-6.11929E-03
 -1      2705-1.83247E-03 2.20737E-03-6.40890E-02
 -1      2706-6.41570E-03 1.64754E-04-8.09014E-02
 -1      2707 2.23535E-04-9.29031E-04 2.39772E-03
 -1      2708-5.22375E-03 2.05233E-03-4.18582E-02
 -1      2709 1.48390E-03-2.34098E-03-6.70448E-02
 -1      2710-4.20558E-03-1.57913E-03-6.49392E-02
 -1      2711 1.49621E-03-1.38942E-03 2.08335E-02
 -1      2712-3.12028E-03-6.38482E-04 6.08254E-03
 -1      2713-8.57509E-03 4.12738E-04 1.77787E-02
 -1      2714-1.31613E-03 8.11039E-04 6.00248E-03
 -1      2715-2.19864E-03-2.27428E-03-7.14733E-02
 -1      2716-1.03775E-02-6.29466E-04-6.21576E-02
 -1      2717-9.12854E-03-5.72470E-04-7.07591E-02
 -1      2718-1.02872E-02 5.86879E-04 6.86188E-02
 -1      2719-1.48932E-02-3.08523E-04-7.80225E-03
 -1      2720 1.37229E-03 1.88796E-04 8.59851E-02
 -1      2721-2.43468E-04 1.33814E-03 2.99019E-03
 -1      2722-1.53557E-02-4.39732E-05 1.99989E-02
 -1      2723-8.24143E-03 4.02250E-05-2.80379E-04
 -1      2724-4.79851E-03 6.67525E-04-7.86946E-02
 -1      2725-1.53562E-03-2.24607E-03-7.35771E-02
 -1      2726 0.00000E+00 0.00000E+00 0.00000E+00
 -1      2727 2.10706E-03-2.75591E-03-5.88784E-02
 -1      2728 1.99417E-03-3.13266E-03-4.67083E-02
 -1      2729-1.53515E-02-3.92681E-04 2.18940E-02
 -1      2730 1.57316E-03-1.14812E-03 1.80533E-02
 -1      2731 1.88116E-03 6.35650E-04-1.07054E-02
 -1      2732-1.10590E-02 8.74751E-04-5.37392E-02
 -1      2733 3.18285E-03 2.60547E-03 6.25189E-02
 -1      2734-6.13825E-04 4.18048E-04 1.34380E-03
 -1      2735 5.50477E-05 1.88399E-03 7.77233E-02
 -1      2736-3.40031E-03-9.89916E-04-1.10177E-02
 -1      2737 0.00000E+00 0.00000E+00 0.00000E+00
 -1      2738 4.23944E-04-2.90418E-03-4.12076E-02
 -1      2739 7.09737E-04 2.17066E-03 6.26323E-03
 -1      2740-2.05493E-03 1.51236E-03 2.09174E-02
 -1      2741-3.77143E-04 2.62735E-03-4.22340E-02
 -1      2742-2.97278E-04-2.50801E-03 6.97538E-02
 -1      2743-1.85186E-03-2.48373E-03 3.20069E-02
 -1      2744-5.55235E-03 7.24111E-04 8.60336E-02
 -1      2745-3.10540E-04-1.63181E-03-9.79852E-03
 -1      2746 1.65862E-03-6.90489E-04 1.04402E-02
 -1      2747-5.54906E-03 7.26290E-05 8.89608E-03
 -1      2748-2.89967E-03 7.97551E-04-8.03309E-02
 -1      2749-1.54438E-03-2.15692E-03 7.59708E-02
 -1      2750 1.51708E-03 1.45005E-03-1.99349E-02
 -1      2751-1.25130E-03-2.65518E-03 5.09073E-02
 -1      2752-1.24568E-02-3.76876E-04 5.93271E-02
 -1      2753 1.86221E-04-2.42485E-03-9.76124E-03
 -1      2754-5.23106E-03 1.16814E-03 3.93090E-02
 -1      2755-1.86353E-03-2.46474E-03 4.22269E-02
 -1      2756 6.41135E-04-2.96348E-03 1.71503E-02
 -1      2757 0.00000E+00 0.00000E+00 0.00000E+00
 -1      2758-5.84225E-04 1.93891E-04-3.35815E-02
 -1      2759-2.70991E-05-1.87881E-04-4.02777E-04
 -1      2760-2.91297E-03-9.13083E-04-1.48114E-02
 -1      2761-4.18469E-03-1.09130E-03-2.69374E-02
 -1      2762 5.20453E-03 1.59006E-03 5.00766E-02
 -1      2763-3.53103E-03 1.75166E-03 3.84078E-02
 -1      2764-2.74534E-03 2.52091E-03-2.20674E-02
 -1      2765-1.57806E-03 2.39315E-03-6.44620E-02
 -1      2766-7.47148E-03 1.72901E-04 8.47966E-02
 -1      2767-2.92285E-03 7.22297E-04-1.42480E-02
 -1      2768-1.26646E-03-1.91400E-03-6.90874E-02
 -1      2769-4.28346E-04-5.60890E-04 3.93822E-02
 -1      2770-6.39758E-03 9.97666E-04 7.96380E-02
 -1      2771-3.44412E-04 2.51658E-03 1.76924E-02
 -1      2772-5.17375E-03-5.00586E-04-5.30266E-02
 -1      2773 1.42631E-03 1.27917E-03 1.51840E-02
 -1      2774-1.36021E-03-1.39730E-03-1.43644E-02
 -1      2775-7.74581E-04 9.05882E-04 3.05691E-03
 -1      2776-8.39255E-03 2.90555E-04-1.49441E-02
 -1      2777-6.18256E-04 1.28385E-03 6.53277E-03
 -1      2778-8.55854E-03-7.52422E-04 2.79179E-02
 -1      2779-5.36614E-04 1.48871E-03 8.38368E-02
 -1      2780 4.43720E-03 7.16588E-04-6.30245E-02
 -1      2781-2.88996E-04 7.83888E-04 2.63230E-03
 -1      2782-2.90491E-03 1.42002E-03 7.84736E-02
 -1      2783-2.68155E-03-1.01312E-03-8.32741E-02
 -1      2784-6.36406E-03-1.96111E-04 5.85078E-03
 -1      2785-3.15098E-03-2.53687E-03 1.33783E-02
 -1      2786 4.67601E-03 2.35901E-03-4.41248E-02
 -1      2787-3.20031E-03 1.11065E-03 8.56370E-02
 -1      2788-2.84439E-04-3.12896E-03 3.49989E-02
 -1      2789-1.31776E-03 2.60736E-03-5.68577E-02
 -1      2790-5.88150E-03-6.07503E-04 4.93586E-02
 -1      2791-3.03248E-03-1.11849E-03-2.02557E-02
 -1      2792-1.10703E-02-5.22856E-06 1.88700E-03
 -1      2793 2.75627E-04-1.45454E-04 2.02339E-04
 -1      2794-3.12610E-03-3.57055E-03 4.14708E-02
 -1      2795-4.76028E-05-2.51722E-03 1.44077E-02
 -1      2796-1.58730E-05 5.63218E-04-4.98703E-04
 -1      2797 3.63989E-03-9.88496E-04-1.92221E-02
 -1      2798-1.06533E-02-5.29475E-04 2.36508E-02
 -1      2799-4.53647E-03 2.18848E-03-1.54539E-02
 -1      2800 0.00000E+00 0.00000E+00 0.00000E+00
 -1      2801 1.64626E-03 1.62599E-03 7.78756E-02
 -1      2802-5.84969E-03-1.50679E-03 4.18075E-02
 -1      2803-3.92168E-03-1.57452E-03 7.31485E-02
 -1      2804-1.48100E-02 3.14962E-04 1.68161E-02
 -1      2805-3.52610E-03-7.61732E-04 8.71115E-02
 -1      2806-1.47107E-03 1.06095E-03-7.66327E-02
 -1      2807-4.87790E-03-1.18105E-04-3.72632E-03
 -1      2808-7.15528E-03-2.11208E-04-7.95278E-02
 -1      2809-4.48728E-03 1.44693E-03 7.08490E-02
 -1      2810-8.76098E-04-2.84903E-03 3.23451E-02
 -1      2811-3.25183E-03-1.68925E-03-5.46577E-02
 -1      2812 1.46767E-03 1.49954E-03-1.88723E-02
 -1      2813-1.78208E-03 2.13879E-03 4.46382E-02
 -1      2814 9.42098E-04-9.30294E-04 7.03338E-03
 -1      2815-4.62663E-03 6.70152E-04 1.95802E-02
 -1      2816-2.98989E-03 1.66158E-03-6.78188E-02
 -1      2817 1.23925E-03-4.12767E-04-3.98364E-03
 -1      2818-5.53398E-03-1.06158E-03 8.07350E-02
 -1      2819-6.18265E-04 1.44362E-03-7.34631E-02
 -1      2820 1.20489E-03-2.75465E-03-5.80915E-02
 -1      2821-1.36877E-03-2.67981E-03-6.57035E-02
 -1      2822-3.15613E-03-3.29138E-03-5.05155E-02
 -1      2823-2.00583E-04 2.74287E-03 5.37321E-02
 -1      2824 2.96316E-03-2.65374E-03-6.02420E-02
 -1      2825-6.15189E-03 5.06228E-04-7.67782E-02
 -1      2826 3.79147E-03 2.41861E-03-5.29967E-02
 -1      2827 3.69138E-03-3.24225E-03-2.82066E-02
 -1      2828-1.07651E-02-1.16027E-03-4.01956E-02
 -1      2829 3.70677E-04-1.53836E-03 8.40931E-02
 -1      2830-8.34480E-03 9.30817E-04 7.38838E-02
 -1      2831-5.49886E-03-1.05608E-03-3.78781E-02
 -1      2832-9.44398E-03 8.27466E-04-5.75302E-02
 -1      2833-4.64737E-03-4.52636E-04 9.12551E-02
 -1      2834 5.12930E-03 1.61801E-03 3.60157E-02
 -1      2835 3.44763E-03 1.43693E-03-6.91673E-02
 -1      2836-4.38876E-03 1.59080E-03 4.70537E-02
 -1      2837 5.67785E-04-2.13800E-03 7.11545E-03
 -1      2838 2.20073E-03 2.18698E-03 7.01002E-02
 -1      2839 2.80693E-04-2.81890E-03-4.36750E-02
 -1      2840-4.26301E-03-7.28924E-04 8.78304E-03
 -1      2841 3.12266E-03 5.15746E-04-7.25673E-02
 -1      2842-1.78570E-03-3.01512E-05-1.18279E-03
 -1      2843 4.62553E-04 2.05559E-03 5.17598E-02
 -1      2844 0.00000E+00 0.00000E+00 0.00000E+00
 -1      2845-5.85705E-03 6.21764E-04-7.50681E-02
 -1      2846 1.04394E-03-3.06904E-03-2.99679E-02
 -1      2847-1.32843E-02-6.77204E-04-4.72607E-02
 -1      2848-1.43012E-03 2.75607E-04-4.94618E-03
 -1      2849 1.81270E-04-2.61129E-03-1.80574E-02
 -1      2850 8.69049E-04 1.57064E-03-7.28414E-02
 -1      2851-9.96586E-04 1.60565E-03 1.00843E-02
 -1      2852-3.66620E-03-1.59588E-03 2.95292E-02
 -1      2853 1.08785E-03 2.12037E-03 4.19028E-02
 -1      2854-1.18029E-03 1.96096E-03-6.76651E-02
 -1      2855-6.78493E-03 4.53367E-04-7.77415E-02
 -1      2856 2.96813E-03 3.10943E-03-4.72943E-02
 -1      2857-5.49123E-03 9.02176E-04-3.92851E-02
 -1      2858 0.00000E+00 0.00000E+00 0.00000E+00
 -1      2859-2.06931E-03-6.87531E-04 7.51498E-03
 -1      2860 8.30094E-05-5.98617E-04 1.34822E-03
 -1      2861 3.85578E-03-9.30143E-04-1.42969E-02
 -1      2862-4.09351E-03 4.46496E-04-8.34457E-02
 -1      2863 4.25088E-03 2.03600E-03-5.82601E-02
 -1      2864 9.82331E-04-1.91827E-03 1.97053E-02
 -1      2865-1.36887E-03 1.25930E-03 9.91651E-03
 -1      2866-1.09383E-02 1.01148E-04-5.98076E-02
 -1      2867-1.15856E-02 6.83679E-04 6.10839E-02
 -1      2868 4.71092E-04 5.08663E-04 8.83549E-02
 -1      2869-3.53821E-04 7.92282E-04 2.48355E-03
 -1      2870 2.06673E-05 6.18536E-04 1.30041E-03
 -1      2871-1.54205E-02-1.26412E-04 3.65556E-02
 -1      2872 6.18790E-04-3.14710E-03 1.98143E-02
 -1      2873 7.17898E-04-2.52678E-03 1.12334E-02
 -1      2874-9.05122E-04 1.05224E-03-8.14980E-02
 -1      2875 1.58451E-03 9.00203E-04-1.59514E-02
 -1      2876 3.49961E-04-8.81914E-04 2.13204E-03
 -1      2877 2.08103E-03 1.41340E-03-7.52621E-02
 -1      2878-3.07177E-03 2.42779E-03-2.09517E-02
 -1      2879-4.08909E-03 1.25008E-03 3.23165E-02
 -1      2880-8.39574E-03-1.34343E-04 8.17880E-02
 -1      2881-6.10524E-03 4.21680E-04 8.76787E-02
 -1      2882-1.16787E-03-1.85111E-03-1.80355E-02
 -1      2883-6.14624E-03 1.12030E-03 7.76653E-02
 -1      2884-7.23773E-04 9.95345E-04 8.73294E-02
 -1      2885-7.66643E-03 6.32718E-04-2.59929E-02
 -1      2886 3.83225E-03-2.68233E-03-1.64578E-02
 -1      2887-1.86044E-03-2.07416E-03-5.40696E-02
 -1      2888-4.58785E-04 3.05703E-03 3.11985E-02
 -1      2889 3.44464E-03 1.36464E-03 7.22632E-02
 -1      2890-2.44743E-03-1.56064E-03 8.05736E-02
 -1      2891-1.32228E-02 7.77598E-04 1.97992E-02
 -1      2892-1.17833E-02-5.40856E-04-5.51900E-02
 -1      2893 1.50135E-04-3.22576E-03 2.54765E-02
 -1      2894-2.11317E-03 1.40873E-03-7.22596E-02
 -1      2895-5.09673E-04-2.57354E-03-5.22203E-02
 -1      2896-5.45355E-03-1.39075E-03-4.53382E-02
 -1      2897-9.05796E-03 7.12449E-04-6.68186E-02
 -1      2898-4.08006E-03-6.00009E-04-6.93688E-02
 -1      2899-1.92298E-03 4.11126E-04 3.37894E-03
 -1      2900-4.79201E-03 9.04624E-04-7.47945E-02
 -1      2901-3.56643E-03 1.15030E-03-1.11062E-02
 -1      2902-3.15613E-06 2.59799E-03-2.05035E-02
 -1      2903 6.40379E-05 2.86824E-03 3.94536E-02
 -1      2904-7.01678E-04 1.75777E-04 4.06740E-02
 -1      2905 7.68282E-04-3.47941E-03 2.72511E-02
 -1      2906-4.88945E-04 1.28728E-03-7.77765E-02
 -1      2907-4.63073E-03-6.18373E-04-1.48737E-02
 -1      2908-8.17662E-03 4.91726E-04-7.24225E-02
 -1      2909-7.61678E-03 5.81848E-04-7.22759E-02
 -1      2910-2.92835E-04-6.61801E-04 2.11594E-02
 -1      2911-1.36695E-02-3.70130E-04-4.65292E-02
 -1      2912-1.32276E-02-1.32469E-03 3.95355E-02
 -1      2913-1.48617E-02 3.22897E-05 4.15749E-02
 -1      2914-1.46865E-02-5.33828E-05-2.69291E-03
 -1      2915-1.36954E-02-5.28940E-04-9.27805E-03
 -1      2916-1.20552E-02-1.28686E-03-4.45293E-02
 -1      2917-4.19444E-04 5.26897E-04 2.82185E-02
 -1      2918-1.33294E-02 1.01887E-03 4.60602E-02
 -1      2919-1.48323E-02-6.53369E-04 1.97793E-02
 -1      2920-1.42919E-02-3.60573E-04-3.52486E-03
 -1      2921-1.33789E-02 4.84053E-04 5.35017E-02
 -1      2922-1.54178E-02 7.74212E-06-4.32365E-03
 -1      2923-1.10021E-03-8.65944E-04 4.48045E-02
 -1      2924-1.45907E-02-6.13199E-04-2.11740E-02
 -1      2925-1.51946E-02 2.43851E-04-1.74547E-02
 -1      2926-3.29834E-04-5.48888E-04-1.49209E-02
 -1      2927-1.44487E-02 7.12469E-04-2.69587E-02
 -1      2928-1.25584E-02 2.34650E-04 5.81974E-02
 -1      2929-1.34443E-03 5.02167E-04-3.88901E-02
 -1      2930-1.09097E-03-5.80341E-04-3.98362E-02
 -1      2931-1.48657E-02-6.74543E-05-3.73026E-02
 -1      2932-1.11461E-04 9.39219E-05-7.46005E-03
 -1      2933-1.17866E-02-1.24736E-03 5.77446E-02
 -1      2934-1.81074E-04 2.54233E-04 1.21473E-02
 -1      2935-7.36607E-05-2.10595E-04-4.90213E-03
 -1      2936-1.37544E-02 6.92621E-04-4.07295E-02
 -1      2937-1.28573E-02 1.08700E-03 3.95877E-02
 -1      2938-1.51771E-02-3.34738E-04 9.67313E-03
 -1      2939-8.29594E-04 5.43205E-04 4.29483E-02
 -1      2940-1.51243E-02-4.19190E-04 3.88831E-02
 -1      2941-1.31759E-02-1.23549E-04-5.14668E-02
 -1      2942-1.46019E-02-2.35263E-04 4.93085E-02
 -1      2943-1.39049E-02 4.38966E-04 1.23195E-02
 -1      2944-2.26462E-04-5.60737E-04 1.22557E-02
 -1      2945-7.57599E-04-8.96394E-04 3.22928E-02
 -1      2946-1.61118E-03-1.39916E-05-4.38898E-02
 -1      2947-1.28503E-02-5.99329E-04-5.04239E-02
 -1      2948-1.42366E-02-9.82175E-04 3.16994E-02
 -1      2949-1.29574E-03-5.63827E-04 4.76498E-02
 -1      2950-1.48572E-02-1.05323E-05 5.19275E-03
 -1      2951-1.29493E-02 7.65162E-04 5.15437E-02
 -1      2952-1.22942E-02-1.02273E-03-4.83386E-02
 -1      2953-5.60737E-04 6.93643E-04 2.75450E-02
 -1      2954-1.20605E-02-1.09407E-03-3.15971E-02
 -1      2955-1.35153E-02-8.69270E-04-4.19304E-02
 -1      2956-1.17861E-02 1.22682E-03 5.15396E-02
 -1      2957-1.43347E-02 4.81167E-04-1.12218E-02
 -1      2958-1.42260E-02-5.01530E-04-1.00573E-02
 -1      2959-1.25268E-02 1.08119E-03 5.16547E-02
 -1      2960-1.51011E-02 1.66751E-04-7.62685E-03
 -1      2961-7.06220E-04-8.31053E-04-2.48554E-02
 -1      2962-1.76827E-03 3.72584E-04-4.42149E-02
 -1      2963-1.16525E-02 7.72877E-04-4.95165E-02
 -1      2964-1.13507E-02 2.38186E-04-5.62502E-02
 -1      2965-4.37712E-04 3.99163E-04-1.95286E-02
 -1      2966-1.37764E-02-1.01192E-03-2.96641E-02
 -1      2967-1.39442E-02 8.86599E-04 3.20552E-02
 -1      2968-1.13426E-02-8.86013E-04 6.25192E-02
 -1      2969-1.32427E-02-1.24492E-03 4.97314E-02
 -1      2970-1.18999E-02 3.37948E-05-5.58746E-02
 -1      2971-9.99296E-04-9.39973E-04-3.66075E-02
 -1      2972-1.90175E-03-5.28099E-04 5.35387E-02
 -1      2973-1.30097E-02-1.38645E-03 3.60605E-02
 -1      2974-2.43269E-03-6.42211E-04 5.62197E-02
 -1      2975-1.38578E-03-3.47634E-04-4.56766E-02
 -1      2976-6.05549E-04-9.24319E-04 2.88182E-02
 -1      2977-1.28184E-03-1.10750E-04 4.99350E-02
 -1      2978 5.53286E-03 4.12829E-03-3.58308E-02
 -1      2979-1.48924E-03 1.53842E-04 5.40444E-02
 -1      2980-3.99137E-04 1.66417E-04-8.07999E-03
 -1      2981-1.65555E-03 8.16864E-04-4.04495E-02
 -1      2982-4.07333E-04 3.58210E-04 1.30460E-02
 -1      2983 7.99737E-03 2.74159E-03-2.94190E-02
 -1      2984-1.01795E-03-1.09935E-03-2.71525E-02
 -1      2985 8.39145E-03-3.07954E-03-2.95951E-02
 -1      2986-1.34902E-02 4.81123E-04-2.13602E-02
 -1      2987-1.83626E-03-8.58132E-04-4.32191E-02
 -1      2988 2.31231E-03 3.13371E-03-5.85427E-02
 -1      2989 2.05995E-03 2.93693E-03-5.17881E-02
 -1      2990 1.98289E-03-3.37291E-03 5.75304E-02
 -1      2991-1.40771E-02-8.39777E-04 4.57509E-02
 -1      2992-1.58590E-03-1.09480E-03 4.75631E-02
 -1      2993-3.31929E-04-6.45619E-04 1.29492E-02
 -1      2994 8.79209E-03 3.45123E-03 1.87774E-02
 -1      2995 1.54240E-03-3.95316E-04 6.68169E-02
 -1      2996-2.04068E-03-4.90616E-04-4.95593E-02
 -1      2997 1.47390E-03-3.26887E-03 6.30999E-02
 -1      2998 1.51435E-03-3.19897E-03 5.61081E-02
 -1      2999-2.25766E-03 2.54433E-05-4.79732E-02
 -1      3000-7.93480E-04 8.15267E-04 3.39647E-02
 -1      3001-8.73950E-04 6.28529E-04-2.77113E-02
 -1      3002 9.32323E-03 2.87756E-04 1.10249E-02
 -1      3003 5.58605E-03-4.47660E-03-3.62745E-02
 -1      3004 5.31685E-03-4.83330E-03 5.29190E-02
 -1      3005-7.33250E-04 5.84863E-04-2.34328E-02
 -1      3006-1.08705E-03-1.14115E-03 3.47040E-02
 -1      3007 4.40655E-03 3.80328E-03-3.76386E-02
 -1      3008-1.11468E-02-7.10178E-05 6.40001E-02
 -1      3009-4.46231E-04-7.08072E-04-1.22649E-02
 -1      3010 7.25378E-03 2.54629E-03-1.94541E-02
 -1      3011-2.25755E-03 2.51135E-04 5.67302E-02
 -1      3012 5.68974E-03 4.58756E-03 4.16442E-02
 -1      3013-1.60456E-03-9.80457E-04-4.11976E-02
 -1      3014 2.26829E-04-3.68329E-04 6.07141E-02
 -1      3015-2.22191E-03 3.37264E-04-4.85137E-02
 -1      3016 7.57186E-03-2.83266E-03-1.93712E-02
 -1      3017 8.26744E-03 3.32129E-03 3.47530E-02
 -1      3018 8.49105E-03 2.79210E-03-1.40384E-02
 -1      3019 9.26980E-03-4.28095E-04 1.06287E-02
 -1      3020 1.51690E-03 2.85717E-03-5.00768E-02
 -1      3021 6.63506E-04-1.26773E-04-5.99812E-02
 -1      3022 8.51678E-03 2.07151E-04 2.67006E-03
 -1      3023-1.49650E-03 8.42451E-04 4.69612E-02
 -1      3024 4.66201E-03-4.12710E-03-3.82266E-02
 -1      3025 4.85941E-03 1.90286E-03-1.27361E-02
 -1      3026-1.14788E-02-8.41569E-04-5.38731E-02
 -1      3027 4.00305E-04-2.31070E-04-5.45804E-02
 -1      3028-9.10506E-04 8.54919E-04 3.18425E-02
 -1      3029-1.11415E-03 8.00538E-04-2.75755E-02
 -1      3030 4.53990E-03 4.21207E-03 4.36547E-02
 -1      3031 8.17755E-04-3.92809E-04 6.63326E-02
 -1      3032-5.83348E-04-2.68693E-04 6.37440E-02
 -1      3033-9.34885E-04-1.10033E-03 3.21540E-02
 -1      3034 9.48593E-04-2.07237E-04-5.99006E-02
 -1      3035 9.35588E-03 4.38528E-05-6.01730E-03
 -1      3036 2.38633E-03 3.17671E-03 6.49887E-02
 -1      3037 5.45062E-03 4.11130E-03-4.75138E-02
 -1      3038 2.67901E-03 2.91590E-03-3.37792E-02
 -1      3039-3.66947E-04-3.48994E-04-7.08821E-03
 -1      3040 8.90851E-03-3.10685E-03-1.38045E-02
 -1      3041 2.25633E-03-2.82528E-03-5.86449E-02
 -1      3042 4.48834E-03 1.99184E-03-2.86731E-02
 -1      3043-2.03205E-03 8.90476E-04-4.24950E-02
 -1      3044 7.45744E-03 3.11089E-03 2.48777E-02
 -1      3045 5.61661E-03 3.11905E-04 1.12996E-02
 -1      3046 4.62666E-03 2.47596E-03 3.41975E-02
 -1      3047 1.48078E-03-2.63910E-03-5.03546E-02
 -1      3048-4.73353E-04-2.77840E-04 6.40206E-02
 -1      3049 4.27787E-03-4.41866E-03 4.31982E-02
 -1      3050 4.80087E-03-2.32831E-03-2.88358E-02
 -1      3051 5.14021E-03-2.12217E-03-1.24895E-02
 -1      3052 2.08345E-04 2.24465E-03-5.63274E-02
 -1      3053 2.27404E-04 2.12651E-03-4.92717E-02
 -1      3054 8.46546E-03-2.74015E-04 2.35041E-03
 -1      3055 5.27775E-03-4.69681E-03 4.12215E-02
 -1      3056 2.52706E-03 3.00531E-03-4.58475E-02
 -1      3057 1.58525E-03 2.90095E-03 5.64233E-02
 -1      3058-1.40275E-02 7.07336E-04 2.34809E-02
 -1      3059 8.66420E-03-3.61658E-03 1.85856E-02
 -1      3060 5.50000E-03-9.90975E-05-6.21929E-03
 -1      3061 2.76402E-03-3.29395E-03-3.42653E-02
 -1      3062 5.22068E-03-4.26120E-03-4.80535E-02
 -1      3063-6.16448E-04-1.50008E-04-5.73989E-02
 -1      3064-8.26218E-04-1.20434E-04-5.75043E-02
 -1      3065 5.03831E-03 2.37379E-03 1.76797E-02
 -1      3066 2.20971E-03 3.00652E-03 5.80810E-02
 -1      3067 5.65324E-03 4.66244E-03 5.39594E-02
 -1      3068 2.79796E-03 3.26941E-03 3.95700E-02
 -1      3069 2.55351E-03 3.26166E-03 5.23083E-02
 -1      3070 2.72079E-03-3.41912E-03 3.92236E-02
 -1      3071 7.19578E-03-3.31348E-03 3.41290E-02
 -1      3072 2.20506E-04-2.08784E-03-5.63538E-02
 -1      3073 2.27248E-03-2.75853E-03-5.27500E-02
 -1      3074 2.55138E-03-3.15779E-03-4.64900E-02
 -1      3075 4.54423E-04-2.12943E-03-5.01619E-02
 -1      3076 9.23421E-03-2.93802E-04-5.97770E-03
 -1      3077 2.48357E-03-3.44650E-03 5.14050E-02
 -1      3078 7.34485E-03-3.29479E-03 2.45981E-02
 -1      3079 2.03814E-04 2.30663E-03 6.27358E-02
 -1      3080 5.61573E-03-1.24022E-04-6.25108E-03
 -1      3081 5.45658E-03-3.87375E-04 1.09889E-02
 -1      3082 4.89182E-04 2.24077E-03 5.55993E-02
 -1      3083 3.64818E-03-2.48168E-03 3.36700E-02
 -1      3084 4.93987E-03-2.53603E-03 1.74508E-02
 -1      3085-7.13558E-03-3.25305E-04-3.07341E-02
 -1      3086-7.61404E-03-1.48662E-04 5.53015E-02
 -1      3087-7.25008E-03-7.54509E-05 1.42530E-02
 -1      3088-7.83396E-03-6.40344E-05-8.51669E-03
 -1      3089-7.54630E-03-9.73322E-05 1.33356E-02
 -1      3090-8.14141E-03-2.00105E-04 4.79074E-02
 -1      3091-7.14560E-03-4.01237E-04-2.73425E-02
 -1      3092-6.97145E-03-2.73944E-04 5.20631E-02
 -1      3093-7.94736E-03-1.12227E-04-5.34832E-02
 -1      3094-7.26462E-03 5.75749E-06-3.03116E-02
 -1      3095-5.58992E-03-6.41696E-04 5.00634E-02
 -1      3096-6.95125E-03-2.41236E-04-4.17989E-02
 -1      3097-5.51477E-03-6.18983E-04-2.91419E-02
 -1      3098-7.57712E-03 4.89461E-05-2.73858E-02
 -1      3099-7.32149E-03-4.29179E-05-4.63941E-02
 -1      3100-8.44161E-03-1.75656E-04 1.34160E-02
 -1      3101-7.67736E-03-2.88344E-05 3.59977E-02
 -1      3102-7.39119E-03-1.10832E-04 6.14861E-02
 -1      3103-5.60778E-03-3.92003E-04 5.79594E-02
 -1      3104-7.62788E-03-2.05347E-04-5.00174E-02
 -1      3105-7.66716E-03-3.10942E-05 3.30269E-02
 -1      3106-5.92862E-03-4.45222E-04-3.82435E-02
 -1      3107-4.99657E-03 2.28259E-05-9.22432E-03
 -1      3108-6.64886E-03-1.76625E-04-7.66531E-03
 -1      3109-7.12777E-03-1.70621E-04-8.98619E-03
 -1      3110-5.09413E-03 1.09609E-04 1.37868E-02
 -1      3111-8.04949E-03-1.18147E-05 5.73254E-02
 -1      3112-4.36682E-03 3.20392E-05-8.72945E-03
 -1      3113-7.41735E-03-1.98461E-04-4.71830E-02
 -1      3114-7.43732E-03-2.09228E-04 3.57213E-02
 -1      3115-5.60079E-03 3.55012E-04 3.46656E-02
 -1      3116-5.84011E-03-4.97443E-04 4.71480E-02
 -1      3117-5.40293E-03 3.35629E-04-2.89935E-02
 -1      3118-6.34745E-03-3.62792E-04 5.96795E-02
 -1      3119-6.72985E-03-1.29640E-04-1.25600E-03
 -1      3120-5.58764E-03 1.83968E-04-2.35556E-02
 -1      3121-7.26563E-03 8.03576E-05 5.27103E-02
 -1      3122-7.36368E-03-2.22379E-04-5.56933E-02
 -1      3123-5.29005E-03-3.83106E-04 1.39844E-02
 -1      3124-5.04548E-03-3.39414E-04-5.17637E-02
 -1      3125-6.06347E-03 3.47156E-04 5.73070E-02
 -1      3126-5.38325E-03 1.61565E-04-5.41069E-02
 -1      3127-5.96247E-03 1.47579E-04 4.78647E-02
 -1      3128-5.53605E-03-5.07761E-04-2.35702E-02
 -1      3129-5.30060E-03-9.13913E-05 5.89566E-03
 -1      3130-7.02419E-03 2.49996E-04 4.74285E-02
 -1      3131-5.73941E-03 8.33805E-05 2.32087E-02
 -1      3132-5.85596E-03 1.73944E-04-3.76397E-02
 -1      3133-7.26138E-03-2.04725E-04 3.29791E-02
 -1      3134-6.74438E-03 4.14990E-06-1.63744E-02
 -1      3135-6.06389E-03 2.38184E-04-4.84189E-02
 -1      3136-5.30716E-03-2.60395E-04-8.37727E-03
 -1      3137-5.33002E-03-6.02768E-04 3.44952E-02
 -1      3138-5.76646E-03-5.15057E-04-4.46837E-02
 -1      3139-7.03955E-03 6.45265E-05-4.26947E-02
 -1      3140-5.81697E-04-2.19859E-03 5.94189E-02
 -1      3141-6.92849E-03 4.56379E-06 6.19492E-02
 -1      3142-5.24838E-03 1.40132E-04 5.85696E-02
 -1      3143-6.90847E-03-2.71644E-05-5.71565E-02
 -1      3144-5.29311E-03 1.13552E-04-5.10609E-02
 -1      3145-5.19068E-03-3.88147E-04-5.43408E-02
 -1      3146-4.17927E-03-4.16272E-04 1.33442E-02
 -1      3147-5.36367E-03 4.04015E-04-4.48729E-02
 -1      3148-6.20405E-03-4.87131E-04-5.21431E-02
 -1      3149-4.85321E-03 6.24111E-04 5.16886E-02
 -1      3150-4.82053E-03 6.59525E-04 4.94083E-02
 -1      3151-6.24667E-03-1.68305E-04 6.30886E-02
 -1      3152-5.00059E-03-2.15442E-04 5.80869E-03
 -1      3153-5.54563E-03-3.84055E-04 2.28269E-02
 -1      3154-6.76021E-03 3.49739E-05-5.31878E-02
 -3
    1PSTEP                         2           1           1          
  100CL  101 1.000000000        3154                     0    1           1
 -4  STRESS      6    1
 -5  SXX         1    4    1    1
 -5  SYY         1    4    2    2
 -5  SZZ         1    4    3    3
 -5  SXY         1    4    1    2
 -5  SYZ         1    4    2    3
 -5  SZX         1    4    3    1
 -1         1-2.66655E+00-2.59476E+00-1.82519E+00 9.77952E-02-3.77420E-01-5.72213E-01
 -1         2-3.36131E+00-3.30648E+00-2.28708E+00-3.85751E-02 2.36662E-01-6.04597E-01
 -1         3-2.36701E-01 3.80491E-02-2.11495E-01-4.18994E-02-1.24029E-02-3.32079E-01
 -1         4-1.05232E+00-4.24098E-01 8.72303E-01 6.40156E-01-2.09511E-01-1.88992E-01
 -1         5-2.42699E+00-4.58652E-01 2.06736E-01-1.30770E-01-3.76090E-02-2.51199E-01
 -1         6-1.09069E+00-4.69643E-01 6.36484E-01-5.73095E-01 8.60438E-02-6.84562E-02
 -1         7-3.40009E+00-6.09723E-01 2.79244E-01 1.73545E-01-4.41194E-02 1.05250E-01
 -1         8-2.94381E+00-5.25488E-01 3.85717E-01-4.14985E-01-4.11213E-03 2.70864E-02
 -1         9-5.60699E-01-4.23425E-01-6.68096E-01-8.72357E-02 2.36834E-02 6.05675E-01
 -1        10-1.02183E+00-2.13058E-01-6.61234E-01-6.70431E-02 5.39316E-02 8.21989E-01
 -1        11-2.14901E+00-3.91010E-01 1.77261E-01 2.17791E-01-4.09084E-02-2.03793E-01
 -1        12 5.28450E-01 8.25448E-02 1.30077E-01 2.70096E-03 2.14034E-02 9.96891E-02
 -1        13-9.85355E-01-9.56914E-02-7.20558E-01-3.02804E-02 9.23500E-02 8.14165E-01
 -1        14-2.09991E-01 5.93704E-03-1.82499E-01-5.79984E-02-1.09481E-01-3.11423E-01
 -1        15 5.60831E-01-1.68399E-01-5.94089E-02-4.93801E-02 1.17729E-02-1.64076E-01
 -1        16-1.18523E+00-2.73346E-01 9.80349E-02 6.22157E-01 1.31289E-01-1.05982E-01
 -1        17-1.26272E+00-2.49353E-01 2.81245E-01-7.01694E-01-2.31827E-01-5.76918E-02
 -1        18-2.67188E-01-2.28466E-02-1.64294E-01-2.40166E-02-3.83295E-02-3.27323E-01
 -1        19-2.70651E+00-8.42520E-01 2.32714E-01-7.81053E-01 3.82067E-02 1.89716E-01
 -1        20-2.01343E+00-5.72468E-01 1.67703E-01-4.81005E-01-7.23858E-02-2.02200E-01
 -1        21-2.03254E+00-3.66136E-01 1.86649E-01-2.36981E-01-1.79551E-02-8.48012E-02
 -1        22-1.45230E+00-8.98835E-02 5.90026E-01 2.74019E-01-1.75339E-01-9.77883E-02
 -1        23-4.88528E-01-6.19202E-01-5.32025E-01-2.43374E-01 3.23987E-01 4.83053E-01
 -1        24-5.26865E-01-3.01592E-01-6.20843E-01-1.25053E-01 2.85640E-01 6.57789E-01
 -1        25-8.30984E-01-2.72176E-01-3.28315E-01-3.10950E-01 2.62133E-01 6.04011E-01
 -1        26-2.78709E+00-5.10790E-01 2.53765E-01-3.92507E-01-8.33106E-03-8.71026E-03
 -1        27 4.17079E-01-6.26741E-03 1.21557E-02 1.03843E-01 4.17308E-02 8.92592E-03
 -1        28-1.22612E-01 3.28654E-03-3.75873E-01-6.33665E-02-9.20308E-02-3.10203E-01
 -1        29 9.34722E-01 1.89774E-02 1.83775E-03 8.53413E-02-7.59561E-02-4.88431E-02
 -1        30-1.57670E+00 5.52609E-02 1.93304E-01 1.71903E-01 1.29404E-01-7.87787E-02
 -1        31-5.20797E-01-6.01542E-01 1.27678E-01-6.20847E-01-2.19328E-01-6.85311E-02
 -1        32 5.07274E-01-6.56766E-02-9.61278E-02 1.68225E-01-5.50831E-02-1.24376E-01
 -1        33 5.25540E-01 8.16384E-02-6.62697E-02 1.26664E-01 1.06997E-01 5.89055E-02
 -1        34-5.26709E-01-8.80745E-01 3.67504E-01-8.21922E-01 2.06546E-01-1.23410E-01
 -1        35 2.44261E-01-2.08446E-01-1.89464E-01 2.54097E-01 7.52848E-02 1.16945E-01
 -1        36 6.35157E-01 1.74291E-01 1.64520E-01 3.02525E-01-5.76417E-02-4.76550E-03
 -1        37 3.93690E-01-3.62862E-01-2.50901E-01 2.68343E-01 6.86128E-02-1.89184E-01
 -1        38 1.10368E-01-3.43015E-01-3.47894E-01 4.08381E-01 6.67549E-02-1.32529E-01
 -1        39-3.57365E+00-2.39975E+00-1.51975E+00 2.97400E-01 3.65408E-01-8.85353E-01
 -1        40-1.71658E+00-9.27337E-01 2.98509E-01-9.37554E-01 5.99452E-02 1.27667E-01
 -1        41-1.00549E+00-9.74958E-01 1.81088E-01-7.77456E-01 1.71157E-01 1.47061E-01
 -1        42-2.10068E-01-6.02274E-03-4.17082E-02-7.79849E-02-3.57239E-02-2.83472E-01
 -1        43-4.52624E-01-3.00975E-01-4.86717E-01-3.75349E-01 3.84704E-01 4.70964E-01
 -1        44-4.57555E-01-3.18323E-01-4.21617E-01-3.81795E-01 3.66348E-01 4.39371E-01
 -1        45 2.21953E-01 2.95502E-02 3.87722E-02 2.62874E-01-3.39236E-02-2.07208E-01
 -1        46 3.23115E-01 1.45176E-01 1.20998E-01 1.91467E-01 1.06500E-01-9.30016E-02
 -1        47-6.08072E-02 1.22798E-02-2.87549E-01-5.19292E-02-7.31490E-02-2.32822E-01
 -1        48-1.30928E+00-6.28170E-01 1.47499E-01-6.41360E-01-1.29571E-01-1.50765E-01
 -1        49-1.20728E+00-1.38862E-02 1.72734E-01-3.14139E-01 1.07942E-01-1.23327E-03
 -1        50-1.80832E-01-4.34468E-01 2.58960E-01-2.24064E-01-1.98505E-01 1.17057E-02
 -1        51-7.74454E-01-6.84137E-01 1.66350E-01-5.29986E-01-2.15331E-01-1.65099E-01
 -1        52-6.65953E-02-9.01899E-01 1.72068E-01-3.75529E-01 2.25644E-01-4.92726E-02
 -1        53-1.55270E+00 2.96238E-02 3.68071E-01-4.22959E-01-2.22437E-01 3.17855E-02
 -1        54 2.34454E-01-9.22387E-02-6.54191E-02 3.55282E-01 1.90855E-01-1.40986E-01
 -1        55 4.56759E-01 2.83080E-01 1.08780E-01 3.42217E-01-1.37079E-02-5.39412E-03
 -1        56-3.54308E-02-3.10820E-02-1.87479E-01-1.24240E-01-9.47082E-02-2.26146E-01
 -1        57-7.30778E-01-8.54008E-02 4.17281E-01-3.85941E-01-2.60631E-01-7.75440E-02
 -1        58-3.01956E-02-1.18409E-01 1.19057E-01-1.79699E-01-2.37308E-01 7.07885E-02
 -1        59-5.92558E-01-7.92310E-01 1.89283E-01-7.29387E-01 2.72630E-02 5.56955E-02
 -1        60-1.22821E-01-1.77867E-02 3.30554E-02-1.03516E-01-2.76370E-02-2.45059E-01
 -1        61-2.42339E-01-3.97199E-02-1.79805E-01-2.03218E-01 7.74374E-02 3.08575E-01
 -1        62-6.58768E-01-4.63424E-01 8.89020E-02-6.02163E-01-9.73785E-02-6.60620E-02
 -1        63-2.81789E-01-2.67969E-01-2.86661E-01-2.58657E-01 2.79989E-01 2.26342E-01
 -1        64-3.60986E-01-7.12285E-01 3.18812E-02-4.87575E-01 1.40522E-01 3.88253E-02
 -1        65-3.28930E-01-3.28701E-01 5.26735E-02-4.36221E-01-3.17463E-01-9.37153E-02
 -1        66 3.19563E-02 1.13478E-01 6.63339E-02 2.45118E-01-2.91743E-02-1.21304E-01
 -1        67-1.12456E-01-3.57963E-02-4.84643E-01 8.78283E-02-1.38374E-01-2.47152E-01
 -1        68-5.26815E-02 4.37372E-02-2.34584E-01 2.73413E-01-2.16302E-01-1.53961E-01
 -1        69 1.56822E-02-4.03860E-01-2.10845E-02-5.62798E-02 1.83948E-01-1.27717E-02
 -1        70 1.77381E-01 1.27953E-01-1.54102E-01 2.01421E-01 1.23956E-01-1.57942E-01
 -1        71-5.27962E-01-3.28427E-02-5.81639E-01 1.68738E-01-1.48713E-02-2.22343E-02
 -1        72-7.48653E-01-2.08582E-01 1.11782E-01-4.63514E-01 1.85954E-01 1.33767E-01
 -1        73 5.08121E-02-3.38847E-02 2.01749E-01-1.32571E-01 4.17960E-02-2.52853E-01
 -1        74-4.75633E-03 7.35832E-02-2.45494E-01-1.09299E-01-1.19840E-02-2.33047E-01
 -1        75 6.49299E-02-2.00773E-02 1.25844E-01-3.70192E-01-4.37322E-02 7.00671E-03
 -1        76-5.34615E-02-2.44417E-02-1.58165E-02-1.51284E-01 1.96617E-02 1.21698E-01
 -1        77-1.06961E-02-4.33538E-02 1.16180E-01-1.30898E-01-5.81312E-02 9.76982E-02
 -1        78-3.30742E-01 2.44494E-01 1.10566E+00-8.97755E-01 6.46869E-01-1.45605E+00
 -1        79 1.32102E-01 1.12655E-01-4.46898E-02-3.68715E-01 1.54951E-01-4.45251E-02
 -1        80-7.44434E-02-4.34838E-02-2.19894E-02 1.87270E-01-6.39408E-02-1.46418E-01
 -1        81 2.21748E-02 6.26668E-02-1.60332E-01-4.40336E-01-4.80595E-02 2.31251E-03
 -1        82 6.50381E-02 2.55370E-02-9.30562E-02 1.62599E-01-7.84695E-02-4.68965E-02
 -1        83-1.11920E-01-5.00021E-02 7.19088E-02-4.42691E-01 2.46931E-01 3.19112E-02
 -1        84-1.37400E-01 1.18637E-01 1.36012E-01 2.64094E-02 2.31686E-01-2.19472E-01
 -1        85 1.24185E-01 6.98965E-02-1.77307E-01-2.00852E-01-2.27032E-01 8.68897E-03
 -1        86-2.02291E-01-2.20782E-01-2.30177E-01-4.16313E-02 7.41927E-02 1.06132E-01
 -1        87 1.87931E-01 1.85764E-01-4.89538E-02-2.35066E-01 1.78860E-01-7.06939E-02
 -1        88-2.01416E-01-1.34391E-01 1.05284E-01-2.55162E-01 2.50332E-01 7.30693E-02
 -1        89 8.44747E-02 8.94385E-02 4.17585E-01-2.64173E-02-1.12937E-01 1.55449E-01
 -1        90-9.50968E-02-6.97899E-02 1.52194E-01-1.65502E-01-1.76886E-01 3.11710E-03
 -1        91 2.31582E+00 1.01216E+00 1.87474E-01-4.72558E-01-5.00950E-01-8.35780E-01
 -1        92 1.42164E-01 1.33551E-01-6.67571E-02-1.43928E-01 2.22680E-01-5.19513E-02
 -1        93 1.29605E-01-2.23266E-04-3.10926E-02-7.70389E-02-1.00416E-02-2.01577E-01
 -1        94 3.02303E-01 3.04202E-01-1.46864E-01-4.39818E-01 3.39629E-01-7.98240E-02
 -1        95 6.36985E-01 1.26435E-01-3.25933E-01-4.21480E-01 2.29523E-01-3.89448E-02
 -1        96 5.49137E-01 4.03308E-01-2.05203E-01-5.72945E-01 1.11780E-01-5.26169E-02
 -1        97 4.22186E-01 7.28439E-01-1.25856E-01-5.10756E-01-1.19668E-01 3.25308E-02
 -1        98 6.13254E-01 1.79230E-01-2.35883E-01-4.40453E-01-2.01666E-01 2.96274E-02
 -1        99 2.13841E-01 9.62893E-02 2.04828E-01-1.76620E-01-1.18270E-01 2.74973E-01
 -1       100-5.37695E-02 3.57796E-01-4.60399E-02-1.05692E-01-2.54113E-01-6.36862E-02
 -1       101-1.08987E-02 1.57874E-01 1.28905E-01-2.88679E-02-1.97282E-01-5.04455E-02
 -1       102 2.04772E-01 2.25587E-01 2.43530E-01-2.69000E-01-2.41514E-01 2.06670E-01
 -1       103 4.79889E-02 5.80180E-03 1.59262E-01-9.46670E-02 5.36534E-02-2.03095E-01
 -1       104 6.01935E-01 7.73840E-01-1.66531E-01-7.07276E-01 3.66781E-02 6.16346E-02
 -1       105-1.49934E-01-1.46814E-01-1.33307E-01 1.30492E-01 4.86415E-02-7.21607E-02
 -1       106-4.83834E-02-7.40493E-03 3.76937E-01 1.77362E-01 2.28672E-01-1.98343E-01
 -1       107 2.34184E-01-1.17554E-01 4.71505E-02 2.55953E-01-9.08123E-02-1.93879E-01
 -1       108 1.65331E-01 2.80065E-02 6.43375E-02-1.01742E-01 1.07041E-01-2.42524E-01
 -1       109 1.86507E+00 9.82046E-01-2.56480E-01-9.79861E-01-3.81416E-02 1.07567E-01
 -1       110 1.15276E+00 1.04939E+00-2.12168E-01-7.73473E-01-1.42613E-01 1.52689E-01
 -1       111 1.14025E+00 5.70635E-02-3.12773E-01-1.62678E-01-8.17983E-02 3.70220E-02
 -1       112 1.37652E+00 7.35367E-01-1.17110E-01-6.96958E-01 1.09866E-01-1.34828E-01
 -1       113 4.43866E-01 3.41465E-01 4.59129E-01-3.16850E-01-3.74460E-01 4.32707E-01
 -1       114 4.57117E-02 1.99442E-02 3.20794E-01-7.06339E-02 1.74337E-01-2.31617E-01
 -1       115 3.67347E-01 3.24112E-01 4.69889E-01-3.29806E-01-3.74819E-01 4.15412E-01
 -1       116-3.47384E-01-1.47066E-01 5.39823E-02 1.42212E-01-1.27917E-01-4.17351E-02
 -1       117 2.88252E+00 1.59108E+00 7.61386E-01 3.67432E-01-5.47661E-01-6.71125E-01
 -1       118 9.95052E-02 5.63261E-01-1.32270E-01-3.64867E-01 3.48885E-01-7.65710E-03
 -1       119-2.57289E-01-2.07394E-02 1.60064E-01 2.31787E-01 4.21562E-02-8.04261E-02
 -1       120-3.33652E-01 1.18766E-02 1.08071E-01 3.26561E-01-7.50770E-02 1.10674E-01
 -1       121 1.59374E+00 4.30239E-01-2.21957E-01-5.76484E-01-5.46157E-02 4.60620E-02
 -1       122-5.36086E-01-2.34223E-01-2.30956E-01 2.33555E-01-4.71856E-02-1.56160E-01
 -1       123 1.75525E+00-5.00166E-02-3.66883E-01-4.09065E-01 2.49220E-01-7.42672E-02
 -1       124-5.76734E-02-9.66477E-02-9.82240E-02 1.87434E-01 8.14124E-02 3.07525E-02
 -1       125-2.50823E-01 1.01563E-01 1.22928E-01 4.81176E-01-1.15574E-01-3.86532E-02
 -1       126 5.52822E-02 9.44983E-01-1.76751E-01-3.62873E-01-1.87607E-01-6.20812E-02
 -1       127 2.57403E-01 1.88538E-02 2.46808E-01-3.06549E-02 3.73758E-02-3.85016E-01
 -1       128 5.40967E-01 3.42429E-01 5.96584E-01-1.29343E-01-2.78464E-01 6.46974E-01
 -1       129 1.51432E+00 9.08002E-02-6.45069E-01 2.48535E-01 2.18827E-01-3.31139E-02
 -1       130 2.06457E+00 5.23729E-01-1.36673E-01-4.20731E-01 9.43002E-02-2.20571E-01
 -1       131 2.79103E+00 5.58287E-01-3.17916E-01-4.92394E-01 5.75623E-03 6.21450E-02
 -1       132 2.62439E-01 7.52054E-03 1.14687E-01-6.32756E-02 2.71133E-02-2.75751E-01
 -1       133 7.28244E-01 5.36617E-01 5.81950E-01-2.22471E-01-2.98116E-01 4.78530E-01
 -1       134-4.26174E-01 1.39551E-01 1.09705E-01 9.63378E-02 3.05714E-02-1.79674E-01
 -1       135 7.67809E-01 3.76420E-01 2.95744E-01-2.57256E-01-2.54961E-01 5.43570E-01
 -1       136-7.54576E-01-1.92689E-01-8.12915E-02 8.08522E-02-1.20490E-01 5.09529E-02
 -1       137 4.92484E-01 5.84633E-01-1.22040E-01-5.93555E-01 2.00217E-01-5.83890E-02
 -1       138 2.17503E+00 3.52956E-01-1.49349E-01-1.87520E-01 5.15056E-02-1.05912E-01
 -1       139-7.05020E-01 7.87973E-03-1.72124E-01 1.79651E-01-1.61901E-02-7.34599E-02
 -1       140-1.84233E-01 9.21854E-01 1.03598E-01 3.97659E-01-2.31412E-02-1.16645E-01
 -1       141-6.45988E-01-3.78777E-02-1.98132E-01 1.27151E-01-1.01643E-02 1.21927E-02
 -1       142-6.45690E-02 2.49509E-01 9.45822E-02 2.30063E-01-2.68120E-02-5.38806E-02
 -1       143 2.39369E+00 7.73916E-01-2.46013E-01-7.76048E-01-7.88508E-02 2.58094E-01
 -1       144 5.65033E-01 8.20438E-01-3.03079E-01-7.99887E-01-2.37455E-01-5.11056E-02
 -1       145 1.72209E+00-3.81274E-02-1.52855E-01 1.89063E-01-1.05344E-01-8.39055E-02
 -1       146 3.37272E-01-4.93362E-02 2.14712E-01-1.89085E-02 9.22618E-03-2.84130E-01
 -1       147 9.82570E-01 1.87217E-01 6.35831E-01-6.63355E-02-5.33624E-02 7.90410E-01
 -1       148 2.46606E+00 5.15723E-01-2.03778E-01-6.09417E-03 1.14811E-02-3.18394E-01
 -1       149 2.18857E+00 4.85908E-01-1.61193E-01 3.25633E-01 3.72753E-03-2.46571E-01
 -1       150 3.25715E+00 5.95473E-01-2.88831E-01 1.36691E-01 7.78019E-02 2.29075E-01
 -1       151 1.20916E+00 2.15526E-01-1.97513E-01-6.21912E-01 2.13251E-01-1.26325E-01
 -1       152 2.63613E+00 5.22711E-01-2.54877E-01-3.17661E-01 2.92709E-02 1.68505E-01
 -1       153 1.34512E+00 2.94296E-01-1.31612E-01 7.01115E-01-1.67478E-01-1.27347E-01
 -1       154 2.65110E-01-1.63372E-03 2.11230E-01 2.64297E-03 1.12813E-02-4.06383E-01
 -1       155 9.43634E-01 8.36663E-02 6.89793E-01-3.22957E-02-8.54270E-02 7.82036E-01
 -1       156-6.13501E-01 6.96245E-02 1.21325E-01-1.95169E-02 4.05333E-02-1.73118E-01
 -1       157-6.19821E-01-7.93733E-02 6.45242E-02 4.16052E-02-1.07483E-03 1.02723E-01
 -1       158-7.01905E-01 1.80334E-01 9.73875E-02-6.91013E-02 8.21963E-02-9.14821E-02
 -1       159 1.62091E+00 3.57369E-01-4.41434E-01 9.66318E-01 2.99390E-01-1.91367E-02
 -1       160-8.74801E-01-2.52414E-02-1.21030E-01-8.84088E-02-2.86625E-02-4.36932E-02
 -1       161-3.89564E-01 3.49378E-01 2.68450E-01 7.63562E-03 2.23640E-01-1.07509E-01
 -1       162 1.41554E+00 3.36256E-01-2.59834E-01-8.11508E-01-2.00069E-01 2.92976E-02
 -1       163 2.13366E-01-5.52275E-03 1.75357E-01 4.67460E-02-9.01182E-02-2.99465E-01
 -1       164 2.12087E+00 6.10866E-01-1.73065E-01 5.13962E-01-7.97716E-02-2.26837E-01
 -1       165 5.06993E-01 5.32185E-01-1.82294E-01 6.06423E-01-2.69238E-01-6.46953E-02
 -1       166 1.54728E+00 9.76126E-02-6.97917E-01-2.89565E-01-1.90408E-01-9.38544E-02
 -1       167 2.92551E+00 7.02897E-01-3.13470E-01 5.17273E-01-1.22024E-02 3.03952E-02
 -1       168 1.31641E+00 1.66018E-01-3.74708E-01-2.35116E-01 9.31161E-02-5.53544E-02
 -1       169 5.38000E-01 7.57052E-01-6.59387E-01 4.84068E-01 7.98039E-02-9.57050E-02
 -1       170 4.95418E-01 3.43835E-01 5.53650E-01 1.46119E-01 3.01092E-01 5.77749E-01
 -1       171 7.20305E-01 3.81624E-01 3.19463E-01 2.72241E-01 2.58854E-01 5.26872E-01
 -1       172 2.18519E+00 3.33329E-01-2.67176E-01 1.62919E-01-7.12462E-03-9.27283E-02
 -1       173-6.22818E-01-1.40348E-01-5.43834E-02-1.19312E-01 7.05010E-02 7.83610E-02
 -1       174 2.58781E+00 9.10005E-01-2.78998E-01 8.62886E-01 3.51176E-02 1.95762E-01
 -1       175-6.63400E-01-1.70247E-01-1.58968E-01-1.90069E-01 2.46389E-02-9.20907E-02
 -1       176 1.31209E-01-6.12372E-03 2.66183E-01 5.00430E-02-1.13629E-01-3.43027E-01
 -1       177-6.79912E-01-2.76313E-03 8.48894E-02-1.44529E-01-4.47932E-02-8.80459E-02
 -1       178-2.63225E-01 1.86452E-01 2.47463E-01-2.19448E-01 1.22591E-01-1.03789E-01
 -1       179 1.99683E-01 8.98008E-03 1.57771E-01 1.30532E-01-1.30885E-01-2.84223E-01
 -1       180 1.81974E-01 4.34710E-02 1.02559E-01 1.13698E-01-2.77752E-02-2.56084E-01
 -1       181 1.18008E+00 6.94626E-02-3.21500E-01 2.04359E-01 7.87440E-02 4.15021E-02
 -1       182 1.04186E+00 2.16490E-02-6.24892E-01 1.95090E-01-1.95111E-01-7.92900E-02
 -1       183 2.87585E-01 7.36397E-01-4.20051E-01 2.20661E-01 1.10320E-01-3.77858E-02
 -1       184 1.65999E+00 1.04150E+00-2.63457E-01 9.64205E-01 3.50655E-02 5.85717E-02
 -1       185 5.67829E-01 4.41052E-01 5.14618E-01 1.12922E-01 4.40443E-01 1.37862E-01
 -1       186 4.90895E-01 2.92800E-01 4.79489E-01 3.49132E-01 3.65141E-01 4.77820E-01
 -1       187-3.30268E-01-8.34811E-02-1.63986E-02-2.73896E-01-3.33165E-02-1.18930E-01
 -1       188 9.84348E-01 1.17408E+00-2.72723E-01 8.26851E-01 1.06617E-01 3.87928E-02
 -1       189 4.42182E-01 2.98199E-01 5.58123E-01 3.47195E-01 3.91726E-01 4.96731E-01
 -1       190-2.60986E-01-1.17419E-01-8.90762E-02-1.54442E-01 1.10003E-01 1.43785E-02
 -1       191 3.48198E+00 1.92158E+00 2.40658E+00 5.76732E-01 1.74150E-01-1.59949E+00
 -1       192 1.32688E+00 7.74323E-01 2.69583E-03 6.84845E-01-1.26926E-01-1.32893E-01
 -1       193-3.29848E-01-5.04556E-02 2.69513E-01-2.28461E-01-1.11121E-01-2.28470E-01
 -1       194 1.74155E+00 4.68621E-01-2.14682E-01 6.57837E-01 3.55693E-02 7.10242E-02
 -1       195 4.98151E-01 3.68014E-02 2.74825E-01-2.78551E-01 9.46797E-02-3.39370E-01
 -1       196-6.30064E-01-1.98599E-01-4.56302E-02-3.64313E-01 1.36449E-01 7.83393E-02
 -1       197-4.16311E-02-4.19048E-03 1.43744E-01-8.32243E-02-7.27984E-02-3.42125E-02
 -1       198 1.02653E-01 7.67132E-01-5.62748E-02 3.39885E-01-2.24594E-01-2.30260E-02
 -1       199 2.41595E+00 9.27165E-01 4.74555E-02 4.33389E-01 6.42121E-01-1.11448E+00
 -1       200 7.09048E-01 8.30519E-02-1.98184E-01 3.56119E-01 2.01191E-01 4.89959E-02
 -1       201 3.43459E-01 2.98944E-01-1.49917E-01 4.45440E-01-2.80474E-01-4.75172E-02
 -1       202 5.41703E-02 2.38623E-03 1.63513E-01 9.56345E-02-5.47677E-02-2.13612E-01
 -1       203 5.64471E-01 3.99032E-01-9.19294E-02 5.88387E-01-3.66037E-02-7.31195E-02
 -1       204 1.39044E-01-2.21574E-02-4.85817E-02 8.38940E-02 1.23824E-02-2.17601E-01
 -1       205 6.44623E-01 7.06904E-01-1.74481E-01 7.15009E-01-8.61204E-03 1.41043E-02
 -1       206 2.80762E-01 2.75805E-02 1.86483E-01 2.19115E-01 6.82635E-02 3.40856E-01
 -1       207-7.89026E-02 1.63253E-01-1.07242E-01 1.27061E-01-2.44651E-01 9.98499E-02
 -1       208 2.80167E-01 2.92379E-01 4.32351E-01 1.52389E-01 2.42873E-01 4.06982E-02
 -1       209 3.56262E-01 5.99494E-01-4.70106E-02 4.97723E-01 1.64438E-01 4.15509E-03
 -1       210 3.03589E-01 2.80698E-01 3.18021E-01 2.88729E-01 3.02096E-01 2.54128E-01
 -1       211-1.42178E-01-1.49100E-01 4.14293E-01-2.71799E-01-2.31751E-01-1.65362E-01
 -1       212 9.17613E-02-5.23411E-02 3.94797E-01 2.41608E-02-5.88001E-02-2.27972E-01
 -1       213 7.97028E-01 2.12567E-01-2.07700E-01 5.21118E-01-2.37931E-01-1.06041E-01
 -1       214 2.58945E-01-1.28873E-01 1.67518E-02-3.74677E-01 1.18632E-01-2.56570E-01
 -1       215-5.33230E-02 3.07632E-01-7.02638E-02 7.50517E-02 1.92656E-01-6.99424E-02
 -1       216-1.87312E-01-2.68549E-01-2.17705E-01-1.33147E-01-1.54730E-01-3.36631E-02
 -1       217-3.87029E-03 2.17749E-02-2.61037E-01 1.13682E-01 7.27218E-02-2.06508E-01
 -1       218-3.08949E-02-8.86107E-02-8.80410E-03 5.24705E-01-3.56791E-02-2.83535E-02
 -1       219-2.84778E-02-5.73325E-02 1.48874E-01 8.22420E-02-3.56865E-02-1.71077E-01
 -1       220-4.67234E-02-2.34300E-02-1.22765E-01 3.80645E-01-2.12178E-02 1.68681E-02
 -1       221-1.09606E-01-1.13455E-01-7.34178E-02 2.08162E-01-9.12667E-02 1.67452E-01
 -1       222-1.20936E-01-1.06580E-01-3.08235E-01 1.55896E-01-1.96505E-01 2.11336E-01
 -1       223-1.40888E-01-8.48049E-02 6.76879E-02-1.47667E-01 1.08440E-01-8.00864E-02
 -1       224 1.05762E-01 3.26973E-02 3.67613E-02 5.24694E-02 5.17398E-02-3.21812E-02
 -1       225 9.68589E-02 3.53699E-02-2.22574E-01-1.80444E-01-1.12705E-01-1.15371E-01
 -1       226-4.79767E-01 3.00414E-01 1.12644E+00 7.16414E-01-7.33334E-01-1.31094E+00
 -1       227-7.24534E-02-1.54163E-01 1.40401E-01 4.61842E-01-2.90161E-01 1.17144E-02
 -1       228 2.69829E-02-7.77443E-02-1.96485E-01-1.82653E-01 2.35749E-02-7.65888E-02
 -1       229 2.66405E-01 1.92080E-01-1.64059E-02 2.89959E-01 2.51590E-01 1.36353E-01
 -1       230 8.78712E-02 2.15251E-02 4.36531E-02-2.12130E-01-2.52057E-01-1.15910E-01
 -1       231-7.96047E-02-1.85640E-01 7.93335E-02 3.94049E-01 1.97507E-01-3.23638E-02
 -1       232-1.78574E-01-2.05224E-01 1.13152E-01 2.59867E-01 1.97847E-01-3.66788E-02
 -1       233 1.00130E-01 9.80888E-02-1.18105E-01 1.63742E-01-1.50746E-01-5.50558E-03
 -1       234-2.23144E-01-2.01227E-01 1.25175E-01 3.01665E-01-2.60583E-01 6.50978E-02
 -1       235-2.03081E-01-1.64681E-02-1.60475E-01 1.77657E-01-6.63125E-02 2.67384E-01
 -1       236-2.00417E-01-2.18535E-01-2.40288E-01 2.48563E-01-2.39605E-01 2.05481E-01
 -1       237-5.99932E-01-7.98058E-02 3.76349E-01 3.03005E-01-1.59994E-01 6.53731E-02
 -1       238-4.80365E-01-6.88390E-01 1.43372E-01 5.36627E-01-1.52153E-01 2.47644E-02
 -1       239-6.98994E-01-7.45885E-01 1.64252E-01 6.90072E-01 1.01820E-01 2.29505E-02
 -1       240-3.45420E-01-3.80330E-01 4.02939E-02 4.42457E-01 3.59873E-01-1.08085E-01
 -1       241-1.26957E-01-6.70457E-03 3.42772E-02 1.11724E-01 2.58576E-02-2.53156E-01
 -1       242-8.18521E-01-2.23619E-01 2.13621E-01 5.38817E-01 2.40970E-01-1.04105E-01
 -1       243-2.07806E-01-2.35263E-01-4.35748E-01 5.43445E-02-2.44907E-01 5.15646E-02
 -1       244-1.26481E+00-1.17243E+00-1.77270E+00 9.03533E-01 2.86463E-01-1.62433E+00
 -1       245-3.32812E-02 2.36114E-03-1.88763E-01 1.32662E-01 8.48758E-02-2.32989E-01
 -1       246 1.63137E-03-3.46692E-02-3.04440E-03-1.40994E-02-8.16840E-02-1.70442E-02
 -1       247-6.20516E-01-4.30059E-01 1.78802E-01 5.70132E-01 1.20212E-01-6.73657E-02
 -1       248 4.29930E-02-1.49562E-02-1.20741E-01-1.92734E-01 1.74462E-01-6.59806E-02
 -1       249 2.15758E-02-2.86718E-01-6.38979E-02 1.43090E-01 2.98965E-01 2.60550E-03
 -1       250 2.81631E-01 2.27747E-01 1.77443E-01-1.45033E-01 1.33660E-01 4.84482E-02
 -1       251 5.22670E-02-2.49875E-02-2.22530E-01-1.63497E-01-1.62661E-01-4.53939E-02
 -1       252 3.36463E-02 1.31543E-01-1.93061E-01-8.49710E-02 2.61025E-02-3.57517E-01
 -1       253 4.46484E-02-3.94904E-01 7.65758E-03 1.22007E-01-2.89209E-01-4.50763E-02
 -1       254-1.89583E-01 9.44487E-04-7.76957E-02 6.67142E-02 6.32967E-02-2.74664E-01
 -1       255-2.40422E-01-7.87877E-01 4.56324E-01 2.48159E-01-1.14905E-01-7.28655E-02
 -1       256-1.58974E+00-1.20738E+00 1.42061E-01 9.78279E-01-1.07355E-01 7.97945E-02
 -1       257-5.14371E-01-2.35287E-01-4.13323E-01 2.63900E-01-2.83945E-01 4.42692E-01
 -1       258-4.17100E-01-2.16423E-01-5.17644E-01 2.67512E-01-3.00937E-01 4.64572E-01
 -1       259 3.26521E-01 6.68345E-02-8.49395E-02-2.34548E-01 1.94681E-02-1.55257E-01
 -1       260-4.84394E-02 2.27581E-02-3.33198E-01 4.85990E-02 9.26759E-02-2.44730E-01
 -1       261-1.50843E-01-8.29590E-02-1.36379E-01-4.34361E-02-3.81221E-01 2.57570E-01
 -1       262-1.81066E+00-7.28964E-01 3.13730E-01 8.59174E-01 2.25508E-02-6.66443E-02
 -1       263 2.01000E-01 3.73188E-02-1.30557E-01-1.57411E-01-1.70389E-01 4.90818E-02
 -1       264-1.45504E+00-5.86435E-01 2.70794E-01 6.69869E-01 9.16198E-02-1.22408E-01
 -1       265-1.07441E+00-6.59899E-01 5.21464E-02 6.18849E-01 2.55632E-01-2.69484E-01
 -1       266-5.08716E-01-2.41985E-01-3.63189E-01-4.50326E-02-5.23699E-02-6.71982E-01
 -1       267-1.23355E+00 4.21125E-02 2.94119E-01 3.01529E-01-1.92066E-01 2.97646E-02
 -1       268 5.69326E-01 2.09579E-01 2.67942E-02-3.17609E-01-9.92708E-02-1.96914E-01
 -1       269-1.60836E+00 1.81737E-02 3.00348E-01 4.00995E-01 1.95072E-01-2.63090E-02
 -1       270 1.35852E-01 1.02211E-01-1.40167E-01-2.45730E-01-2.06188E-02-1.28501E-01
 -1       271-1.64280E-01-6.41431E-01-6.30299E-02 3.52006E-01 2.95992E-01-1.16333E-01
 -1       272 3.15000E-01 1.09377E-01 5.78273E-02-2.57777E-01 9.84834E-02-2.86631E-02
 -1       273 3.88545E-01-8.45286E-02-8.65576E-03-4.40627E-01-1.57773E-01 1.78488E-02
 -1       274-2.55469E+00-2.56644E+00-1.48741E+00-1.57254E-01-1.14317E-01-2.09514E-01
 -1       275-2.56654E-01-5.80052E-03-1.08885E-01 7.43955E-02 2.49988E-02-2.75536E-01
 -1       276-2.41966E-01-7.50883E-03-2.55345E-01 5.14982E-02 4.07894E-02-3.79737E-01
 -1       277-2.24213E+00-4.48411E-01 2.40306E-01 3.23968E-01 6.80419E-02-1.20403E-01
 -1       278-1.42347E+00-1.04902E-01 5.12592E-01-2.64761E-01 1.15345E-01-6.46561E-02
 -1       279-5.00998E-01-4.64940E-01 3.81146E-01 2.76876E-01 9.68025E-02-7.38344E-02
 -1       280-5.28163E-01-9.20225E-02-6.26690E-01 1.90460E-01-2.79477E-01 6.63060E-01
 -1       281-2.62727E+00-8.22508E-01 2.40365E-01 7.56617E-01-1.04023E-01 2.30831E-01
 -1       282-8.12774E-01-2.00650E-01-2.95315E-01 3.23665E-01-2.08148E-01 5.91180E-01
 -1       283-2.00003E+00-5.39268E-01 1.76075E-01 4.96832E-01 5.41867E-02-2.02550E-01
 -1       284 4.50623E-01-1.23307E-02-1.84992E-01-1.64611E-01 1.74979E-02-1.77918E-01
 -1       285-3.65850E-02-5.37674E-01-5.20114E-01-5.01869E-01-1.93158E-01-2.35535E-01
 -1       286 5.76669E-01-1.28799E-01-1.30056E-01-1.69388E-01 2.32522E-03-5.30019E-02
 -1       287 4.49881E-01 7.83094E-02 2.05502E-01-7.02997E-02-3.90772E-02 3.76820E-02
 -1       288-2.70524E+00-5.46404E-01 2.34793E-01 3.76964E-01-3.79656E-02 2.78970E-02
 -1       289-5.51962E-01-8.49771E-01 4.29550E-01 8.50696E-01-2.75166E-01-1.18767E-01
 -1       290 7.91065E-01 1.34666E-01 1.69358E-01-1.18132E-01-1.22423E-01 8.96846E-02
 -1       291 3.13425E-01-1.40567E-01 6.59468E-02-6.42917E-02-1.28944E-01 2.75196E-02
 -1       292-1.73334E+00 6.30654E-02 2.21287E-01-1.92488E-01-1.46838E-01-8.08789E-02
 -1       293-3.50350E-01-5.33146E-01-5.78879E-01-7.46100E-02 6.49871E-01 5.66719E-01
 -1       294-2.26962E-01-6.86362E-02 1.54524E-01 2.05011E-02 3.91056E-02 2.01374E+00
 -1       295 3.57961E-01 6.78938E-01 3.11070E-01 1.32679E-01 4.24998E-01 1.75015E-01
 -1       296-3.36712E-01 2.75370E-02 7.36986E-02 4.16374E-02 6.20925E-01 1.17050E+00
 -1       297-1.26796E+00 8.83388E-01-1.51268E-01-3.23498E-01-9.76453E-01 1.53040E+00
 -1       298 0.00000E+00 0.00000E+00 0.00000E+00 0.00000E+00 0.00000E+00 0.00000E+00
 -1       299 4.66804E-01 3.35342E-01 2.40644E-01-1.83854E-01-4.15850E-01 3.18656E-01
 -1       300-1.28336E+00-1.09397E+00-7.13200E-01 4.76157E-01-1.17465E+00 1.16627E+00
 -1       301-9.58381E-01-7.12385E-01-5.01230E-01-3.23236E-01 6.49691E-01 7.20174E-01
 -1       302-3.44811E-02 2.96307E-01-5.80360E-01 9.71032E-02-3.40624E-02-3.20575E-02
 -1       303-1.21372E-01-3.00055E-01-1.26428E-01-4.34714E-03 2.29314E-01 4.52932E-02
 -1       304 8.26391E-02 1.52552E-01 1.19567E-01 3.33387E-02 3.55050E-02 8.75187E-02
 -1       305 0.00000E+00 0.00000E+00 0.00000E+00 0.00000E+00 0.00000E+00 0.00000E+00
 -1       306-3.49590E-01-2.71348E-01-2.81539E-01 5.02822E-01-4.13838E-01 1.90460E+00
 -1       307 6.38279E-01 1.08509E+00 4.41577E-01-3.84364E-01-1.05916E+00 1.01840E+00
 -1       308 1.51554E-01 2.32941E-01 2.65878E-01-1.16793E-02-2.35392E-01 8.38157E-02
 -1       309 0.00000E+00 0.00000E+00 0.00000E+00 0.00000E+00 0.00000E+00 0.00000E+00
 -1       310 2.75238E-01 6.40776E-01 2.74804E-01-3.67895E-02-3.65277E-01 7.12192E-02
 -1       311 1.48947E-01 3.64669E-01 8.50086E-01 9.54619E-02-8.09883E-01 7.21803E-01
 -1       312 3.53340E-01 3.05272E-01-1.77071E-02-3.67338E-01-3.55609E-01 1.51831E-01
 -1       313-2.32873E+00-1.36497E+00-6.68830E-01-1.00326E+00 7.55749E-01 4.21051E-01
 -1       314 4.14804E-01 1.25005E-01 4.64909E-01 4.90384E-02 1.86500E-01 2.05852E+00
 -1       315 1.18035E-01 6.31914E-01 1.24140E-01-6.51299E-02-9.18328E-01 5.85301E-01
 -1       316 3.48538E-01 9.12350E-02-9.39672E-02 5.04700E-03 1.94582E-01 4.13136E-02
 -1       317-1.37966E+00-1.15499E+00-8.10500E-01 1.19649E+00-3.84970E-01 1.85252E+00
 -1       318-3.62795E-01-4.30071E-03-3.57199E-03 2.78955E-01-6.44200E-01 3.39020E-01
 -1       319-4.91324E-01-1.34718E-01 1.16045E+00 3.44529E-01-4.08546E-01-1.90516E-01
 -1       320-9.77497E-01-6.48111E-01-4.87682E-01-2.83394E-01 4.89676E-01 7.37982E-01
 -1       321 3.73853E-01 1.83662E-01 4.58369E-01 4.36130E-02 7.88690E-01 6.95885E-01
 -1       322-8.70619E-01-1.50630E+00-7.13076E-01-3.82144E-01 1.01408E+00 6.74101E-01
 -1       323 1.30241E-02 1.74335E-01-1.42403E-01-2.75899E-02-7.58977E-02-6.58140E-03
 -1       324 8.01858E-02 4.61663E-01 2.01242E-01-2.16733E-02-5.06593E-01 2.86450E-01
 -1       325 2.09634E+00 1.50949E+00 1.08175E+00 6.78669E-01 8.84697E-01 1.37595E+00
 -1       326-8.31140E-01 2.19249E+00 4.43190E-01-8.37799E-01-9.89637E-01 1.38905E+00
 -1       327 1.56524E-01 7.07466E-02 7.72518E-02 6.73986E-01-4.52589E-01 2.05045E+00
 -1       328-8.60920E-01-4.94368E-01-7.97333E-01-3.08242E-02 2.95538E-01 1.68215E+00
 -1       329 5.01393E-01 4.41926E-01 4.56238E-01 3.73765E-01 5.38672E-02 8.21853E-01
 -1       330 5.22041E-01 3.73687E-01 6.98333E-01-1.61378E-02-1.25834E-01 5.37376E-01
 -1       331 1.16071E+00 4.33639E-01 5.24351E-01 7.12330E-02-2.16682E-02 6.82333E-01
 -1       332-4.75359E-01 1.25914E-01 9.62335E-02 1.09220E-01-9.97771E-02-2.43755E-01
 -1       333 6.67265E-01 4.62080E-01 4.40692E-01 1.72860E-01 7.36638E-02 4.43188E-01
 -1       334-2.04105E+00-9.35643E-01-8.93009E-01-2.21415E-01 4.16692E-01 2.07729E+00
 -1       335-1.89057E+00-4.95193E-01-9.22410E-01 7.31313E-01 1.48868E-02 1.35532E+00
 -1       336-2.98265E-01 8.05237E-02-3.80818E-02 1.41468E-01 8.78835E-02-2.48716E-02
 -1       337 1.06549E-01 4.95137E-02 2.07387E-01 2.57046E-01-9.21113E-02-4.88006E-02
 -1       338 7.72608E-01 3.47977E-01 5.98935E-01-9.02635E-02-3.95645E-01 2.21265E-01
 -1       339 6.75058E-01 4.09212E-01 5.29103E-01 1.53865E-01 2.45332E-01 4.30494E-01
 -1       340-4.44287E-01 9.61877E-02-4.43431E-02-1.63805E-01 2.72773E-02-1.10027E-01
 -1       341-9.61437E-01-9.08071E-01-5.60852E-01-3.73920E-01 1.17018E+00 1.16938E+00
 -1       342 6.73800E-01 6.29485E-01 7.24669E-01 5.56147E-02 2.41495E-01 5.82306E-01
 -1       343 3.37033E-01 1.77404E-01 6.46520E-01-4.38109E-02 9.79235E-02 5.00090E-01
 -1       344 1.99885E-01 4.86027E-01 4.81816E-01 5.06694E-01-6.83076E-02-1.36457E-01
 -1       345 5.23229E-02 9.48576E-03 1.06412E-01-1.46533E-01 2.11997E-01-7.59902E-02
 -1       346-2.92872E-01-1.56066E-01 2.28878E-01-2.79423E-01-2.46984E-02 1.16277E-01
 -1       347 5.58387E-02 2.59510E-01 7.17931E-02-5.07732E-01 1.53248E-01-4.88765E-03
 -1       348-1.71974E-01-1.18832E-01 5.49788E-02 2.23906E-01-1.05779E-01-1.54647E-01
 -1       349 4.67294E-01 2.84564E-01 4.86911E-01-1.11083E-01-2.47982E-01-2.17079E-03
 -1       350 2.47013E-01 3.36089E-02 3.28070E-01 1.89407E-01-4.97361E-03-2.49736E-01
 -1       351 2.98589E-01 1.06221E-01 1.97486E-01 6.11852E-02-2.68374E-02 3.54656E-02
 -1       352 3.82935E+00 3.90415E+00 1.92443E+00 2.26466E-01-1.91692E-01-5.32903E-01
 -1       353-3.69140E-01 5.68810E-01 2.31771E-01 2.13301E-01-7.22848E-02-1.45141E-01
 -1       354 5.18016E+00 4.33549E+00 3.14911E+00 1.70791E-01-3.44413E-01-9.93593E-01
 -1       355 2.81553E+00 1.93270E+00 6.29551E-01-8.94582E-02 7.87706E-01-6.34334E-01
 -1       356 3.27482E+00 2.27134E+00 2.31889E+00 1.61980E-01-5.63419E-01-1.14628E+00
 -1       357-6.83216E-02-9.10911E-02-7.84287E-02 2.51758E-01 2.09057E-02-1.61313E-01
 -1       358 3.25588E+00 1.87679E+00 2.34360E+00-5.71085E-01-1.72687E-01-1.44168E+00
 -1       359 1.61078E-01-6.16321E-02-1.55973E-01-1.04808E-02 1.55987E-01-3.62762E-01
 -1       360 1.31830E+00 8.82179E-01 1.85146E+00 9.79039E-01-1.05788E-01-1.86918E+00
 -1       361 6.14251E-02-2.59898E-02 2.61551E-02-2.50510E-01 8.07956E-03-1.36702E-01
 -1       362 4.43189E+00 3.29717E+00 3.19055E+00 1.35497E-01 6.79355E-01-1.50803E+00
 -1       363 3.66290E+00 3.30112E+00 2.70327E+00-9.43623E-02 3.97258E-01-9.91200E-01
 -1       364 3.12124E+00 2.73656E+00 2.03015E+00-2.73406E-01-1.63918E-02-6.06876E-01
 -1       365-8.95098E-01-3.93985E-02-6.41852E-02-1.71610E-01 5.20387E-02-3.99941E-02
 -1       366-5.26727E-01 3.02130E-01 3.58672E-01-3.10257E-01 1.01820E-01-8.90321E-02
 -1       367 3.79003E-03 2.47219E-01 4.65276E-02-2.32997E-01-2.78022E-02 1.18142E-01
 -1       368-5.84170E-01 5.11351E-01 3.52906E-01-3.48995E-01 5.17715E-03-5.19959E-02
 -1       369 2.00158E-01 4.64304E-02 3.77724E-01-5.90996E-02 5.13365E-02-1.26530E-01
 -1       370 1.83002E-01-1.11562E-01-1.42868E-01-5.18834E-02-1.46385E-01-3.85542E-01
 -1       371 6.61781E-01-7.09729E-02-1.06685E+00-8.52271E-01-5.33237E-01-1.55959E+00
 -1       372 1.44697E+00 1.01870E+00 2.06545E+00-8.61977E-01 2.04448E-01-1.91880E+00
 -1       373 2.12804E-01 5.59554E-02 4.80120E-01-1.88538E-02 1.21760E-01-3.84177E-01
 -1       374 6.88939E-01-3.77471E-01-1.13837E+00 8.76949E-01 7.18113E-01-1.51666E+00
 -1       375-2.36873E-01-1.68746E-01-2.65821E-01 1.92265E-01 5.22258E-02-2.59086E-01
 -1       376 1.10420E-01 4.69754E-01 2.33852E-01-1.27188E-01-3.65549E-02-4.15862E-01
 -1       377-1.19538E+00-8.53029E-01-1.60034E+00-9.54689E-01-1.72452E-01-1.68755E+00
 -1       378-8.08185E-02-1.83337E-02 7.02742E-02 1.81980E-01 2.89925E-01-2.89826E-02
 -1       379-3.13786E+00-2.01077E+00-2.00982E+00-1.01774E-01-5.27085E-01-1.12740E+00
 -1       380 4.41343E-01 9.09017E-02 1.49891E-01-3.81094E-01-1.24638E-01 8.84125E-02
 -1       381-2.76164E+00-1.62847E+00-2.63895E+00-4.73073E-01 2.56985E-01-1.60121E+00
 -1       382-2.00148E+00-1.84339E+00-8.07914E-01-1.45744E-01-4.94690E-01-3.73215E-01
 -1       383-4.84670E-01-7.56380E-02-2.57384E-01-7.30208E-02-1.15370E-01 1.67680E-01
 -1       384 1.85206E-02-4.26090E-04-2.76050E-01 2.68197E-01 4.56694E-02-3.26805E-01
 -1       385 3.33756E-01 1.11910E-01-1.28795E-01 2.96742E-01-1.10491E-01-1.47378E-01
 -1       386 3.86910E-01-4.87941E-01-2.72303E-01-2.50459E-01-8.72304E-02-6.80740E-03
 -1       387-3.19372E+00-3.20949E+00-1.60572E+00 3.75957E-02 2.56358E-01-3.77193E-01
 -1       388-3.58804E+00-2.48787E+00-2.57409E+00 7.79900E-02 3.54308E-01-1.29003E+00
 -1       389 6.92051E-01-4.43125E-01-2.16275E-01-1.67118E-01-7.65078E-02-6.41884E-02
 -1       390 1.32072E+00 1.01499E+00 7.00712E-01 4.66031E-01 1.04935E+00 1.05709E+00
 -1       391-3.02151E-01-1.94135E-01-5.42177E-01 7.39515E-04 3.16110E-01 3.71226E-01
 -1       392-3.53979E-01-2.69684E-01-3.33964E-01-1.19421E-01 2.46917E-01 6.42946E-02
 -1       393-2.64938E-01-1.96793E-01-1.89968E-01 7.54632E-02 2.55747E-01 1.37980E-01
 -1       394-9.63685E-02-8.92325E-02 3.78204E-02 1.26692E-03 1.01510E-01-8.22003E-02
 -1       395 8.16425E-02 1.91692E-01 3.02530E-01 4.01527E-02-5.90386E-02 7.05451E-02
 -1       396 6.36099E-02 9.88150E-02 2.74325E-01 1.49817E-01-6.19605E-02-2.36983E-02
 -1       397 1.00396E-02 4.79623E-03 2.81237E-02-1.71150E-02-7.40621E-03 1.59675E-02
 -1       398 8.08418E-03 1.53857E-02 8.05959E-03-3.68535E-02 8.59976E-03-1.50658E-01
 -1       399 3.85761E-03-1.65893E-01-4.06335E-01 4.47103E-02 1.10610E-01-5.17201E-02
 -1       400-1.62738E-01-2.75997E-01-3.03200E-01 1.87354E-01 1.81478E-01 7.89939E-02
 -1       401-2.83447E-01-1.97759E-01-1.02385E-01 1.38906E-01-3.54050E-01 2.19801E-01
 -1       402-4.28011E-01-1.13343E+00-1.45684E+00-2.52838E-01-1.80090E-01 1.96509E-02
 -1       403 3.49791E-02 2.03864E-01 1.26263E-01-2.64219E-02-3.39377E-01 7.12332E-02
 -1       404 1.22377E+00 9.41472E-01 3.72263E-02 5.68055E-01-4.87753E-02-2.70306E-01
 -1       405-1.22273E-01 1.86694E-02-1.85812E-01 1.26531E-01 3.88558E-02-3.79814E-02
 -1       406 2.12564E-01 6.77857E-02-1.50649E-01 2.52317E-01 1.85778E-01-7.90430E-02
 -1       407-1.60184E+00-1.10065E+00 8.41189E-02-1.30404E+00 1.02245E+00 8.11836E-02
 -1       408 3.82206E-01 3.81404E-01 4.38903E-01 3.01289E-01 8.06405E-01 1.37312E+00
 -1       409-5.86935E-01-1.05507E+00-4.92075E-01 1.68423E+00-2.34660E-01 1.60738E+00
 -1       410-1.03769E-01-1.80912E-01-4.77432E-01 2.02630E-01-1.23260E-01 5.27169E-01
 -1       411-9.57256E-01-4.06673E-01-5.99660E-01-4.32447E-02 1.24117E-01 6.14419E-01
 -1       412 3.90682E-01-2.54041E-01 8.01999E-02 1.22291E-01-1.72173E-03-6.11362E-02
 -1       413 7.72683E-01 1.06833E-01 1.67818E-01 1.36464E-01-6.05517E-02-1.16996E-04
 -1       414 1.44818E+00 5.14707E-01-9.77161E-01-4.60404E-01 5.44917E-02 1.77733E-01
 -1       415 3.10914E-01-3.15150E-01-1.49108E-01 6.32241E-02 7.00120E-02-8.29903E-02
 -1       416-1.01032E+00-3.72876E-01-6.21110E-01-8.64620E-02-8.41913E-02 6.53357E-01
 -1       417 1.73906E-01 3.43223E-01 1.13064E-01-1.60190E-01-6.85875E-01 6.26172E-01
 -1       418-4.69293E-01-3.52525E-01-4.32241E-01 5.35694E-02-3.32149E-01 3.24188E-01
 -1       419-1.37701E-01-1.67853E-01-2.12836E-01-6.46604E-03-3.92473E-01 4.51389E-01
 -1       420 6.69122E-01 7.59317E-02 1.42522E-01-1.67945E-01 1.06685E-01-1.06093E-01
 -1       421 8.60548E-02 4.59891E-02 1.94981E-01-1.54218E-01 8.97019E-02-9.06246E-02
 -1       422-2.40131E-02-5.79988E-02-1.84494E-01-8.59750E-02-8.55557E-02 6.79477E-02
 -1       423-1.86382E-01-1.60249E-01 7.95944E-02 1.58932E-01-1.63421E-01 2.16184E-02
 -1       424 1.07357E-01 1.44581E-01-1.03826E-01 7.76130E-02 5.16420E-02-6.41037E-02
 -1       425 6.73810E-02 1.10703E-01 3.31874E-01-9.56679E-02 9.06504E-02 1.74144E-04
 -1       426-5.37443E-02-8.20872E-02-3.06456E-01-1.44617E-01 1.75192E-03-1.18795E-01
 -1       427-6.32852E-02-2.22761E-01 1.55244E-02-6.82048E-02-8.70392E-02 2.23486E-02
 -1       428 8.47223E-03-1.87519E-02-2.64683E-02 5.48287E-02 2.16067E-03 2.88619E-02
 -1       429-2.70023E-01-4.95171E-01 4.93597E-01-2.99594E-01-1.04032E-01-8.24512E-02
 -1       430 3.25511E-01-5.41188E-01-2.41731E-01 1.46546E-01 1.56190E-01-2.30236E-01
 -1       431 8.93304E-01 1.36000E-02 4.77721E-02 8.46144E-02-2.83555E-02-8.13254E-02
 -1       432-1.76293E-01 1.00623E-01-6.34323E-03 3.19528E-01 9.23478E-02-2.02309E-01
 -1       433-6.47719E-01-1.51027E-01-1.00347E-01-7.76538E-02-1.61133E-02-2.66143E-01
 -1       434-2.68575E+00-9.79594E-01-2.43704E-01 4.03938E-01-4.38091E-01-9.10428E-01
 -1       435 1.51834E-01 8.92435E-02 7.56262E-02-2.51977E-01 2.03307E-02-8.02900E-02
 -1       436-2.67967E+00-1.56074E+00-2.50699E+00 3.83460E-01-2.19196E-01-1.41967E+00
 -1       437-2.31680E+00-6.35972E-01 6.83540E-02-3.53797E-01 6.50259E-01-1.08422E+00
 -1       438-1.86585E+00-5.45373E-01 1.23501E+00 6.60910E-01 1.26258E-01-2.91495E-01
 -1       439 0.00000E+00 0.00000E+00 0.00000E+00 0.00000E+00 0.00000E+00 0.00000E+00
 -1       440 0.00000E+00 0.00000E+00 0.00000E+00 0.00000E+00 0.00000E+00 0.00000E+00
 -1       441-1.41464E-01-1.96733E-01-2.70911E-01 1.28922E-02-4.43227E-01 2.53057E-01
 -1       442-1.14659E-02 1.76403E-01-2.19219E-01-2.14828E-02 3.30716E-02 1.33753E-02
 -1       443-5.52655E-01-1.10259E+00-4.96575E-01 1.93796E-01-7.77256E-01 3.25203E-01
 -1       444 0.00000E+00 0.00000E+00 0.00000E+00 0.00000E+00 0.00000E+00 0.00000E+00
 -1       445-2.11101E-01-5.80901E-01 3.61259E-02-1.69060E-01-1.24922E-01 8.59695E-02
 -1       446 1.19165E+00 1.93494E-01-7.73924E-01 3.13011E-01 5.50575E-01-8.00309E-02
 -1       447-1.42548E-02 1.63488E-02 4.93785E-01-9.19515E-02 3.59812E-01 4.45040E-01
 -1       448 3.27116E-01 4.23921E-01 2.02447E-01 2.15740E-01 5.76376E-01 5.10177E-01
 -1       449-2.31679E-01-1.26560E-01-6.60565E-01-6.45158E-02-4.75290E-02-5.43583E-01
 -1       450-1.88538E-01-2.17309E-01-7.51010E-01-1.75124E-02-1.38374E-01-5.12833E-01
 -1       451-9.50968E-01-2.74481E-01 4.81170E-03-4.50469E-02 2.55229E-02-5.34459E-01
 -1       452-8.75643E-01-1.03212E-01-4.41342E-02-1.07772E-01-2.49454E-02-5.75326E-01
 -1       453-8.48332E-01-2.47106E-01-2.42271E-02-2.07588E-03-4.06378E-03-1.31498E-01
 -1       454-9.07150E-01-2.85299E-02-1.51909E-01-4.29935E-02-1.16874E-01-1.02441E-01
 -1       455-1.53691E+00-2.77516E-01 7.37694E-02-8.58435E-05-2.21371E-02 7.04042E-01
 -1       456-1.48467E+00-1.26199E-03 5.96841E-02 4.82453E-02-4.59080E-02 7.11863E-01
 -1       457-1.01047E+00-3.20515E-01-6.32238E-01-2.59486E-02 5.74455E-02 1.19471E+00
 -1       458-1.23913E+00-7.51714E-01-1.37943E+00-3.80487E-02 7.49522E-03 1.41812E+00
 -1       459 7.42256E-02-3.35408E-01 4.92060E-02-4.39648E-02-1.19520E-02-2.42018E-01
 -1       460-1.20092E+00-2.73750E-01 1.22787E-01 2.31673E-02-1.23580E-02-2.93314E-01
 -1       461-1.76534E+00-2.83960E-01 2.27871E-01-6.77454E-02-3.99784E-04 1.63662E-01
 -1       462-2.12361E-01-2.40687E-02 2.00203E-01 5.90519E-02-2.10087E-02 3.25271E-01
 -1       463-4.79483E-02-2.02390E-01 4.06349E-02-1.03668E-01 4.91947E-02 3.04524E-01
 -1       464-1.09828E+00-2.70132E-01 3.30521E-01 1.91488E-01 7.31077E-02 1.30913E-01
 -1       465-7.30990E-01-3.22552E-01 9.20153E-02-5.22983E-02 1.25526E-01-3.34461E-01
 -1       466 2.27714E-01-3.37045E-01-1.22377E-01 6.82876E-02-3.19464E-04-1.77268E-01
 -1       467-5.43717E-01-3.98509E-01-4.01884E-02 1.80207E-01-1.03131E-01-1.49106E-01
 -1       468-9.01675E-01-2.85105E-01 9.63628E-02-3.74859E-01 2.64007E-02-2.24255E-01
 -1       469-4.44241E-01-2.59812E-01 7.44000E-02-8.91507E-02-1.14840E-01 1.12189E-01
 -1       470-5.78744E-01-1.47440E-01 4.17772E-01 2.47661E-01 4.12139E-02 1.05535E-01
 -1       471 3.61884E-01-3.54688E-02 1.27290E-01-4.98142E-02-7.20085E-03-1.36842E-01
 -1       472 6.41099E-01 5.04193E-02 1.96226E-01 9.54669E-02-1.78711E-02-2.66857E-02
 -1       473-3.90839E-01-3.08662E-01-1.35428E+00 1.03891E-02-3.57222E-02-7.33906E-01
 -1       474-1.75091E-01-8.52928E-02-2.87432E-01 2.95958E-02-4.37019E-02-4.64278E-01
 -1       475-1.30139E+00-2.92415E-01 8.43141E-02-3.43848E-01 1.65226E-01 7.74316E-01
 -1       476-1.68283E+00-2.93016E-01 1.68614E-01-4.57924E-01 2.10372E-01 5.35529E-01
 -1       477-7.82591E-01-2.99743E-01 3.68854E-03-1.81794E-01-7.28299E-02-4.64162E-02
 -1       478-1.04476E+00-3.64160E-01-6.61219E-02-1.82528E-01-9.07826E-03-2.04803E-01
 -1       479-9.60717E-01-3.02505E-01 1.21737E-02-1.25548E-01-1.49541E-01-4.28284E-01
 -1       480-9.32208E-01-1.60348E-01-7.33914E-02-1.83803E-01-1.10654E-01-5.21563E-01
 -1       481-7.30992E-01-3.32836E-01-5.08316E-01-2.09939E-01 3.80922E-01 9.98539E-01
 -1       482-1.20508E+00-8.32864E-01-1.60657E+00-1.32449E-01 4.21316E-01 1.32214E+00
 -1       483 1.15405E-01-3.19654E-01 1.52883E-01 6.60481E-02-1.14248E-01-1.29387E-01
 -1       484-8.51637E-01-2.80630E-01 1.36865E-01-1.25395E-01-9.85154E-02-1.67325E-01
 -1       485-1.11183E+00-3.48610E-01 2.39368E-01-3.70029E-01 1.20547E-02 1.95902E-01
 -1       486 4.09858E-03 9.17881E-02 1.27117E-01-2.27646E-02 2.58663E-02-1.92271E-03
 -1       487 2.39036E-01-3.56227E-02 1.45735E-01-9.31557E-02 3.01482E-02 1.88367E-01
 -1       488-1.48410E+00-3.04781E-01 2.21864E-01-3.04057E-01 4.36364E-02 8.23630E-02
 -1       489-9.77498E-01-3.25634E-01 1.12635E-01-2.41832E-01-1.01428E-02-2.58355E-01
 -1       490-4.87434E-02-1.40389E-01 3.96344E-02 1.74628E-01 6.27458E-02-2.77904E-01
 -1       491-6.63009E-01-1.99681E-01 1.71183E-01 8.98894E-02-8.78170E-02-8.24125E-02
 -1       492-4.74898E-01-5.46953E-01-1.48096E-01-1.55731E-01 5.72355E-02-2.70602E-01
 -1       493-4.46727E-01-5.51064E-01 2.18177E-01-2.82621E-01-6.70651E-02 6.81536E-02
 -1       494-3.67792E-01-6.48410E-02 3.22769E-01 8.33639E-02 2.79520E-02 1.54014E-03
 -1       495 4.35164E-01-7.22221E-02 1.41397E-01-7.53513E-02-2.91786E-02-2.75978E-02
 -1       496 1.05391E-01 7.18050E-03 2.96290E-01 9.27007E-02-3.52650E-02-3.29615E-02
 -1       497-2.96177E-01-3.13230E-01-1.29597E+00-3.60228E-02-1.37507E-01-5.68685E-01
 -1       498-1.52295E-01-8.04608E-03 2.06532E-01 2.43206E-02-8.56161E-02-3.81734E-01
 -1       499-7.28426E-01-4.52361E-01 6.72861E-02-4.19119E-01 2.81498E-01 3.92690E-01
 -1       500-5.83037E-01-3.66690E-01 2.68007E-01-4.53732E-01 1.47771E-01 2.12502E-01
 -1       501-5.33068E-01-3.41783E-01 5.00834E-03-2.23947E-01-8.66506E-02-8.45008E-02
 -1       502-5.83965E-01-3.16436E-01 9.14159E-03-3.37943E-01-2.01903E-01-2.99532E-01
 -1       503-5.00800E-01-2.12562E-01-2.44303E-02-2.66111E-01-2.21980E-01-2.91911E-01
 -1       504-4.40116E-01-2.12444E-01-8.33844E-02-3.56560E-01-4.38500E-01-4.47721E-01
 -1       505-6.40911E-01-4.65837E-01-6.97933E-01-3.07041E-01 5.33033E-01 7.41435E-01
 -1       506-6.18685E-01-4.89482E-01-1.06655E+00-3.89509E-01 5.70237E-01 7.96005E-01
 -1       507-6.27835E-01-3.01692E-01 6.91095E-02-2.80029E-01-1.31763E-01-1.35254E-01
 -1       508 4.18866E-02-2.35018E-01 3.70554E-03 1.91400E-01 4.52819E-02-1.61719E-01
 -1       509-7.76909E-01-5.84518E-01 6.28473E-02-4.60789E-01 1.27385E-01 1.73665E-01
 -1       510-1.53910E-01-8.03923E-02 1.37211E-01-1.28531E-02 1.35111E-01-8.95392E-03
 -1       511 1.41826E-01-1.09248E-01 2.32902E-02-2.22016E-03-1.86278E-02 1.28441E-01
 -1       512-8.07246E-01-3.76859E-01 3.16698E-01-4.15806E-01 4.72461E-02-4.49935E-02
 -1       513-3.78438E-01-2.72916E-01 6.42136E-02-1.68740E-01-2.72557E-01-3.28005E-01
 -1       514 1.60489E-01-7.87579E-02-1.17476E-01 1.35710E-01-1.14741E-01-2.35331E-01
 -1       515-5.99336E-01-9.47988E-02 1.42758E-01-9.27336E-02 5.74630E-02 6.59246E-02
 -1       516-2.33333E-01-2.29327E-01-1.95543E-01-1.35710E-01-3.06764E-01-3.70651E-01
 -1       517-2.04615E-01-6.92263E-01-4.11062E-02-2.86421E-01 1.68794E-01 1.96601E-01
 -1       518-6.92613E-01 1.95675E-02 4.16026E-01-1.17502E-01-9.77613E-02-1.19856E-01
 -1       519 2.17061E-01 1.59786E-02 7.27937E-02 1.72997E-01-8.78163E-03-8.31027E-02
 -1       520-6.99877E-03 3.37588E-02 1.56483E-01 4.50867E-02-4.39340E-02-7.18219E-02
 -1       521-2.36033E-01-2.47325E-01-1.09842E+00-7.18605E-02-3.00069E-01-4.67432E-01
 -1       522-2.94215E-02 1.28351E-01 5.72711E-01-5.00524E-02 3.15193E-02-3.39250E-01
 -1       523-1.69755E-01-2.34404E-01-5.04353E-03-2.08005E-01-1.41748E-01-2.05800E-02
 -1       524-1.98283E-01-4.47510E-01 2.22872E-02-3.42731E-01 2.78156E-01 1.52190E-01
 -1       525-1.66464E-01-4.42451E-01 4.45704E-02-3.63697E-01 1.33206E-01 1.74037E-01
 -1       526-1.36188E-01-1.47012E-01 1.71604E-03-2.74401E-01-3.97384E-02-1.87584E-01
 -1       527-2.04259E-01-3.19433E-01-1.13884E-01-3.54952E-01-3.37531E-01-1.39264E-01
 -1       528-2.23130E-01-2.81557E-01-7.71226E-02-2.34346E-01 9.08200E-02 2.16218E-02
 -1       529-3.13459E-01-3.22603E-01-3.53854E-01-2.11092E-01 3.79887E-01 3.64429E-01
 -1       530-3.47367E-01-2.45550E-01-3.35327E-01-1.75960E-01 2.31329E-01 4.79775E-01
 -1       531-3.12611E-01-2.22558E-01 8.15654E-02-2.44407E-01-4.13435E-02-4.12981E-02
 -1       532-6.73723E-02-4.19383E-02 1.53174E-01 1.74990E-01 1.31030E-01-2.70543E-01
 -1       533-2.42874E-01-4.21562E-01 9.25094E-02-3.25063E-01 1.30181E-01 5.35196E-02
 -1       534-7.81969E-02-7.57713E-02-3.51331E-02-4.50894E-02 1.45417E-01-3.52520E-02
 -1       535 9.35741E-02-3.32541E-03 9.56682E-02 7.33142E-02 1.22869E-01-3.82991E-04
 -1       536-2.65299E-01-2.73143E-01 2.17202E-01-2.96125E-01-1.22343E-01 8.00018E-04
 -1       537-2.65208E-01-1.68746E-01-1.40157E-02-1.81179E-01-4.22372E-01-1.97266E-01
 -1       538 9.43503E-03-6.78473E-02 1.18241E-01 1.20767E-01-6.61683E-02-1.37769E-01
 -1       539-3.43291E-01 4.36642E-02 2.44418E-01-1.41678E-01 2.86101E-01 1.62240E-01
 -1       540-1.19698E-01-1.48977E-01-2.11027E-01-1.07736E-01-4.30447E-01-1.74956E-01
 -1       541-3.49291E-01-3.52002E-01-2.20114E-01-5.88650E-02 2.14503E-01 2.51712E-01
 -1       542-1.83562E-01 1.55242E-01 5.65347E-01-1.51144E-01-3.71719E-01-1.13063E-01
 -1       543 1.96597E-03 6.54861E-02 1.80698E-01 1.45634E-01-2.67841E-03-9.63298E-02
 -1       544 4.97950E-02 1.21198E-01 1.91176E-02 1.00788E-01-1.89506E-02-8.05477E-02
 -1       545-1.44942E-01-1.56659E-01-9.67951E-01-8.54618E-02-1.83428E-01-3.76248E-01
 -1       546 1.12290E-02 8.09105E-02 9.14844E-01-1.46048E-01 1.79648E-01-3.22718E-01
 -1       547-1.35719E-02 6.89790E-03 1.56049E-03-8.80398E-02-1.80796E-02 7.20638E-03
 -1       548-3.28456E-02-2.04574E-02-1.06938E-02-1.74981E-01 1.31470E-02 9.21884E-02
 -1       549-8.30731E-03 6.27280E-02 1.82045E-01-1.28088E-01-2.58872E-01 7.88505E-02
 -1       550 5.90055E-02 3.11230E-02 1.64980E-02-2.76827E-01-1.29075E-02-9.45379E-02
 -1       551 6.99199E-02-1.10267E-01-1.85532E-01-1.78437E-01-4.76081E-01-6.16155E-02
 -1       552-1.39090E-02 1.02256E-02 2.01356E-02-7.43017E-02 2.55943E-01 6.52387E-03
 -1       553-5.23540E-02-9.40323E-04-3.37844E-02-1.78326E-01 5.08591E-03 2.57146E-01
 -1       554-1.72218E-02 7.89477E-02 2.30502E-01-1.35802E-01-1.15324E-01 1.99656E-01
 -1       555 2.50481E-02 7.01126E-02 6.51518E-02-1.87002E-01 7.11151E-02-6.67467E-04
 -1       556-6.83902E-02 4.23783E-02 5.43088E-02 6.12815E-02 5.77460E-02-1.73089E-01
 -1       557-2.14941E-02-8.83978E-02-4.49091E-02-1.78002E-01 5.88327E-02 1.84168E-02
 -1       558-2.46859E-01-1.58737E-01-8.29827E-02-2.86946E-03-2.57351E-02-1.13513E-01
 -1       559 7.33714E-02 3.98126E-02 5.25883E-02 1.38348E-01-8.18248E-02-1.19005E-01
 -1       560 4.59812E-03-1.39784E-01 3.32008E-02-1.72239E-01-1.95206E-01-2.50881E-02
 -1       561 1.50652E-02 7.30144E-02-1.03085E-01-1.63012E-01-2.84477E-01 3.77914E-02
 -1       562 7.70943E-02-9.42692E-02-3.69183E-02 1.19785E-01-1.80838E-01-1.86551E-01
 -1       563-7.46042E-02 9.69242E-02 2.89796E-01-1.58852E-01 3.69705E-01-5.85656E-03
 -1       564-2.73177E-02-1.12686E-01-3.62166E-01-1.25537E-01-3.59101E-01-6.35188E-02
 -1       565 3.43920E-02-1.00653E-01-2.49232E-01-1.71734E-01 2.97716E-01 4.35491E-02
 -1       566 7.64375E-02 2.31092E-03 2.75670E-01-1.39716E-01-2.63701E-01 9.18234E-02
 -1       567-1.45470E-01-1.01764E-01-2.30784E-01 6.26248E-02 4.37135E-02-1.23699E-01
 -1       568 2.48256E-03-1.13668E-01 1.20721E-01 6.50908E-02-3.88930E-03-1.46196E-01
 -1       569 5.63607E-02-1.09719E-01-5.64079E-01-3.31311E-02-8.74941E-02-2.37700E-01
 -1       570 2.66091E-01 2.44999E-01 1.00460E+00-5.57285E-02 2.32971E-01-4.68188E-01
 -1       571 1.83960E-01 2.55772E-01 3.09236E-02-1.72999E-01 1.14369E-01-1.14983E-02
 -1       572 2.49613E-01 1.97273E-01-1.41699E-02-2.34631E-01 1.91589E-01-1.43333E-01
 -1       573 1.52316E-01 1.47065E-01-8.77441E-02-2.86882E-01-2.33550E-02-1.77988E-01
 -1       574 1.82005E-01 3.66742E-01-6.80167E-02-2.65970E-01-1.55372E-01 1.62079E-01
 -1       575 1.59757E-01 5.07838E-01 2.05739E-02-4.11658E-01-3.08145E-01 8.45525E-02
 -1       576 1.99341E-01 2.54436E-01 1.25932E-01-2.19256E-01-1.03153E-01 3.06758E-02
 -1       577 1.14156E-01 2.00921E-01-6.88069E-02-1.70192E-01-1.71701E-01 3.84124E-01
 -1       578 3.07180E-01 3.69334E-01 3.55282E-01-2.26083E-01-3.69650E-01 4.04586E-01
 -1       579 2.70194E-01 2.22691E-01-2.62981E-02-2.31197E-01 3.05637E-01-6.90543E-02
 -1       580 2.06927E-01 1.46869E-01 1.90656E-01 1.63833E-01 1.07070E-01-1.38730E-01
 -1       581 2.99624E-01 4.92459E-01-1.07077E-01-3.92199E-01 3.20978E-02 1.48258E-02
 -1       582-1.47242E-01-5.76061E-02-5.26114E-02 1.51600E-01-1.04566E-03-9.58818E-02
 -1       583-1.14777E-01-6.47012E-02-8.73867E-02 3.84556E-02-1.18463E-01-7.13875E-02
 -1       584 1.32997E-01 2.89680E-01-8.89724E-02-1.47872E-01-9.91474E-02 3.90571E-02
 -1       585 2.82303E-01 1.30642E-01-1.93141E-01-1.67773E-01 5.16837E-02-8.35025E-03
 -1       586-1.47558E-01 5.74889E-02 5.59820E-02 2.22840E-01-5.93679E-02-1.98205E-01
 -1       587 2.85521E-01 2.41392E-01 5.25947E-01-3.25062E-02 3.40354E-01-2.99731E-01
 -1       588 3.74669E-01 2.89911E-02-3.54518E-01-2.39414E-01-2.21772E-01 1.02815E-01
 -1       589-8.38373E-02-1.49384E-01-5.34724E-01-1.20139E-01 3.12584E-01-1.61925E-02
 -1       590 1.77999E-01 2.73663E-01 1.27529E-01-2.62781E-02-1.91646E-01 1.33206E-01
 -1       591-1.00576E-01-1.14868E-01-1.98575E-01 1.23501E-01 6.26714E-02-7.42916E-02
 -1       592-2.64605E-01-1.15647E-01-5.69079E-02 2.00397E-01 3.14117E-03-8.25692E-02
 -1       593 3.51986E-01 2.79947E-01 1.26977E+00-2.08959E-02 2.62047E-01-5.77102E-01
 -1       594 1.53991E-01 4.81887E-02-2.84659E-02 1.20314E-02 1.18423E-01-3.51351E-01
 -1       595 8.35068E-01 5.13809E-01-5.49384E-02-4.64366E-01-3.43388E-01 4.58789E-01
 -1       596 7.05137E-01 4.47119E-01 1.89236E-02-5.52658E-01-4.98299E-01 6.16826E-01
 -1       597 4.91068E-01 3.15761E-01 1.17060E-02-2.22613E-01 5.93774E-02-5.71969E-02
 -1       598 4.26771E-01 3.17099E-01 5.60636E-02-3.08671E-01-4.36370E-02 1.42113E-01
 -1       599 6.56671E-01 3.57645E-01 5.00630E-02-2.56926E-01 2.09101E-01-3.44949E-01
 -1       600 4.57359E-01 2.65477E-01-1.36893E-02-3.28858E-01 8.73320E-02-2.70758E-01
 -1       601 6.85456E-01 4.93156E-01 7.08682E-01-2.29531E-01-5.73855E-01 7.96136E-01
 -1       602 4.76497E-01 4.18859E-01 7.71567E-01-2.93463E-01-5.30488E-01 6.68032E-01
 -1       603 6.05896E-01 3.67884E-01-3.09629E-02-2.86431E-01 1.45981E-01-2.26751E-01
 -1       604 1.14314E-01 1.02052E-01-4.01170E-02 2.06816E-01 2.78181E-02-2.81142E-01
 -1       605 7.77534E-01 4.31363E-01-2.52160E-01-4.49312E-01-3.83820E-02 6.44236E-02
 -1       606-1.89531E-01 1.55492E-01-2.18626E-01-5.86071E-02-1.52917E-01-2.33329E-02
 -1       607-5.30472E-02-6.12038E-02-1.14874E-01 3.26547E-02-2.56462E-01 1.61919E-01
 -1       608 7.88933E-01 5.72072E-01-2.12599E-01-5.16033E-01-1.23337E-01 2.27434E-01
 -1       609 6.63729E-01 2.51918E-01-1.31146E-01-2.58234E-01 1.16808E-02 6.86527E-03
 -1       610-2.77593E-02 1.39046E-01-2.30845E-01 1.55185E-01-8.56456E-04-2.09270E-01
 -1       611 3.36087E-01 4.13687E-01 1.80387E-01-1.10512E-01 2.55648E-01-3.06811E-01
 -1       612 3.14057E-01 1.10349E-01-1.61799E-01 7.48799E-02 6.90557E-02 1.24932E-01
 -1       613 8.01187E-01 1.38917E-02-5.26197E-01-1.86588E-01 1.84496E-01-1.88951E-01
 -1       614 2.27918E-01 5.01492E-01-1.90672E-02-8.96281E-02-1.47276E-02 1.62461E-01
 -1       615-7.80913E-02-5.38451E-02-2.12894E-02 1.82060E-01-4.49544E-02-1.29162E-01
 -1       616-4.96088E-01-7.73573E-02-6.69690E-02 1.60242E-01-3.37214E-02-6.99062E-02
 -1       617 3.27192E-01 2.40477E-01 1.08517E+00 7.23039E-02 4.04585E-03-7.72424E-01
 -1       618 2.04846E-01 6.09393E-02 3.24067E-01 3.37122E-02 5.47696E-02-3.45303E-01
 -1       619 1.33709E+00 3.04072E-01-1.18965E-01-4.01493E-01-1.72793E-01 4.86251E-01
 -1       620 1.35031E+00 2.65967E-01-4.25902E-05-4.15842E-01-1.66394E-01 6.89123E-01
 -1       621 8.44627E-01 3.33565E-01 4.87312E-03-1.31541E-01 5.24463E-02-2.06759E-01
 -1       622 1.07513E+00 3.34082E-01-5.03468E-03-2.37457E-01 1.09543E-01-3.31735E-02
 -1       623 9.34660E-01 2.99031E-01 6.19557E-02-1.02919E-01 1.05195E-01-5.78127E-01
 -1       624 1.05738E+00 2.50082E-01-3.99847E-02-1.78776E-01 1.68276E-01-4.17747E-01
 -1       625 7.95869E-01 3.39150E-01 4.42764E-01-2.04257E-01-3.67192E-01 9.62948E-01
 -1       626 1.31354E+00 8.40105E-01 1.55950E+00-1.43229E-01-3.95280E-01 1.39495E+00
 -1       627 7.96050E-02 2.44508E-01 2.39374E-02 2.41580E-01-6.73721E-02-3.02386E-01
 -1       628 9.25124E-01 3.09561E-01-8.06751E-02-2.32955E-01 3.73412E-02-3.44658E-01
 -1       629 1.10056E+00 2.22866E-01-2.30269E-01-2.13208E-01-5.16038E-02 1.48494E-01
 -1       630-2.17563E-03 1.12169E-01-5.07951E-02 2.08638E-02-3.07078E-02 1.86877E-01
 -1       631 8.25492E-02 4.69624E-02-9.12522E-02-7.24397E-02-1.26441E-01 3.67599E-01
 -1       632 1.55593E+00 4.28666E-01-1.66481E-01-5.03798E-01-2.24925E-02 2.80971E-01
 -1       633 9.67889E-01 2.65655E-01-1.45471E-01-1.39803E-01 1.12860E-01-1.82751E-01
 -1       634-2.55171E-01 2.07889E-01-4.07802E-02 7.12429E-02 5.83512E-02-1.40950E-01
 -1       635 4.77544E-01 5.53653E-01 1.66179E-01-1.42356E-01-7.22847E-02-3.04697E-01
 -1       636 7.63220E-01 2.47831E-01-1.71079E-01 1.33305E-01 1.15869E-01-4.42974E-02
 -1       637 4.40881E-01 1.47954E-01-3.71365E-01-3.78167E-02-4.99976E-02 1.29976E-01
 -1       638 4.23135E-01 5.95482E-01-1.05303E-01-3.10986E-01 6.34051E-02 1.24949E-01
 -1       639-4.18912E-01-4.87942E-02-1.08862E-01 1.99603E-01 2.64838E-02-1.13644E-01
 -1       640-2.27466E-01 1.12585E-01 7.87487E-03 6.81303E-02 2.22841E-02 5.70553E-03
 -1       641 1.82621E-01 1.95396E-01 8.17728E-01 8.12977E-02-3.46093E-02-7.26488E-01
 -1       642 2.48829E-01 1.05082E-01 7.90520E-01 1.73023E-02 1.64490E-02-4.38376E-01
 -1       643 1.55767E+00 2.27733E-01-7.67214E-02-1.18675E-02 2.41447E-04 7.18853E-01
 -1       644 1.53788E+00 6.21032E-03-1.50768E-02-3.61340E-02 8.59750E-03 8.05807E-01
 -1       645 1.01981E+00 2.93732E-01-1.91257E-02 9.89869E-03-1.82965E-03-1.33178E-01
 -1       646 1.18404E+00 1.23089E-01 9.08150E-02-2.68402E-02 1.14042E-01-1.96099E-01
 -1       647 1.00843E+00 2.85033E-01 1.79370E-02 1.55215E-02-3.18421E-02-5.67824E-01
 -1       648 1.05554E+00 4.38908E-02 6.01984E-02 3.32152E-03 4.91602E-03-5.86527E-01
 -1       649 9.98018E-01 2.77391E-01 6.08802E-01-5.25857E-02-6.98617E-02 1.13409E+00
 -1       650 1.34133E+00 7.73710E-01 1.36013E+00-4.22154E-02-1.35049E-02 1.38487E+00
 -1       651-1.42632E-02 4.13605E-01 1.57938E-02 7.68651E-02-3.02284E-02-2.13031E-01
 -1       652 1.11497E+00 2.98118E-01-1.27662E-01-3.18688E-02-3.36804E-02-3.72762E-01
 -1       653 1.55706E+00 2.52831E-01-2.23465E-01 9.04118E-02-4.49818E-03 2.72605E-01
 -1       654 1.05202E-01 7.36609E-02-2.39043E-01-2.86508E-02 1.03003E-01 3.13176E-01
 -1       655-4.45614E-02-2.83847E-02-6.16880E-02 2.77670E-02-1.02267E-01 2.64887E-01
 -1       656 1.33532E+00 2.36736E-01-1.96442E-01-1.03050E-01 9.04397E-02 2.73073E-01
 -1       657 1.00492E+00 3.01486E-01-1.47306E-01 9.49994E-02 7.40853E-02-3.58375E-01
 -1       658 6.33653E-02 4.61953E-01 8.38210E-03-1.11791E-01 4.65727E-02-1.67249E-01
 -1       659 6.80998E-01 4.40545E-01 3.83753E-02-2.30072E-01-9.72410E-02-2.34750E-01
 -1       660 6.41118E-01 4.16619E-01-2.70954E-02 2.11042E-01 9.49597E-02-2.32134E-01
 -1       661 8.87413E-01 4.10680E-01-2.69172E-01 4.53725E-01 9.61886E-03 9.08487E-02
 -1       662 5.68923E-01 3.40530E-01-1.99493E-01-3.42786E-01 3.86382E-02 4.09130E-02
 -1       663-2.16645E-01 3.22980E-01-1.46824E-01 7.14758E-02-3.81396E-02-7.45973E-02
 -1       664-1.89024E-01 1.37582E-01-1.32329E-01-1.15030E-01-2.35771E-02-8.43986E-02
 -1       665 1.51274E-01 4.37679E-02 5.51679E-01-1.01046E-01-1.79519E-01-4.40114E-01
 -1       666 2.99347E-01 2.78394E-01 1.17475E+00 1.15382E-01-4.38090E-02-6.13187E-01
 -1       667 7.72665E-01 2.28211E-01 4.61795E-02 1.42194E-01-1.14475E-01-5.54522E-01
 -1       668 8.58326E-01 2.48680E-01 1.11612E-02 1.63885E-01-1.47484E-01-4.64070E-01
 -1       669 8.40606E-01 3.52068E-01 5.62064E-04 1.40975E-01-2.98842E-02-2.05709E-01
 -1       670 1.06435E+00 3.67523E-01 3.21008E-02 2.58284E-01-6.79159E-02-4.54996E-03
 -1       671 1.34844E+00 2.41021E-01-1.15716E-01 3.57402E-01 1.61612E-01 5.28680E-01
 -1       672 1.39748E+00 2.43573E-01 6.50401E-02 3.74059E-01 1.82896E-01 7.27109E-01
 -1       673 1.09720E+00 7.96962E-01 1.46200E+00 1.26428E-01 4.09765E-01 1.27835E+00
 -1       674 8.04022E-01 3.85260E-01 4.88501E-01 1.87678E-01 3.76983E-01 9.61149E-01
 -1       675-2.74500E-01 1.70401E-01-1.10526E-01-2.94154E-02-3.54394E-02-1.88051E-01
 -1       676 9.83121E-01 2.46671E-01-1.80387E-01 1.20238E-01-9.34210E-02-1.72262E-01
 -1       677 1.51549E+00 4.75757E-01-2.28224E-01 4.63443E-01 1.35880E-02 2.47262E-01
 -1       678 1.98265E-01-1.20883E-02-1.47200E-01 1.34614E-02 1.61486E-01 1.71649E-01
 -1       679-2.39368E-01 3.65347E-02-1.68206E-01-1.98861E-02 2.33894E-02 2.08525E-01
 -1       680 1.09480E+00 2.33269E-01-2.76639E-01 1.60188E-01 3.25721E-02 7.90315E-02
 -1       681 9.06750E-01 3.34618E-01-7.58086E-02 2.12049E-01-6.35462E-02-2.99374E-01
 -1       682 3.54250E-02 1.80528E-01-3.03409E-02-2.63699E-01 1.02005E-01-1.92698E-01
 -1       683 3.09512E-01 3.03969E-01-1.20419E-01-7.27211E-02-2.18415E-01-6.74117E-02
 -1       684 3.43327E-01 4.24254E-01 7.74631E-02 1.44519E-01-7.26241E-03-2.52451E-01
 -1       685 3.71282E-01 3.11852E-01-5.06005E-02 5.64926E-02-1.14821E-01 2.31454E-01
 -1       686 4.25996E-01 3.08831E-02-3.74351E-01-1.01449E-01 1.92441E-02-6.05187E-02
 -1       687-5.48968E-01-1.61204E-02-2.26261E-01-4.30300E-02-4.57132E-02-1.29655E-01
 -1       688-5.01067E-01-3.98311E-02-5.47247E-02-1.35209E-01 5.51795E-02 2.79988E-02
 -1       689 8.31064E-02 3.79960E-02-4.11211E-02 2.89775E-02-8.39794E-02-3.75991E-01
 -1       690 4.01280E-01 1.96627E-01 1.21686E+00 5.52369E-03-2.91229E-01-7.16563E-01
 -1       691 5.91501E-01 3.08975E-01-2.66311E-02 2.68107E-01-2.09951E-01-3.16947E-01
 -1       692 3.52187E-01 2.83759E-01-1.43575E-01 2.57995E-01-5.00065E-02-7.80818E-02
 -1       693 5.04740E-01 4.04970E-01 1.98368E-03 2.10984E-01-8.76779E-02-4.52535E-02
 -1       694 4.50622E-01 3.34809E-01-4.17895E-03 2.76173E-01 2.87561E-02 1.76746E-01
 -1       695 7.06073E-01 5.10074E-01-4.18963E-02 4.52150E-01 3.13020E-01 3.95782E-01
 -1       696 5.65681E-01 4.11687E-01-1.59518E-02 4.88308E-01 4.70393E-01 5.32221E-01
 -1       697 5.89639E-01 4.30280E-01 6.44703E-01 2.89993E-01 5.27794E-01 7.41171E-01
 -1       698 4.55336E-01 3.35388E-01 4.41581E-01 2.88717E-01 4.66513E-01 6.04020E-01
 -1       699 1.48372E-01 2.24242E-01-2.20488E-01-1.21227E-01-3.29988E-02-8.79921E-02
 -1       700 7.48663E-01 3.20699E-01-5.09952E-02 3.39403E-01-1.17510E-01-1.38505E-01
 -1       701 7.06504E-01 5.71015E-01-1.56623E-01 4.56817E-01 1.12153E-01 1.04089E-01
 -1       702 7.69617E-02 1.09480E-01-1.07866E-01 8.04094E-02 2.16824E-01-9.39679E-03
 -1       703 7.83519E-01 3.25184E-01-2.58687E-01 4.04949E-01 1.74712E-02-8.07709E-02
 -1       704-3.40302E-01-4.81821E-02-1.47162E-01-1.28865E-01 5.92171E-02-5.59293E-02
 -1       705 3.91167E-01 2.69115E-01-4.14834E-02 1.68248E-01-2.65625E-01-3.32182E-01
 -1       706-4.01434E-02 5.80245E-02 9.46696E-02-4.45083E-02-4.66434E-02-2.32463E-01
 -1       707 2.40664E-01 9.77621E-02-6.99417E-02-1.82880E-02-6.02237E-02 5.87503E-02
 -1       708 3.52205E-01 4.54011E-01 1.53555E-01 1.20814E-01-1.77323E-01-3.01633E-01
 -1       709 3.32925E-01 2.81464E-01 9.04085E-02-3.69786E-02 8.21992E-02 3.62852E-01
 -1       710 3.08555E-01-7.78615E-03-2.70366E-01 1.05156E-01-3.07305E-02-1.08251E-01
 -1       711-1.00783E-01 1.12245E-01-2.74376E-02-1.71990E-01-1.13804E-02-5.54836E-02
 -1       712-3.76892E-01-1.12961E-01-1.65693E-01-2.01973E-01-2.81907E-02-1.18826E-01
 -1       713 2.72998E-01 2.41761E-01 1.06554E+00 6.57088E-02-2.44605E-01-4.85125E-01
 -1       714 1.08140E-01-1.13533E-01-4.92410E-01 3.75965E-02 7.09840E-02-2.46180E-01
 -1       715 1.99343E-01 2.08076E-01-4.59591E-03 1.52598E-01 3.51504E-02-7.14289E-03
 -1       716 2.16146E-01 2.09821E-01-1.54440E-02 1.84777E-01-2.09047E-01-1.13512E-01
 -1       717 1.50023E-01 1.04530E-01-7.09042E-02 2.54193E-01 3.05113E-02-1.50487E-01
 -1       718 1.70953E-01 3.45669E-01-4.03662E-02 3.27780E-01 1.42520E-01 1.98384E-01
 -1       719 2.33954E-01 5.26169E-01 6.74882E-02 4.60208E-01 3.42689E-01 1.25137E-01
 -1       720 2.51519E-01 2.88423E-01 4.76768E-02 2.39455E-01-1.87346E-01-5.69697E-02
 -1       721 3.44482E-01 3.15387E-01 3.64535E-01 2.17839E-01 3.71601E-01 4.12436E-01
 -1       722 3.89391E-01 2.33397E-01 3.03749E-01 1.63706E-01 2.15771E-01 5.11211E-01
 -1       723-1.43482E-02 4.40908E-02 5.38062E-03-1.81499E-01 4.47140E-02-2.69227E-01
 -1       724 3.08060E-01 2.21741E-01-7.22090E-02 2.87223E-01 7.02941E-03 1.87424E-02
 -1       725 2.78390E-01 3.64453E-01-9.95084E-02 3.26806E-01 1.53550E-01 3.57891E-02
 -1       726-7.21945E-02 4.41389E-02-5.51351E-02-1.57996E-02 1.48830E-01-1.23825E-01
 -1       727 3.10723E-01 3.68366E-01-1.27894E-01 2.88049E-01-1.07852E-01-1.03604E-02
 -1       728-7.04909E-03-5.52773E-02-2.70415E-01-5.64962E-02 8.44098E-02 8.01594E-02
 -1       729 1.55158E-01 1.37894E-01 2.15110E-02 1.24209E-01-2.83573E-01-8.95584E-02
 -1       730 5.65706E-02 1.22155E-01-1.84744E-02-1.93206E-01-1.11712E-01-2.59190E-01
 -1       731 1.93162E-01-1.54507E-01-3.66551E-01 6.69002E-02 2.71087E-01 1.33584E-01
 -1       732 2.17249E-01 2.18200E-01 2.99069E-01 3.94322E-02-3.22527E-01-2.16343E-01
 -1       733 2.21070E-01 2.15949E-01 7.26022E-02 4.46564E-02 2.26260E-01 1.33086E-01
 -1       734 4.49521E-01 9.93850E-02-3.54625E-01 3.12579E-01-2.78189E-01-1.43279E-01
 -1       735-1.09465E-01-1.04479E-01-1.15870E-01-1.47963E-01 2.45818E-02-5.02932E-02
 -1       736-1.48301E-01-9.65643E-02-9.87788E-02-1.42003E-01-1.47652E-02-5.22408E-02
 -1       737 2.07368E-01 2.28599E-01 9.82451E-01 7.80239E-02-2.70084E-01-3.78762E-01
 -1       738-6.08950E-02-1.06766E-01-1.09727E+00 9.72803E-02 1.70639E-01-3.38460E-01
 -1       739-8.01629E-04 2.72396E-02-5.35230E-03 1.02166E-01-2.17855E-02 2.31873E-02
 -1       740-8.11607E-02-2.79382E-02 5.92854E-02 2.08866E-01-7.72934E-03-9.65352E-02
 -1       741-1.41616E-01-2.19357E-02 6.25998E-02 1.84598E-01 2.09275E-01-2.28528E-01
 -1       742 6.62258E-03-1.51828E-02 3.21275E-02 2.00610E-01 2.03221E-03 6.32127E-02
 -1       743-7.06203E-04 7.51119E-02 1.61418E-01 1.23802E-01 3.22757E-01 3.30130E-02
 -1       744-1.23493E-03 5.64835E-02-7.26085E-03 1.03027E-01-3.65119E-01 1.90515E-02
 -1       745 1.13195E-01 1.51075E-01 2.23989E-01 1.51085E-01 6.43416E-02 2.17107E-01
 -1       746-1.94444E-01-1.84304E-01-2.83850E-01 1.98930E-01-2.19704E-01 4.01303E-01
 -1       747 1.25824E-01 1.59500E-02 8.34091E-02-4.78759E-02 2.03042E-02-2.45394E-01
 -1       748-6.76265E-03-4.77714E-02-3.51768E-02 2.37836E-01 5.28344E-02-2.84728E-02
 -1       749-2.80925E-02-2.32681E-02-3.03938E-02 2.03444E-01 4.91180E-02 2.29732E-02
 -1       750 9.40981E-02 7.11591E-02-1.60385E-02-2.41974E-02 4.20704E-02-6.57854E-02
 -1       751 2.40038E-02 1.27586E-01 1.89291E-02 1.16170E-01-2.03430E-01 5.14952E-03
 -1       752-4.90084E-02-3.07870E-02-1.25684E-01-6.76759E-02-8.77865E-02-8.67094E-02
 -1       753 4.43627E-02-1.08955E-01 4.77581E-02 2.38053E-01-3.63955E-01-1.25661E-02
 -1       754-1.79982E-01 9.33750E-02 1.46514E-01-4.01020E-02-2.15299E-01-2.31288E-01
 -1       755-1.02945E-02-6.10189E-02-2.35559E-01 1.23745E-01 3.79726E-01 2.30252E-02
 -1       756 2.10012E-02 9.21944E-02 3.19812E-01 2.16039E-01-4.18177E-01-2.23163E-02
 -1       757 4.31379E-02-1.87806E-02 2.71686E-01 1.97048E-01 2.92405E-01 9.80748E-02
 -1       758-3.71651E-02-2.83948E-02-2.63222E-01 1.10564E-01-2.39491E-01 1.17910E-01
 -1       759 1.32543E-01 8.48009E-02 2.44317E-02-7.12835E-02-1.12204E-02-1.30209E-01
 -1       760 7.69110E-02 4.85166E-02 1.08926E-02-8.90446E-02-1.63998E-01-1.41846E-01
 -1       761-8.67594E-02 1.03053E-01 5.08405E-01 5.16508E-02 7.18587E-03-3.16658E-01
 -1       762-2.91698E-01-2.57465E-01-1.12068E+00 6.21134E-02 2.35335E-01-4.97466E-01
 -1       763-1.67944E-01-2.51797E-01-2.30840E-02 1.66625E-01-1.01481E-02-2.10079E-02
 -1       764-2.40045E-01-5.09430E-01 2.30360E-03 3.22884E-01-2.61479E-01 1.52272E-01
 -1       765-1.40573E-01-4.11759E-01 4.83142E-02 3.26141E-01-1.17255E-01 1.65428E-01
 -1       766-1.37200E-01-1.35266E-01 7.26610E-03 2.75107E-01 3.61743E-02-1.73504E-01
 -1       767-1.78799E-01-2.16637E-01-9.30023E-02 3.50854E-01 3.03601E-01-1.08887E-01
 -1       768-2.15482E-01-3.62925E-01-8.14438E-02 2.79351E-01 1.55082E-01-5.19303E-02
 -1       769-3.90095E-01-2.04239E-01-3.24348E-01 2.02852E-01-1.81376E-01 4.74598E-01
 -1       770-3.37125E-01-3.12044E-01-3.50806E-01 2.37275E-01-3.65341E-01 3.57737E-01
 -1       771 5.45078E-02-4.00806E-02-1.76659E-01-1.67959E-01 5.74969E-02-1.76137E-01
 -1       772-3.16326E-01-2.45032E-01 1.38980E-02 2.47030E-01 3.07657E-01-6.83348E-02
 -1       773-2.66840E-01-3.73539E-01 1.46232E-01 2.83602E-01 8.70564E-02 1.89110E-02
 -1       774 1.39848E-01 1.50827E-02 1.34010E-01-1.04854E-01-1.21833E-01-2.13889E-02
 -1       775-2.08605E-01-3.03523E-01 5.95614E-02 2.08720E-01-1.50873E-01 6.76072E-02
 -1       776-1.91404E-01-2.78994E-02 1.29314E-01-6.51088E-02-3.07682E-01 1.24315E-01
 -1       777-2.99645E-01-1.07254E-01 1.63558E-01 1.27952E-01 3.24725E-02-1.71098E-02
 -1       778 7.61643E-02-6.90641E-03-2.90271E-02-1.73988E-01-1.95213E-02-1.64561E-01
 -1       779-2.37977E-01-2.55240E-01-3.51645E-01 1.07964E-01 3.44921E-01-1.94470E-01
 -1       780-1.50905E-01 5.26165E-02 2.76792E-01 8.56033E-02-1.72933E-01 1.28134E-01
 -1       781-4.49713E-01-7.43493E-02 4.08162E-01 2.96399E-01 2.87674E-01-1.10248E-01
 -1       782-2.78883E-01-3.28785E-01-2.88422E-01 4.21068E-02-2.96324E-01 2.53341E-01
 -1       783 1.65943E-01 3.79997E-02 1.12090E-01-1.82324E-01-9.66561E-03-6.15129E-02
 -1       784 1.37550E-01 1.31644E-01 1.78821E-01-2.44343E-01 9.91898E-05-9.61728E-02
 -1       785-1.06966E-01-4.07563E-02 1.78785E-02-1.02273E-02 7.52970E-02-3.54857E-01
 -1       786-2.76990E-01-2.59943E-01-1.31835E+00 3.01274E-02 1.85487E-01-5.33100E-01
 -1       787-6.31382E-01-2.85495E-01-5.01191E-02 2.59289E-01 2.16996E-01-3.44279E-01
 -1       788-5.33880E-01-2.45406E-01-1.67945E-01 3.78980E-01 3.89340E-01-4.69934E-01
 -1       789-5.18215E-01-3.16882E-01-1.24066E-02 2.50319E-01 7.27101E-02-6.86465E-02
 -1       790-5.08384E-01-2.86353E-01-9.82551E-02 3.67823E-01 1.56278E-01-2.65819E-01
 -1       791-6.64241E-01-4.55337E-01 2.15600E-02 3.91616E-01-3.37539E-01 4.29640E-01
 -1       792-4.62219E-01-4.27665E-01 1.33326E-01 4.51874E-01-2.11608E-01 2.14852E-01
 -1       793-5.92359E-01-4.09334E-01-5.81115E-01 2.30536E-01-4.05723E-01 6.58593E-01
 -1       794-4.38596E-01-2.56253E-01-2.09108E-01 2.24829E-01-3.54071E-01 5.49169E-01
 -1       795-2.19131E-01-1.66147E-01-1.52060E-02-1.30745E-01 1.09836E-01-1.93676E-01
 -1       796-6.23415E-01-3.56267E-01 1.44986E-01 3.22309E-01 1.53482E-01-1.77447E-01
 -1       797-8.24604E-01-4.77707E-01 1.48198E-01 4.64568E-01-1.05419E-01 1.09977E-01
 -1       798 1.75341E-02-3.62166E-02 1.60366E-01-2.35019E-02-1.40469E-01 1.12608E-01
 -1       799 4.36588E-01 8.71581E-02-2.15822E-02-2.03419E-01-2.11110E-01 1.27899E-01
 -1       800-5.47275E-01-5.83203E-01 1.17278E-01 3.82816E-01-1.97756E-01 2.82904E-01
 -1       801-4.65919E-01-2.42570E-01 1.55695E-01 1.24258E-01 3.19543E-02 9.21914E-02
 -1       802 2.88589E-01-8.09071E-02 2.54623E-01-2.38206E-01-2.01452E-02-8.84839E-02
 -1       803-4.39086E-01-4.24523E-01-3.34113E-01 8.43051E-02 1.84448E-01-4.12014E-01
 -1       804-6.99613E-01 5.07434E-04 3.34065E-01 1.10875E-01-8.42831E-02 1.00121E-01
 -1       805-5.13423E-01 8.13147E-02 4.11823E-01 7.37153E-02 1.86681E-01-2.04715E-01
 -1       806-3.04640E-01-4.08931E-01-1.97573E-01 7.26049E-02-1.53489E-01 3.82029E-01
 -1       807 1.67855E-01 1.44249E-01 1.73227E-01-1.07128E-01 2.68495E-02-5.32406E-02
 -1       808 1.88032E-01-4.38287E-02 4.81260E-02-2.96301E-01-4.23559E-02-1.21577E-01
 -1       809-1.73509E-01-7.23829E-02-2.89769E-01 1.16229E-03 6.63947E-02-3.94013E-01
 -1       810-2.95848E-01-1.92901E-01-1.08570E+00-2.13461E-02 4.08363E-02-6.75700E-01
 -1       811-9.23538E-01-2.95959E-01 1.79346E-02 1.37718E-01 1.62132E-01-4.63205E-01
 -1       812-9.36393E-01-1.75726E-01-1.06429E-01 1.84067E-01 1.10791E-01-5.39473E-01
 -1       813-7.44787E-01-2.70583E-01 3.91994E-02 1.79910E-01 4.71075E-02-1.34688E-02
 -1       814-1.03312E+00-3.24332E-01-5.70208E-02 1.81852E-01 5.08960E-03-1.83378E-01
 -1       815-1.24099E+00-3.02274E-01 9.30290E-02 3.49003E-01-1.68988E-01 6.68393E-01
 -1       816-1.59510E+00-2.88080E-01 1.03723E-01 4.34238E-01-1.88620E-01 5.15725E-01
 -1       817-1.20583E+00-3.36303E-01-1.43107E+00 2.48248E-01-3.38912E-01 1.31637E+00
 -1       818-1.13303E+00-4.23193E-01-8.68565E-01 1.94150E-01-3.52302E-01 1.14371E+00
 -1       819 1.37712E-02-1.24007E-01 5.76045E-02-6.80573E-02-6.38285E-03-2.75111E-01
 -1       820-9.92493E-01-3.04670E-01 1.30759E-01 2.30963E-01 7.39546E-02-2.48425E-01
 -1       821-1.44219E+00-2.88641E-01 2.01233E-01 2.61706E-01-5.14985E-02 8.13663E-02
 -1       822 1.22019E-01-3.26803E-02 2.30467E-01 8.06879E-02-9.90482E-02 2.06355E-01
 -1       823-1.58240E-01-1.46834E-01-1.11520E-01-5.78363E-02-1.65869E-01 2.50915E-01
 -1       824-1.13285E+00-3.76865E-01 2.03729E-01 3.70786E-01-2.08467E-02 2.46838E-01
 -1       825-7.12421E-01-2.08575E-01 1.73662E-01 8.55170E-02 1.52444E-01-1.32596E-01
 -1       826 8.75209E-02-3.23090E-01 1.90353E-01-7.82152E-02 6.69425E-02-1.10589E-01
 -1       827-4.12999E-01-3.35765E-01-3.15393E-01-1.12020E-01-1.16176E-01-4.06238E-01
 -1       828-7.54247E-01-1.95232E-01 1.60253E-01-1.33375E-01 8.96854E-02-4.39786E-02
 -1       829-3.95675E-01-7.17653E-02 2.40023E-01-4.11138E-02-1.77501E-02-3.80711E-02
 -1       830-3.22141E-01-5.71514E-01 3.10024E-01 3.41540E-01-4.72153E-03 2.45400E-02
 -1       831 2.59813E-01 6.77586E-02 1.43757E-01-1.44359E-01-4.20793E-03-1.08921E-01
 -1       832 6.54822E-01 8.97545E-02 1.88604E-01-9.93053E-03 2.68596E-02-8.59160E-02
 -1       833 1.25258E+00 1.41299E+00 7.99671E-01 5.83546E-01 1.61815E+00 1.19929E+00
 -1       834-3.03166E-02-6.90562E-02 1.79232E-01-3.38231E-02 7.74464E-01 6.81619E-01
 -1       835 1.53163E+00 2.29207E-01 5.23099E-01 1.24429E+00-2.76252E-01 2.43251E+00
 -1       836 1.82966E-01-2.56490E-02-1.78336E-01 7.26980E-01-2.63457E-01 1.81015E+00
 -1       837-6.54206E-02-1.44000E-01 1.07553E-02-8.62184E-02 2.66892E-01-5.39808E-02
 -1       838-1.81266E-02 1.52552E-01-8.10739E-02 8.51154E-03 2.07286E-01-9.39152E-02
 -1       839-3.07930E-01-1.95577E-01-6.85281E-01 8.31439E-02 2.10730E-01 1.02944E+00
 -1       840-2.92728E+00-1.22955E+00-1.24705E+00-2.62641E-01 3.83158E-01 1.96951E+00
 -1       841-1.05771E-01-2.09409E-01-9.06094E-02 2.49751E-01-4.90843E-01 1.81286E-01
 -1       842 5.30123E-02 1.89767E-01 7.84714E-02 3.35588E-01-4.40259E-01 1.80090E-01
 -1       843 6.55157E-01 5.29775E-01-1.82641E-01-5.07609E-01-6.75658E-01 1.54711E+00
 -1       844-1.02713E+00-1.01649E-01 3.89435E-01 1.39455E-01-8.11487E-01 1.16150E+00
 -1       845-3.61573E-01 4.86899E-01-4.00386E-01-1.49653E-01-4.80398E-01 7.19268E-01
 -1       846-7.63584E-01 5.42788E-01-3.07915E-01-2.49437E-02-3.75754E-01 8.21732E-01
 -1       847-1.05504E-01 4.16762E-01 7.47710E-01 6.60060E-02 2.74217E-01 1.37265E-02
 -1       848-2.32116E+00-6.91675E-01-8.87241E-01-5.72794E-02-1.38587E-01 9.95190E-02
 -1       849 6.27545E-01-1.19093E-01-4.29284E-01 1.84847E-01 4.29682E-01 1.14431E-01
 -1       850-1.07407E+00-1.11156E+00-6.55689E-01-4.95442E-01 9.52977E-01 5.46632E-01
 -1       851 3.12686E-01 3.79734E-01-5.30870E-01 2.97441E-01-2.49400E-02 4.99539E-01
 -1       852-6.67826E-01-3.44060E-01-3.03566E-01-1.63048E-01 1.13504E-01 7.61936E-01
 -1       853-1.57761E-01-2.10529E-01-2.39088E-01-3.07008E-02 3.27328E-01-7.72008E-02
 -1       854-5.64450E-01-1.18951E+00-1.38195E-01-2.92482E-01 4.15671E-01-1.15264E-01
 -1       855 9.69501E-02 1.46389E-01-2.11907E-02-1.88457E-02 8.10221E-04 6.69782E-02
 -1       856 4.40904E-02-9.57492E-02-1.54976E-02-4.18722E-03 9.68417E-02 8.86535E-02
 -1       857-6.52038E-02-9.40383E-02-5.58461E-02 2.63270E-02 5.37185E-02-9.00173E-02
 -1       858-2.32854E-01-6.11870E-01-6.28084E-02-6.59723E-02 6.01515E-02-6.85074E-02
 -1       859 8.41089E-01 3.17322E-01 4.49158E-01 1.83734E-01-1.91205E-01 1.50523E+00
 -1       860-1.01216E+00-1.85010E-01 3.92898E-01 2.33589E-01 6.11425E-02 1.39937E+00
 -1       861 2.19416E+00 2.13039E+00 1.29737E+00-8.75623E-01-1.36062E+00 1.63243E+00
 -1       862-2.62815E-01-7.88800E-02 9.01104E-01 2.96367E-01-6.69589E-01 8.93128E-01
 -1       863-1.39929E-01-1.16717E-01 3.07228E-01 1.61512E-01 1.19118E-01-5.12864E-03
 -1       864 1.21775E-01 5.65094E-01-8.90378E-02-9.31252E-02 1.76620E-01-1.43140E-01
 -1       865-5.42571E-02-9.43303E-02 3.07255E-02-3.96373E-02-1.49133E-01-7.77249E-03
 -1       866-7.05078E-02-5.99213E-04-3.61012E-02 1.80801E-03-2.32730E-01-6.60026E-02
 -1       867 8.46273E-01 1.03475E-01 1.13729E-01-5.28672E-01-6.24233E-01 2.44376E-01
 -1       868 1.67860E+00 1.32793E+00 3.84134E-01-9.69139E-01-5.22509E-01 2.60379E-01
 -1       869-1.07328E-02-1.14085E-01-2.97811E-01 3.53581E-03 3.23528E-03 1.11668E+00
 -1       870-2.81397E+00-1.26196E+00-1.22278E+00-2.77264E-01 2.46690E-01 2.50430E+00
 -1       871 1.68499E-01 9.47531E-02-4.99679E-03-1.63446E-01-8.12616E-01 4.24894E-01
 -1       872-1.30949E-01-6.98528E-01-5.85491E-02 3.83671E-02-7.57544E-01 4.79897E-01
 -1       873-3.70397E-01-4.41588E-01-2.43814E-01 1.39573E-01-1.67676E-01-7.26971E-02
 -1       874-1.64976E+00-9.50810E-01 4.25005E-01 7.04645E-01 3.08700E-02-4.51831E-02
 -1       875 9.50325E-01 1.05201E+00 4.18299E-01-8.05297E-01-6.48672E-01 1.61518E+00
 -1       876-2.47505E-01 7.95667E-01 4.73671E-01-6.31752E-01-7.14314E-01 8.75936E-01
 -1       877 2.52542E-01 7.60669E-01 3.93867E-01-9.28440E-02-1.07845E+00 8.96027E-01
 -1       878-7.13334E-01-5.00408E-01-2.41657E-01 3.31523E-01-8.66907E-01 7.47861E-01
 -1       879-7.75666E-02-2.42655E-01-5.69928E-02 2.45421E-02 9.24814E-02-3.04110E-02
 -1       880-4.23362E-02-9.26833E-02-2.01394E-01-3.06431E-02-6.38463E-05-2.43430E-02
 -1       881-5.77319E-01-1.48160E+00-4.28517E-01-3.04302E-01 1.03930E+00 9.33331E-02
 -1       882 9.90284E-02-7.43675E-01 6.58079E-02-4.01364E-02 1.25269E+00-9.88953E-02
 -1       883-5.28372E-01-2.59628E-01-3.36683E-01-9.01804E-03-4.68463E-01 6.37353E-01
 -1       884-1.95565E+00-2.75317E-01 8.34308E-01-1.73825E-01-3.55602E-01 4.71804E-01
 -1       885-2.09505E-01-5.06528E-01-2.14810E-01 5.48869E-03-4.83137E-01-5.66937E-02
 -1       886-7.59825E-02-2.44100E-01-9.60247E-02-2.44165E-02-1.98469E-01 2.87993E-02
 -1       887 2.98932E-01 6.24220E-01 2.76946E-01 1.07999E-01 4.42213E-01 5.67028E-02
 -1       888 5.65957E-01 1.54109E-01 2.88728E-02 2.00903E-01 7.85353E-01 1.02776E+00
 -1       889 1.01701E+00 1.88488E-01-4.18874E-02 9.87101E-02 4.01169E-01 1.38525E+00
 -1       890-3.86732E-02 3.97704E-01-4.58043E-02-6.05344E-01-6.68083E-01 1.75888E+00
 -1       891-1.25497E+00 2.07992E-01-2.06240E-01-6.68518E-01-8.00125E-01 1.48545E+00
 -1       892-5.32774E-01-8.41421E-01-9.39888E-02-3.95309E-01 4.80727E-01 1.00113E+00
 -1       893-7.91542E-01-5.04893E-01 1.54514E-01-4.45451E-01 2.17636E-01 1.51281E+00
 -1       894-4.77863E-02 9.43834E-02-3.07935E-01-1.58163E-01-2.81252E-01-2.10964E-01
 -1       895 4.37288E-02 7.53889E-02-6.26136E-02-5.75489E-03-4.97585E-02 4.33137E-02
 -1       896-9.67431E-02-2.24234E-01 4.99841E-01-2.04805E-01 2.25604E-01-1.75596E-01
 -1       897-2.00418E+00-4.66239E-01 3.26359E-02-1.64965E-02 3.60742E-02-4.30204E-01
 -1       898-4.99132E-01 1.18385E-02-1.32605E-01-3.27553E-02-3.87894E-02-3.42153E-01
 -1       899-2.29625E+00-2.99198E-01-4.80583E-02-8.56343E-02-3.96788E-02-4.53229E-01
 -1       900-1.40183E+00-3.36763E-01 2.11375E-01-1.41161E-01 1.14837E-02-1.98418E-01
 -1       901-3.08418E+00-5.66182E-01 7.33261E-02 7.38259E-03 5.20448E-03 3.54602E-01
 -1       902-1.29149E+00-2.15671E-01-6.78717E-02-1.77382E-02 1.26334E-02 9.84370E-01
 -1       903-5.45299E-01-1.63240E-01 6.95554E-02 1.29819E-01-3.43791E-03 2.09618E-01
 -1       904-7.63870E-01-3.01118E-01-2.24660E-01 1.00456E-01-9.35661E-03 6.08825E-01
 -1       905-1.17671E-01-7.95484E-02 2.27553E-01-4.25886E-02 7.90430E-03 2.52405E-01
 -1       906-1.19993E-01-5.49178E-01-1.27001E-01-4.56846E-02 5.81273E-02-4.93783E-02
 -1       907-2.24263E-01-1.56506E-01 5.21801E-02-5.28465E-03-8.31664E-03-8.14447E-02
 -1       908 6.25295E-02-1.54946E-01 1.17358E-01 7.74686E-02 3.28366E-02-1.59712E-02
 -1       909 2.13635E-01-2.65118E-01-4.96702E-02 3.71218E-02 4.07467E-02-1.27726E-01
 -1       910-8.92802E-01-1.66352E-01 6.06371E-02-1.75245E-01-1.29607E-01-2.93952E-01
 -1       911-1.91793E+00-5.25575E-01 5.03403E-02-3.67897E-01-1.42170E-01-3.48916E-01
 -1       912-6.49006E-01-1.32170E-01-3.27735E-02-9.99861E-02-7.53284E-02-3.88644E-01
 -1       913-1.42390E-01-9.10627E-03 5.83526E-02-8.19865E-02 6.90735E-02 1.14338E-01
 -1       914-5.54791E-01-2.76388E-01-2.51466E-01-2.47315E-02 1.46408E-01 3.77778E-01
 -1       915-4.47007E-02-1.21097E-01 5.16005E-02-8.74769E-02 1.02008E-01 1.27541E-01
 -1       916-2.06071E-02-2.03155E-01-1.47326E-01 8.82223E-02 1.18811E-01-2.33807E-01
 -1       917 1.61156E-01-1.03265E-01 1.02745E-01-5.99387E-02-2.48985E-02 3.65020E-02
 -1       918 6.32415E-02-5.06336E-02 1.42936E-01 9.44029E-02-8.53625E-03-2.32995E-02
 -1       919-8.06584E-03-1.65004E-01-5.23839E-02 1.48715E-01 2.41268E-02-2.04584E-01
 -1       920-1.07415E+00-5.32632E-01 1.90399E-01-5.16633E-01-1.98899E-02 1.56870E-02
 -1       921-7.09430E-01-4.98837E-01 1.33219E-01-3.61400E-01-1.27582E-01-1.18677E-01
 -1       922-4.41157E-01-4.41891E-02-1.36303E-02-1.63690E-01-3.58451E-02-3.01496E-01
 -1       923-1.06306E+00-4.87580E-01 3.36489E-02-6.71358E-01-5.86270E-02-1.14682E-01
 -1       924-5.02030E-01-6.53971E-02-1.77893E-01-2.71623E-01-1.70759E-01-2.42366E-01
 -1       925 1.89544E-01-6.32204E-02-2.58738E-03 1.31122E-01 4.21894E-02-1.02542E-01
 -1       926-3.56686E-01-2.02968E-01-1.50899E-02-5.96405E-02 2.38354E-01 2.13936E-02
 -1       927-5.74889E-01-2.31037E-01-1.57542E-01-1.49785E-01 2.84412E-01 4.59471E-01
 -1       928-2.22850E-01-2.11335E-01 8.26950E-02-1.01553E-01 1.10333E-01-2.12588E-02
 -1       929-3.78726E-01-3.35649E-01-3.85562E-01 1.59592E-01 1.07090E-01-3.13404E-01
 -1       930 1.95058E-01-4.22230E-03-1.11534E-01 1.34000E-01 3.07451E-02-3.50232E-03
 -1       931 9.57116E-02 1.83634E-02 8.92250E-02 6.92377E-02-2.00403E-02-7.17421E-02
 -1       932 1.27530E-02-1.91955E-03-6.28786E-02 1.46368E-01 1.79742E-03-1.75434E-01
 -1       933-2.92748E-01-3.03630E-01 8.10766E-02-2.98908E-01-1.39351E-01-3.92189E-02
 -1       934-4.67098E-01-8.09764E-01 1.04664E-01-6.77678E-01 4.48149E-02 1.24687E-01
 -1       935-4.39174E-01-3.14775E-01 7.83135E-02-3.75654E-01 1.50263E-01 1.54537E-01
 -1       936-2.85280E-01-4.03567E-01 7.17279E-02-2.86018E-01 7.12070E-02 3.97203E-02
 -1       937-1.31774E-01-1.12572E-01 1.04427E-01 1.04468E-01 4.42973E-02-1.30020E-01
 -1       938-2.16105E-01-1.98382E-01-1.02125E-01-1.66835E-01 1.73704E-01 3.41889E-02
 -1       939-1.55559E-02-1.18799E-01 1.67744E-01-1.37291E-02 8.79486E-02 6.54649E-02
 -1       940-1.49758E-02-1.26472E-01-2.12950E-02 6.13182E-02 6.66483E-02-2.05385E-01
 -1       941-1.44516E-01-9.00999E-02-3.43303E-02 4.33157E-02 7.68526E-02 1.66263E-02
 -1       942-3.88124E-02 3.50685E-02 2.31441E-01 1.14957E-02-1.35677E-01-5.05468E-02
 -1       943-5.88327E-02-6.94062E-02-1.40800E-01 8.80017E-02-1.32808E-01-1.64279E-01
 -1       944 1.14573E-02 1.31192E-02-1.07518E-02-2.22968E-01-1.50260E-01-1.80153E-02
 -1       945 1.08239E-01 3.30659E-02 6.02918E-02-2.80140E-01 1.01140E-01-2.74437E-01
 -1       946-4.98141E-03-7.89623E-02-2.49071E-01-5.13743E-01 2.44394E-01 5.90690E-02
 -1       947 3.05281E-02 8.56791E-03-1.65291E-01-2.09602E-01-4.72307E-02-9.28131E-02
 -1       948 6.75126E-02 4.50157E-02-8.30059E-03-2.25331E-01 5.03359E-02-1.21091E-02
 -1       949-3.32010E-02 9.56511E-02 2.26829E-01 1.49500E-01 1.58354E-01-1.83041E-02
 -1       950-1.08608E-01-1.01456E-02-1.66016E-01-1.62921E-02 8.61954E-02-1.91865E-01
 -1       951-7.50335E-02-9.71938E-02-1.78222E-01-1.27348E-01 1.10606E-01 9.87180E-02
 -1       952-1.62976E-03 4.51644E-02 1.60892E-02 1.03874E-02-1.11175E-01-9.78140E-02
 -1       953 1.23675E-02-6.21477E-02-2.26768E-01-5.61879E-02-4.65295E-04-4.90606E-01
 -1       954-5.33644E-02 2.52067E-02 2.10906E-02 3.07576E-02 9.46154E-02-1.46875E-01
 -1       955-1.11451E-02 3.47089E-02-1.46552E-01 1.32089E-02 7.86739E-02-3.31604E-02
 -1       956 1.25455E-02-1.19310E-02 1.93546E-01 5.91778E-02-1.18520E-01-1.00407E-02
 -1       957 6.34170E-02 8.34141E-03-3.40453E-02 8.84659E-02-9.81761E-02-1.66593E-01
 -1       958 3.60390E-01 4.38181E-01-1.70416E-01-3.77237E-01 1.55979E-01 1.62424E-02
 -1       959 2.20602E-01 4.06687E-01 1.27298E-02-2.80927E-01-1.54222E-01 6.80246E-02
 -1       960 4.20514E-01 3.00402E-01-1.49075E-01-3.17564E-01-5.51743E-02 1.43359E-02
 -1       961 9.84093E-02 5.92393E-02 3.65788E-02 3.21845E-03 1.88795E-01-1.77773E-01
 -1       962 1.16294E-01 1.90141E-01-1.62543E-02-1.04726E-01-8.73706E-02 6.77054E-02
 -1       963 1.24534E-01 1.19218E-01-3.85199E-02-1.10106E-01-2.03259E-01-2.54252E-02
 -1       964 2.49031E-01 2.23827E-01 5.17094E-02 1.85855E-01-1.85754E-01-2.55183E-01
 -1       965 6.30828E-02 8.96173E-02 1.05058E-01 5.05165E-02 6.86278E-02-1.29136E-01
 -1       966-1.76467E-02-6.38858E-02-1.69159E-01 6.14188E-02 1.26216E-01-3.07777E-02
 -1       967-5.61767E-02 7.03371E-02 2.90411E-02 6.12951E-02-1.88685E-02-8.79304E-02
 -1       968 5.84963E-02-5.71996E-02 5.79567E-02 1.64784E-01-1.50889E-01-9.77772E-02
 -1       969 1.18835E+00 4.78485E-01-2.22176E-01-5.08665E-01 1.38114E-01-1.21586E-01
 -1       970 4.01197E-01 1.73905E-01 7.70465E-02-2.73653E-01 1.56886E-01-2.38808E-01
 -1       971 1.18044E+00 5.34510E-01-4.09835E-02-5.23117E-01 2.83068E-01-4.77343E-01
 -1       972 5.40605E-01 2.36351E-01 2.76911E-02-3.11821E-01 1.61484E-01-2.40184E-01
 -1       973 4.34755E-01 1.42194E-01 1.86740E-02 5.88896E-02 3.41742E-02-2.94811E-01
 -1       974 1.02049E-01 8.67124E-02-1.32675E-01-3.04102E-02-1.29276E-01-1.20949E-01
 -1       975-1.00671E-02 2.53179E-01 6.32571E-02-8.60351E-02-2.01294E-01 1.69825E-01
 -1       976 1.42492E-01 4.94490E-03-1.38243E-01-7.69226E-02-2.03167E-01 5.22038E-02
 -1       977-5.15122E-02 1.19002E-01-3.75668E-02 1.06221E-01-1.21759E-01-1.51627E-01
 -1       978-3.63255E-02 1.27451E-02 1.57575E-01 1.49519E-01 3.09628E-02-2.58192E-01
 -1       979 9.32524E-02 3.15515E-02-2.30356E-01 2.58972E-02 9.39979E-02-6.93366E-03
 -1       980 1.84740E-01 2.17037E-01 9.58785E-02 1.00551E-02 7.16181E-03-5.51395E-02
 -1       981-6.67414E-02 1.22259E-01 1.09032E-01 1.82037E-01-2.73283E-02-1.98615E-02
 -1       982 2.54968E+00 6.27709E-01 2.01566E-02-6.86629E-01-8.20686E-02 4.21328E-01
 -1       983 1.60865E+00 3.50543E-01-2.49981E-01-2.08842E-01 4.55183E-02 4.16141E-02
 -1       984 5.06482E-01 9.77787E-02 1.33035E-01-3.08739E-02 6.27779E-02-4.12346E-01
 -1       985 1.80086E+00 4.49881E-01 1.02510E-02-2.90503E-01 7.70791E-02-4.97331E-01
 -1       986 9.84976E-01 2.15231E-01-6.15231E-03-1.40193E-01 1.33075E-01-2.84611E-01
 -1       987-2.17143E-02 1.97350E-01-9.55207E-03 9.18186E-02 1.45663E-02-3.09119E-01
 -1       988 4.32290E-01 1.39459E-01 1.44859E-01-1.24861E-01-1.18194E-01 3.23924E-01
 -1       989 1.41640E-01 6.27602E-02-2.22141E-01-2.98738E-02-8.50664E-02 1.08188E-01
 -1       990 1.05556E-01 5.81630E-01 2.67432E-02 1.16337E-01-1.00428E-01 3.20950E-02
 -1       991 3.98574E-02 1.40890E-01 2.03790E-01 1.49897E-01 3.06257E-03-1.41477E-01
 -1       992-4.13639E-02 8.54299E-02-2.02253E-01 5.72492E-02 2.03645E-02-5.15499E-02
 -1       993-1.66263E-01 8.01418E-02 3.79266E-03-2.53329E-02 2.28151E-02 3.64388E-02
 -1       994-9.34647E-02 3.38731E-01-6.97134E-02 8.02405E-02 1.56096E-02-4.97294E-02
 -1       995 1.84751E+00 4.24026E-01-3.31788E-01 2.44253E-01 2.63377E-02 6.00884E-02
 -1       996 7.67060E-01 9.36177E-02 3.15556E-02-1.83312E-02-6.52756E-03-3.83825E-01
 -1       997 2.01410E+00 4.59321E-01-4.77585E-02 3.94027E-02-6.97604E-02-5.26960E-01
 -1       998 1.06568E+00 1.11838E-01 5.70281E-02-4.26957E-02 9.06005E-03-3.61232E-01
 -1       999-2.72023E-01 1.81309E-01-9.96188E-03 9.33797E-02 5.64247E-03-1.92294E-01
 -1      1000 5.52554E-01 1.80151E-01 1.35375E-01-8.07428E-02 2.50245E-02 3.75867E-01
 -1      1001 3.79243E-01 4.96591E-02-1.01366E-01 3.30648E-02-5.55444E-02 1.74382E-01
 -1      1002-8.28123E-02 5.03716E-01 2.22730E-01-8.81032E-02 1.79793E-01 2.89563E-02
 -1      1003-9.79694E-02 3.01966E-01 4.61133E-02 2.58372E-02-4.99938E-02-1.63657E-01
 -1      1004-2.28244E-01 1.96864E-01 3.04236E-03 1.22809E-01 3.15731E-02-2.78269E-03
 -1      1005-1.29823E-01 7.04413E-02-6.39090E-02-6.60180E-02 8.23200E-03-6.57644E-02
 -1      1006-1.96426E-01 1.79317E-01 6.24299E-02-9.95034E-02 6.64171E-02-1.21903E-01
 -1      1007 4.16086E-01-3.03476E-02 1.28673E-01 9.76382E-02-1.33222E-01-3.16634E-01
 -1      1008 1.94697E+00 5.53265E-01 8.95504E-03 4.06446E-01-1.63491E-01-3.97648E-01
 -1      1009 1.42144E+00 3.94477E-01-1.23684E-01 1.85486E-01-2.87864E-02-1.65913E-01
 -1      1010 1.44035E+00 5.18374E-01-2.78237E-01 4.32975E-01-6.43670E-03 4.30205E-02
 -1      1011 8.74471E-01 2.91051E-01 1.33001E-01 2.23134E-01 2.79888E-01 8.37047E-01
 -1      1012-1.65285E-01 2.92763E-01 1.31156E-02-6.19299E-02-1.06277E-01-1.64729E-01
 -1      1013 2.60051E-01-1.43804E-02-8.03507E-02 3.95954E-02 7.04802E-02 2.79191E-01
 -1      1014 5.15783E-01 2.28544E-01 1.87598E-01-3.78580E-02 1.59875E-01 4.21411E-01
 -1      1015-3.18240E-02 1.21035E-01-1.65696E-01 4.85238E-02 6.82866E-02 1.72494E-01
 -1      1016 2.73338E-01 5.35556E-01 2.64875E-01-1.94205E-01 3.53546E-01-1.88923E-01
 -1      1017-9.32232E-02 2.86718E-01 5.78496E-02-8.98360E-02-1.16929E-02-1.21017E-01
 -1      1018 4.40272E-02 1.81134E-01-1.11889E-01-5.67962E-02-5.91986E-02 2.12586E-02
 -1      1019 7.36826E-02 5.11085E-02-6.75161E-02-4.87666E-02 2.72011E-02-2.43827E-02
 -1      1020-2.68333E-02 1.63746E-01 1.62383E-01-4.64007E-02 1.23233E-02-9.61582E-02
 -1      1021 1.19114E+00 5.53868E-01 1.56556E-01 5.61919E-01-2.34735E-01-2.44602E-01
 -1      1022 5.52661E-01 2.18794E-01 4.13252E-02 2.85810E-01-1.99583E-01-3.33250E-01
 -1      1023 1.22274E+00 6.22536E-01 9.42621E-02 7.23052E-01-1.05550E-01-1.53821E-01
 -1      1024 9.63840E-01 4.14799E-01-1.45818E-01 3.96232E-01-6.82240E-02-4.31744E-02
 -1      1025 7.91494E-01 6.94224E-01-1.83105E-01 4.77446E-01 3.57658E-02 3.60886E-02
 -1      1026 6.47089E-01 3.61633E-01 9.52226E-02 4.48816E-01 4.03244E-01 5.21416E-01
 -1      1027-1.29069E-01 1.13123E-01-1.89444E-01 7.51134E-03-2.72250E-03-1.66538E-02
 -1      1028 1.89729E-01 1.40730E-01 2.71915E-02 9.82846E-02 1.94899E-01 2.37770E-02
 -1      1029 3.64381E-01 1.63726E-01 3.56851E-01 8.35154E-02 2.99621E-01 1.87048E-01
 -1      1030 1.10876E-02 7.10848E-02-6.88478E-02 2.25826E-02 1.42957E-01 1.77858E-02
 -1      1031-5.83712E-02 1.88601E-01 3.40507E-01-3.42706E-02 1.18004E-01-2.18255E-01
 -1      1032-1.02788E-02 7.67799E-02 1.13319E-01-2.30859E-01 4.72495E-02-1.42951E-02
 -1      1033-1.04915E-01 1.25029E-01-2.50037E-02-7.63452E-02 2.29685E-02 1.09573E-01
 -1      1034 3.03667E-03 1.28651E-02-7.56590E-02-2.15327E-02-3.57759E-02-4.29919E-02
 -1      1035 1.67951E-01 1.10936E-01 9.70941E-02-1.04993E-01-5.04154E-02-1.93973E-01
 -1      1036 2.73815E-01 3.48967E-01-9.93408E-02 2.74861E-01 8.67635E-02 1.31985E-02
 -1      1037 1.92264E-01 9.22703E-02 1.81011E-01 3.24497E-01-1.93248E-01-1.10831E-01
 -1      1038 4.30558E-01 3.51138E-01-4.04000E-02 5.51019E-01-1.40183E-02-1.54447E-01
 -1      1039 2.62937E-01 3.12147E-01-5.64417E-02 2.92575E-01-8.27001E-02-1.28172E-02
 -1      1040 1.18200E-01 8.49013E-02-1.62987E-01-1.72069E-01 5.97513E-02-1.71276E-01
 -1      1041 1.51457E-01 1.61613E-01 1.83653E-01 1.42712E-01 1.91178E-01 4.66434E-02
 -1      1042 1.14932E-01 1.49325E-01-9.50479E-02 8.30795E-02-3.16154E-03-1.53416E-02
 -1      1043 2.42517E-01 2.75868E-01 3.37399E-01 2.90065E-02-1.70686E-01-3.47180E-01
 -1      1044 5.77598E-02-6.42025E-02-7.77918E-02-1.33750E-01 1.31291E-01-4.85883E-02
 -1      1045 4.66472E-02 5.04702E-03 1.14172E-01-9.35523E-02 4.69318E-02 9.22075E-03
 -1      1046 8.42525E-02 4.35063E-02-8.60028E-02-3.51151E-02-1.32514E-01-2.32025E-02
 -1      1047-2.50657E-03 3.18659E-02 1.77541E-01-1.03111E-01-1.02875E-01-1.69036E-01
 -1      1048-2.14260E-02-6.01306E-02 1.03096E-01 2.50055E-01 1.72651E-01 1.83627E-02
 -1      1049-1.53830E-01-3.00588E-02-3.07325E-02 5.13307E-01 1.75362E-01-2.19079E-01
 -1      1050-2.06196E-02 4.11060E-02-1.58884E-01 3.75511E-01-6.57173E-02-5.99745E-02
 -1      1051-2.36698E-03 2.41840E-03 8.32955E-03 2.71849E-01 2.05449E-02 9.77196E-02
 -1      1052 4.53854E-02-8.79382E-02 8.29452E-02-6.15202E-03 1.79845E-01-2.06284E-01
 -1      1053 1.75333E-01 6.73756E-02 7.88061E-02-1.41841E-02 6.83518E-02-6.27521E-02
 -1      1054 4.02092E-02 1.66693E-02-6.17254E-02-7.51197E-02-4.43324E-02-1.17942E-01
 -1      1055-9.30251E-02 3.54697E-02 5.92027E-03-1.06750E-02-5.00834E-02-3.59223E-01
 -1      1056 4.16384E-03-1.11709E-01-1.30402E-01-1.13681E-01 1.56459E-01-1.63275E-01
 -1      1057-4.28398E-02-5.14406E-02 1.76411E-01 4.15838E-04 1.23071E-01 4.87044E-02
 -1      1058 6.13532E-02 7.75010E-02-4.06467E-02-5.28206E-02-4.65228E-02-3.08865E-02
 -1      1059 4.52264E-02 1.50359E-02-1.37838E-02-1.18689E-01-8.10105E-02-1.77127E-01
 -1      1060-3.97273E-01-2.39473E-01 1.62562E-01 2.79165E-01-5.03956E-02 1.57095E-02
 -1      1061-1.50322E-01 3.44207E-03 1.14718E-02 2.47018E-01 9.90234E-03-2.29557E-01
 -1      1062-5.36803E-01-3.19402E-01 7.53473E-02 5.11788E-01 2.16581E-01-7.28836E-02
 -1      1063-2.46475E-01-3.68500E-01-5.83753E-02 3.12784E-01 2.09531E-01-8.82912E-02
 -1      1064-4.08885E-01-4.33535E-01 1.52850E-01 3.88610E-01 1.22250E-01-1.97609E-02
 -1      1065-6.46981E-02 9.37568E-03-5.90007E-02-9.35545E-02 1.45381E-01-1.48019E-01
 -1      1066 6.06868E-03-1.62668E-01 9.89506E-02 2.37827E-02-7.62937E-02 1.98445E-02
 -1      1067-1.38310E-01-1.67168E-01-1.62474E-02 9.78522E-02-1.18843E-01 1.13952E-01
 -1      1068 9.59557E-02 6.42064E-02 1.08633E-01-7.13059E-02-2.30230E-01-2.93393E-02
 -1      1069-1.25719E-01-8.18678E-02-7.83851E-02-1.15719E-01-1.70060E-01-2.95383E-01
 -1      1070-1.23449E-01-2.58816E-02-8.71817E-02 1.51888E-03 5.79251E-02-1.32569E-01
 -1      1071-1.89164E-02-4.54607E-02 1.24794E-01-2.52092E-02 1.25879E-01-6.16986E-02
 -1      1072-3.82305E-03-6.16605E-02-5.04523E-02-7.07080E-03-1.38694E-01-2.58145E-02
 -1      1073-8.45983E-02 5.51633E-02-4.77671E-02-1.76788E-01-1.20535E-01-4.33806E-02
 -1      1074-5.77183E-01-1.25688E-01-2.32547E-02 2.41997E-01 4.15269E-02-2.54470E-01
 -1      1075-1.25150E+00-5.02532E-01 1.41492E-01 5.80306E-01 2.40153E-01-3.41159E-01
 -1      1076-8.77839E-01-3.53696E-01 1.22231E-01 3.39020E-01 1.51564E-03-3.45305E-02
 -1      1077-1.56402E+00-9.40992E-01-1.24170E-01 8.22995E-01-2.84758E-01 2.62271E-01
 -1      1078-6.17978E-01-2.95918E-01-1.20930E-01 3.31112E-01-3.70552E-01 5.00671E-01
 -1      1079-2.53680E-01-1.62318E-01 1.23854E-01 1.20790E-01-1.58365E-01-3.00811E-02
 -1      1080-1.34850E-01-1.53529E-01-4.08104E-03 9.74267E-02-2.07260E-01 1.82151E-01
 -1      1081-1.95851E-01-1.65303E-01 9.52460E-02 9.38579E-02-2.42815E-01-3.27539E-02
 -1      1082-2.07392E-01-2.13339E-01-3.79220E-02-1.57848E-01-1.29281E-01-1.47906E-01
 -1      1083 5.24243E-02 1.33502E-02 2.10553E-02-1.06679E-01 6.43434E-02-1.59230E-01
 -1      1084 1.00393E-01-1.07375E-01-7.65367E-02-9.59876E-02-2.31267E-02 2.26695E-02
 -1      1085 6.28276E-02-8.25492E-02 4.91161E-02-2.03558E-01-3.43071E-02-7.53978E-02
 -1      1086-9.32649E-01-1.86250E-01 2.43620E-02 1.60495E-01 1.37169E-01-2.58650E-01
 -1      1087-1.80569E+00-4.72263E-01 2.80930E-03 3.31639E-01 9.18740E-02-5.02651E-01
 -1      1088-1.45505E+00-3.52252E-01 1.31240E-01 2.10912E-01 4.29888E-02-1.46567E-01
 -1      1089-2.52914E+00-6.05773E-01 6.55161E-02 6.49555E-01-5.98325E-02 4.04162E-01
 -1      1090-1.37668E+00-2.68707E-01-4.96473E-02 3.49666E-01-2.64690E-01 8.39597E-01
 -1      1091 6.95643E-03 5.76963E-03 1.66309E-01 2.71189E-02-6.43540E-02 1.71504E-01
 -1      1092-2.51585E-01-1.76380E-01-7.34622E-02 1.32443E-01-1.26184E-01 3.25369E-01
 -1      1093-1.08070E-01-5.17198E-02 8.24686E-02 1.54564E-02-1.33206E-01 2.13967E-01
 -1      1094 6.67000E-02-3.90113E-01-8.67514E-02-8.72581E-02-1.01910E-01 4.78072E-03
 -1      1095 2.75840E-03-2.78415E-02 6.32684E-02-9.48670E-02 1.43231E-03-4.08366E-02
 -1      1096 2.30573E-01-1.27088E-01 5.13780E-02 6.35242E-02 2.16025E-02-5.46915E-02
 -1      1097 2.65929E-01-8.86616E-02-3.69842E-02-6.80176E-02 1.19514E-02-8.71030E-02
 -1      1098 5.43908E-01 3.79776E-01 3.53863E-01 2.99084E-01 1.21371E+00 1.15406E+00
 -1      1099-1.38154E-02-2.25680E-01 1.99262E-01 3.71346E-03 1.19194E-01 1.33294E-01
 -1      1100-1.58802E-01-4.21728E-01-8.66464E-02-1.85929E-03-4.38228E-01 1.34501E-01
 -1      1101 3.07567E-01 4.21259E-01 6.59236E-02-2.01745E-01-5.90246E-01 7.99138E-01
 -1      1102 1.29676E+00 5.49465E-01 5.53867E-01 2.18330E-01-9.20552E-03 9.28529E-01
 -1      1103 8.00811E-01 1.37587E+00 5.37695E-01 7.07156E-01 7.51535E-01 1.28225E+00
 -1      1104-4.84375E-01-1.94923E-01-2.03789E-01-6.02694E-02-2.70618E-02 4.22745E-01
 -1      1105 9.08419E-01 4.24907E-01-4.79555E-02 3.10294E-01 7.32557E-01 7.85597E-01
 -1      1106 1.28839E+00 1.85884E+00 8.20798E-01 7.45762E-01 4.68741E-01-3.73619E-02
 -1      1107-3.96235E-01-4.66933E-01 4.83001E-02-3.28364E-01 5.14251E-01 8.16245E-01
 -1      1108-1.04593E-02 7.05481E-02-6.50725E-01 2.07633E-01-1.57592E-01 7.07105E-02
 -1      1109 2.77365E-02 2.82021E-01-2.86362E-01 7.44312E-02 3.49813E-01 2.47493E-01
 -1      1110-9.41146E-02-5.06628E-01 1.61525E-01-5.20552E-02-1.03242E-01-7.67292E-02
 -1      1111 4.66138E-02-3.27810E-02 1.58639E-01-1.77519E-02 7.33664E-02 6.43414E-02
 -1      1112-4.10914E-02 7.59508E-01-2.89789E-02-2.74805E-01 1.58866E-01 6.49844E-02
 -1      1113-9.56305E-02-3.85195E-01 2.26768E-02-2.27593E-02-4.88182E-02 4.91493E-02
 -1      1114 4.70155E-01 1.59289E-01 3.41698E-01-6.08687E-01-1.71890E-01 1.49812E+00
 -1      1115 6.54675E-01 2.24974E-01 3.10534E-01-1.91439E-01-1.02098E+00 1.15360E+00
 -1      1116 4.63183E-01 4.70989E-01 9.27908E-01-8.28273E-02-7.43952E-01 9.72033E-01
 -1      1117-7.29436E-02 4.91773E-01-7.84724E-01-1.13748E-01-2.60292E-01-4.32989E-02
 -1      1118 1.43155E-01-2.61533E-01 2.76805E-01-2.20760E-02 3.60974E-02 2.93196E-01
 -1      1119 5.55026E-01 1.08331E+00 2.87207E-01-1.91883E-01-2.50103E-01-1.93895E-01
 -1      1120 3.84744E-02-3.83344E-03 3.67478E-02-1.14534E-02-6.83626E-02-3.04569E-02
 -1      1121 1.94943E-01 5.14709E-01 2.12895E-01 2.01204E-02-3.69992E-01 2.85921E-02
 -1      1122-1.29305E+00-1.48802E+00-8.34322E-01 5.47720E-01-1.10296E+00 9.05196E-01
 -1      1123-4.72744E-01-4.95381E-01-2.90437E-01 2.31987E-01-3.50931E-01 6.16897E-01
 -1      1124-3.23611E-01-1.11992E-01-2.40499E-01 8.40327E-02-5.99434E-01 6.57846E-01
 -1      1125 1.09482E-01 3.40705E-01 7.06567E-01 2.03094E-01 6.22922E-01 1.09971E+00
 -1      1126 1.57391E+00 9.29508E-01 8.87154E-01 5.52583E-01 1.04962E-01 1.80867E+00
 -1      1127-1.48090E+00-4.04333E-01-6.72843E-02 5.53607E-02 7.67209E-01 1.50149E+00
 -1      1128 2.55996E-01 6.96760E-01 1.05855E-01-9.72850E-02-5.29421E-01 2.90798E-01
 -1      1129-1.36457E+00-9.97532E-02-4.95351E-01-9.50883E-02-2.76247E-01 4.27405E-01
 -1      1130 7.78296E-01 1.13835E-01 5.07965E-01 2.21073E-01-6.86921E-01 1.71337E+00
 -1      1131 9.45625E-01-2.50584E-02-8.05052E-01-1.52678E-01-5.03427E-01 2.29405E-01
 -1      1132-7.12382E-01-4.95045E-01-2.41267E-01 3.21131E-01-5.54139E-01 1.44428E+00
 -1      1133 6.55524E-01 1.90226E-01 2.81032E-01-1.75949E-01-1.13443E+00 8.95234E-01
 -1      1134 3.49416E-01 2.30476E-01 2.61726E-01-8.24020E-02-9.88229E-01 7.55686E-01
 -1      1135 4.78750E-01 1.81592E-02 2.56658E-01-2.41180E-02-9.09810E-01 7.98083E-01
 -1      1136 1.58683E-02-6.89925E-02-9.54411E-03 2.09454E-02 1.63963E-02 7.13793E-02
 -1      1137-1.16976E-01-3.38944E-01-6.80109E-02-5.99168E-03 1.31570E-02 6.82525E-02
 -1      1138 1.15240E-03 1.46388E-02 4.73737E-03-1.32423E-02 3.13223E-02 4.04456E-03
 -1      1139-6.30089E-02-1.36793E-01-6.77514E-02-4.69872E-02-1.71062E-01-2.19511E-02
 -1      1140-4.83848E-02-1.40992E-01-5.68131E-02 2.31466E-02-9.02312E-02 6.26358E-02
 -1      1141-7.00602E-02-1.07309E-01-5.32107E-02-3.02241E-02-9.05697E-02-4.82516E-02
 -1      1142-3.17505E-01-3.17678E-01 2.78645E-02-2.46820E-01 1.35933E-03 3.61131E-01
 -1      1143 5.10986E-01 6.84768E-01 3.58726E-01 2.32612E-01 4.78569E-01 4.26421E-01
 -1      1144 1.92395E-01 1.49163E+00 3.49070E-01 6.02056E-01 9.36502E-01 9.28467E-01
 -1      1145 1.44580E+00 5.28498E-01 5.27928E-01-8.12719E-02 2.34089E-01 1.90967E+00
 -1      1146-9.30433E-02-4.38668E-01-1.12754E+00-1.18400E-01-6.82301E-01 3.61340E-02
 -1      1147-4.47613E-01-2.74844E-01-1.75080E-01 2.06947E-01-7.04220E-01 1.79438E+00
 -1      1148 2.14173E-01 7.06289E-01 4.66981E-01 1.32974E-01 7.99722E-01 8.00861E-01
 -1      1149-3.03315E-01 2.54882E-01 4.59233E-01 2.29736E-02 8.16486E-01 1.21082E+00
 -1      1150 2.25883E-02 3.25296E-01-1.00290E-01-2.01778E-02-4.44007E-01 1.79381E-01
 -1      1151-3.76592E-03 9.77248E-02-1.38831E-01 1.05105E-02-2.66731E-02 5.68834E-02
 -1      1152-4.28985E-01-5.51062E-01-1.87471E-01-2.53038E-01 5.04075E-02 2.24881E-01
 -1      1153-6.98599E-01-6.68295E-02-1.11680E-01-6.97132E-02 2.02431E-03-4.50508E-01
 -1      1154-1.67470E+00-3.50302E-01 3.52137E-01 1.90858E-01-4.18836E-05-1.44482E-02
 -1      1155-1.78099E+00-2.72881E-01 2.29856E-01-1.80229E-01-5.43845E-02-7.70960E-03
 -1      1156-1.49877E+00-2.46369E-01 1.04935E-01 1.06273E-01-7.15963E-02-1.54494E-01
 -1      1157-1.19800E+00-8.74906E-02-2.00452E-01-5.92354E-02 8.60989E-02 9.03209E-01
 -1      1158-3.40676E+00-3.84322E-01-5.82734E-02 5.47010E-02-7.93601E-02 4.31825E-01
 -1      1159-1.62915E-02-1.80316E-01 1.82790E-02-4.93382E-02-1.91093E-02-2.43030E-01
 -1      1160-1.81479E-01-6.13222E-01-1.73702E-01-1.48808E-01-1.30066E-01 3.82271E-02
 -1      1161-3.76633E-01-1.41273E-01-1.03360E-01 4.18339E-02 3.91203E-02 4.84754E-01
 -1      1162 1.37427E-01-2.19714E-01 2.70915E-03 4.65336E-02 3.55372E-02-2.78619E-01
 -1      1163 1.85695E-02-3.65025E-01-1.39204E-01-7.29928E-02-4.46329E-02-1.16705E-01
 -1      1164-8.78192E-01-2.02550E-01-3.08147E-01-2.90877E-01 2.68821E-01 7.82517E-01
 -1      1165-2.80026E+00-4.94280E-01 9.07454E-02-7.05208E-01 1.25636E-02 4.01137E-01
 -1      1166-2.82243E+00-7.32279E-01 8.57730E-02-6.98598E-01 1.22549E-01 2.88154E-01
 -1      1167-1.38120E+00-3.14344E-01-4.76447E-02-3.77312E-01 2.70939E-01 8.87036E-01
 -1      1168-1.52308E+00-4.99289E-01 2.99356E-01-5.38409E-01-6.94733E-02-1.61445E-02
 -1      1169-1.37006E+00-3.19454E-01 1.37551E-01-1.87509E-01-1.04551E-02-1.41214E-01
 -1      1170-1.09282E+00-4.56699E-01 9.91084E-02-3.80481E-01 5.69080E-03-1.93643E-01
 -1      1171-1.53891E+00-3.36002E-01 2.11988E-01-1.91220E-01-2.63346E-02-2.43136E-02
 -1      1172-1.72283E+00-2.72101E-01-2.86004E-03-3.90766E-01-6.61123E-02-4.59265E-01
 -1      1173 3.97974E-01-1.71211E-01-9.31411E-02 7.64585E-03-2.38492E-02-1.96075E-01
 -1      1174 1.19653E-01-4.56605E-01 1.16604E-01 2.40289E-01 5.22271E-02 5.14738E-02
 -1      1175-1.84437E-01-1.43849E-01-9.44797E-02-1.51198E-01 1.32702E-01 2.61022E-01
 -1      1176-1.29156E-01-1.68084E-01 5.32834E-02 8.93525E-02-2.62293E-02-2.46024E-01
 -1      1177 2.25389E-01-1.94350E-01-2.41156E-03 1.00670E-01-3.91530E-02-9.05357E-02
 -1      1178-4.35919E-01-2.85941E-01-3.03075E-01-4.07427E-01 4.27712E-01 5.44090E-01
 -1      1179-1.64519E+00-9.85464E-01 6.40446E-02-1.07656E+00 3.58756E-01 4.01581E-01
 -1      1180-1.54727E+00-9.48672E-01 1.32193E-01-8.72412E-01 2.34224E-01 2.24260E-01
 -1      1181-7.04706E-01-3.89257E-01-1.00771E-01-4.36040E-01 4.20389E-01 5.49331E-01
 -1      1182-6.49333E-01-6.84399E-01 1.48669E-01-5.57191E-01 5.00873E-02 9.31185E-02
 -1      1183-9.31596E-01-3.40562E-01 1.39095E-01-3.94911E-01-8.52297E-03 8.34710E-02
 -1      1184-1.16862E+00-5.24784E-01-3.86467E-02-6.59740E-01-2.77548E-01-3.24600E-01
 -1      1185-3.09685E-01-3.86750E-01-1.33803E-01 2.11663E-01 2.29511E-01-1.40678E-01
 -1      1186-3.55451E-01-3.02436E-01-1.09987E-01-1.40040E-01 1.75154E-01 2.57012E-01
 -1      1187 2.94224E-02-2.67390E-02-9.07687E-02 1.17631E-02-1.37038E-01-2.45533E-01
 -1      1188-1.36867E-02-1.14735E-01-3.70273E-02 1.85089E-01 9.70864E-02-7.52312E-02
 -1      1189-4.25703E-01-4.57964E-01 1.56462E-01-4.37052E-01-1.93650E-01-6.39463E-02
 -1      1190-2.13464E-01-4.50667E-01-1.16577E-01-3.70719E-01 4.13154E-01 1.83661E-01
 -1      1191-4.57497E-01-8.71813E-01 1.41643E-02-7.63287E-01 3.36046E-01 1.21816E-01
 -1      1192-2.09116E-01-2.02568E-01-8.85010E-03-2.66790E-01 2.47585E-01 2.74384E-01
 -1      1193-1.22811E-01-1.44764E-01-1.92001E-01-4.12635E-01-2.18806E-01-1.06466E-01
 -1      1194-2.64460E-01-3.91212E-01 1.09039E-01-6.04042E-01 1.40269E-01-1.81337E-01
 -1      1195-1.45080E-01-6.57159E-03 1.21179E-02-2.36028E-01-1.40162E-02-2.21037E-01
 -1      1196-5.80237E-01-3.78580E-01 2.81349E-02-5.52952E-01-2.08183E-01-1.24768E-01
 -1      1197-3.30578E-01-1.61267E-02 1.37628E-01 1.35676E-01 2.53178E-01-3.77841E-01
 -1      1198-3.50563E-02-1.03036E-01-5.13445E-02-2.81193E-02 1.65654E-01-4.15058E-02
 -1      1199-4.60800E-02-9.83243E-02-1.29020E-03-1.52191E-02 1.05289E-01 3.19769E-02
 -1      1200-1.29828E-01-2.91006E-02-3.57661E-02 1.79308E-02-1.41453E-01-1.69571E-01
 -1      1201 4.38761E-02 1.16242E-01 4.26948E-02 1.99275E-01 1.56728E-01-1.68687E-02
 -1      1202 3.17959E-03-7.49694E-02-3.98490E-02-2.12965E-01-1.70321E-01 2.47928E-02
 -1      1203-2.15251E-02-3.20186E-02-1.87353E-01-1.78584E-01 1.43160E-01 9.98739E-02
 -1      1204 8.09254E-02-9.99050E-03 1.70608E-01-4.22914E-01 1.93946E-01-3.51192E-02
 -1      1205 7.24060E-02-2.63743E-02 1.89111E-01-3.95329E-01 2.79231E-02-9.87443E-03
 -1      1206-5.09370E-02-1.37348E-02-4.02293E-02-2.14697E-01 2.40863E-02 1.29701E-01
 -1      1207 8.38897E-02-7.44497E-03-4.00280E-01-4.53855E-01-1.13449E-01 1.29623E-02
 -1      1208-9.30139E-02-3.47305E-02 7.74072E-02-2.45480E-01 1.47419E-01 2.52088E-02
 -1      1209-8.40629E-02 4.36979E-02 6.58865E-02-3.15130E-02 1.45950E-01-5.39018E-01
 -1      1210 4.35479E-02 6.02607E-02 9.09052E-02-9.93337E-02-6.29456E-02 3.98675E-02
 -1      1211 1.85170E-02-2.60453E-02-1.84238E-03 8.46478E-03-9.65829E-03-1.06342E-01
 -1      1212 2.42110E-01 3.16418E-01 4.41667E-02-3.02207E-01 1.82402E-01-9.37132E-02
 -1      1213 4.77915E-01 3.73452E-01-5.88536E-02-6.52213E-01 4.00783E-01-1.14578E-01
 -1      1214 1.93989E-01 1.17672E-01 1.81968E-01-3.37037E-01 2.06752E-01-1.14570E-01
 -1      1215 1.74397E-01-5.95201E-03 9.89205E-03-1.99151E-01 5.11516E-03-1.88236E-01
 -1      1216 4.89748E-01 3.62471E-01-8.08117E-02-5.85881E-01 1.27117E-02-1.35434E-01
 -1      1217 1.44543E-01 2.75241E-01 4.29078E-02-2.78534E-01-2.00210E-01 2.51404E-01
 -1      1218 3.81312E-01 7.97490E-01 2.19508E-02-6.37843E-01-4.05884E-02 8.14291E-02
 -1      1219 4.24768E-01 8.38335E-01 3.36474E-02-6.82177E-01-2.95861E-01 1.23858E-01
 -1      1220 2.39272E-01 3.35659E-01-3.95234E-03-3.75998E-01-3.57741E-01 2.20213E-01
 -1      1221 5.23128E-01 3.05489E-01 2.14805E-01-4.49945E-02 7.44899E-02-3.17693E-01
 -1      1222 5.73087E-02 1.33026E-01-3.26484E-02-2.64747E-02 7.89042E-02-7.48968E-02
 -1      1223 2.32115E-01 1.87168E-01 6.02784E-02-1.24772E-01-2.46345E-01 3.58519E-02
 -1      1224 1.19416E-01 8.76376E-02-6.74756E-02 1.24603E-01-7.02409E-02-2.17875E-01
 -1      1225 5.74136E-01 3.39064E-01-5.64773E-02-4.17665E-01-4.02870E-01 5.16578E-01
 -1      1226 1.56977E+00 1.01883E+00-7.92490E-02-1.12162E+00-7.42938E-02 1.33895E-01
 -1      1227 1.78979E+00 1.12115E+00-1.61113E-02-1.00924E+00-2.03232E-01 2.49780E-01
 -1      1228 6.41705E-01 3.73078E-01 1.00888E-01-3.92306E-01-4.22100E-01 5.66335E-01
 -1      1229 6.31437E-01 4.72381E-01-1.19586E-01-3.86631E-01 2.04265E-01-1.92227E-01
 -1      1230 9.61827E-01 4.12200E-01-1.01569E-01-3.96190E-01 5.83663E-02-7.70482E-02
 -1      1231 8.34719E-01 6.73654E-01-1.84249E-01-5.66831E-01 1.18427E-02 5.35043E-02
 -1      1232 1.31518E+00 6.10644E-01-4.77980E-02-6.60043E-01 1.61283E-01-2.64315E-01
 -1      1233-1.07979E-01 1.87913E-01 3.84953E-01 1.84646E-01-2.21483E-01-2.12989E-01
 -1      1234 4.39284E-01 1.92621E-01 3.25417E-01-7.88615E-02-2.15198E-01 3.00128E-01
 -1      1235 3.27685E-02 1.70098E-01-7.29515E-02 1.24436E-02 5.78254E-02-1.55539E-01
 -1      1236 1.39426E+00 3.38909E-01 3.14742E-02-3.92965E-01-3.06451E-01 7.29581E-01
 -1      1237 2.97719E+00 6.69468E-01 2.61653E-02-7.82891E-01-2.00160E-01 4.49397E-01
 -1      1238 8.90019E-01 2.59742E-01 1.16986E-01-2.36127E-01-2.73804E-01 8.42395E-01
 -1      1239 1.16403E+00 4.15452E-01-1.54541E-01-3.46721E-01-7.10096E-03-1.80385E-01
 -1      1240 1.51043E+00 3.63086E-01-1.05786E-01-1.59177E-01 5.12858E-02-1.53183E-01
 -1      1241 1.55795E+00 5.11296E-01-2.70828E-01-5.55415E-01 5.14644E-02 3.01620E-02
 -1      1242 2.18919E+00 4.45690E-01 5.08574E-03-3.84116E-01 2.10708E-01-4.06623E-01
 -1      1243 3.20423E-01 5.73426E-01 3.26756E-01 2.14706E-01-2.48667E-01-2.29104E-01
 -1      1244 3.18828E-01 1.06240E-01-1.69194E-01-1.30783E-01-1.03418E-01 7.56660E-02
 -1      1245 6.21690E-01 2.32116E-01 3.91190E-01-9.67795E-03-1.48712E-01 4.69823E-01
 -1      1246-2.45984E-02 3.24574E-01-1.73334E-02 3.89599E-02 4.44950E-02-1.92107E-01
 -1      1247 1.15691E+00 7.15027E-02 2.22404E-01-6.78351E-02-8.33375E-02 8.78183E-01
 -1      1248 2.98873E+00 4.45673E-01-8.43110E-02 1.96951E-03-3.74110E-02 3.90793E-01
 -1      1249 3.38970E+00 5.07070E-01 5.02090E-02-4.90679E-02 5.03869E-02 5.44245E-01
 -1      1250 1.26052E+00 1.84652E-01 1.19497E-01-3.68422E-02-2.14797E-02 9.63738E-01
 -1      1251 1.45587E+00 2.99919E-01-1.97458E-01-1.63482E-01-4.41967E-02-1.71123E-01
 -1      1252 1.62550E+00 3.95876E-01-1.60836E-01 1.25951E-01 1.23515E-03-2.26120E-01
 -1      1253 1.92613E+00 2.94761E-01-2.80717E-01-1.35450E-01 6.79047E-02 4.69634E-02
 -1      1254 2.31774E+00 4.14080E-01-4.21038E-03 6.29283E-02 8.50647E-03-5.80885E-01
 -1      1255 3.12909E-01 7.07704E-01 1.79778E-01 4.56745E-02-2.39401E-02-1.32391E-01
 -1      1256 1.42378E-01 1.27668E-01-9.47659E-03-6.80130E-04 6.10213E-02 4.85347E-02
 -1      1257 9.06448E-01 3.63658E-01 4.08303E-01 6.32777E-02-5.24240E-02 6.42179E-01
 -1      1258-4.32081E-02 1.29385E-01-1.20183E-02-7.25173E-02 2.59989E-02-2.49549E-01
 -1      1259 1.85246E+00 3.51912E-01 4.18640E-02 4.06645E-01-2.52783E-02-5.32644E-01
 -1      1260 6.17941E-01 6.71535E-02 7.93598E-02 1.34161E-01-1.68677E-01-4.25752E-01
 -1      1261 1.04302E+00 4.24097E-01-1.33782E-01 3.41269E-01-2.46476E-02-2.05836E-01
 -1      1262 1.67295E+00 2.89849E-01-2.66608E-01 1.48504E-01 2.22163E-02-3.93451E-02
 -1      1263 2.81200E+00 7.38853E-01-3.06971E-02 6.73225E-01 1.22146E-01 4.00669E-01
 -1      1264 1.32937E+00 3.20440E-01 3.37429E-02 4.05462E-01 3.03242E-01 7.54855E-01
 -1      1265 2.75161E+00 4.71592E-01 8.58923E-02 7.25661E-01 4.14385E-02 4.74534E-01
 -1      1266 1.47408E-01 5.22859E-01 1.72189E-02-1.36211E-01 6.17281E-02-5.88043E-02
 -1      1267 3.81800E-01 1.51857E-01-1.19482E-01 1.24421E-01 1.63025E-01 4.16897E-01
 -1      1268 3.00843E-01 2.01023E-01-1.79855E-02-8.04323E-02-1.11826E-02-3.03817E-01
 -1      1269 4.47808E-01 2.19869E-01-5.69357E-02 2.68706E-01-1.19105E-01-1.42173E-01
 -1      1270 6.84636E-01 5.45046E-01-2.11745E-01 4.11841E-01-1.11729E-01-2.02133E-01
 -1      1271 1.00873E+00 4.55277E-01-2.42748E-01 5.18310E-01-8.16879E-02-1.23874E-01
 -1      1272 1.53895E+00 1.01418E+00-1.39636E-01 9.15309E-01 1.76569E-01 1.10317E-01
 -1      1273 5.03380E-01 2.82281E-01 1.08590E-01 4.32742E-01 3.34700E-01 4.98654E-01
 -1      1274 1.55158E+00 1.03195E+00-4.79087E-02 1.03754E+00 2.39050E-01 3.41167E-01
 -1      1275-5.49302E-03 1.31799E-01-2.40964E-01-2.38477E-01 1.80600E-01-1.22911E-01
 -1      1276 2.21452E-01 2.41031E-01 1.56308E-01 1.10703E-01 1.87943E-01 1.67991E-01
 -1      1277 6.87792E-02 3.19619E-02-1.72195E-02-6.80116E-02-7.47967E-02-2.04979E-01
 -1      1278 4.98568E-01 2.95137E-01-9.24307E-02 3.74916E-01 1.64447E-01 7.70362E-02
 -1      1279 3.90682E-01 3.78430E-01 2.12433E-02 6.55698E-01-3.65799E-01-1.28491E-01
 -1      1280 1.79098E-01-3.15800E-02-2.47633E-02 1.99912E-01 9.42811E-03-1.99149E-01
 -1      1281 2.12312E-01 4.58044E-01 1.79636E-01 4.18127E-01 4.51018E-01 1.96940E-01
 -1      1282 3.50955E-01 8.30402E-01-1.09057E-01 7.11194E-01-1.28946E-01 9.76044E-02
 -1      1283 2.35152E-01 1.72111E-01-4.51747E-03 2.89722E-01 2.20512E-01 3.17560E-01
 -1      1284 5.73594E-01 7.21779E-01-8.31288E-02 6.83539E-01 1.75430E-01 5.52408E-02
 -1      1285 4.30911E-01 4.72476E-01-1.26572E-01 4.48010E-01-1.60619E-01-8.89680E-02
 -1      1286 5.46827E-01 2.11441E-01 2.24847E-01-1.40955E-01 2.44384E-01-4.18190E-01
 -1      1287 8.91029E-02 6.40860E-02 4.52195E-02-1.07128E-02 2.04221E-01-1.08554E-01
 -1      1288 3.52287E-02-3.91403E-02-5.88174E-02-5.13252E-02 8.24426E-02 2.25936E-02
 -1      1289 1.09442E-01 8.55514E-02 1.85875E-02 5.27162E-02-2.00928E-01-1.56351E-01
 -1      1290 5.71440E-02 8.39966E-02 2.63390E-03 2.82191E-01 2.50006E-01 6.67696E-02
 -1      1291-4.33833E-03-2.34770E-02 6.57430E-02 1.39658E-01-3.69782E-02-7.56206E-02
 -1      1292-1.35920E-01-7.87284E-02 9.32128E-02 5.79371E-01-1.47106E-01-3.22154E-02
 -1      1293-7.21458E-02-2.03056E-02-5.17749E-02 2.25846E-01 2.20203E-02-1.14295E-01
 -1      1294-1.19891E-01-6.61724E-02-8.92771E-02 2.15197E-01-1.14685E-01 1.96208E-01
 -1      1295-2.22370E-02-6.99637E-02-1.08151E-01 3.85784E-01 1.53263E-01 4.59731E-02
 -1      1296-2.17414E-02-5.86505E-02-3.87404E-03 3.00916E-01-1.05778E-01 6.80699E-03
 -1      1297 6.26614E-03 5.74350E-02 3.46354E-02 2.15647E-01-1.06885E-01 1.89447E-02
 -1      1298 3.42637E-02-1.27381E-01-2.67676E-01-1.32160E-01 1.27424E-01-6.00060E-01
 -1      1299-1.38181E-01-7.92957E-02 6.21340E-02-1.48885E-03 1.45204E-01-3.10976E-02
 -1      1300-4.93839E-02-6.47063E-02-9.54539E-02 9.21093E-02-3.22298E-02 7.95516E-02
 -1      1301 5.96343E-02 1.80622E-02 7.03384E-02-6.55677E-02-2.76337E-02-7.21696E-02
 -1      1302-2.22890E-01-4.00890E-01 5.98790E-02 2.93799E-01-1.88706E-01 7.07642E-02
 -1      1303-5.19930E-01-7.35000E-01 8.27027E-02 6.16480E-01-1.85428E-01 7.69846E-02
 -1      1304-2.35818E-01-3.67261E-01-9.44404E-03 3.56390E-01-3.37300E-01 1.85839E-01
 -1      1305-1.39382E-01-1.73788E-01-6.58821E-02 2.75136E-01-1.75269E-01 2.33140E-01
 -1      1306-3.33824E-01-8.25741E-01 6.59497E-02 6.41949E-01 8.92626E-02 1.40026E-01
 -1      1307-2.42482E-01-3.54530E-01 1.51524E-01 5.55545E-01-1.81364E-01-1.27636E-01
 -1      1308-1.29576E-01-1.23593E-01-2.08357E-01 4.29047E-01 2.27100E-01-1.04520E-01
 -1      1309-1.26425E-01-2.30070E-01-2.46836E-01-1.12430E-01-6.73651E-02-3.27351E-01
 -1      1310-1.45636E-01-2.14151E-01-6.38191E-02 7.11909E-02-2.74394E-01 6.28806E-02
 -1      1311 1.50331E-02-2.60032E-02-5.48241E-02-8.87854E-02-2.83561E-02-1.97257E-01
 -1      1312-1.28814E+00-5.39854E-01 4.67313E-01 6.05428E-01 2.30765E-01-7.14348E-02
 -1      1313-5.41257E-01-9.53889E-02-1.48724E-01 2.95890E-01 1.47231E-01-2.33822E-01
 -1      1314-7.03338E-01-6.51842E-01 2.49634E-01 4.79178E-01-5.65866E-02 1.05046E-01
 -1      1315-1.11246E+00-4.84705E-01 2.45969E-01 5.86326E-01 4.32121E-02-1.00915E-01
 -1      1316-7.33590E-01-4.94464E-01-2.20095E-02 4.42511E-01 1.40994E-01-2.09262E-01
 -1      1317-5.49723E-01-2.60385E-01-2.97485E-01 3.31011E-01-3.54038E-01 5.28432E-01
 -1      1318-1.59448E+00-1.07204E+00-1.22994E-01 1.03982E+00-1.85267E-01 1.70832E-01
 -1      1319-5.98157E-02-7.86455E-02-1.97494E-01-5.96420E-02 1.63947E-01-4.56931E-01
 -1      1320 3.78409E-03-1.79838E-01-3.82407E-01-2.11156E-01-1.28280E-01-2.67211E-01
 -1      1321-3.43853E-01-2.81014E-01-2.64534E-01 1.42203E-01-2.36235E-01 3.66774E-01
 -1      1322-5.73421E-02-1.65919E-01 9.54220E-02-7.65885E-02 8.32331E-02-9.80845E-02
 -1      1323-1.30298E-01-1.14523E-01-9.78192E-02-2.12231E-02 5.97647E-02-2.32640E-01
 -1      1324-2.12932E+00-4.69502E-01 5.70579E-02 4.44793E-01 2.09917E-01-4.12465E-01
 -1      1325-4.88787E-01-7.22747E-02-1.24565E-01 5.23105E-02 6.85937E-02-4.01467E-01
 -1      1326-1.45736E+00-5.33073E-01 2.64916E-01 4.77388E-01-2.51990E-02 4.50824E-02
 -1      1327-1.56341E+00-2.68727E-01 1.89550E-01 1.51928E-01-5.44691E-02-2.06518E-02
 -1      1328-9.19552E-01-3.78627E-01 1.11112E-01 2.80170E-01 4.89371E-03-1.99067E-01
 -1      1329-8.79115E-01-6.61368E-02-2.88259E-01 3.23558E-01-2.55778E-01 7.70719E-01
 -1      1330-2.96330E+00-6.59109E-01 1.35194E-02 7.23286E-01-1.79156E-01 4.26452E-01
 -1      1331 3.33968E-02-1.44106E-01-5.20613E-02-1.69803E-01-5.70019E-03-2.36239E-01
 -1      1332-3.48279E-01-4.99645E-01-2.71156E-01-9.02526E-02-2.29932E-01-2.20734E-01
 -1      1333-5.93678E-01-2.11393E-01-3.16036E-01 4.24597E-02-2.15604E-01 5.11366E-01
 -1      1334 1.57923E-01-2.31355E-01 3.30764E-03-4.68592E-02 5.50878E-02-1.50202E-01
 -1      1335-9.12723E-02-1.73396E-01-9.23619E-02-1.70064E-01-2.76999E-02-2.30382E-01
 -1      1336 4.91497E-01 9.83539E-01 1.32278E-01 3.02849E-01 7.61669E-01 7.03069E-01
 -1      1337 1.10762E-02-7.91041E-02 2.55820E-01-1.15111E-01 9.32789E-01 6.97482E-01
 -1      1338-9.34372E-02-4.54819E-01-1.22611E-01-9.11021E-02 7.69770E-01 8.07422E-01
 -1      1339-2.23095E-01-1.24482E-01-3.20512E-01-1.79787E-01-2.41119E-01 1.42351E+00
 -1      1340 1.12350E+00 5.04555E-01 5.50935E-01-5.32437E-01 7.07495E-03 1.75139E+00
 -1      1341-1.81881E+00-5.79125E-01-5.22344E-01-3.71064E-01-1.83340E-01 1.98246E+00
 -1      1342-3.17818E+00-1.52345E+00-1.41049E+00 3.06872E-01-4.14753E-01 2.43286E+00
 -1      1343 0.00000E+00 0.00000E+00 0.00000E+00 0.00000E+00 0.00000E+00 0.00000E+00
 -1      1344 5.10930E-02 3.43030E-01-1.50843E-01 3.51867E-02-8.31541E-02 3.63191E-02
 -1      1345 3.29238E-01 7.41588E-01 3.21248E-01 1.13643E-01 5.55526E-01 2.20254E-01
 -1      1346-1.90954E-02-2.44652E-01-5.63515E-01 5.15076E-02-4.98898E-01 2.11677E-01
 -1      1347 1.31317E+00 3.92132E-01 1.59005E-01 2.31941E-02 6.60402E-01 1.48671E+00
 -1      1348-1.03473E+00-6.31028E-01-4.44565E-01-4.61654E-01 5.65689E-01 1.62880E+00
 -1      1349-1.95055E+00-6.95721E-01 6.61335E-02-1.40640E-01-1.70226E-01 8.27728E-01
 -1      1350 1.73297E-02-6.93572E-02 1.46479E-01 7.56320E-02-2.60313E-01 9.58410E-02
 -1      1351 4.29603E-01 9.62657E-01 4.17678E-01-1.30537E-01-6.58493E-01 1.61577E-01
 -1      1352-1.69320E-02 1.09392E-01-2.60250E-02-1.53324E-02-3.38215E-01 1.75371E-01
 -1      1353 2.26254E+00 1.06121E+00 9.97126E-01-3.45650E-01-3.72287E-01 1.95772E+00
 -1      1354 1.19681E+00 4.36389E-01 4.03207E-02-2.81106E-01-9.17258E-01 1.28134E+00
 -1      1355-1.04511E+00-9.61769E-01-6.08733E-01 5.19979E-01-7.82562E-01 1.40400E+00
 -1      1356-2.54180E-01-1.74447E-01 8.64816E-01 3.85293E-01 3.54980E-02 8.26278E-01
 -1      1357-1.71373E+00-2.90019E-01-9.23372E-01 3.40542E-02 6.18237E-01 7.54156E-01
 -1      1358-2.42281E+00-8.22526E-01-6.38283E-01 4.79544E-01 1.39934E-01 7.20500E-01
 -1      1359-7.62141E-01-6.74950E-01-5.55095E-01 2.31530E-01-7.98555E-01 1.01297E+00
 -1      1360 1.73059E+00 3.00521E-01 8.54247E-02 1.62965E-01-2.88788E-01 4.88064E-01
 -1      1361 1.63077E+00 2.00699E-01-1.47492E-01 1.62965E-01-3.22014E-01 4.26723E-01
 -1      1362-4.65555E-01-5.25964E-01 4.81492E-01-5.31053E-01-9.67361E-02 4.56672E-01
 -1      1363 7.93858E-01 6.50752E-01-9.33494E-01 6.12668E-01-2.77166E-01 2.53778E-01
 -1      1364-1.08419E+00 1.72919E-01 1.37049E-02 2.40736E-02 7.27281E-01 9.62452E-01
 -1      1365 5.67815E-01 1.31363E+00 2.71917E-01 5.32922E-01 5.69932E-01-1.19821E-01
 -1      1366-8.13215E-01-1.53923E+00-7.05735E-01-3.28832E-01 1.06924E+00 5.47513E-01
 -1      1367-1.86841E-03 1.41374E-01-1.53632E-01 4.04661E-02 5.87005E-02-4.09242E-02
 -1      1368 1.44000E-02 1.07429E-01-1.40734E-02-2.44422E-02-3.97547E-02 3.09114E-02
 -1      1369-5.56388E-02-1.01709E-01-3.20394E-02 3.49246E-02 6.35302E-02-1.01471E-02
 -1      1370-5.89331E-02-1.24685E-01-5.50855E-02 1.81787E-02 9.19223E-02-3.44650E-02
 -1      1371-1.55945E-01 3.15773E-01 6.90051E-03-3.33013E-01 1.51524E-01 1.12822E-01
 -1      1372 2.74308E+00 1.21243E+00 1.18665E+00-2.18417E-01-1.41837E-01 2.46944E+00
 -1      1373-3.89964E-02 1.02629E-01 3.79221E-01 1.52798E-01-2.87564E-02 1.09096E+00
 -1      1374-9.04435E-01-4.21521E-01-5.93630E-01-3.65888E-01-1.50795E-01 1.57327E+00
 -1      1375 2.13910E+00 2.07133E+00 1.26313E+00-8.51841E-01-1.31358E+00 1.60058E+00
 -1      1376-3.18343E-02-1.17228E-01 4.98527E-01 1.68270E-01-8.94810E-01 1.27765E+00
 -1      1377 2.88955E-01 2.90922E-01 1.73963E-01-1.68098E-01-1.41375E-01 3.50279E-01
 -1      1378 3.91986E-03-1.20942E-01 1.43331E-01-1.14036E-02-1.35736E-01 3.85883E-02
 -1      1379 4.07898E-02 5.35693E-02 2.83077E-02 2.34056E-02-1.13591E-01-3.66806E-02
 -1      1380 1.31663E-01 8.01656E-01-4.88753E-01-2.18944E-01 2.82939E-01 3.54904E-01
 -1      1381-1.22013E+00-1.92615E-01 2.97367E-02 2.30914E-01 1.92834E-01 1.73980E+00
 -1      1382 3.13052E-01 2.61821E-01 2.83118E-02-2.29546E-01-8.52066E-01 5.06465E-01
 -1      1383-2.59130E-01-6.59173E-01-3.29893E-01 3.99319E-02-1.05192E+00 5.89310E-01
 -1      1384-6.58240E-02-1.65944E-01 1.44144E-01 1.43647E-01-7.58162E-01 3.02565E-01
 -1      1385 7.22227E-01 2.93279E-01 3.04652E-01-4.92675E-02 4.99429E-02 5.88355E-01
 -1      1386 4.72524E-01 1.06671E+00 4.13354E-01-5.91385E-01-3.16887E-01 5.04029E-01
 -1      1387-5.66773E-01-4.39598E-01 9.34476E-01 5.37230E-01 2.56736E-01 2.25538E-01
 -1      1388-1.14951E+00-7.01005E-01-5.55154E-01 3.17928E-01-7.03811E-01 9.55290E-01
 -1      1389 6.62262E-02-1.48141E-02 1.24297E-01 1.52203E-02-9.24479E-01 7.56392E-01
 -1      1390-7.55141E-02-1.25838E-01-4.18583E-02-3.03246E-02 2.43670E-02 1.18277E-01
 -1      1391-4.41588E-01 1.88885E-01-7.92360E-02-2.93092E-01 9.79295E-01 7.56374E-01
 -1      1392-3.47051E-01-5.22520E-01 9.57815E-01-4.53142E-01-4.11032E-02-3.66162E-02
 -1      1393 0.00000E+00 0.00000E+00 0.00000E+00 0.00000E+00 0.00000E+00 0.00000E+00
 -1      1394 2.49113E-02 4.34545E-01 3.02026E-01-5.49656E-02 7.83950E-01 6.21323E-01
 -1      1395 1.53802E+00 3.65044E-01 1.88840E-01-3.89351E-01-9.24317E-02 1.38647E+00
 -1      1396 2.67920E-01 6.27504E-01 2.09304E+00-1.81969E-01 2.84828E-01 2.85370E-01
 -1      1397-1.66100E+00-4.48451E-01 4.63147E-01-7.75568E-02 2.84216E-01 4.55262E-01
 -1      1398-6.95900E-01-2.63785E-01 1.95270E-01-5.42919E-01-4.48152E-03 1.41027E+00
 -1      1399-1.21128E-01-3.85326E-01-1.94181E-02 5.83542E-02-5.75467E-01 2.19304E-01
 -1      1400 7.63797E-01 1.62689E+00 6.57352E-01 5.24551E-01 1.01583E+00 1.12525E+00
 -1      1401 6.81020E-01 3.94507E-01-1.94342E-02 3.64913E-01 5.15077E-01 1.05483E+00
 -1      1402 8.12732E-01 2.59950E-01 3.76077E-01 5.36578E-02-7.78036E-01 2.08117E+00
 -1      1403-2.40559E+00-1.00743E+00 8.39227E-04 5.92928E-01-4.28410E-01 4.92822E-01
 -1      1404-8.15362E-01 1.40101E-01-2.32850E-01-2.08545E-02 7.56935E-01 6.23462E-01
 -1      1405-4.09281E-01-3.29699E-01-3.27823E-01-3.37298E-01 3.24811E-01 2.36247E+00
 -1      1406 9.53086E-02 3.29032E-01-3.62417E-02 2.07777E-02-2.84000E-02 4.86289E-02
 -1      1407-1.45453E-01-3.94670E-02-8.79071E-02 2.87197E-02-4.89911E-02 2.42119E-02
 -1      1408 1.54487E-01-1.66847E-01 4.44912E-01-8.77453E-02 6.73297E-02 2.47784E-01
 -1      1409-9.36342E-01-5.76295E-01 2.37422E-03-8.28850E-02-3.37648E-01-1.03337E-01
 -1      1410-1.51386E+00-1.22557E+00-8.96299E-01-3.83797E-02-5.42124E-01-3.15191E-01
 -1      1411 6.19987E-01 4.72939E-01 5.56568E-01-2.29466E-01 1.52302E-01-7.93230E-01
 -1      1412 1.78079E-01-2.18590E-01-7.43202E-01-3.91612E-01-2.13065E-01-8.55096E-01
 -1      1413-3.75941E-01-3.78060E-01-4.24201E-01-2.05907E-01-9.27436E-02-6.61999E-01
 -1      1414-3.74521E-02 2.25207E-01 4.95927E-01-3.01747E-01 2.65459E-01-8.64677E-01
 -1      1415 7.51474E-01 5.38915E-01 4.98645E-01-1.73773E-01 1.26797E-02-5.01477E-01
 -1      1416-1.46279E+00-9.47584E-01-8.49256E-01 2.09692E-01 3.58520E-01-4.24905E-01
 -1      1417-1.52332E+00-9.50336E-01-9.25462E-02 1.64492E-01 4.33045E-01-9.27277E-02
 -1      1418-1.41822E+00-9.35780E-01-1.08976E+00-8.62049E-02 9.79208E-02-6.34533E-01
 -1      1419-1.21127E+00-2.54872E-01 5.03970E-01-5.31279E-02 4.76065E-01-5.84221E-01
 -1      1420 7.28525E-01 1.08555E+00 2.85918E-01 8.28972E-02-1.73217E-01-4.93766E-02
 -1      1421 1.32875E+00 1.58859E+00 6.75050E-01 8.83426E-02-2.64060E-01-3.44628E-02
 -1      1422 8.38099E-01 6.40840E-01-5.89203E-02-1.44281E-01 2.51832E-01-1.68966E-01
 -1      1423 1.39355E+00 1.23020E+00 9.52287E-01 1.02614E-02 4.50527E-01-4.10600E-01
 -1      1424-1.07815E+00-7.37444E-01-1.04230E+00 6.92369E-02-2.08799E-01-5.88697E-01
 -1      1425-1.19973E+00-3.54231E-01-3.17444E-02 7.79667E-02-4.08744E-01-5.56428E-01
 -1      1426 7.98637E-01 6.78895E-01 1.06311E+00 9.75997E-02 2.56400E-01-5.12186E-01
 -1      1427 8.55308E-01 1.47914E-01-3.21058E-01-3.20878E-02 5.12167E-01-5.83804E-01
 -1      1428-8.23844E-01-7.87701E-01 5.59663E-02 1.89914E-01 8.61904E-02 6.55076E-03
 -1      1429-1.52275E+00-1.39535E+00-5.65603E-01-1.53204E-01 1.28851E-01-8.41269E-02
 -1      1430 9.27225E-01 1.30664E+00 5.30827E-01-2.57729E-01 2.25602E-01 3.01909E-01
 -1      1431 1.38214E+00 1.41505E+00 6.19746E-01-1.66549E-01 2.12296E-01-1.62041E-01
 -1      1432-7.50811E-01-9.75117E-01-6.27016E-01-5.55073E-02-1.62034E-01 4.42964E-03
 -1      1433-1.17759E+00-1.39919E+00-8.15174E-01-4.02074E-03-3.60481E-01 8.52977E-03
 -1      1434 4.97821E-01 3.46927E-01 6.22925E-01 2.83077E-01-1.18371E-01-7.42427E-01
 -1      1435 1.50011E-02-4.91322E-01-9.12269E-01 3.80760E-01 3.46076E-01-7.21458E-01
 -1      1436 6.24821E-01 5.05964E-01 4.01446E-01 1.46015E-01 1.00379E-01-5.09918E-01
 -1      1437 9.92615E-01 6.98405E-01 8.86809E-01-8.12227E-03-2.58117E-01-5.65247E-01
 -1      1438 7.95595E-01 2.51332E-01-1.39585E-01 4.32990E-02-5.11394E-01-4.55799E-01
 -1      1439-5.57777E-01-5.35422E-01-4.62602E-01 2.85090E-01 2.98051E-02-7.06182E-01
 -1      1440-7.02467E-02 3.38350E-01 6.89164E-01 3.75583E-01-3.32419E-01-9.21485E-01
 -1      1441-1.90880E+00-1.34027E+00-2.00917E+00-2.39233E-01 1.96739E-01-1.23805E+00
 -1      1442-1.51222E+00-2.36502E-01 4.35130E-01 7.71368E-03 7.18622E-01-8.75550E-01
 -1      1443-8.59132E-01-5.77810E-01-5.58256E-01-2.08235E-01-5.44246E-02-4.76511E-01
 -1      1444 9.74353E-01 6.39426E-01 2.26190E-01 1.69767E-01-2.56869E-01-1.58217E-01
 -1      1445 1.90540E+00 1.54543E+00 1.30217E+00 9.19317E-02-5.61944E-01-5.08455E-01
 -1      1446 1.49425E+00 1.18365E+00 1.17150E+00 2.25084E-02 3.26729E-03-5.16945E-01
 -1      1447 1.29784E+00 1.06740E+00 1.14032E+00 1.67436E-01-7.04933E-02-5.25987E-01
 -1      1448-1.29453E+00-1.05692E+00-1.05020E+00-1.42331E-01-6.60003E-02-5.33924E-01
 -1      1449 2.34661E+00 1.70657E+00 1.38982E+00 1.15280E-02 3.87991E-02-5.60256E-01
 -1      1450-1.55075E+00-1.08402E+00-1.83446E+00 2.12656E-01-2.35604E-01-1.01932E+00
 -1      1451-1.73221E+00-3.84602E-01 9.62086E-02 8.82752E-02-5.97643E-01-6.75235E-01
 -1      1452 2.12298E+00 1.60258E+00 1.24461E+00-7.31179E-02-9.70958E-02-6.00249E-01
 -1      1453-1.11038E+00-6.87353E-01-4.67245E-01 3.01291E-01 9.34350E-02-4.27202E-01
 -1      1454-1.20216E+00-9.51268E-01-1.17272E+00 1.46707E-01 3.82079E-02-5.47304E-01
 -1      1455 2.03352E+00 1.88870E+00 1.03246E+00-2.32103E-01 2.02956E-02-2.45626E-01
 -1      1456 2.45454E+00 2.61181E+00 2.00291E+00-1.42659E-01 4.20727E-01-5.10057E-01
 -1      1457-8.01606E-04-1.64406E-01-1.76175E-01 2.96345E-01 1.19836E-02-4.49641E-01
 -1      1458 1.08903E+00 9.23429E-01 1.78095E+00-5.07025E-01 2.11899E-01-1.51826E+00
 -1      1459 5.10579E-01-3.66714E-01-1.07479E+00-5.00314E-01-5.52028E-01-1.39058E+00
 -1      1460 9.87624E-03 3.99360E-02 3.94644E-02-2.53292E-01 4.48129E-02-4.70569E-01
 -1      1461-2.07309E+00-1.50345E+00-1.26515E+00-8.57612E-02 4.86941E-02-6.18841E-01
 -1      1462 1.17304E+00 1.35077E+00 2.56576E+00 1.76682E-01 2.74658E-01-1.12993E+00
 -1      1463 1.47257E+00 1.01491E+00-1.71076E-01-2.44008E-01 7.54598E-01-2.92893E-01
 -1      1464 1.95610E+00 1.77832E+00 1.79064E+00-6.50387E-02 6.54343E-01-6.82984E-01
 -1      1465-8.40735E-01-2.01720E-02 3.78122E-01 7.76231E-02-8.12691E-02-3.88703E-01
 -1      1466-5.89698E-01 6.15580E-02 4.98295E-01-7.23879E-02 1.60202E-01-3.92797E-01
 -1      1467-1.69713E+00-1.41250E+00-1.32822E+00 2.33804E-02-1.13637E-01-4.79528E-01
 -1      1468-1.79431E+00-1.78742E+00-1.05524E+00-2.25802E-01-5.76876E-03 2.85203E-04
 -1      1469-2.00417E+00-2.26280E+00-1.77934E+00 1.67735E-01-5.65969E-01-2.85165E-01
 -1      1470 1.44929E+00 1.07566E+00 1.21928E+00-1.41518E-01 7.40790E-02-5.32588E-01
 -1      1471 1.07362E+00 6.06219E-01 1.51721E+00-2.62548E-01-3.62621E-01-7.76417E-01
 -1      1472-1.88032E+00-1.34731E+00-1.28698E+00 4.49066E-02 6.00758E-02-6.79025E-01
 -1      1473 1.97751E+00 1.10353E+00 2.95449E-01 2.43178E-01-4.20429E-01-4.25490E-01
 -1      1474 2.54178E+00 1.93344E+00 1.89757E+00 6.14959E-02-5.56051E-01-8.99089E-01
 -1      1475-1.10621E+00-1.46757E+00-2.63329E+00 2.33182E-01-3.93788E-01-1.07403E+00
 -1      1476-1.63364E+00-1.16580E+00-1.57040E-01-2.35163E-01-6.71105E-01-2.65494E-01
 -1      1477-2.33874E+00-1.77638E+00-1.60767E+00-1.47943E-01-7.21838E-01-7.23188E-01
 -1      1478-1.48172E-01-3.16891E-01-1.60265E+00-2.05606E-01-3.63982E-01-5.87660E-01
 -1      1479-9.41483E-01-1.12032E+00-2.85503E+00-8.17586E-03-2.86330E-01-1.05261E+00
 -1      1480 1.63015E+00 1.19910E+00 1.82949E+00-1.67108E-01-2.38088E-01-9.89755E-01
 -1      1481 1.48234E+00 4.01798E-01-1.86069E-01-7.48270E-02-6.63569E-01-6.20828E-01
 -1      1482-8.82542E-01-8.77224E-01-1.45822E+00 6.23992E-01 1.40185E-01-1.37416E+00
 -1      1483-2.36406E-01 4.16099E-01 1.16461E+00 5.20082E-01-6.33403E-01-1.26543E+00
 -1      1484 7.99895E-01 7.09761E-01 2.31475E+00-7.03371E-02 4.91537E-01-8.81911E-01
 -1      1485-6.81558E-01-6.32801E-01-1.47522E+00-4.33607E-01-1.89851E-01-1.26222E+00
 -1      1486-1.62679E-01 2.78458E-01 1.16344E+00-4.85272E-01 5.38152E-01-1.15689E+00
 -1      1487-7.41621E-01-7.32529E-01-2.44830E+00-6.01175E-02-5.73641E-01-8.11138E-01
 -1      1488-2.62179E+00-1.84486E+00-1.84126E+00 7.46783E-02 4.20566E-01-9.00419E-01
 -1      1489-2.16246E+00-1.35661E+00-4.55198E-01 3.80978E-01 4.80677E-01-3.26811E-01
 -1      1490 1.41458E+00 1.33881E+00 2.81621E+00 2.48749E-01 3.80181E-02-1.30277E+00
 -1      1491 8.42537E-01 2.71954E-01 4.24782E-01-1.02455E-01-7.47437E-03-5.13113E-01
 -1      1492-1.16798E+00-1.38010E+00-2.97347E+00-3.13814E-02 4.47190E-02-1.20868E+00
 -1      1493 1.09071E+00 3.21942E-01 6.21511E-01 1.58710E-01 1.35229E-01-5.23316E-01
 -1      1494-8.92220E-01-9.58125E-01-2.66880E+00-1.35404E-02 2.86777E-01-9.69846E-01
 -1      1495-2.03383E+00-1.91018E+00-5.18832E-01 6.03992E-02 2.34697E-01-7.88426E-02
 -1      1496-2.03298E+00-2.24697E+00-1.26460E+00-1.08709E-01 2.97408E-01-1.48196E-01
 -1      1497 1.03295E+00 9.48941E-01 1.99149E+00 5.51074E-01-1.53166E-01-1.53158E+00
 -1      1498 3.27628E-01-7.09714E-01-1.53498E+00 4.86200E-01 8.13878E-01-1.30627E+00
 -1      1499-8.42996E-01-8.40558E-01-2.49884E+00 1.44265E-01 5.56125E-01-9.52847E-01
 -1      1500 5.02483E-01 2.97865E-02-4.84931E-01-6.29475E-02-1.12604E-01-2.68747E-01
 -1      1501 1.05219E+00 1.36321E+00 2.85225E+00 5.87009E-03-9.05650E-02-1.12241E+00
 -1      1502 1.05400E+00 1.19657E+00 2.84728E+00-2.01110E-02 4.43509E-01-1.12609E+00
 -1      1503 2.14605E+00 2.24149E+00 8.65860E-01 2.24398E-01-1.61439E-01-1.10040E-01
 -1      1504 2.58069E+00 2.80502E+00 1.89612E+00 2.33451E-02-2.68863E-01-2.66440E-01
 -1      1505 9.32778E-01 1.24611E+00 2.28648E+00-1.91961E-01-1.89342E-01-9.36011E-01
 -1      1506 1.72370E+00 1.13441E+00 1.75772E+00 1.65574E-01 2.57642E-01-9.74271E-01
 -1      1507 1.39871E+00 3.40860E-01-4.25878E-01 3.60694E-02 7.76167E-01-7.33471E-01
 -1      1508-9.50390E-01-1.24180E+00-2.34355E+00-2.15248E-01 7.55404E-02-1.04181E+00
 -1      1509 1.64296E-01 3.77163E-01 1.71556E+00-1.67086E-01 4.81757E-01-4.90713E-01
 -1      1510-6.69163E-01-3.09402E-01-2.22908E-01-2.02433E-02 7.67934E-02-3.24516E-01
 -1      1511 3.20622E-01 4.59569E-01 1.77191E+00 1.64576E-01-5.19422E-01-5.49367E-01
 -1      1512-9.82372E-01-7.54941E-01-1.21879E+00 2.59266E-01-1.25163E-01-6.22653E-01
 -1      1513 1.08466E+00 1.00224E+00 1.51581E+00 2.15890E-01 3.06686E-01-6.78292E-01
 -1      1514-1.11952E+00-7.66234E-01-1.15423E-01-7.31823E-02-1.71111E-01-2.65788E-01
 -1      1515-1.08195E+00-9.09505E-01-1.69517E+00-2.52768E-01 3.34693E-01-7.99277E-01
 -1      1516-1.34084E+00-1.40151E+00-2.97253E+00 2.84027E-02 1.13856E-02-1.30633E+00
 -1      1517 7.64760E-01 7.00363E-01 2.34114E+00 9.46217E-02-4.69487E-01-9.00611E-01
 -1      1518-8.58862E-01-4.42003E-01-4.99948E-01 2.02400E-01-1.98693E-01-3.59191E-01
 -1      1519 9.86978E-01 1.11282E+00 2.92398E+00 1.18852E-02-4.38625E-01-1.09115E+00
 -1      1520 4.26314E-01-1.74005E-02-6.16638E-01 3.95704E-02 1.81365E-01-3.18918E-01
 -1      1521-1.69018E-01-4.67905E-01-1.92906E+00 1.64137E-01 5.02329E-01-5.66247E-01
 -1      1522 3.62796E-01 4.16226E-01 7.69016E-02 1.16279E-01-7.06657E-02 1.94669E-01
 -1      1523 1.86153E-01 3.45470E-02 3.24502E-02-1.66672E-02 5.42874E-02 3.12412E-02
 -1      1524 1.27627E+00-1.33207E-02-2.01853E-01 6.78503E-03 5.75381E-02 8.89682E-01
 -1      1525 7.86762E-03-3.39474E-01-2.57122E-02 3.96928E-02 1.67305E-01 7.52472E-02
 -1      1526 7.37388E-02-1.02753E-01-6.12756E-02 4.70505E-02 5.95768E-02-1.81531E-02
 -1      1527 7.16067E-02 5.62925E-03 5.33052E-03 1.28777E-01 7.19863E-02 4.30658E-02
 -1      1528 2.41755E-01 1.33368E-01 1.53929E-02-3.72107E-02-4.32876E-02 1.09464E-01
 -1      1529 3.02489E-01 1.54778E-01-7.08162E-02 2.03881E-01 2.07633E-01 7.31899E-01
 -1      1530 8.51342E-03-1.31266E-01-2.06112E-02 4.48347E-02-2.42364E-01 2.27791E-01
 -1      1531-2.04755E-01 1.31906E-01-2.06783E-01 2.36855E-01 3.94798E-01 5.59812E-01
 -1      1532 2.77662E-02 1.51371E-01 6.74377E-01 7.74782E-02-5.69739E-01 4.95545E-01
 -1      1533-9.70980E-02-3.72038E-02 3.24507E-01-6.93566E-02 1.21816E-01 3.15547E-02
 -1      1534 1.81760E-01 3.00241E-01-9.43174E-02-2.92755E-02 2.98019E-01 1.92460E-01
 -1      1535-9.19378E-01-3.75400E-01 1.37374E-01 4.63053E-02 1.93779E-01 2.82700E-01
 -1      1536 5.80211E-02 9.18944E-02-2.75417E-01 2.83503E-02-3.73538E-01 4.77738E-01
 -1      1537 1.25199E-01 4.98234E-02 1.40048E-01 3.81616E-01-1.31475E-02-3.34182E-01
 -1      1538 6.83284E-02-4.56688E-03 6.32352E-02-9.62284E-02-1.16055E-01 1.13881E-01
 -1      1539-4.70185E-02 5.56892E-02 7.09719E-03 5.74653E-02-5.34641E-02 3.08216E-02
 -1      1540 9.34407E-02 2.33004E-01 2.12747E-01-3.73885E-03-2.69698E-01 1.24259E-01
 -1      1541-3.45507E-02 6.95568E-02-1.68212E-01-1.95118E-01-3.44313E-01 8.03146E-01
 -1      1542 1.02461E+00 2.82233E-01 6.59441E-02-5.39400E-02 6.84677E-02-1.63457E-02
 -1      1543-1.40036E-01 2.11412E-01 1.11526E-01-1.19143E-02-3.57556E-01 1.64254E-01
 -1      1544 4.65525E-02-1.07530E-01-1.93845E-01 5.39552E-02 1.53070E-01 5.87380E-01
 -1      1545-2.84819E-01-1.63520E-02-7.30846E-02 1.12482E-01 1.68227E-02 8.85585E-01
 -1      1546-3.48739E-01-8.60710E-02 1.05682E-01 6.97129E-02 3.35019E-01 5.17650E-02
 -1      1547 5.92777E-02 2.62952E-01-6.15522E-02 1.64969E-01 3.21956E-01 3.18716E-01
 -1      1548 7.13224E-01 4.71395E-01-1.41625E-02 3.02384E-01-1.49112E-02 3.46542E-02
 -1      1549 2.75729E-01-2.18529E-01 1.00943E-02 1.90359E-01 1.14834E-01 3.82875E-01
 -1      1550-3.91766E-01-1.87031E-01-6.54933E-02 2.06057E-02-9.93841E-02 2.15097E-01
 -1      1551 4.86548E-02-1.99394E-02 8.86632E-02 5.06142E-02 7.08927E-02 7.68795E-01
 -1      1552-1.22633E-01 7.88628E-02 6.38132E-03 1.65149E-01 2.60971E-01 4.34453E-01
 -1      1553 2.24911E-01-2.62812E-01-4.73569E-01 5.48571E-02 3.87678E-01 9.00776E-01
 -1      1554-3.24039E-01-1.31386E-01-4.72903E-01-7.96265E-02-4.25801E-01 1.05643E+00
 -1      1555 5.14654E-01 2.67742E-01-2.35319E-01-2.34212E-02 1.00163E-01 9.41316E-02
 -1      1556 6.10533E-02 7.93829E-02 5.28480E-02-6.51717E-03 3.18380E-01 1.46032E-01
 -1      1557-4.51513E-02 9.82084E-03-1.32536E-02-1.16201E-02 4.35636E-01 3.74119E-01
 -1      1558 2.20249E-01 2.61300E-01-1.30287E-01-2.69232E-01-2.31590E-01 6.85991E-01
 -1      1559 4.93594E-01 2.19155E-01-3.17956E-02 8.62946E-03 4.59753E-01 2.73327E-01
 -1      1560-1.69222E-01-4.40573E-02 4.34449E-02 1.18665E-02 7.34988E-03 1.31056E-01
 -1      1561 2.05782E-01 3.52463E-01 4.41640E-02 3.36127E-01 2.50875E-02-4.40664E-02
 -1      1562-4.04016E-01-2.45773E-02-3.52901E-01-2.80756E-01 4.40945E-01 7.46622E-01
 -1      1563 2.21221E-02 4.80175E-02 6.94422E-02 1.70951E-01-2.46000E-02 2.07970E-02
 -1      1564 6.77878E-02 2.47998E-02-9.96415E-02-5.48372E-03-1.23223E-02-4.40799E-01
 -1      1565-2.27774E-02 2.63134E-01-2.33745E-01-4.25454E-01-4.44826E-01 2.85379E-01
 -1      1566-1.36669E-01 2.02373E-02 3.59298E-02 7.63912E-02 3.28917E-01 1.79632E-01
 -1      1567-1.68356E-01-1.30424E-01-1.82541E-02 8.68793E-02 2.35208E-01 2.55109E-01
 -1      1568-6.37598E-02 2.11950E-01-2.79098E-02 1.65093E-01 5.86793E-01 3.94298E-01
 -1      1569 4.09209E-01-1.55676E-01 2.66775E-01 1.48964E-02-3.42353E-02 7.32858E-01
 -1      1570 1.53153E-02 9.19874E-03 7.19844E-02 7.45126E-02-4.78865E-01 2.75442E-01
 -1      1571 7.19926E-02-1.67833E-01-1.21841E-02-1.15620E-01-3.39440E-01 5.89210E-01
 -1      1572-4.92387E-02-5.76770E-01-3.15324E-02-1.63519E-01 2.83641E-01 3.68076E-01
 -1      1573 1.41519E-02-2.77537E-02 9.16567E-02 1.64658E-02-2.31435E-01 2.65059E-02
 -1      1574 2.25873E-02-3.67862E-02 9.58668E-02 8.88984E-03-2.08637E-01 1.73225E-01
 -1      1575-1.28581E-01 1.04765E-01 3.96876E-02-8.78789E-02-2.08115E-01 6.19014E-01
 -1      1576-3.91955E-01-3.06307E-01-8.56831E-03-4.23980E-01 1.10483E-01-2.07633E-01
 -1      1577-1.71919E-01-3.97090E-01-2.19108E-01-1.28353E-01 6.54738E-01 5.94024E-01
 -1      1578-3.20810E-01-2.22847E-01 1.09497E-01 2.47377E-01-4.04609E-02-9.91628E-02
 -1      1579-2.64932E-01-2.04739E-01-9.83689E-02 7.94462E-02-3.47044E-01 4.14098E-01
 -1      1580-1.32060E-01 8.19843E-02-8.70006E-02 6.85203E-03-3.48351E-01 3.20410E-01
 -1      1581 8.09969E-01 8.89258E-01-1.59053E-01-5.22644E-01-3.95646E-01 6.28106E-01
 -1      1582-5.72652E-01 2.52537E-01 2.10072E-02 3.22941E-01-2.55015E-01 1.05792E+00
 -1      1583-1.53506E+00-6.15736E-01-1.06060E-01 2.42760E-02-3.73641E-02-5.09082E-02
 -1      1584 3.30014E-01-1.73594E-01-3.60526E-01-3.32070E-02-7.44390E-02 6.86804E-01
 -1      1585 3.01136E-01 7.64361E-02 8.08127E-03 2.49633E-01 1.12334E-01-4.47698E-01
 -1      1586 2.77629E-01 6.53578E-03-1.06185E-01-2.37510E-01-2.27013E-01 7.56143E-01
 -1      1587 1.80946E-01 1.17928E-01-2.29102E-02-1.14296E-01-5.24027E-01 4.97552E-01
 -1      1588-4.72865E-01-3.09728E-02-1.82973E-01 1.35999E-02 3.69030E-01 6.15170E-01
 -1      1589-1.55763E-01-6.66647E-03 1.31909E-01-1.38832E-01 2.43551E-01 3.32856E-01
 -1      1590-9.29772E-02 6.17858E-02 5.12339E-02 1.16294E-02 1.95785E-02 1.72232E-02
 -1      1591 1.52222E-02 7.51857E-02 8.70955E-03-2.47740E-04-3.94687E-02-2.73493E-03
 -1      1592 9.70867E-02-1.53247E-02-2.06939E-02-1.11981E-01 3.17402E-02-1.28839E-01
 -1      1593 1.65383E-03-2.37932E-01-1.06010E-03 1.05881E-02 4.76967E-01 1.90098E-01
 -1      1594 1.47486E+00 7.68958E-01 4.89135E-01-4.50081E-01-1.95419E-01 1.17317E+00
 -1      1595-5.75692E-03 1.30883E-01-1.02490E-03 5.44040E-02 1.38479E-02-1.12548E-02
 -1      1596 8.16756E-02-2.63870E-02 9.60695E-03-2.18995E-01-2.10794E-01 1.57695E-01
 -1      1597 3.14174E-01 2.18362E-01 1.64692E-02 1.78599E-01 5.55586E-02-1.43458E-01
 -1      1598 2.86777E-01-6.13112E-02 5.08186E-02 4.67584E-02 3.42259E-01 5.65287E-01
 -1      1599 1.05390E-01 8.63760E-03 1.04336E-01 1.24968E-01-4.22996E-01 3.76728E-01
 -1      1600 1.60915E-01 1.88684E-01-1.30412E-01-8.85033E-02 4.52231E-02 7.70145E-01
 -1      1601-5.56030E-01-3.85702E-01-3.64259E-02-3.28404E-01 5.01689E-01 7.00646E-01
 -1      1602-7.60098E-03 2.69607E-02-2.15664E-02-2.25401E-02-4.29647E-01 1.16588E-01
 -1      1603 5.08512E-01 6.13737E-01-1.19585E-01 1.58307E-01-7.81418E-02 5.89212E-01
 -1      1604 3.95137E-01-1.81417E-01-2.03398E-01-2.16222E-01-1.74127E-01 6.56968E-01
 -1      1605 3.10134E-01 1.92970E-01-6.92993E-02-2.62747E-01 4.40552E-03-1.50330E-01
 -1      1606 1.34966E-01 1.95823E-02 1.69720E-01 5.12837E-02 4.97093E-02 1.15078E-01
 -1      1607-1.74799E-01 9.58828E-02 2.79352E-01 1.55571E-01 3.85466E-01 3.39454E-01
 -1      1608 1.65188E-02-7.06664E-03-8.88769E-02-1.73953E-01-6.08773E-02 1.27307E-02
 -1      1609 3.14521E-01 4.28406E-01 1.19144E-01 2.24956E-01 2.49421E-01 5.28445E-01
 -1      1610-2.73055E-02 3.43245E-01 3.25165E-01-5.16312E-03 4.04151E-01 1.55084E-01
 -1      1611 1.28602E-01-3.46057E-02-6.53078E-02 6.97093E-02 2.04316E-01 2.26033E-01
 -1      1612-5.47050E-02 1.08967E-01-2.52056E-02-1.91472E-01 1.70244E-01 8.14971E-01
 -1      1613 1.28190E-01 1.06039E-01-4.01499E-03-1.61669E-01 2.91902E-01 7.36107E-01
 -1      1614 2.50701E-01 1.22992E-01 3.31793E-01 4.70993E-02 1.59323E-01 8.47654E-01
 -1      1615-7.49590E-02-3.14847E-02-1.08827E-01 6.13219E-02-4.27501E-02-2.07593E-02
 -1      1616 3.96876E-01 1.66991E-01 1.30641E-02 1.18067E-01-2.76940E-01 4.62530E-01
 -1      1617 7.84489E-04 3.39062E-01 8.63207E-01-3.01743E-01-2.51643E-01 5.98534E-01
 -1      1618-9.78940E-01-3.59576E-01-1.33969E-01-2.82529E-01 1.40731E-02-1.58159E-01
 -1      1619 1.31123E-01 2.77473E-01 1.70403E-01-2.02666E-01-1.42812E-01 6.00636E-01
 -1      1620-2.16226E-02-2.77545E-01-1.81580E-01 7.78010E-02-1.08188E-01-1.16919E-02
 -1      1621-7.32836E-01-2.23186E-01-3.97549E-02-2.00311E-01 2.80862E-01 9.38217E-01
 -1      1622 7.01529E-01 3.14023E-01 3.42459E-01-2.22183E-01-5.64056E-01 9.34811E-01
 -1      1623 6.24146E-01 2.74252E-01 2.11003E-02 4.76992E-01 4.45012E-02-2.68465E-01
 -1      1624 2.02240E-01 2.88987E-01 4.77395E-02-1.52902E-03 2.35411E-01 5.21429E-01
 -1      1625-5.02418E-02-2.15374E-01-4.80560E-02-5.56767E-02 2.05277E-01 7.90467E-02
 -1      1626-3.53175E-02-8.90033E-02 1.73913E-03-3.47899E-02-6.04245E-02-5.13886E-03
 -1      1627 3.28458E-03-8.33442E-02 5.69136E-01 4.42698E-01-1.70482E-01 2.14890E-01
 -1      1628-2.19694E-01 2.61341E-02 1.01042E-01-1.59881E-01-3.05323E-01 3.93103E-01
 -1      1629 1.06209E-01 3.56949E-02 2.22547E-02-8.39798E-02-1.03219E-01-7.20872E-02
 -1      1630-7.13024E-01-1.63289E-01-1.30705E-01-1.16175E-01 1.51874E-01 6.16521E-02
 -1      1631 3.28709E-02 9.59916E-02 1.09151E-01 6.15688E-02 3.25220E-01 4.46629E-02
 -1      1632 1.08712E+00 2.29626E-01 2.42092E-01-2.28903E-01-2.05013E-01 1.06170E+00
 -1      1633 3.66537E-01-6.78447E-02-1.97470E-01-3.14190E-02 4.48801E-01 4.38259E-01
 -1      1634-1.64678E-01-3.51677E-02 3.73656E-03-1.16796E-02-6.56625E-02 9.41474E-01
 -1      1635 1.89181E-01 6.90337E-02 2.64351E-01 2.48586E-02 3.33022E-01 3.55898E-01
 -1      1636 5.59065E-02 1.42578E-01 1.73349E-02 2.08093E-02-2.34818E-01-4.71431E-02
 -1      1637 1.21192E+00 2.93139E-01 3.23430E-01 5.29996E-01-5.62494E-02 1.11774E+00
 -1      1638-2.42380E-02 1.04470E-01 8.00514E-02-6.33360E-02-3.42262E-01 4.83185E-01
 -1      1639 2.62115E-02 9.55381E-03-6.77411E-02 3.86548E-02 3.93169E-02 5.53648E-02
 -1      1640-2.82335E-01-2.18401E-01 3.69905E-01 1.75684E-01-5.53143E-01 5.83739E-01
 -1      1641 3.07236E-03 2.01125E-01 1.25609E-02 6.45605E-03 2.17822E-01 7.74225E-01
 -1      1642 1.66977E-01 1.73956E-02 1.96827E-02 1.20935E-02-1.39619E-01 1.10377E-01
 -1      1643-3.44083E-02-8.60314E-02 3.83592E-02-5.39360E-02-1.34678E-01 5.39598E-02
 -1      1644-7.12992E-02-1.27695E-01 6.34495E-02-1.37327E-02 2.73865E-01 2.10300E-01
 -1      1645 6.39655E-02-1.76831E-02-2.92520E-02-3.62631E-02 4.05927E-02 7.63010E-03
 -1      1646 4.97639E-02 2.14737E-02-7.73584E-02 1.39891E-01 2.79670E-01 1.30442E-01
 -1      1647 3.15745E-02-5.40777E-03-6.74765E-02 7.60708E-02-1.18553E-01 1.08266E-02
 -1      1648 1.34231E-01-1.73789E-02-7.88688E-03-1.16739E-01-5.46811E-02-8.48601E-03
 -1      1649 2.61351E-01 1.87433E-02 6.85854E-02-5.42690E-02-1.99327E-01 2.76796E-02
 -1      1650 3.92132E-01 4.44222E-01 6.18420E-02-2.01638E-02-1.90827E-02-3.31738E-02
 -1      1651 3.69288E-01 7.62395E-02 1.96377E-01 1.69685E-01 6.25599E-01 7.04543E-01
 -1      1652-1.53606E-02 5.33140E-02 1.23484E-02 1.12300E-01 1.35907E-01-1.72913E-02
 -1      1653 3.91488E-01 2.17838E-01 1.05265E-01 1.56780E-01 1.89521E-01 3.45456E-02
 -1      1654-2.03142E-01 6.73503E-02 4.54985E-02-5.54137E-02 3.54562E-01-1.30388E-02
 -1      1655 4.34185E-02 1.50097E-01 8.26181E-02 6.58787E-02-1.24801E-01-5.57181E-02
 -1      1656 4.56113E-01 1.79730E-01-3.34308E-01 3.91820E-01 1.00346E-02-1.25920E-01
 -1      1657 5.00355E-01 4.14403E-01 8.29773E-02-1.78989E-03-2.07790E-01 1.46691E-01
 -1      1658 1.74975E-01 1.93796E-01-1.38651E-02 8.23554E-02 2.02280E-02 3.47364E-02
 -1      1659 9.10436E-02 2.37423E-01 1.20987E-02 3.99036E-03 1.28516E-01 7.86368E-02
 -1      1660 5.63070E-01 3.21747E-01-1.58049E-01-2.27475E-01-2.74141E-01 2.72219E-01
 -1      1661 1.50515E-01 3.75847E-01-2.92363E-01 2.82485E-01 4.73836E-01 4.25917E-01
 -1      1662-5.78729E-01-2.03739E-01-1.48560E-01 2.47477E-01-9.60267E-02-1.23268E-01
 -1      1663-6.64648E-03 2.06005E-02-1.42190E-01-2.98950E-02 5.38087E-01 2.76893E-01
 -1      1664 1.56746E-01 1.20362E-01-1.14034E-01 1.58755E-01-7.90130E-02 4.37301E-03
 -1      1665 9.76420E-02-5.85033E-02 3.21266E-02 6.78664E-03 1.18358E-01-2.09486E-02
 -1      1666 4.56850E-02 9.05480E-02-1.02000E-01 1.51556E-01-1.83685E-02 1.07547E-02
 -1      1667-5.90677E-01-2.97697E-01-1.29696E-01-1.77765E-01 5.85048E-01 4.88861E-01
 -1      1668 1.27450E-01 4.89970E-02-6.65409E-02 4.45839E-02 2.29754E-01 1.90761E-01
 -1      1669 2.48417E-01 2.06359E-01 7.15906E-03 8.50278E-02 1.25568E-01-5.70647E-03
 -1      1670-3.09989E-02-1.44902E-01-3.54417E-02 2.81176E-03 1.48715E-01 7.37493E-02
 -1      1671-1.99947E-01-9.12633E-02 8.80760E-02-1.86051E-01-2.05937E-01 2.30046E-01
 -1      1672-2.43062E-01-4.23669E-01-2.17004E-01 4.20603E-02-3.26418E-01 2.79195E-01
 -1      1673 4.20136E-02 2.24634E-01 1.07070E-01-3.59911E-02 3.31264E-01 5.28630E-01
 -1      1674-7.52525E-02-4.47056E-02-2.21415E-01-1.51317E-01 2.23080E-01 5.95025E-01
 -1      1675 2.62022E-01 2.49211E-01-7.57341E-02 4.46881E-02-2.17683E-01 1.01177E+00
 -1      1676-1.14899E+00-5.80940E-01 3.10098E-02-1.49062E-01-2.78347E-01 1.79293E-01
 -1      1677-1.54634E-01-5.83366E-03 1.03069E-01 1.16216E-02-4.29622E-01 2.58879E-01
 -1      1678 3.95607E-01 2.07079E-01-2.27837E-03 3.73680E-01 6.58922E-02-1.15339E-01
 -1      1679 1.15954E+00 3.58646E-01 1.80810E-02 9.82999E-02-1.08239E-01 8.98893E-01
 -1      1680-5.96840E-01-7.04011E-01 3.98878E-01-3.92421E-01 2.75808E-01 2.63281E-01
 -1      1681 5.86467E-02 1.86860E-01-1.33192E-01 8.74212E-02 1.23670E-01 7.70780E-01
 -1      1682 9.21058E-01 6.13713E-01-1.74680E-01-9.77160E-01-8.51315E-01 5.01742E-01
 -1      1683-1.66010E-01-1.28126E-02 3.01583E-02-1.80760E-01-3.79739E-02-1.49254E-01
 -1      1684 4.04160E-01 2.74102E-01 3.31904E-01 1.45324E-01 5.53401E-01 6.82306E-01
 -1      1685 1.24234E+00 7.58428E-01 1.57507E-01-2.37109E-01 3.09328E-02-1.21113E-01
 -1      1686 2.63632E-01 1.88180E-01 1.27792E-01 2.46422E-01 6.92137E-03-3.24726E-02
 -1      1687-2.00490E-01 1.10017E-01 1.22697E-01 5.91372E-02 2.66747E-01 3.70243E-01
 -1      1688 5.40593E-01 4.17798E-01 1.52131E-01 3.18817E-01 5.87298E-01 9.63983E-01
 -1      1689 1.96977E-01 1.86490E-01-3.07829E-01-4.99216E-01-5.46156E-01 1.29115E+00
 -1      1690-8.76795E-01-5.62007E-01-3.66200E-01-1.59018E-01 2.76053E-01 1.04735E+00
 -1      1691 1.14812E-01 4.30030E-01 4.91135E-02 6.99292E-02 5.69752E-01 1.51365E-01
 -1      1692 1.31499E+00 6.72620E-01 1.46464E-01 5.59968E-01 1.88226E-01 1.15981E+00
 -1      1693-4.27410E-01-4.45848E-01-4.37962E-03 1.06140E-01 3.02422E-03 2.26045E-01
 -1      1694 7.09422E-02-5.41981E-02-8.99761E-02-1.06523E-01 1.75127E-01 5.36795E-02
 -1      1695-2.53220E-01-6.61395E-01 3.01694E-01-2.84262E-01 2.50342E-01 1.42260E-01
 -1      1696-5.32571E-01-1.36630E-01-1.50759E-01 2.46863E-01-3.86799E-01 6.18715E-01
 -1      1697-4.81334E-01-2.68544E-01-1.47761E-01-8.20049E-02 1.86333E-01 1.63104E-02
 -1      1698-2.19670E-01-1.18871E+00 2.40225E-01 1.92547E-01-6.88845E-01 6.10386E-01
 -1      1699 2.61008E-01 7.01416E-02 5.54366E-02 1.67278E-02-3.12378E-01 2.30176E-01
 -1      1700 3.53441E-02-1.16343E-01 4.72517E-02-1.64926E-02-3.44187E-02 3.82618E-02
 -1      1701-5.34186E-04-5.92148E-03-9.52707E-02-3.37884E-02 1.01651E-01 6.89123E-01
 -1      1702 1.06589E-01 1.39780E-01-1.79381E-01 2.04307E-01 1.25050E-02 1.31785E-02
 -1      1703-1.02378E-01 7.82641E-02 1.22990E-01-6.46665E-02 3.84451E-01 5.16807E-01
 -1      1704-7.84919E-01-5.01356E-01-3.32940E-01 3.22915E-01-5.69201E-01 7.99642E-01
 -1      1705-9.40464E-03 3.43933E-01-3.42592E-02 1.70352E-01 4.23757E-01 5.78619E-01
 -1      1706-3.30920E-01-3.53939E-01-4.77286E-02-2.29481E-01 1.46833E-02-2.13913E-02
 -1      1707-1.01739E+00-5.14315E-01 9.43811E-03 2.45871E-01 3.74483E-02-5.47419E-02
 -1      1708-9.34750E-02-9.92142E-02-3.88068E-01-1.20672E-01 2.66174E-01 1.04145E+00
 -1      1709 5.87112E-01 3.21971E-01 3.29110E-01-2.46329E-01-2.41549E-01 1.09785E+00
 -1      1710 6.52481E-02 2.27429E-01-2.20544E-01-2.24386E-01-3.01032E-01 4.17594E-01
 -1      1711 5.02007E-01 4.03839E-01 5.70673E-01-1.05795E-01-3.61338E-01 5.24665E-01
 -1      1712 4.67122E-01 2.22659E-01-5.06063E-01-3.46349E-02 4.20787E-01 8.29416E-01
 -1      1713 2.63198E-01 1.69997E-01-1.58026E-01 1.45374E-01 3.21084E-01 6.48242E-01
 -1      1714-6.91911E-01-2.50451E-02-1.07099E-01-8.97045E-02-3.41800E-01 8.39896E-01
 -1      1715-1.96880E-01 1.10268E-01-2.01374E-01 4.94311E-02 4.19185E-01 2.06207E-01
 -1      1716 6.45639E-01 8.59616E-02 7.32167E-02 2.06868E-01 3.72949E-01 6.96969E-01
 -1      1717-1.27975E-01-1.58524E-02 1.56257E-01 8.68443E-02 2.31733E-02 1.41532E-01
 -1      1718-2.97158E-02 3.90842E-02-1.04698E-01-8.58382E-02 2.80241E-02 2.02534E-02
 -1      1719 5.39332E-01 9.17570E-02 3.35401E-01 2.96533E-02 4.57813E-02 3.89925E-02
 -1      1720 6.58974E-02-8.62201E-02-5.27082E-02 1.08386E-01 9.13490E-02-1.38014E-02
 -1      1721-1.26967E+00-2.69749E-01-2.54274E-03 1.83672E-02-3.79164E-02 7.17012E-01
 -1      1722-2.71705E-02-4.24234E-02-2.21498E-01-1.06264E-01 1.27731E-01-3.11993E-02
 -1      1723-3.97695E-03 8.19562E-02 7.63438E-02-2.54127E-02-2.33398E-01 2.04586E-01
 -1      1724-5.66741E-02-2.65955E-01-4.05501E-02-1.26727E-01-2.03052E-01 1.84620E-02
 -1      1725 8.32877E-01 5.99630E-02-2.16694E-01-1.79171E-01 9.34929E-02 1.12304E+00
 -1      1726-9.99454E-01-4.90872E-01-7.44259E-02-2.49209E-01-7.09286E-02-1.09381E-01
 -1      1727 2.26922E-01 5.61741E-01 4.28872E-01 1.35462E-01 5.38726E-01 3.38840E-01
 -1      1728-1.29504E-01 4.08604E-02 1.35753E-01 4.63667E-02-4.20325E-01 3.56566E-01
 -1      1729 1.55740E-01 2.98848E-01 3.33692E-01-1.58644E-01-4.50979E-01 5.78062E-01
 -1      1730 3.92611E-03-1.52698E-01-1.21790E-01 6.00402E-02 1.77360E-01 1.02117E-01
 -1      1731-1.47878E-01 1.20197E-01 7.53405E-02 5.01335E-02 3.06525E-02-1.78633E-01
 -1      1732 2.33861E-02 5.40676E-02-4.32079E-02-1.13869E-01-3.63220E-02-7.59946E-02
 -1      1733 4.47988E-03 1.05982E-01 3.51996E-02-6.56022E-02 2.29785E-01 5.73102E-02
 -1      1734-4.33925E-01-8.36382E-01-4.09740E-01 2.75492E-01-6.18625E-01 3.12233E-01
 -1      1735 5.53117E-02-8.04489E-02 1.50939E-01-3.37347E-02 3.03555E-01 3.68225E-01
 -1      1736-4.63691E-01-7.23917E-01 1.72071E-02-3.12467E-01 1.23533E-01 2.81208E-01
 -1      1737 5.07082E-03 8.72306E-02-1.99225E-02-6.64898E-03-2.28251E-01 9.96789E-02
 -1      1738-1.39620E-02 5.12966E-02 3.77883E-01 1.45692E-02-5.92751E-01 4.39841E-01
 -1      1739-1.53592E+00-4.74309E-01-1.71280E-01 5.62080E-01-2.74303E-01 9.10791E-01
 -1      1740 3.17741E-02 3.79002E-01-1.54683E-01 1.80032E-01 5.37843E-01 4.00851E-01
 -1      1741-3.02389E-01-1.00949E-02 5.20077E-02 1.42124E-01-2.16797E-01 7.32195E-02
 -1      1742-4.84323E-03 3.71380E-03-2.98453E-01 6.30286E-02-1.22798E-01 8.84953E-01
 -1      1743 9.51400E-01 2.93695E-01-1.09099E-01-7.78683E-02-3.75877E-01 7.58610E-02
 -1      1744 6.68021E-01 7.49041E-01 2.11161E-01-4.71209E-01-5.30772E-01 9.19978E-01
 -1      1745 4.01368E-02 6.46190E-02 1.23986E-01 4.40215E-01 1.16402E-01-3.50942E-02
 -1      1746 3.51405E-01 2.98614E-01-1.03862E-01 2.40637E-01 5.25371E-02-1.27645E-01
 -1      1747-1.03866E+00-4.21786E-01-1.74380E-01-2.96589E-01 1.51972E-01-9.20526E-02
 -1      1748 1.00023E-01-1.09821E-01-6.53677E-02-1.65587E-02 2.70562E-01 1.06618E-01
 -1      1749-3.88301E-01-2.35037E-01-1.95070E-01-1.15573E-01 1.84049E-01 7.01915E-02
 -1      1750 1.61438E+00 4.38856E-01-1.01924E-01 1.91581E-01-1.22776E-01 8.02846E-01
 -1      1751-5.83203E-01-1.89781E-01-1.09313E-01 4.22901E-01 9.06682E-03-1.55879E-01
 -1      1752 3.77953E-01 7.27564E-02-8.64450E-02 2.23602E-01 1.60656E-01-9.21963E-02
 -1      1753-3.35866E-01-3.52470E-01-9.15263E-03 3.79949E-01-3.23538E-01 7.00838E-01
 -1      1754-2.68069E-02-2.35710E-01-1.17040E-01 7.67715E-02-4.17760E-02-4.21990E-03
 -1      1755-2.26742E-02 5.30911E-02-1.71545E-01 1.05130E-01-1.41968E-01 6.90735E-02
 -1      1756 1.73480E-01-3.38399E-02 6.31450E-02 1.02831E-01 2.97634E-02 7.01895E-02
 -1      1757 7.07847E-02-2.26245E-01-7.88996E-02 1.78366E-01 1.68399E-01 6.89710E-01
 -1      1758-1.87718E-01-1.53517E-01 7.97079E-02-3.22105E-02 7.44258E-02 7.09065E-02
 -1      1759 4.59621E-02 2.97929E-01 5.81023E-02 4.74854E-02 6.56707E-02 1.76232E-01
 -1      1760-1.14507E-02 6.64402E-02 4.92634E-02 3.63358E-01-5.19648E-02-2.72231E-01
 -1      1761 2.49918E-03-2.36272E-01-1.07552E-01 4.88692E-01-8.73716E-02 1.29524E+00
 -1      1762 1.24504E-01-1.43047E-01 4.15590E-01 9.89668E-02-1.38846E-01 4.58083E-01
 -1      1763-4.39909E-01 1.08484E-02-7.19455E-02 4.59750E-02 2.06375E-01 1.10512E+00
 -1      1764-1.62201E+00-6.67288E-01-1.13417E-03-8.67009E-02 1.06044E-01-2.34818E-01
 -1      1765-4.94671E-01-3.72759E-01 1.89354E-01 2.63631E-01 1.81151E-02-3.04993E-01
 -1      1766 1.08483E+00 2.40989E-01-3.61008E-02-3.33002E-01-8.38878E-02-1.12773E-01
 -1      1767 3.78031E-01 1.59913E-01 6.00748E-03-1.40656E-01-3.17290E-01 3.04760E-01
 -1      1768 1.05377E+00 5.16555E-01 2.43165E-02 3.67574E-01 6.81197E-02 5.21449E-01
 -1      1769 6.31213E-03 2.90160E-01 5.97352E-02 5.90195E-02 3.22232E-01 1.32550E-01
 -1      1770-5.89756E-01-5.68898E-01-2.00321E-01-3.37363E-01 7.08309E-01 5.70698E-01
 -1      1771-8.60548E-02-7.51130E-02-1.44363E-01-7.56858E-02-4.05306E-04-6.46348E-02
 -1      1772-7.18145E-02-7.38673E-02 4.07351E-02-1.54637E-01-1.08076E-01 1.32751E-01
 -1      1773-1.59071E-01 1.25571E-02-6.86047E-02 4.20501E-01-1.27193E-01-3.64372E-01
 -1      1774-8.81147E-01-4.13880E-01-1.14053E-01-1.58494E-01-2.38706E-01 9.53443E-01
 -1      1775 7.55117E-02 1.53000E-01 6.48337E-01-4.54184E-02-1.29995E-02 2.56062E-01
 -1      1776-3.90720E-02-2.58946E-01 1.08298E-01-2.42654E-02 3.35075E-01 1.00146E-01
 -1      1777 7.91739E-01 3.49255E-01 1.31651E-01-3.94941E-01-4.10380E-01 9.60480E-01
 -1      1778-3.02531E-01-1.93537E-02 1.17263E-01-1.44315E-02-2.41751E-02 7.65315E-01
 -1      1779-7.65804E-01-2.75233E-01-8.51240E-02 1.61008E-01-1.75967E-01-2.55338E-02
 -1      1780 2.65213E-01 1.66910E-01 9.18181E-02 1.12643E-01-2.54311E-01 5.48201E-01
 -1      1781-5.29766E-01-7.14994E-01-4.85273E-01-2.09272E-01 6.87471E-01 4.13012E-01
 -1      1782 3.32090E-02 1.28351E-01-4.36326E-02 6.18810E-02-1.34986E-01 4.78363E-03
 -1      1783-1.19420E-01-6.87791E-02-7.94683E-02 1.96174E-02-1.43576E-01 2.89950E-02
 -1      1784-2.98530E-02 3.27334E-02-5.47445E-02 3.92651E-02-1.21001E-01-7.35665E-02
 -1      1785 4.62820E-02 1.28965E-01-1.71970E-01 7.75124E-02-1.16184E-01 6.99291E-01
 -1      1786-1.27139E-01-1.19758E-01-1.70645E-01-7.41000E-02-7.28409E-02 1.79984E-02
 -1      1787 8.50457E-01 3.03121E-01 2.63695E-01-3.14204E-01-1.15223E-02-4.44937E-02
 -1      1788-7.44603E-01-2.15918E-01-1.54250E-01-6.91572E-02-2.19962E-01 2.12286E-01
 -1      1789-6.70796E-01-1.11998E-01 3.47732E-02 1.66236E-01 3.20195E-01 4.60716E-01
 -1      1790-1.16665E-01-1.80017E-01 5.19341E-03 1.93732E-01-3.30350E-01 4.48178E-01
 -1      1791-5.62332E-01-4.95875E-01-9.63569E-02 4.80768E-01-2.68599E-01 4.75452E-01
 -1      1792-5.84537E-02-9.86082E-02-2.52387E-01 1.97144E-01-5.52681E-02 1.05014E+00
 -1      1793-1.20190E+00-2.64214E-01-1.15252E-01-2.17974E-02-5.84496E-02-1.42100E-01
 -1      1794 8.61237E-02 1.95610E-01 1.19338E-01 1.29509E-02-2.09605E-01 1.21622E-02
 -1      1795-3.44448E-01-2.48803E-01-4.53653E-02-2.45347E-02 1.89359E-01 7.33545E-01
 -1      1796-5.60178E-01-6.49671E-02 4.29047E-01 4.67771E-03-2.21415E-01 6.57519E-01
 -1      1797-6.46150E-01-2.56194E-02 2.48164E-01 3.11923E-01 1.55419E-01 6.21234E-01
 -1      1798 5.04236E-01 1.17437E-01-2.29554E-01 6.50639E-02-9.77386E-02 6.72176E-01
 -1      1799-4.22191E-01-1.97441E-01-9.28389E-02 7.53286E-01-1.53696E-01-3.40605E-01
 -1      1800-7.35345E-01-3.23090E-01-1.06939E-01 3.47867E-01-1.03343E-01-5.28330E-02
 -1      1801 1.33531E+00 2.65138E-01 8.00132E-02-1.85154E-01 1.61071E-02-1.50110E-01
 -1      1802-8.30970E-01-3.06271E-01-2.79642E-01-4.18497E-02 1.24066E-01 2.75075E-01
 -1      1803 1.58703E-01 1.73318E-02 3.49052E-02 3.88817E-01 5.10150E-02-2.42870E-01
 -1      1804 5.47617E-04 2.18261E-01 1.28429E-01-1.60637E-01-2.51565E-01 5.01516E-01
 -1      1805 1.64430E-02 1.69605E-01 4.68268E-02 9.71103E-03-1.37853E-01 7.18392E-02
 -1      1806-1.22243E-02 2.38707E-01 1.49772E-03-1.26748E-02-3.27502E-01 3.28559E-01
 -1      1807-2.29018E-01-6.78547E-01-1.56755E-01 4.43215E-02-1.18960E-01 1.03686E-01
 -1      1808 1.58307E-01 7.56621E-02-1.40638E-01 2.27214E-01 8.34526E-02 5.22657E-01
 -1      1809 4.56864E-01 4.05073E-01 3.11782E-01 1.67400E-01 1.34073E-02-5.18462E-02
 -1      1810-1.32264E-01 7.98607E-02-9.11389E-02-3.28100E-02 9.91582E-02 5.25247E-02
 -1      1811 9.55203E-03-1.76662E-01-3.78326E-02-2.21993E-01-2.35203E-01 5.52942E-01
 -1      1812-6.88203E-01-2.01247E-01-1.48054E-02-5.21564E-03-1.54529E-01 8.65822E-01
 -1      1813-4.48582E-01-1.61567E-01-1.71407E-01-1.03938E-01 3.57823E-01 7.50011E-01
 -1      1814-6.68841E-01-4.01975E-01-1.77371E-01-3.18010E-01 5.08670E-01 7.32806E-01
 -1      1815 3.21082E-01 4.00171E-01-4.61228E-02-1.20314E-01-3.68312E-01 2.13282E-01
 -1      1816 3.19209E-01 3.09502E-01-4.15568E-01 2.22427E-01 2.18023E-01 4.65159E-01
 -1      1817-3.38254E-02 3.35550E-02-2.06557E-02 1.07146E-01-1.26275E-01-4.78659E-02
 -1      1818-1.08433E+00-2.43613E-01 1.37563E-01 9.40701E-02 2.83573E-02 1.03693E+00
 -1      1819-1.08306E-01-3.99229E-01-1.63537E-01-6.26869E-02-3.19458E-01 1.05765E-01
 -1      1820-7.71161E-01-3.62731E-01-4.63422E-01-1.95507E-01 2.06520E-01 6.95340E-01
 -1      1821 4.48037E-01 1.25811E-01-9.12645E-02 4.63805E-01-7.31481E-02-8.97392E-02
 -1      1822 5.99691E-02 5.57100E-01 7.56681E-02 7.67050E-02 7.91575E-01 1.81852E-01
 -1      1823-4.84690E-01-7.84077E-01 3.91174E-01 5.13319E-01-3.61026E-01 5.10795E-01
 -1      1824-7.44280E-01-7.18400E-01-4.70258E-02-4.95235E-01 2.45448E-02 2.34097E-01
 -1      1825 6.93477E-02-2.01256E-01-1.11592E-01-1.02247E-01 7.98166E-02 7.47783E-01
 -1      1826-1.19360E-01-1.38352E-01-2.42428E-02 1.84631E-01-5.70969E-02 5.72154E-02
 -1      1827-4.97485E-01-2.53571E-01-1.30876E-01 6.63059E-02-2.19856E-01 5.17409E-01
 -1      1828 6.03485E-01 1.19882E-01 1.65063E-01 1.43427E-01 1.95972E-01 4.79986E-02
 -1      1829-8.57584E-01-2.24043E-01 2.60383E-02-3.63295E-02 1.75552E-01 9.94249E-02
 -1      1830 6.27355E-02-2.82280E-03 2.28525E-02-2.19624E-02-4.29660E-02 3.37981E-02
 -1      1831 6.12150E-01 2.26551E-01 4.10188E-01 2.86965E-01-1.27728E-01 1.12251E+00
 -1      1832 1.24922E+00 4.89483E-01-4.20716E-02-1.89680E-01-5.58922E-02-8.19590E-02
 -1      1833 4.02611E-01 7.70868E-03-2.43406E-01-1.86801E-01-2.74435E-01-7.53559E-02
 -1      1834-1.21479E+00-4.47050E-01-2.02810E-01 3.78124E-02-4.16820E-02-3.85578E-02
 -1      1835-5.41059E-01-3.64264E-01-1.60775E-01-3.59042E-01 3.83479E-02-1.35689E-01
 -1      1836-9.77434E-02 1.09830E-01 8.47121E-02-4.07337E-01 9.95533E-03-3.80685E-01
 -1      1837 2.72616E-01 3.34859E-01 4.62499E-01 1.26885E-01 7.02724E-01 5.33595E-01
 -1      1838 1.46077E-01 2.71619E-01 2.08078E-01 2.54196E-01 2.79927E-01 3.37057E-01
 -1      1839 1.31424E+00 5.52716E-01-4.78536E-03 1.65136E-01-1.62394E-02 4.21442E-02
 -1      1840 1.20585E+00 5.47030E-01-1.67346E-01-1.93192E-02 5.30090E-03 2.39403E-01
 -1      1841 9.89748E-02-1.64987E-01-8.08217E-02 3.56002E-03 1.36493E-02-2.14583E-02
 -1      1842-2.10084E-02-3.55718E-01 1.37540E-01 1.54594E-03-2.83559E-01 1.95199E-01
 -1      1843 8.78040E-01 2.22923E-01 4.48667E-02-2.78691E-01-3.85270E-02-1.05614E-01
 -1      1844 8.96918E-01 3.29816E-01 7.03893E-01 5.82277E-02 6.85410E-02 8.14039E-01
 -1      1845 1.70342E-01 5.87974E-01-2.46288E-02-1.89680E-01-1.58460E-01 1.51764E-01
 -1      1846-5.83722E-01-3.26123E-01-3.59320E-02-8.34421E-02 3.30066E-02-4.17265E-02
 -1      1847-8.14191E-02-8.41241E-02 8.12645E-02-1.96948E-02 3.64932E-01 3.10696E-01
 -1      1848-2.38602E-02-2.58148E-01 2.06030E-01-4.46867E-02 1.56955E-01 7.56511E-02
 -1      1849 2.22376E-01 3.30238E-01 1.99364E-01-1.13028E-01-1.44358E-01 1.28282E-01
 -1      1850 8.75590E-02-9.41782E-02-1.28020E-01-7.02776E-02-4.24021E-01 3.10541E-01
 -1      1851-2.97911E-02 2.70600E-02 1.13509E-01 5.75128E-02 2.56552E-01 1.47524E-01
 -1      1852-2.86924E-01-3.57817E-01 5.00151E-02-1.75302E-01 7.48496E-01 5.39962E-01
 -1      1853 6.73716E-01 1.42997E-01 9.28409E-03 3.37270E-01 7.67155E-02-2.82459E-01
 -1      1854 1.68971E-01 2.51400E-01-3.12248E-01 1.15559E-02-6.34106E-02 8.08988E-01
 -1      1855-5.52806E-01-2.31311E-01 1.31304E-02 4.27190E-01 3.52880E-02-9.47941E-02
 -1      1856 1.83505E-01-9.73196E-02 2.09180E-01 5.28127E-02 2.47543E-01 1.63224E-01
 -1      1857-1.00226E+00-3.65361E-01 1.23193E-01 4.06523E-01-6.69422E-02 6.42613E-03
 -1      1858 1.95090E-01 8.02337E-02-3.44288E-02-6.79050E-02-2.58844E-02-4.62395E-01
 -1      1859-6.53374E-02 1.04045E-01 1.01836E-01-9.16876E-02-1.30014E-01 2.32312E-01
 -1      1860-4.52058E-02 1.84247E-02-1.43870E-01 1.71874E-02-1.95189E-01 1.14038E-01
 -1      1861 5.82055E-01 5.51783E-02 8.69966E-02 4.92286E-01 1.44535E-02-2.03917E-01
 -1      1862-3.87961E-01 3.36647E-01 1.25988E-01-5.43602E-03 3.55066E-02-2.60814E-02
 -1      1863-2.11042E-01 5.39381E-01 2.67436E-02-2.02205E-01-5.44158E-01 8.50943E-01
 -1      1864-3.05795E-01-2.26902E-01-1.60361E-03-2.58308E-01 6.29999E-02 5.15179E-02
 -1      1865 1.75347E-01-7.89992E-02 1.10886E-01 3.24673E-02-2.38889E-02 2.97239E-02
 -1      1866-9.13449E-02-3.23744E-01-3.64131E-02-3.46331E-02 1.46682E-01 2.38254E-01
 -1      1867-2.41752E-02-7.85890E-02-1.05881E-01-6.19417E-02-1.49422E-02 4.54192E-01
 -1      1868 2.44619E-02-2.50520E-02 1.70742E-01 9.17423E-02 2.14634E-01 4.18301E-02
 -1      1869 3.34531E-02 1.36011E-01 1.52826E-01 1.06184E-02 9.99320E-02 5.02786E-02
 -1      1870-5.22268E-02-7.27386E-02-6.57793E-03-8.44356E-02-2.32630E-02 3.10376E-02
 -1      1871-1.11754E-01-1.33207E-01 1.32410E-01-1.08395E-01 4.55221E-02-7.73868E-03
 -1      1872 2.63852E-01-1.56356E-01 1.36157E-01 3.46765E-02 1.61810E-01 1.18828E-01
 -1      1873 4.09679E-01 3.08185E-01 2.59893E-01-2.89388E-01 7.80687E-02 7.00358E-01
 -1      1874-3.41842E-01 1.32090E-01-2.15992E-01 1.25691E-01 8.94817E-02 9.64620E-01
 -1      1875 2.65561E-01 1.14435E-01 5.97335E-02 2.46892E-01 1.00791E-01 1.12082E-01
 -1      1876 7.24601E-01 4.05841E-01 2.89876E-01-1.11337E-01 1.88846E-02 2.82697E-02
 -1      1877 1.39449E-01 2.91744E-02 3.66935E-02-3.32118E-01-6.20960E-02-7.85485E-02
 -1      1878-1.01997E-01-4.59695E-01-4.24879E-02-2.37980E-01 7.22055E-01 6.95801E-01
 -1      1879-3.36457E-02-1.74801E-01-1.17703E-01-3.85210E-02 3.55327E-02-8.65740E-02
 -1      1880-1.12404E+00-4.87273E-01-9.66817E-02 4.20595E-01-7.10779E-03-1.04469E-01
 -1      1881-4.30242E-01-2.72425E-01-1.58109E-01 1.72993E-01-3.43747E-01 5.95359E-01
 -1      1882-7.74503E-01-4.38403E-01-2.79147E-02-1.61234E-01 1.56089E-01-6.82742E-02
 -1      1883-2.47491E-01-1.44273E-01-1.35843E-01-7.83989E-02 1.26975E-01 5.84429E-02
 -1      1884-1.06465E+00-4.16653E-01 4.78874E-01-3.87310E-01 3.27850E-02 4.38144E-01
 -1      1885-2.73274E-01 6.41844E-02-2.45705E-02-8.11157E-02 2.53828E-01-1.41807E-01
 -1      1886 1.18218E-01-3.27961E-01-5.07183E-02 1.05490E-01-4.68569E-01 4.54295E-01
 -1      1887-4.13695E-02-3.48342E-01 2.25301E-01 8.73460E-02-3.20552E-01 1.92679E-01
 -1      1888 1.03899E+00 4.19654E-01 2.14907E-01 3.26005E-02-1.24565E-02-3.85165E-02
 -1      1889 2.12543E-01 2.20572E-01 3.42718E-01-8.53023E-02-5.98544E-01 8.33650E-01
 -1      1890 1.59835E-01-4.74738E-02-1.09418E-01 1.01429E-01-3.16967E-01 4.68985E-01
 -1      1891 7.04510E-01 3.09364E-01 6.58804E-01-1.03047E-01-4.34314E-01 4.91975E-01
 -1      1892 4.64173E-01 2.49409E-01 5.16981E-03 5.11351E-02 4.74756E-02 1.53745E-01
 -1      1893 2.23445E-01 1.28107E-01 3.47049E-01-6.29363E-02-6.27644E-01 3.68625E-01
 -1      1894-9.36441E-02-3.74107E-02 6.22257E-03 6.56454E-02-3.09740E-01-3.91575E-02
 -1      1895-1.57908E-02-3.94479E-02-3.32168E-02-6.18906E-02-3.62006E-01 2.04928E-01
 -1      1896 1.50743E-02 2.93151E-01 3.32520E-02 2.48029E-01-8.60622E-02 5.60161E-01
 -1      1897 6.38449E-01 5.90516E-01 4.28851E-01-2.27724E-01-1.36258E-01 6.39327E-01
 -1      1898-1.12694E-01 1.42411E-01-2.30067E-01-2.23086E-01-5.10947E-01 4.71987E-01
 -1      1899 8.62800E-01 1.47240E-01 3.95788E-02-4.16950E-01-6.92339E-02-5.64818E-02
 -1      1900 1.09496E-01-5.92517E-02-6.76962E-02 8.14743E-02 5.04543E-01 3.55541E-01
 -1      1901-1.60789E-01 2.03375E-01 4.47681E-02-2.76117E-02 4.87736E-01 2.79935E-01
 -1      1902-1.07320E+00-4.02840E-01-2.68814E-01-1.30479E-01 4.39883E-02 9.86450E-02
 -1      1903 2.33668E-01 5.46667E-02 1.15694E-01 4.46489E-02 3.89456E-01 1.29534E-01
 -1      1904 4.58790E-01 1.60027E-01 1.65994E-02 4.46820E-01 2.26040E-02-2.67872E-01
 -1      1905-4.49429E-01-1.99469E-01 4.31444E-02-1.11638E-01 3.91903E-01 5.57344E-01
 -1      1906 3.97064E-01 2.36731E-01 1.39809E-02-2.06372E-01-3.20865E-02 2.38056E-02
 -1      1907 9.49835E-01 3.59856E-01 3.43016E-01 1.30887E-01 1.13968E-01-1.27355E-01
 -1      1908-5.18103E-01-4.47150E-02-1.67342E-01 7.24090E-02-3.69558E-01 1.43780E-01
 -1      1909-2.37068E-01-4.03688E-01 1.05805E-02 2.01552E-01 3.27198E-01 1.93849E-01
 -1      1910-6.44906E-01-1.18609E-01-1.83353E-01-1.48646E-01 5.25929E-01 8.57332E-01
 -1      1911 8.42177E-01 5.29950E-01 5.19557E-01 2.61657E-01 5.40108E-01 6.80633E-01
 -1      1912 1.14290E+00 4.88029E-01 2.06413E-01-3.49702E-01 4.30456E-02-1.22414E-01
 -1      1913 6.61888E-03-1.67254E-01 4.70082E-01-7.39277E-02 3.46369E-01 2.37258E-01
 -1      1914 1.26332E+00 4.70646E-01 2.62814E-01 1.56679E-01 3.92136E-02 4.59132E-02
 -1      1915 5.28617E-01-1.16256E-01-2.69399E-01 1.21508E-01 2.09555E-02 7.51721E-01
 -1      1916 9.49160E-01 1.78667E-01-9.47417E-02 2.06414E-01 1.19852E-01 6.62540E-01
 -1      1917-4.96152E-03 3.00125E-02 1.21302E-02-3.05264E-02-3.13133E-02-3.11082E-02
 -1      1918-3.58634E-01-2.24064E-01-7.47650E-02-5.11206E-02 4.82238E-03 7.25445E-02
 -1      1919-5.76447E-02-1.20245E-01-6.95321E-02-4.45557E-03-3.54938E-02-6.81716E-02
 -1      1920 1.12305E-01 2.55455E-01 2.80970E-01-1.17682E-01 2.20318E-01 1.68423E-01
 -1      1921 1.51594E-01-8.98876E-02-8.62290E-02 3.24592E-01 1.31391E-01-1.18488E-02
 -1      1922 1.53155E-01-1.72052E-01-3.39420E-02-1.06311E-01-5.46385E-02-8.64512E-02
 -1      1923 7.54999E-02 2.52048E-02 2.87217E-02 2.91741E-01 7.03179E-03-1.58206E-01
 -1      1924-7.91974E-01-6.83177E-02-5.81844E-01-4.56899E-01-7.11204E-01 6.19474E-01
 -1      1925-5.19858E-01-1.50010E-01 1.34912E-01-1.77964E-01 1.38492E-01-2.24408E-01
 -1      1926 3.39667E-01 2.48030E-01 1.58455E-01 2.95479E-01-6.89743E-02-6.09336E-02
 -1      1927 6.92995E-02 3.64069E-01-5.76040E-02 1.58361E-01 2.70022E-01 2.01624E-01
 -1      1928-8.39167E-01-4.30759E-01-1.21151E-01 4.23284E-02 3.64518E-02 2.52507E-01
 -1      1929 7.29770E-01 2.63335E-01 1.16098E-01 2.04614E-01 1.15356E-01 5.50775E-03
 -1      1930-1.86788E-01 6.71959E-02-7.62841E-02 3.53666E-01 3.74006E-02-1.14406E-01
 -1      1931-8.99081E-02 1.60829E-01 5.40958E-02 3.86666E-03-3.06976E-01 1.10689E-01
 -1      1932-1.12665E-02-2.34331E-01-7.25317E-02-3.50650E-02-7.08164E-01 5.09319E-01
 -1      1933-5.04924E-01-2.34043E-01-9.46010E-03-2.68818E-01 9.34420E-02 9.45517E-02
 -1      1934-2.41197E-02 1.45206E-01-2.52076E-02 4.71350E-02-1.20871E-01 1.00976E-01
 -1      1935 1.61051E-01 1.81936E-01 9.45483E-03-1.17414E-01-1.30548E-01 2.90776E-02
 -1      1936 2.09035E-01 3.58767E-02 6.61666E-02-7.84147E-02-3.19366E-02 1.72909E-01
 -1      1937-6.44464E-01-5.27734E-01 1.30257E-01-2.08051E-01 6.89120E-02 1.64338E-01
 -1      1938-8.20083E-01-5.27288E-01 8.35684E-02 1.31511E-01 1.32409E-01-2.97141E-03
 -1      1939 9.21267E-01 2.39100E-01-1.54776E-01 2.44280E-01-1.00233E-01-2.27840E-01
 -1      1940-4.82936E-02 4.08018E-02 2.11810E-01 1.34693E-02-4.07881E-01 2.32950E-01
 -1      1941-3.29570E-01-2.05562E-01-4.08992E-02 6.79553E-02-3.89384E-02-3.88359E-01
 -1      1942-8.46224E-01-5.15971E-01 9.70159E-03-1.11041E-01 1.18739E-02-4.47556E-01
 -1      1943 5.56008E-01 4.06192E-01 6.11204E-02-2.52202E-02 1.60289E-02-3.99281E-01
 -1      1944-1.39641E-01-5.32659E-02 9.03131E-02-4.27777E-02-1.69697E-02-5.39927E-01
 -1      1945 2.48203E-01 1.82935E-01 2.01508E-03-3.12972E-02 5.55086E-02-4.30480E-01
 -1      1946 7.05633E-01 2.83865E-02-1.57696E-01-8.44597E-02-2.55190E-01 7.08069E-01
 -1      1947-3.72408E-01-5.21398E-02 7.37494E-02-6.86885E-02-2.77585E-01 3.90540E-01
 -1      1948-3.18996E-01-5.66702E-01-9.45188E-01-1.72156E-01 4.35804E-01 4.64082E-01
 -1      1949-3.14171E-01-9.95456E-01 6.62996E-02-3.40195E-01-1.51208E-01 8.19682E-02
 -1      1950-9.06706E-01-8.69785E-01 2.41089E-01-6.00434E-01 1.11933E+00-1.59984E-02
 -1      1951-1.98596E-01-2.37961E-01-8.04379E-02-1.24231E-01 4.77133E-01 7.29089E-02
 -1      1952-5.01837E-03 4.27575E-01-1.00616E-01 3.38250E-02 3.93601E-01 1.68491E-01
 -1      1953 2.17509E-01 5.56901E-01-6.71596E-01-1.96971E-01-2.43244E-01 2.25484E-01
 -1      1954-5.70102E-01-2.10836E-01-8.90257E-02-3.92076E-01 1.20681E-01-1.05895E-01
 -1      1955 1.12221E-01-2.33346E-03-2.87696E-02-1.06563E-01 5.15167E-01 4.45180E-01
 -1      1956 2.00753E-01 2.20154E-01 1.03014E-01 1.05078E-01-2.31109E-02 1.25093E-01
 -1      1957-7.39080E-01-5.93347E-01-2.27804E-01 2.21422E-01-7.79316E-02-4.04393E-02
 -1      1958 2.48003E-01 5.58081E-01 4.95238E-01 2.37693E-02 4.30748E-01 6.25244E-03
 -1      1959 7.05953E-01 3.11123E-01 8.78843E-01-1.26920E-01 1.30910E-02 5.37917E-01
 -1      1960-7.09152E-02-1.36385E-02-2.25384E-01 2.02843E-01 3.86303E-01 4.67393E-01
 -1      1961-8.81715E-01-4.25091E-01-1.77290E-01 1.41746E-01 1.07923E-01-2.77128E-02
 -1      1962 2.52518E-01 7.16221E-01 2.90072E-03 2.01071E-01 6.13183E-01 3.67927E-01
 -1      1963 9.74544E-01 3.84472E-01 2.00850E-01 2.67266E-01-5.46238E-01 1.35627E+00
 -1      1964 2.72988E-02 1.00081E-02-1.35833E-02-9.70839E-02 3.78517E-02-7.08511E-02
 -1      1965 1.17450E-01-7.72012E-02 1.75614E-01 1.87331E-01 1.79650E-01 1.19460E-01
 -1      1966-1.03927E+00-3.93235E-01-2.18365E-01 2.32878E-01-8.21434E-02-9.30181E-02
 -1      1967-2.04502E-01 3.46006E-02 8.08285E-02 6.63463E-02 7.20229E-02-1.83841E-02
 -1      1968 1.33155E-01 1.53770E-01-3.45049E-02-6.17768E-02 2.94890E-01 9.02823E-02
 -1      1969-3.92030E-01-4.49317E-01-2.40050E-01 2.77721E-01-5.80766E-01 5.48894E-01
 -1      1970 3.74089E-01 3.54078E-01-1.59901E-01 2.83977E-01 5.05829E-01 7.64560E-01
 -1      1971 6.17493E-01 2.68006E-01 1.97429E-01 6.56409E-02 1.16992E-02 3.64768E-02
 -1      1972 8.44892E-02-3.41738E-02-2.15400E-01 3.30469E-01-2.62456E-02-2.07300E-01
 -1      1973 1.29991E+00 4.37753E-01-1.11370E-01-8.13741E-02-1.41913E-01 8.31744E-01
 -1      1974 1.25048E+00 4.67951E-01-2.98338E-02-3.39886E-01-1.87199E-01-4.08636E-02
 -1      1975-7.02976E-02-2.58331E-01-4.83111E-02-3.81430E-02-6.15537E-01 3.93814E-01
 -1      1976 1.53152E-01 2.56366E-01 3.08559E-01 2.54678E-02-5.98877E-01 6.05086E-01
 -1      1977-2.96632E-01-2.14719E-01-8.91972E-02 1.73805E-01-6.33815E-03-3.75695E-02
 -1      1978 8.11775E-01 1.12433E-01 2.06898E-01 4.47717E-01 2.38484E-01-2.57949E-01
 -1      1979-3.84610E-01 6.67349E-02-1.00347E-01-5.51494E-02 2.12929E-01 2.37678E-01
 -1      1980-9.75294E-01-5.22347E-01-1.08962E-01-8.84443E-02 1.89536E-01-7.34581E-02
 -1      1981-3.82358E-01-1.91860E-01-2.06595E-02 2.45814E-01-2.05792E-01 1.05452E-01
 -1      1982 2.85210E-02 2.48295E-02-5.00681E-02 7.13266E-02-3.98856E-01 1.88288E-01
 -1      1983-4.30053E-01-7.85029E-02-7.01098E-02-1.43083E-01 2.08429E-01 1.71271E-01
 -1      1984-2.25639E-01-1.27631E-02-1.93782E-02-2.06362E-01 5.50118E-02-3.07418E-02
 -1      1985 3.67084E-01 1.31005E-01 1.45844E-01 4.28797E-01-5.45997E-02-9.20072E-02
 -1      1986 4.99436E-01 4.17594E-01-1.16727E-01 4.17985E-01 4.00322E-03-8.08723E-02
 -1      1987-1.37416E-01 8.49576E-02-5.18003E-02 5.90162E-02 3.03896E-01 8.43036E-02
 -1      1988-7.11973E-01-4.17809E-01-4.65197E-01-8.47049E-02 1.14797E-02 7.96752E-01
 -1      1989 2.45108E-03 8.78926E-02 1.24472E-01-6.47451E-02 1.54149E-01 8.22192E-02
 -1      1990-8.91919E-02 8.49728E-02-1.32510E-01 6.26177E-02-1.63407E-01 7.38533E-02
 -1      1991 1.28487E-01 8.73449E-01-8.43052E-02-1.21342E-01-3.73251E-01 1.99605E-01
 -1      1992 5.23315E-02 4.29997E-01 1.14572E-01-3.80446E-02-5.41756E-01 1.89628E-01
 -1      1993 3.59157E-01-5.19955E-02 1.86862E-01-3.69851E-01-6.31466E-01 5.54435E-01
 -1      1994-7.31842E-01-6.67607E-01-1.26710E-01-4.88607E-01 4.60327E-01 8.04305E-01
 -1      1995-3.98062E-01-6.92803E-01-1.03916E-01 3.00162E-01-6.03312E-01 3.73409E-01
 -1      1996-1.31509E+00-4.95126E-01-3.12244E-01-1.29488E-02 7.62207E-02 4.01863E-02
 -1      1997 9.51209E-01 2.49474E-01 2.33353E-01 4.39527E-02-5.40959E-02 1.22823E+00
 -1      1998 2.50204E-01-3.39527E-02 2.35918E-02 1.15798E-02 1.43169E-01 6.67846E-01
 -1      1999 5.35339E-02-3.20171E-01-8.93960E-02-5.86588E-02 3.90372E-01 2.55043E-01
 -1      2000-5.37830E-02 9.46521E-02 1.23395E-02 7.69361E-02-6.46629E-02 4.11646E-02
 -1      2001-1.55884E+00-1.62611E-01-1.05408E-01 2.45079E-01-6.42035E-01 9.14913E-01
 -1      2002 2.35395E-01 1.41269E-01 1.14870E-01 6.00811E-02-4.22010E-01 5.94628E-01
 -1      2003 1.15613E+00 4.14789E-01 6.86654E-02 2.31761E-01 3.64225E-01-1.88880E-01
 -1      2004 2.99462E-01-9.73668E-02 1.49521E-01-1.65640E-02 5.24917E-01 3.83630E-01
 -1      2005 2.30120E-01-1.06791E-01 2.83968E-01 1.25312E-02 5.89383E-01 3.93504E-01
 -1      2006 4.38905E-02-4.87428E-02 3.36258E-02-1.44401E-01-5.50869E-03-5.97218E-02
 -1      2007-2.17591E-01-7.44276E-02-4.71144E-02-1.77167E-01 7.39050E-02-1.91600E-02
 -1      2008 5.50583E-02 8.60377E-02 2.96710E-01 3.98043E-02 6.20667E-02-7.40000E-02
 -1      2009-7.94295E-02 2.21726E-01 1.49893E-01 1.70692E-01-1.81671E-01 5.39264E-01
 -1      2010-1.53614E-01-3.57578E-01 3.67946E-01-2.17637E-01 7.97593E-01 6.54598E-02
 -1      2011 6.95403E-01 9.17482E-02-1.33577E-02 6.97178E-02-1.27886E-01 1.51523E-01
 -1      2012 1.27223E-01-9.59756E-02-8.07246E-02 1.58403E-01-1.56434E-02-8.51278E-02
 -1      2013-6.37520E-01-1.99444E-01 1.11357E-01-1.14856E-02-1.98392E-01 5.56056E-01
 -1      2014-6.20749E-01-5.79830E-02-3.10036E-01 1.02187E-01-6.37839E-01 1.18831E+00
 -1      2015-1.86213E+00-5.42972E-01-2.82073E-01-3.90197E-01-9.56410E-02 4.97631E-01
 -1      2016-1.41465E-01-1.99060E-01 2.29450E-01-8.87319E-03 1.14491E-01 3.03125E-01
 -1      2017 7.73831E-03 6.79893E-02 4.04449E-02 3.02548E-01 4.19673E-02-1.68665E-01
 -1      2018-1.47214E+00-5.38722E-01-8.43816E-02 1.02867E-01-1.44535E-02-4.12652E-02
 -1      2019-1.13221E+00-3.59327E-01-8.13658E-02 3.75231E-01-5.42548E-02-5.83098E-03
 -1      2020-1.49014E-01-1.11360E-01-8.10791E-02 2.97670E-01-8.03201E-02-3.49479E-02
 -1      2021-1.47439E-01-9.00194E-02-7.22041E-03 1.41141E-01-7.99318E-02-1.48578E-02
 -1      2022 2.28551E-01 1.87960E-02 8.92366E-02 3.63056E-01 1.08533E-01-5.50685E-01
 -1      2023 1.37749E-01 2.00648E-01-4.70351E-02-9.80143E-02-1.51300E-01 6.80602E-01
 -1      2024 8.58821E-02 7.71812E-02-1.70422E-01 1.46199E-01 3.14421E-02-1.67918E-01
 -1      2025-8.92446E-01-8.97662E-01-5.01829E-03-6.11903E-01 3.28676E-01 2.38902E-01
 -1      2026-3.30871E-01-9.56427E-02-1.26031E-01-2.05040E-01 3.09766E-01 1.79228E-01
 -1      2027 2.18909E-01 3.76268E-01 1.89213E-01-1.20135E-01-4.62179E-01 2.31848E-01
 -1      2028-6.70858E-01-5.50098E-01-1.53647E-01 2.68776E-01-3.90042E-02-1.69013E-02
 -1      2029-1.21570E+00-7.08779E-01-1.14220E-01 1.11658E-01-7.58081E-02 6.26383E-03
 -1      2030-8.87137E-01-3.99768E-01-7.95546E-02 1.68570E-01 2.94106E-02 4.77277E-03
 -1      2031 3.53060E-01 1.66003E-01-2.44179E-02 1.58223E-01 2.18953E-01 6.00123E-01
 -1      2032 1.47408E+00 5.15306E-01-1.30579E-02-1.24821E-01-2.07672E-02-7.20289E-02
 -1      2033 2.90287E-01-8.85367E-02 6.51118E-03 1.57081E-02-2.11691E-01 1.83750E-01
 -1      2034-7.13944E-02-2.07489E-01 8.02040E-02 8.51730E-02 7.40498E-02 2.34591E-02
 -1      2035-1.72593E-01-3.16865E-01 2.65577E-01-6.25422E-02 1.88833E-01 2.24909E-01
 -1      2036-9.10957E-01-4.59237E-01-2.19602E-01 2.39102E-01-1.34075E-01-2.89383E-02
 -1      2037 1.10974E+00 3.91890E-01 1.28484E-01 1.91446E-01-9.72270E-03 4.87471E-02
 -1      2038 6.09916E-02 4.47534E-01 3.60908E-02 5.09924E-02 3.66540E-01 3.18763E-01
 -1      2039 1.38939E+00 3.45747E-01 6.04351E-02 1.49809E-01 9.73467E-02 2.14948E-02
 -1      2040 3.16330E-01 4.29352E-02 9.07657E-02-4.76700E-02-2.95082E-01 3.82243E-01
 -1      2041 6.95925E-01 3.54326E-01-6.25644E-02 3.80582E-01-5.33945E-02-1.01413E-01
 -1      2042-1.21155E+00-7.36061E-01-3.37210E-01 1.60410E-01 8.32011E-02-6.12019E-02
 -1      2043-2.22905E-01 1.23778E-01 6.58811E-02-3.56540E-01 2.45905E-01 7.16494E-01
 -1      2044 5.07653E-01-1.62755E-01-5.03030E-02-1.67317E-03-3.97956E-02 8.07629E-03
 -1      2045-3.34424E-01-2.20750E-01-1.93879E-01-3.18037E-02 7.05442E-02 2.05505E-01
 -1      2046-4.82976E-01-3.42867E-01-2.22559E-01 9.11910E-02 2.83767E-01 3.51642E-01
 -1      2047 2.69634E-01 1.93995E-01 1.64070E-01-3.60818E-01-6.80858E-03-3.38220E-01
 -1      2048 1.13129E+00 3.15135E-01-1.26559E-01-5.53201E-01-1.50743E-01-4.66041E-01
 -1      2049 6.79507E-01 4.42544E-02 2.74442E-02-2.19578E-01-1.94526E-01-1.36365E-01
 -1      2050-9.38880E-01-2.27704E-01-3.11514E-01-1.22642E-01 1.16588E-01-7.72355E-03
 -1      2051 1.90366E-01 1.73756E-01 9.12213E-02-1.40590E-01-3.08097E-02-4.04835E-02
 -1      2052-3.93567E-01-2.10509E-01-1.86619E-01 1.43450E-02-8.39142E-02 2.59487E-01
 -1      2053 4.10548E-01-1.13613E-01-1.56248E-01-1.63637E-01-5.38328E-03 7.60956E-01
 -1      2054-1.91427E-01-2.38359E-01-1.11424E-02-1.47273E-01-1.94446E-01 6.14591E-01
 -1      2055-1.22839E+00-6.86518E-01 1.54862E-01 1.65942E-02-4.69712E-03 6.31888E-02
 -1      2056 2.93016E-02 2.08241E-01-1.29021E-01-2.92511E-02 1.26228E-02 1.00802E-02
 -1      2057-2.56464E-01-1.79538E-01-1.37272E-01-8.41242E-02-4.28230E-03-4.81766E-02
 -1      2058 4.02250E-01 4.04460E-02-6.78986E-02-1.53646E-01 3.57869E-01 3.62678E-01
 -1      2059 2.98680E-01 6.88271E-02-1.63557E-01-1.74694E-01-1.98565E-01-3.19768E-02
 -1      2060 1.31974E+00 1.12902E-01-7.94343E-02-1.26004E-01-1.85259E-03 3.73931E-02
 -1      2061 3.09003E-01 1.44304E-01 1.56835E-01-2.22637E-02-2.79949E-01 1.79721E-01
 -1      2062-1.32098E+00-5.87253E-01-3.02254E-01-7.94224E-02 8.11190E-02 1.19652E-01
 -1      2063-3.97885E-01-2.24213E-01-4.21442E-02-1.52695E-01 1.00273E-01-1.18001E-01
 -1      2064-7.48908E-01-9.99836E-02-1.44927E-01 2.96125E-01-8.25202E-02-2.32284E-01
 -1      2065-6.23263E-02 2.19965E-02 2.54009E-02 2.09482E-01-5.72505E-02-1.65445E-01
 -1      2066 6.63778E-01-1.98819E-01-1.77586E-01 1.87402E-01 2.89528E-01 5.82699E-01
 -1      2067 3.76936E-01 1.20981E-01 2.05537E-01-3.28275E-01-5.29267E-02-2.34030E-01
 -1      2068 9.72606E-01 3.40988E-01-1.01168E-01-2.57420E-01-1.13277E-01-4.25000E-01
 -1      2069-9.53446E-02-1.09454E-01 2.10236E-02-7.39618E-02 1.38313E-01-1.37997E-02
 -1      2070 3.96860E-01 2.68095E-01-4.67610E-02 2.20733E-01-1.79421E-01 4.68234E-01
 -1      2071-1.08282E-01-8.19838E-02 1.00732E-01-2.45458E-01 1.22375E-01-3.96697E-02
 -1      2072-5.89290E-01-2.21000E-01-8.64495E-02 2.53010E-01-2.13752E-01-3.98263E-02
 -1      2073-7.51666E-02 2.22681E-02 9.70109E-02-4.94297E-02 1.45685E-01-1.54169E-03
 -1      2074 7.68399E-01 1.08578E-01 8.04421E-02 1.97879E-01 4.19215E-01 6.22720E-01
 -1      2075 1.07721E+00 3.88713E-01 1.39861E-01-1.40214E-01-9.66414E-02-7.30928E-02
 -1      2076 2.39152E-01 2.26517E-01 1.69690E-01 1.47862E-01 4.99459E-01 4.01348E-01
 -1      2077-1.66726E-01-1.82817E-01-1.65013E-02 1.07093E-01 3.12322E-01 8.68921E-01
 -1      2078 1.21133E+00 5.36663E-01 2.01890E-01 3.90438E-02-4.65284E-02-2.59440E-02
 -1      2079 1.08231E+00 5.31133E-01 2.02694E-01-1.33207E-01 2.34694E-02-1.18229E-01
 -1      2080-2.35388E-01-1.57757E-01-2.45257E-01-4.48644E-02 1.01075E-01 2.09284E-01
 -1      2081-1.37478E-02 2.73191E-01 1.17386E-01 8.19420E-03 3.02423E-01 3.84834E-01
 -1      2082 5.21530E-01 2.97478E-04-2.34594E-01-2.47845E-01-1.87303E-01 6.37519E-01
 -1      2083 1.96173E-01 7.53998E-02-3.69806E-02-9.42528E-04-1.66201E-02-1.19575E-02
 -1      2084 1.96076E-01 1.12073E-01 1.96816E-01 8.25153E-02 3.41621E-01 8.88745E-02
 -1      2085-1.82493E-01-3.95805E-01-2.12885E-01-1.90908E-02-3.85282E-01-1.29021E-01
 -1      2086 6.36340E-02 2.39371E-01-5.19889E-02 3.08942E-01 1.81287E-01 7.08025E-01
 -1      2087 1.04448E-01 2.31785E-01 4.80658E-02 3.69696E-02-2.79800E-01 2.03645E-01
 -1      2088-1.76231E-01-3.27040E-01-1.35755E-01 4.07003E-02-8.98288E-02 2.70188E-01
 -1      2089-2.57525E-01-1.25392E-01-2.80674E-02 2.02087E-01-4.68685E-02 1.71947E-02
 -1      2090-1.25657E-01-6.78775E-02-1.58997E-02 6.13674E-01-2.55717E-02-3.16798E-01
 -1      2091 2.86549E-02 1.37426E-01 8.99240E-02-6.68604E-03 1.34061E-02-1.38725E-01
 -1      2092-3.28489E-01-4.46474E-02 2.00468E-01 1.52790E-01-3.35084E-01 5.52873E-01
 -1      2093-7.18629E-01-2.52415E-01 1.50252E-02 3.49427E-01 1.49986E-02-1.68180E-01
 -1      2094 6.40649E-02-2.42667E-01-4.24794E-02-6.12301E-02-1.75421E-01 1.03830E-01
 -1      2095-1.06067E-01-4.93621E-02-6.97098E-02 2.26520E-01-3.51369E-01 5.60766E-01
 -1      2096-5.13821E-01-4.91301E-02-7.30642E-02 1.73089E-01-2.61375E-01 8.48246E-01
 -1      2097 2.13426E-02-2.95474E-01-5.18711E-02-8.57773E-02-1.23806E-01 6.85700E-01
 -1      2098 1.63818E-01-7.08423E-02 3.90915E-03 8.93608E-02 4.49722E-02 2.76710E-02
 -1      2099-1.03797E-01 9.57616E-03-1.03979E-01 5.51441E-02-5.05933E-02-2.75226E-02
 -1      2100-1.38806E-02-1.48120E-02-1.18088E-01 7.75319E-02 3.60463E-01 6.54884E-01
 -1      2101-2.86104E-01-2.17954E-01-7.20805E-01 1.10283E-01-3.31788E-01 1.46639E-01
 -1      2102-9.16983E-02-6.12122E-02 1.35387E-01 4.62226E-02 2.88695E-02 1.85324E-02
 -1      2103 5.48456E-01 2.97118E-01 1.33808E-01 5.69399E-03-1.63088E-01 8.84582E-01
 -1      2104 1.19367E-01-4.80377E-02 1.49273E-01-1.17039E-01-3.01234E-01 9.31976E-01
 -1      2105-1.60814E-01 1.84210E-01 6.02938E-02 1.39096E-01-1.33593E-01 1.57950E-02
 -1      2106 3.99736E-01 1.81522E-01 6.62311E-01 1.61060E-01 4.08835E-01 3.18217E-02
 -1      2107 2.01492E-02 8.14407E-03 1.50682E-02 2.31013E-01 2.95329E-02 1.79595E-02
 -1      2108-5.26133E-01-4.37204E-01-4.57755E-02 3.09982E-01-3.02821E-01 6.12717E-01
 -1      2109 4.90982E-01 1.44722E-01-2.00867E-01 1.70329E-01-6.39987E-02 8.17057E-01
 -1      2110-9.42186E-01-5.81543E-01 3.73389E-02 3.16714E-01-1.08040E-01-1.72803E-01
 -1      2111-1.23978E-01 2.72073E-02-7.33911E-02 1.37422E-01-8.43386E-03-9.06535E-03
 -1      2112 8.78126E-01 3.76022E-02 3.20270E-01 2.97838E-02-5.90927E-03 1.13065E+00
 -1      2113-5.59753E-02-4.07285E-01 1.32972E-02-1.64765E-01 4.09200E-01 3.08733E-01
 -1      2114 1.10534E+00 5.90128E-01 1.11737E-01-4.10126E-02 5.50811E-02-4.14729E-02
 -1      2115 1.89983E-01 2.48374E-02 2.19817E-01 6.79393E-03-1.93352E-01 8.14584E-01
 -1      2116 3.23378E-01 4.54411E-02 2.94143E-01 6.00910E-03 5.12699E-01 6.45687E-01
 -1      2117 1.09335E-01 1.40575E-01-4.98285E-02-5.57484E-02 6.73976E-02 3.69439E-02
 -1      2118-4.03710E-01-1.63833E-01-1.02873E-01 3.61713E-01 3.18805E-03-2.30384E-01
 -1      2119-2.50516E-02 8.12718E-02-1.39985E-01 5.38110E-02-7.31060E-02-1.71658E-02
 -1      2120 6.44641E-01 2.00285E-01 1.12200E-01 1.28887E-02 2.56239E-02 5.48335E-01
 -1      2121-3.01726E-01-1.78146E-01 4.00843E-01 1.44601E-01 2.40230E-02 7.59920E-01
 -1      2122 9.29552E-02 4.97333E-02 5.71370E-02-1.18327E-01-6.10496E-02 4.47290E-03
 -1      2123-9.74995E-02-9.81859E-02-1.91039E-01 8.53963E-02 9.20875E-02 4.59622E-02
 -1      2124 1.55406E-02-7.12787E-03-5.03636E-02 3.27848E-02 1.14137E-01 5.82432E-02
 -1      2125-7.89946E-02-2.43930E-01-1.22433E-01 1.59814E-02 2.55755E-01-5.61134E-02
 -1      2126-1.11461E+00-1.61033E-01-4.43622E-02 1.96635E-01-2.17114E-01 1.04460E+00
 -1      2127-1.10582E-01 2.92295E-02 2.84021E-03 1.55294E-01-2.10480E-01 5.45645E-02
 -1      2128 1.23951E-01 3.25270E-01-1.13856E-01-1.76893E-01-5.21280E-01 4.33328E-01
 -1      2129 4.11252E-02 1.74055E-01 1.49911E-01-4.92866E-02-2.82316E-01 4.47770E-01
 -1      2130-2.54773E-01 2.64454E-01 1.26330E-01 4.83409E-02 7.87586E-03 1.38850E-02
 -1      2131 5.03194E-01 1.28625E-01 1.57140E-01 1.62747E-01 4.57366E-02 4.09895E-02
 -1      2132 2.67943E-01 9.44876E-01 6.30405E-02 1.28396E-01 2.96482E-01 6.92844E-02
 -1      2133 1.34850E-01 1.41235E-01-9.71981E-02-1.73893E-01-1.21237E-01-1.69337E-01
 -1      2134 1.70262E-01 1.34787E-01-3.01050E-01-6.48459E-02-4.09057E-01 6.70780E-01
 -1      2135-9.58327E-01-3.85601E-01-3.77226E-02-7.03916E-03-1.69909E-01 1.04947E-01
 -1      2136 2.01911E-01 2.71859E-01 1.46743E-01-2.74094E-01-2.69659E-01 4.90266E-01
 -1      2137-8.27719E-01-1.39829E-01-5.54734E-02 4.05660E-01-1.59053E-01-2.97928E-01
 -1      2138-7.45759E-01-4.42261E-02 6.67777E-01 1.72838E-01-1.49786E-01 3.88283E-01
 -1      2139 4.61980E-02 3.92441E-02-8.44121E-02 1.32101E-02 9.90707E-02 4.43541E-04
 -1      2140 1.21434E+00 3.76309E-01 1.20390E-01 5.31662E-01 2.56924E-01-5.84995E-01
 -1      2141 1.70658E-01 1.08922E-01 1.33877E-01-8.34055E-02 7.29924E-02 5.12688E-02
 -1      2142-1.37168E-01-2.05037E-01-4.35814E-02-1.98953E-01 3.11607E-02 1.96131E-01
 -1      2143-1.53243E-01-4.60578E-02-2.12155E-01 5.92626E-02 5.90861E-01 3.95509E-01
 -1      2144-4.53690E-01-3.65363E-01-1.02003E-01 3.37318E-01 6.69938E-02 1.02495E-02
 -1      2145-9.32338E-01-5.73849E-01-2.11515E-01 2.20598E-02-1.81082E-02-1.25602E-01
 -1      2146-1.86964E-01-1.05393E-01-1.63364E-01-4.46516E-02 2.87120E-01 3.60596E-01
 -1      2147-8.17444E-02-5.05862E-02-1.59052E-01-1.20549E-01-1.08701E-01 8.66099E-01
 -1      2148 1.00777E-01-1.16519E-01 1.59580E-01-8.74142E-02-2.06372E-01 7.15384E-02
 -1      2149 6.12501E-02 9.28504E-04-9.85748E-02-9.66701E-02-1.09751E-02-1.12423E-01
 -1      2150-3.06957E-01-6.92923E-02 8.99720E-03 3.17081E-02 4.06952E-02 8.10145E-01
 -1      2151-3.77505E-01-2.21714E-01-1.53906E-01-1.19472E-01-4.72137E-01 2.30892E-01
 -1      2152 9.63781E-02-1.47344E-02-4.80285E-02 1.32279E-01 8.97342E-02-5.01951E-01
 -1      2153 1.19585E+00 4.94909E-01 4.27456E-02 4.65661E-02 6.72911E-02-9.87779E-02
 -1      2154 6.79968E-01 1.45289E-01 2.68510E-01 4.77614E-02 3.98451E-01 6.59582E-01
 -1      2155-5.61388E-02 6.21660E-01-6.57906E-02-1.70452E-01 2.72834E-01 7.31690E-02
 -1      2156 1.67014E-01 9.03292E-02-1.73313E-01 2.17914E-01-6.51511E-02 1.35419E-02
 -1      2157 4.77735E-01 9.64396E-01 1.31098E-01-3.58148E-01-5.77052E-01 3.59504E-01
 -1      2158 2.15428E-02 5.65664E-02 5.60070E-03-1.00621E-01-7.96111E-02 5.72710E-03
 -1      2159-4.36254E-01-1.60871E-01-1.65045E-01-3.81106E-01 6.00865E-02-2.50701E-01
 -1      2160-9.60444E-03-4.17355E-01-5.31583E-03 1.94917E-01-2.62357E-01 2.99978E-01
 -1      2161 2.66480E-01 6.85124E-02-9.69990E-02-8.82015E-02-2.18065E-01 1.56252E-01
 -1      2162-1.22082E-01-4.30665E-01-5.79787E-01-1.22468E-02 6.52010E-01 4.50772E-01
 -1      2163 6.73927E-01 9.71087E-01-1.07167E-01 4.45368E-01 2.71289E-01 4.07661E-01
 -1      2164-2.02898E-01-2.69980E-01-4.68019E-02 1.41272E-02 1.86671E-01 6.69182E-01
 -1      2165-7.90956E-01-6.47380E-01-3.15474E-01-3.61368E-01 5.60515E-01 9.67794E-01
 -1      2166-1.19807E+00-1.95603E-01 5.11448E-02 8.94317E-02-1.53046E-02-6.44702E-02
 -1      2167 1.27231E+00 5.83821E-01 2.13462E-01-1.93966E-01-6.18017E-02 6.08549E-02
 -1      2168-6.44549E-01 1.89925E-01 2.69182E-02 1.02299E-02 3.34568E-01 8.72272E-01
 -1      2169-3.34680E-01 2.26783E-01-1.48865E-01 5.37703E-02 2.71234E-01 6.06695E-01
 -1      2170 2.06427E-01 1.37917E-01 1.60976E-01-2.55077E-02 1.69332E-01 1.75544E-01
 -1      2171 1.66649E-02-2.00534E-01 9.37993E-02 1.46958E-01 1.67726E-01 3.89365E-02
 -1      2172 4.80767E-01 2.78175E-01 1.70114E-01 2.06314E-01-2.20165E-02 1.74826E-01
 -1      2173 1.78633E-01 1.40771E-01 1.66878E-01-7.91235E-02 3.85835E-02 4.54353E-02
 -1      2174 1.14429E+00 4.51553E-01 2.41418E-01 2.33685E-02-2.46046E-02-1.19123E-01
 -1      2175-1.49941E+00-5.40699E-01-3.54498E-01 1.34829E-01-5.33749E-02-1.39041E-01
 -1      2176-1.44281E-01 1.31449E-02 8.47355E-02-2.42186E-01 7.04603E-02-2.17236E-01
 -1      2177-9.67296E-01-3.24485E-01-4.38591E-01 1.85841E-01-5.51880E-01 8.49797E-01
 -1      2178-1.67776E-01 5.45486E-02-2.98171E-01-8.31915E-03 4.88622E-02 7.49694E-02
 -1      2179-6.80313E-03-1.07103E-01-5.27869E-02-1.18844E-01-3.97143E-01 3.67016E-01
 -1      2180-2.66712E-02-1.05165E-01-3.08785E-02-8.17599E-02-3.40285E-02 3.82469E-02
 -1      2181-9.94770E-01-3.09710E-01-3.92076E-01 1.94425E-01-7.50414E-02-1.28818E-01
 -1      2182 5.11218E-01 2.74619E-01 3.03237E-01 2.66275E-01 3.07419E-01 2.37970E-01
 -1      2183-1.43053E-01 3.06966E-01-3.03604E-02-5.70432E-02 4.04804E-01 1.63577E-01
 -1      2184-1.17287E-01-4.53246E-01 1.02670E-01 1.36176E-01-1.52099E-01 4.63363E-01
 -1      2185-1.26988E+00-6.13646E-01-2.70706E-01 1.12221E-01 2.01024E-02-8.19387E-02
 -1      2186-1.78342E+00-6.48074E-01-3.59557E-02-3.57611E-02-7.02668E-02-1.05014E-01
 -1      2187 4.33125E-01 5.49362E-02 1.34334E-02 2.55677E-02-9.62465E-02-5.05133E-01
 -1      2188 9.35341E-01 3.22367E-01-5.35247E-02-1.16519E-01-2.03667E-01 4.15442E-01
 -1      2189-8.48937E-01-4.20559E-01 8.36159E-02-2.14029E-01 1.16422E-02 5.10313E-02
 -1      2190-6.25112E-03 2.36082E-01-1.66847E-01-2.02823E-02-1.76609E-01-6.37863E-02
 -1      2191 4.62713E-01 2.62282E-01-6.87698E-02-8.25328E-02-2.70125E-01 6.62438E-01
 -1      2192 1.00652E-01 1.39482E-01-1.05836E-01 1.74866E-01 3.99175E-01 5.17569E-01
 -1      2193 3.89684E-02 1.99833E-02 3.24763E-02 4.98230E-03-3.82411E-02-3.10456E-02
 -1      2194 7.43620E-01 2.29738E-01 4.02487E-01 3.17079E-02-1.13806E-02 8.45499E-01
 -1      2195 2.51428E-02-1.47339E-01-1.98147E-01-3.00724E-02-2.53006E-01-1.13003E-01
 -1      2196 1.43450E-01 2.93551E-01-8.91724E-03-4.23240E-02-3.26462E-01 4.55367E-01
 -1      2197-1.97534E+00-8.95092E-01 3.51703E-01 2.84593E-01-1.50154E-01-2.10537E-01
 -1      2198-4.38939E-01-2.82084E-01-2.93466E-01-1.82636E-01-3.05320E-01 7.32375E-01
 -1      2199-3.50635E-01-2.81282E-01 4.61761E-02 4.12267E-01-6.69374E-02-1.78881E-01
 -1      2200 4.34613E-01 1.61630E-01-1.47830E-01-3.18801E-02-4.59996E-03 1.99653E-02
 -1      2201-8.00298E-01-4.40013E-01-2.70352E-01 6.81458E-01-3.06935E-01-3.05864E-01
 -1      2202 1.33450E-01 2.37629E-01-1.90390E-01-7.61095E-03 4.72778E-02 3.65264E-01
 -1      2203 1.12096E-01 5.87918E-01-1.12189E-01-3.84489E-01-1.64729E-01 5.35356E-01
 -1      2204 2.29711E-01 7.61524E-01-2.12478E-01-4.31282E-01 7.00859E-02 7.03388E-02
 -1      2205-1.30717E-01-2.06611E-01-7.70298E-02-3.33332E-02-6.21236E-02 5.44668E-01
 -1      2206-7.55592E-01-3.93724E-01-2.72076E-01 1.72352E-01-2.27792E-01-1.91490E-01
 -1      2207 1.04255E+00 3.49365E-01 2.62295E-01-1.45426E-02-9.96942E-02 2.28259E-02
 -1      2208 8.88863E-01 5.39619E-01 7.07612E-02 6.26773E-02-6.04012E-02 2.18717E-02
 -1      2209-8.87904E-01-7.32308E-01 2.09477E-02-5.16608E-02-5.29402E-02 2.35114E-01
 -1      2210-1.03211E-01-2.75265E-01-1.54346E-01-9.22651E-03-2.23267E-01 5.07622E-02
 -1      2211-8.07184E-01-6.06931E-01-6.40483E-02-4.42135E-02-2.18479E-01 3.98555E-01
 -1      2212-2.88261E-01-2.30881E-01-1.85710E-01-3.12026E-01-5.56898E-02-1.81034E-02
 -1      2213-2.20356E-01 7.04985E-02 1.63758E-01-2.55028E-01 1.79946E-02 7.04132E-01
 -1      2214-1.04439E+00-3.50231E-01 1.71826E-01-1.85786E-01 9.44220E-03-2.09501E-01
 -1      2215 2.47804E+00 8.72041E-01 3.97852E-01 2.65148E-01-2.77612E-01 1.13699E+00
 -1      2216-5.50921E-01 1.06448E-01 9.44508E-02-4.15602E-02-6.34259E-03 7.83090E-01
 -1      2217 2.20198E-01-2.27519E-02 1.75349E-01 1.68797E-01-6.34789E-01 4.88541E-01
 -1      2218-9.31671E-02-1.34865E-01 2.30081E-02 1.94511E-01-7.98839E-02 6.00628E-01
 -1      2219 6.64677E-02 3.75493E-01 3.13633E-02-8.70368E-02 1.96208E-01 7.02077E-02
 -1      2220-1.33073E+00-4.01828E-01-1.29725E-01-6.98381E-02 1.33313E-01 1.29048E+00
 -1      2221-6.72783E-01-2.12385E-01-8.79452E-02-2.35202E-01 1.71253E-01 7.04220E-02
 -1      2222 3.73924E-03-1.30126E-01-1.56243E-01-5.06260E-01 7.32526E-02-1.33907E-01
 -1      2223 1.40498E-02 1.18740E-01-1.58171E-01 3.75795E-01-1.02731E-01 1.44196E-02
 -1      2224-6.20438E-01-4.10413E-01 8.24478E-02 2.14286E-01-1.49480E-01 7.40603E-01
 -1      2225-3.20695E-01-1.64378E-01 6.62145E-02 1.22870E-01-3.70537E-01 4.93141E-01
 -1      2226-5.70427E-01-1.88793E-01-1.00881E-01-2.33739E-01-2.50089E-02 7.65292E-03
 -1      2227-8.05458E-02-1.03826E-01 5.66708E-02 2.74116E-01-5.18663E-03-2.96484E-01
 -1      2228 2.37857E-01 2.07192E-01 1.24669E-01-9.59519E-02-1.41318E-01-1.81103E-02
 -1      2229 1.18493E+00 4.33713E-01 2.84136E-01-2.10762E-01-1.06695E-01-4.37543E-02
 -1      2230 2.34533E-01 1.15779E-01 3.60149E-02-8.37110E-02-3.57043E-02-4.97816E-01
 -1      2231 3.65504E-01 3.51567E-01 1.98495E-01 4.75419E-02-1.38481E-03 2.61226E-01
 -1      2232 7.60941E-01 3.09024E-01 1.07306E-01 2.09951E-01 8.66546E-02-6.09555E-02
 -1      2233 2.25278E-01 3.99573E-01 1.20149E-01 1.95921E-01 6.26567E-01 5.52887E-01
 -1      2234 1.19361E+00 3.29516E-01 3.48258E-01-3.32179E-01-4.42449E-01 7.77271E-01
 -1      2235 8.16660E-01 3.58887E-01-1.08379E-03-1.22293E-01 2.10216E-01 4.95016E-01
 -1      2236 3.26194E-01 2.47923E-01 8.76250E-02 3.04386E-01 5.32889E-02-6.91721E-02
 -1      2237-5.74378E-01-1.29798E-01 6.62921E-03-3.90855E-01 1.50936E-01-2.32479E-01
 -1      2238-7.53644E-01-4.36366E-01-1.35612E-01 3.16510E-01-2.71247E-03 3.13210E-02
 -1      2239 6.42478E-01 4.92044E-01 1.09223E+00 3.95495E-02-1.85463E-01 7.24499E-02
 -1      2240 2.27604E-01 1.02512E-01 7.09403E-02 6.28027E-02 1.41785E-01 6.12861E-02
 -1      2241-8.02627E-01-4.10748E-01-3.25101E-02-3.13386E-01-7.85286E-02-4.59994E-02
 -1      2242 3.24467E-01-5.48963E-02 9.94981E-02 1.72445E-01 1.57400E-01-8.73384E-02
 -1      2243-1.42886E+00-4.45511E-01-2.07210E-01-1.87275E-01-4.65083E-02-3.08123E-02
 -1      2244-9.03478E-02-2.13023E-01 2.36876E-01 1.74495E-01-2.24256E-01 4.96770E-01
 -1      2245 1.89548E-01 5.88861E-01-3.01238E-02-2.29146E-01-1.89961E-01 8.26905E-02
 -1      2246 1.10353E+00 4.13754E-01 5.00429E-02-2.10717E-01 1.60684E-02-7.50444E-02
 -1      2247 1.63408E+00 7.50747E-01 4.60070E-01-1.34496E-02-1.78045E-02-1.79084E-01
 -1      2248 2.38081E-01 2.90901E-03 1.02221E-01 4.59357E-02-4.52757E-02 5.77516E-01
 -1      2249 6.15808E-02 2.94735E-01-3.47337E-02-3.77192E-02 1.05131E-01 1.08982E-01
 -1      2250-1.64131E-01-2.14939E-01-2.19328E-01-1.48739E-01 4.44148E-01 1.78860E-01
 -1      2251 3.43312E-01 1.91825E-01 6.89989E-02 5.09870E-02 2.60908E-02 5.78978E-01
 -1      2252 4.00343E-01 2.42560E-01-7.89052E-03-3.52015E-01-6.08930E-02-3.70594E-02
 -1      2253 5.71916E-01 3.75098E-01 1.06253E-01-3.49787E-01-7.78331E-02-1.79928E-01
 -1      2254-4.22752E-02-3.52331E-01-1.71292E-01 1.07036E-01-4.36993E-01 1.99325E-01
 -1      2255 9.76930E-01 2.25095E-01-4.68140E-02 3.31232E-01 7.60818E-02-8.99817E-02
 -1      2256-3.96082E-01-1.61202E-01-6.28859E-02 5.83345E-02-3.63368E-01 5.49328E-01
 -1      2257 2.23478E-01 9.19309E-02-9.40523E-02 2.30134E-01 9.48838E-02 6.43628E-03
 -1      2258 1.33949E+00 5.52696E-01 2.18351E-01-3.75290E-02-3.28393E-02 3.50413E-02
 -1      2259 2.88900E-02 1.14615E-03-2.35442E-02 2.56796E-01-3.42804E-02-2.65061E-01
 -1      2260 1.04028E+00 3.36057E-01 1.14952E-01 3.10003E-01 7.11789E-02-1.26892E-03
 -1      2261 8.53317E-02 3.78099E-01 1.30591E-01 1.37855E-02 2.98199E-01 3.79283E-02
 -1      2262 2.61620E-01-2.97474E-02 3.27926E-01 1.36829E-01 3.30392E-01 2.80118E-01
 -1      2263 1.95606E-02-2.20231E-01-1.29241E-02-2.81197E-02 1.15299E-01 2.66612E-02
 -1      2264 5.72099E-02-5.83606E-02 2.10920E-02-2.94263E-02-9.74192E-02 2.62607E-02
 -1      2265-4.14307E-01-2.59505E-01-5.74431E-02-7.42022E-02-3.65043E-01 3.49295E-01
 -1      2266 1.08504E-04 2.48982E-01 1.27826E-02-4.73456E-03-1.47197E-01 1.64447E-01
 -1      2267-1.87826E-01-3.32416E-02 1.76490E-01-8.51547E-02-1.01946E-01 1.03399E-02
 -1      2268-1.05723E-01-2.81149E-01-6.02271E-02 1.72334E-02-3.11344E-02 3.46396E-02
 -1      2269 6.88693E-01 2.76803E-01 1.93205E-01 2.40739E-01-4.50211E-02 3.90856E-02
 -1      2270-3.00730E-01-2.36803E-01-6.92833E-02 1.76210E-03-8.79358E-02 1.05751E-01
 -1      2271-1.12233E+00-5.30300E-01-1.01160E-01-3.23597E-01 1.34531E-01 7.79602E-02
 -1      2272 9.76615E-02 3.05966E-01 1.09594E-01-1.88541E-01-5.32840E-01 4.06032E-01
 -1      2273 1.17952E+00 5.82303E-01 2.32171E-01-1.70625E-02 7.06514E-02 2.88387E-02
 -1      2274-4.54130E-01-3.04606E-01-2.53395E-01-4.28496E-01-5.70501E-02-1.04663E-01
 -1      2275 3.81407E-02 2.20813E-02 7.52244E-02-1.08297E-01-2.07275E-02-3.12400E-02
 -1      2276 8.82077E-01 7.66115E-01 7.82680E-01-3.28439E-01-7.77178E-01 1.00190E+00
 -1      2277-2.97354E-01-9.64288E-02-8.39442E-02 7.70141E-02-9.82112E-02 1.61588E-01
 -1      2278-4.78967E-01-9.79314E-02-1.00959E-01-2.14059E-02-1.30508E-02 9.43565E-02
 -1      2279 4.80309E-02-3.25143E-01-9.43923E-02-7.30635E-02-2.27668E-01 1.49294E-01
 -1      2280-5.07908E-01 1.14531E-01-5.46508E-02-4.45250E-01-8.71134E-03-2.43469E-01
 -1      2281-4.88288E-02-2.00898E-02-1.79687E-01 3.64549E-01 1.30586E-02-2.55420E-01
 -1      2282-1.59037E+00-6.52563E-01-2.41573E-02 1.99752E-01-7.79459E-02-8.36595E-02
 -1      2283 8.94590E-02-1.99166E-01-3.74575E-02-1.85666E-01 7.26070E-04-3.76013E-02
 -1      2284-1.24429E+00-3.23399E-01-2.08917E-01 1.28715E-01-4.55590E-02-5.14686E-02
 -1      2285-1.33420E-01 1.78902E-02 8.68394E-02 9.84614E-02 5.25420E-02 4.43562E-02
 -1      2286-2.19807E-02-1.63233E-01 3.58498E-02 7.50262E-02 4.52227E-01 9.63371E-01
 -1      2287-4.74536E-03-9.29521E-02 2.03196E-03 6.71736E-02 7.98200E-02 4.71557E-02
 -1      2288 6.52769E-01 1.16132E-01 5.85612E-02 2.36662E-01 1.95150E-01-2.79072E-01
 -1      2289-3.63901E-01-1.49727E-01-1.69592E-01-8.42253E-02 1.38465E-02-4.84172E-01
 -1      2290 9.16104E-01 3.51941E-01 1.39105E-01-2.60962E-01-4.43870E-02-1.11939E-02
 -1      2291-6.02198E-01-1.99173E-01-5.83496E-02-3.59251E-01 1.21546E-01-5.48690E-02
 -1      2292-2.77664E-01-4.12628E-01 1.17676E-01 3.46478E-01-4.17058E-01 3.75277E-01
 -1      2293 1.05809E+00 4.69533E-01 1.38487E-02 3.87048E-01-7.40345E-02-6.65484E-02
 -1      2294 8.84505E-01 3.23108E-01 7.15147E-02-2.20311E-01 8.87950E-02-1.21816E-01
 -1      2295 1.31150E-01 1.31044E-01 7.17404E-02 3.15956E-02 2.22875E-01 8.12819E-01
 -1      2296 8.95580E-02 1.33284E-01-4.02128E-02 2.12766E-01-9.73973E-02-8.85555E-03
 -1      2297-5.91449E-02 1.55024E-01 1.40858E-01 5.31101E-03-2.67747E-01 3.75973E-01
 -1      2298-3.94357E-01-7.03113E-01-6.17884E-02 2.76426E-01-4.83856E-01 4.35476E-01
 -1      2299 2.35650E-02-1.45343E-01 3.43466E-02-8.89486E-02-2.75247E-01 2.47608E-01
 -1      2300-3.28251E-02-1.12187E-01 9.27698E-04-1.15075E-01 8.48111E-02 1.18530E-01
 -1      2301-1.29124E+00-5.26913E-01 8.44445E-03 7.75695E-03 8.07309E-03-5.10095E-02
 -1      2302 2.24498E-02 1.46697E-01-2.04254E-02-9.63582E-02-1.58116E-02 8.50866E-02
 -1      2303 7.53989E-01 3.23447E-01 7.61232E-02-3.34814E-01-4.22709E-01 2.67342E-01
 -1      2304 9.99093E-02-1.24515E-02-1.20696E-01-3.89232E-01-2.82797E-02-2.03236E-01
 -1      2305-1.39903E+00-5.00182E-01-7.43315E-02 6.93648E-02 1.04562E-02-1.69411E-01
 -1      2306-5.55336E-01-5.18245E-01-6.02459E-02-1.36000E-01-8.14334E-02-1.59232E-02
 -1      2307 2.42364E-01 1.97150E-01 1.81432E-01 1.79845E-01 1.90715E-01-1.49004E-01
 -1      2308 3.53027E-02-9.68922E-02-1.16641E-01-4.84519E-02-1.98976E-01 1.44212E-01
 -1      2309 4.96192E-01 1.54820E-01 2.85658E-02-4.12552E-01-7.62365E-02-7.41447E-02
 -1      2310 1.10624E+00 5.25881E-01 8.67625E-02-1.78149E-01-1.00599E-01-5.53449E-02
 -1      2311 9.86653E-03 4.30337E-02-8.44918E-02 4.08714E-02 8.86224E-03 3.02933E-03
 -1      2312 9.03893E-02 1.93129E-03 1.88743E-01-1.04327E-01-3.31177E-01 4.19262E-01
 -1      2313-9.51389E-01-5.35303E-01-1.53742E-01-2.15346E-02 6.73181E-02-6.01164E-02
 -1      2314 3.53751E-01 2.19451E-01-4.52674E-02 3.33725E-01 7.41220E-02-5.39731E-02
 -1      2315 1.26916E-01 3.28643E-01 4.83190E-02 3.13095E-04 9.79891E-02 1.91952E-01
 -1      2316 2.50792E-01 5.10308E-01 2.52552E-01 2.72981E-01 6.10124E-01 6.32508E-01
 -1      2317-1.30511E-01 9.96104E-02-8.24413E-02-2.18256E-01-3.15974E-03-2.06548E-02
 -1      2318 1.19087E+00 3.08143E-01 8.23405E-02 3.06317E-01 7.48913E-01 1.02899E+00
 -1      2319 3.52475E-01-5.50127E-03 3.02415E-01 2.62038E-02 9.42917E-03 8.46527E-01
 -1      2320-6.00832E-02 1.58821E-01 3.57640E-01 9.24296E-02-5.19448E-01 3.42262E-01
 -1      2321 9.58161E-02-3.31981E-02-1.13063E-02 1.07529E-01-2.78199E-01 1.67663E-01
 -1      2322-6.03203E-01-3.06150E-01-1.07665E-01-4.39977E-01 4.85415E-02-4.72826E-02
 -1      2323-3.54998E-01 2.18217E-01 9.01761E-02-1.18311E-01-6.51896E-02 1.32275E-01
 -1      2324 4.76959E-01 2.32203E-01 1.72522E-01-2.93468E-01 8.84716E-02-1.02282E-01
 -1      2325 4.09223E-01 1.81420E-01-1.64885E-01-2.14180E-01 7.23017E-02-5.27036E-02
 -1      2326-1.69137E-01-8.33355E-02-2.13155E-01-3.33921E-01-2.16103E-03-2.47653E-01
 -1      2327-6.91058E-03 2.86817E-02 2.81502E-02 3.51400E-02-9.81420E-02-1.25241E-02
 -1      2328-1.09195E-01-2.34561E-02-8.17132E-02-2.12830E-01 9.10535E-02 4.11376E-02
 -1      2329-1.32339E-01-6.58690E-02-6.96500E-03 5.99899E-02 2.49611E-01 4.55922E-01
 -1      2330 1.37951E+00 6.24348E-01 1.89349E-01-4.39228E-01-6.60990E-01 1.22970E+00
 -1      2331 1.42411E+00 7.00136E-01 2.40450E-01-1.58281E-01-1.91396E-01 2.13308E-02
 -1      2332 5.96340E-01 1.91165E-01-6.10447E-02-2.26960E-01 1.79451E-01-1.10896E-01
 -1      2333-5.26724E-02 2.12376E-01-2.21837E-02-2.72154E-02 2.42312E-01 1.37227E-01
 -1      2334 9.56463E-02 1.57142E-01 4.92379E-02-9.65721E-02 1.04054E-01 4.92564E-02
 -1      2335-7.54797E-01-4.84427E-01 8.91598E-02 8.60987E-02-2.59686E-01 4.88544E-02
 -1      2336 9.25280E-01 1.92932E-01 2.19439E-02-3.94726E-01 5.77480E-02-1.29720E-01
 -1      2337-8.65836E-01-3.44027E-01-2.05555E-01-2.77366E-01 3.30613E-02-1.54180E-01
 -1      2338 1.86000E-01-8.89863E-02 1.48242E-01-1.69306E-01-1.48102E-01-1.72774E-02
 -1      2339 7.23169E-01 2.96885E-01 5.92210E-02-3.06853E-01-1.29780E-01-2.62525E-01
 -1      2340-1.85299E-01-1.17570E-01 3.30785E-02-1.40089E-01 2.40249E-01 2.47137E-01
 -1      2341 7.11415E-01 3.74929E-01-1.77589E-01 3.65413E-01 2.35483E-01 2.64382E-01
 -1      2342 4.78632E-02-5.35310E-02 6.85676E-02-6.52039E-03 8.19125E-02 7.05857E-01
 -1      2343 7.26313E-01-4.41651E-02 1.10101E-01 1.33866E-01 1.38634E-01 7.61326E-01
 -1      2344-8.69134E-01 1.28847E-02 2.32796E-02 3.82771E-02-1.12756E-01 1.39336E-01
 -1      2345-3.60769E-01-2.77028E-01-8.52436E-02 2.21327E-01 3.86195E-02-1.50562E-02
 -1      2346-1.23999E-01-5.05269E-01-6.20023E-02 4.10642E-02-7.36633E-03 1.41898E-01
 -1      2347 4.06096E-01 2.32656E-01-2.62237E-02-4.27348E-01-5.02384E-02-1.54452E-01
 -1      2348 1.44247E+00 6.06019E-01 3.16547E-01-1.43243E-01-8.74639E-02-9.19169E-02
 -1      2349 2.08348E-01 5.37561E-02 1.61148E-01 7.44609E-04-1.44439E-01 5.49818E-02
 -1      2350-1.62683E+00-6.12180E-01-1.58813E-01-2.88475E-01-4.50264E-02-1.77450E-01
 -1      2351-6.21139E-01-4.54693E-01-4.42825E-02-3.87024E-01 9.65485E-02 1.14314E-01
 -1      2352 1.91216E-01 7.65820E-02 1.09398E-01 1.95399E-02-4.27115E-02-5.55167E-01
 -1      2353-5.79453E-01-3.37109E-01-3.60964E-03-2.06804E-01 5.74520E-02 3.10157E-01
 -1      2354 4.12755E-01 1.82133E-01-2.12248E-02-2.99650E-01-7.04973E-02-1.89223E-01
 -1      2355 2.54045E-01 3.02126E-01 9.04278E-01 1.20327E-02 1.84534E-02 2.75725E-01
 -1      2356-6.03083E-02 6.28744E-01 7.55005E-01-2.57204E-01-1.66865E-01 7.92530E-01
 -1      2357-2.27509E-02-2.92806E-02-5.16992E-02-5.04964E-02-5.78098E-02 1.33063E-02
 -1      2358-9.11151E-01-6.63182E-01-1.38146E-01 1.77072E-01 7.58310E-04-4.09660E-01
 -1      2359 2.62380E-01 5.91469E-01 1.37799E-01-1.50981E-01-7.56918E-01 5.68668E-01
 -1      2360 4.52852E-01 4.76791E-01 2.51273E-01-1.60005E-01-3.16445E-01 4.03434E-01
 -1      2361-6.77985E-01-3.41894E-01-1.06172E-01-2.56713E-01-8.88357E-02-8.22565E-02
 -1      2362-5.73646E-02-8.40540E-02 5.35741E-02-8.72252E-02 2.90900E-02 6.46019E-02
 -1      2363-1.21888E-01-1.87006E-01 1.24931E-01-1.85569E-01 1.00635E-01-3.49773E-02
 -1      2364 8.43337E-01-1.90028E-01-2.63021E-01 1.19823E-01 3.42094E-01 3.43057E-01
 -1      2365 1.48978E+00 5.63980E-01 3.96908E-01-1.91549E-01-3.08896E-02-8.64939E-02
 -1      2366 1.27472E-01-2.61103E-02 3.70658E-02 6.85548E-02-3.81180E-02 1.69592E-01
 -1      2367-1.47038E+00-5.73288E-01-3.36918E-01 1.83067E-01 6.49382E-02-1.21469E-01
 -1      2368 1.05421E+00 2.05924E-01 1.04911E-01 1.61206E-01-3.19085E-02-6.82905E-03
 -1      2369 2.85853E-01 1.87515E-01 6.11259E-02 2.08862E-01-1.34617E-01-7.42927E-02
 -1      2370 3.61902E-01-4.34767E-02-5.52236E-02-2.07744E-01 1.27512E-03 1.24910E+00
 -1      2371-1.02603E+00-3.85040E-01 1.19584E-01-7.08514E-01-7.23189E-01 7.41535E-01
 -1      2372-3.32520E-01-2.70199E-01-1.14159E-02 8.99916E-04-4.84302E-02-5.44211E-01
 -1      2373 5.15297E-01 3.90215E-01 1.18140E-01 1.83792E-01 2.01010E-02-3.78606E-01
 -1      2374 6.10844E-02 7.20586E-02 7.83164E-02-6.59256E-02 3.48317E-02-4.45249E-01
 -1      2375-1.88376E-01-1.70349E-02-2.49373E-01-1.86446E-02 8.56236E-01 5.72045E-01
 -1      2376-1.24079E-01-1.69407E-01-1.37827E-01-4.48414E-02 4.94240E-01 3.21522E-01
 -1      2377 2.73172E-01 7.29740E-02 1.40145E-01-7.04626E-03-3.29862E-01 2.25916E-01
 -1      2378-3.16556E-01-1.55377E-01 2.66467E-03 2.96789E-01-2.26601E-02 7.12650E-02
 -1      2379-5.38620E-01-1.34726E-01 1.70448E-02 2.79253E-01-1.02959E-01-2.13058E-01
 -1      2380 2.50974E-01 2.54967E-02 9.45058E-02-2.03768E-01 8.11951E-02-9.78110E-02
 -1      2381 5.89771E-01 3.43221E-01 1.99109E-02 1.70378E-01 1.15796E-01 1.19545E-01
 -1      2382 1.39164E-02-2.41057E-01-1.54840E-01-1.44923E-01 3.90311E-01 7.09018E-01
 -1      2383 1.18950E+00 7.34141E-01 3.10508E-02 1.37523E-01 7.88727E-02-1.16280E-02
 -1      2384-4.18173E-01-4.47437E-01-1.15352E-01 1.95236E-01-6.68744E-01 6.86493E-01
 -1      2385 3.12817E-01 4.32097E-02-1.77276E-03-1.91426E-01-2.36664E-02-2.37663E-01
 -1      2386 3.56032E-02 2.57820E-01-1.68176E-02 3.62967E-02 2.88958E-01 1.23408E-01
 -1      2387-1.13935E-01 5.21907E-01-2.02086E-01 9.93204E-02-2.85044E-01 1.84309E-01
 -1      2388 1.39761E-01 1.02793E-01 6.37129E-02-1.56923E-01 3.29422E-02-5.47389E-02
 -1      2389 7.56904E-02 3.42368E-01-1.89473E-01-8.39562E-02-2.63735E-01 3.27377E-01
 -1      2390 1.02418E+00 5.26470E-01 4.60439E-04 3.17994E-01 8.72781E-02-7.03147E-02
 -1      2391-9.53133E-01-2.82321E-01-1.23277E-01-2.48988E-01-1.23577E-02-9.55341E-02
 -1      2392 5.31624E-01 4.98168E-01-1.13555E-01-6.58786E-02-1.25837E-01 1.96493E-01
 -1      2393 1.05363E+00 5.27344E-01 2.04646E-01-6.63756E-01-6.83673E-01 4.18030E-01
 -1      2394-6.80340E-01-5.31206E-01-2.58825E-01-1.83546E-01 8.01095E-01 6.85174E-01
 -1      2395-2.01342E-01-4.08553E-01-8.23315E-01-4.72421E-02 2.11671E-01 3.47855E-01
 -1      2396-5.36041E-02 1.79313E-01 2.41603E-01 9.55464E-02 3.86523E-01 5.48154E-01
 -1      2397-1.22096E-01-1.38574E-01 8.53104E-02 1.55879E-01-4.90595E-01 3.69833E-01
 -1      2398 3.05795E-01 1.93164E-01 5.76264E-02 3.71159E-01 1.00584E-01 2.11164E-02
 -1      2399 4.58954E-02 6.16420E-02-6.51014E-02 3.37503E-01-8.79944E-03-1.93303E-01
 -1      2400-1.39586E-01 1.20219E-02 1.07291E-01-1.63736E-01 2.95533E-01 9.89787E-02
 -1      2401 6.41822E-01 1.83695E-01 2.18220E-01 8.01264E-02 1.80808E-01 2.48111E-01
 -1      2402-2.21647E-02 1.06369E-01-9.25016E-02 7.24288E-02-7.01087E-02 1.01666E-01
 -1      2403-4.72083E-01-3.13873E-01-5.68376E-03 4.46049E-01 6.33869E-02-1.22305E-01
 -1      2404-1.77464E-01-1.33216E-01 3.85857E-02 3.02727E-01 3.32713E-02-1.87308E-01
 -1      2405-9.75544E-01-3.86849E-01-1.22932E-01-2.06660E-01-1.02450E-02 1.01483E+00
 -1      2406-1.58865E+00-5.95812E-01 9.55942E-02-9.74970E-02 2.80500E-01 1.84701E-02
 -1      2407 3.07510E-03 1.54849E-01-4.90715E-02-1.80511E-01 1.34242E-01 4.20449E-02
 -1      2408-5.00943E-01-5.15205E-01-1.45826E-01 1.13097E-01-7.70111E-02 2.20438E-03
 -1      2409 1.36084E+00 6.11395E-01 2.07500E-01 6.10235E-02-9.03369E-02-8.78806E-02
 -1      2410 2.19515E-01 1.13804E-01 5.70474E-02 1.28543E-01-8.22649E-03-1.50018E-01
 -1      2411 1.31258E-03 3.77509E-02-3.88476E-02-5.04000E-02 1.49837E-01 6.36198E-01
 -1      2412-2.86402E-01-2.26134E-01-9.51624E-02 2.52251E-01 8.81129E-03-6.08239E-02
 -1      2413-1.81234E-01-1.29666E-02 1.39464E-01 3.73067E-01-8.09771E-02-6.93353E-02
 -1      2414-3.62873E-04-1.79407E-01 5.43486E-01-2.91602E-01 7.70254E-01 1.12850E+00
 -1      2415-1.96078E-01-1.35295E-01 1.02479E-01-2.10131E-02 7.29527E-02 6.28717E-01
 -1      2416 9.89272E-02 6.26024E-02 5.56458E-03-2.53727E-01 4.95586E-02-1.59519E-01
 -1      2417-1.49429E-01-1.30726E-01 7.30183E-03 2.55598E-01 8.55514E-02 1.60320E-02
 -1      2418-1.87680E-01 2.19071E-01 1.25062E-01 9.06180E-02 7.10517E-02 1.06771E-01
 -1      2419 8.63460E-02 7.10982E-02 4.67536E-02-1.19281E-01-2.51182E-01 2.44294E-01
 -1      2420-2.41826E-01-3.63658E-02-3.43776E-02 2.04864E-01-9.15274E-02-3.67761E-02
 -1      2421 1.26423E-01-2.79166E-02-7.73502E-02-1.66541E-01 4.30860E-01 4.48528E-01
 -1      2422 1.03427E+00 4.30962E-01 1.14037E-01 3.61812E-01-7.84200E-02-1.88333E-01
 -1      2423-1.15144E+00-5.51686E-01-1.84436E-01 1.41682E-01 5.38888E-02 1.73708E-03
 -1      2424 5.86296E-01 3.30530E-01-1.52362E-01-2.80344E-01 8.19978E-02-9.76419E-02
 -1      2425-2.18882E-01-1.97329E-01-1.21495E-01-2.90674E-01-2.92321E-02-8.79464E-03
 -1      2426 1.03088E-01-3.24704E-02-9.73789E-02-6.42350E-02-2.64110E-01 5.57201E-01
 -1      2427 7.38279E-01 5.69487E-01 2.75419E-01-3.30694E-01-1.38873E-01 3.55225E-01
 -1      2428 2.25316E-02 1.83626E-01 2.88866E-01 1.39621E-01 5.11336E-01 3.37454E-01
 -1      2429-1.55751E-01-1.02752E-02 9.75662E-02-2.46215E-01 2.82624E-01 4.74923E-01
 -1      2430 1.31153E+00 2.12254E-01-2.37626E-01-3.25167E-01-2.55114E-01-4.28054E-01
 -1      2431 1.19452E+00 5.93169E-01 2.95587E-01-9.73916E-02-9.57814E-02-1.65327E-01
 -1      2432 6.96955E-01 1.76877E-01 3.17373E-02-2.42045E-01-1.44933E-01-1.44011E-01
 -1      2433-2.10056E-01-1.74028E-01-2.03088E-01 1.30477E-01-5.21742E-01 2.66666E-01
 -1      2434-9.68957E-01-2.69212E-01-4.95531E-02-2.75282E-01 1.19118E-01-1.15352E-01
 -1      2435 3.85717E-01 1.93819E-01-9.41283E-02 4.08173E-01 6.53151E-02-1.95156E-01
 -1      2436 3.85837E-02-1.15438E-01-5.35521E-02-2.65568E-01-4.20313E-02-3.89791E-02
 -1      2437-6.99178E-01-2.10754E-01-2.63337E-01 1.39185E-01-1.49107E-01 1.59648E-01
 -1      2438 2.61066E-01 4.53854E-02 5.55632E-02-1.91815E-01 1.06533E-01 5.66936E-02
 -1      2439-2.45169E-01-3.57836E-01 1.31118E-01 1.64481E-01 1.27717E-01 5.92347E-01
 -1      2440-1.17722E+00-7.41196E-01-2.72915E-01 4.39266E-03 1.97414E-02 5.38008E-02
 -1      2441-1.07886E-01-2.12301E-01 2.49069E-01-2.15595E-01 3.58638E-01 4.65215E-01
 -1      2442 1.73832E-01 1.22751E-01-1.77298E-02-1.17825E-02 4.26646E-01 3.56589E-01
 -1      2443 4.42467E-01 2.92002E-01 2.10027E-01 6.88490E-02 2.59860E-01 2.50557E-01
 -1      2444 4.89097E-02-3.85912E-02-4.57264E-02-8.03210E-02-2.26656E-01 5.63125E-03
 -1      2445 1.27826E+00 3.90550E-01 1.15961E-02-1.72739E-01-4.80390E-02-5.22493E-02
 -1      2446 3.02560E-02 3.31914E-03-2.26761E-02-1.30328E-01 3.71854E-02-5.94060E-02
 -1      2447-9.54858E-01-3.83300E-01-1.90842E-02 2.79590E-01-1.78980E-01-2.91674E-02
 -1      2448-1.04438E+00-2.97786E-01-1.15288E-01 1.24538E-01-5.38687E-02-1.59512E-01
 -1      2449-1.20002E+00-4.55160E-01-6.61297E-02 7.89603E-02-5.86138E-02-1.73179E-01
 -1      2450 9.69553E-01 4.11471E-01 3.56154E-02 2.68672E-01 9.49824E-02 4.34846E-02
 -1      2451 2.72819E-01 1.21864E-01 1.41092E-01-4.92431E-01-1.30004E-02-1.48677E-01
 -1      2452 9.92393E-01 6.35069E-01-3.43193E-02 2.61015E-01-1.39009E-02-1.06471E-01
 -1      2453 6.78852E-01 2.80787E-01-6.39543E-02-2.14461E-01-7.81607E-02-1.23586E-01
 -1      2454 5.97186E-01 4.88108E-01 9.26480E-02-1.57705E-01 1.74977E-02 1.36940E-01
 -1      2455 9.18748E-02 7.63950E-02 1.33426E-01 1.15406E-02 3.36464E-01 2.14768E-01
 -1      2456 4.96885E-01 5.31111E-02-7.94060E-02-2.18929E-01 6.48157E-02-1.21769E-01
 -1      2457 3.38470E-02 2.93834E-02-1.61899E-01-1.24046E-01 2.09203E-01 3.97259E-01
 -1      2458-6.37234E-01-4.33611E-01-1.40309E-01 6.30747E-02 3.90273E-01 8.89843E-01
 -1      2459-2.87335E-01-2.02673E-01 7.71882E-02-4.20296E-01 1.35632E-01-2.50477E-01
 -1      2460-4.70869E-02 1.97331E-02-8.22146E-02 1.28922E-01-1.46633E-01-1.11932E-01
 -1      2461 1.38680E+00 4.25931E-01-2.35811E-02-1.05195E-01 3.60932E-02 1.75526E-02
 -1      2462 2.64922E-01 1.17753E-01 2.13599E-01 3.48132E-01-6.04882E-02-1.98900E-01
 -1      2463 6.38009E-02 2.02251E-01-6.75120E-02 1.06274E-01-4.21408E-02-1.70826E-03
 -1      2464-3.00150E-02 6.81523E-03 1.76027E-01 2.25988E-01 5.45355E-03-2.65764E-01
 -1      2465 1.92132E-03 9.15265E-02 4.79787E-02 1.37645E-01-1.94525E-01 5.78058E-02
 -1      2466-2.26011E-02 3.41335E-02-4.01210E-03-8.19743E-02 1.36707E-01 1.94549E-02
 -1      2467-1.06275E+00-4.63142E-01-2.51326E-01-3.30528E-01 5.87420E-02-8.84580E-02
 -1      2468-2.21864E-01-1.66585E-01 1.06581E-02-7.14180E-04 3.38726E-01 9.25035E-02
 -1      2469 6.98606E-02 5.75350E-02 1.39883E-02 6.66205E-02 9.58256E-02 7.29743E-02
 -1      2470 4.97967E-01 3.41504E-01 1.57973E-01-2.82199E-01-1.80894E-01-1.57866E-01
 -1      2471 5.34225E-01-2.03790E-02-1.06161E-01 2.11273E-01-1.17160E-01-1.13176E-01
 -1      2472-7.42524E-01-9.62234E-02-1.39622E-02 4.80256E-01-3.51003E-02-6.55465E-02
 -1      2473-1.16794E+00-6.58050E-02 8.20263E-02 9.24320E-02-2.47570E-01 3.67950E-01
 -1      2474-6.63495E-01-2.13871E-01-4.04897E-01-7.10817E-02-1.32895E-01 9.59909E-01
 -1      2475 1.65958E-01-5.21979E-02-8.39529E-02 1.25967E-01 3.25106E-01 1.58796E-01
 -1      2476-1.64616E-03-1.27420E-01-6.76700E-02-1.41517E-01-1.41843E-01 5.08829E-02
 -1      2477-1.08390E+00-6.69277E-01-6.75267E-02-1.69551E-01 6.72824E-02-1.97934E-02
 -1      2478 3.26726E-01 5.58098E-01 4.30928E-01 2.11310E-01 5.14046E-01 5.02562E-01
 -1      2479-4.43989E-01-1.91645E-01-9.44563E-02-5.99685E-02-2.59253E-01 4.81680E-01
 -1      2480-4.73975E-01-2.85460E-01 9.95281E-03 3.82677E-01-3.48261E-02-8.31614E-02
 -1      2481 5.15531E-01 3.32544E-01-1.41565E-02-3.27155E-01 1.10681E-02 3.59927E-01
 -1      2482 9.51295E-02 2.32842E-01-5.08770E-02-6.43454E-02 1.19864E-02-1.85976E-01
 -1      2483-2.02935E-01 2.03329E-01-6.13012E-02-1.15361E-01 4.33211E-02 8.85657E-02
 -1      2484-1.00629E-01 7.48925E-02 2.44473E-01-1.20174E-02 1.94621E-01 8.07348E-01
 -1      2485-8.49493E-01-2.49885E-01-1.98109E-02-2.43471E-01-4.54694E-02-1.02184E-01
 -1      2486 6.91406E-01 4.63427E-01 7.61038E-02-2.44696E-01-9.50001E-02-9.34288E-02
 -1      2487-1.85654E-02-2.44561E-01 6.15176E-02-3.13480E-01-6.72991E-02 8.09329E-02
 -1      2488-4.15052E-02 6.66965E-02-3.36163E-03-7.11001E-01 4.54251E-02-4.04665E-01
 -1      2489 6.24867E-01 4.81631E-01 1.00119E-01 2.74602E-01-6.25879E-03 9.05025E-03
 -1      2490 3.51580E-01 9.09749E-02 1.55825E-01 1.76638E-01 6.71880E-02 3.91929E-03
 -1      2491 1.32786E-01 1.23489E-01 7.78426E-02-1.89380E-01 6.99005E-03-1.01652E-01
 -1      2492-6.06113E-01-4.83182E-01 9.23006E-02-5.22980E-03-1.61458E-01-1.19920E-01
 -1      2493 3.96824E-01 2.42124E-01 1.05957E-01-6.10031E-02 3.45376E-01 1.97766E-01
 -1      2494 2.48746E-01 1.64862E-01 3.18560E-03-2.49044E-01-3.80373E-02 3.59096E-02
 -1      2495-1.22070E+00-4.51873E-01 4.64349E-02 2.19552E-01-3.09939E-01 3.77213E-02
 -1      2496-1.17687E+00-2.87069E-01-1.07528E-01 1.10138E-01-3.98825E-02-1.32757E-01
 -1      2497 1.46186E+00 7.36174E-01-1.06772E-01 2.68578E-01-4.47316E-02 1.16718E-02
 -1      2498 8.21956E-01 5.71311E-01-6.28447E-02 1.85490E-01 5.54282E-03-1.17547E-01
 -1      2499 4.66464E-01 1.69672E-01 1.06776E-01-2.40378E-01-1.27804E-02-2.45943E-01
 -1      2500 2.66365E-01 3.59899E-01-7.04595E-02 6.96829E-02-1.83439E-01 4.82341E-01
 -1      2501 1.66919E-01-1.25504E-01 3.21544E-02 7.90898E-02 3.93397E-02 2.14083E-02
 -1      2502-6.06178E-01-2.28773E-01-2.59099E-02-1.82514E-01 4.12418E-01 6.70220E-01
 -1      2503-7.71254E-01-2.80577E-01 1.03365E-01 3.24867E-01-5.94572E-02-8.09271E-02
 -1      2504-4.84582E-01-2.42685E-01-1.23370E-01 4.53917E-01-3.35025E-02-1.77523E-01
 -1      2505-1.20791E+00-6.03973E-01 3.27612E-02-2.72424E-01-1.28983E-02-3.70384E-02
 -1      2506-1.32604E+00-5.30645E-01-4.56346E-02-2.66555E-01-1.99661E-02-7.30902E-02
 -1      2507-6.22823E-01-2.45292E-01 9.82983E-02-3.62338E-01 2.73964E-02-1.53311E-01
 -1      2508 1.43068E+00 6.43835E-01-2.24821E-02 2.23965E-02-6.41818E-02-1.25368E-01
 -1      2509 4.93999E-01 3.61555E-01 1.66880E-01-3.80624E-01-3.67420E-02-1.44378E-01
 -1      2510 3.82084E-01 1.33406E-01-6.04914E-02 2.60942E-02 7.21442E-03 4.95135E-01
 -1      2511 1.14479E-01-2.05717E-01 9.69511E-02 1.04986E-01-3.22496E-02 1.35109E-01
 -1      2512-1.30014E-01-3.26950E-01 4.97710E-02 1.50084E-01-9.77841E-02 1.54967E-01
 -1      2513 9.49415E-01 3.09548E-01 5.89034E-02-3.17471E-01 6.98115E-02-1.64644E-01
 -1      2514-1.28054E+00-1.25411E-01 1.74658E-01-9.09299E-02 2.54908E-01-7.17164E-02
 -1      2515-1.03972E-01 2.14797E-01 5.77563E-02-8.13068E-03 3.32333E-01 1.93579E-01
 -1      2516 3.45353E-01 2.21395E-01 1.78650E-01-2.53274E-01-3.41707E-03 4.61382E-02
 -1      2517-1.14462E-01 5.92176E-02 2.14991E-02 1.74397E-01-4.20370E-01 1.59493E-01
 -1      2518 2.17417E-01 3.92763E-01-1.39667E-01 3.38386E-01 3.22443E-01 4.07124E-01
 -1      2519 7.48129E-01 2.28384E-01-3.79170E-02-3.91410E-02-1.04094E-01 1.80111E-02
 -1      2520-2.96417E-02-1.11927E-01-1.51581E-01-3.29846E-01-3.42379E-02-9.20783E-02
 -1      2521-1.46728E-01-2.94617E-01-4.78003E-02-1.13302E-01 2.77740E-01 1.04096E-01
 -1      2522-5.03982E-01-1.00616E-01 1.58806E-02-1.76508E-01 8.62706E-02 5.06184E-02
 -1      2523 1.73089E-01-9.56984E-02-3.99487E-01-3.70792E-02-1.32186E-01 8.31375E-01
 -1      2524 1.68974E-01 8.82583E-02 5.65089E-02 1.54529E-01 1.42170E-01-4.31652E-03
 -1      2525-3.91188E-01-1.36996E-01-2.48228E-01-1.76319E-01-1.90289E-02 1.17643E+00
 -1      2526-2.90484E-01-2.27734E-01-1.22170E-01-2.09831E-01-8.03362E-02 7.32311E-02
 -1      2527-1.37921E-01-1.05696E-01 1.30397E-02-2.69331E-01-5.07407E-02 2.22290E-02
 -1      2528 1.13697E-01-2.28532E-02-6.12337E-02-2.10384E-01-4.66429E-02 6.67083E-02
 -1      2529 5.78128E-02-6.41851E-02-5.60081E-02-1.42047E-03-5.68431E-03-2.68174E-02
 -1      2530-2.46569E-01-2.52533E-02 1.50820E-01 1.78935E-01 7.10160E-02-1.22094E-01
 -1      2531-1.33087E+00-2.66331E-01 2.02296E-02-1.45704E-01 6.20433E-02-7.48029E-02
 -1      2532-1.47906E+00-5.99353E-01-4.27438E-02-3.50466E-02 2.71332E-02-4.48429E-02
 -1      2533 3.58239E-01 1.81551E-01-1.52892E-03-4.47079E-01-5.94437E-02-1.68180E-01
 -1      2534-2.42641E-02 4.62678E-02 1.59473E-02 5.78007E-01-6.52469E-02-8.65993E-02
 -1      2535 2.41300E-02 2.46037E-02 3.76664E-02 5.21582E-01 2.46984E-02-3.48833E-02
 -1      2536-3.11530E-01-2.23998E-01 2.05010E-02-4.01476E-01 5.52622E-02-1.13118E-01
 -1      2537 1.16170E+00 4.81934E-01 6.00888E-02 3.59064E-01 1.10660E-01-1.72794E-01
 -1      2538-1.14484E+00-4.44700E-01-1.44585E-01 2.42685E-01-1.35544E-01-4.29370E-02
 -1      2539-2.98839E-01-5.65682E-01-7.96259E-02-2.31133E-01 4.49167E-01 4.63541E-01
 -1      2540 3.45621E-01-1.26282E-02 4.88953E-01-1.16062E-01-2.46757E-01-2.39814E-01
 -1      2541 3.46010E-03 1.52265E-01 2.50126E-01 3.46008E-02 2.66210E-01 1.22348E-01
 -1      2542-6.23681E-01 2.39906E-02-7.02235E-02 5.99135E-02-1.33499E-01 5.41965E-01
 -1      2543-9.66429E-01-4.75842E-01-1.08494E+00 1.88592E-01-2.86015E-01 3.81224E-01
 -1      2544-3.30157E-01-6.07457E-02-8.29395E-02-1.31660E-01-1.37687E-02-6.59284E-02
 -1      2545-9.66869E-01-3.56586E-01-2.58072E-01 3.00625E-01 1.17800E-01-1.38853E-01
 -1      2546-4.32153E-01-2.28159E-01-1.11497E-01-1.60569E-01-5.23518E-02 4.71081E-02
 -1      2547-2.25039E-01 3.68005E-01 2.96400E-01 1.80960E-01 3.80064E-02-3.40580E-02
 -1      2548 2.99943E-01 1.19351E-01-2.70655E-02 1.27565E-02 3.80849E-01 4.84022E-01
 -1      2549 5.25893E-01 3.49188E-01-1.27625E-01-2.72777E-01-3.88251E-01 1.53473E-01
 -1      2550-3.58189E-01-2.37465E-01 1.21493E-01 1.05876E-01 5.37249E-02 2.00287E-01
 -1      2551 1.00907E-01-2.14640E-01 1.48006E-01-5.85522E-02-3.54212E-01 3.56335E-01
 -1      2552 1.69423E+00 5.73753E-01 7.13981E-02 3.91730E-02-2.19201E-02-1.29394E-01
 -1      2553 2.52756E-01-7.23090E-02 1.07038E-02-7.58681E-02-1.54820E-02 1.16365E-01
 -1      2554-3.50034E-01-6.16217E-02 1.45023E-02 6.06261E-02 1.36036E-02 1.21005E-02
 -1      2555 4.98735E-01 5.32940E-01 2.91604E-01 2.90013E-01 2.60521E-03 2.36517E-02
 -1      2556 8.09032E-02 6.99922E-01 3.65658E-01-6.38063E-02 3.74243E-01 1.97373E-01
 -1      2557 1.34891E-01-2.41648E-01-3.59083E-02-5.65984E-01 1.24111E-01-1.33794E-01
 -1      2558-1.35438E+00-5.17864E-01-2.19898E-01 6.90052E-02-1.94451E-02-3.92600E-02
 -1      2559 6.97190E-01 4.18557E-01 1.77764E-01-2.02950E-01-9.20115E-02 2.18497E-01
 -1      2560-1.01001E+00-3.12355E-01-1.05485E-01-3.60445E-01 1.25173E-02-4.30493E-02
 -1      2561-1.19811E-01 4.93896E-02-2.77909E-01 4.30424E-02-3.46065E-01 8.70416E-01
 -1      2562-1.39776E+00-4.30360E-01 1.75175E-02-2.24544E-01 5.85818E-02 3.56932E-02
 -1      2563 5.88626E-02 8.03627E-02 1.23676E-01-6.39221E-02 5.10261E-02-4.69467E-01
 -1      2564 2.02163E+00 8.23428E-01 3.02929E-01-4.70311E-01-2.44543E-01 1.22510E+00
 -1      2565 2.60042E-01-1.98651E-02-1.00658E-01-8.45107E-02-1.28097E-01 4.90221E-01
 -1      2566 1.22334E+00 1.69477E-01 5.09351E-02 2.10490E-01 9.42331E-03-1.00495E-01
 -1      2567-1.16587E-01-2.53489E-02-9.44296E-02 2.06790E-02-1.45642E-02-7.91247E-02
 -1      2568 9.18889E-01 4.28004E-01 1.39136E-01-3.66235E-01 8.01038E-02-1.21965E-01
 -1      2569 8.88169E-02-4.14481E-01-1.77314E-02-1.36797E-01-2.04300E-02 4.16444E-01
 -1      2570 7.35317E-01 2.09213E-01-4.37605E-02-4.04830E-02 1.13279E-01 9.88804E-02
 -1      2571-1.58889E-01-2.13412E-01-1.85028E-01-1.56502E-01 2.77378E-01 5.47462E-01
 -1      2572-1.08653E-01-1.02198E-01-3.71309E-02-5.54136E-02-2.03706E-02-5.28956E-01
 -1      2573 1.66716E-01 9.23150E-02 3.72214E-02 9.09728E-03 2.21013E-03-5.26590E-01
 -1      2574 1.60757E-01 5.47467E-01-7.39279E-02-1.95797E-01-5.85342E-01 4.07823E-01
 -1      2575-3.92549E-01-2.22192E-01 1.77360E-01-3.12923E-01 1.14524E-02-2.57542E-01
 -1      2576 4.98292E-01 2.24891E-01 1.06546E-01-1.13821E-01-2.28752E-01 4.27990E-01
 -1      2577 1.11318E+00 4.77838E-01-4.51215E-02-3.37866E-02 3.17173E-02-2.56063E-01
 -1      2578-3.91843E-01-1.99695E-01-6.61817E-02-3.95376E-01 4.02923E-02 3.04570E-02
 -1      2579-8.65628E-01-1.34814E-01-2.90385E-01-3.09155E-01 7.88077E-02-1.32452E-01
 -1      2580-2.87075E-01-9.69797E-02 1.41224E-02 2.08871E-01 1.61500E-01-1.31334E-01
 -1      2581-9.50003E-01-5.40653E-01-2.42154E-01 2.26571E-01-1.40074E-01-1.44268E-01
 -1      2582-9.61314E-01-2.29603E-01-2.39315E-01 2.74033E-01-1.40624E-01-1.72234E-01
 -1      2583 8.34951E-01 2.60943E-01-6.60470E-02-4.59363E-01-5.11365E-02-2.31177E-01
 -1      2584-1.37184E-01 1.45005E-01 1.91554E-02 5.92648E-02-3.44118E-01 5.52619E-01
 -1      2585-4.44261E-01-2.06189E-01 7.53712E-02-6.83914E-02 2.40797E-02 6.64446E-02
 -1      2586 9.62550E-01 5.54569E-01 3.97076E-01 1.41281E-02 2.29336E-02 9.28099E-02
 -1      2587 1.62652E-01-2.46810E-02 4.41096E-02-2.20556E-01-2.26551E-01-2.67047E-02
 -1      2588 1.23202E+00 4.83757E-01 2.40868E-01-4.08684E-01-1.80114E-01 5.25013E-02
 -1      2589-1.13279E+00-4.51790E-01-6.03955E-02-1.44350E-01 7.86537E-02-1.76936E-01
 -1      2590-9.91323E-01-4.16181E-01-1.22807E-01-4.07868E-01 8.91349E-02-9.66692E-02
 -1      2591-1.18469E+00-3.88864E-01-1.37942E-01-1.21455E-01-4.07867E-02-2.34101E-01
 -1      2592 2.86358E-01 2.92202E-01 6.19446E-02-3.40313E-01 7.76612E-02 5.83789E-02
 -1      2593 1.52668E-01 2.48246E-01-3.11580E-01-1.05051E-01 2.42563E-01 4.43838E-01
 -1      2594-3.01325E-01-5.91522E-02-7.50916E-02-1.02364E-02 9.91107E-02 1.79393E-01
 -1      2595-3.74494E-01-1.44885E-01-1.23763E-01-2.24143E-01-7.60975E-02-1.11577E-01
 -1      2596 1.23158E+00 6.32843E-01 3.25006E-01-9.14645E-02 8.14951E-02-3.63778E-02
 -1      2597-2.46330E-01-4.94022E-02 5.05166E-02-2.58306E-01 8.28053E-03-2.41934E-01
 -1      2598-2.59740E-01-4.87024E-02-1.38964E-01-1.23432E-01 1.09341E-01-8.71817E-02
 -1      2599 1.27822E+00 3.93307E-01 8.20218E-02 1.07749E-02 3.25179E-02-8.76040E-02
 -1      2600 8.47836E-01 3.03408E-01 2.25486E-01-1.28715E-01 7.23784E-02 1.37397E-02
 -1      2601 1.82872E-02-2.53670E-01 2.06063E-02-8.87582E-02-1.45664E-01 1.36721E-01
 -1      2602 9.02856E-01 1.82968E-01 2.45684E-02 2.43410E-01 1.14011E-01-8.92424E-02
 -1      2603 1.29649E+00 5.91052E-01 1.43442E-01-9.07512E-03-5.03263E-02-2.10341E-02
 -1      2604 8.96376E-01 3.83639E-01 2.60231E-01 2.83823E-01 7.75450E-02 1.83545E-02
 -1      2605-6.13631E-02 9.32763E-03-1.33671E-01 4.65739E-01-9.69438E-02-1.82235E-01
 -1      2606-1.10397E+00-3.09093E-01-2.68176E-01-1.72644E-01-1.06593E-01-1.22722E-01
 -1      2607-4.08306E-01-1.48775E-01-5.79979E-02 2.56143E-01-1.22634E-03-3.09783E-02
 -1      2608-1.50318E-01-5.42216E-02 1.77541E-01 1.89124E-01-7.99346E-02 5.00540E-02
 -1      2609 2.46327E-01-2.41963E-01-1.47699E-01-3.46124E-02-5.02189E-02 9.66273E-02
 -1      2610-2.07471E-01-1.79969E-01 1.63798E-02 3.17919E-01-5.77845E-02 1.11536E-01
 -1      2611 2.62584E-01-3.33280E-01 3.27473E-02-6.70160E-02 1.98842E-01 5.59117E-01
 -1      2612-4.70950E-01-3.12757E-01-1.13432E-01-3.15424E-01-3.54681E-03-1.02442E-02
 -1      2613-6.52726E-02 8.53546E-02 1.65423E-01-1.64157E-01 1.15298E-01-6.62621E-02
 -1      2614 1.30847E+00 6.05571E-01 1.98292E-01 3.43272E-02 4.51690E-02-8.28542E-02
 -1      2615 9.74337E-01 5.37866E-01 2.34958E-01-2.65045E-03 4.23805E-02-1.96997E-01
 -1      2616 7.74430E-01 3.23473E-01 2.14161E-01 8.18440E-02-7.94817E-02-5.67351E-03
 -1      2617-1.89810E-01-3.38963E-01 1.23090E-02 1.78282E-01-2.87739E-01 2.00189E-01
 -1      2618-9.87955E-02-2.92005E-02-4.44313E-02 9.65473E-02 3.46738E-02-4.11683E-01
 -1      2619-1.13447E+00-4.38512E-01-2.67762E-02 2.25687E-01-9.05211E-03-1.03066E-01
 -1      2620 7.47896E-01 2.13002E-01-1.66655E-01-6.72403E-02 1.49851E-02-7.34470E-02
 -1      2621-1.27345E-02 2.66123E-02-5.01670E-02-4.98528E-03 5.23370E-02-7.70422E-03
 -1      2622-2.24008E-01-2.40096E-01 1.51906E-01 1.68995E-01-2.52703E-01 2.89092E-01
 -1      2623 5.92987E-01 2.12060E-01-1.73331E-01-1.43033E-01-2.98530E-01 1.24031E-01
 -1      2624-3.26818E-01-2.53634E-01-4.56169E-02-1.79163E-01-1.43094E-01-1.71508E-01
 -1      2625-1.07420E-02 4.19459E-02-5.96165E-02 1.63911E-02-5.90639E-03 4.75960E-03
 -1      2626 6.20168E-02-9.97414E-02 1.84022E-02 1.17694E-01-3.46259E-01 3.14245E-01
 -1      2627 4.29261E-01 2.03337E-01 1.43882E-01 1.45353E-01 3.97388E-01 9.74324E-01
 -1      2628 1.47861E-01-8.32993E-02 6.40689E-02 1.14655E-01-3.36970E-01 3.83893E-01
 -1      2629 1.10183E-01 2.17972E-02 1.70759E-01-6.58472E-03-1.42786E-02-2.86247E-02
 -1      2630 2.84567E-02-7.08378E-02-4.29655E-02 4.75578E-03-2.18756E-01 8.62654E-01
 -1      2631 1.94849E-01 9.69054E-02 6.78719E-02-8.03697E-02 3.11562E-02-4.95705E-01
 -1      2632 4.62631E-01-7.50130E-02-1.65562E-01-4.44708E-01-1.01437E-01-1.31723E-01
 -1      2633-4.15947E-01-5.60177E-01-5.84184E-01 3.87733E-01-2.79330E-01 9.66760E-01
 -1      2634 2.74699E-01 4.10503E-01 3.11116E-01-1.29809E-01-5.73680E-01 7.99940E-01
 -1      2635-1.37221E-02-7.52104E-02-7.39359E-02-2.17136E-02-3.12965E-01 2.33437E-01
 -1      2636 2.54069E-01-8.57416E-02 5.99784E-02-1.51656E-01-2.48875E-01-8.47361E-02
 -1      2637-1.35131E-01 1.97881E-01 3.59350E-02 2.05289E-02 9.21547E-02 7.51389E-01
 -1      2638 1.18127E-02-5.12293E-02-1.14996E-01-6.63590E-03 4.50135E-02-4.83557E-01
 -1      2639-5.23219E-01-1.59423E-01-1.11741E-01-2.60103E-01 3.01436E-02-1.74674E-01
 -1      2640-6.03230E-01-2.34438E-01-8.97610E-02 1.62403E-02 3.09894E-02 8.77466E-01
 -1      2641-3.65560E-01-9.03918E-02-9.22151E-02-4.86701E-02-4.05519E-01 7.42732E-02
 -1      2642-1.13155E+00-2.05845E-01-2.85928E-02-1.95861E-01 7.36623E-02-3.35564E-02
 -1      2643 3.57304E-01 1.58218E-01 1.83234E-01-8.50903E-02-1.94117E-01 2.03223E-01
 -1      2644 1.18206E+00 4.23408E-01 3.31130E-01-2.20966E-01-2.20191E-01-1.34607E-01
 -1      2645-1.35341E+00-4.87204E-01 1.38739E-01 6.06572E-01-3.95054E-01 1.01453E+00
 -1      2646-1.23266E+00-6.51071E-01-2.17567E-01-3.02251E-02-1.11897E-02-9.08348E-02
 -1      2647-1.99475E-01-8.80714E-02-2.10736E-01-3.86229E-02 1.04250E-01 2.79934E-02
 -1      2648 1.08126E-01 1.04309E-01-6.17354E-02-1.32465E-01-9.97714E-02-2.96764E-03
 -1      2649-6.36506E-01-1.45830E-01-1.18614E-01-1.78039E-01 2.04822E-01 4.19187E-02
 -1      2650-2.46581E-01-2.56482E-01-2.04953E-01-2.63024E-01 2.25252E-02 4.40062E-02
 -1      2651 8.63172E-02-5.94695E-02-2.97195E-02-4.57855E-01-9.87156E-02-3.89404E-01
 -1      2652-3.44177E-01 7.50343E-01 2.12121E-01 1.72222E-01-3.52402E-03-6.00753E-02
 -1      2653-1.38111E+00-4.94962E-01-6.40198E-03 5.05905E-02-9.63975E-02-7.86097E-02
 -1      2654-1.02172E+00-3.56354E-01-8.03511E-02 3.46040E-01-1.49502E-02 4.10080E-02
 -1      2655-1.46095E+00-6.11112E-01-2.76654E-01 2.18865E-01 1.04526E-01-4.09683E-02
 -1      2656-1.18715E+00-2.74749E-01-2.94483E-01-2.86493E-01-1.44470E-01-2.17352E-01
 -1      2657 2.39958E-01-3.15421E-01-1.74664E-02-7.55150E-03-7.52133E-02 2.77379E-02
 -1      2658-8.07914E-01-3.44303E-01-1.98788E-01 1.04811E-01-1.03970E-02 3.15832E-02
 -1      2659 6.51136E-01 8.09630E-02 2.27463E-02-4.11766E-01-5.59493E-02-1.29321E-02
 -1      2660 9.53446E-01 3.47443E-01 2.70414E-01-3.27078E-01-3.07918E-02-1.33505E-01
 -1      2661-1.06337E-01-5.78602E-02-7.44041E-02 1.28866E-01-4.87934E-02 1.69880E-01
 -1      2662 4.56937E-01 1.37584E-01 2.37059E-02 6.93844E-02 2.88610E-01 1.56226E-01
 -1      2663-2.77488E-01-2.67965E-01-4.79312E-02-1.75870E-01 2.20753E-02-6.56019E-02
 -1      2664-4.12239E-01-3.08084E-01 1.21848E-02 3.36639E-01-5.64820E-02-1.69933E-01
 -1      2665 1.49664E-01 3.57787E-01 2.64798E-01 1.21517E-01 4.06304E-01 4.01429E-01
 -1      2666-3.49972E-02-7.94813E-02-2.63346E-02 1.05236E-01-7.32584E-02-3.26493E-02
 -1      2667-1.11873E+00-8.71192E-02-5.69736E-02 2.02351E-01-4.17803E-02-1.00185E-01
 -1      2668-5.14372E-01-2.26164E-01 1.42151E-01-3.81514E-01 4.85704E-01-3.16219E-01
 -1      2669-3.77017E-01-2.08549E-01-7.34593E-02-2.29870E-01 8.59557E-02-5.49747E-02
 -1      2670-2.75552E-01 3.02424E-03-1.49169E-01 3.86069E-01-6.31459E-02-4.07116E-01
 -1      2671-4.03096E-01-3.02608E-01 6.86869E-02-2.17818E-01-8.96129E-03-4.48382E-01
 -1      2672-9.31110E-02-1.43539E-01-3.15565E-01-1.05260E-02-2.38798E-01-6.34110E-02
 -1      2673 7.55340E-01 4.87810E-01-6.13983E-02 4.79380E-02-8.50345E-02 7.45779E-02
 -1      2674-1.13888E+00-1.89980E-01-5.84576E-02 1.75658E-01-1.22659E-01-4.49438E-02
 -1      2675 1.31688E+00 5.33968E-01 1.34006E-01 5.67671E-02 4.89909E-02 1.92935E-01
 -1      2676-1.63877E-02-8.56769E-02-1.70595E-02 7.63209E-02-5.78976E-01 4.31106E-01
 -1      2677-1.63621E-03 1.72128E-01-4.06520E-04 5.08301E-02-2.40819E-01 6.34171E-01
 -1      2678 3.27004E-02 2.69920E-01-1.57210E-01-6.79702E-02 1.03185E-01 6.32511E-02
 -1      2679-4.33990E-02-3.03047E-02-1.14421E-01-4.88784E-01 1.33152E-01-1.37286E-01
 -1      2680 1.12154E-01 6.64589E-02 6.80073E-02 2.55031E-01-2.89554E-02-2.06776E-01
 -1      2681 8.62471E-01 1.81900E-01 1.88541E-01-2.63314E-01 2.94334E-01 1.09582E+00
 -1      2682 8.15203E-01 5.22883E-01 1.26045E-01 1.42629E-01 8.73312E-02-1.00394E-01
 -1      2683-2.60808E-01-3.02480E-01-1.80658E-01-7.74486E-02-1.98085E-01 9.16191E-02
 -1      2684-1.01247E+00-1.73000E-01-6.25747E-02-1.70103E-01 8.36669E-02-6.36550E-02
 -1      2685 1.40409E+00 5.13311E-01 1.26233E-01 1.03985E-01 1.09264E-01-1.02316E-01
 -1      2686 5.78844E-01 5.36828E-01 2.22855E-01 2.18772E-01 9.62242E-02-6.44348E-02
 -1      2687 2.34535E-01 4.49126E-02 4.25678E-02-1.78776E-02 5.27628E-02 7.52694E-01
 -1      2688 2.61066E-01 2.20950E-01 2.99971E-02-1.83076E-01 5.16794E-02-8.32689E-02
 -1      2689 3.74492E-01 2.25353E-01 7.44838E-02-3.20195E-01-1.01067E-01-1.17076E-01
 -1      2690 9.55121E-01 5.18836E-01 2.25692E-01-3.24448E-03-5.53087E-02-4.83346E-02
 -1      2691-9.15500E-01-1.84563E-01-2.09367E-01-6.21066E-03-2.79730E-02 1.02344E-01
 -1      2692 6.82264E-01 2.25473E-01 1.26395E-01 4.30373E-01 1.08172E-01-5.66927E-02
 -1      2693-5.69943E-02-5.74802E-02 1.50838E-01 1.00018E-01 2.28539E-01 8.54437E-01
 -1      2694 4.68726E-02-1.03460E-01 7.38818E-02 1.11968E-01-1.62489E-01-5.92794E-02
 -1      2695 8.23557E-01 6.10328E-01-4.01182E-02 1.50126E-01 6.34072E-03 3.08921E-03
 -1      2696-5.18342E-02-2.02680E-01-1.23133E-01 2.73973E-02-2.40581E-01 9.90566E-02
 -1      2697 4.34301E-01 2.17478E-01-1.97630E-02-4.58708E-01 7.94475E-02-1.42407E-01
 -1      2698-2.34103E-01 6.92100E-02 9.98591E-02 1.39291E-01-5.13980E-02 6.98713E-01
 -1      2699-1.21014E+00-4.67793E-01-1.73809E-02 1.54334E-01-2.09173E-02-2.42159E-01
 -1      2700 1.18642E+00 3.16926E-01 5.88817E-02 8.55404E-02-1.83222E-04-9.92956E-02
 -1      2701 8.23775E-02 1.42914E-01 6.26827E-02 2.86277E-02 7.10355E-02 2.00853E-01
 -1      2702 5.47739E-01 4.23581E-01 3.11835E-01 7.04234E-02 1.07423E-01-1.21072E-01
 -1      2703-7.84729E-02-1.89720E-01 1.04878E-02 4.16876E-02-1.17191E-01 2.39771E-01
 -1      2704 1.60804E-01 2.44731E-01 3.03041E-02-4.88067E-01 2.89005E-02-2.55430E-01
 -1      2705 7.70406E-01 5.10430E-01 2.20567E-01 2.90485E-01 1.84266E-01-1.18844E-01
 -1      2706 1.03402E+00 1.73101E-01-1.67365E-02 1.88089E-01 3.95399E-03-7.92003E-02
 -1      2707 8.92588E-02 2.56568E-01 2.27251E-01-2.26704E-02-2.91069E-01 2.62951E-01
 -1      2708-4.55545E-01-1.60548E-01-2.27470E-01 6.59370E-02-2.60845E-01 7.81991E-01
 -1      2709 1.23394E+00 5.61221E-01 3.11047E-01-1.29431E-01 8.71207E-02-1.04270E-01
 -1      2710 1.05077E+00 4.68596E-01 6.99179E-02-2.45766E-01-6.86402E-02-1.86757E-01
 -1      2711 7.39255E-02-1.39408E-02-1.24675E-01 3.14862E-02-5.97417E-03 4.91505E-02
 -1      2712-7.46958E-02 2.81379E-02 7.22644E-02 3.41677E-01-4.66041E-02-8.28613E-02
 -1      2713-1.39898E-01-2.03858E-01-2.05097E-03-3.24495E-01 8.71527E-02-3.07885E-01
 -1      2714-2.04095E-02 5.76559E-02 3.39747E-02-1.43820E-01 1.87989E-01 2.35219E-02
 -1      2715-2.11316E-01-2.83789E-01-1.33454E-02 5.30621E-03-2.57693E-03 1.29465E-01
 -1      2716 8.52771E-01 1.10175E-01-5.04682E-02-9.24598E-02-1.32433E-01 7.44227E-02
 -1      2717 1.14054E+00 2.29806E-01 2.98929E-01-5.88855E-02 5.04281E-02-8.11962E-02
 -1      2718-1.06487E+00-3.24290E-01-2.22027E-02-6.52665E-02 1.83494E-01 1.34580E-01
 -1      2719 6.49553E-01 3.54468E-01 3.74104E-02-4.94246E-01-8.88612E-02-4.70745E-01
 -1      2720-1.04033E+00-6.15451E-01-2.37399E-01-6.71720E-02-2.45627E-02 1.16613E-01
 -1      2721-1.16739E-01-4.16333E-01-1.15564E-01 4.54283E-02-2.29218E-01 1.87592E-01
 -1      2722-2.58802E-01-8.35382E-02 3.80134E-02-1.10498E-01-7.93980E-02-5.54828E-01
 -1      2723 7.26561E-02-2.06014E-01-2.07668E-03-4.97482E-01-1.89436E-02-9.50676E-02
 -1      2724 1.21599E+00 5.42584E-01 3.84181E-01 1.83145E-02-4.58483E-05-3.74749E-02
 -1      2725-6.45229E-02-2.22248E-01 2.83507E-02 2.77376E-01-7.87869E-02-1.43975E-01
 -1      2726-8.07373E-02-1.29994E-01-2.14416E-01-4.49643E-02 4.81157E-02 1.97543E-02
 -1      2727 1.02729E+00 3.72987E-01 5.43481E-02-1.40372E-01-5.69076E-03-5.25337E-02
 -1      2728 1.08907E+00 5.77730E-01 2.80680E-01-8.03660E-02-6.94874E-02 3.66885E-01
 -1      2729-2.72096E-01-2.66035E-01-7.87726E-02 1.62035E-01 1.02729E-01-4.67383E-01
 -1      2730 1.48541E-01-1.23633E-01 5.31353E-02 7.37071E-03-1.56962E-01 2.91637E-02
 -1      2731-2.09324E-01-1.56657E-01-8.53093E-03 1.33194E-01 6.54503E-02-4.98073E-02
 -1      2732 7.78650E-01 2.96640E-01-2.27493E-01 1.11140E-01 4.32074E-01-9.28364E-02
 -1      2733-8.41641E-01-4.18023E-01-1.90139E-01-1.28709E-01 5.87379E-03-5.99636E-02
 -1      2734 6.87770E-02 1.90673E-01 5.88487E-02-2.37635E-03 9.57257E-02 3.22628E-02
 -1      2735-1.43743E+00-6.37361E-01-3.82868E-01-1.14715E-01 1.19289E-02 2.82794E-02
 -1      2736 7.02180E-01 1.12445E-02 1.99954E-01-4.66544E-02 2.17917E-01 1.66512E+00
 -1      2737 9.66438E-01 1.13557E-01 7.18054E-01-3.53591E-01 2.60368E-01 6.54172E-01
 -1      2738 4.72822E-01 3.32951E-01 1.60084E-01-3.08497E-01-1.23853E-02 3.18926E-02
 -1      2739 4.98241E-02 1.82034E-01 1.12226E-01 7.89395E-02 3.51841E-01 3.86801E-01
 -1      2740-2.93071E-01-3.07844E-01-3.03983E-01-1.92916E-01-6.37684E-02 1.31955E-02
 -1      2741-5.16336E-02 3.46016E-02 1.84724E-01-1.65880E-01-3.01717E-02 4.58036E-03
 -1      2742-5.74933E-01-6.89313E-01-5.42900E-01 2.30311E-01-8.65497E-02-6.97795E-02
 -1      2743-6.19653E-01-2.73837E-01-4.20397E-02 3.46841E-01-1.07994E-01-1.71850E-01
 -1      2744-1.25596E+00-1.89780E-01 1.62741E-01-2.64268E-01 1.58427E-01 1.35509E-02
 -1      2745 2.01955E-01-7.06224E-02 4.66529E-02-7.19516E-02-1.82567E-01 4.22940E-03
 -1      2746 1.23941E-01 7.25912E-02 1.34910E-01 2.73413E-02 4.33155E-02-7.87587E-02
 -1      2747-1.97845E-01 3.89682E-03-2.23364E-02-3.38606E-01 1.44021E-01-1.12076E-01
 -1      2748 1.42524E+00 5.56990E-01 1.77424E-01 1.80318E-01 4.10666E-02-9.75720E-02
 -1      2749-2.09097E-01 2.04272E-01 2.51918E-01-3.27999E-01-8.69571E-02-3.39985E-02
 -1      2750-2.87414E-02 6.90898E-02-1.67288E-02-6.21608E-02 5.47359E-02 4.55616E-02
 -1      2751-6.49809E-01-3.24995E-01-6.78255E-02 2.97420E-01 1.22243E-01-4.74928E-02
 -1      2752-2.89752E+00-1.46521E+00 5.07143E-01-3.40996E-02-8.81714E-02-9.12907E-02
 -1      2753 1.32606E-01-2.60727E-01 1.41854E-01-2.91274E-02-2.78252E-01 1.14251E-01
 -1      2754-6.26791E-01-2.59306E-01-5.41319E-02-3.39087E-01 1.07478E-01-1.90763E-01
 -1      2755-5.62371E-01-4.03354E-01 1.18063E-02 2.36451E-01-4.92436E-02-3.37210E-03
 -1      2756-7.70742E-02 5.04289E-01-1.17023E-01 5.37607E-02-2.93105E-01 2.02511E-01
 -1      2757 1.09355E-01 4.75717E-01 3.59560E-01-2.49450E-03-3.88849E-02 2.05655E-01
 -1      2758-1.51804E+00-8.79609E-01-1.45915E-01 2.01369E-01 4.34734E-02-3.49985E-01
 -1      2759-1.36012E-02-1.10376E-01-8.74133E-02 1.20363E-02-1.04926E-01 6.70075E-02
 -1      2760 1.09512E-01 1.16879E-01 1.37832E-01-1.59701E-01 5.99254E-02 6.35544E-02
 -1      2761 2.60498E-01 6.89684E-02 1.49433E-01-2.92533E-01-2.14369E-03-9.70331E-02
 -1      2762-4.65798E-01-3.06596E-01-1.57930E-01-4.89049E-02 1.27422E-01 6.31697E-01
 -1      2763-8.14119E-01-3.59902E-01 1.94951E-01-4.03661E-01 1.50819E-01-2.57328E-01
 -1      2764-4.80996E-01-1.80373E-02 1.51165E-02 9.48828E-02-4.05049E-01 4.34665E-01
 -1      2765-2.47203E-01-1.80938E-01-7.04954E-02-1.33157E-01-6.19981E-02-1.00537E-01
 -1      2766-1.37297E+00-4.48297E-01 2.33247E-02-1.00720E-01 4.20223E-02-3.39047E-02
 -1      2767 4.68301E-01 3.68842E-01 5.46727E-02 3.16042E-01-4.45198E-02-1.89676E-01
 -1      2768 4.83915E-01 3.38705E-01 3.67144E-02-2.04005E-01 4.99431E-02-1.16360E-01
 -1      2769 7.53121E-01 4.01247E-01 1.34905E-01 2.11832E-02 5.40763E-02-3.26824E-01
 -1      2770-1.84823E+00-6.78852E-01-1.87080E-01-6.98839E-02 2.65686E-02 1.04773E-01
 -1      2771 2.31284E-01 1.87995E-01 6.64877E-02-8.13842E-02-3.33777E-01 1.03734E-01
 -1      2772 3.27592E-02-3.66628E-01 1.20733E-01-1.95850E-01 2.32595E-01 5.18277E-01
 -1      2773 2.07242E-02-5.04596E-02-9.41005E-02-2.47249E-02-1.86959E-03 5.07580E-02
 -1      2774 1.99614E-01 1.49377E-02 5.75357E-04-1.56490E-01-7.75421E-02-1.01491E-01
 -1      2775 2.99388E-01-2.06437E-01 3.19510E-02-3.31468E-01-7.98500E-01 5.78786E-01
 -1      2776 1.99888E-01 1.73406E-01-7.43501E-02 3.46117E-01-2.61663E-02-2.90796E-01
 -1      2777-5.88812E-03 8.24215E-02-9.77521E-02-1.52386E-01 2.95848E-02 1.68655E-02
 -1      2778-5.54659E-01-1.83765E-01 4.49654E-02 4.42170E-01 8.86246E-02-1.33998E-01
 -1      2779-1.22540E+00-6.11063E-01-1.05742E-01-2.66271E-01 6.78366E-02-5.50478E-02
 -1      2780 7.05815E-01 1.74454E-01 5.30928E-02-5.28945E-02 1.39260E-01 6.15901E-02
 -1      2781-3.50013E-02 1.04227E-01-5.11475E-02-7.81633E-02 1.74355E-01 4.29087E-02
 -1      2782-1.57407E+00-5.90097E-01-2.50669E-01-1.64513E-01-6.26231E-02-2.86021E-01
 -1      2783 1.41601E+00 6.66783E-01 2.02720E-01 8.48846E-02 3.78771E-02-1.20917E-01
 -1      2784 6.71697E-02 6.25539E-02 1.05924E-01 3.82989E-01-2.52932E-02-2.15364E-01
 -1      2785-5.13584E-01-5.20561E-01-7.58971E-02-3.50110E-01 2.13411E-01 5.92185E-01
 -1      2786 1.16571E-01 1.93964E-01 1.14585E-01-2.00650E-01 3.01492E-01 7.42676E-01
 -1      2787-1.33232E+00-5.71411E-01-2.97042E-01-6.30319E-02 8.60594E-02-6.86526E-02
 -1      2788-3.92226E-01-2.54391E-01-1.14697E-02 1.69146E-01-3.18316E-03 9.11253E-02
 -1      2789 1.21092E-01 7.99615E-02 3.54207E-02-2.22095E-01-9.81465E-02 1.23781E-01
 -1      2790 6.33530E-01 2.85978E-01 4.76111E-02 2.18764E-01 1.70357E-01 6.66203E-01
 -1      2791 1.19602E-01 4.03376E-02-7.92237E-02-2.46543E-01 4.42558E-02 1.55428E-02
 -1      2792 1.11144E-02 1.24115E-02 9.88026E-02-4.90623E-01 1.91966E-02-1.45084E-01
 -1      2793 8.48449E-02 1.49692E-01-4.08489E-02 7.51559E-02 2.53662E-02 8.69508E-02
 -1      2794 4.71519E-01 9.66309E-02-1.32607E-01-5.65101E-02 2.21955E-01 3.22215E-01
 -1      2795-3.49961E-01 1.39023E-01-2.77073E-03 1.08977E-01-2.69074E-01-2.49496E-02
 -1      2796 2.85383E-02 2.01862E-01-7.22099E-02 3.32977E-02-1.99775E-01-4.03791E-04
 -1      2797-1.21877E+00-3.14999E-01-5.72441E-01 6.39995E-02-4.63642E-01 9.20246E-01
 -1      2798-1.50254E-01-5.97067E-03 7.37184E-02 3.68103E-01 2.95369E-03-1.58042E-01
 -1      2799 4.57596E-01 1.40202E-01 4.31581E-01 1.17138E-01-5.00983E-02 5.27748E-01
 -1      2800-3.42567E-02-4.13133E-01-2.23357E-01 7.06549E-02 9.85496E-02 6.74648E-02
 -1      2801-6.64634E-01-3.20336E-01-9.50570E-02-1.86619E-01 1.10016E-01-5.25063E-02
 -1      2802 7.93017E-02 5.79460E-02-3.61172E-02-1.44333E-01 8.90902E-02 6.48697E-01
 -1      2803 1.34740E-01 1.57267E-01-1.67097E-01-1.54371E-01 7.36097E-02 1.67816E-01
 -1      2804-1.27091E-01-1.11664E-01 3.05123E-01-3.16897E-01 6.39393E-02-6.19688E-01
 -1      2805-6.99340E-02 3.41595E-01 2.32664E-01 8.11817E-02-8.95714E-02-7.41430E-02
 -1      2806 1.28124E+00 5.87591E-01 8.95680E-02 2.91684E-01-2.85221E-02-4.27476E-02
 -1      2807 8.81023E-02-1.69254E-02-1.58853E-01-4.23836E-01 1.35538E-03-1.94975E-01
 -1      2808 1.39344E+00 4.60887E-01 1.47415E-01-5.05313E-02-4.17743E-02-3.89557E-02
 -1      2809-1.04756E+00-3.19645E-01-4.90791E-02-2.27043E-01-6.64985E-02-2.86549E-01
 -1      2810-2.15384E-01-2.17512E-01-3.73508E-02 9.25242E-02 8.34423E-03-3.96805E-02
 -1      2811 8.57117E-01 3.58302E-01-6.80885E-03-5.80639E-01 8.34797E-02-1.40726E-01
 -1      2812 4.95354E-02-4.53936E-02-8.49108E-04-4.85785E-02 3.61049E-02 1.93026E-02
 -1      2813-7.27864E-01-4.89933E-01 6.43628E-02-4.10445E-01 6.97253E-02 3.48860E-02
 -1      2814 8.67077E-02-4.15236E-02-8.51951E-02 1.42488E-01 6.00894E-02-1.25480E-01
 -1      2815-7.61188E-02-1.56475E-01 9.09166E-02-2.70092E-01-5.41982E-02 9.52143E-02
 -1      2816 1.18240E+00 6.66703E-01-1.62176E-01 2.14160E-01 7.65711E-02-2.68828E-02
 -1      2817-5.55248E-01-1.54385E-01-2.28749E-01 2.49857E-02-8.32505E-01 6.73404E-01
 -1      2818-1.41959E+00-7.87910E-01-6.18193E-02 1.17430E-01 7.69464E-02-6.77824E-02
 -1      2819 7.80511E-01 3.58763E-01 3.50078E-01 4.96728E-02 9.43143E-04 1.21750E-01
 -1      2820 7.16109E-01 3.76433E-01 3.14017E-01-2.65129E-01-1.18421E-01-3.98097E-02
 -1      2821-2.90706E-01 3.91943E-02-4.44487E-02 1.77515E-01-9.20797E-03 3.34363E-03
 -1      2822-2.33777E-01 7.54573E-02-2.32419E-02 1.03028E-01 7.79813E-02 1.56266E-01
 -1      2823-1.29905E-01 6.64877E-02-8.93721E-03 1.12919E-01 9.31263E-02-3.43230E-03
 -1      2824 1.30732E+00 6.64612E-01 1.86293E-01-4.89348E-02-6.04039E-02-1.28830E-01
 -1      2825 1.45599E+00 5.51279E-01 3.44306E-01 1.24719E-01-1.69911E-02 5.51837E-03
 -1      2826 7.35868E-01 9.67961E-02-9.82862E-02-2.48393E-01 3.13389E-01 3.24847E-01
 -1      2827 1.16010E-01 7.09308E-02 2.58401E-02-3.90715E-02-2.95998E-01 5.67161E-01
 -1      2828 7.42832E-01 2.46583E-01 9.01679E-02-3.25916E-01-9.59024E-02-7.19864E-02
 -1      2829-1.31194E+00-6.99279E-01-4.08235E-01 2.09084E-01-1.51769E-01-1.04840E-01
 -1      2830-8.55702E-01-3.36775E-01-2.67001E-02-1.80277E-01 1.65252E-02-1.88995E-01
 -1      2831 8.91662E-01 3.16797E-01 1.54144E-01-3.84438E-01-4.40493E-02-2.62427E-01
 -1      2832 7.95037E-01 2.19929E-01-1.81913E-02 2.89400E-01 8.16660E-02-3.88836E-02
 -1      2833-1.10798E+00-3.65598E-02-5.67846E-02 8.12912E-02-6.83621E-02-3.12741E-02
 -1      2834 2.01481E-02-1.12079E-01-2.99862E-01 3.74169E-02 1.54812E-01 6.12049E-01
 -1      2835 8.94436E-01 5.70482E-01 5.41970E-01 1.28294E-01 4.05190E-02-1.83042E-01
 -1      2836-4.99363E-01-4.68626E-01 1.32980E-01-5.00338E-01-1.40071E-01-4.39214E-03
 -1      2837-2.36364E-02 5.27895E-01 2.06807E-01-6.48930E-02-2.91843E-01 2.16630E-01
 -1      2838-1.16653E+00-5.97530E-01-4.57505E-01-2.30468E-02 4.68031E-02-1.26334E-01
 -1      2839 1.39315E-01 1.80630E-01 1.43536E-01-9.28185E-02 1.81258E-02-1.06992E-01
 -1      2840-1.23597E-01-2.53340E-02 8.22029E-02 3.19388E-01-1.26494E-01 2.65735E-02
 -1      2841 1.22669E+00 4.80011E-01-6.13168E-02 1.46474E-01-1.38996E-01-8.05960E-02
 -1      2842 5.58957E-02-5.92178E-02-2.23566E-02-2.18631E-01-1.03924E-01-1.47435E-01
 -1      2843 5.89727E-03-1.41173E-01-9.62546E-02 1.99273E-01 8.81407E-02-1.61816E-02
 -1      2844-4.62250E-01-1.64778E-01-3.76237E-01 2.49395E-01-1.96154E-02-9.36874E-02
 -1      2845 1.20200E+00 5.24586E-01 2.58140E-01 1.84359E-01 2.28753E-04-1.76051E-02
 -1      2846 4.58296E-01 1.29284E-01 4.18941E-02-8.56231E-02-1.37289E-01 1.92426E-01
 -1      2847 8.24598E-01 2.97992E-01-3.33450E-01-8.37104E-02-1.40637E-01-1.59463E-01
 -1      2848 1.22026E+00 3.47914E-01 2.04227E-01 7.08323E-02-3.85498E-01 9.55701E-01
 -1      2849 4.87555E-02-1.15804E-01-9.59437E-02 2.17387E-02-3.11338E-01 9.53554E-02
 -1      2850 1.53996E+00 6.21571E-01 3.32190E-01-6.43727E-02 9.58138E-02 8.05744E-02
 -1      2851-1.29572E-01-1.61647E-01-1.41611E-01-1.81210E-01 3.97713E-02 1.96902E-02
 -1      2852-3.52639E-01-2.36962E-01-1.54666E-01 3.50215E-01 1.95708E-02-7.10969E-02
 -1      2853 2.10265E-01-2.88988E-02 1.23371E-01-8.97785E-03-1.19266E-01 8.37661E-02
 -1      2854 7.33825E-01 6.99530E-01 2.70280E-01 1.96991E-01-7.49959E-03-7.15258E-02
 -1      2855 1.63815E+00 5.66946E-01 3.79296E-02-2.08026E-02 1.27818E-02-5.38230E-03
 -1      2856 7.24417E-01 5.32111E-01 1.49600E-01 1.76983E-01 1.92056E-01 2.85224E-02
 -1      2857 5.75515E-01 2.56935E-01 9.31588E-02 3.43790E-01 6.39705E-02-2.45832E-01
 -1      2858-3.92459E-02-3.21129E-02-1.18470E-01 2.02195E-02-9.98980E-02 4.03395E-02
 -1      2859-5.53198E-02 6.71655E-03 1.73170E-01 1.88676E-01-1.53081E-02-8.58646E-02
 -1      2860-2.12165E-02 2.48582E-02 2.45279E-02 8.06612E-02-2.89834E-01 1.61861E-01
 -1      2861-9.01143E-01-3.55255E-01-9.83898E-02 2.01869E-01-1.69682E-01 7.48453E-01
 -1      2862 1.53170E+00 6.32603E-01 2.43465E-01-1.95948E-01 4.80184E-02-9.58396E-02
 -1      2863 5.66916E-01 5.13027E-01-2.05096E-02-9.44054E-02 1.34575E-01 3.46158E-01
 -1      2864-7.31656E-02-4.43139E-02-2.76333E-01-3.29274E-02-7.03779E-02-3.11127E-02
 -1      2865-2.88707E-02-4.76642E-02-4.81820E-02-1.13707E-01 7.96188E-02-8.34766E-02
 -1      2866 1.46140E+00 4.65722E-01 1.76089E-02 2.52528E-02 6.66940E-02 2.78780E-01
 -1      2867-2.19563E+00-9.50808E-01-4.94113E-02-1.82312E-01 2.89555E-01-8.52376E-03
 -1      2868-1.29638E+00-4.46560E-01-1.53184E-01 2.77203E-03-1.67922E-01-1.04360E-01
 -1      2869-2.01448E-01-4.45747E-01-1.17517E-01 1.59846E-01-2.37896E-01 2.91015E-01
 -1      2870-2.07677E-01-4.41204E-01-1.49197E-01 1.32483E-01-2.71207E-01 2.17300E-01
 -1      2871-3.31736E-01-2.13131E-01-1.72571E-01 3.59737E-02-1.89072E-03-4.54014E-01
 -1      2872-1.24818E-01 1.56977E-01-7.46811E-02-2.61140E-02-3.35932E-01 2.17971E-01
 -1      2873 3.26813E-02 2.76871E-01-1.62074E-01 2.15472E-02-3.63952E-01 2.87541E-01
 -1      2874 1.56163E+00 6.68909E-01-8.99903E-02 2.20894E-01 9.48312E-02 6.99042E-03
 -1      2875-6.80450E-02 2.28820E-02 3.99247E-02-2.83489E-02 4.45914E-02 3.92298E-02
 -1      2876 1.46213E-01 3.19068E-01 2.63244E-01-5.00255E-02-2.68902E-01 3.55740E-01
 -1      2877 1.41225E+00 8.99947E-01 2.34900E-01 1.98207E-01 1.72328E-02-4.81898E-02
 -1      2878-2.03582E-01-4.08043E-02-1.64435E-02-7.99654E-02-2.57420E-01 4.77820E-01
 -1      2879-4.03901E-01-2.09096E-01-1.24661E-01-3.78639E-01 1.01777E-01-2.20785E-01
 -1      2880-1.37547E+00-7.67704E-01-1.03927E-01 3.00512E-02 1.57086E-02-1.47162E-01
 -1      2881-1.42510E+00-4.11781E-01 1.49826E-01-2.74014E-01 4.62983E-02-1.75253E-02
 -1      2882 3.36918E-01-7.84612E-02-1.13589E-02-2.61739E-01-2.13914E-01-1.05683E-01
 -1      2883-1.01606E+00-3.89147E-01 9.62179E-03-1.01460E-01 1.55683E-02 5.14508E-02
 -1      2884-7.90833E-01-3.07307E-01-3.18149E-02-1.27115E-01 5.45723E-02-5.80475E-02
 -1      2885 4.34980E-01 2.00178E-01-7.94157E-02 4.80047E-01-6.25014E-02-8.97476E-02
 -1      2886-3.03676E-01-4.22164E-01 9.22607E-02 2.50822E-01-2.26039E-01 4.72100E-01
 -1      2887 1.18131E+00 4.92227E-01 2.67039E-01-4.01664E-01-1.96682E-01 7.69039E-03
 -1      2888 1.66015E-01 3.49974E-02-2.04017E-02-1.07065E-01-7.06840E-02 1.09867E-01
 -1      2889-7.82064E-01-4.38323E-01-5.09662E-01-9.25994E-02 5.02523E-02-1.88766E-02
 -1      2890 7.34845E-02 3.00186E-01 1.36255E-01-3.11207E-01 5.72799E-02 1.98158E-01
 -1      2891-5.59668E-01-2.04045E-01 9.62880E-02-3.62261E-01 8.82842E-02-5.54772E-01
 -1      2892 2.29169E+00 7.80397E-01-3.31473E-01-8.67103E-02-9.40909E-02-3.37522E-02
 -1      2893-3.33301E-01-9.32457E-02 1.14165E-03 8.70294E-02-2.67388E-01-1.49114E-02
 -1      2894 9.65795E-01 5.78042E-01 1.48811E-01 2.49684E-01-6.74569E-02-5.40886E-02
 -1      2895 5.34477E-01 3.35387E-01 1.49306E-01-2.68746E-01-1.17259E-01-6.07442E-02
 -1      2896 4.72628E-01 3.36832E-01 1.39870E-01-4.09147E-01 1.07281E-01-1.00765E-01
 -1      2897 9.47675E-01 2.51110E-01 2.10193E-01 2.68221E-01 7.33595E-02-6.06638E-02
 -1      2898-1.96481E-01-3.24886E-01-7.65747E-03-4.68367E-02-9.38258E-02-4.58540E-02
 -1      2899 9.50376E-02 1.68684E-01 3.10371E-01-4.14708E-01 5.14826E-02-5.16118E-02
 -1      2900 5.62157E-01 1.84677E-01 5.15227E-02 3.38352E-01-2.78582E-02-6.89676E-02
 -1      2901 1.08280E+00 2.06542E-01 6.87691E-02-9.32023E-02-5.20942E-01 8.91302E-01
 -1      2902-2.98883E-01-1.29447E-01-1.15935E-01 5.13840E-02-2.74301E-01 8.04092E-02
 -1      2903 3.43968E-01 1.01295E-01-8.13355E-03-1.15928E-01-1.61416E-02 2.36312E-02
 -1      2904 7.53860E-01 5.82543E-01 8.68242E-02 4.05540E-02-9.29264E-02-3.15372E-01
 -1      2905-2.06442E-01-2.29013E-02 1.75769E-02 1.29017E-01-1.95066E-01 2.23727E-01
 -1      2906 1.57249E+00 5.75141E-01 8.45704E-02 1.10400E-01 7.07847E-02-1.55466E-02
 -1      2907 2.72392E-01 1.70875E-01 9.82977E-02-2.42862E-01-1.47557E-03 5.18927E-02
 -1      2908 1.42863E+00 5.01618E-01 1.30811E-01 2.77474E-02-7.97703E-02-4.88480E-02
 -1      2909 1.61518E+00 5.02672E-01 2.43214E-01 2.16608E-01-9.24282E-02 1.06155E-02
 -1      2910 7.59797E-01 5.80876E-01 3.56450E-01 2.55856E-01-1.64076E-02-5.07817E-01
 -1      2911 8.26084E-01 2.84700E-01-2.75897E-01-1.51442E-01 1.06040E-01-2.54479E-01
 -1      2912-1.30988E+00-3.07259E-01 2.93703E-01 2.20789E-01-1.86386E-01-2.22788E-01
 -1      2913-8.80017E-01-4.72789E-01-2.26083E-01-1.12670E-01-3.89812E-02-5.38950E-01
 -1      2914 1.23102E-01-5.41327E-02-2.47807E-01 6.57434E-01-1.47538E-02-3.15640E-01
 -1      2915 2.63815E-01 1.15170E-01 1.72432E-02-3.33289E-01-2.12156E-01-9.24459E-01
 -1      2916 1.24767E+00 5.92875E-01 3.35472E-02-2.96059E-01-4.22348E-01-7.08150E-02
 -1      2917 6.00723E-01 4.29980E-01 1.45083E-01-1.86996E-01 1.13749E-01-3.52385E-01
 -1      2918-1.77463E+00-7.16616E-01 3.91555E-01-4.56702E-01 3.03861E-01-2.25003E-01
 -1      2919-5.74148E-01-3.22609E-01-1.24211E-01 3.32837E-01-5.33095E-02-4.34566E-01
 -1      2920 1.84343E-01 3.37330E-01 1.32470E-01-7.74740E-01-1.50709E-01-5.72085E-01
 -1      2921-1.94536E+00-8.03034E-01 2.13484E-01-2.23943E-01 1.67219E-01-3.11807E-01
 -1      2922 1.64173E-02 1.35143E-02 1.42561E-02 1.46355E-01-1.75128E-02-4.26937E-01
 -1      2923 2.81364E+00 1.36288E+00 3.74255E-01 2.79780E-01 2.09240E-02-2.19571E-01
 -1      2924 1.05168E-01 6.45405E-03-1.52542E-02-1.52539E-01-9.81999E-02-4.15931E-01
 -1      2925 4.47997E-01 2.82187E-01 2.10646E-01 1.80169E-01 2.92404E-03-4.77096E-01
 -1      2926-4.46168E-01-2.30653E-01 6.45755E-02-1.40752E-01 6.66545E-02-4.28821E-01
 -1      2927 1.52916E+00 7.35462E-01-1.69624E-02 5.72246E-01 1.19917E-03-5.23473E-01
 -1      2928-3.25589E+00-1.67357E+00-3.32800E-01-1.12452E-01 1.76671E-01-2.23795E-01
 -1      2929-9.67731E-01-6.50773E-01-4.04583E-01 1.39488E-01-4.59637E-02-4.59887E-01
 -1      2930-8.48874E-01-7.05976E-01-3.64550E-01-3.48090E-02-5.51399E-02-4.75891E-01
 -1      2931 9.97706E-01 3.82366E-01-5.41088E-03 1.44953E-01-3.64152E-02-4.66355E-01
 -1      2932-5.86408E-02-1.84183E-01-4.76587E-02 2.10789E-01-4.57953E-02-4.79006E-01
 -1      2933-1.08587E+00-3.13241E-01 2.52780E-01 1.54571E-01-3.69863E-01 1.00126E-01
 -1      2934 4.64212E-01 2.96253E-01 1.09203E-01-3.14141E-01 7.73492E-02-4.23750E-01
 -1      2935-3.48255E-01-2.81344E-01-1.10650E-02-3.34523E-01 2.48993E-02-3.75092E-01
 -1      2936 1.50707E+00 6.34355E-01-3.55002E-01 2.79362E-01 1.50617E-01-3.10385E-01
 -1      2937-2.04703E+00-4.75996E-01 6.94930E-02-1.49038E-01 1.79951E-01-1.24581E-01
 -1      2938-1.09956E-01-8.04708E-02-1.01870E-01 2.65344E-01-9.44305E-02-3.57161E-01
 -1      2939 1.71666E+00 1.18382E+00-3.02278E-04-2.75981E-01-3.75221E-02-2.80934E-01
 -1      2940-5.43138E-01-2.49514E-01-1.40574E-01 9.96558E-02 7.07951E-02-3.89166E-01
 -1      2941 1.08677E+00 4.75820E-01-3.37089E-01 2.15382E-01 5.99409E-02-8.26999E-02
 -1      2942-1.28795E+00-3.84667E-01 1.12721E-01 1.30975E-01-1.47686E-01-4.37145E-01
 -1      2943-5.32781E-01-5.28197E-01-1.60938E-01-6.90952E-01 1.44321E-01-7.07303E-01
 -1      2944 3.36573E-01 2.63849E-01 1.91253E-01 1.89588E-01-5.92137E-02-5.16407E-01
 -1      2945 8.29349E-01 6.99820E-01 3.57319E-01 2.56224E-01 2.14667E-03-3.77834E-01
 -1      2946-1.04656E+00-7.76697E-01-4.07559E-01 3.60686E-02 1.05814E-02-3.81789E-01
 -1      2947 2.92240E+00 1.22551E+00-7.68543E-02-1.82666E-01-2.60974E-02-5.97431E-02
 -1      2948-1.13309E+00-4.72569E-01 1.75225E-01 4.71681E-01-2.16375E-01-2.14376E-01
 -1      2949 1.19938E+00 7.54581E-01 1.19807E-01 1.09151E-01 7.33463E-03-3.40611E-01
 -1      2950-8.53587E-02-2.51351E-02-3.30075E-03-3.61315E-01 2.81284E-02-4.71124E-01
 -1      2951-1.93994E+00-9.16633E-01 3.87363E-01-3.81517E-01 1.67290E-01-1.88980E-01
 -1      2952 2.56713E+00 1.01473E+00-4.52911E-02-4.33747E-01-4.54839E-01 1.07613E-01
 -1      2953 8.93519E-01 7.26794E-01 1.13315E-01-3.58488E-01 9.25241E-02-4.24362E-01
 -1      2954 5.16085E-01 1.53211E-01-1.87743E-01-3.14543E-01-3.38855E-01-3.32898E-01
 -1      2955 1.52111E+00 7.59228E-01-1.82300E-01-1.74211E-01-3.12858E-01-1.94990E-01
 -1      2956-1.15679E+00-3.51056E-01-1.80231E-02-3.96879E-01 4.07171E-01-9.03905E-02
 -1      2957 4.63090E-01 5.08069E-02-7.76605E-02 6.76964E-01 9.87146E-02-4.64552E-01
 -1      2958 9.12180E-01 5.54815E-01-2.80210E-02-6.94593E-01-4.83373E-02-6.02121E-01
 -1      2959-2.68539E+00-1.36232E+00 1.38778E-01-2.68030E-01 2.63875E-01-1.50158E-01
 -1      2960 5.77643E-01 3.51499E-01 3.03500E-03 6.90682E-01 9.48826E-02-3.20619E-01
 -1      2961-9.84796E-01-7.55257E-01-1.27863E-01-3.47979E-01-3.12860E-04-3.70773E-01
 -1      2962-1.42179E+00-1.08743E+00-5.32501E-01-4.72479E-02-1.44149E-02-4.36128E-01
 -1      2963 1.86676E+00 9.07833E-01-2.36731E-01 1.27621E-01 3.53575E-01-1.77616E-01
 -1      2964 1.74392E+00 7.03735E-01 1.42508E-01 1.96168E-01 2.57241E-01 9.67126E-02
 -1      2965-1.09037E+00-5.70553E-01-1.63173E-01 2.46417E-01 2.62342E-03-3.64158E-01
 -1      2966 1.57273E+00 8.20034E-01 2.00885E-01-5.83708E-01-1.48184E-01-5.58267E-01
 -1      2967-1.07814E+00-4.29182E-01 3.17638E-01-4.39001E-01 3.13198E-01-2.29802E-01
 -1      2968-1.49247E+00-7.38343E-01-2.25990E-01-1.76860E-02-2.38269E-01 1.34131E-01
 -1      2969-1.98015E+00-1.04966E+00 3.44547E-01 3.35035E-01-2.58296E-01-9.01094E-02
 -1      2970 3.64927E+00 1.39548E+00-4.58488E-02 2.84912E-01-1.48663E-02 2.35983E-01
 -1      2971-1.67333E+00-1.22741E+00-2.25053E-01-3.10272E-01-6.70940E-02-5.16174E-01
 -1      2972 2.61086E+00 1.63394E+00-1.74822E-01 8.67618E-02-2.40611E-02-5.03661E-01
 -1      2973-5.05241E-01-2.06370E-01 1.44847E-01 4.81554E-01-4.69364E-01-3.55965E-01
 -1      2974 5.14057E+00 3.30751E+00 1.21514E+00 1.26071E-01-2.28541E-02-1.31070E+00
 -1      2975-1.79720E+00-1.40090E+00-2.93846E-01 1.21320E-02-5.55007E-02-1.84004E-01
 -1      2976 1.54230E+00 8.95276E-01-1.88807E-01 3.98750E-01-4.14744E-03-5.02041E-01
 -1      2977 1.04111E+00 7.87844E-01 1.86487E-01-3.74241E-02-1.19314E-01-3.85797E-01
 -1      2978-4.37837E-01-2.09326E-01-2.35056E-01 8.99880E-02 1.84679E-01-3.51839E-01
 -1      2979 2.90642E+00 2.02649E+00 3.16772E-01-1.10768E-01-2.32231E-01-3.62975E-01
 -1      2980-6.35339E-01-5.46824E-01-3.00129E-01 7.32732E-01-7.43065E-02-7.95273E-01
 -1      2981-2.50067E+00-1.70196E+00-7.80052E-01 4.99391E-01 1.17048E-01-8.21378E-01
 -1      2982 9.56117E-01 4.68381E-01 2.52299E-01-9.03913E-01 9.13578E-04-9.95982E-01
 -1      2983-2.13080E-01-7.17568E-02 1.63779E-01 1.09405E-01 6.44220E-03-2.89972E-01
 -1      2984-2.43876E+00-1.19607E+00-7.41493E-01-6.23707E-01 1.09124E-01-8.54716E-01
 -1      2985-1.84905E-01-3.39486E-02 1.79404E-01-1.28374E-01-1.79762E-02-2.89444E-01
 -1      2986 1.05556E+00 1.08109E-01-1.37569E-01 5.83965E-01 1.50573E-01-3.31068E-01
 -1      2987-3.25352E+00-1.72638E+00-9.78478E-01-3.12037E-01-1.29276E-01-8.47236E-01
 -1      2988-4.00048E-01-1.49974E-01-6.55990E-02 5.45816E-02 1.10154E-01-4.73430E-01
 -1      2989-4.39165E-01-1.90742E-01-5.17336E-01 2.59287E-02 7.18199E-02-6.80880E-01
 -1      2990 5.52011E-01 2.77555E-01 3.91187E-01 6.87141E-02-1.14944E-01-6.38026E-01
 -1      2991-2.05365E+00-8.62357E-01 5.51128E-01 4.33066E-01-2.49643E-01-3.38032E-01
 -1      2992 3.85441E+00 2.48669E+00 1.16428E+00 4.40529E-01 1.12715E-01-8.92491E-01
 -1      2993 1.04310E+00 4.91629E-01 8.36831E-02 1.11077E+00 4.83192E-03-8.77929E-01
 -1      2994 2.89749E-01 2.27321E-01 2.74221E-01-1.45003E-01 1.79053E-01-2.53029E-01
 -1      2995 5.03153E-01 1.91491E-01 1.70404E-01 5.07492E-05-3.97078E-03-5.16156E-01
 -1      2996-3.93419E+00-2.41873E+00-5.11824E-01-1.42058E-01-9.08416E-02-4.63294E-01
 -1      2997 4.48617E-01 1.67937E-01 2.18778E-01-7.44853E-02-2.82052E-01-4.82630E-01
 -1      2998 3.59895E-01 1.75868E-01 7.65388E-01 4.88708E-02-1.42971E-01-5.35918E-01
 -1      2999-2.61562E+00-1.55004E+00-7.61592E-01 5.35724E-02 3.63763E-02-4.97308E-01
 -1      3000 1.72151E+00 9.69066E-01 4.40645E-01-4.85757E-01 1.03438E-01-3.35492E-01
 -1      3001-1.72693E+00-9.79733E-01-2.92766E-01 3.86366E-01-1.54900E-01-1.91164E-01
 -1      3002-1.09973E-01-1.54216E-01-3.90981E-01-2.03563E-01-9.23702E-02-2.12096E-01
 -1      3003-4.71743E-01-2.23621E-01-2.57727E-01-1.15091E-01-1.90318E-01-3.64124E-01
 -1      3004 4.08440E-01 2.23725E-01 1.40842E-01 1.28256E-01-2.25273E-01-3.83637E-01
 -1      3005-1.64372E+00-9.26168E-01-1.53523E-01 3.60765E-01-8.21057E-02-2.12607E-01
 -1      3006 2.30731E+00 1.33432E+00 7.74826E-01 5.64948E-01-2.31280E-01-4.86723E-01
 -1      3007-2.60816E-01-1.89114E-01-7.20708E-01-5.32126E-02 1.56689E-01-4.32264E-01
 -1      3008-1.87608E+00-8.91813E-01-4.19711E-02-1.16488E-02 1.33914E-01 5.54891E-02
 -1      3009-9.41053E-01-7.69524E-01-4.44602E-01-5.61242E-01-6.81053E-02-4.86827E-01
 -1      3010-2.56090E-01-7.09477E-02-3.39932E-01 9.08289E-02 1.30292E-01-3.90127E-01
 -1      3011 6.76791E+00 3.94129E+00 1.14274E+00-2.14565E-01-1.01732E-02-1.24218E+00
 -1      3012 4.67882E-01 2.54178E-01 2.91646E-01-1.13949E-01 2.26774E-01-3.81069E-01
 -1      3013-3.30242E+00-2.02416E+00-8.24486E-01-4.90650E-02-1.28823E-02-9.33497E-01
 -1      3014 2.72568E-01 2.79686E-01 1.06222E+00 4.14706E-02-1.07675E-02-7.05712E-01
 -1      3015-3.33382E+00-2.51275E+00-4.31479E-01 5.53951E-02-1.07596E-01-6.81548E-01
 -1      3016-2.13419E-01-6.54620E-02-3.56902E-01-8.99803E-02-1.49171E-01-3.65037E-01
 -1      3017 1.65933E-01 2.96589E-02-1.71252E-01-1.19225E-01-8.82114E-03-2.51815E-01
 -1      3018-2.69747E-01-1.94903E-01-3.54348E-01 1.85871E-01 1.90157E-01-2.64431E-01
 -1      3019-2.29730E-02-3.74972E-03-3.26574E-01 1.55796E-01 9.11261E-02-2.66805E-01
 -1      3020-3.64376E-01-2.14107E-01-8.61996E-01-2.68288E-02 1.02070E-01-6.13114E-01
 -1      3021-5.55054E-01-1.72797E-01-1.94036E-01-4.86898E-02 1.21031E-02-6.22050E-01
 -1      3022-3.45989E-03 1.39094E-02 6.23484E-02-1.62248E-01 4.27123E-02-3.17540E-01
 -1      3023 3.76200E+00 2.15201E+00 3.22944E-01-4.03245E-01-1.79508E-01-5.59828E-01
 -1      3024-3.26669E-01-1.82996E-01-5.72737E-01-7.60852E-05-1.48998E-01-4.51396E-01
 -1      3025-5.75480E-01-4.87162E-01-9.02541E-01 1.57069E-01 2.81826E-01-5.44289E-01
 -1      3026 2.11036E+00 9.18517E-01 6.86178E-02-8.51916E-02-2.46651E-01 8.06505E-02
 -1      3027-3.48327E-01-2.35181E-01-8.10147E-01-4.68875E-02-8.90946E-02-5.95028E-01
 -1      3028 2.40261E+00 1.16336E+00 5.14187E-01-6.83952E-01-1.50523E-01-7.61351E-01
 -1      3029-2.96950E+00-1.46675E+00-1.08398E+00 6.59334E-01-7.57919E-02-7.88336E-01
 -1      3030 3.62111E-01 2.16135E-01 8.12461E-01 2.88861E-02 2.72121E-01-5.17358E-01
 -1      3031 5.35767E-01 2.36159E-01 4.37417E-01 4.43332E-02-8.41283E-02-6.71807E-01
 -1      3032 1.19736E+00 9.58238E-01 1.10052E+00-4.86364E-02-1.19313E-01-7.04695E-01
 -1      3033 2.74687E+00 1.29268E+00 4.07694E-01 5.94332E-01 1.16509E-01-9.73506E-01
 -1      3034-5.07891E-01-3.04591E-01-3.59068E-01-7.13357E-02-4.89504E-02-6.37379E-01
 -1      3035 6.17354E-02 5.18427E-02 3.13869E-01-2.29101E-01 1.51569E-01-3.60780E-01
 -1      3036 4.54233E-01 1.79367E-01 7.69811E-02-1.41400E-02 9.27450E-02-4.66515E-01
 -1      3037-2.25507E-01-3.00765E-02 1.85498E-01 5.92412E-02 1.02779E-01-2.80272E-01
 -1      3038-1.03443E+00-6.32881E-01-1.23562E+00 8.03291E-02 2.30929E-01-5.93349E-01
 -1      3039-7.35218E-01-3.19154E-01-9.81535E-02-8.99943E-01 7.29548E-02-7.64700E-01
 -1      3040-2.63933E-01-2.21732E-01-3.29998E-01-1.88478E-01-2.02301E-01-2.57996E-01
 -1      3041-5.14086E-01-2.36826E-01-5.92986E-02-3.91161E-02-1.30501E-01-4.58862E-01
 -1      3042-7.65855E-01-2.37487E-01 1.78402E-01 2.20959E-01 3.02840E-02-2.97099E-01
 -1      3043-2.99689E+00-2.04272E+00-1.28904E+00 2.03773E-01-9.54389E-02-9.97045E-01
 -1      3044 2.05422E-01 3.34145E-02 2.17092E-01-6.34670E-02 8.52583E-02-3.08338E-01
 -1      3045-1.67128E-01-9.66856E-02-6.45244E-01-2.88235E-01-8.45192E-03-3.88026E-01
 -1      3046 3.79581E-01 5.80782E-03-2.67029E-01-1.00955E-01-4.86062E-02-2.17080E-01
 -1      3047-3.38350E-01-2.63536E-01-9.71639E-01 6.35014E-02-9.41622E-02-6.58720E-01
 -1      3048 8.49946E-01 6.82428E-01 1.01968E+00 5.83101E-02 9.77561E-02-8.30714E-01
 -1      3049 3.33678E-01 1.74215E-01 8.61155E-01-1.98901E-02-2.65292E-01-5.82978E-01
 -1      3050-4.98692E-01-1.26494E-01 2.57707E-01-1.99348E-01-1.64145E-02-3.24582E-01
 -1      3051-4.80489E-01-4.14750E-01-8.90977E-01-1.30137E-01-3.35860E-01-4.82154E-01
 -1      3052-6.55833E-01-4.61111E-01-6.69808E-01-3.80178E-02 2.46183E-01-6.93609E-01
 -1      3053-1.04387E+00-8.60342E-01-1.45249E+00 5.80693E-02 8.76721E-02-9.43024E-01
 -1      3054 4.64365E-02 3.12229E-02-5.60453E-02 1.32732E-01-1.30289E-02-2.78066E-01
 -1      3055 5.06994E-01 2.32024E-01 6.50585E-01 1.49392E-01-2.86303E-01-6.29074E-01
 -1      3056-7.55484E-01-4.19633E-01-3.94734E-01 5.84553E-02 1.38110E-01-3.49808E-01
 -1      3057 3.76390E-01 2.38790E-01 8.52079E-01 7.54211E-02 6.52443E-02-6.07493E-01
 -1      3058-1.08576E+00-7.70024E-01 8.64118E-02-8.70713E-01 2.48948E-01-3.93047E-01
 -1      3059 3.23501E-01 2.19231E-01 2.88196E-01 1.66728E-01-1.79982E-01-2.56990E-01
 -1      3060 6.23625E-02 2.61365E-01 6.01883E-01-2.66943E-01 3.07199E-01-3.14723E-01
 -1      3061-1.06229E+00-7.97855E-01-1.20111E+00-1.21633E-01-1.83574E-01-5.77560E-01
 -1      3062-4.05518E-01-1.45650E-01 2.51155E-02-9.98117E-02-1.12161E-01-3.59681E-01
 -1      3063-1.06011E+00-9.35278E-01-1.12442E+00 9.28515E-04-2.21157E-01-8.65077E-01
 -1      3064-9.20777E-01-6.79603E-01-1.27056E+00-1.88766E-01 5.13250E-02-8.99987E-01
 -1      3065 6.50641E-01 4.97222E-01 8.83177E-01-1.65903E-01 2.21611E-01-4.55165E-01
 -1      3066 5.82181E-01 2.66206E-01 5.34334E-01 1.76440E-02 1.65178E-02-7.14422E-01
 -1      3067 3.83089E-01 1.95303E-01 1.31134E-01-9.88771E-02 2.02677E-01-3.32198E-01
 -1      3068 9.36277E-01 6.21664E-01 9.69511E-01-7.22996E-02 2.83064E-01-6.35062E-01
 -1      3069 1.02380E+00 5.78927E-01 2.89867E-01-7.30032E-02 2.74077E-01-4.51337E-01
 -1      3070 7.35894E-01 4.75715E-01 8.39001E-01 5.29015E-02-2.92290E-01-6.33658E-01
 -1      3071 3.33121E-01 1.33078E-01 7.48251E-02 1.30114E-01-5.14795E-02-2.75353E-01
 -1      3072-8.30079E-01-6.18178E-01-5.21272E-01 6.32477E-02-1.37648E-01-4.77213E-01
 -1      3073-5.13106E-01-2.32809E-01-5.14255E-01-4.10077E-02-5.85296E-02-6.09400E-01
 -1      3074-7.62153E-01-4.29164E-01-2.26790E-01-4.82969E-02-9.68873E-02-2.58848E-01
 -1      3075-1.46297E+00-1.07157E+00-1.56864E+00-1.61666E-02 6.30371E-02-8.57184E-01
 -1      3076 1.16865E-01 1.80504E-01 4.49144E-01 1.58450E-01-9.91424E-02-1.65297E-01
 -1      3077 7.88515E-01 4.40473E-01 1.82353E-01 8.65384E-02-2.30937E-01-4.66349E-01
 -1      3078 2.32110E-01 3.76099E-02 2.65108E-01 8.04607E-02-8.67291E-02-3.31238E-01
 -1      3079 7.81907E-01 5.75467E-01 7.03164E-01 8.18295E-02 1.92862E-01-6.03528E-01
 -1      3080 1.86262E-01 2.03277E-01 5.28869E-01 2.30377E-01-2.05573E-01-2.91449E-01
 -1      3081-2.14636E-01-3.40129E-01-1.03556E+00 2.39536E-01 1.57531E-01-3.15933E-01
 -1      3082 1.40411E+00 1.14032E+00 1.46359E+00 1.78700E-02-5.16661E-02-7.78716E-01
 -1      3083 4.22745E-01 3.16916E-02-1.88449E-01 1.30038E-01 9.18283E-02-2.66634E-01
 -1      3084 6.35721E-01 4.77419E-01 1.01648E+00 1.46608E-01-2.25088E-01-4.50548E-01
 -1      3085-6.59100E-01-3.25639E-01-5.22572E-01 1.80690E-01 3.42388E-01-6.92745E-01
 -1      3086 1.89087E-01 4.14730E-01 4.80920E-01-3.61453E-02 6.16303E-02-1.57791E-01
 -1      3087-4.52407E-02-1.03829E-01-1.63652E-01 2.19866E-01-6.92928E-02-8.74570E-01
 -1      3088 8.13659E-02 5.06224E-02 2.28356E-02-4.59275E-02-2.25618E-01-4.19350E-01
 -1      3089 4.51567E-02 7.74038E-02-4.93107E-02-2.61984E-02-3.58735E-02-4.18417E-01
 -1      3090-5.04145E-02 5.41507E-02 4.14086E-01-1.27397E-01 1.65800E-01-3.20837E-01
 -1      3091-2.38847E-01-1.80471E-01-2.55706E-01 1.60669E-02 6.52327E-02-3.89315E-01
 -1      3092-1.92137E-01 2.57414E-01 6.58801E-01-2.46463E-01 4.98007E-01-1.02187E-01
 -1      3093 6.45185E-01 1.66121E-02-6.36980E-01-4.95756E-02-1.23171E-01 1.25023E-01
 -1      3094-6.70281E-02-1.34828E-01-3.67972E-01-1.86670E-01-3.55803E-01-5.71303E-01
 -1      3095 1.40128E+00 1.14918E+00 1.09790E+00-1.79967E-01 5.06916E-01-4.01706E-01
 -1      3096-4.48960E-01-5.01724E-01-1.61859E-01-6.83265E-02-3.61097E-02-3.58667E-01
 -1      3097-1.49361E+00-6.54085E-01-8.15048E-01-1.49744E-01 3.37422E-01-9.04673E-01
 -1      3098-2.77941E-01-1.81643E-01-2.15828E-01-8.97655E-02-1.58119E-01-2.57488E-01
 -1      3099-1.62095E-01-4.24562E-01-4.69793E-01-2.66383E-01-6.43158E-01-2.20844E-01
 -1      3100-1.49432E-02-2.57616E-01 1.45412E-01-3.15264E-01 2.24046E-01-5.64334E-01
 -1      3101 1.14053E-01 2.63053E-01 3.99138E-01 5.80360E-02-3.85728E-01-4.12863E-01
 -1      3102-2.89967E-01 5.42297E-01 6.03384E-01-8.32530E-02 3.01271E-01 5.52694E-02
 -1      3103 2.34004E+00 2.10621E+00 1.42667E+00-9.38457E-02 1.41880E-01-3.23856E-01
 -1      3104-8.08792E-01-6.41511E-01-5.29943E-01-2.22155E-02 3.08949E-02-3.01404E-01
 -1      3105 3.33700E-02 1.46760E-01 2.68853E-01-2.98894E-03-1.65343E-02-1.66845E-01
 -1      3106-1.22381E-01-4.03890E-01-6.03506E-01 3.63784E-02 1.18962E-01-3.24869E-01
 -1      3107-2.07861E-01 1.25284E-02-9.38568E-03 1.06728E-01-2.94362E-01-1.13589E+00
 -1      3108-3.74616E-03 7.57316E-03-3.37822E-03 6.31327E-02 4.34435E-02-3.74966E-01
 -1      3109-3.76291E-02-8.41121E-02-7.94713E-02 9.26606E-02 1.18755E-01-6.96794E-01
 -1      3110 5.08677E-01 1.90168E-01 1.29124E-01-3.47820E-01-1.36859E-01-9.83500E-01
 -1      3111-2.21651E-01 3.28318E-01 5.19269E-01 5.69260E-02-8.17221E-02-1.47064E-01
 -1      3112-6.66673E-01-2.66860E-01-2.13126E-01 5.87092E-01-2.75552E-01-1.23651E+00
 -1      3113-1.28824E-01-1.82107E-01-2.74851E-01 2.06724E-01 4.72148E-01-2.28702E-01
 -1      3114-1.96145E-02 1.80084E-01 3.43678E-01 9.93033E-03 3.97344E-01-3.50690E-01
 -1      3115 1.21156E+00 7.52443E-01 6.37952E-01-2.56172E-01-2.31162E-01-5.21880E-01
 -1      3116 1.97453E-01 3.35849E-01 4.81701E-01-1.40108E-01 1.58953E-01-2.58327E-01
 -1      3117-1.54804E+00-7.10444E-01-8.18820E-01 1.45642E-01-2.99530E-01-6.45712E-01
 -1      3118 7.44284E-02 3.84373E-01 5.76392E-01-1.66834E-01 1.45488E-01 1.10643E-01
 -1      3119-6.35073E-02 3.02877E-01 5.51439E-01-1.77384E-01-3.14104E-01-4.83472E-01
 -1      3120-2.27707E-01-9.10299E-02 1.51380E-01-6.04868E-02-2.55911E-01-2.45160E-01
 -1      3121 1.94123E-01 2.22690E-01 6.07763E-01 1.47945E-01-4.05556E-01-1.87010E-01
 -1      3122 3.32902E-02-5.88755E-01-3.11667E-01 5.54042E-02 1.83589E-01 1.64486E-01
 -1      3123 2.29219E-01-1.99071E-01-5.94962E-02 3.76401E-01 2.38052E-01-1.27794E+00
 -1      3124-2.18519E+00-1.96601E+00-1.14379E+00-3.89431E-03 1.12915E-01-3.08738E-01
 -1      3125 5.70701E-01 6.74456E-01 7.88614E-01 4.95490E-02-2.46717E-01-1.94288E-01
 -1      3126-2.04574E+00-1.92716E+00-1.39229E+00-1.06428E-03-3.19358E-01 1.91746E-01
 -1      3127 3.06494E-01 2.99118E-01 6.36040E-01 1.38340E-01-1.43458E-01-2.98625E-01
 -1      3128 7.83050E-02-3.49211E-02 9.12708E-02 2.24884E-01 2.04024E-01-3.93053E-01
 -1      3129-1.63431E-02 7.17617E-03-2.14421E-01 9.94189E-02-3.91001E-02-4.21818E-01
 -1      3130 2.70225E-02 1.74698E-01 3.21663E-01 6.50845E-02-9.87605E-02-2.99513E-01
 -1      3131 1.45041E-01 1.25070E-01 1.88230E-01 1.15407E-01-6.77403E-02-4.14173E-01
 -1      3132 5.07036E-02-2.09509E-01-3.95048E-01-7.34297E-02-1.66086E-01-3.04333E-01
 -1      3133-1.96004E-01 7.23041E-02 1.81818E-01-3.27963E-02 3.57705E-02-2.54561E-01
 -1      3134-9.76367E-02-3.85104E-01-6.26199E-01 7.24414E-02 4.18590E-02-5.12315E-01
 -1      3135-6.16842E-01-5.70713E-01-7.06916E-01 9.17793E-03-2.15475E-01-3.14757E-01
 -1      3136-4.95572E-01-2.52431E-01-2.83005E-01-3.12880E-01 7.80747E-02-7.63041E-01
 -1      3137 1.24883E+00 7.45576E-01 5.65924E-01 2.45853E-01 2.25527E-01-6.14895E-01
 -1      3138-1.62769E+00-1.13177E+00-7.93178E-01 6.31018E-02 2.01520E-01-3.95293E-01
 -1      3139-4.88698E-01-5.69216E-01-4.62152E-01-1.58707E-02-2.20275E-01-3.71065E-01
 -1      3140 1.11135E+00 8.48285E-01 1.04157E+00-5.22570E-03-1.64164E-01-7.28131E-01
 -1      3141 2.46548E-01 8.97912E-01 6.72156E-01 9.23299E-02-2.23995E-01 1.14768E-01
 -1      3142 3.85610E+00 3.07920E+00 1.40964E+00 4.09689E-02-1.18520E-01-4.21862E-01
 -1      3143 2.33007E-01-2.29574E-01-4.80021E-01 6.09721E-02-4.61235E-02 1.69115E-01
 -1      3144-1.34303E+00-1.24409E+00-8.63421E-01-3.75154E-02-4.88129E-02-2.52174E-01
 -1      3145-1.88846E+00-2.39845E+00-1.22973E+00 3.20803E-02 2.86299E-01-1.20791E-01
 -1      3146 6.97382E-01 2.88627E-01 2.75225E-01 5.27460E-01 1.64093E-01-7.89510E-01
 -1      3147-1.65725E+00-1.36484E+00-8.90346E-01-4.86516E-01-7.95251E-01-5.95921E-01
 -1      3148-1.72495E-01-3.07180E-01-2.48968E-01-3.20520E-02 1.45289E-01-2.44694E-01
 -1      3149 1.88666E+00 1.10774E+00 1.02458E+00 3.04902E-01-5.57902E-01-6.98281E-01
 -1      3150 1.72523E+00 1.01878E+00 1.07535E+00 9.76528E-02-2.72642E-01-5.42113E-01
 -1      3151 1.91680E-01 5.11818E-01 6.49043E-01-7.48020E-02 2.61692E-02-4.95409E-02
 -1      3152 4.83342E-02-2.01279E-01-4.90335E-01 1.15221E-02 2.52775E-01-3.81524E-01
 -1      3153-1.09773E-01-3.02753E-02 2.84095E-01-1.81238E-01 1.73097E-01-4.09084E-01
 -1      3154 3.04757E-01-1.77563E-01-3.06384E-01-1.64725E-01-1.97640E-01 2.32107E-01
 -3
 9999
